# x y z rho theta phi s1 s2 stress_xx np intf bulk
-0.710255 -10.747524 -14.360201 17.950741 1.504807 2.498055 -0.002294 -0.001076 -418618.000000 1 0 0
2.188245 -13.410624 -12.946301 18.768057 -1.409049 2.332016 -0.002931 0.006013 -97963.800000 1 0 0
2.151745 -11.155324 -14.683001 18.565069 -1.380247 2.483065 0.001827 0.004488 923660.000000 1 0 0
-5.541055 -6.302424 -16.532601 18.540516 0.849596 2.671886 0.013300 -0.005499 -544454.000000 1 0 0
4.471245 -14.142124 -11.334901 18.667396 -1.264576 2.223332 -0.003346 0.000401 1912800.000000 1 0 0
14.073645 -10.469124 -7.911101 19.242025 -0.639574 1.994497 0.038199 -0.011053 -126552.000000 1 0 0
7.119245 10.808276 -10.774701 16.840329 0.988340 2.265054 0.015404 -0.013188 -311324.000000 1 0 0
5.758945 -4.239824 -12.623501 14.508423 -0.634620 2.626163 -0.002318 0.002927 2382880.000000 1 0 0
13.655145 0.475076 -10.028201 16.948554 0.034777 2.203943 0.023077 -0.003636 480593.000000 1 0 0
14.220645 5.010676 -10.306701 18.263672 0.338769 2.170415 0.019031 -0.008722 -1950260.000000 1 0 0
4.143845 4.347276 -13.398101 14.682622 0.809352 2.720185 0.005201 0.004068 2622880.000000 1 0 0
10.303445 -4.906924 -13.687701 17.821112 -0.444460 2.446604 0.023653 -0.007863 -981686.000000 1 0 0
2.655245 -7.522524 -12.047001 14.448838 -1.231476 2.556697 -0.001642 0.002188 1238810.000000 1 0 0
-5.464955 -2.083424 -15.122901 16.214454 0.364224 2.772570 0.003419 -0.001233 545951.000000 1 0 0
10.691045 0.084176 -9.671301 14.416643 0.007873 2.306141 0.011194 -0.002130 799975.000000 1 0 0
-1.588655 -9.570524 -16.965201 19.543203 1.406302 2.622132 0.016766 -0.009824 697202.000000 1 0 0
8.812645 1.644276 -18.126501 20.222176 0.184460 2.682303 0.028500 0.001250 51266.800000 1 0 0
16.439945 -5.915724 -8.940001 19.626288 -0.345413 2.043743 0.058584 -0.006389 -2236010.000000 1 0 0
10.056245 7.581876 -9.884001 16.009572 0.646022 2.236205 0.009352 -0.005249 -199247.000000 1 0 0
13.854545 -2.301024 -10.688301 17.648878 -0.164582 2.221326 0.041330 -0.002500 -1266980.000000 1 0 0
7.282145 -1.912524 -13.786101 15.708086 -0.256832 2.641720 0.005185 -0.000461 398509.000000 1 0 0
-2.793455 6.782976 -13.889501 15.707654 -1.180131 2.655683 0.005174 0.000147 732872.000000 1 0 0
11.354545 1.731876 -13.905401 18.035666 0.151361 2.451198 0.018728 -0.009691 -402678.000000 1 0 0
-2.275055 10.837776 -12.957401 17.044868 -1.363882 2.434408 0.010888 -0.003529 229117.000000 1 0 0
2.932545 -1.022524 -15.374301 15.684850 -0.335500 2.942269 0.008788 0.000521 11098.500000 1 0 0
-8.950955 0.379476 -15.242101 17.680081 -0.042370 2.610207 0.009917 0.000715 -1251090.000000 1 0 0
2.447245 -1.840424 -18.101401 18.358564 -0.644805 2.974018 0.020582 -0.003393 1021370.000000 1 0 0
1.070745 7.946376 -13.187201 15.433524 1.436857 2.595291 0.008209 -0.001858 646813.000000 1 0 0
9.339645 -9.081324 -9.827701 16.318183 -0.771376 2.217119 0.023850 -0.000561 -1006740.000000 1 0 0
4.031345 7.352276 -13.474001 15.869985 1.069250 2.584932 0.002439 0.000744 1256300.000000 1 0 0
-2.710155 9.273476 -15.496501 18.261540 -1.286466 2.584105 0.014901 0.000170 1100430.000000 1 0 0
5.527745 -7.673124 -15.275901 17.966245 -0.946508 2.587267 0.001953 0.003778 1521130.000000 1 0 0
4.282845 7.388176 -16.363701 18.458023 1.045445 2.660600 0.015318 -0.000649 390792.000000 1 0 0
-0.221455 5.205876 -13.518601 14.488022 -1.528282 2.773702 0.010525 -0.005374 1840470.000000 1 0 0
8.857745 4.194176 -16.682901 19.348642 0.442227 2.610444 0.016706 -0.003098 -962505.000000 1 0 0
5.411345 0.294276 -14.390201 15.376838 0.054328 2.781421 0.003698 0.002432 298280.000000 1 0 0
6.320745 7.966776 -11.559101 15.395914 0.900100 2.420054 0.000456 -0.002977 -1102600.000000 1 0 0
2.750345 -8.337124 -15.086901 17.455275 -1.252147 2.614588 0.001218 0.000860 1255260.000000 1 0 0
4.159945 11.404776 -13.767401 18.355255 1.221038 2.418937 0.019587 -0.014469 722151.000000 1 0 0
0.668845 -4.513424 -13.730101 14.468380 -1.423677 2.820759 0.003542 -0.001187 2270790.000000 1 0 0
8.547145 -0.127424 -11.717201 14.503886 -0.014907 2.511319 0.000168 0.000925 1086260.000000 1 0 0
-0.889155 -5.188624 -16.204301 17.037951 1.401079 2.827480 0.007340 -0.010730 -248919.000000 1 0 0
4.440445 0.905576 -11.749601 12.593282 0.201179 2.773473 0.004181 0.003099 835240.000000 1 0 0
-2.932655 -7.261324 -15.636001 17.487476 1.186955 2.677271 0.007557 -0.005841 1993730.000000 1 0 0
11.392845 -3.696124 -11.325301 16.483952 -0.313712 2.328218 0.027640 -0.004191 1053980.000000 1 0 0
6.497945 -7.085924 -12.580801 15.833829 -0.828656 2.489066 0.001579 0.004955 -485495.000000 1 0 0
3.473645 -3.998424 -14.696401 15.621709 -0.855515 2.795684 0.005816 0.000849 2827320.000000 1 0 0
-0.506455 -1.713724 -18.310901 18.397892 1.283446 3.044309 0.024154 -0.009147 291253.000000 1 0 0
14.909845 2.865376 -8.433801 17.367868 0.189865 2.077843 0.013822 -0.000934 -483731.000000 1 0 0
7.015045 4.271776 -14.399701 16.577404 0.546971 2.623235 0.005594 0.003201 3227180.000000 1 0 0
10.179945 -9.729124 -13.994601 19.852858 -0.762758 2.353101 0.035842 -0.002574 -1460130.000000 1 0 0
8.992045 -3.214024 -15.657001 18.339261 -0.343278 2.593927 0.025336 -0.009146 -1120780.000000 1 0 0
-5.253255 -2.223324 -18.028901 18.909816 0.400369 2.835157 0.002143 0.005187 -845763.000000 1 0 0
5.100645 -9.131124 -11.134601 15.276562 -1.061375 2.387464 -0.004336 0.006129 982062.000000 1 0 0
-2.287355 4.053276 -17.070301 17.693395 -1.057023 2.875417 0.011906 0.005817 1659140.000000 1 0 0
9.505245 9.314676 -14.384301 19.596454 0.775273 2.395027 0.025098 -0.013519 -866687.000000 1 0 0
9.839145 10.021276 -11.522401 18.165915 0.794568 2.257882 0.012764 -0.011206 -609358.000000 1 0 0
12.028445 -5.918124 -9.659901 16.523358 -0.457236 2.195209 0.033849 -0.004188 1058700.000000 1 0 0
8.208945 6.890976 -13.694601 17.390067 0.698336 2.477531 0.006399 -0.000312 -51144.000000 1 0 0
4.080345 -4.267324 -17.593101 18.557383 -0.807793 2.817807 0.014045 -0.005499 -776105.000000 1 0 0
9.410945 -7.454624 -12.359501 17.230629 -0.669919 2.370713 0.019865 -0.001453 755008.000000 1 0 0
11.943145 -8.596924 -8.820901 17.156751 -0.623905 2.110796 0.031550 -0.005342 392785.000000 1 0 0
-2.839455 -2.548424 -13.782701 14.301043 0.731435 2.871533 0.001698 -0.003423 -2659530.000000 1 0 0
-0.272655 6.201876 -17.580401 18.644252 -1.526861 2.802147 0.022398 0.002254 954868.000000 1 0 0
1.115645 -8.516224 -17.545301 19.534798 -1.440536 2.686354 0.012277 -0.008331 334769.000000 1 0 0
0.075945 8.689276 -15.983401 18.192812 1.562057 2.643627 0.018819 0.000016 -662478.000000 1 0 0
1.814945 3.474376 -14.945701 15.451191 1.089405 2.885096 0.013597 -0.000928 2803350.000000 1 0 0
-1.801655 -0.549824 -15.803301 15.915169 0.296199 3.022957 0.010889 -0.000747 868148.000000 1 0 0
14.170445 -4.260424 -8.447301 17.038474 -0.292058 2.089527 0.042063 -0.007378 1082500.000000 1 0 0
0.618945 0.681776 -14.679001 14.707855 0.833666 3.078944 0.007808 -0.001195 567374.000000 1 0 0
8.900245 2.662976 -12.539901 15.606246 0.290725 2.503978 0.001178 0.002053 1541680.000000 1 0 0
6.109845 0.855976 -17.160301 18.235647 0.139192 2.796460 0.019305 0.002803 781611.000000 1 0 0
15.351845 1.455276 -12.347701 19.755067 0.094512 2.245979 0.033530 -0.011455 -1268780.000000 1 0 0
8.861045 -11.291324 -11.856601 18.616957 -0.905414 2.261229 0.029383 0.001756 -431335.000000 1 0 0
-4.431655 0.703976 -15.081701 15.735084 -0.157535 2.852406 0.003853 -0.001447 806837.000000 1 0 0
2.506045 5.200676 -17.193501 18.136807 1.121758 2.817655 0.022905 -0.001076 1208630.000000 1 0 0
5.949645 -11.770924 -12.290601 18.028083 -1.102796 2.320945 0.009057 0.002343 1592160.000000 1 0 0
12.800145 7.139876 -8.685601 17.037054 0.508809 2.105756 0.014701 -0.006947 572182.000000 1 0 0
-4.879455 3.614376 -15.592601 16.733261 -0.637544 2.770227 0.001639 0.002623 1550010.000000 1 0 0
-0.494755 -4.523624 -19.099201 19.633834 1.461858 2.907692 0.025967 -0.014064 -443964.000000 1 0 0
9.772245 4.411676 -10.201701 14.799809 0.424059 2.331337 -0.000642 -0.000657 244026.000000 1 0 0
13.354245 3.562676 -12.798701 18.837072 0.260710 2.317798 0.018239 -0.012544 881687.000000 1 0 0
-6.122055 5.874176 -17.011301 19.009731 -0.764738 2.678944 0.005319 -0.000152 37644.600000 1 0 0
-10.052755 3.091776 -15.440401 18.682156 -0.298374 2.543620 0.016045 -0.002929 92590.200000 1 0 0
10.796245 13.185176 -8.201101 18.912055 0.884687 2.019329 0.032210 -0.016676 404832.000000 1 0 0
7.555045 13.369776 -12.250001 19.644138 1.056446 2.244130 0.028777 -0.014751 73269.000000 1 0 0
5.325445 15.153776 -11.228501 19.597871 1.232851 2.180891 0.030491 -0.013950 663380.000000 1 0 0
14.189545 9.376976 -9.922701 19.690883 0.583956 2.098932 0.049999 -0.013304 -2290870.000000 1 0 0
8.344145 -17.298324 -2.021101 19.311696 -1.121354 1.675645 0.027151 0.000754 -453339.000000 1 0 0
0.794545 -15.860424 0.014999 15.880320 -1.520742 1.569852 0.007235 -0.007958 2444220.000000 1 0 0
-9.168855 -11.735124 7.542399 16.693376 0.907552 1.101992 0.013288 -0.005049 -576740.000000 1 0 0
2.058045 -15.894424 -2.566501 16.231302 -1.442031 1.729583 0.011005 -0.005519 1642480.000000 1 0 0
-1.358355 -10.994324 -9.451101 14.561717 1.447869 2.277115 -0.005501 0.003212 1188660.000000 1 0 0
-4.657655 -12.726124 -13.001001 18.779617 1.219947 2.335458 0.011791 -0.008489 144767.000000 1 0 0
-8.003855 -17.875324 -1.954501 19.682707 1.149807 1.670261 0.012075 -0.015365 -1163270.000000 1 0 0
-11.390255 -7.006624 -8.926901 16.078565 0.551479 2.159406 0.026314 -0.010599 2201130.000000 1 0 0
-13.501755 -11.575924 -4.747301 18.407506 0.708754 1.831645 0.023854 -0.009016 -886542.000000 1 0 0
-5.843855 -13.469724 9.765999 17.634025 1.161453 0.983856 0.014164 -0.006306 1405920.000000 1 0 0
0.230445 -13.997824 -3.724301 14.486635 -1.554335 1.830801 0.004471 -0.002155 538203.000000 1 0 0
-14.795355 -11.637024 1.851899 18.914344 0.666475 1.472729 0.030367 -0.003255 1450380.000000 1 0 0
-4.030355 -16.571724 -7.531601 18.643787 1.332221 1.986653 0.001499 -0.003824 559083.000000 1 0 0
0.481545 -15.291624 -9.186401 17.845324 -1.539316 2.111546 -0.001005 0.004751 737792.000000 1 0 0
4.561145 -14.268224 -2.554001 15.195696 -1.261391 1.739672 0.007479 0.000950 320120.000000 1 0 0
-3.529455 -18.030424 -2.455101 18.535931 1.377491 1.703638 0.001647 -0.017464 1213130.000000 1 0 0
-0.838555 -13.401524 0.660199 13.443953 1.508306 1.521669 0.005719 -0.004234 4111940.000000 1 0 0
-8.379055 -11.323724 -10.703801 17.691994 0.933755 2.220572 0.033218 -0.010450 2379670.000000 1 0 0
-3.691455 -14.004424 -0.388401 14.487981 1.313067 1.597608 -0.000411 -0.003088 5052510.000000 1 0 0
-1.642755 -14.967124 -7.305801 16.735835 1.461476 2.022542 -0.002719 0.001510 620311.000000 1 0 0
-14.160555 -7.891724 -1.944601 16.327342 0.508433 1.690181 0.013464 -0.004604 2186110.000000 1 0 0
-10.712555 -7.322524 -11.784601 17.528691 0.599597 2.308112 0.034906 -0.008928 -69642.600000 1 0 0
-9.494055 -14.673124 6.731699 18.728412 0.996507 1.203131 0.003975 -0.003870 108825.000000 1 0 0
-2.260755 -14.419824 -12.275401 19.071649 1.415281 2.270050 0.002492 0.001942 460923.000000 1 0 0
2.300145 -17.718724 -4.814201 18.504604 -1.441704 1.833987 0.023767 -0.008635 729768.000000 1 0 0
-6.465755 -9.688924 -9.305401 14.908780 0.982331 2.244847 0.008018 -0.007843 1487270.000000 1 0 0
-10.876455 -15.555524 0.137299 18.981318 0.960606 1.563563 0.019589 -0.002430 1272730.000000 1 0 0
-12.643255 -11.030624 3.981999 17.244793 0.717385 1.337783 0.020954 -0.004393 2761200.000000 1 0 0
-16.988755 -8.947124 -1.720901 19.277716 0.484739 1.660184 0.025988 -0.006252 -1557470.000000 1 0 0
-1.432355 -19.272924 -4.074701 19.750960 1.496613 1.778592 0.020331 -0.010470 -1219250.000000 1 0 0
3.223145 -14.330824 -8.631701 17.037237 -1.349568 2.102076 -0.004546 0.003276 360547.000000 1 0 0
-4.331755 -8.092124 -13.114901 16.007723 1.079305 2.530961 0.008978 -0.005917 1051700.000000 1 0 0
5.598245 -16.593924 1.371399 17.566428 -1.245420 1.492647 0.025669 -0.004995 3563080.000000 1 0 0
-2.766655 -13.856424 -3.230001 14.494405 1.373722 1.795528 -0.004127 -0.004083 -308480.000000 1 0 0
-0.407055 -13.968924 3.655599 14.445066 1.541665 1.314945 0.009700 -0.000872 -2086130.000000 1 0 0
1.304845 -16.225124 7.010399 17.722950 -1.490548 1.164124 0.029028 -0.003113 1260070.000000 1 0 0
-5.400855 -10.475524 -14.654301 18.805701 1.094771 2.464261 0.019620 -0.010236 28246.300000 1 0 0
-0.301755 -17.242124 -5.899101 18.225841 1.553297 1.900399 0.015876 -0.007649 7666.000000 1 0 0
-6.479555 -13.376524 -1.358201 14.925171 1.119708 1.661923 -0.000307 -0.007744 1182990.000000 1 0 0
-1.635255 -17.634924 -0.207001 17.711788 1.478333 1.582484 0.005078 -0.010570 1789450.000000 1 0 0
-9.514755 -9.743024 -4.935201 14.484933 0.797251 1.918471 0.018322 -0.008719 2290670.000000 1 0 0
-0.745655 -16.631424 4.784699 17.322055 1.525992 1.290937 0.024282 -0.005410 3767260.000000 1 0 0
-6.813355 -9.911624 -6.381101 13.615453 0.968570 2.058577 0.010352 -0.008110 3837360.000000 1 0 0
-5.959955 -14.487524 -8.568001 17.855533 1.180514 2.071282 0.004405 -0.009289 -1079240.000000 1 0 0
-5.653555 -12.195324 -10.317801 16.945372 1.136704 2.225452 0.008023 -0.008007 1113420.000000 1 0 0
-10.451555 -12.222824 -8.829101 18.346265 0.863357 2.072874 0.045845 -0.019497 -391540.000000 1 0 0
4.098845 -17.205124 6.551799 18.861147 -1.336922 1.216031 0.041464 -0.006061 307246.000000 1 0 0
-6.600855 -14.341124 -4.177701 16.330717 1.139431 1.829491 0.007267 -0.012857 -1547540.000000 1 0 0
-2.777255 -12.204924 -7.129001 14.404720 1.347054 2.088524 -0.000979 -0.002163 1286030.000000 1 0 0
-7.063555 -12.882224 4.314499 15.312100 1.069245 1.285157 0.001185 -0.002823 2798450.000000 1 0 0
2.656145 -16.327924 2.376899 16.712446 -1.409534 1.428089 0.020676 -0.006512 2132520.000000 1 0 0
-6.214755 -12.022624 7.180399 15.320731 1.093703 1.083009 0.005051 -0.003568 2292080.000000 1 0 0
-11.218155 -12.921624 -1.054001 17.144279 0.855848 1.632313 0.021271 -0.000912 -854949.000000 1 0 0
-14.336155 -8.771624 4.600799 17.425099 0.549090 1.303595 0.021242 -0.006397 478942.000000 1 0 0
-8.016355 -15.630124 4.246699 18.072000 1.096899 1.333590 0.000566 0.005074 726773.000000 1 0 0
-16.403455 -9.197624 1.068399 18.836430 0.511031 1.514046 0.018437 -0.006424 -945459.000000 1 0 0
-6.624255 -17.081724 2.148499 18.446737 1.200853 1.454061 0.000168 0.003568 1115090.000000 1 0 0
-11.564955 -14.974424 -4.808301 19.521816 0.913167 1.819661 0.055261 -0.010868 -1333430.000000 1 0 0
-10.136155 -10.064224 -12.646701 19.077979 0.781837 2.295475 0.043689 -0.009730 -355420.000000 1 0 0
-4.348155 -16.073824 -4.567301 17.266572 1.306608 1.838499 -0.000368 -0.008474 -944375.000000 1 0 0
-11.832455 -8.292124 -0.030901 14.448781 0.611259 1.572935 0.002650 0.000108 1235030.000000 1 0 0
-9.646155 -11.241524 3.449799 15.209250 0.861629 1.341983 0.006639 0.001099 2323530.000000 1 0 0
-14.135055 -12.954824 -0.713701 19.186887 0.741858 1.608002 0.027266 0.004592 722251.000000 1 0 0
5.572145 -14.828524 -7.058101 17.342165 -1.211349 1.989954 0.002222 -0.007518 254284.000000 1 0 0
-7.460355 -10.562024 -1.328501 12.999160 0.955830 1.673174 0.001081 -0.003485 1493950.000000 1 0 0
-11.782555 -8.227724 -6.167201 15.638364 0.609582 1.976172 0.022675 -0.009081 1163520.000000 1 0 0
-14.371255 -6.518024 -9.336401 18.335376 0.425799 2.105053 0.035877 -0.015800 2273380.000000 1 0 0
-3.839655 -16.358924 1.360399 16.858470 1.340256 1.490013 -0.000145 -0.009244 886389.000000 1 0 0
-7.826555 -15.619524 -0.095601 17.470937 1.106289 1.576268 0.010186 -0.004775 1386010.000000 1 0 0
1.101145 -18.573424 3.617699 18.954481 -1.511580 1.378756 0.026236 -0.008309 756698.000000 1 0 0
-14.189655 -8.782724 -4.746501 17.349692 0.554239 1.847908 0.023968 -0.008857 -874527.000000 1 0 0
-3.279055 -14.487524 11.025999 18.499005 1.348210 0.932246 0.002914 -0.010192 2700.650000 1 0 0
-10.806755 -12.151824 -3.843901 16.710127 0.843918 1.802909 0.026971 -0.015310 136685.000000 1 0 0
-10.001955 -10.707824 0.489299 14.660696 0.819469 1.537415 0.005873 0.000027 2760380.000000 1 0 0
0.024045 -13.168224 -11.083401 17.211754 -1.568970 2.270438 -0.000728 0.000327 30706.000000 1 0 0
-5.798855 -12.546224 -6.354201 15.212177 1.137844 2.001714 0.000863 -0.009111 1519220.000000 1 0 0
1.802145 -15.888724 9.932499 18.824287 -1.457856 1.014973 0.025327 -0.001076 -48595.200000 1 0 0
-8.853155 -15.666424 -5.487201 18.812883 1.056431 1.866771 0.030908 -0.015931 -1827320.000000 1 0 0
-3.315255 -15.504324 5.799599 16.882249 1.360141 1.220121 0.006267 -0.000656 -255101.000000 1 0 0
-17.373555 -5.395724 -6.620101 19.359236 0.301127 1.919799 0.023659 -0.011177 529253.000000 1 0 0
18.867845 5.502276 -2.848801 19.859161 0.283753 1.714743 0.020782 0.006114 -1525530.000000 1 0 0
12.808145 -12.364424 -5.936601 18.766214 -0.767773 1.892671 0.030259 -0.003120 389089.000000 1 0 0
11.041445 -13.516424 -1.710801 17.536649 -0.885841 1.668507 0.029963 -0.000718 1886090.000000 1 0 0
18.597045 -2.805024 4.494199 19.336909 -0.149703 1.336236 0.041806 -0.011576 -1442870.000000 1 0 0
9.229745 -16.651324 4.871099 19.651523 -1.064662 1.320311 0.053135 -0.024227 -249392.000000 1 0 0
18.167745 -1.145224 6.837699 19.445632 -0.062953 1.211483 0.067111 -0.011709 -474036.000000 1 0 0
17.983145 -4.323724 -4.886301 19.130186 -0.235953 1.829082 0.054598 -0.010980 -920536.000000 1 0 0
5.221945 -11.751724 14.897899 19.680424 -1.152646 0.712101 0.002983 -0.001275 -2909150.000000 1 0 0
15.933745 -8.957224 -0.732501 18.293513 -0.512127 1.610849 0.047210 -0.011799 343230.000000 1 0 0
13.872745 -12.587824 -1.475201 18.790491 -0.736876 1.649385 0.055627 -0.005640 -98847.300000 1 0 0
10.958945 -1.834624 13.861199 17.765054 -0.165871 0.675730 0.024906 -0.010666 -315196.000000 1 0 0
16.988745 -6.230824 -1.321901 18.143540 -0.351529 1.643719 0.047432 -0.013882 -1511320.000000 1 0 0
17.761445 3.621376 -0.905001 18.149444 0.201133 1.620681 0.019882 0.004022 280157.000000 1 0 0
9.672345 -11.061424 9.484299 17.488890 -0.852294 0.997619 0.012191 -0.009936 -87158.000000 1 0 0
8.985245 -11.119224 4.217799 14.905086 -0.891147 1.283900 0.004913 -0.008097 -562042.000000 1 0 0
14.059045 -10.217624 6.823899 18.671426 -0.628464 1.196656 0.038803 -0.013164 -1157480.000000 1 0 0
16.304045 -0.615024 -4.644601 16.963857 -0.037704 1.848132 0.018484 0.002999 -30970.900000 1 0 0
15.829345 -0.604024 -1.654401 15.927022 -0.038140 1.674858 0.016191 0.001278 113265.000000 1 0 0
12.895445 -5.186824 -0.231501 13.901411 -0.382420 1.587450 0.010802 -0.009372 1644330.000000 1 0 0
14.338245 -7.498324 1.139099 16.220594 -0.481846 1.500513 0.036216 -0.009177 1586190.000000 1 0 0
15.436745 2.423776 3.771699 16.074622 0.155742 1.333951 0.016856 -0.007551 1896230.000000 1 0 0
15.919445 -7.104824 5.031699 18.144565 -0.419771 1.289801 0.047726 -0.015346 -1166340.000000 1 0 0
13.639745 -12.113824 3.370499 18.551216 -0.726216 1.388095 0.034939 -0.008612 1711900.000000 1 0 0
14.077745 -0.922924 9.312999 16.904633 -0.065465 0.987337 0.042844 -0.013043 1933590.000000 1 0 0
14.220545 -2.893224 -1.592501 14.598996 -0.200714 1.680097 0.009676 -0.004355 1327900.000000 1 0 0
15.012145 1.897776 9.270099 17.745444 0.125749 1.021141 0.053531 -0.014513 -1640740.000000 1 0 0
14.370645 -10.047124 -2.995001 17.788484 -0.610150 1.739970 0.052377 -0.012154 1083090.000000 1 0 0
7.273245 -12.580624 6.076499 15.751064 -1.046612 1.174740 0.004003 -0.009587 -618339.000000 1 0 0
12.386445 -4.689324 6.948799 14.956590 -0.361910 1.087616 0.015162 -0.007211 2524980.000000 1 0 0
14.933945 -8.804524 -5.624601 18.225764 -0.532711 1.884525 0.052658 -0.011727 -213561.000000 1 0 0
14.233845 -4.561724 4.604599 15.640140 -0.310142 1.271959 0.018234 -0.008440 1091120.000000 1 0 0
17.164445 -4.166724 0.949599 17.688456 -0.238147 1.517086 0.034903 -0.014553 -2198110.000000 1 0 0
10.253445 -14.478024 1.052599 17.772289 -0.954583 1.511535 0.027562 -0.007153 596891.000000 1 0 0
16.453245 -2.568624 8.693499 18.785207 -0.154866 1.089663 0.058142 -0.011993 943632.000000 1 0 0
15.998645 -2.549124 3.147599 16.503395 -0.158006 1.378896 0.020782 -0.007465 1016010.000000 1 0 0
7.861545 -15.142724 2.708299 17.275441 -1.091936 1.413375 0.016758 -0.008349 4071860.000000 1 0 0
16.602245 -6.919324 7.868199 19.632120 -0.394879 1.158426 0.051926 -0.013232 -1474350.000000 1 0 0
10.311445 -8.601824 5.093999 14.361967 -0.695250 1.208217 0.006079 -0.009685 924115.000000 1 0 0
10.934545 -11.885724 2.163899 16.294697 -0.827055 1.437605 0.019619 -0.006170 -626686.000000 1 0 0
12.266145 -7.446124 11.933299 18.662976 -0.545585 0.877065 0.031315 -0.014848 753754.000000 1 0 0
15.185045 -9.850524 4.261699 18.595173 -0.575460 1.339558 0.046947 -0.011207 88661.700000 1 0 0
7.348945 -10.289324 7.814999 14.864433 -0.950584 1.017198 0.003466 -0.005999 1770820.000000 1 0 0
15.198545 -3.454224 -4.350101 16.181805 -0.223477 1.842971 0.029569 -0.001212 226377.000000 1 0 0
11.774645 -9.060124 9.684999 17.734918 -0.655840 0.993097 0.018871 -0.014383 -3799480.000000 1 0 0
16.917045 -6.595924 2.455899 18.322774 -0.371768 1.436356 0.045975 -0.012899 691822.000000 1 0 0
17.579245 3.949976 2.134599 18.143557 0.221025 1.452873 0.021354 -0.000291 494872.000000 1 0 0
14.680245 -4.902424 8.773099 17.790745 -0.322303 1.055116 0.042473 -0.015173 -338215.000000 1 0 0
12.697745 -12.672624 6.168599 18.970496 -0.784408 1.239607 0.016646 -0.008248 -641377.000000 1 0 0
18.144545 0.785476 -0.586901 18.171019 0.043263 1.603101 0.014899 -0.000784 624064.000000 1 0 0
11.742745 -2.125924 10.999699 16.229756 -0.179102 0.826100 0.024772 -0.007302 2666500.000000 1 0 0
5.787045 -12.447124 10.640499 17.367815 -1.135596 0.911379 0.005981 -0.001830 -2471840.000000 1 0 0
10.790745 -5.074524 10.990199 16.216517 -0.439579 0.826144 0.022410 -0.007993 300865.000000 1 0 0
17.736845 1.350676 5.453799 18.605481 0.076004 1.273299 0.037567 -0.007425 -1221590.000000 1 0 0
12.322645 -7.797724 7.090499 16.215031 -0.564186 1.118225 0.019043 -0.013772 -542458.000000 1 0 0
10.579745 -7.870824 14.332199 19.475441 -0.639619 0.743785 0.037934 -0.007620 547494.000000 1 0 0
14.036945 -0.267724 3.755699 14.533161 -0.019070 1.309407 0.011777 -0.005273 2438950.000000 1 0 0
11.612945 -7.747224 2.549499 14.190839 -0.588316 1.390157 0.009486 -0.006719 1517210.000000 1 0 0
9.230145 6.063576 3.618499 11.621362 0.581233 1.254166 0.002971 -0.000139 211635.000000 1 0 0
-3.867655 14.819776 -9.839001 18.204133 -1.315511 2.141806 -0.000463 -0.005753 2155660.000000 1 0 0
8.883745 -6.467724 9.181099 14.319390 -0.629298 0.874780 0.003209 -0.007494 -1992970.000000 1 0 0
5.810045 -10.524824 -8.488001 14.716477 -1.066394 2.185564 -0.003940 0.001085 -193946.000000 1 0 0
5.348545 1.123476 0.587599 5.496763 0.207043 1.463693 0.003329 0.001954 4713920.000000 1 0 0
-0.582355 10.019976 11.047199 14.925805 -1.512742 0.737516 0.005960 0.000008 681712.000000 1 0 0
-6.343255 -5.317624 1.083499 8.347933 0.697669 1.440637 0.003956 -0.004150 3108000.000000 1 0 0
-1.045055 4.017976 -10.901901 11.665664 -1.316339 2.777730 0.005593 -0.004915 947187.000000 1 0 0
10.972045 5.729376 1.382999 12.454887 0.481233 1.459526 0.003674 0.003447 2297140.000000 1 0 0
-9.990355 -1.840124 -13.627201 16.996878 0.182148 2.501009 0.014603 -0.008473 1613690.000000 1 0 0
7.445445 10.920576 -5.989101 14.510788 0.972403 1.996250 0.005392 -0.003497 373678.000000 1 0 0
-12.359655 -2.804824 -9.688901 15.953148 0.223154 2.223498 0.018210 -0.009284 -316631.000000 1 0 0
-3.984855 -8.682324 2.428899 9.857047 1.140515 1.321820 0.007109 -0.004039 -1824830.000000 1 0 0
7.951945 -6.642424 -5.859901 11.903514 -0.695910 2.085507 0.002295 -0.004517 2116050.000000 1 0 0
14.294445 3.159976 -4.215001 15.234265 0.217564 1.851133 0.010323 0.004120 535875.000000 1 0 0
-2.514355 -4.966124 9.817199 11.285467 1.102120 0.515802 0.004761 -0.000108 2242360.000000 1 0 0
3.514845 -1.778924 -4.553301 6.020901 -0.468529 2.428357 -0.001983 0.000771 -1916760.000000 1 0 0
-3.992555 8.393876 -3.477301 9.924177 -1.126817 1.928780 -0.003907 -0.000182 563174.000000 1 0 0
5.708045 0.068076 11.842299 13.146347 0.011926 0.449176 -0.000868 -0.004826 666306.000000 1 0 0
7.084345 4.689176 12.470699 15.089554 0.584700 0.598031 0.005851 -0.004618 -385213.000000 1 0 0
1.213845 -14.554524 12.459999 19.197894 -1.487589 0.864488 0.010773 -0.001108 163170.000000 1 0 0
3.032545 8.699276 -9.074501 12.931369 1.235372 2.348638 0.005662 -0.001584 1377650.000000 1 0 0
-4.427455 -8.957424 -4.641601 11.017362 1.111737 2.005673 0.005861 -0.005663 2243950.000000 1 0 0
5.599945 -6.509424 -3.962401 9.456881 -0.860363 2.003136 -0.001878 -0.002500 2236620.000000 1 0 0
-3.140055 3.501776 8.636599 9.834288 -0.839805 0.498684 -0.005810 0.003415 1171760.000000 1 0 0
-3.696555 3.171076 -11.065301 12.089712 -0.709032 2.726964 -0.005516 -0.003461 -648331.000000 1 0 0
3.110145 -6.208524 8.625499 11.073301 -1.106391 0.677814 0.003774 -0.004261 725743.000000 1 0 0
-5.205055 -8.739524 10.454699 14.586727 1.033636 0.771699 0.011299 -0.004389 1170830.000000 1 0 0
-13.247955 -2.445424 6.479999 14.949207 0.182534 1.122459 0.008956 -0.000198 1190780.000000 1 0 0
3.918745 -5.861524 -8.337801 10.919384 -0.981488 2.439633 -0.005716 0.001225 2763650.000000 1 0 0
2.856145 -0.578424 12.422499 12.759726 -0.199817 0.230418 0.000200 -0.003957 512590.000000 1 0 0
1.490845 -1.427224 -7.576701 7.852769 -0.763599 2.875647 -0.001755 -0.000600 -196449.000000 1 0 0
3.586945 -3.511224 3.442799 6.086684 -0.774731 0.969602 -0.001942 -0.000902 2615300.000000 1 0 0
1.545545 0.452476 -11.872801 11.981521 0.284803 3.006776 0.004205 -0.000505 -94022.600000 1 0 0
4.085045 3.561976 -10.556801 11.866816 0.717103 2.667280 0.000008 0.002780 454687.000000 1 0 0
2.778645 3.272176 3.364199 5.453974 0.866782 0.906082 -0.003766 0.004177 47041.000000 1 0 0
-5.328355 0.910176 2.564199 5.982885 -0.169185 1.127866 -0.001856 0.000071 627932.000000 1 0 0
-9.495055 -9.381724 5.653599 14.496068 0.779394 1.170155 0.008064 -0.001022 -2203500.000000 1 0 0
-3.081555 3.844676 -0.543701 4.957129 -0.895134 1.680698 -0.002710 -0.002797 -728752.000000 1 0 0
-15.922655 -6.526524 4.978599 17.914042 0.389002 1.289172 0.027743 -0.007755 -25173.400000 1 0 0
0.983945 6.717076 -8.024601 10.511017 1.425347 2.439429 0.005454 -0.001945 -121133.000000 1 0 0
-1.567155 6.526376 -9.481801 11.616975 -1.335132 2.525603 0.002627 -0.000782 449095.000000 1 0 0
2.033745 -0.371624 5.332799 5.719525 -0.180735 0.369841 -0.001467 0.003777 3049900.000000 1 0 0
-3.388055 -0.571924 -6.269201 7.149049 0.167229 2.640229 0.001941 -0.003039 -400846.000000 1 0 0
1.883345 -1.061024 -2.407901 3.235853 -0.513052 2.410031 0.004192 -0.000817 1379100.000000 1 0 0
2.450745 -8.569624 -7.646601 11.743726 -1.292251 2.279858 -0.007444 0.001890 1139220.000000 1 0 0
-2.436055 14.036676 -5.562501 15.293923 -1.398959 1.943040 0.001840 0.002622 2486550.000000 1 0 0
6.867245 -5.085024 -8.179201 11.828603 -0.637377 2.334327 0.000740 -0.000144 2426750.000000 1 0 0
-14.127655 -4.996224 -2.253901 15.153645 0.339921 1.720087 0.005595 -0.001217 520873.000000 1 0 0
-2.760555 6.903876 -6.840701 10.103433 -1.190414 2.314566 -0.000481 -0.000505 -1410350.000000 1 0 0
-5.586855 -1.094924 -8.105501 9.905098 0.193529 2.529272 0.006516 -0.007059 124492.000000 1 0 0
-5.757455 -10.610624 3.444999 12.553949 1.073643 1.292814 0.003445 -0.005026 -3308270.000000 1 0 0
8.138745 -7.606524 6.624399 12.960749 -0.751609 1.034318 0.001441 -0.007003 387671.000000 1 0 0
8.867545 -5.904724 13.168499 16.938373 -0.587458 0.680218 0.023592 -0.006271 1035040.000000 1 0 0
-4.796955 9.531176 -0.817201 10.701492 -1.104519 1.647234 -0.003701 0.002467 413688.000000 1 0 0
2.674645 6.683376 12.224399 14.186514 1.190123 0.532202 -0.002945 -0.002055 1590380.000000 1 0 0
6.007645 -2.810224 10.931499 12.786196 -0.437537 0.545351 -0.000172 -0.004996 1045920.000000 1 0 0
-9.685055 -6.536024 -1.170201 11.742626 0.593651 1.670616 0.005616 -0.002085 -1037190.000000 1 0 0
0.872645 -13.405124 6.305699 14.839834 -1.505790 1.131926 0.011122 -0.001102 371417.000000 1 0 0
-0.497055 -3.244524 8.821599 9.412471 1.418780 0.356212 0.000783 0.000188 1985260.000000 1 0 0
4.194045 0.807276 3.451899 5.491567 0.190156 0.891068 -0.003736 0.005752 3764520.000000 1 0 0
-10.245955 5.559476 8.347599 14.337705 -0.497146 0.949348 -0.006083 -0.003288 889144.000000 1 0 0
9.406645 7.939276 0.085799 12.309526 0.701005 1.563826 0.003501 0.003662 955725.000000 1 0 0
4.182345 2.824476 8.322599 9.733207 0.593979 0.545105 -0.004874 0.004947 3221340.000000 1 0 0
1.393345 2.688676 -9.786901 10.244697 1.092674 2.841516 0.006686 -0.002759 1274470.000000 1 0 0
-1.468755 -10.101324 3.058699 10.655966 1.426406 1.279660 0.005408 -0.006313 -2488030.000000 1 0 0
-10.099255 9.544776 9.026299 16.570208 -0.757179 0.994729 -0.003903 -0.002200 2559960.000000 1 0 0
9.785145 -1.869524 -7.614601 12.538992 -0.188782 2.223421 0.010691 -0.002144 2225390.000000 1 0 0
-5.129155 -1.939124 6.621599 8.597326 0.361450 0.691653 -0.002035 0.002016 -554115.000000 1 0 0
3.041745 -7.777024 -4.878701 9.671403 -1.197969 2.099537 -0.007093 -0.000402 2223390.000000 1 0 0
-5.058855 5.000776 -13.023801 14.839784 -0.779625 2.641686 -0.005928 -0.006554 1409590.000000 1 0 0
-5.734755 9.658676 5.528999 12.519875 -1.034991 1.113395 0.003162 0.000057 2099340.000000 1 0 0
-0.478055 -1.781524 -9.412301 9.591339 1.308632 2.948073 0.000602 -0.003337 -963143.000000 1 0 0
-16.711955 0.092576 6.377299 17.887648 -0.005539 1.206256 0.014222 -0.005847 -163577.000000 1 0 0
-5.972955 -2.900524 3.984299 7.743634 0.452069 1.030342 -0.003129 0.000711 1854980.000000 1 0 0
0.917345 -5.689424 -5.092301 7.690422 -1.410935 2.294496 -0.003337 -0.001365 479158.000000 1 0 0
-6.939455 1.395876 -8.508901 11.068239 -0.198502 2.447708 -0.001830 -0.001439 831983.000000 1 0 0
7.952345 1.956476 4.876199 9.531259 0.241234 1.033750 -0.004437 0.002460 492746.000000 1 0 0
0.428545 -7.993124 -0.411401 8.015169 -1.517233 1.622147 -0.001116 -0.001072 1145020.000000 1 0 0
5.413645 5.530376 -3.273201 8.402765 0.796064 1.970927 0.005163 -0.000160 271087.000000 1 0 0
-0.773855 -0.389724 -1.238201 1.511251 0.466534 2.531024 0.002088 -0.002047 350299.000000 1 0 0
9.055445 6.413176 -6.251601 12.736264 0.616216 2.083862 0.002086 -0.002816 -374472.000000 1 0 0
-14.964855 -7.115024 2.473099 16.753706 0.443815 1.422640 0.011667 -0.003409 944711.000000 1 0 0
-6.475055 6.851576 8.896499 12.962181 -0.813644 0.814348 0.000953 0.001275 631435.000000 1 0 0
-9.371055 -3.203724 -9.640801 13.821200 0.329418 2.342751 0.012059 -0.007326 1892110.000000 1 0 0
14.909545 3.430576 -1.177601 15.344384 0.226156 1.647617 -0.001593 0.006666 656287.000000 1 0 0
12.071745 1.653976 -5.737901 13.467968 0.136164 2.010908 0.009500 0.000377 -1160870.000000 1 0 0
1.601245 -9.420724 12.777599 15.955596 -1.402435 0.642129 -0.000376 -0.003068 -754351.000000 1 0 0
-3.654755 6.469276 7.876199 10.827894 -1.056555 0.756272 -0.001453 0.003448 1318560.000000 1 0 0
-3.949155 13.197376 -12.368201 18.513211 -1.280039 2.302414 0.002217 -0.004335 1290440.000000 1 0 0
-10.390855 7.777176 6.509199 14.519780 -0.642517 1.105935 -0.006143 0.001283 1072620.000000 1 0 0
7.979745 -9.256524 -7.085701 14.126808 -0.859338 2.096219 0.006787 -0.001682 703326.000000 1 0 0
5.829945 -3.847224 -0.256101 6.989633 -0.583309 1.607445 0.002524 -0.002346 -864871.000000 1 0 0
-1.635555 -4.482224 4.138099 6.315792 1.220911 0.856351 0.000150 -0.001519 1755250.000000 1 0 0
9.864645 -2.155824 -2.519801 10.407122 -0.215158 1.815349 0.004843 -0.000986 -1990770.000000 1 0 0
13.582945 7.028976 1.470699 15.364435 0.477538 1.474929 -0.000040 0.004899 677457.000000 1 0 0
5.392245 -3.630524 -3.224301 7.256247 -0.592571 2.031243 0.002896 -0.003623 -1990950.000000 1 0 0
-12.301755 -5.978524 1.851099 13.802264 0.452377 1.436275 0.003880 -0.000438 223997.000000 1 0 0
3.682245 -5.701224 -0.267901 6.792249 -0.997331 1.610249 0.002022 -0.003855 -958766.000000 1 0 0
-5.220355 3.762776 -8.722201 10.839160 -0.624543 2.505955 -0.007861 0.000415 817740.000000 1 0 0
-1.758355 -9.219724 7.229199 11.847212 1.382343 0.914480 0.005919 -0.004422 2986700.000000 1 0 0
-7.427355 -7.555824 2.555699 10.898976 0.793972 1.334103 0.007796 -0.004535 -5603140.000000 1 0 0
-5.765355 13.082576 -8.567701 16.667292 -1.155712 2.110688 0.001677 -0.007382 665651.000000 1 0 0
9.210045 -13.950124 -4.208501 17.237818 -0.987275 1.817433 0.019511 0.002619 1210800.000000 1 0 0
-6.389855 -5.230824 -6.752501 10.667148 0.685988 2.256242 0.012842 -0.004515 1697490.000000 1 0 0
3.446345 0.439376 -6.267001 7.165588 0.126806 2.635400 0.001999 -0.002226 1559660.000000 1 0 0
-3.637155 5.751276 5.003399 8.446306 -1.006887 0.936790 0.000676 0.001169 -897233.000000 1 0 0
-2.683955 -10.891524 -2.901901 11.586627 1.329184 1.823944 0.006441 -0.005355 2152750.000000 1 0 0
-12.498555 -0.439524 1.697399 12.620944 0.035151 1.435897 -0.002047 0.002183 344349.000000 1 0 0
8.386045 -11.973124 -6.008101 15.804389 -0.959798 1.960759 0.014891 -0.004753 22487.800000 1 0 0
6.212745 3.949276 1.026599 7.432959 0.566238 1.432239 0.003170 0.002873 -740435.000000 1 0 0
3.446045 -4.769524 -10.917101 12.401882 -0.945120 2.647244 -0.003369 0.001253 447379.000000 1 0 0
-7.728755 4.232176 8.594299 12.308816 -0.500990 0.797884 -0.004033 0.001163 608745.000000 1 0 0
8.169645 8.726976 4.148199 12.653488 0.818371 1.236790 0.008958 -0.000326 2038100.000000 1 0 0
0.250045 10.568076 -6.335801 12.324331 1.547140 2.110741 -0.000543 0.003519 2033350.000000 1 0 0
5.413045 8.094776 3.383799 10.309052 0.981382 1.236361 0.007387 0.000135 2418140.000000 1 0 0
8.096245 6.685276 -3.669301 11.122314 0.690232 1.906999 0.001546 0.000206 1775260.000000 1 0 0
10.518845 2.497376 -8.182101 13.558383 0.233103 2.218644 0.003912 -0.001483 349410.000000 1 0 0
3.396545 -12.507924 -0.305001 12.964478 -1.305639 1.594324 -0.000178 -0.001552 -2326060.000000 1 0 0
0.580145 2.181176 5.263799 5.727275 1.310837 0.405068 -0.001570 0.004509 -224766.000000 1 0 0
-4.920055 13.423776 1.427899 14.368146 -1.219483 1.471253 -0.001494 0.005764 1251370.000000 1 0 0
8.158745 4.048776 -7.999101 12.122018 0.460643 2.291458 -0.002724 0.003038 -138515.000000 1 0 0
-13.929355 -0.537424 -3.702101 14.422944 0.038563 1.830383 -0.000121 0.001219 -369022.000000 1 0 0
-8.582655 0.022076 -0.542501 8.599812 -0.002572 1.633921 -0.002724 -0.000266 409195.000000 1 0 0
1.785345 -3.713124 -1.138501 4.274451 -1.122610 1.840401 0.000593 -0.001898 -2104040.000000 1 0 0
8.032945 -5.696524 -0.141701 9.848790 -0.616837 1.585184 0.005298 -0.005254 1583920.000000 1 0 0
-2.308755 -1.312924 7.333199 7.799354 0.517065 0.347487 -0.001120 0.002250 1493080.000000 1 0 0
-5.750055 8.951576 -11.759801 15.858335 -0.999817 2.406179 -0.008113 0.001356 -1108770.000000 1 0 0
-6.136755 9.197876 -8.906901 14.198366 -0.982430 2.248902 -0.007993 -0.000267 -1437610.000000 1 0 0
-1.425055 13.967276 -8.352001 16.336203 -1.469120 2.107443 0.019025 -0.003108 502753.000000 1 0 0
-1.532455 7.303776 9.775199 12.298296 -1.363980 0.652050 0.000602 -0.000295 1044040.000000 1 0 0
10.070345 2.386876 -4.025401 11.104633 0.232726 1.941743 0.001628 0.001375 -1972690.000000 1 0 0
-3.002655 -7.541724 -7.036101 10.742451 1.191895 2.284954 0.003818 -0.002756 1651580.000000 1 0 0
-5.482655 -5.151524 -1.554701 7.682109 0.754270 1.774583 0.007725 -0.004427 252740.000000 1 0 0
5.695845 7.344476 -8.739701 12.757992 0.911157 2.325451 0.000349 -0.001390 171226.000000 1 0 0
-9.470555 5.273676 -7.511701 13.188204 -0.508087 2.176788 -0.006944 0.002154 -808218.000000 1 0 0
-0.468555 6.185376 -5.264401 8.135868 -1.495189 2.274519 0.005073 -0.000296 -498631.000000 1 0 0
-8.173655 2.784476 -6.383701 10.738417 -0.328334 2.207407 -0.002305 0.001510 1628030.000000 1 0 0
3.678745 1.501476 -1.995701 4.446394 0.387512 2.036259 0.004455 -0.002245 1510440.000000 1 0 0
-6.794955 12.408276 -3.450001 14.561567 -1.069786 1.809996 0.000507 -0.000570 1459950.000000 1 0 0
-6.571955 3.102476 -2.342301 7.635596 -0.441062 1.882584 -0.003341 -0.000327 -2262470.000000 1 0 0
12.157245 3.970276 -0.707301 12.808668 0.315658 1.626045 -0.001516 0.004119 -465861.000000 1 0 0
2.237345 12.360176 -5.473301 13.701704 1.391723 1.981726 0.008726 -0.002216 -240919.000000 1 0 0
-9.198755 -1.508924 -4.279201 10.256974 0.162588 2.001158 0.002339 0.000726 -2227320.000000 1 0 0
-1.252155 5.760876 3.503699 6.857951 -1.356770 1.034570 0.003368 0.001256 1402980.000000 1 0 0
11.405345 2.595976 12.124599 16.847162 0.223798 0.767452 0.030077 -0.005681 382380.000000 1 0 0
-7.051255 -2.406424 -5.827101 9.458657 0.328882 2.234527 0.008745 -0.004351 -751210.000000 1 0 0
7.549545 -7.344424 10.847399 15.119598 -0.771627 0.770676 0.006458 -0.006575 479158.000000 1 0 0
-5.354255 -1.956824 -10.954301 12.348843 0.350390 2.661758 0.004489 -0.003987 -1913440.000000 1 0 0
0.735245 -6.229724 4.529299 7.737221 -1.453318 0.945434 -0.000833 -0.002627 1249710.000000 1 0 0
-4.838655 -9.355824 7.366899 12.853607 1.093498 0.960465 0.004851 -0.003754 2212330.000000 1 0 0
-8.901255 9.304476 1.705099 12.988956 -0.807543 1.439143 -0.001849 -0.001982 1911250.000000 1 0 0
-8.126355 7.287276 -9.157001 14.247551 -0.731014 2.268823 -0.009762 0.002558 174641.000000 1 0 0
-1.303655 -10.554024 -0.100701 10.634711 1.447897 1.580266 0.003244 -0.004024 -58604.400000 1 0 0
-3.961855 10.314876 7.816799 13.534966 -1.204079 0.955101 0.007141 0.001217 1236240.000000 1 0 0
-7.525255 12.058476 1.930099 14.344393 -1.012871 1.435833 -0.000892 0.000177 1574690.000000 1 0 0
-8.160155 -8.243024 -2.881001 11.951391 0.790450 1.814254 0.012127 -0.006518 721945.000000 1 0 0
5.472745 4.598976 -8.050801 10.766472 0.698860 2.415487 0.001648 0.002653 483441.000000 1 0 0
-8.809555 -0.184324 -10.209701 13.486298 0.020920 2.429571 0.007205 -0.005766 -1189280.000000 1 0 0
-15.220455 -2.228124 -1.616601 15.467391 0.145358 1.675504 0.002243 0.002017 1421200.000000 1 0 0
-7.258155 -5.843424 8.679399 12.734142 0.677833 0.820870 0.006717 -0.000521 -791691.000000 1 0 0
8.199945 3.412576 -0.908001 8.928003 0.394368 1.672675 0.002707 0.002990 1832520.000000 1 0 0
11.884145 7.251476 -5.829601 15.093080 0.547872 1.967352 -0.000073 -0.001449 1129580.000000 1 0 0
3.823645 13.335576 -9.532201 16.832133 1.291562 2.172818 0.010966 -0.008698 1152840.000000 1 0 0
-9.775755 5.442076 -0.431201 11.196764 -0.507966 1.609317 -0.006580 0.002144 1373370.000000 1 0 0
11.283845 -1.329824 -5.118201 12.461523 -0.117311 1.994040 0.017137 -0.002915 -760320.000000 1 0 0
10.624245 1.676876 -1.299101 10.833935 0.156543 1.690996 0.002333 0.002323 -114620.000000 1 0 0
14.558345 5.023776 4.857499 16.148654 0.332284 1.265266 0.014079 -0.008054 2237950.000000 1 0 0
0.774245 -0.778524 10.443699 10.501257 -0.788154 0.104748 -0.000684 0.002165 459784.000000 1 0 0
-7.764955 1.272876 -12.580001 14.838166 -0.162481 2.582645 0.000730 -0.005527 -551655.000000 1 0 0
3.196545 -11.493224 -7.746201 14.223773 -1.299528 2.146703 -0.006649 0.000856 -1504620.000000 1 0 0
2.900245 5.022376 -6.753701 8.902144 1.047112 2.432050 0.004389 0.000772 -1074650.000000 1 0 0
6.523845 8.079076 0.671699 10.405921 0.891500 1.506202 0.010881 -0.001778 839364.000000 1 0 0
-9.171155 -5.497724 6.699099 12.617963 0.540021 1.011113 0.002802 0.000452 -2542990.000000 1 0 0
-0.171555 -6.913524 -11.836301 13.708547 1.545987 2.612816 -0.004458 0.001487 1108980.000000 1 0 0
6.424845 -13.397924 -4.587301 15.550766 -1.123650 1.870240 0.006155 -0.001435 1962590.000000 1 0 0
-3.284955 -0.342924 9.975999 10.508524 0.104015 0.319717 -0.001290 0.005275 703895.000000 1 0 0
8.579245 8.460576 7.009299 13.939694 0.778434 1.043926 0.003335 0.000797 -1189270.000000 1 0 0
-7.931155 5.697176 -2.680201 10.126427 -0.622921 1.838662 -0.003736 -0.000697 434355.000000 1 0 0
-5.387155 5.793176 -6.479801 10.225955 -0.821698 2.257074 -0.006190 0.001111 -1247860.000000 1 0 0
3.324345 -13.588024 2.504199 14.211146 -1.330857 1.393658 0.012818 -0.006919 -2367160.000000 1 0 0
-11.344755 -7.123224 6.413899 14.851999 0.560673 1.124249 0.011642 -0.004223 -123791.000000 1 0 0
-12.879455 -3.642824 -6.883501 15.051017 0.275640 2.045803 0.011336 -0.004588 -928697.000000 1 0 0
6.069545 0.416176 -7.366101 9.553639 0.068461 2.451247 -0.000542 0.002352 -894867.000000 1 0 0
-1.436855 2.202176 -2.486701 3.619091 -0.992686 2.328296 0.002200 -0.003894 3475520.000000 1 0 0
7.595145 0.985776 -4.996601 9.144616 0.129069 2.148854 -0.000343 0.001564 800315.000000 1 0 0
3.680245 -4.500724 10.870699 12.327725 -0.885355 0.491112 0.000727 -0.003677 381866.000000 1 0 0
5.973645 -2.542624 2.088199 6.819820 -0.402413 1.259602 0.000825 -0.002170 -1101370.000000 1 0 0
-6.441255 7.744876 1.044499 10.127382 -0.877035 1.467476 -0.002665 0.000184 1038780.000000 1 0 0
6.055245 -3.476524 7.963399 10.590936 -0.521183 0.719846 0.001669 -0.004077 -753864.000000 1 0 0
6.737345 -2.236224 -7.869801 10.598409 -0.320473 2.407659 0.001687 -0.000276 431073.000000 1 0 0
12.065045 -8.059524 -5.785401 15.620246 -0.588929 1.950213 0.029708 -0.010100 1516720.000000 1 0 0
5.559045 -9.575324 9.960799 14.893197 -1.044794 0.838182 -0.000710 -0.002682 1155330.000000 1 0 0
-6.603155 7.490576 -4.408301 10.915288 -0.848281 1.986534 -0.006392 -0.000375 392013.000000 1 0 0
-1.306555 -7.603424 9.738799 12.424304 1.400621 0.669953 0.008738 -0.003842 35541.200000 1 0 0
10.090845 -9.325424 0.741199 13.760016 -0.745997 1.516904 0.009176 -0.008213 424203.000000 1 0 0
11.025445 6.037676 9.847799 15.968504 0.501009 0.906251 0.008611 -0.005443 1940060.000000 1 0 0
-15.200355 -4.271224 -5.012601 16.565637 0.273931 1.878206 0.015354 -0.006353 1852040.000000 1 0 0
-4.719355 -4.672324 7.812799 10.253914 0.780390 0.704503 0.003924 0.000287 -268326.000000 1 0 0
3.027045 10.881676 -11.106201 15.840505 1.299478 2.347773 0.007914 -0.006999 -1637060.000000 1 0 0
9.814945 -1.452824 1.542699 10.041103 -0.146955 1.416547 0.002636 0.000573 -1392190.000000 1 0 0
-1.619255 -2.606224 0.635699 3.133449 1.014860 1.366503 -0.000101 -0.002422 -1890020.000000 1 0 0
1.552845 3.020376 0.898999 3.513147 1.095914 1.312022 0.001043 -0.000862 -731951.000000 1 0 0
-8.937355 -2.419924 4.201199 10.167715 0.264425 1.144842 -0.002675 0.000896 4356200.000000 1 0 0
10.011045 4.922376 -2.590201 11.452508 0.456981 1.798939 0.001469 0.003924 416746.000000 1 0 0
2.529545 8.505576 2.608699 9.249256 1.281728 1.284872 0.004080 -0.000132 2101010.000000 1 0 0
-8.145255 -0.036124 2.481699 8.515006 0.004435 1.275054 -0.005614 0.001069 2173140.000000 1 0 0
6.733745 2.030976 13.858899 15.541469 0.292935 0.469628 0.002948 -0.007340 -1226550.000000 1 0 0
6.775945 4.340476 3.901799 8.942997 0.569718 1.119318 -0.001250 0.002457 -192249.000000 1 0 0
-0.391855 3.423676 7.795899 8.523564 -1.456838 0.416207 -0.005556 0.004141 -373666.000000 1 0 0
2.700545 -10.290224 9.286599 14.121705 -1.314146 0.853152 0.001102 -0.005066 1669560.000000 1 0 0
1.405045 -4.692824 6.899999 8.462076 -1.279887 0.617372 0.000127 -0.001269 503642.000000 1 0 0
-0.206755 10.795276 -2.018201 10.984256 -1.551646 1.755582 0.004653 -0.001530 1359850.000000 1 0 0
8.672245 5.507476 8.068299 13.062832 0.565807 0.905041 -0.002182 0.000297 -1135050.000000 1 0 0
2.577245 11.348676 -2.835601 11.978117 1.347487 1.809797 0.009008 -0.004768 394341.000000 1 0 0
1.496845 2.437776 -6.710201 7.294525 1.020131 2.738610 0.004234 -0.001924 1359980.000000 1 0 0
-13.541655 -2.187324 3.574599 14.175280 0.160142 1.315873 0.001273 -0.000282 2342860.000000 1 0 0
-0.920455 -10.616624 -5.345701 11.922100 1.484313 2.035755 -0.002017 -0.001208 210472.000000 1 0 0
-5.642355 2.877376 0.419599 6.347561 -0.471584 1.504644 0.000052 -0.001483 -972217.000000 1 0 0
3.795245 7.270076 -4.946401 9.577305 1.089675 2.113521 0.005028 -0.001494 -1846260.000000 1 0 0
3.001845 9.805176 -6.479001 12.129716 1.273708 2.134290 0.007051 -0.000933 526615.000000 1 0 0
-12.210055 1.687276 -2.677501 12.613539 -0.137318 1.784696 -0.003988 0.001647 131092.000000 1 0 0
-2.539055 9.660176 -5.816201 11.558287 -1.313772 2.098101 -0.005144 0.001837 1819730.000000 1 0 0
-1.402655 3.316776 1.800499 4.026195 -1.170708 1.107168 -0.000938 -0.000609 791675.000000 1 0 0
12.843445 3.770376 9.816499 16.599200 0.285542 0.938022 0.034603 -0.010105 2096380.000000 1 0 0
-2.613455 -9.632124 11.605099 15.306413 1.305848 0.710271 0.007978 -0.008197 1554630.000000 1 0 0
-0.366355 -8.917724 -7.556101 11.694216 1.529738 2.273312 -0.001185 0.000044 400484.000000 1 0 0
2.298845 7.610676 -0.437801 7.962333 1.277455 1.625808 0.007235 -0.000907 1021130.000000 1 0 0
-11.774955 -1.291024 -5.622901 13.112335 0.109205 2.013988 0.004048 0.002692 477060.000000 1 0 0
-6.172355 -7.147524 -10.975801 14.479409 0.858479 2.431081 0.011398 -0.004529 1174960.000000 1 0 0
-4.702855 -2.325624 -1.415701 5.434113 0.459248 1.834358 0.001192 -0.001951 -1478450.000000 1 0 0
-10.489155 3.779476 4.397199 11.985082 -0.345841 1.195133 -0.006841 -0.001230 3092090.000000 1 0 0
6.787545 9.337976 -3.438101 12.045294 0.942260 1.860253 0.001449 0.002020 218108.000000 1 0 0
1.272045 -2.664824 -11.531901 11.903954 -1.125435 2.890919 0.000549 -0.000419 -99133.200000 1 0 0
1.292045 8.822176 7.615499 11.725869 1.425376 0.863920 0.000747 0.004687 282463.000000 1 0 0
10.300045 0.412676 10.508699 14.720529 0.040044 0.775772 0.010237 -0.006767 2194620.000000 1 0 0
-5.294655 -0.929124 -3.983001 6.690362 0.173715 2.208478 0.002132 -0.003115 -458704.000000 1 0 0
11.637445 5.691176 5.535299 14.087553 0.454841 1.166990 -0.000492 0.000381 3473510.000000 1 0 0
9.886445 -3.518124 3.683999 11.121638 -0.341880 1.233172 0.007840 -0.006221 -1995470.000000 1 0 0
7.356245 -1.659424 -3.456401 8.295464 -0.221867 2.000566 0.003242 -0.000026 -3407320.000000 1 0 0
2.314945 9.328576 10.523599 14.252278 1.327554 0.740131 0.001079 0.000922 2031180.000000 1 0 0
2.369445 -10.911324 6.421299 12.880386 -1.356962 1.048891 0.002439 -0.004426 1826760.000000 1 0 0
5.824545 -7.469924 -1.189601 9.546739 -0.908536 1.695729 0.000862 -0.006105 -9193.220000 1 0 0
-0.227855 -5.552924 -2.313001 6.019705 1.529786 1.965179 -0.001492 -0.000264 279082.000000 1 0 0
7.640945 -5.108424 2.830099 9.617145 -0.589312 1.272098 0.002338 -0.007062 1716170.000000 1 0 0
-2.688655 -12.482524 4.670699 13.596238 1.358644 1.220125 0.006629 -0.002608 -565854.000000 1 0 0
4.850345 -10.287224 -1.147001 11.431029 -1.130214 1.671306 -0.000620 -0.003890 1751850.000000 1 0 0
0.935545 0.197976 1.095599 1.454227 0.208540 0.717595 -0.001088 0.000625 -2548540.000000 1 0 0
-1.673955 8.620976 2.457399 9.119329 -1.379010 1.297952 -0.000153 0.003061 -171468.000000 1 0 0
-7.512955 0.571776 -3.072101 8.136906 -0.075959 1.957947 -0.001344 0.000497 -719022.000000 1 0 0
4.468445 -6.390324 12.902799 15.075989 -0.960573 0.543603 0.005618 -0.007538 409838.000000 1 0 0
-5.194755 13.025176 8.523699 16.410184 -1.191304 1.024630 0.013193 -0.001597 2171930.000000 1 0 0
0.576045 6.127276 8.295099 10.328795 1.477059 0.638309 -0.002330 0.004629 1843790.000000 1 0 0
7.929245 -0.521224 -0.683301 7.975681 -0.065640 1.656575 0.003867 0.000438 4347950.000000 1 0 0
2.341245 -9.197024 -2.323001 9.770517 -1.321525 1.810851 -0.004260 -0.001192 743256.000000 1 0 0
-7.229755 12.199976 4.905499 15.005756 -1.035833 1.237767 0.000563 -0.002388 575859.000000 1 0 0
-14.912855 0.311876 0.112699 14.916542 -0.020910 1.563241 -0.006260 0.000635 1969840.000000 1 0 0
6.840945 -0.494724 3.943899 7.911865 -0.072192 1.048953 -0.001364 0.002373 1287840.000000 1 0 0
-4.229155 -5.139124 5.078599 8.371888 0.882227 0.918988 0.004313 -0.002883 -390007.000000 1 0 0
2.876545 5.106976 6.932699 9.078438 1.057831 0.701857 -0.003852 0.004240 -487536.000000 1 0 0
2.043945 -7.074524 1.782899 7.576630 -1.289539 1.333253 -0.000313 -0.003793 967335.000000 1 0 0
-2.469955 6.447676 -1.664401 7.102355 -1.204963 1.807341 0.000406 -0.000202 1650240.000000 1 0 0
2.679345 -3.812924 -6.489201 7.989181 -0.958260 2.518793 -0.004926 0.000433 930153.000000 1 0 0
-4.924555 0.922676 -12.226201 13.212970 -0.185215 2.752670 -0.002583 -0.002327 -90056.900000 1 0 0
-7.385255 6.555376 -11.898701 15.462666 -0.725939 2.448872 -0.005684 -0.003393 2984590.000000 1 0 0
-0.971455 11.174276 -9.010501 14.387401 -1.484078 2.247565 0.003571 -0.000660 929776.000000 1 0 0
4.667345 5.949376 -0.501701 7.578317 0.905572 1.637047 0.007294 0.000997 1055840.000000 1 0 0
-2.792355 13.391276 3.689599 14.168157 -1.365222 1.307344 0.000963 0.006311 1128650.000000 1 0 0
1.392845 -7.966324 10.280799 13.080411 -1.397704 0.666534 0.001896 -0.004714 -1660010.000000 1 0 0
12.993945 -0.325124 -1.149201 13.048715 -0.025016 1.658981 0.008285 -0.001455 1539740.000000 1 0 0
-1.069555 3.193176 -5.368501 6.337281 -1.247591 2.581357 0.004282 -0.004436 1042810.000000 1 0 0
6.471645 1.041676 7.423999 9.903688 0.159591 0.723309 -0.001148 0.002029 996491.000000 1 0 0
5.499745 -6.234224 6.867399 10.783038 -0.847911 0.880364 -0.000356 -0.004305 1804240.000000 1 0 0
12.139445 -4.955424 2.630199 13.373118 -0.387563 1.372828 0.009488 -0.007244 -744066.000000 1 0 0
4.345945 -9.258624 13.849699 17.216954 -1.131932 0.636094 0.002051 -0.001227 -91544.800000 1 0 0
-2.722055 -4.389524 -1.378801 5.345895 1.015710 1.831663 0.003699 -0.003759 1448740.000000 1 0 0
-9.206755 -5.233824 -7.563401 13.013927 0.516918 2.190971 0.013414 -0.004055 1046940.000000 1 0 0
-10.615855 -3.101124 7.800399 13.533646 0.284214 0.956516 0.001826 0.002033 -966372.000000 1 0 0
11.962445 -0.629524 1.616799 12.087614 -0.052577 1.436638 0.004088 -0.000576 806229.000000 1 0 0
-7.584155 4.731276 4.379699 9.954203 -0.557763 1.115214 -0.002880 -0.000618 1026900.000000 1 0 0
-1.097655 10.554576 7.057199 12.743939 -1.467171 0.983912 0.001951 0.004969 1495550.000000 1 0 0
7.369845 -9.979424 1.826399 12.539507 -0.934693 1.424625 0.003431 -0.009012 4618180.000000 1 0 0
-4.307655 -1.644024 1.610799 4.883992 0.364589 1.234692 -0.002043 0.000159 2594150.000000 1 0 0
6.709845 -15.016024 -0.945401 16.474124 -1.150569 1.628215 0.019307 -0.004237 -2185040.000000 1 0 0
-10.426655 1.701676 2.324099 10.817221 -0.161778 1.354256 -0.008766 0.002348 54567.300000 1 0 0
-2.947555 8.392676 -11.387701 14.450081 -1.233048 2.478467 0.000615 -0.002756 -1783070.000000 1 0 0
-1.294155 -5.196424 -6.894301 8.729779 1.326715 2.481190 -0.004069 -0.002213 -896976.000000 1 0 0
12.760345 -0.498724 6.560699 14.356806 -0.039064 1.096205 0.017627 -0.008379 2340430.000000 1 0 0
5.917945 -13.209124 3.689299 14.936999 -1.149591 1.321223 0.007528 -0.004778 -127999.000000 1 0 0
-5.555155 3.449376 -4.927401 8.187627 -0.555669 2.216563 -0.001740 -0.001256 914200.000000 1 0 0
-4.481455 8.104676 3.335099 9.843379 -1.065693 1.225138 0.002404 0.001134 833439.000000 1 0 0
14.015045 6.167976 -4.017001 15.830404 0.414588 1.827354 0.020108 0.002400 735292.000000 1 0 0
-6.782655 -8.562824 5.294899 12.139288 0.900888 1.119449 0.008349 -0.004705 5099.760000 1 0 0
1.590445 11.409276 2.751099 11.843549 1.432290 1.336368 0.001824 -0.000023 1794120.000000 1 0 0
-7.510955 7.309576 6.014999 12.084063 -0.771811 1.049779 -0.001768 -0.001723 -365994.000000 1 0 0
-17.462955 -4.056624 5.115699 18.643535 0.228251 1.292835 0.031188 -0.009158 621361.000000 1 0 0
7.499545 -12.970724 -8.520001 17.235813 -1.046568 2.087848 0.018841 -0.006146 -1280490.000000 1 0 0
-2.326155 12.877576 -2.763301 13.374558 -1.392087 1.778904 -0.003498 0.002492 1495720.000000 1 0 0
-5.479855 13.896076 -5.791001 16.020782 -1.195174 1.940638 0.005314 -0.000515 1234730.000000 1 0 0
-5.673355 2.564276 7.431099 9.694519 -0.424504 0.697383 -0.003350 0.001439 977145.000000 1 0 0
-7.423755 5.076176 1.410099 9.103191 -0.599753 1.415268 -0.002052 -0.000569 2202530.000000 1 0 0
10.678145 -5.632524 -4.997401 13.066067 -0.485390 1.963266 0.014368 -0.006388 2656860.000000 1 0 0
-9.397755 -0.818724 6.731499 11.588839 0.086900 0.951011 -0.005723 0.000171 1551290.000000 1 0 0
-11.240855 -4.640224 -2.620301 12.440036 0.391492 1.783020 0.000805 -0.001358 -1519500.000000 1 0 0
6.493745 -4.276924 13.498499 15.577877 -0.582413 0.522614 0.005438 -0.009294 -773739.000000 1 0 0
0.282545 10.343376 -11.668601 15.595561 1.543487 2.416141 0.006957 -0.001542 -405883.000000 1 0 0
-11.809655 -3.254424 1.415499 12.331377 0.268899 1.455754 0.001370 -0.000130 2141180.000000 1 0 0
5.208445 5.902976 5.501799 9.604312 0.847823 0.960822 0.000534 0.002806 -4562340.000000 1 0 0
-7.027455 -0.014724 8.050499 10.686247 0.002095 0.717653 -0.004726 0.002759 -372573.000000 1 0 0
1.600045 2.085576 9.663699 10.014831 0.916381 0.265586 -0.003109 0.002605 598332.000000 1 0 0
10.418745 -4.970824 -1.936901 11.705166 -0.445164 1.737035 0.008856 -0.004585 3232450.000000 1 0 0
-9.676955 -2.413124 -1.642201 10.107594 0.244384 1.733992 0.001270 0.000330 -984847.000000 1 0 0
-1.874755 -5.260524 -9.960301 11.419081 1.228447 2.630582 0.003503 -0.003026 -128695.000000 1 0 0
7.577445 -1.601024 6.619299 10.188035 -0.208226 0.863590 0.001836 -0.002179 1359560.000000 1 0 0
1.555645 -11.850024 -2.593501 12.229854 -1.440265 1.784482 -0.001484 -0.000771 -3510170.000000 1 0 0
-0.762855 -1.530124 4.771799 5.068855 1.108303 0.344052 -0.001216 0.001708 2590260.000000 1 0 0
7.525645 1.503376 10.034399 12.632681 0.197172 0.652908 -0.000099 -0.003136 1948610.000000 1 0 0
-3.860655 10.747476 -7.992201 13.938730 -1.225936 2.181423 -0.000847 0.001803 2449880.000000 1 0 0
-9.701455 12.762876 6.380399 17.254528 -0.920843 1.192023 -0.004241 0.002813 2496890.000000 1 0 0
-2.498355 -2.525024 -11.026601 11.584622 0.790707 2.829949 0.003995 -0.004688 -2474720.000000 1 0 0
1.120545 -11.958224 11.126499 16.372346 -1.477364 0.823591 0.000067 0.002110 2190200.000000 1 0 0
1.396845 3.573176 -1.975501 4.315248 1.198137 2.046310 0.004590 -0.001693 3469850.000000 1 0 0
-1.896855 -9.388124 -12.043401 15.387607 1.371432 2.469738 -0.002374 -0.000923 1075600.000000 1 0 0
1.259245 -2.646724 1.571299 3.325631 -1.126716 1.078692 0.003728 -0.001129 2411680.000000 1 0 0
-1.062155 -2.227024 -6.596701 7.043030 1.125767 2.783675 0.000090 -0.004440 708453.000000 1 0 0
1.774845 5.873276 4.105499 7.382450 1.277332 0.981091 -0.005197 0.004509 -950680.000000 1 0 0
-11.123155 8.741876 3.712099 14.626164 -0.666095 1.314191 -0.013110 -0.000384 1206860.000000 1 0 0
-16.393555 -1.551724 3.878199 16.917356 0.094373 1.339496 0.015945 -0.004388 199934.000000 1 0 0
-12.103255 0.250576 6.760999 13.865882 -0.020700 1.061458 -0.003885 0.001359 800497.000000 1 0 0
-5.106055 3.038276 4.634299 7.535227 -0.536760 0.908388 -0.002836 0.001537 1584030.000000 1 0 0
5.117345 -6.063324 3.998799 8.884903 -0.869806 1.103956 -0.001736 -0.004518 547269.000000 1 0 0
9.771945 3.500976 6.380999 12.184617 0.344022 1.019616 -0.001587 0.002600 1554480.000000 1 0 0
-12.226055 5.940876 3.186599 13.961549 -0.452320 1.340526 -0.013642 -0.000433 1482620.000000 1 0 0
-4.915855 12.377976 -1.297201 13.381430 -1.192753 1.667889 -0.009894 0.004516 764268.000000 1 0 0
-1.758255 -12.200724 10.254999 16.034778 1.427671 0.876887 0.012271 -0.004900 345414.000000 1 0 0
5.133845 6.353776 13.940799 16.157744 0.891197 0.530027 -0.000704 -0.001784 1035960.000000 1 0 0
12.855945 -3.684324 -5.985501 14.651818 -0.279105 1.991624 0.013988 -0.004773 1049520.000000 1 0 0
3.569145 -2.625724 6.411899 7.793951 -0.634269 0.604694 -0.003359 0.001691 1676780.000000 1 0 0
7.251945 -11.880724 -0.679701 13.935720 -1.022768 1.619590 0.007450 -0.002175 -654573.000000 1 0 0
-6.065055 -6.662524 -4.083701 9.891953 0.832307 1.996356 0.012187 -0.005971 -1166520.000000 1 0 0
0.330645 -8.895824 5.107999 10.263365 -1.533645 1.049860 0.005194 -0.003834 2180850.000000 1 0 0
-10.259755 2.509776 -0.516901 10.574911 -0.239912 1.619696 -0.008144 0.002309 -1295020.000000 1 0 0
-1.928855 8.999576 -0.315301 9.209358 -1.359663 1.605040 0.001389 0.000076 1737720.000000 1 0 0
-3.506255 2.305576 -6.655701 7.868155 -0.581672 2.579054 0.002337 -0.003771 -1190410.000000 1 0 0
-12.614755 3.086776 6.392799 14.475086 -0.239980 1.113369 -0.005645 -0.002077 557803.000000 1 0 0
11.333945 1.672776 8.035799 13.993947 0.146532 0.959128 0.012819 -0.008728 -1007350.000000 1 0 0
6.054645 2.654376 -3.175601 7.334090 0.413168 2.018606 0.002953 0.000896 1593880.000000 1 0 0
10.439745 -2.376424 6.450299 12.499680 -0.223819 1.028578 0.006795 -0.004037 4130190.000000 1 0 0
-1.073655 10.960076 4.181699 11.779754 -1.473147 1.207893 0.003379 0.004807 2944760.000000 1 0 0
-1.616755 -12.202824 7.383099 14.353848 1.439073 1.030531 0.008648 -0.000166 -537157.000000 1 0 0
8.074745 8.684476 -7.742601 14.162256 0.821764 2.149222 -0.000287 -0.002775 2681730.000000 1 0 0
-4.602655 -5.991524 -8.819001 11.612819 0.915752 2.433217 0.008553 -0.004439 987122.000000 1 0 0
-8.534155 -5.323024 -11.662601 15.400736 0.557687 2.429928 0.016594 -0.004362 1455930.000000 1 0 0
6.115045 -0.650124 -10.016901 11.753924 -0.105918 2.591006 -0.000015 0.002976 -761032.000000 1 0 0
-11.236255 -5.511624 -5.457101 13.653255 0.456036 1.981977 0.004767 -0.005613 -414490.000000 1 0 0
3.825845 8.921576 -2.678101 10.069947 1.165686 1.839985 0.011317 -0.002588 2478480.000000 1 0 0
11.694645 -10.349724 -4.020001 16.125815 -0.724464 1.822743 0.025164 -0.007799 -135042.000000 1 0 0
3.896145 -11.273224 3.993099 12.578170 -1.238037 1.247744 0.004356 -0.003916 -2112.860000 1 0 0
-0.993655 0.847576 3.168999 3.427578 -0.706226 0.390919 -0.000964 0.002761 -1355790.000000 1 0 0
-10.630755 -5.119124 4.428299 12.602707 0.448770 1.211755 0.008220 -0.002883 2859900.000000 1 0 0
4.522145 -8.652624 2.769999 10.148428 -1.089207 1.294340 -0.001500 -0.003607 6187680.000000 1 0 0
-3.731555 -5.758724 2.532599 7.314469 0.995840 1.217231 0.003437 -0.002372 177133.000000 1 0 0
9.933045 5.067276 12.386399 16.666300 0.471729 0.732955 0.018024 -0.002675 200426.000000 1 0 0
1.673545 -12.337824 -5.283201 13.525341 -1.435976 1.972096 -0.002040 -0.000169 1406060.000000 1 0 0
9.844445 -10.765824 -1.773801 14.695660 -0.830073 1.691794 0.011093 -0.004429 1405300.000000 1 0 0
9.639345 -4.426324 -9.121001 13.989352 -0.430473 2.281010 0.013162 -0.003353 3706380.000000 1 0 0
-7.307355 -3.073224 -13.074401 15.289935 0.398109 2.596537 0.006138 -0.002430 1665410.000000 1 0 0
0.392345 6.291176 -2.493201 6.778561 1.508513 1.947446 0.005706 -0.001651 1172960.000000 1 0 0
-5.932255 -9.571024 0.911899 11.297243 1.015935 1.489990 0.006176 -0.004537 -911546.000000 1 0 0
-9.016955 -4.145524 0.527699 9.938275 0.430930 1.517674 -0.001730 -0.000203 5185820.000000 1 0 0
1.828245 3.832176 12.110899 12.833625 1.125654 0.337199 -0.002322 -0.000726 743856.000000 1 0 0
6.587245 4.261576 9.704199 12.478954 0.574224 0.679885 -0.003772 0.002506 3181600.000000 1 0 0
-8.280355 9.812976 -3.499601 13.308118 -0.869903 1.836893 -0.006373 0.003436 2046870.000000 1 0 0
16.430645 2.089976 -5.922001 17.589889 0.126520 1.914175 0.024702 0.000777 -1034660.000000 1 0 0
-10.881955 2.681176 -5.151901 12.334818 -0.241576 2.001677 -0.004017 0.003749 1110800.000000 1 0 0
-13.758255 4.132576 1.388999 14.432501 -0.291797 1.474406 -0.011387 0.002426 1096110.000000 1 0 0
-17.481955 10.458576 3.273899 20.632959 -0.539132 1.411450 0.029495 -0.006606 166101.000000 1 0 0
-14.271155 2.925476 -1.277901 14.623861 -0.202191 1.658293 -0.005205 0.001665 -356366.000000 1 0 0
-14.365055 5.139176 5.159299 16.105413 -0.343567 1.244702 -0.012805 0.002164 398926.000000 1 0 0
-17.285055 7.567476 2.953899 19.098831 -0.412666 1.415509 -0.000797 0.000193 -1005410.000000 1 0 0
-14.923955 12.726176 -3.529001 19.928218 -0.706080 1.748821 0.037960 -0.012706 -1135690.000000 1 0 0
-8.468155 12.568576 -9.578101 17.928156 -0.977902 2.134416 0.013714 -0.017668 1842300.000000 1 0 0
-12.269655 8.850276 -9.993201 18.131076 -0.624888 2.154555 0.016714 -0.004298 -642769.000000 1 0 0
-13.792155 -3.387824 -12.239501 18.748501 0.240865 2.282105 0.026760 -0.010060 -1835530.000000 1 0 0
-14.718455 5.777276 -7.765101 17.615523 -0.374041 2.027297 0.021311 -0.000516 767965.000000 1 0 0
-10.904555 13.697376 -8.432201 19.432691 -0.898435 2.019634 0.029250 -0.017503 2624730.000000 1 0 0
-10.997155 13.697676 3.880499 17.989498 -0.894321 1.353378 -0.005350 0.003964 -240986.000000 1 0 0
-15.117055 3.273576 3.004799 15.756601 -0.213256 1.378920 -0.010655 0.003909 849378.000000 1 0 0
-11.006055 9.511676 -12.593201 19.240425 -0.712693 2.284341 0.019148 -0.011275 -57625.900000 1 0 0
-12.957755 11.617376 -9.138101 19.656341 -0.730910 2.054310 0.038304 -0.024812 -720227.000000 1 0 0
-8.881155 14.547276 -3.649301 17.430306 -1.022690 1.781722 0.008289 -0.011334 3561860.000000 1 0 0
-16.648955 8.182576 -4.229301 19.027066 -0.456806 1.794947 0.030545 -0.005063 403193.000000 1 0 0
-16.779155 6.878476 0.129799 18.134783 -0.389047 1.563639 0.006855 0.003798 815294.000000 1 0 0
-10.221155 2.830476 -12.478301 16.376557 -0.270153 2.437132 0.003283 -0.007834 1483570.000000 1 0 0
-16.881055 0.944276 2.283199 17.060911 -0.055879 1.436567 0.008397 -0.000129 302801.000000 1 0 0
-12.572755 1.225476 -7.064001 14.473289 -0.097164 2.080675 0.004947 -0.001418 1756040.000000 1 0 0
-12.165055 9.051976 -5.577401 16.156554 -0.639712 1.923259 0.015130 -0.002735 -1252440.000000 1 0 0
-9.639455 14.082676 1.240599 17.110814 -0.970556 1.498229 0.006185 -0.002952 292844.000000 1 0 0
-12.365255 11.251776 2.749799 16.942946 -0.738286 1.407778 -0.008500 0.003515 320110.000000 1 0 0
-12.515655 6.897376 -3.720701 14.766822 -0.503687 1.825505 -0.006657 0.003793 -21397.800000 1 0 0
-15.799055 3.837776 -9.589601 18.875887 -0.238296 2.103698 0.029089 -0.004927 -1103570.000000 1 0 0
-15.008555 5.836276 -4.797901 16.802938 -0.370869 1.860366 0.009264 0.003417 1096770.000000 1 0 0
-17.889055 5.251576 7.363099 20.045263 -0.285541 1.194666 0.007713 -0.008982 -317629.000000 1 0 0
-15.817455 10.205076 -2.268201 18.959963 -0.572978 1.690715 0.019811 0.001245 -196067.000000 1 0 0
-8.679555 9.998476 -8.318001 15.636283 -0.855895 2.131719 -0.003420 -0.006128 -72858.400000 1 0 0
-16.876455 4.313376 -1.377201 17.473312 -0.250229 1.649696 -0.002566 0.003238 -32217.600000 1 0 0
-10.162755 5.464076 -4.564501 12.408561 -0.493317 1.947493 -0.007602 0.002660 -484620.000000 1 0 0
-18.175955 2.658076 6.015899 19.329298 -0.145212 1.254307 0.019607 -0.008926 -606493.000000 1 0 0
-10.161155 10.118176 -5.727501 15.441206 -0.783279 1.950799 -0.003639 -0.004067 73969.600000 1 0 0
-15.299355 0.503276 -6.043001 16.457261 -0.032883 1.946786 0.004106 -0.001385 -50971.700000 1 0 0
-16.365455 -4.012124 -8.963401 19.085802 0.240416 2.059676 0.029827 -0.019072 -1492430.000000 1 0 0
-10.002755 9.719176 -1.078301 13.988575 -0.771020 1.647957 -0.006462 0.001880 922228.000000 1 0 0
-17.309255 -3.057924 -3.261301 17.877285 0.174860 1.754251 0.020346 -0.002360 -1766180.000000 1 0 0
-11.804255 5.084276 -11.625701 17.330529 -0.406702 2.306113 0.012650 -0.001222 -104981.000000 1 0 0
-16.339255 7.123276 5.710999 18.717047 -0.411118 1.260729 0.003109 0.000817 202388.000000 1 0 0
-12.000355 6.080076 -8.888601 16.123991 -0.468960 2.154677 0.009314 0.000924 2998360.000000 1 0 0
-14.508755 8.550776 -0.307001 16.843812 -0.532554 1.589024 0.005536 0.000707 220758.000000 1 0 0
-15.020755 11.916076 3.842699 19.554598 -0.670647 1.372998 0.003642 -0.005412 1589680.000000 1 0 0
-17.198055 4.091176 -4.164801 18.161949 -0.233545 1.802170 0.004869 0.000974 -393036.000000 1 0 0
-13.941955 13.419276 -0.845901 19.369322 -0.766298 1.614482 0.019759 -0.008134 -339254.000000 1 0 0
-9.982655 6.911876 -13.201701 17.936342 -0.605599 2.397985 0.003704 -0.007505 432253.000000 1 0 0
-15.810855 -1.057024 -8.457401 17.961851 0.066755 2.061054 0.017400 -0.009975 -134248.000000 1 0 0
-11.458055 12.057776 -0.058201 16.633712 -0.810895 1.574295 0.001037 -0.001566 1104220.000000 1 0 0
-11.968755 7.461876 -0.996401 14.139431 -0.557481 1.641324 -0.008414 0.003941 2138630.000000 1 0 0
-11.317655 0.117776 -11.756201 16.319052 -0.010406 2.375171 0.015245 -0.009465 -1540180.000000 1 0 0
-18.858255 -1.216424 -4.810501 19.500113 0.064414 1.820060 0.012071 -0.003090 -1867570.000000 1 0 0
-17.875355 1.408276 -5.192901 18.667560 -0.078621 1.852693 0.004250 0.002519 -1057340.000000 1 0 0
-13.242755 -0.028324 -9.564701 16.335693 0.002139 2.196305 0.015583 -0.005687 -150341.000000 1 0 0
-5.998255 11.290776 -13.322201 18.464608 -1.082460 2.376761 -0.009932 -0.002439 -3377.730000 1 0 0
16.292245 5.775676 7.134399 18.700142 0.340682 1.179361 0.042168 -0.015518 -337245.000000 1 0 0
14.829745 10.027076 -5.571701 18.748532 0.594537 1.872535 0.040950 -0.016159 85374.500000 1 0 0
2.285445 16.855176 4.433099 17.577616 1.436025 1.315842 0.013040 -0.004897 1677380.000000 1 0 0
-4.015355 18.195176 -5.887501 19.540987 -1.353595 1.876841 0.011815 -0.008540 849143.000000 1 0 0
5.341745 14.525176 5.685899 16.487705 1.218390 1.218710 0.010732 -0.006537 -272341.000000 1 0 0
9.765145 5.933976 15.233399 19.042756 0.546039 0.643572 0.028805 -0.004306 -902925.000000 1 0 0
4.625145 12.702976 -1.123801 13.565416 1.221617 1.653734 0.009282 -0.004454 1450950.000000 1 0 0
3.669645 13.590276 13.136899 19.254610 1.307066 0.819929 0.010112 -0.007920 -1558720.000000 1 0 0
-0.906355 12.429476 9.180999 15.479151 -1.498005 0.935867 0.006940 -0.001553 502960.000000 1 0 0
-7.875155 13.943276 8.385399 18.076171 -1.056662 1.088412 0.009704 -0.003613 900330.000000 1 0 0
11.430545 12.826076 -3.945901 17.627698 0.842867 1.796556 0.017110 -0.008230 950282.000000 1 0 0
-5.837555 16.146676 0.764199 17.186512 -1.223884 1.526317 -0.000197 -0.000250 281665.000000 1 0 0
3.210045 10.663476 6.861699 13.080406 1.278393 1.018576 0.000987 0.005837 3282690.000000 1 0 0
-1.297955 15.557876 2.512699 15.812838 -1.487562 1.411217 0.002601 -0.000884 -1439420.000000 1 0 0
9.941245 8.812276 9.564099 16.369378 0.725270 0.946819 0.013897 -0.003521 2218960.000000 1 0 0
7.166845 12.270376 6.240099 15.519814 1.042167 1.157016 0.010907 -0.005284 1031590.000000 1 0 0
11.694945 14.077376 -1.391501 18.354305 0.877578 1.646682 0.004558 -0.004989 -147146.000000 1 0 0
9.654745 16.115276 -1.124801 18.819708 1.031035 1.630599 0.012734 -0.007053 280310.000000 1 0 0
10.125645 13.760376 3.069999 17.358039 0.936410 1.392998 0.017708 -0.007972 1723620.000000 1 0 0
-6.152755 14.623776 6.333599 17.082907 -1.172543 1.190973 0.002904 0.001070 -1214300.000000 1 0 0
-1.032955 18.284976 -6.249801 19.351159 -1.514364 1.899660 0.025832 0.001671 424795.000000 1 0 0
-3.633655 15.776576 5.511299 17.101995 -1.344424 1.242680 0.001940 0.004082 2661900.000000 1 0 0
7.088945 12.317876 10.649399 17.759305 1.048586 0.927730 0.008750 -0.002356 2998170.000000 1 0 0
1.402545 14.642576 6.341799 16.018445 1.475302 1.163742 0.006871 0.000211 832167.000000 1 0 0
17.463845 7.645976 -1.352301 19.112183 0.412677 1.641611 0.026677 0.006004 2997.750000 1 0 0
2.050945 16.236976 -3.377501 16.710873 1.445149 1.774312 0.010908 -0.007425 1764140.000000 1 0 0
6.740845 11.204476 0.677299 13.093434 1.029186 1.519045 0.013501 -0.001644 2915260.000000 1 0 0
12.773045 9.329176 3.212499 16.140147 0.630826 1.370420 0.010516 0.001638 -2183530.000000 1 0 0
6.007145 14.273476 -3.379301 15.850476 1.172437 1.785644 0.006571 -0.005580 541387.000000 1 0 0
3.059945 16.489576 1.577499 16.845115 1.387315 1.477012 0.013810 -0.013061 -940344.000000 1 0 0
2.803945 18.907576 -2.485501 19.275276 1.423572 1.700104 0.025478 -0.017929 -795210.000000 1 0 0
4.011545 11.964676 10.683699 16.534430 1.247293 0.868269 0.007135 -0.004749 3434430.000000 1 0 0
8.000845 11.553976 3.443399 14.469446 0.965138 1.330514 0.009338 -0.001007 293035.000000 1 0 0
0.687845 12.574376 0.183299 12.594509 1.516149 1.556242 0.007217 -0.002516 -726985.000000 1 0 0
12.016245 9.909076 -4.544801 16.224523 0.689586 1.854715 0.010409 -0.005245 1015960.000000 1 0 0
-1.374755 16.449076 10.068499 19.334858 -1.487414 1.023075 0.017192 -0.007763 -1063450.000000 1 0 0
8.329745 14.640976 -7.961701 18.631466 1.053533 2.012329 0.014973 -0.006725 1929700.000000 1 0 0
14.511845 7.507476 -1.293601 16.389913 0.477419 1.649805 0.009458 0.004371 -78670.900000 1 0 0
12.491045 8.331376 5.999599 16.168896 0.588225 1.190648 0.010662 -0.005980 -1137270.000000 1 0 0
-3.139655 14.223276 10.232399 17.800590 -1.353540 0.958394 0.020925 -0.008966 2140640.000000 1 0 0
-4.592155 17.196276 -3.124901 18.071104 -1.309842 1.744592 0.010924 -0.003054 774163.000000 1 0 0
-7.128355 16.383576 -1.875401 17.965304 -1.160409 1.675377 0.008849 -0.006448 641024.000000 1 0 0
8.366545 11.206976 -1.755801 14.095326 0.929508 1.695687 0.011540 -0.002816 -31705.600000 1 0 0
8.555545 12.896476 -4.079201 16.004884 0.985057 1.828512 0.019135 -0.008264 2729500.000000 1 0 0
2.539945 14.744076 -7.245901 16.623543 1.400202 2.021814 0.007402 -0.007358 -643384.000000 1 0 0
11.445945 11.371376 9.677999 18.814396 0.782130 1.030496 0.031145 -0.009963 1780800.000000 1 0 0
8.597445 15.818676 1.538399 18.069678 1.072958 1.485556 0.015489 -0.006899 804825.000000 1 0 0
6.082245 9.911776 7.795999 14.000522 1.020409 0.980224 0.004318 0.005417 2087640.000000 1 0 0
14.540745 11.428876 2.528899 18.666756 0.666140 1.434902 0.027234 0.000593 2247620.000000 1 0 0
12.075245 12.661076 1.195299 17.536908 0.809077 1.502584 0.012172 -0.003358 3608000.000000 1 0 0
5.048845 15.941076 8.225199 18.634984 1.264072 1.113655 0.015010 -0.006837 168649.000000 1 0 0
11.464345 15.064976 5.222599 19.638234 0.920297 1.301617 0.030226 -0.010704 -702657.000000 1 0 0
5.889345 16.763576 1.775499 17.856491 1.232948 1.471200 0.010604 -0.018055 -682160.000000 1 0 0
-0.769955 16.220676 -4.174601 16.766946 -1.523364 1.822421 0.006134 -0.001973 2599080.000000 1 0 0
16.048545 6.414376 2.675499 17.488805 0.380236 1.417210 0.003982 0.003341 -285500.000000 1 0 0
7.583145 16.722876 -3.122801 18.625535 1.145069 1.739254 0.013475 -0.011174 -1966820.000000 1 0 0
14.810845 8.147976 7.522199 18.502273 0.502947 1.152116 0.041236 -0.012685 -218764.000000 1 0 0
2.044745 12.996076 8.726299 15.786934 1.414740 0.985130 0.008629 -0.001381 2816170.000000 1 0 0
15.975645 7.358576 -5.901801 18.552658 0.431644 1.894532 0.031121 -0.000034 -1240350.000000 1 0 0
-3.035855 17.072876 0.703799 17.354966 -1.394818 1.530232 -0.003080 0.001673 1847500.000000 1 0 0
-2.961055 18.594676 4.672099 19.399957 -1.412880 1.327575 0.003253 0.001139 2309460.000000 1 0 0
-0.893455 19.079676 0.865899 19.120201 -1.524003 1.525494 0.009912 -0.008077 -241898.000000 1 0 0
7.020245 16.606676 -6.080501 19.027297 1.170845 1.896069 0.017601 -0.010531 -189913.000000 1 0 0
11.031845 10.078876 0.944999 14.972587 0.740287 1.507639 0.000614 0.004665 -824229.000000 1 0 0
9.106645 8.687176 14.369499 19.101846 0.761829 0.719315 0.027617 -0.005739 1233570.000000 1 0 0
6.359745 12.408776 -8.329401 16.242014 1.097183 2.109275 0.014870 -0.007337 -330842.000000 1 0 0
6.322445 8.953876 13.357499 17.279120 0.955980 0.687172 0.008603 -0.008470 443303.000000 1 0 0
16.708845 9.452476 2.895099 19.414335 0.514830 1.421116 0.029031 0.000852 -1787830.000000 1 0 0
2.537045 14.709176 -0.731601 14.944287 1.399996 1.619771 0.008728 -0.005873 -820857.000000 1 0 0
9.168445 12.833976 8.255099 17.802190 0.950479 1.088615 0.019275 -0.013687 2908480.000000 1 0 0
7.215145 9.396376 10.638999 15.922892 0.915960 0.839067 0.006179 -0.003089 1536180.000000 1 0 0
4.354045 15.776676 -5.320301 17.209498 1.301519 1.885095 0.016523 -0.007114 1307650.000000 1 0 0
0.261345 16.365076 -8.175701 18.295522 1.554828 2.034059 0.017098 -0.001614 777986.000000 1 0 0
-2.427055 15.725176 -1.954601 16.030977 -1.417663 1.693027 -0.004165 0.002603 -451892.000000 1 0 0
13.343045 10.576676 7.571599 18.634163 0.670257 1.152364 0.043385 -0.011237 1960630.000000 1 0 0
-1.081355 16.062576 7.132799 17.608308 -1.503576 1.153728 0.008717 0.003990 2448010.000000 1 0 0
13.316645 13.390076 6.618899 20.010922 0.788148 1.233683 0.041625 -0.014857 -389553.000000 1 0 0
5.251245 17.311876 4.514299 18.645523 1.276286 1.326255 0.010113 -0.017720 -32440.700000 1 0 0
10.915945 9.477876 -1.783701 14.566042 0.715000 1.693561 0.004683 0.002568 779274.000000 1 0 0
3.087845 12.745676 4.804899 13.966893 1.333110 1.219601 0.007182 0.001810 1000220.000000 1 0 0
-0.242755 18.063476 3.648299 18.429818 -1.557358 1.371524 0.006223 -0.002399 1952100.000000 1 0 0
-7.609855 15.906576 -5.928501 18.603123 -1.124570 1.895136 0.023442 -0.015273 589378.000000 1 0 0
-12.536655 -9.193324 8.144099 17.550250 0.632737 1.088241 0.019226 -0.007149 -396089.000000 1 0 0
-13.350955 -11.758824 6.739799 19.024795 0.722076 1.208669 0.031682 -0.008967 -1425560.000000 1 0 0
-6.563055 -12.262724 12.313299 18.575936 1.079384 0.846160 0.019541 -0.006541 -550757.000000 1 0 0
-1.852355 -10.801424 14.361299 18.065129 1.400957 0.651832 0.007201 -0.004569 1202690.000000 1 0 0
-8.838355 2.822576 11.015299 14.402093 -0.309118 0.700003 -0.002257 0.000106 1721610.000000 1 0 0
0.499745 10.065476 15.311599 18.330538 1.521188 0.582108 -0.004543 -0.005819 -114775.000000 1 0 0
1.042245 -6.736924 16.586499 17.932773 -1.417307 0.389954 0.006132 -0.008783 1717690.000000 1 0 0
5.936245 2.209376 17.924099 19.010357 0.356300 0.339685 0.010034 -0.008340 1892470.000000 1 0 0
-5.122555 -3.008924 17.634999 18.608798 0.531094 0.324940 0.025260 -0.015409 1045250.000000 1 0 0
-4.395255 8.134976 13.101299 16.035590 -1.075438 0.614583 0.002780 -0.003427 487268.000000 1 0 0
0.183645 -4.690124 18.545299 19.130057 -1.531661 0.247889 0.017300 -0.019428 313876.000000 1 0 0
-11.667755 2.020276 11.184399 16.288303 -0.171450 0.813922 0.005222 -0.004190 556813.000000 1 0 0
-3.494155 -6.139724 14.310199 15.958920 1.053403 0.458563 0.017618 -0.010454 2175120.000000 1 0 0
-7.610655 -2.279024 14.635999 16.653182 0.290954 0.497306 0.016233 -0.003891 836455.000000 1 0 0
-6.160755 -1.177024 10.617399 12.331644 0.188777 0.533587 0.002040 0.000172 1561790.000000 1 0 0
-4.037655 2.429276 11.103799 12.062271 -0.541636 0.401337 -0.002796 0.005917 -1544490.000000 1 0 0
-6.561855 6.211076 13.661699 16.379177 -0.757942 0.584316 -0.001100 -0.000135 825143.000000 1 0 0
-9.030655 5.462876 12.493499 16.354916 -0.544034 0.701463 -0.000547 -0.004230 -1328470.000000 1 0 0
-12.372155 -2.256924 15.733699 20.142324 0.180436 0.674329 0.015198 -0.007696 263795.000000 1 0 0
-3.386955 -7.546724 16.992699 18.899109 1.148942 0.453026 0.028036 -0.011008 -865984.000000 1 0 0
-0.544455 -5.438724 14.395599 15.398357 1.471022 0.362879 0.005679 -0.003390 2821520.000000 1 0 0
-14.344255 -2.316824 13.560499 19.874920 0.160133 0.819903 0.008508 -0.004578 -1036230.000000 1 0 0
-6.500555 1.405076 12.176299 13.874210 -0.212872 0.499920 0.000814 0.001143 983259.000000 1 0 0
2.109645 -2.253724 14.590699 14.913697 -0.818406 0.208502 -0.000096 -0.004869 -488795.000000 1 0 0
-12.616855 3.932776 9.203199 16.104367 -0.302163 0.962498 -0.004240 -0.001102 -1261620.000000 1 0 0
-9.140555 -2.993324 12.517199 15.785753 0.316471 0.655173 0.002788 0.004310 1414730.000000 1 0 0
-7.159755 -7.315524 15.299199 18.407729 0.796159 0.589661 0.024112 -0.007149 908871.000000 1 0 0
-3.139755 6.011276 19.370999 20.523867 -1.089460 0.336767 0.018098 -0.008965 910502.000000 1 0 0
0.487045 5.411876 16.212799 17.099136 1.481043 0.323386 0.001549 -0.006586 2420630.000000 1 0 0
3.282845 1.535676 16.853299 17.238592 0.437548 0.211822 0.004835 -0.008102 -422417.000000 1 0 0
-11.846655 11.387076 7.795999 18.187533 -0.765620 1.127804 -0.004003 -0.006816 -723433.000000 1 0 0
0.587645 -9.438124 15.475799 18.136258 -1.508614 0.548501 -0.001159 -0.002034 1011640.000000 1 0 0
-2.534455 -3.560124 18.928299 19.426231 0.952128 0.226902 0.028575 -0.020130 3064510.000000 1 0 0
-12.975955 2.214576 13.718499 19.012548 -0.169039 0.764758 0.009153 -0.011225 1308280.000000 1 0 0
-5.484155 -0.658324 15.854099 16.788740 0.119469 0.335246 0.016088 -0.002011 2421670.000000 1 0 0
-4.597655 -6.056624 11.629699 13.895000 0.921489 0.579073 0.009773 -0.001228 566573.000000 1 0 0
2.343545 1.880676 14.083299 14.400293 0.676259 0.210211 -0.002217 -0.004219 -1782870.000000 1 0 0
0.014345 3.342976 14.286799 14.672707 1.566505 0.229857 0.003089 -0.003900 -230692.000000 1 0 0
-13.032555 7.018976 12.195499 19.179252 -0.494027 0.881662 -0.000350 -0.004333 228635.000000 1 0 0
0.808145 1.488376 18.227699 18.306211 1.073366 0.092649 0.012306 -0.008799 888151.000000 1 0 0
-2.116855 6.463876 12.476199 14.209796 -1.254314 0.499129 -0.003073 -0.000539 319047.000000 1 0 0
-13.545455 -2.721924 10.797699 17.535066 0.198306 0.907424 0.013238 -0.003436 -108674.000000 1 0 0
-2.560255 3.660576 13.394999 14.120224 -0.960464 0.321890 0.000211 0.000770 -454645.000000 1 0 0
3.398945 6.119476 16.319399 17.757353 1.063793 0.405204 -0.000111 -0.006489 62234.200000 1 0 0
-3.814855 12.433076 12.377599 17.953815 -1.273084 0.810118 0.016443 -0.007455 -399100.000000 1 0 0
3.657245 -1.403024 17.049199 17.493401 -0.366314 0.225835 0.009498 -0.011740 -1732250.000000 1 0 0
-15.721855 0.467876 9.025699 18.134467 -0.029751 1.049840 0.018370 -0.007071 6137.220000 1 0 0
-4.687655 4.537576 15.193999 16.535456 -0.769131 0.405580 0.009271 -0.004989 1090690.000000 1 0 0
-8.047455 -8.244824 10.450199 15.554591 0.797512 0.834106 0.009974 -0.003215 3716500.000000 1 0 0
-2.720355 -0.570624 14.726699 14.986714 0.206763 0.186548 0.010050 -0.001544 2705280.000000 1 0 0
-1.933855 1.006476 17.166199 17.304080 -0.479874 0.126323 0.013696 -0.010981 154488.000000 1 0 0
-0.857155 -2.604224 14.354299 14.613781 1.252824 0.188726 0.009341 -0.003364 1542210.000000 1 0 0
4.956945 -8.245324 16.433899 19.042838 -1.029508 0.529626 0.007983 -0.007102 -1404640.000000 1 0 0
-4.617955 9.984776 10.709299 15.352861 -1.137596 0.798832 0.006060 -0.002523 -639228.000000 1 0 0
-6.206155 2.027376 15.200499 16.543331 -0.315743 0.405692 0.008818 0.000196 265505.000000 1 0 0
-4.970455 6.735076 17.231499 19.157015 -0.935023 0.452201 0.016941 -0.003637 -193249.000000 1 0 0
-4.227255 9.227876 15.767699 18.752166 -1.141230 0.571951 0.009387 -0.001170 52112.900000 1 0 0
-4.519355 -9.781424 18.456799 21.371810 1.137980 0.528420 0.036052 -0.011129 -878295.000000 1 0 0
-6.948355 -4.159824 11.077299 13.721892 0.539446 0.631281 0.006614 0.004009 385207.000000 1 0 0
-2.382155 -0.721824 19.529599 19.687583 0.294219 0.126770 0.023758 -0.013098 487506.000000 1 0 0
-5.791155 -4.539024 15.193999 16.881878 0.664776 0.450985 0.023277 -0.009873 2261340.000000 1 0 0
-12.846055 0.010076 9.676399 16.082722 -0.000784 0.925213 0.001322 -0.000067 1295600.000000 1 0 0
-14.571155 8.799276 10.364999 19.929351 -0.543270 1.023843 0.000229 -0.004663 -131299.000000 1 0 0
-8.551055 10.362976 12.910199 18.632903 -0.880904 0.805333 0.007496 -0.011743 160366.000000 1 0 0
-10.531755 7.197676 10.740199 16.675620 -0.599516 0.870995 0.000259 -0.000512 -415070.000000 1 0 0
-9.890955 -6.585224 14.735699 18.929791 0.587390 0.678620 0.023944 -0.008455 -1247860.000000 1 0 0
-0.757155 -13.527124 14.366999 19.747583 1.514882 0.756079 0.002896 -0.002163 807069.000000 1 0 0
3.875345 -5.644324 16.851399 18.189182 -0.969126 0.385922 0.014285 -0.013776 2733420.000000 1 0 0
-7.388455 9.327676 10.425299 15.820293 -0.900891 0.851331 0.001803 -0.004810 1902320.000000 1 0 0
-10.381655 -6.689124 11.748999 17.045883 0.572373 0.810333 0.014895 -0.004889 2420180.000000 1 0 0
-10.914955 -3.903724 10.632599 15.729827 0.343473 0.828541 0.006740 0.002843 -680936.000000 1 0 0
-10.179255 -10.268824 9.749799 17.439167 0.789778 0.977527 0.013706 -0.004699 1111830.000000 1 0 0
-10.035755 -3.703524 15.168099 18.560811 0.353529 0.614241 0.025549 -0.011551 1456370.000000 1 0 0
5.568045 -3.255424 16.017999 17.267808 -0.529065 0.382801 0.006728 -0.012966 182978.000000 1 0 0
-11.379755 0.402676 15.286199 19.061187 -0.035371 0.640237 0.013649 -0.009355 568773.000000 1 0 0
-3.264655 3.162376 18.828899 19.369719 -0.769486 0.236862 0.019730 -0.008318 -448006.000000 1 0 0
0.378245 7.346576 13.997499 15.812818 1.519356 0.483874 -0.000376 -0.007003 1304680.000000 1 0 0
-13.219355 -7.468224 12.009099 19.358310 0.514246 0.901596 0.012908 -0.004675 -300474.000000 1 0 0
-1.617155 -1.153224 12.094999 12.257003 0.619476 0.162766 0.003956 0.000318 584240.000000 1 0 0
2.015045 -4.880724 13.142199 14.163307 -1.179255 0.382044 0.000542 -0.005842 956973.000000 1 0 0
-14.668455 -4.059124 8.495199 17.430102 0.269969 1.061702 0.016687 -0.007590 -2148280.000000 1 0 0
7.950545 0.829276 16.204699 18.069065 0.103929 0.458268 0.015685 -0.012878 1110620.000000 1 0 0
-1.345155 11.385176 13.496799 17.708621 -1.453192 0.704154 0.002782 -0.004238 1401220.000000 1 0 0
2.907245 -12.238624 -13.722901 18.615961 -1.337572 2.399651 -0.000137 0.006217 -514033.000000 1 0 0
0.821145 -10.704224 -13.954601 17.606407 -1.494234 2.485836 -0.003517 0.004047 -2260240.000000 1 0 0
3.229245 -14.385124 -12.281201 19.188218 -1.349972 2.265345 -0.000937 0.002014 -1135870.000000 1 0 0
-4.996055 -10.457424 -16.181701 19.903912 1.125105 2.520067 0.013311 -0.011468 -428765.000000 1 0 0
-1.056655 -12.136724 -15.144501 19.436370 1.483953 2.464159 -0.001341 0.002815 -147058.000000 1 0 0
5.790845 -15.064524 -11.704801 19.936803 -1.203808 2.198262 0.017123 0.000499 1580790.000000 1 0 0
1.949345 -11.891824 -16.052001 20.071925 -1.408318 2.497632 0.005671 0.004091 -727763.000000 1 0 0
1.313045 -14.314724 -13.987601 20.057128 -1.479325 2.342543 -0.000708 0.012907 -247820.000000 1 0 0
-1.098855 -10.660524 -15.924201 19.194646 1.468082 2.549217 0.007216 -0.008188 -507939.000000 1 0 0
-5.885355 -5.543924 -15.171601 17.191567 0.755534 2.651953 0.013624 -0.004290 -100372.000000 1 0 0
-6.327355 -7.689324 -16.598301 19.356258 0.882262 2.601218 0.014264 -0.003047 358902.000000 1 0 0
4.974745 -12.613524 -11.315201 17.660205 -1.195129 2.266229 -0.001749 0.005055 460041.000000 1 0 0
-1.538955 -15.607024 -13.051901 20.403424 1.472507 2.264893 0.004765 0.001683 83575.200000 1 0 0
15.697545 -7.333824 -9.134601 19.586700 -0.437061 2.055976 0.038286 0.003206 398082.000000 1 0 0
19.164645 -3.705324 -4.005801 19.926351 -0.190985 1.773206 0.050450 -0.015486 371596.000000 1 0 0
15.017145 -11.480524 -8.758901 20.833516 -0.652713 2.004708 0.046376 -0.011429 769378.000000 1 0 0
17.878745 -3.627824 -6.338001 19.312713 -0.200195 1.905170 0.061129 -0.006304 567027.000000 1 0 0
9.482845 -9.328824 -15.412401 20.359111 -0.777211 2.429548 0.036666 -0.005857 550244.000000 1 0 0
1.314345 1.968776 -15.255801 15.438363 0.982152 2.987654 0.010866 -0.000822 -159853.000000 1 0 0
4.882145 -4.449824 -14.015701 15.494391 -0.739104 2.701157 -0.001413 0.005143 1414270.000000 1 0 0
13.188945 -5.468724 -8.660901 16.699294 -0.393067 2.116054 0.037929 -0.005422 -960082.000000 1 0 0
2.952145 0.945876 -12.287901 12.672898 0.310069 2.894471 0.005021 0.001341 -3844840.000000 1 0 0
0.691545 6.386776 -12.910901 14.420836 1.462939 2.679889 0.012321 -0.004474 380173.000000 1 0 0
3.279345 -1.244424 -16.888901 17.249280 -0.362687 2.936822 0.016445 -0.000609 145548.000000 1 0 0
13.380745 4.195476 -11.346701 18.038680 0.303837 2.251089 0.009053 -0.009200 254131.000000 1 0 0
-3.898155 9.611976 -16.570001 19.548674 -1.185513 2.582295 0.015499 0.002356 669262.000000 1 0 0
-0.187855 -5.238124 -17.659301 18.420753 1.534949 2.853063 0.017101 -0.011793 381660.000000 1 0 0
-0.454055 -8.667624 -17.626401 19.647491 1.518459 2.684031 0.017128 -0.009093 -1843210.000000 1 0 0
5.508645 -10.248924 -12.221601 16.874630 -1.077612 2.380755 0.001263 0.006762 588533.000000 1 0 0
1.855545 -9.808024 -18.078201 20.650950 -1.383820 2.637095 0.020563 -0.007319 -527713.000000 1 0 0
10.990445 8.661876 -14.316101 20.019209 0.667460 2.367590 0.037466 -0.021785 122232.000000 1 0 0
10.885545 -3.657824 -12.856201 17.238233 -0.324172 2.412525 0.023215 -0.010353 934318.000000 1 0 0
4.966745 7.504076 -12.228001 15.182349 0.986120 2.507162 -0.001499 -0.000386 -1159050.000000 1 0 0
9.686645 -5.905624 -12.614901 16.965943 -0.547497 2.409149 0.019231 -0.001821 -795313.000000 1 0 0
-3.179955 0.232976 -15.953601 16.269105 -0.073133 2.944332 0.008391 -0.000874 -1560050.000000 1 0 0
-0.647755 10.843976 -12.820601 16.804143 -1.511133 2.438650 0.010496 -0.002495 90943.300000 1 0 0
6.705545 -5.520724 -12.383301 15.125768 -0.688792 2.529921 0.002962 0.002181 667625.000000 1 0 0
17.830145 -6.129924 -8.233301 20.573703 -0.331137 1.982516 0.046723 -0.013151 -726747.000000 1 0 0
13.002645 4.648376 -13.926301 19.611681 0.343336 2.360440 0.007412 -0.014804 226859.000000 1 0 0
14.276145 0.776176 -11.436101 18.308336 0.054315 2.245466 0.028787 -0.006317 -659353.000000 1 0 0
15.196145 5.952276 -11.136301 19.757773 0.373328 2.169584 0.041323 -0.018951 102766.000000 1 0 0
8.279945 1.408076 -11.720401 14.419014 0.168447 2.519814 -0.005769 0.006424 748743.000000 1 0 0
9.953245 1.260576 -8.952101 13.446049 0.125979 2.299334 0.000108 -0.000917 -66597.300000 1 0 0
-0.057655 -5.736224 -12.975001 14.186551 1.560746 2.725311 -0.002388 -0.001511 238299.000000 1 0 0
10.575745 -5.700824 -8.988801 15.004810 -0.494395 2.213125 0.020580 -0.005086 -161869.000000 1 0 0
10.244045 8.500676 -11.161301 17.371718 0.692659 2.268551 0.015006 -0.012487 869584.000000 1 0 0
8.428745 8.197976 -14.623401 18.764179 0.771520 2.464385 0.016586 -0.004729 -118534.000000 1 0 0
8.696145 10.643776 -10.609801 17.363202 0.885765 2.228184 0.017017 -0.008768 -952729.000000 1 0 0
7.216145 1.732876 -17.978101 19.449620 0.235676 2.750104 0.019667 0.003125 -136656.000000 1 0 0
12.199645 2.440776 -12.815101 17.861006 0.197462 2.370989 0.018344 -0.010013 -1446410.000000 1 0 0
2.697745 -0.930324 -19.395901 19.604701 -0.332082 2.995514 0.028124 -0.005057 -314631.000000 1 0 0
10.260945 -2.238224 -15.612301 18.815966 -0.214766 2.549432 0.029682 -0.008290 -42392.600000 1 0 0
8.325645 -0.890624 -13.100901 15.548092 -0.106568 2.572899 0.003082 0.001461 624038.000000 1 0 0
0.567145 4.459576 -14.677001 15.350044 1.444301 2.844371 0.011600 -0.001722 210392.000000 1 0 0
3.984045 -7.574824 -15.767901 17.940938 -1.086598 2.644302 0.005751 -0.001820 304686.000000 1 0 0
11.536745 -5.577424 -14.473801 19.331194 -0.450319 2.416937 0.040572 -0.008238 -391582.000000 1 0 0
-5.800755 4.366676 -16.673401 18.185679 -0.645276 2.730895 0.006736 0.000521 396225.000000 1 0 0
11.403745 7.772676 -9.106701 16.534567 0.598263 2.154080 0.014095 -0.007672 -1649570.000000 1 0 0
9.576645 6.114876 -13.372701 17.548019 0.568262 2.437290 0.007501 -0.001598 -601949.000000 1 0 0
12.089445 0.640676 -10.158401 15.803742 0.052945 2.268924 0.015756 -0.000351 -2455300.000000 1 0 0
5.497845 -7.240124 -13.764301 16.495505 -0.921333 2.557889 0.001356 0.005199 -1333040.000000 1 0 0
8.674145 -10.269624 -10.612801 17.127099 -0.869422 2.239093 0.024022 0.001979 -125156.000000 1 0 0
10.205345 4.530376 -15.907001 19.434661 0.417788 2.529567 0.028434 -0.007160 -607774.000000 1 0 0
10.004045 -0.318724 -11.043501 14.904409 -0.031849 2.405288 0.004808 0.000029 210576.000000 1 0 0
-1.668355 5.655476 -14.042401 15.230130 -1.283935 2.744048 0.005352 -0.003324 190774.000000 1 0 0
1.454145 -0.623924 -14.999201 15.082435 -0.405309 3.036486 0.006920 -0.001484 -1616860.000000 1 0 0
11.546145 -10.495024 -14.280001 21.151298 -0.737745 2.311945 0.055530 -0.006590 -318634.000000 1 0 0
9.416245 -7.833524 -10.810201 16.336775 -0.693901 2.293893 0.021860 -0.000547 -325307.000000 1 0 0
14.058945 -1.014924 -9.790801 17.162278 -0.072066 2.177891 0.027766 -0.001879 770258.000000 1 0 0
4.114145 10.990776 -12.249701 16.964036 1.212616 2.377627 0.016909 -0.015855 -1005920.000000 1 0 0
-1.178655 2.883276 -16.950401 17.234228 -1.182735 2.959856 0.010577 0.002720 202237.000000 1 0 0
6.197845 -0.634224 -17.833101 18.890077 -0.101975 2.805486 0.015028 0.006680 247288.000000 1 0 0
6.464045 -6.672924 -16.116901 18.602857 -0.801297 2.618677 0.010041 0.003647 188765.000000 1 0 0
-1.646455 -5.403124 -19.761601 20.552991 1.275012 2.863188 0.029544 -0.021953 -794352.000000 1 0 0
-0.006455 -4.369824 -15.177801 15.794336 1.569319 2.861265 0.003807 -0.006314 -384099.000000 1 0 0
0.498645 0.801376 -13.063201 13.097254 1.014188 3.069466 0.006238 -0.002171 1135090.000000 1 0 0
15.830945 0.408076 -13.440601 20.771016 0.025771 2.274550 0.050932 -0.022196 476478.000000 1 0 0
0.043845 7.152576 -16.379701 17.873329 1.564666 2.729870 0.018262 0.002104 -225891.000000 1 0 0
-4.997255 -0.682924 -18.277201 18.960354 0.135818 2.872338 0.009385 0.001429 37011.000000 1 0 0
10.434345 -8.426624 -13.109101 18.754521 -0.679349 2.344771 0.023432 -0.006918 433375.000000 1 0 0
4.009845 8.796976 -17.112501 19.654601 1.143112 2.627342 0.017880 -0.008758 -111576.000000 1 0 0
9.517245 0.545276 -17.180401 19.647938 0.057231 2.635020 0.031875 0.001613 69241.400000 1 0 0
3.469745 5.018576 -18.478401 19.459613 0.965879 2.822680 0.028288 0.000024 -389427.000000 1 0 0
1.409645 -8.184224 -15.988101 18.016326 -1.400231 2.662520 -0.001589 -0.005575 800895.000000 1 0 0
4.725745 7.744276 -14.844201 17.397034 1.022893 2.593002 0.006856 -0.000038 585209.000000 1 0 0
-5.510455 -0.485424 -15.119901 16.100067 0.087865 2.790857 0.001579 -0.001623 -127984.000000 1 0 0
2.892145 3.405676 -13.721501 14.430618 0.866759 2.826799 0.008391 0.000469 555139.000000 1 0 0
-2.291555 -10.330124 -18.191701 21.045205 1.352499 2.614773 0.028683 -0.010358 -272337.000000 1 0 0
6.144645 -9.166524 -15.361801 18.914723 -0.980258 2.518643 -0.001961 0.003568 196952.000000 1 0 0
-1.656755 5.507576 -17.277501 18.209621 -1.278593 2.820248 0.014281 0.000169 -368321.000000 1 0 0
9.993145 -12.330024 -11.550601 19.629285 -0.889702 2.199921 0.043293 0.000026 -762153.000000 1 0 0
10.859245 3.651476 -9.269301 14.736907 0.324378 2.251044 0.003230 -0.002528 -1280340.000000 1 0 0
4.895145 -0.434524 -11.001401 12.049153 -0.088534 2.721481 0.002721 0.000707 -233706.000000 1 0 0
6.404345 9.533976 -11.342401 16.141945 0.979290 2.349934 0.007304 -0.009490 -379303.000000 1 0 0
10.760345 -9.521924 -9.284601 17.107188 -0.724415 2.144482 0.034501 -0.004371 -2036710.000000 1 0 0
3.318845 -2.375824 -14.578201 15.138798 -0.621290 2.868604 0.006074 0.000061 -118222.000000 1 0 0
9.185445 -4.503524 -14.702001 17.910973 -0.455849 2.533672 0.018886 -0.008058 -376685.000000 1 0 0
-3.989955 -6.608524 -16.645901 18.348797 1.027617 2.707360 0.008147 -0.007609 -1128680.000000 1 0 0
6.032845 -7.831324 -11.217401 14.951754 -0.914399 2.419221 0.001249 0.003382 137485.000000 1 0 0
5.505045 6.678976 -17.079201 19.147150 0.881452 2.672540 0.012765 0.005478 -1564440.000000 1 0 0
9.176245 1.312976 -19.620301 21.699852 0.142120 2.700223 0.039289 -0.005606 413770.000000 1 0 0
13.140245 5.779176 -9.451501 17.187082 0.414345 2.153063 0.009107 -0.007291 573466.000000 1 0 0
-1.521055 -1.062224 -17.283001 17.382291 0.609615 3.034657 0.016169 -0.002792 247582.000000 1 0 0
-0.433255 -0.684324 -19.567501 19.584257 1.006383 3.100224 0.023976 -0.006796 -164192.000000 1 0 0
2.931545 6.485276 -16.358101 17.839289 1.146255 2.731216 0.015203 -0.002278 190836.000000 1 0 0
7.726745 3.692376 -15.685401 17.870871 0.445787 2.641854 0.010179 -0.000645 -762.983000 1 0 0
3.109845 -9.867724 -14.836101 18.087371 -1.265496 2.532638 0.005334 0.003029 360075.000000 1 0 0
9.130145 -10.636924 -13.266101 19.300081 -0.861478 2.328644 0.032891 -0.000372 -127071.000000 1 0 0
3.921845 0.149576 -14.925901 15.433268 0.038121 2.884468 0.008437 0.001247 -1584230.000000 1 0 0
-1.051055 -3.082724 -18.875501 19.154437 1.242206 2.970725 0.025907 -0.007138 -1252.270000 1 0 0
9.247545 10.094176 -13.025701 18.896517 0.829143 2.331343 0.024204 -0.015481 44213.900000 1 0 0
4.667545 2.108176 -10.713701 11.874922 0.424239 2.695668 -0.000046 0.005062 80335.600000 1 0 0
-0.396155 7.123576 -18.934301 20.233883 -1.515242 2.781238 0.029536 0.000879 286704.000000 1 0 0
0.926345 -1.889124 -17.680701 17.805451 -1.114893 3.023149 0.020687 -0.004195 -2834410.000000 1 0 0
-4.360855 -2.336424 -14.041301 14.887380 0.491854 2.802834 0.004099 -0.003962 -3856500.000000 1 0 0
9.926145 6.029876 -10.387201 15.581454 0.545897 2.300487 0.008042 -0.003163 138103.000000 1 0 0
8.337345 5.518476 -17.340901 20.016787 0.584694 2.618579 0.025273 -0.012798 -2580.250000 1 0 0
11.591345 0.149476 -13.791001 18.015919 0.012895 2.442598 0.021296 0.004803 648376.000000 1 0 0
6.896545 11.984076 -11.839101 18.202877 1.048605 2.278904 0.025326 -0.017444 -399712.000000 1 0 0
-0.838655 0.584076 -15.252401 15.286603 -0.608335 3.074687 0.009691 -0.002664 -1525790.000000 1 0 0
-4.192355 -2.989024 -18.984401 19.670221 0.619378 2.876752 0.006858 -0.002183 388268.000000 1 0 0
5.718945 -12.248024 -13.828301 19.337588 -1.133955 2.367563 0.006566 0.003624 -326767.000000 1 0 0
2.234045 -4.836024 -14.131301 15.102045 -1.138042 2.781094 0.003992 -0.000771 1012640.000000 1 0 0
11.842945 2.076176 -15.364601 19.509916 0.173546 2.477583 0.035475 -0.011324 175186.000000 1 0 0
9.822345 2.135976 -13.746701 17.029758 0.214127 2.510217 0.008846 -0.004335 -720361.000000 1 0 0
-2.140555 -4.244024 -16.362901 17.039315 1.103659 2.858882 0.002832 -0.010141 -1739370.000000 1 0 0
-2.801655 10.274976 -14.307401 17.836091 -1.304600 2.501700 0.015645 -0.006140 -419678.000000 1 0 0
3.623945 5.816576 -13.598801 15.228031 1.013610 2.674789 0.004735 -0.000040 143364.000000 1 0 0
-4.950355 -2.626124 -16.529501 17.453566 0.487743 2.814735 0.004295 0.000966 475503.000000 1 0 0
-4.258355 6.221376 -13.632301 15.578150 -0.970568 2.636420 -0.003144 -0.000298 -582278.000000 1 0 0
5.892545 -1.202724 -14.032601 15.267040 -0.201344 2.736697 0.003844 0.001500 -1375730.000000 1 0 0
6.848945 -3.078224 -12.778801 14.821648 -0.422392 2.610337 0.000999 0.002065 1320150.000000 1 0 0
3.088345 -3.293224 -18.325401 18.873355 -0.817492 2.900036 0.018556 -0.009004 -136694.000000 1 0 0
7.494345 -12.076024 -11.921501 18.550411 -1.015369 2.268754 0.023124 0.001395 -510267.000000 1 0 0
-6.100055 -5.599924 -17.880601 19.704967 0.742678 2.707890 0.026916 0.000067 392706.000000 1 0 0
0.601345 8.796876 -11.933901 14.837946 1.502544 2.505263 0.005896 -0.001726 -97017.600000 1 0 0
0.493545 8.710076 -14.483301 16.907839 1.514193 2.599445 0.011881 0.000034 231186.000000 1 0 0
7.719945 -2.394624 -15.239101 17.249985 -0.300776 2.653922 0.007940 -0.001988 -663569.000000 1 0 0
14.281745 1.433276 -8.857601 16.866523 0.100022 2.123698 0.013105 0.000632 1010220.000000 1 0 0
2.884245 10.853476 -14.584701 18.407344 1.311056 2.485416 0.019772 -0.001019 -9321.170000 1 0 0
6.281045 0.854076 -15.577801 16.818111 0.135148 2.755139 0.010723 0.002976 24021.700000 1 0 0
16.792445 -5.359224 -10.416201 20.474490 -0.308927 2.104517 0.078505 -0.013075 718487.000000 1 0 0
4.917245 -4.179024 -11.258301 12.976628 -0.704419 2.621117 -0.000734 0.003342 7754.350000 1 0 0
8.841345 -3.774724 -17.166501 19.675027 -0.403513 2.631096 0.014789 -0.007736 363753.000000 1 0 0
13.265445 -9.521324 -8.859701 18.577458 -0.622542 2.067928 0.043110 -0.004995 343761.000000 1 0 0
2.429745 -7.780324 -13.608501 15.862799 -1.268100 2.601941 -0.000989 0.002477 89648.400000 1 0 0
-6.729955 -2.638024 -18.446101 19.811868 0.373576 2.768112 0.005112 -0.000299 -913953.000000 1 0 0
-1.493755 -6.560424 -15.659501 17.043780 1.346921 2.735778 0.004188 -0.008373 333684.000000 1 0 0
1.537545 -7.304824 -18.496001 19.945590 -1.363341 2.757991 0.019506 -0.009967 -464891.000000 1 0 0
5.510445 10.826576 -14.517201 18.929577 1.099995 2.444802 0.023731 -0.017641 1027010.000000 1 0 0
5.509445 -3.558524 -17.442901 18.635232 -0.573484 2.781935 0.012377 -0.004436 -661805.000000 1 0 0
4.323045 12.982376 -13.924601 19.522431 1.249352 2.364937 0.027165 -0.017848 -10816.700000 1 0 0
9.512645 10.390076 -15.575301 21.000812 0.829456 2.406327 0.037119 -0.018678 167756.000000 1 0 0
2.609445 3.897176 -16.283701 16.945681 0.980784 2.861158 0.017119 -0.000357 760596.000000 1 0 0
16.580545 1.875076 -11.408001 20.213185 0.112611 2.170483 0.038688 -0.014262 -120742.000000 1 0 0
10.054745 -3.561024 -10.426001 14.915773 -0.340379 2.344783 0.019141 -0.001638 643230.000000 1 0 0
14.763445 -2.332724 -11.990301 19.161634 -0.156711 2.246883 0.059972 -0.007722 472880.000000 1 0 0
-2.713955 -8.762324 -16.176901 18.596666 1.270437 2.625759 0.009497 -0.000251 -173402.000000 1 0 0
13.988245 8.195776 -8.910801 18.499841 0.529991 2.073355 0.037843 -0.008818 773704.000000 1 0 0
-8.171455 -0.036824 -16.569401 18.474823 0.004506 2.683424 0.005602 -0.001965 -222228.000000 1 0 0
-3.340555 4.037676 -15.848101 16.692048 -0.879602 2.822244 0.004863 0.001485 536586.000000 1 0 0
15.147045 4.009176 -9.552501 18.350933 0.258750 2.118286 0.025475 -0.005918 103224.000000 1 0 0
5.375145 1.178676 -13.046001 14.159082 0.215866 2.742432 0.003669 0.004006 570481.000000 1 0 0
7.941245 -7.689424 -12.959301 17.033323 -0.769289 2.435373 0.015826 0.000712 -848975.000000 1 0 0
3.256445 -6.069724 -11.884401 13.736265 -1.078372 2.616314 -0.001433 0.002232 -915969.000000 1 0 0
-3.163855 3.746876 -18.379301 19.022297 -0.869563 2.880846 0.013485 0.004144 -73811.400000 1 0 0
1.025445 5.279876 -17.790301 18.585571 1.378967 2.848000 0.022996 -0.003103 -227360.000000 1 0 0
6.354845 7.131676 -10.182801 13.961887 0.842935 2.388136 -0.000068 -0.002379 346062.000000 1 0 0
9.759145 3.611276 -11.563201 15.556023 0.354415 2.408826 0.005104 -0.000510 316833.000000 1 0 0
4.731745 1.580676 -17.591601 18.285305 0.322402 2.865259 0.016508 0.005914 -98069.700000 1 0 0
2.664545 8.154076 -13.238401 15.774791 1.254960 2.566630 0.007050 -0.002748 -5250.660000 1 0 0
14.410445 -3.547124 -9.837101 17.804818 -0.241351 2.156153 0.045739 -0.001808 351536.000000 1 0 0
-1.322155 9.418076 -16.234701 18.815254 -1.431323 2.611673 0.022766 0.000688 -1896290.000000 1 0 0
-5.081755 2.023876 -15.750601 16.673384 -0.379008 2.807339 0.004113 -0.000133 818584.000000 1 0 0
4.592645 4.254276 -11.885701 13.433583 0.747170 2.656808 -0.000082 0.004202 830254.000000 1 0 0
9.316245 3.104276 -17.730501 20.268192 0.321641 2.635808 0.026833 -0.001178 918076.000000 1 0 0
-4.352355 14.519976 -13.276501 20.150389 -1.279569 2.290113 0.007826 -0.009029 -247163.000000 1 0 0
15.588945 -4.904524 -8.025101 18.206367 -0.304811 2.027270 0.049615 -0.006156 676112.000000 1 0 0
1.111645 9.500076 -16.816301 19.346193 1.454312 2.624440 0.017756 0.003939 -1372950.000000 1 0 0
0.507045 -3.161124 -12.857501 13.250099 -1.411751 2.897554 0.002262 -0.000869 208023.000000 1 0 0
7.669045 3.438776 -13.204701 15.652590 0.421520 2.574770 0.004256 0.006300 67893.200000 1 0 0
-3.060955 7.743676 -15.146801 17.284662 -1.194362 2.638954 0.015542 -0.000244 849670.000000 1 0 0
12.140045 -5.102024 -11.001201 17.159189 -0.397852 2.266761 0.042994 -0.007110 -603649.000000 1 0 0
0.841145 -4.590824 -20.060701 20.596478 -1.389583 2.913003 0.039678 -0.012367 603108.000000 1 0 0
3.416745 -4.522024 -16.197801 17.160758 -0.923734 2.805002 0.007081 -0.004385 586311.000000 1 0 0
-5.533955 4.095376 -14.228401 15.806460 -0.637099 2.690942 -0.002948 -0.000194 544832.000000 1 0 0
12.210845 -7.460824 -9.871601 17.384393 -0.548468 2.174679 0.027787 -0.002938 74551.300000 1 0 0
-1.889055 -1.757324 -14.795801 15.019069 0.749287 2.968951 0.005477 -0.001791 606849.000000 1 0 0
7.176545 5.871576 -14.385001 17.114510 0.685718 2.569029 0.009577 0.001520 144918.000000 1 0 0
4.216545 -5.644924 -18.386901 19.690672 -0.929242 2.775652 0.016783 -0.011101 87499.400000 1 0 0
7.580145 7.487776 -12.366601 16.323548 0.779268 2.430413 0.002307 -0.005684 -1110420.000000 1 0 0
12.307245 -2.454524 -11.016101 16.698726 -0.196854 2.291212 0.029477 -0.004845 -1459490.000000 1 0 0
7.481245 -0.827924 -10.798301 13.162742 -0.110218 2.532852 -0.002556 0.000336 -1119010.000000 1 0 0
5.419245 4.007176 -14.349701 15.853694 0.636705 2.702489 0.000900 0.002323 1221700.000000 1 0 0
14.758545 2.812576 -12.993501 19.863441 0.188315 2.283843 0.020776 -0.015798 311000.000000 1 0 0
-6.459555 6.762276 -15.718301 18.289867 -0.808290 2.604890 0.003578 0.000825 226786.000000 1 0 0
-11.349255 3.621876 -16.213701 20.119833 -0.308913 2.507917 0.053276 -0.022662 -359275.000000 1 0 0
-4.801055 6.476276 -17.723401 19.470779 -0.932867 2.714699 0.007227 -0.000048 -37633.500000 1 0 0
-9.986255 1.494576 -15.616601 18.596701 -0.148561 2.567621 0.026692 -0.009745 -59491.700000 1 0 0
-7.372555 5.876076 -18.048001 20.362053 -0.672921 2.660208 0.008187 0.003385 437842.000000 1 0 0
-8.717555 3.808376 -16.027201 18.637883 -0.411876 2.605921 0.008150 0.014127 -301149.000000 1 0 0
9.112745 13.559076 -11.908901 20.216641 0.979057 2.200697 0.043098 -0.018222 -485138.000000 1 0 0
13.795645 9.135476 -11.452701 20.123148 0.584904 2.176245 0.039095 -0.010916 275981.000000 1 0 0
8.694045 15.737776 -9.076901 20.140858 1.066088 2.038313 0.036946 -0.013081 109281.000000 1 0 0
7.506745 13.538276 -13.833401 20.760518 1.064518 2.300075 0.033287 -0.013316 -106348.000000 1 0 0
4.771045 16.089176 -12.458201 20.900508 1.282519 2.209396 0.055334 -0.019374 351352.000000 1 0 0
11.144645 10.920076 -11.591401 19.437380 0.775221 2.209738 0.040883 -0.010069 -636018.000000 1 0 0
15.731745 9.763176 -9.879701 20.986088 0.555432 2.060964 0.063601 -0.006669 -755220.000000 1 0 0
13.350445 10.587976 -9.322401 19.422842 0.670507 2.071418 0.070957 -0.016286 879.605000 1 0 0
10.395845 11.633676 -8.336001 17.689119 0.841529 2.061504 0.014393 -0.007281 -182740.000000 1 0 0
5.544445 16.104376 -9.955401 19.728198 1.239225 2.099747 0.030786 -0.017635 61566.100000 1 0 0
6.773245 14.606576 -11.663201 19.881126 1.136598 2.197709 0.029797 -0.002718 -368416.000000 1 0 0
11.024445 13.722276 -9.683201 20.089889 0.893987 2.073725 0.049121 -0.013984 -340117.000000 1 0 0
8.378445 -18.654124 -1.171201 20.482831 -1.148652 1.628007 0.047550 0.001642 19944.900000 1 0 0
7.326745 -17.423124 -3.229201 19.174832 -1.172728 1.740011 0.029193 0.001375 -463853.000000 1 0 0
4.580045 -18.460224 5.692399 19.853465 -1.327603 1.279994 0.042032 0.008273 -134962.000000 1 0 0
9.846645 -17.161524 -2.581501 19.953407 -1.049892 1.700536 0.034561 0.005674 -362437.000000 1 0 0
-9.486255 -12.303924 -10.080901 18.520263 0.913994 2.146372 0.046293 -0.013843 -324198.000000 1 0 0
-5.205555 -7.083224 -12.249501 15.077140 0.937021 2.519147 0.009191 -0.002116 203637.000000 1 0 0
-10.924455 -9.487124 -5.667901 15.539445 0.715097 1.944153 0.022620 -0.008807 -16402.800000 1 0 0
-4.403355 -11.562624 -14.050001 18.721280 1.206927 2.419589 0.013754 -0.008850 380871.000000 1 0 0
-2.887755 -15.552924 7.334899 17.436551 1.387214 1.136621 0.005415 0.003989 252641.000000 1 0 0
-4.627455 -12.066524 -11.546501 17.330206 1.204599 2.299985 0.002913 -0.006401 720979.000000 1 0 0
-14.376955 -12.817824 -4.217001 19.717417 0.728129 1.786333 0.045712 -0.013393 180885.000000 1 0 0
-3.252355 -12.358624 -3.324801 13.204836 1.313466 1.825322 0.001797 -0.005801 893473.000000 1 0 0
-2.396655 -17.292524 -1.560401 17.527412 1.433079 1.659941 -0.005430 -0.011454 118510.000000 1 0 0
-5.782355 -12.161424 3.631799 13.947251 1.126967 1.307365 -0.001674 -0.002930 870597.000000 1 0 0
-8.755255 -10.712724 -12.086401 18.371120 0.885609 2.288826 0.033272 -0.009095 1127780.000000 1 0 0
-9.617555 -12.028024 -7.493001 17.126465 0.896302 2.023624 0.035374 -0.014880 -277448.000000 1 0 0
-10.957155 -14.959524 6.176799 19.544806 0.938620 1.249251 0.031140 -0.008981 -1037920.000000 1 0 0
-9.319455 -15.903924 0.382899 18.437290 1.040746 1.550027 0.014588 0.001032 -786241.000000 1 0 0
-14.774255 -7.463524 -8.127701 18.440237 0.467776 2.027240 0.026184 -0.014506 -182093.000000 1 0 0
-2.370855 -16.524124 4.992299 17.423853 1.428290 1.280203 0.015817 0.000164 1357820.000000 1 0 0
4.673245 -15.916624 5.778599 17.566170 -1.285214 1.235592 0.033397 -0.003109 215274.000000 1 0 0
4.051945 -14.777424 -9.923401 18.255531 -1.303176 2.145497 -0.008198 0.002152 -11506.300000 1 0 0
-7.519255 -14.095024 -0.428901 15.981015 1.080734 1.597638 0.003858 -0.003204 246217.000000 1 0 0
3.043845 -14.916824 9.634299 18.016557 -1.369505 1.006588 0.027260 -0.005408 -264995.000000 1 0 0
2.475945 -17.198124 10.536499 20.320521 -1.427813 1.025683 0.047465 -0.007477 -277368.000000 1 0 0
-8.333755 -17.163924 -5.519801 19.862527 1.118784 1.852404 0.032097 -0.011934 -409831.000000 1 0 0
-6.428555 -9.141224 -7.757001 13.603653 0.957893 2.177563 0.011000 -0.007451 279451.000000 1 0 0
-6.002955 -12.969224 -4.824601 15.083534 1.137298 1.896377 0.000409 -0.009959 708906.000000 1 0 0
2.079745 -19.307824 -4.827201 20.010479 -1.463495 1.814433 0.021845 -0.015371 -189779.000000 1 0 0
-5.597155 -13.003024 8.268099 16.394152 1.164318 1.042188 0.009354 -0.002503 838497.000000 1 0 0
2.232645 -17.443324 3.403499 17.911953 -1.443494 1.379621 0.026310 -0.009844 287871.000000 1 0 0
-17.553555 -10.084224 -2.658601 20.417812 0.521446 1.701377 0.046613 -0.012774 593089.000000 1 0 0
-3.475855 -15.455624 2.602999 16.054080 1.349584 1.407938 0.002524 -0.000669 76840.200000 1 0 0
-10.263155 -10.335824 -14.214801 20.352449 0.788926 2.344001 0.054290 -0.015949 184028.000000 1 0 0
6.117345 -14.549924 -5.600501 16.747770 -1.172796 1.911768 0.001388 -0.003439 162510.000000 1 0 0
-7.137155 -12.311024 -10.917301 17.935656 1.045409 2.225208 0.021106 -0.012938 -1228370.000000 1 0 0
-7.074055 -14.409324 3.922199 16.524361 1.114426 1.331151 -0.004464 0.004453 367853.000000 1 0 0
3.298645 -15.046124 -3.061101 15.704688 -1.354975 1.766969 0.009955 -0.004174 -1697580.000000 1 0 0
-7.633855 -11.472224 7.743599 15.806675 0.983657 1.058828 0.007669 -0.007778 -1563280.000000 1 0 0
-12.689755 -12.413424 -1.131001 17.787696 0.774391 1.634423 0.023947 0.001065 -2448650.000000 1 0 0
-1.920255 -13.596724 3.967499 14.293331 1.430495 1.289525 0.007947 0.001440 -2388470.000000 1 0 0
-3.153255 -13.953624 5.243999 15.236343 1.348548 1.219434 0.001516 -0.000032 93595.300000 1 0 0
-14.344255 -10.302524 -4.470301 18.217663 0.622859 1.818711 0.018296 -0.010565 123825.000000 1 0 0
-6.161355 -8.661724 -10.454601 14.909274 0.952506 2.347896 0.010160 -0.005352 87839.100000 1 0 0
0.871645 -19.570324 2.398899 19.736060 -1.526287 1.448946 0.026466 -0.008768 132747.000000 1 0 0
6.275345 -13.878824 -8.133201 17.267040 -1.146154 2.061248 0.012581 -0.006050 -2308520.000000 1 0 0
-4.068855 -16.808724 -5.951401 18.289559 1.333297 1.902230 0.003120 -0.007462 185657.000000 1 0 0
-3.441055 -13.764124 -13.129901 19.330967 1.325816 2.317490 0.010454 -0.005344 -443372.000000 1 0 0
-8.098555 -14.633724 -4.521001 17.325470 1.065333 1.834798 0.008728 -0.014639 -1741380.000000 1 0 0
-4.565255 -14.411824 10.133699 18.199837 1.264025 0.980266 0.012188 -0.003770 -114436.000000 1 0 0
-0.267955 -12.074324 -9.957901 15.653143 1.548608 2.260307 0.000026 0.000140 1070470.000000 1 0 0
2.520045 -17.181824 6.653899 18.596776 -1.425165 1.204887 0.035484 -0.008418 -1770520.000000 1 0 0
-2.872455 -19.147224 -3.455801 19.667479 1.421887 1.747425 0.004704 -0.014382 -1135140.000000 1 0 0
0.646645 -15.345324 -3.032901 15.655529 -1.528682 1.765756 0.003171 -0.005018 -509579.000000 1 0 0
6.090845 -17.943224 0.660799 18.960335 -1.243550 1.535938 0.029829 -0.007420 -199862.000000 1 0 0
-7.082055 -16.829924 3.712699 18.632927 1.172487 1.370199 -0.002312 0.006827 1037660.000000 1 0 0
-5.185855 -13.558024 -9.611601 17.409652 1.205472 2.155659 0.002424 -0.007764 76706.200000 1 0 0
5.739145 -15.292424 -2.146301 16.474302 -1.211769 1.701449 0.016295 0.000273 -940905.000000 1 0 0
-8.846955 -10.218924 -0.568201 13.528410 0.857234 1.612809 0.004006 -0.001991 926253.000000 1 0 0
-7.072855 -18.409624 -3.177101 19.975823 1.203990 1.730522 0.005784 -0.019983 55859.400000 1 0 0
7.915745 -16.022524 -1.167901 17.909335 -1.111929 1.636055 0.019497 -0.000444 -456725.000000 1 0 0
-7.973755 -10.182624 -9.697501 16.165028 0.906461 2.214180 0.028759 -0.009879 229210.000000 1 0 0
-8.917755 -15.125124 -6.994701 18.900306 1.038060 1.949896 0.042326 -0.015911 -371710.000000 1 0 0
-11.479655 -10.552324 -11.983201 19.665481 0.743333 2.226039 0.056819 -0.007519 -822995.000000 1 0 0
6.645145 -16.240924 2.562799 17.733964 -1.182418 1.425775 0.028030 -0.005804 1518110.000000 1 0 0
-2.157355 -11.125824 -6.190201 12.913432 1.379268 2.070723 -0.000634 -0.001470 -1125610.000000 1 0 0
-12.242755 -15.473324 -3.451001 20.030432 0.901434 1.743948 0.041936 -0.010700 -84150.300000 1 0 0
-0.425155 -19.653224 -2.878001 19.867382 1.549167 1.716168 0.032122 -0.015131 -342974.000000 1 0 0
-5.810455 -15.544124 -4.767501 17.265869 1.213075 1.850554 0.001211 -0.011912 -3512400.000000 1 0 0
2.045445 -15.951024 -0.995801 16.112437 -1.443260 1.632639 0.011911 -0.007339 522291.000000 1 0 0
-13.315955 -11.935724 5.136099 18.605259 0.730793 1.291108 0.032412 -0.007116 324551.000000 1 0 0
1.968145 -15.304124 -8.624801 17.677019 -1.442896 2.080491 0.002222 0.005580 -1431820.000000 1 0 0
-11.716055 -16.867024 -0.246701 20.538337 0.963695 1.582808 0.061339 -0.009060 445408.000000 1 0 0
-7.287355 -16.653924 -1.253001 18.221656 1.158322 1.639615 0.010940 -0.007673 503442.000000 1 0 0
-2.956455 -14.444624 -1.767501 14.849641 1.368910 1.690106 -0.001511 -0.006097 639858.000000 1 0 0
-1.725755 -10.577524 -13.142301 16.958252 1.409068 2.457479 -0.004444 -0.003364 -172583.000000 1 0 0
1.612845 -19.447224 4.881599 20.115312 -1.488051 1.325668 0.041337 -0.010851 -257417.000000 1 0 0
-17.406955 -9.437024 2.304399 19.934136 0.496789 1.454937 0.039619 -0.011037 224911.000000 1 0 0
-2.813455 -15.717024 -8.084901 17.897094 1.393666 2.039515 0.000901 0.000835 -1042980.000000 1 0 0
-10.542555 -12.179624 0.193699 16.109818 0.857321 1.558772 0.009485 -0.000320 642780.000000 1 0 0
-6.852755 -11.437724 -6.601801 14.878359 1.031012 2.030540 0.008101 -0.008882 -466682.000000 1 0 0
-2.182555 -13.640524 -6.687401 15.347598 1.412136 2.021645 -0.007158 0.000189 505947.000000 1 0 0
-14.387055 -14.492124 -1.192901 20.455611 0.789036 1.629146 0.060763 -0.002799 329701.000000 1 0 0
-9.603055 -11.279324 -4.469801 15.473233 0.865498 1.863846 0.019846 -0.011789 1155900.000000 1 0 0
9.351245 -15.191924 -5.199201 18.581497 -1.019028 1.854388 0.020244 0.001753 153226.000000 1 0 0
-5.474255 -10.936424 -9.354501 15.397387 1.106707 2.223754 0.007992 -0.006101 -425769.000000 1 0 0
-10.352455 -15.853324 -5.126801 19.615945 0.992305 1.835226 0.049165 -0.017413 -3894790.000000 1 0 0
2.283145 -17.328224 -3.275501 17.782266 -1.439792 1.756055 0.021100 -0.008355 493176.000000 1 0 0
-0.460555 -14.470924 -8.226401 16.652130 1.538981 2.087498 -0.001719 0.002066 -1057570.000000 1 0 0
-0.444055 -18.260024 -7.126001 19.606263 1.546483 1.942771 0.021914 -0.006012 177827.000000 1 0 0
-1.753455 -9.851824 -10.519401 14.518638 1.394658 2.381170 -0.001930 -0.000231 415125.000000 1 0 0
-5.066555 -17.301024 1.854399 18.122754 1.285915 1.468293 0.001967 -0.004435 98333.800000 1 0 0
0.319345 -12.817124 -2.621201 13.086303 -1.545886 1.772462 0.000393 -0.003963 -1712960.000000 1 0 0
2.762445 -14.944724 3.064099 15.503695 -1.388015 1.371850 0.019810 -0.004377 -694997.000000 1 0 0
-9.305555 -13.117224 6.759099 17.445353 0.953779 1.172939 0.004271 -0.004415 -926216.000000 1 0 0
-1.064855 -17.831424 -4.625401 18.452315 1.511149 1.824166 0.015929 -0.009449 -13095.000000 1 0 0
-9.416855 -17.426024 -2.513701 19.966526 1.075361 1.697027 0.036531 -0.025496 -1045830.000000 1 0 0
1.373245 -16.099224 1.469599 16.224381 -1.485703 1.480092 0.010952 -0.010494 -297956.000000 1 0 0
-0.311755 -17.957124 4.067499 18.414669 1.553437 1.348076 0.020244 -0.009115 190226.000000 1 0 0
-17.311455 -9.297924 -0.211501 19.651529 0.492883 1.581559 0.027036 -0.007924 596171.000000 1 0 0
-14.703755 -7.303224 -10.674401 19.582654 0.460997 2.147298 0.047877 -0.020298 306922.000000 1 0 0
2.793545 -12.758124 -8.674201 15.678500 -1.355236 2.157062 -0.010469 0.001871 678821.000000 1 0 0
-11.477355 -14.952624 1.496299 18.908981 0.916138 1.491582 0.030121 0.007123 29169.800000 1 0 0
-2.208755 -15.459724 10.347499 18.733723 1.428885 0.985620 0.018775 -0.003416 -281225.000000 1 0 0
-7.052155 -15.848924 1.257699 17.392616 1.152141 1.498421 0.002611 -0.001660 -1307480.000000 1 0 0
-12.639555 -15.072824 -6.008201 20.568103 0.872978 1.867231 0.066416 -0.016018 599255.000000 1 0 0
1.047445 -13.795924 -5.105401 14.747534 -1.495018 1.924300 0.002750 -0.001978 515207.000000 1 0 0
5.962145 -16.308924 -7.571101 18.943330 -1.220314 1.981954 0.016939 -0.009118 385681.000000 1 0 0
-6.570355 -12.837524 5.834599 15.556803 1.097747 1.186344 0.005085 -0.004232 -5759.690000 1 0 0
-2.506255 -13.468624 0.611799 13.713476 1.386820 1.526169 0.003799 -0.003918 3836590.000000 1 0 0
-4.231855 -15.386624 0.209999 15.959351 1.302398 1.557638 0.000255 -0.007250 105782.000000 1 0 0
-17.739455 -7.593324 -2.277201 19.430195 0.404449 1.688265 0.027937 -0.005796 1290060.000000 1 0 0
1.269045 -12.679324 -11.865201 17.411454 -1.471041 2.320551 -0.003243 0.005203 -1472610.000000 1 0 0
1.262845 -17.009224 -5.747101 17.998268 -1.496688 1.895802 0.023492 -0.008597 -1605950.000000 1 0 0
-12.768055 -6.233824 -9.283101 16.972323 0.454192 2.149519 0.028839 -0.008726 1696140.000000 1 0 0
-11.207555 -13.645024 -8.627201 19.652597 0.883163 2.025265 0.050243 -0.017596 418851.000000 1 0 0
-4.367455 -9.810824 3.514999 11.299652 1.151969 1.254476 0.004009 -0.004593 -4081430.000000 1 0 0
-7.220655 -14.282824 9.679199 18.703577 1.102720 1.026864 0.016536 -0.007652 -1404990.000000 1 0 0
-5.377255 -15.890924 -8.101801 18.629963 1.244506 2.020702 -0.001869 -0.009488 -378002.000000 1 0 0
-0.247355 -13.408324 2.166599 13.584494 1.552351 1.410622 0.007372 -0.005030 586522.000000 1 0 0
-11.000455 -13.521624 -4.635501 18.036967 0.887850 1.830713 0.047049 -0.009906 -753184.000000 1 0 0
-9.807455 -10.663024 6.566399 15.906095 0.827169 1.145245 0.014326 -0.002978 -511842.000000 1 0 0
-15.664355 -8.287024 -5.026701 18.420492 0.486606 1.847188 0.038313 -0.008413 -788519.000000 1 0 0
-14.692355 -7.439424 5.505899 17.364483 0.468712 1.248149 0.026224 -0.008351 -275864.000000 1 0 0
-1.496755 -19.235524 0.005899 19.293669 1.493141 1.570491 0.017607 -0.012998 -55690.800000 1 0 0
-15.304855 -12.138624 -1.460101 19.588688 0.670533 1.645403 0.041198 -0.001331 654778.000000 1 0 0
-4.319455 -12.080924 -6.786601 14.514281 1.227417 2.057348 0.000203 -0.005091 -971659.000000 1 0 0
-7.427555 -18.385924 1.842299 19.914940 1.186863 1.478155 0.010989 0.001416 -417784.000000 1 0 0
-2.533855 -11.751924 -8.651101 14.811134 1.358435 2.194560 -0.004237 0.000965 157444.000000 1 0 0
-1.279655 -20.429324 -5.162201 21.110261 1.508240 1.817837 0.031990 -0.011907 -187963.000000 1 0 0
-5.362555 -9.011624 -13.943201 17.446467 1.034009 2.496758 0.014638 -0.006343 716012.000000 1 0 0
-8.269255 -19.087224 -0.968301 20.824032 1.161971 1.617312 0.021259 -0.010220 119889.000000 1 0 0
-17.186155 -7.299824 5.595199 19.492501 0.401659 1.279657 0.042553 -0.011954 -558097.000000 1 0 0
-3.457455 -14.779824 -4.340801 15.787328 1.340998 1.849339 -0.002326 -0.003771 -1971390.000000 1 0 0
-2.729655 -15.020124 -10.835801 18.720837 1.391025 2.188065 0.000283 0.001829 -246694.000000 1 0 0
-0.019655 -16.522524 6.225599 17.656507 1.569607 1.210453 0.032755 -0.011901 -1343300.000000 1 0 0
-11.164955 -11.670624 3.776399 16.586768 0.807538 1.341107 0.014112 -0.000810 742629.000000 1 0 0
-0.088855 -14.552024 -0.140801 14.552976 1.564690 1.580472 0.000847 -0.003498 508682.000000 1 0 0
-7.268955 -9.530524 -2.477001 12.239450 0.919215 1.774582 0.008769 -0.003938 280512.000000 1 0 0
-11.073255 -14.471724 -0.985201 18.248792 0.917660 1.624810 0.024156 -0.006173 304599.000000 1 0 0
0.478545 -14.585224 -10.600301 18.036744 -1.537998 2.199017 -0.004661 0.002674 -520668.000000 1 0 0
-1.331555 -14.129124 -3.834801 14.700710 1.476832 1.834707 -0.005694 -0.001795 -2753770.000000 1 0 0
-11.432655 -8.042724 -7.705801 15.961528 0.613062 2.074615 0.023131 -0.010986 492587.000000 1 0 0
-0.140655 -17.104024 -0.342901 17.108039 1.562573 1.590841 0.008718 -0.013922 -403090.000000 1 0 0
-12.929655 -9.546624 4.577499 16.711299 0.636004 1.293333 0.017759 -0.002453 -298268.000000 1 0 0
4.025345 -16.802724 1.646699 17.356455 -1.335663 1.475778 0.026564 -0.009381 1016850.000000 1 0 0
-3.783055 -18.024724 -8.098001 20.119140 1.363918 1.985045 0.014377 -0.005513 145504.000000 1 0 0
-13.428755 -11.212024 2.569499 17.681721 0.695678 1.424960 0.019165 -0.005267 311250.000000 1 0 0
-8.523855 -12.273024 3.929299 15.450651 0.963758 1.313659 0.008440 -0.003330 339728.000000 1 0 0
-8.335755 -9.477524 -5.986601 13.969526 0.849407 2.013681 0.013349 -0.008930 1125130.000000 1 0 0
3.832645 -17.405424 -5.284601 18.589377 -1.354057 1.859052 0.004234 -0.000223 1072250.000000 1 0 0
-2.626355 -13.047724 11.265899 17.437354 1.372162 0.868361 0.010962 -0.005749 270188.000000 1 0 0
0.027245 -16.792424 -9.500901 19.293868 -1.569174 2.085677 0.004660 0.004601 -243725.000000 1 0 0
-6.946155 -10.936424 -14.733201 19.619420 1.004939 2.420296 0.017997 -0.000641 -239454.000000 1 0 0
-4.530855 -18.798024 -1.481501 19.393019 1.334279 1.647264 0.012777 -0.019582 -769518.000000 1 0 0
-2.481255 -17.066224 1.002199 17.274751 1.426418 1.512748 0.008481 -0.013476 -460598.000000 1 0 0
4.009745 -14.620224 -7.273001 16.814444 -1.303118 2.018110 0.002320 -0.002484 -832675.000000 1 0 0
-0.999755 -15.861124 -6.132801 17.034847 1.507848 1.939080 -0.000368 -0.002455 -124707.000000 1 0 0
-9.431155 -15.168624 8.263599 19.680470 1.014534 1.137474 0.012289 -0.010198 -750375.000000 1 0 0
-7.217755 -12.070224 -1.838001 14.183249 1.031863 1.700751 0.001766 -0.006603 654775.000000 1 0 0
-7.230355 -15.024324 -9.378701 19.130300 1.122266 2.083177 0.024455 -0.015987 -637854.000000 1 0 0
-5.033155 -13.114224 -0.677001 14.063209 1.204339 1.618955 0.001357 -0.004983 2095740.000000 1 0 0
-6.401155 -13.683624 -7.302001 16.779022 1.133242 2.021042 0.003760 -0.011941 375107.000000 1 0 0
5.756445 -15.429524 0.295699 16.471014 -1.213710 1.552843 0.019166 -0.004262 540971.000000 1 0 0
-14.424255 -12.877024 0.835099 19.353921 0.728786 1.527634 0.024437 0.001259 950914.000000 1 0 0
0.862945 -15.292924 11.079499 18.904324 -1.514428 0.944581 0.017767 -0.003139 123510.000000 1 0 0
-9.346155 -10.837624 1.936499 14.441424 0.859159 1.436298 0.006404 -0.000501 354974.000000 1 0 0
-9.478155 -8.800524 -3.629401 13.433436 0.748343 1.844373 0.010189 -0.007407 265196.000000 1 0 0
-12.219655 -7.201324 -12.363201 18.815626 0.532532 2.287723 0.046408 -0.011432 20639.000000 1 0 0
-13.232555 -8.494124 -0.742201 15.741713 0.570668 1.617963 0.007349 -0.000974 -386475.000000 1 0 0
-11.276955 -9.719324 0.502199 14.895878 0.711348 1.537076 0.002700 0.001544 935873.000000 1 0 0
-15.932855 -12.163524 2.891199 20.252561 0.652037 1.427550 0.051577 -0.003643 443753.000000 1 0 0
-10.491355 -12.432224 -2.332001 16.433714 0.869864 1.713180 0.023819 -0.014330 185116.000000 1 0 0
-3.407555 -8.939424 -12.156601 15.469573 1.206616 2.474849 0.005125 -0.001032 -1260360.000000 1 0 0
-0.217055 -15.535024 3.747499 15.982109 1.556825 1.334112 0.020033 -0.003742 -902023.000000 1 0 0
-15.629155 -7.786424 1.207399 17.503048 0.462205 1.501759 0.013403 -0.001980 569524.000000 1 0 0
-5.999455 -13.505324 -13.333801 19.904208 1.152752 2.304869 0.016501 -0.010914 -967028.000000 1 0 0
-15.312955 -10.361724 0.979999 18.515192 0.594892 1.517842 0.031753 -0.005205 114938.000000 1 0 0
-9.970755 -8.483224 -12.606301 18.174154 0.704964 2.337325 0.034801 -0.003294 625748.000000 1 0 0
-13.204355 -11.705724 -6.294601 18.735020 0.725309 1.913442 0.040546 -0.011783 -58978.600000 1 0 0
-12.169455 -11.388724 -3.888701 17.114925 0.752270 1.800009 0.026190 -0.008677 -2523390.000000 1 0 0
-11.585555 -11.068024 -8.985001 18.369989 0.762557 2.081869 0.046676 -0.021576 889316.000000 1 0 0
-13.335155 -8.584024 -6.084001 16.986080 0.571943 1.937110 0.024002 -0.004888 -1311460.000000 1 0 0
-13.566055 -8.230324 -3.382701 16.224018 0.545321 1.780837 0.014782 -0.007070 -108434.000000 1 0 0
-4.375355 -17.044124 -3.314501 17.906195 1.319515 1.756974 0.000711 -0.013058 -357251.000000 1 0 0
-15.451555 -8.843824 -1.873801 17.901813 0.519847 1.675659 0.030850 -0.003340 -3033550.000000 1 0 0
-9.359355 -15.430624 3.387799 18.362431 1.025579 1.385237 0.012622 -0.003942 -708632.000000 1 0 0
4.670545 -17.172724 8.044499 19.530243 -1.305245 1.146259 0.049922 -0.022747 -1783.570000 1 0 0
-8.417355 -15.530824 5.809299 18.595868 1.074133 1.253081 0.005926 0.004378 713970.000000 1 0 0
1.007545 -16.252824 8.596199 18.413692 -1.508884 1.085085 0.021847 0.004393 82060.600000 1 0 0
-10.864655 -7.760624 -10.248701 16.831634 0.620259 2.225463 0.031412 -0.010499 1127300.000000 1 0 0
-4.820255 -16.024024 5.582599 17.640000 1.278593 1.248786 0.008686 -0.002444 -529026.000000 1 0 0
-1.161755 -13.264424 -12.168901 18.038203 1.483435 2.311244 -0.002015 0.002213 -430368.000000 1 0 0
-6.273855 -14.295524 -2.631201 15.831819 1.157238 1.737768 0.003407 -0.009947 200857.000000 1 0 0
-17.718355 -6.851924 -7.231501 20.326918 0.369000 1.934523 0.047431 -0.020455 514746.000000 1 0 0
-17.315955 -3.924424 -10.238901 20.495817 0.222871 2.093888 0.050131 -0.025005 609094.000000 1 0 0
-15.277055 -5.202724 -9.142301 18.548273 0.328239 2.086207 0.027487 -0.021364 372352.000000 1 0 0
-15.969655 -5.459824 -5.816001 17.851203 0.329429 1.902659 0.021769 -0.008836 1038900.000000 1 0 0
-15.079355 -4.295624 -12.414401 19.998917 0.277517 2.240500 0.039362 -0.020691 -1153440.000000 1 0 0
-18.596855 -5.039024 -5.616901 20.069488 0.264607 1.854458 0.034093 -0.013793 490813.000000 1 0 0
-17.341355 -4.299324 -7.773501 19.484202 0.243023 1.981183 0.029108 -0.016653 463064.000000 1 0 0
12.136445 -7.868924 8.672999 16.865176 -0.575229 1.030658 0.022937 -0.015521 281648.000000 1 0 0
16.124045 -3.191824 1.678099 16.522366 -0.195428 1.469056 0.027309 -0.009429 155187.000000 1 0 0
11.929245 -2.010124 12.619299 17.481252 -0.166936 0.764287 0.037163 -0.005866 194407.000000 1 0 0
9.629545 -9.993424 5.140799 14.799475 -0.803940 1.216038 0.003488 -0.009866 -37942.200000 1 0 0
17.090045 -2.170524 7.324099 18.719595 -0.126329 1.168804 0.054255 -0.011450 -193821.000000 1 0 0
5.107345 -12.921224 9.279199 16.707679 -1.194376 0.981970 0.012617 0.001298 -123344.000000 1 0 0
15.110745 -8.993624 -2.065501 17.705541 -0.536868 1.687721 0.041834 -0.012046 -113899.000000 1 0 0
11.180145 -8.676424 6.437699 15.547345 -0.659970 1.143875 0.012856 -0.011367 -2071340.000000 1 0 0
19.772745 -3.172424 3.445699 20.319905 -0.159088 1.400400 0.058445 -0.017823 330119.000000 1 0 0
13.650245 -8.688324 6.870299 17.578884 -0.566823 1.169267 0.027839 -0.010449 -919459.000000 1 0 0
8.193645 -10.978024 8.946699 16.361425 -0.929624 0.992239 0.004297 -0.007825 -3025340.000000 1 0 0
16.729745 0.040976 -0.510401 16.737579 0.002449 1.601295 0.010358 0.001294 -348970.000000 1 0 0
12.427745 -12.315524 2.332099 17.651052 -0.780863 1.438287 0.027857 -0.006388 -1684070.000000 1 0 0
10.314345 -11.684424 3.590299 15.993802 -0.847598 1.344386 0.010574 -0.006333 -595417.000000 1 0 0
16.320145 2.929276 2.521699 16.771605 0.177597 1.419869 0.009315 -0.002034 1540840.000000 1 0 0
18.353445 -3.294624 0.370599 18.650491 -0.177618 1.550924 0.040974 -0.010608 -262041.000000 1 0 0
13.535345 -11.738124 -0.149401 17.916792 -0.714407 1.579135 0.055060 -0.006406 -353495.000000 1 0 0
16.956745 -7.687724 -0.738801 18.632716 -0.425655 1.610457 0.051050 -0.012586 499856.000000 1 0 0
10.159245 -5.776124 9.697699 15.186152 -0.516980 0.878134 0.015233 -0.007966 -2073810.000000 1 0 0
11.191945 -13.193424 6.115299 18.350012 -0.867292 1.231039 0.017784 -0.012181 -1071360.000000 1 0 0
13.177545 -1.685524 10.356999 16.845062 -0.127218 0.908615 0.040043 -0.008788 966513.000000 1 0 0
15.671445 -2.187024 -1.413101 15.886287 -0.138659 1.659865 0.012690 -0.002513 958120.000000 1 0 0
10.391645 -12.426624 9.038299 18.549881 -0.874345 1.061867 0.021950 -0.017189 299647.000000 1 0 0
14.435245 1.256076 3.338999 14.869530 0.086796 1.344312 0.012334 -0.004412 1033990.000000 1 0 0
15.013445 -5.795624 5.261399 16.931482 -0.368405 1.254818 0.034687 -0.010461 -234205.000000 1 0 0
14.378045 -3.581824 -3.007401 15.119593 -0.244148 1.771039 0.018180 -0.005323 896843.000000 1 0 0
14.049245 0.647176 9.635899 17.048480 0.046032 0.970114 0.044584 -0.014632 447013.000000 1 0 0
15.387245 -3.478224 4.262399 16.341156 -0.222310 1.306906 0.019947 -0.009263 -144947.000000 1 0 0
18.509445 4.819476 -4.268501 19.597117 0.254723 1.790369 0.014870 0.005258 520916.000000 1 0 0
18.283145 -5.896224 -5.145901 19.887663 -0.311965 1.832523 0.072962 -0.014220 370074.000000 1 0 0
17.321345 0.008176 6.170499 18.387607 0.000472 1.228576 0.049825 -0.008424 643460.000000 1 0 0
17.091045 -6.772724 4.028799 18.820330 -0.377290 1.355060 0.055846 -0.013048 41187.500000 1 0 0
9.789045 -6.512124 14.268299 18.488307 -0.587018 0.689212 0.032855 -0.003940 -918620.000000 1 0 0
8.522145 -12.308224 5.169999 15.838188 -0.965193 1.238276 0.008347 -0.008887 -2622220.000000 1 0 0
16.836745 -10.258524 -0.493301 19.721983 -0.547225 1.595812 0.052955 -0.009172 267912.000000 1 0 0
14.917045 -8.830624 0.478099 17.341474 -0.534503 1.543223 0.048576 -0.015179 -352550.000000 1 0 0
10.029745 -12.937424 1.449099 16.433886 -0.911330 1.482504 0.016685 -0.007993 -132324.000000 1 0 0
16.795545 -8.172224 8.866399 20.675797 -0.452847 1.127599 0.053937 -0.015455 696607.000000 1 0 0
19.158845 -0.061224 -1.518101 19.218993 -0.003196 1.649868 0.043877 -0.006796 -131292.000000 1 0 0
13.418645 -1.197424 7.847999 15.591181 -0.089000 1.043312 0.025544 -0.010073 621581.000000 1 0 0
12.793245 -9.707624 -3.037601 16.344176 -0.649115 1.757735 0.027080 -0.010717 -607473.000000 1 0 0
8.900545 -15.224324 1.455799 17.695171 -1.041757 1.488432 0.023562 -0.001361 262854.000000 1 0 0
11.400945 -8.427224 11.082999 17.995347 -0.636533 0.907292 0.028716 -0.012767 -470704.000000 1 0 0
13.943345 -3.969224 -0.474101 14.505046 -0.277332 1.603487 0.010674 -0.009100 -35868.500000 1 0 0
7.195445 -13.158924 10.865099 18.519775 -1.070405 0.943849 0.017810 -0.000232 -487883.000000 1 0 0
15.376845 -6.593524 1.971099 16.846576 -0.405081 1.453525 0.035766 -0.014017 -826839.000000 1 0 0
15.824845 -6.213224 -2.421901 17.172521 -0.374132 1.712302 0.045905 -0.014177 -14866.400000 1 0 0
11.222345 -8.606024 3.804099 14.644993 -0.654208 1.308029 0.011403 -0.010097 3608.770000 1 0 0
10.800045 -14.515424 -0.469601 18.098591 -0.931121 1.596746 0.036919 -0.006166 954249.000000 1 0 0
13.344945 -12.854724 4.716799 19.120138 -0.766689 1.321530 0.023317 -0.007202 226951.000000 1 0 0
12.808045 -11.115824 6.535799 18.174824 -0.714782 1.202949 0.015703 -0.013080 -1129980.000000 1 0 0
10.974545 -10.495724 1.354599 15.245845 -0.763100 1.481829 0.017910 -0.009222 550974.000000 1 0 0
13.880045 -7.761024 11.855599 19.835432 -0.509841 0.930170 0.044620 -0.018369 1500040.000000 1 0 0
15.299445 -1.906824 -4.749401 16.132755 -0.123994 1.869619 0.020144 0.001895 102581.000000 1 0 0
12.957845 -11.241824 -7.058001 18.549925 -0.714606 1.961119 0.037891 -0.007642 466291.000000 1 0 0
17.634045 -5.263524 1.989599 18.510071 -0.290068 1.463101 0.054259 -0.015128 56630.900000 1 0 0
10.577245 -9.806424 9.054999 17.030474 -0.747601 1.010197 0.009325 -0.012475 -1935330.000000 1 0 0
16.482845 1.746676 9.887499 19.300199 0.105575 1.032935 0.071136 -0.019908 39263.700000 1 0 0
18.128845 3.860476 0.641199 18.546413 0.209813 1.536217 0.015812 0.000044 647562.000000 1 0 0
13.272345 -4.050524 5.749199 15.020491 -0.296207 1.178018 0.016119 -0.009873 -946222.000000 1 0 0
12.182845 -6.258624 6.574899 15.192806 -0.474567 1.123240 0.013589 -0.012721 -474172.000000 1 0 0
16.493645 -10.233724 3.437099 19.712510 -0.555331 1.395539 0.041180 -0.010740 -441955.000000 1 0 0
16.307345 -7.979224 -5.444201 18.953544 -0.455053 1.862140 0.057599 -0.015376 598484.000000 1 0 0
13.894745 -0.359924 5.378899 14.903893 -0.025898 1.201558 0.017864 -0.006331 1278960.000000 1 0 0
18.166245 -4.233624 5.060499 19.327304 -0.228962 1.305877 0.058512 -0.011388 -91411.100000 1 0 0
13.409345 -13.610624 7.238499 20.431727 -0.792847 1.208655 0.032160 -0.007894 -312472.000000 1 0 0
14.948745 -13.716924 -1.127001 20.319673 -0.742453 1.626288 0.055985 -0.000256 184747.000000 1 0 0
17.872845 -5.918624 8.026899 20.467041 -0.319786 1.167789 0.064369 -0.009969 361164.000000 1 0 0
14.376745 3.305576 9.577099 17.588020 0.225997 0.994975 0.042880 -0.013962 485124.000000 1 0 0
18.768945 3.632176 3.088799 19.365089 0.191158 1.410609 0.039014 -0.006790 -1255880.000000 1 0 0
14.778745 -10.765624 8.112399 20.003024 -0.629568 1.153206 0.037700 -0.015847 -552613.000000 1 0 0
14.782445 -4.781724 10.358999 18.673361 -0.312850 0.982737 0.050953 -0.017690 -43235.600000 1 0 0
17.755445 -7.794924 1.845599 19.478780 -0.413682 1.475905 0.073888 -0.020359 -209619.000000 1 0 0
18.414645 -5.974224 -1.987301 19.461240 -0.313714 1.673090 0.050612 -0.015215 -328996.000000 1 0 0
14.299445 -12.942924 -5.620701 20.089442 -0.735645 1.854365 0.040566 -0.005218 502016.000000 1 0 0
15.606445 -1.444524 9.397599 18.274644 -0.092296 1.030672 0.065087 -0.014625 515970.000000 1 0 0
12.931145 -10.074224 10.059699 19.232837 -0.661846 1.020373 0.018470 -0.023378 -1811970.000000 1 0 0
16.407445 2.082676 5.003499 17.279374 0.126260 1.277024 0.024300 -0.008122 -687815.000000 1 0 0
15.010945 2.308376 0.003399 15.187398 0.152584 1.570573 0.002332 0.003514 -1310130.000000 1 0 0
15.057445 -9.574724 -7.049601 19.185902 -0.566385 1.947048 0.048452 -0.012312 920757.000000 1 0 0
16.339745 -0.251524 -3.119901 16.636836 -0.015392 1.759443 0.019499 0.003514 314499.000000 1 0 0
11.885645 2.513376 13.658099 18.279203 0.208393 0.726967 0.038237 -0.009193 -137305.000000 1 0 0
17.649245 -3.220524 9.572199 20.334567 -0.180488 1.080672 0.059054 -0.011819 796465.000000 1 0 0
8.275045 -17.918624 4.599899 20.266043 -1.138163 1.341825 0.059294 -0.018934 -124538.000000 1 0 0
6.785245 -11.155824 6.596699 14.629025 -1.024351 1.102987 0.005833 -0.008248 120354.000000 1 0 0
17.862445 2.121676 -1.380201 18.040881 0.118225 1.647375 0.007867 0.005561 114279.000000 1 0 0
17.459045 -2.177424 3.613899 17.961617 -0.124075 1.368212 0.027403 -0.008002 -2080330.000000 1 0 0
12.586445 -13.333724 -2.092101 18.454909 -0.814220 1.684403 0.039572 -0.001617 -332424.000000 1 0 0
15.075345 -8.306324 4.404199 17.766767 -0.503601 1.320295 0.039463 -0.009623 -463931.000000 1 0 0
11.286345 -3.125024 14.764699 18.845256 -0.270118 0.670566 0.034365 -0.010938 316043.000000 1 0 0
11.957745 -13.601424 -6.503201 19.242609 -0.849619 1.915543 0.020040 -0.003472 -209385.000000 1 0 0
10.616145 -12.037824 -1.223401 16.096846 -0.848072 1.646872 0.021337 -0.006094 -1025600.000000 1 0 0
13.129245 -7.970024 2.079299 15.499091 -0.545583 1.436234 0.029420 -0.007065 -289805.000000 1 0 0
8.804145 -7.871824 9.979399 15.461791 -0.729548 0.869219 0.009283 -0.007977 -1320640.000000 1 0 0
15.531845 -3.752924 8.110499 17.919342 -0.237083 1.101105 0.049125 -0.014702 -556845.000000 1 0 0
10.780745 -16.961324 4.721799 20.644765 -1.004605 1.340037 0.055123 -0.028140 -646606.000000 1 0 0
15.206045 -6.325524 8.221999 18.407534 -0.394212 1.107762 0.043450 -0.013133 -1390330.000000 1 0 0
16.586745 -5.026524 -0.303801 17.334311 -0.294248 1.588323 0.035227 -0.014114 -406296.000000 1 0 0
13.921945 -10.543324 3.508299 17.812647 -0.648167 1.372545 0.042062 -0.011687 637095.000000 1 0 0
14.934845 -9.917924 -4.507601 18.486029 -0.586209 1.817118 0.051032 -0.017855 226803.000000 1 0 0
13.661745 -6.570224 0.043999 15.159586 -0.448268 1.567894 0.027826 -0.011482 129135.000000 1 0 0
17.814645 -1.069324 -4.963801 18.524156 -0.059953 1.842075 0.033103 0.001191 97619.100000 1 0 0
14.447545 0.129076 -1.619801 14.538637 0.008934 1.682442 0.007866 0.000473 -2242430.000000 1 0 0
4.870945 -12.730224 11.878999 18.080246 -1.205355 0.853944 0.008902 -0.002113 -798645.000000 1 0 0
11.909545 -7.533324 13.464599 19.490604 -0.564007 0.808167 0.033201 -0.011590 781868.000000 1 0 0
12.061445 -5.900524 11.485199 17.669307 -0.454975 0.863201 0.031732 -0.012089 361296.000000 1 0 0
13.224845 -4.721624 8.261299 16.292308 -0.342921 1.039017 0.028851 -0.012833 -2820460.000000 1 0 0
15.211345 -1.172324 3.153099 15.578876 -0.076917 1.366993 0.016889 -0.004782 163877.000000 1 0 0
15.169445 -10.445124 5.713399 19.283557 -0.603009 1.269997 0.047371 -0.014804 -42325.100000 1 0 0
13.665345 -7.877124 -5.567401 16.726825 -0.522909 1.910113 0.040571 -0.014016 -442874.000000 1 0 0
9.447745 -1.991524 13.308299 16.441924 -0.207752 0.627645 0.008327 -0.015333 -362799.000000 1 0 0
9.676645 -9.054024 13.767799 19.109293 -0.752170 0.766307 0.037714 -0.006833 -328867.000000 1 0 0
20.361745 6.063676 -2.908101 21.443551 0.289435 1.706832 0.060749 0.000772 -260251.000000 1 0 0
11.336845 -3.617824 10.522699 15.885210 -0.308905 0.846750 0.021116 -0.006868 1092070.000000 1 0 0
10.208845 -14.116224 -2.949901 17.668905 -0.944669 1.738536 0.019942 0.000783 601326.000000 1 0 0
14.927045 -12.852224 2.689099 19.880331 -0.710847 1.435116 0.047325 -0.002823 719741.000000 1 0 0
11.159145 -0.429924 14.573999 18.360631 -0.038508 0.653824 0.036079 -0.008355 139549.000000 1 0 0
19.034845 -1.807424 5.689399 19.948969 -0.094670 1.281584 0.070265 -0.015324 439479.000000 1 0 0
19.184545 -0.552724 7.995799 20.791466 -0.028803 1.176053 0.086759 -0.012693 1260490.000000 1 0 0
18.881445 0.896976 0.850999 18.921885 0.047470 1.525807 0.029810 -0.006080 313923.000000 1 0 0
18.607345 1.014476 4.172299 19.096348 0.054466 1.350533 0.038225 -0.011464 -465489.000000 1 0 0
16.584945 -4.201524 -4.175601 17.611043 -0.248114 1.810177 0.032138 -0.005403 -1720400.000000 1 0 0
11.063445 -8.239224 15.840999 21.005282 -0.640117 0.716447 0.063249 -0.008407 642716.000000 1 0 0
16.570345 -7.553124 6.398999 19.302155 -0.427685 1.232885 0.051931 -0.012802 459617.000000 1 0 0
18.386145 2.290376 6.551799 19.652537 0.123932 1.230908 0.031297 -0.006634 -313352.000000 1 0 0
15.090645 1.995876 7.677499 17.048609 0.131496 1.103662 0.032050 -0.009600 21519.100000 1 0 0
8.861745 -15.445924 3.881599 18.225638 -1.049919 1.356178 0.026914 -0.022229 243465.000000 1 0 0
11.468245 -15.114424 1.907899 19.068469 -0.921711 1.470573 0.036315 -0.004345 611914.000000 1 0 0
8.805845 -15.910724 6.235899 19.224476 -1.065306 1.240448 0.046083 -0.016820 24442.200000 1 0 0
14.537845 -11.577424 -2.489701 18.750581 -0.672520 1.703970 0.048727 -0.007567 451610.000000 1 0 0
13.623145 -4.932024 3.194299 14.836390 -0.347354 1.353796 0.012331 -0.004760 -1780490.000000 1 0 0
-1.021755 10.086676 -5.511701 11.539665 -1.469843 2.068753 -0.002218 0.006564 -459559.000000 1 0 0
8.245745 -1.703824 -8.074201 11.665678 -0.203763 2.335236 0.000775 -0.001149 -1533220.000000 1 0 0
2.951645 -10.214024 7.730099 13.145072 -1.289480 0.942137 0.000633 -0.004285 851839.000000 1 0 0
-6.332855 1.388976 8.300999 10.532848 -0.215910 0.663071 -0.006018 0.003253 -95970.000000 1 0 0
7.223445 -6.269124 -7.211101 11.978316 -0.714786 2.216816 -0.000870 -0.001548 25835.000000 1 0 0
-11.320455 -4.503424 -4.203801 12.888191 0.378620 1.903050 0.003577 -0.003216 144595.000000 1 0 0
2.071545 -3.198324 2.892399 4.783988 -0.996042 0.921533 -0.000365 -0.000534 2023140.000000 1 0 0
-3.573355 -4.333924 8.807099 10.445896 0.881289 0.567745 0.002978 0.000903 -2381690.000000 1 0 0
-4.903855 -1.208124 -2.452401 5.614413 0.241552 2.022840 -0.000811 -0.000464 -341222.000000 1 0 0
4.922445 -5.100024 -3.645801 7.970732 -0.803114 2.045864 0.002638 -0.002744 10977.300000 1 0 0
2.686445 14.128176 -8.720801 16.818880 1.382892 2.115907 0.018453 -0.012024 212721.000000 1 0 0
5.463345 -5.447724 13.712299 15.733816 -0.783967 0.512507 0.004832 -0.009015 -1124810.000000 1 0 0
-4.783455 -0.939424 9.814599 10.958573 0.193922 0.460997 0.002548 0.002413 -1671670.000000 1 0 0
-1.053555 11.934876 -2.777101 12.298924 -1.482749 1.798561 -0.002488 -0.000347 -107467.000000 1 0 0
3.106745 9.386076 -10.515701 14.433650 1.251152 2.387006 0.006747 -0.001347 -386552.000000 1 0 0
-10.632755 2.654976 1.063899 11.010734 -0.244694 1.474022 -0.010757 0.003538 250060.000000 1 0 0
5.684545 -9.002724 -0.801401 10.677328 -1.007590 1.645923 -0.000380 -0.005066 407648.000000 1 0 0
-7.006655 5.428576 9.360699 12.891289 -0.659169 0.758126 -0.002108 0.001071 318020.000000 1 0 0
-5.688255 -1.871124 5.155599 7.901744 0.317796 0.859966 -0.003514 0.000674 208522.000000 1 0 0
6.670045 -3.751124 -7.327001 10.594592 -0.512301 2.334470 0.000094 -0.000773 539104.000000 1 0 0
6.227245 4.772976 11.150499 13.634277 0.653957 0.613169 0.001559 -0.000529 123938.000000 1 0 0
3.712645 -9.835524 3.414999 11.053663 -1.209859 1.256710 -0.002067 -0.003729 837705.000000 1 0 0
-6.599455 6.610676 -5.803701 10.997127 -0.786248 2.126742 -0.008500 0.000245 6800.470000 1 0 0
-11.160955 8.403476 5.298399 14.941833 -0.645377 1.208308 -0.009971 0.000645 -417089.000000 1 0 0
-9.223955 -5.524924 5.090299 11.896103 0.539666 1.128632 0.004789 -0.001987 -1144930.000000 1 0 0
3.441245 9.744376 -7.981101 13.057297 1.231316 2.228419 0.008049 -0.002490 771800.000000 1 0 0
-8.176455 -8.591424 6.027199 13.303913 0.810141 1.100624 0.006037 -0.002562 -2472610.000000 1 0 0
-7.699955 -5.710224 -7.572801 12.216517 0.638098 2.239389 0.011665 -0.005561 -601725.000000 1 0 0
9.116545 -1.634324 7.106999 11.674409 -0.177386 0.916290 0.002196 -0.005426 2109490.000000 1 0 0
-4.093355 -0.411024 -4.840501 6.352555 0.100077 2.437157 0.003927 -0.003902 -1195890.000000 1 0 0
9.121245 1.220876 -4.583101 10.280684 0.133059 2.032861 -0.000938 0.002578 -2394830.000000 1 0 0
-2.025255 -10.715324 10.614499 15.217996 1.383994 0.798898 0.008159 -0.007305 222221.000000 1 0 0
-13.003755 0.318776 -2.811901 13.308120 -0.024509 1.783693 -0.000919 0.000671 -1236250.000000 1 0 0
-9.810355 -5.272924 -6.094201 12.695908 0.493184 2.071466 0.007786 -0.002992 -522630.000000 1 0 0
-5.877955 8.442576 -0.275901 10.290946 -0.962607 1.597610 -0.005009 0.003109 1415300.000000 1 0 0
6.318745 9.650776 0.490299 11.545753 0.991096 1.528318 0.012412 -0.002064 540771.000000 1 0 0
-0.513255 -11.934424 0.031099 11.945496 1.527817 1.568193 0.003883 -0.002831 -482246.000000 1 0 0
6.158445 4.653476 2.450299 8.098472 0.647092 1.263416 0.005077 0.001301 282179.000000 1 0 0
3.547545 -7.450324 -8.159501 11.604734 -1.126402 2.350570 -0.004868 0.000298 1200660.000000 1 0 0
-6.618655 -9.951824 4.574599 12.797357 0.983900 1.205245 0.007093 -0.004296 -3018400.000000 1 0 0
-0.031355 6.451876 -9.176701 11.217822 -1.565936 2.528803 0.005566 -0.001197 -2535810.000000 1 0 0
-17.292055 -2.832924 4.046399 17.983714 0.162386 1.343850 0.028890 -0.006820 50856.700000 1 0 0
-8.296455 0.811776 -9.113901 12.351249 -0.097536 2.400740 0.001666 -0.002147 580095.000000 1 0 0
-9.986355 -5.901824 -11.952101 16.655676 0.533767 2.371145 0.018426 0.000354 -812644.000000 1 0 0
2.151545 9.491876 6.463299 11.683283 1.347891 0.984585 0.000915 0.004748 94568.700000 1 0 0
-11.316955 1.655176 -1.337001 11.515236 -0.145227 1.687166 -0.006460 0.002564 -1292580.000000 1 0 0
-5.991355 -5.474324 -3.048101 8.669226 0.740335 1.930076 0.013165 -0.005322 779216.000000 1 0 0
-6.939255 -8.427624 1.289399 10.992755 0.881953 1.453230 0.006477 -0.004248 -907293.000000 1 0 0
0.057245 10.838276 -7.863901 13.390760 1.565515 2.198470 0.003958 0.001980 151393.000000 1 0 0
-2.950455 9.280376 -4.308701 10.648731 -1.262978 1.987361 -0.002009 0.000287 14572.000000 1 0 0
3.442945 -4.840924 9.353599 11.080533 -0.952582 0.565824 0.001679 -0.006108 -977258.000000 1 0 0
-8.951155 1.602076 -0.482701 9.106197 -0.177105 1.623829 -0.005875 0.001397 -1913980.000000 1 0 0
2.501345 3.604676 -10.473101 11.355011 0.964165 2.744872 0.004898 0.001726 -1306730.000000 1 0 0
-13.654455 0.465076 1.086199 13.705483 -0.034047 1.491460 -0.004123 0.002370 -565122.000000 1 0 0
9.428745 -12.556924 -4.991701 16.477094 -0.926732 1.878581 0.025456 -0.004724 -2242950.000000 1 0 0
-4.694855 9.444676 -8.366001 13.462301 -1.109479 2.241375 -0.006885 0.000401 -1911460.000000 1 0 0
-2.374555 7.338476 8.368499 11.380840 -1.257853 0.744665 0.000597 0.002590 273552.000000 1 0 0
-10.695755 -1.368424 -4.477901 11.675760 0.127250 1.964402 0.001613 -0.000728 -4604290.000000 1 0 0
2.645345 -7.113724 9.843099 12.429381 -1.214777 0.656846 0.002638 -0.006662 -1684110.000000 1 0 0
-16.177255 -6.495024 3.370999 17.755353 0.381791 1.379779 0.030454 -0.006648 724548.000000 1 0 0
-10.675655 -0.116024 6.093699 12.292935 0.010868 1.052147 -0.001871 0.000826 -482549.000000 1 0 0
-8.530655 9.813176 9.369999 16.027083 -0.855200 0.946366 0.001603 -0.005327 1712380.000000 1 0 0
0.241645 -6.151224 -3.705601 7.185223 -1.531533 2.112650 -0.003587 -0.000217 7588.800000 1 0 0
4.968945 1.502676 -2.915001 5.953627 0.293670 2.082448 0.002082 0.000585 -55914.800000 1 0 0
0.292845 5.469576 3.763699 6.645860 1.517307 0.968760 -0.000515 0.004093 -1661040.000000 1 0 0
6.038545 -11.280424 -1.596201 12.894178 -1.079300 1.694907 -0.002215 -0.003551 -396317.000000 1 0 0
6.172845 -13.383424 5.251199 15.645930 -1.138642 1.228525 0.007941 -0.008160 -405023.000000 1 0 0
8.168945 -8.213924 -5.889001 12.995404 -0.788144 2.041104 0.002123 -0.004510 761886.000000 1 0 0
-13.132655 -1.292124 -4.801901 14.042595 0.098074 1.919790 0.003141 0.001215 -2685520.000000 1 0 0
-6.693855 -1.445924 -7.005001 9.796348 0.212739 2.367510 0.007042 -0.004585 -277286.000000 1 0 0
-5.726355 12.851076 -4.577801 14.795187 -1.151613 1.885370 0.000476 0.001070 623173.000000 1 0 0
-4.327655 6.907976 -6.763101 10.591897 -1.011139 2.263365 -0.001864 0.000795 -2930610.000000 1 0 0
-9.247955 -3.755424 -8.130201 12.873541 0.385738 2.254339 0.012210 -0.004023 875526.000000 1 0 0
-2.158755 -6.391224 9.167799 11.382289 1.245059 0.634372 0.007082 -0.002099 -194608.000000 1 0 0
7.574945 -5.981624 10.007999 13.903944 -0.668404 0.767288 0.004131 -0.005502 200768.000000 1 0 0
9.753945 -5.004724 12.186099 16.391696 -0.474071 0.732610 0.023420 -0.004759 -533722.000000 1 0 0
-6.458655 2.809276 -9.113701 11.518065 -0.410279 2.483651 -0.007069 -0.000313 -65574.400000 1 0 0
7.352845 5.483876 8.964999 12.826084 0.640819 0.796845 -0.000668 0.000665 -147235.000000 1 0 0
12.531045 3.279376 11.265499 17.166620 0.255960 0.854966 0.032749 -0.008726 -1045910.000000 1 0 0
-7.491055 -7.292124 -3.956401 11.177839 0.771942 1.932588 0.013042 -0.008430 -1700670.000000 1 0 0
2.379645 1.502176 -5.777701 6.426591 0.563089 2.688347 0.002330 -0.000731 -292849.000000 1 0 0
12.807645 6.846076 -7.115701 16.172128 0.490889 2.026393 0.011959 -0.002433 750570.000000 1 0 0
0.782345 -7.760124 1.137599 7.881987 -1.470320 1.425962 -0.001128 -0.002919 154551.000000 1 0 0
-10.108355 -6.186924 -8.538901 14.607180 0.549240 2.195145 0.013731 -0.003552 111369.000000 1 0 0
-6.699955 0.304776 3.145899 7.408034 -0.045458 1.132210 -0.003117 -0.000366 500978.000000 1 0 0
10.719045 -8.006224 1.258299 13.438037 -0.641524 1.477022 0.008565 -0.008788 -356451.000000 1 0 0
6.135845 1.066176 10.712499 12.391245 0.172044 0.526599 0.001228 -0.004301 128779.000000 1 0 0
-12.981455 5.447276 1.845999 14.198546 -0.397305 1.440414 -0.011188 0.001508 80359.300000 1 0 0
2.047145 7.386376 3.669499 8.497916 1.300431 1.124296 -0.002657 0.003122 230202.000000 1 0 0
10.141945 -9.510224 -0.841201 13.928784 -0.753264 1.631226 0.007246 -0.005751 771149.000000 1 0 0
6.915445 -11.554224 -9.000501 16.196681 -1.031465 2.160001 0.006539 -0.004003 -633782.000000 1 0 0
10.104345 3.540776 11.963099 16.054613 0.337050 0.730036 0.013435 -0.006017 -669314.000000 1 0 0
-11.034655 -3.196424 -1.960901 11.654436 0.281954 1.739854 0.000202 0.001961 -391745.000000 1 0 0
12.273145 0.970576 6.953999 14.139668 0.078917 1.056632 0.015003 -0.007248 130168.000000 1 0 0
-9.696455 9.210076 3.120799 13.732667 -0.759678 1.341540 -0.007760 -0.002151 428981.000000 1 0 0
-6.577755 7.686076 -8.959801 13.513722 -0.862944 2.295636 -0.007853 -0.000312 -431596.000000 1 0 0
8.419045 5.447976 12.236099 15.820331 0.574335 0.686544 0.011187 -0.001267 -4053750.000000 1 0 0
1.253145 4.973876 -2.784301 5.836279 1.323988 2.068112 0.005947 -0.003039 218243.000000 1 0 0
1.135845 0.513076 9.478599 9.560190 0.424278 0.130741 -0.001219 0.002717 669579.000000 1 0 0
2.468045 12.566376 -3.876401 13.380267 1.376864 1.864720 0.007644 -0.003319 605101.000000 1 0 0
2.110245 0.608276 13.148399 13.330549 0.280642 0.165501 -0.003675 -0.003664 -281833.000000 1 0 0
-12.209455 -1.816824 0.818699 12.371011 0.147721 1.504569 -0.003074 0.000733 -97615.300000 1 0 0
3.162545 8.720676 -1.211601 9.355205 1.222898 1.700672 0.009215 -0.001662 188186.000000 1 0 0
3.679545 -2.781624 -5.749201 7.370875 -0.647311 2.465445 -0.003235 0.000309 -283884.000000 1 0 0
-7.774155 -7.266024 9.186899 14.058154 0.751626 0.858607 0.005676 -0.001648 -234245.000000 1 0 0
-7.004855 10.812276 -3.497401 13.349350 -0.995926 1.835880 -0.001261 0.001646 560401.000000 1 0 0
0.384745 0.506576 2.519399 2.598465 0.921243 0.247319 -0.002607 0.002415 -2478730.000000 1 0 0
-7.051855 4.568576 -1.990701 8.635013 -0.574865 1.803427 -0.002447 -0.000221 -428541.000000 1 0 0
-6.754155 -3.925124 -5.976001 9.835538 0.526438 2.223823 0.009325 -0.003129 225465.000000 1 0 0
2.966845 -6.129524 13.393999 15.025726 -1.120010 0.470362 -0.001125 -0.005017 -784456.000000 1 0 0
-5.243755 -0.615424 -11.824601 12.949784 0.116829 2.721649 0.000555 -0.003341 -821335.000000 1 0 0
11.892445 2.377676 -0.566401 12.141021 0.197330 1.617465 -0.001122 0.004615 -270277.000000 1 0 0
6.088345 -10.900124 10.711199 16.450241 -1.061407 0.861728 0.006589 -0.004144 182878.000000 1 0 0
-8.298855 6.538276 -10.566401 14.942185 -0.667290 2.356259 -0.000988 -0.001526 653696.000000 1 0 0
2.763945 8.030576 11.349999 14.175755 1.239318 0.642396 0.000551 -0.000614 663119.000000 1 0 0
-6.186355 -10.239524 -0.472601 11.972560 1.027320 1.610280 0.011089 -0.005017 -345563.000000 1 0 0
11.152945 4.352476 6.279399 13.518989 0.372076 1.087741 0.000829 -0.002796 916906.000000 1 0 0
-7.995655 10.612476 1.438399 13.365035 -0.925110 1.462963 -0.001841 0.000004 607600.000000 1 0 0
4.343345 -2.479924 -3.437801 6.069031 -0.518801 2.172988 0.001043 -0.001211 -5136180.000000 1 0 0
6.310545 6.416476 6.425799 11.058256 0.793721 0.950734 0.002515 0.000616 -5662870.000000 1 0 0
-0.450355 10.290076 -10.218301 14.508693 -1.527058 2.352216 0.005927 -0.002377 -241300.000000 1 0 0
14.086845 6.419176 -2.434601 15.670747 0.427572 1.726788 0.009751 0.005803 927918.000000 1 0 0
1.455545 9.553676 -6.197601 11.480488 1.419605 2.141041 0.005006 -0.000620 -1382400.000000 1 0 0
0.657945 7.387976 7.312999 10.416095 1.481975 0.792473 -0.001040 0.003364 295662.000000 1 0 0
12.336145 6.219976 2.079099 13.971085 0.467008 1.421427 -0.000417 0.000421 97335.400000 1 0 0
-6.819755 6.712176 -3.097901 10.057801 -0.777448 1.883897 -0.007994 0.000358 56439.200000 1 0 0
1.012645 9.987476 11.157799 15.009051 1.469750 0.732650 0.002328 -0.000670 -766391.000000 1 0 0
-3.492255 13.710876 -10.945501 17.888208 -1.321393 2.229236 0.000095 -0.001448 49603.000000 1 0 0
-10.011255 -5.551924 -2.380201 11.692495 0.506344 1.775796 0.004303 -0.001833 -1125450.000000 1 0 0
-3.982655 4.007176 -12.399301 13.625772 -0.788467 2.714054 -0.005599 -0.003949 -528126.000000 1 0 0
-3.248955 8.605976 2.498899 9.532210 -1.209815 1.305544 -0.000309 0.003861 -3115540.000000 1 0 0
7.058845 8.915776 7.110599 13.411897 0.901121 1.011994 0.007393 0.003476 -1469390.000000 1 0 0
-1.303955 -2.270124 -8.175001 8.583962 1.049414 2.831671 0.000129 -0.003733 -2126900.000000 1 0 0
0.844945 -1.346424 4.858099 5.111547 -1.010367 0.316224 -0.001305 0.001883 7970.460000 1 0 0
2.606745 -8.709724 -6.076801 10.935352 -1.279990 2.160004 -0.008900 0.000370 -62639.500000 1 0 0
5.168145 3.867276 9.000699 11.076016 0.642406 0.622146 -0.001503 0.003893 987332.000000 1 0 0
6.082345 -7.350924 -2.746601 9.928485 -0.879555 1.851091 -0.000662 -0.003810 777077.000000 1 0 0
1.708145 2.230176 -8.256101 8.720932 0.917182 2.813626 0.004679 -0.000888 13536.100000 1 0 0
-5.416055 10.977676 -0.657001 12.258658 -1.112467 1.624417 -0.004415 0.002960 829496.000000 1 0 0
-5.373255 3.249576 -3.336301 7.110733 -0.543918 2.059172 -0.004148 0.000227 -407110.000000 1 0 0
2.003245 13.747776 -6.155701 15.195624 1.426101 1.987881 0.003456 -0.004289 334394.000000 1 0 0
-5.294455 -2.537824 2.581399 6.413691 0.446980 1.156569 -0.003921 -0.001510 812203.000000 1 0 0
10.380745 -3.435724 -1.748801 11.073498 -0.319623 1.729387 0.002823 -0.002030 80237.900000 1 0 0
2.358945 -3.462824 7.050899 8.201886 -0.972786 0.536177 -0.002230 -0.000672 -1512390.000000 1 0 0
-2.855855 9.969876 -11.722901 15.651861 -1.291818 2.417315 0.004464 -0.002236 -3056320.000000 1 0 0
0.459145 -2.041724 9.403799 9.633840 -1.349595 0.218971 0.000619 0.000798 455205.000000 1 0 0
9.397945 2.602876 5.088699 10.999599 0.270190 1.089842 -0.002990 0.001190 -177566.000000 1 0 0
13.438545 2.082676 -5.040601 14.503092 0.153755 1.925757 0.011596 0.000696 -2126400.000000 1 0 0
-6.511755 3.877176 7.657599 10.773777 -0.537039 0.780214 -0.002957 0.000419 -281439.000000 1 0 0
10.481945 0.000376 1.786899 10.633164 0.000036 1.401946 -0.001511 0.002788 1482080.000000 1 0 0
15.414145 6.682676 -4.589301 17.415961 0.409083 1.837457 0.028387 0.002421 122579.000000 1 0 0
8.048745 -4.876024 -9.243201 13.190704 -0.544682 2.347225 0.003642 0.000922 2388790.000000 1 0 0
4.411945 5.750176 -2.081301 7.540663 0.916333 1.850437 0.007354 -0.001849 29670.400000 1 0 0
-1.690855 -10.466224 1.501699 10.707751 1.410627 1.430088 0.005663 -0.004498 -1248030.000000 1 0 0
-2.740955 12.347776 -12.971001 18.117044 -1.352359 2.368788 0.007682 -0.004948 -220709.000000 1 0 0
8.311845 4.213876 -9.603401 13.381660 0.469210 2.371224 -0.001686 0.001103 -1263890.000000 1 0 0
4.145045 7.575176 -8.994501 12.468590 1.070115 2.376579 0.003764 -0.003141 -1473040.000000 1 0 0
-1.720355 -5.079424 -2.399601 5.875224 1.244232 1.991527 0.000455 -0.002325 -1644010.000000 1 0 0
-3.343255 -9.067824 6.929599 11.892103 1.217565 0.948742 0.006777 -0.003868 -269746.000000 1 0 0
1.013545 7.255876 -1.319101 7.444128 1.432008 1.748937 0.007557 -0.001460 42211.200000 1 0 0
0.296545 -0.927524 -2.259101 2.460036 -1.261351 2.734613 0.005822 0.001061 -1325390.000000 1 0 0
4.301045 -6.853024 7.734299 11.192957 -1.010320 0.807929 -0.001092 -0.003706 102197.000000 1 0 0
-13.865955 3.969376 6.028199 15.632014 -0.278811 1.174904 -0.010874 0.004393 -1250620.000000 1 0 0
4.175445 6.346476 12.662399 14.766463 0.988877 0.540385 0.000035 -0.001398 -955278.000000 1 0 0
8.297945 10.112076 -7.087701 14.877684 0.883622 2.067350 0.010157 -0.007873 -115830.000000 1 0 0
12.436545 5.330576 9.601799 16.591481 0.404934 0.953640 0.019824 -0.005347 51713.500000 1 0 0
7.678645 3.957376 0.496199 8.652666 0.475871 1.513418 0.003782 0.004164 -1835200.000000 1 0 0
-10.851755 -7.622224 -1.093901 13.306221 0.612332 1.653099 0.006826 -0.002726 -1263820.000000 1 0 0
10.505245 6.824876 0.388099 12.533544 0.576139 1.539827 0.003354 0.002990 -507298.000000 1 0 0
14.459045 3.576376 4.219399 15.480884 0.242479 1.294748 0.014850 -0.006478 617559.000000 1 0 0
2.129345 5.668376 8.265899 10.246447 1.211453 0.632235 -0.005562 0.005114 774128.000000 1 0 0
4.156445 0.010276 11.747999 12.461606 0.002472 0.340057 -0.002148 -0.003108 -3076240.000000 1 0 0
-1.572455 -1.495624 -0.472201 2.220919 0.760361 1.785047 0.004653 -0.005234 -1191210.000000 1 0 0
3.045945 -5.204624 -9.457901 11.216853 -1.041302 2.573980 -0.004507 0.001686 166503.000000 1 0 0
-3.915955 -5.458124 -1.323301 6.846674 0.948452 1.765297 0.003388 -0.003730 -275186.000000 1 0 0
-1.270755 -8.805524 8.675699 12.426577 1.427472 0.797977 0.007534 -0.005129 -204747.000000 1 0 0
3.903445 8.591676 -5.872501 11.114857 1.144349 2.127449 0.006942 -0.001533 481589.000000 1 0 0
-14.322955 -1.790724 -2.832201 14.709694 0.124379 1.764546 -0.000115 0.001933 -965682.000000 1 0 0
8.767145 -10.496624 -6.538401 15.158912 -0.874937 2.016756 0.004298 -0.001144 105892.000000 1 0 0
14.893445 6.113376 1.620999 16.180720 0.389503 1.470447 -0.002255 0.004621 -460300.000000 1 0 0
-5.651455 0.420776 -8.569501 10.273867 -0.074317 2.557308 0.000911 -0.005843 303245.000000 1 0 0
-7.990755 -4.557624 -12.960701 15.893517 0.518342 2.524339 0.012851 -0.005573 882646.000000 1 0 0
0.791845 -10.634824 12.045699 16.088050 -1.496476 0.724643 -0.000314 -0.001400 -35504.600000 1 0 0
0.148745 11.695476 3.388899 12.177476 1.558079 1.288781 0.003010 0.002999 255430.000000 1 0 0
5.110945 -13.286524 -3.689601 14.706006 -1.203574 1.824397 0.003388 -0.001149 389027.000000 1 0 0
-7.366755 1.567876 -6.993101 10.277684 -0.209702 2.319127 -0.001110 0.000195 728497.000000 1 0 0
1.429645 2.763076 4.051399 5.108063 1.093318 0.654852 -0.002602 0.003877 -1622870.000000 1 0 0
17.248945 5.446476 2.452999 18.253969 0.305849 1.436007 0.010558 -0.000127 -571505.000000 1 0 0
2.355545 -8.124924 -3.475801 9.145719 -1.288616 1.960643 -0.006126 -0.000303 362288.000000 1 0 0
-0.593855 -9.219924 -0.527401 9.254070 1.506475 1.627818 0.000396 -0.001144 -912903.000000 1 0 0
0.758145 11.849476 -5.523301 13.095485 1.506902 2.006194 0.004754 -0.000009 -1521480.000000 1 0 0
6.102145 -5.062324 7.765799 11.098240 -0.692529 0.795773 0.002094 -0.004079 -741203.000000 1 0 0
-5.914755 -1.886924 -9.472301 11.325604 0.308813 2.561408 0.007680 -0.006869 -528827.000000 1 0 0
2.026045 -1.288624 11.249699 11.503092 -0.566491 0.210284 -0.004090 -0.001656 -1367380.000000 1 0 0
18.018145 2.180876 -5.804301 19.055174 0.120452 1.880320 0.025830 0.003946 -792635.000000 1 0 0
-8.961655 4.809776 7.797799 12.816040 -0.492580 0.916702 -0.002796 -0.003778 -1579340.000000 1 0 0
11.387245 -7.019724 -4.797701 14.211397 -0.552431 1.915157 0.018733 -0.009471 -181746.000000 1 0 0
10.847845 0.598976 9.020999 14.121364 0.055160 0.877834 0.009038 -0.006951 142198.000000 1 0 0
-8.472955 -7.425424 -1.558501 11.373514 0.719604 1.708258 0.008370 -0.005387 -1762830.000000 1 0 0
10.284245 -10.407224 -3.283801 14.995311 -0.791342 1.791574 0.015562 -0.003852 -6001.290000 1 0 0
7.679245 -13.932724 -3.744401 16.343565 -1.067058 1.801955 0.013677 -0.002733 -1373040.000000 1 0 0
1.747345 -1.131824 -11.639401 11.824124 -0.574784 2.964599 0.003431 -0.000132 102983.000000 1 0 0
-11.771155 -2.605124 -6.473001 13.683805 0.217803 2.063536 0.007639 -0.003164 -169237.000000 1 0 0
2.828045 -11.946524 -6.288801 13.793705 -1.338350 2.044200 -0.004165 -0.002882 447075.000000 1 0 0
-5.539755 1.467676 1.119099 5.839122 -0.258985 1.377948 -0.003362 -0.000066 431836.000000 1 0 0
0.007845 6.953076 -3.917401 7.980687 1.569668 2.083873 0.007751 -0.001617 989277.000000 1 0 0
5.373445 -11.709824 3.628999 13.385197 -1.140580 1.296240 -0.000548 -0.007950 -2878320.000000 1 0 0
-4.392655 -9.285524 1.040999 10.324730 1.128928 1.469799 0.009101 -0.003877 -1712080.000000 1 0 0
7.028045 -6.215324 -4.626801 10.460925 -0.724107 2.028951 0.000934 -0.003190 403832.000000 1 0 0
-6.941055 -6.154724 2.244399 9.544433 0.725426 1.333421 0.003783 -0.003735 -422824.000000 1 0 0
-5.895155 -0.672124 7.163699 9.301784 0.113523 0.691732 -0.003869 0.003019 -181304.000000 1 0 0
4.142545 -5.022924 3.202299 7.255698 -0.881158 1.113694 -0.002872 -0.002377 -319040.000000 1 0 0
-2.447155 10.616976 -8.751101 13.974639 -1.344258 2.247483 -0.001914 0.000970 -29907.500000 1 0 0
-2.362555 -4.926024 2.725699 6.105474 1.123596 1.108019 0.000313 -0.001661 461906.000000 1 0 0
15.080745 5.050376 6.395999 17.141877 0.323150 1.188425 0.026158 -0.013412 -19708.800000 1 0 0
6.765245 0.287976 0.159499 6.773249 0.042541 1.547246 0.001831 0.001336 4779560.000000 1 0 0
-9.895855 9.302176 0.477599 13.589943 -0.754484 1.535646 -0.008688 -0.000109 -1689090.000000 1 0 0
7.209545 10.440176 -2.440801 12.920229 0.966436 1.760852 0.003592 -0.001008 -1107130.000000 1 0 0
1.499345 -4.251924 -5.409201 7.041757 -1.231783 2.446760 -0.002938 -0.000636 606295.000000 1 0 0
0.954545 -8.105324 -7.874801 11.341072 -1.453569 2.338328 -0.007270 0.002215 -1441010.000000 1 0 0
-10.294655 0.230276 -10.573301 14.758986 -0.022365 2.369421 0.009753 -0.007049 -3175190.000000 1 0 0
5.816745 -2.479124 0.536699 6.345756 -0.402891 1.486119 0.002240 -0.001436 -114373.000000 1 0 0
-3.372955 5.342176 -1.033001 6.401778 -1.007621 1.732866 -0.001006 -0.001797 584908.000000 1 0 0
-0.389855 4.605876 -5.126101 6.902391 -1.486355 2.407824 0.003220 -0.002277 -550161.000000 1 0 0
3.971945 -9.669224 10.042799 14.495794 -1.181030 0.805421 -0.001633 -0.003261 -1679850.000000 1 0 0
7.298345 -13.501024 -0.679301 15.362452 -1.075216 1.615029 0.012611 -0.004649 489486.000000 1 0 0
12.990745 -0.185524 0.460999 13.000246 -0.014280 1.535328 0.003422 -0.000344 966531.000000 1 0 0
9.373745 2.364976 -0.583401 9.685069 0.247140 1.631070 0.002895 0.002806 -223778.000000 1 0 0
-0.832155 -5.840024 4.448899 7.388576 1.429257 0.924627 -0.001174 -0.001846 56239.900000 1 0 0
11.377045 -3.839924 3.345499 12.464932 -0.325509 1.299072 0.009936 -0.006546 -2742950.000000 1 0 0
1.591945 -8.165624 11.819499 14.453797 -1.378255 0.613317 0.000860 -0.004271 443098.000000 1 0 0
9.375545 -5.918124 -5.873801 12.546974 -0.563067 2.057986 0.002824 -0.005595 -748735.000000 1 0 0
3.171845 6.281976 -0.096901 7.037984 1.103227 1.584565 0.004819 0.000619 -437460.000000 1 0 0
6.435245 -1.341224 11.500799 13.246872 -0.205477 0.519254 -0.001444 -0.004363 761194.000000 1 0 0
-4.907055 -7.682924 -3.821901 9.885011 1.002409 1.967777 0.009335 -0.007162 -391363.000000 1 0 0
-3.384055 -8.620124 -5.865101 10.961650 1.196706 2.135371 0.006045 -0.005003 28723.000000 1 0 0
9.807645 5.310376 2.406599 11.409720 0.496257 1.358275 0.001993 0.001498 190225.000000 1 0 0
8.722045 -1.550424 0.321499 8.864606 -0.175922 1.534521 0.002409 0.000981 979353.000000 1 0 0
-4.030655 9.620976 9.276299 13.959194 -1.174066 0.843932 0.003636 0.000298 206395.000000 1 0 0
-14.286855 -3.554624 -6.153701 15.956742 0.243852 1.966707 0.013348 -0.002913 -532334.000000 1 0 0
10.584445 6.295776 -5.951601 13.678042 0.536598 2.020969 -0.002955 0.000317 -1625960.000000 1 0 0
-1.924155 4.587576 2.655399 5.639093 -1.173655 1.080496 0.002521 0.000384 360480.000000 1 0 0
6.849545 -3.697924 2.783699 8.266794 -0.495039 1.227352 0.001089 -0.002783 -1349910.000000 1 0 0
8.327845 -11.253324 -1.642101 14.095630 -0.933704 1.687559 0.010845 -0.004946 -2012980.000000 1 0 0
4.488345 0.565376 1.861899 4.891989 0.125305 1.180350 0.000655 0.002903 531433.000000 1 0 0
-10.853055 2.384576 3.642099 11.693584 -0.216278 1.254066 -0.006899 0.001332 -283658.000000 1 0 0
-0.847255 -3.081324 4.335299 5.385835 1.302463 0.635214 -0.000844 0.000225 298447.000000 1 0 0
8.530845 -8.678124 -8.481401 14.833048 -0.793956 2.179483 0.013437 -0.001128 -322506.000000 1 0 0
12.028845 -4.768224 1.047899 12.981801 -0.377398 1.489988 0.005236 -0.006848 535317.000000 1 0 0
2.839145 4.848576 3.499099 6.619149 1.041060 1.013807 -0.002682 0.002305 -197603.000000 1 0 0
6.123045 7.466976 2.117399 9.885888 0.883969 1.354940 0.006412 -0.000689 -523890.000000 1 0 0
-1.626555 -1.335124 -10.396501 10.607331 0.687313 2.941883 0.002635 -0.004084 340921.000000 1 0 0
-0.890555 -8.549524 6.082299 10.530043 1.467006 0.954994 0.002840 -0.004601 -393525.000000 1 0 0
-4.260655 -0.200524 2.310599 4.851006 0.047029 1.074339 -0.003448 0.001080 -223397.000000 1 0 0
-8.376655 6.216876 -8.064501 13.185374 -0.638469 2.228909 -0.010683 0.001838 -1547900.000000 1 0 0
6.422945 11.186676 -9.373601 15.945543 1.049593 2.199196 0.010194 -0.008336 153915.000000 1 0 0
-11.156955 -5.775824 3.010199 12.918943 0.477698 1.335628 0.004622 -0.001464 1161380.000000 1 0 0
1.480845 -6.282724 3.079599 7.151884 -1.339320 1.125639 -0.001313 -0.003497 1014940.000000 1 0 0
9.996945 2.291776 7.389999 12.641330 0.225354 0.946421 0.005015 -0.003256 -83696.800000 1 0 0
-3.997355 -2.600724 -10.538001 11.566853 0.576805 2.716624 0.002808 -0.003670 -2939930.000000 1 0 0
-8.486055 11.839276 5.816099 15.684661 -0.948903 1.190911 0.002117 0.000568 359314.000000 1 0 0
6.904845 5.946376 -2.891701 9.560241 0.710954 1.878081 0.005888 0.000710 -1736490.000000 1 0 0
3.831545 -9.802424 -2.278001 10.768358 -1.198179 1.783953 -0.004839 -0.003174 -1256810.000000 1 0 0
8.517545 -12.853524 -7.339701 17.077261 -0.985571 2.015061 0.016362 -0.003308 394076.000000 1 0 0
-1.192055 9.482076 3.688499 10.243817 -1.445736 1.202453 0.001240 0.003242 -140430.000000 1 0 0
0.521945 -13.199724 4.726399 14.030110 -1.531275 1.227200 0.008100 -0.002195 -979988.000000 1 0 0
-11.364955 -7.039724 -5.151701 14.326896 0.554579 1.938617 0.008996 -0.008306 169267.000000 1 0 0
3.585445 10.346376 -3.345001 11.449539 1.237206 1.867272 0.010566 -0.003507 -1248360.000000 1 0 0
11.671945 -8.024024 -7.365201 15.964505 -0.602262 2.050311 0.031376 -0.006599 363750.000000 1 0 0
11.666045 -4.699424 -5.865301 13.877425 -0.382943 2.007164 0.017675 -0.006092 -663733.000000 1 0 0
1.321545 -10.312124 -2.632801 10.724645 -1.443337 1.818822 -0.005403 -0.001322 -1469190.000000 1 0 0
2.420145 -11.956524 -3.940201 12.819545 -1.371083 1.883213 -0.003736 0.000565 -1045020.000000 1 0 0
-7.727255 -5.666924 7.177999 11.972809 0.632772 0.927889 0.004163 0.002042 -3185050.000000 1 0 0
-7.209955 -0.783824 9.449899 11.912112 0.108289 0.654583 -0.000210 0.000962 111357.000000 1 0 0
16.155445 2.595276 -7.422101 17.967232 0.159283 1.996642 0.022787 0.000034 448099.000000 1 0 0
-2.022055 6.362476 -5.546501 8.679487 -1.263082 2.264040 0.000340 0.000324 -857719.000000 1 0 0
7.564045 1.151476 8.514199 11.446932 0.151070 0.732062 -0.002591 -0.002255 -960477.000000 1 0 0
7.962145 8.281476 -3.549501 12.024041 0.805055 1.870462 0.002193 0.002779 -49355.600000 1 0 0
8.024045 0.604376 4.001199 8.986665 0.075179 1.109357 -0.000730 0.000829 1033550.000000 1 0 0
-7.050655 5.852576 5.421699 10.647028 -0.692813 1.036516 0.000564 -0.004536 151333.000000 1 0 0
-6.048755 -2.158424 -4.631901 7.918380 0.342753 2.195622 0.005206 -0.002862 -780245.000000 1 0 0
-15.094155 -2.133424 3.128699 15.561934 0.140411 1.368368 0.005808 -0.001431 -187745.000000 1 0 0
1.149645 1.295476 -10.534401 10.675840 0.844970 2.978634 0.004628 -0.002836 509773.000000 1 0 0
1.462545 -9.319924 9.461899 13.361420 -1.415139 0.783921 0.002661 -0.005080 -1039380.000000 1 0 0
-0.076055 -6.604524 -1.070401 6.691134 1.559281 1.731460 -0.000983 -0.000653 411210.000000 1 0 0
-0.413955 -10.266924 -8.378301 13.258092 1.530499 2.254848 -0.004860 0.000579 441.349000 1 0 0
-4.373155 6.561076 3.820699 8.761846 -0.982888 1.119579 0.001018 -0.000148 -470216.000000 1 0 0
10.813245 -1.113824 -8.605301 13.864273 -0.102644 2.240408 0.017475 -0.003289 676220.000000 1 0 0
3.057845 -1.114724 6.336699 7.123677 -0.349574 0.474489 -0.004657 0.004106 1080280.000000 1 0 0
1.941345 -12.391424 6.851199 14.291785 -1.415391 1.070848 0.011214 -0.003316 -268516.000000 1 0 0
2.899945 -4.816524 -1.330001 5.777325 -1.028847 1.803090 0.003045 -0.003580 -1821480.000000 1 0 0
-1.114755 9.518676 -1.633601 9.721961 -1.454215 1.739629 0.002928 -0.002055 797858.000000 1 0 0
4.493345 -2.522624 2.614899 5.778535 -0.511564 1.101208 -0.000761 -0.000527 -1861510.000000 1 0 0
17.881845 6.702376 -2.590201 19.271517 0.358608 1.705610 0.028101 0.007944 79098.800000 1 0 0
-7.066655 3.449976 -5.447101 9.566131 -0.454167 2.176591 -0.004606 -0.000254 -944041.000000 1 0 0
-13.826455 -6.037424 2.233699 15.251582 0.411703 1.423811 0.000062 -0.000755 -1119130.000000 1 0 0
6.644645 -6.103924 3.571399 9.703818 -0.743009 1.193896 0.000452 -0.006229 -856398.000000 1 0 0
-4.635355 1.994076 3.548299 6.168734 -0.406257 0.957939 -0.002248 -0.000282 449984.000000 1 0 0
6.906745 -12.089524 -5.328501 14.908140 -1.051747 1.936303 0.004981 -0.001906 314485.000000 1 0 0
2.841145 -12.300824 3.319999 13.053917 -1.343805 1.313642 0.009826 -0.006572 -204974.000000 1 0 0
3.331545 11.326776 -6.083701 13.281810 1.284734 2.046594 0.007095 -0.000649 153450.000000 1 0 0
-5.639155 -8.314124 6.376299 11.898820 0.974809 1.005251 0.007819 -0.001165 -239399.000000 1 0 0
-4.053055 6.553976 6.356599 9.989405 -1.016949 0.881060 0.002179 0.000121 352637.000000 1 0 0
4.330145 4.355276 -6.985501 9.301388 0.788292 2.420397 0.003024 0.001727 -1236610.000000 1 0 0
-0.339355 -2.615024 1.577399 3.072735 1.441746 1.031708 -0.000197 -0.002104 -1380970.000000 1 0 0
-13.154655 -0.861624 6.465199 14.682852 0.065406 1.114838 0.002469 -0.001521 -867052.000000 1 0 0
-0.447855 -9.264924 -5.991401 11.042476 1.522495 2.144299 -0.004696 0.001491 102131.000000 1 0 0
2.099645 -1.626624 -3.855901 4.682135 -0.659131 2.538411 -0.000427 0.000032 -1114210.000000 1 0 0
11.266445 -2.004824 1.170599 11.503147 -0.176103 1.468857 0.005124 -0.000758 188211.000000 1 0 0
0.606345 -4.204224 -2.055001 4.718705 -1.427561 2.021391 0.000197 -0.000529 -1139920.000000 1 0 0
1.220545 -7.385224 -11.285601 13.542380 -1.407008 2.555945 -0.006722 0.001963 -545461.000000 1 0 0
-4.359955 4.123576 -9.997201 11.660065 -0.757542 2.600969 -0.007182 -0.001184 -89093.700000 1 0 0
-1.044955 5.809476 -2.040001 6.245282 -1.392828 1.903550 0.002363 -0.001517 -1391530.000000 1 0 0
-11.289855 1.771776 -3.939901 12.088128 -0.155666 1.902793 -0.004114 0.003077 -363761.000000 1 0 0
-1.766455 -11.247924 4.155599 12.120444 1.415021 1.220838 0.011661 -0.005931 -40894.200000 1 0 0
-3.423855 -5.443024 -9.763001 11.690401 1.009300 2.559165 0.001238 -0.001215 -1701980.000000 1 0 0
-12.862155 -3.674824 -8.469901 15.832833 0.278294 2.135254 0.016949 -0.004246 141760.000000 1 0 0
11.352745 4.438676 0.567899 12.202834 0.372705 1.524241 0.003996 0.003536 293063.000000 1 0 0
-8.857655 -2.358324 -2.997001 9.643742 0.260210 1.886801 0.005099 -0.001998 28860.900000 1 0 0
-2.517955 -6.117924 -6.417101 9.216739 1.180356 2.340948 0.000049 -0.003403 7770.020000 1 0 0
0.021945 2.719876 -2.058701 3.411225 1.562728 2.218689 0.003496 -0.001854 573997.000000 1 0 0
8.120045 5.994976 -5.064701 11.292744 0.635967 2.035873 0.002739 -0.000553 -470570.000000 1 0 0
-9.815455 -0.949724 -0.992001 9.911065 0.096458 1.671054 -0.001719 0.000769 372553.000000 1 0 0
6.237145 0.567776 -8.958401 10.930567 0.090781 2.531462 0.000087 0.001813 456476.000000 1 0 0
-4.139955 2.580676 7.811799 9.209958 -0.557418 0.558237 -0.007396 0.004064 -1240710.000000 1 0 0
-10.188855 -3.402524 1.439699 10.838020 0.322302 1.437565 0.000996 0.000144 1753250.000000 1 0 0
-1.726855 -8.154124 -7.825701 11.432994 1.362103 2.324692 -0.002942 -0.001878 -147992.000000 1 0 0
-9.479355 -9.883124 4.192299 14.321651 0.806248 1.273721 0.004192 -0.001235 -546354.000000 1 0 0
-1.224255 -10.684124 7.316199 13.006770 1.456708 0.973400 0.008140 -0.005207 59025.900000 1 0 0
9.578345 3.874576 -3.706901 10.977165 0.384392 1.915260 0.001132 0.001139 -604309.000000 1 0 0
12.647845 -0.707224 3.048699 13.029302 -0.055858 1.334619 0.007096 -0.002395 157985.000000 1 0 0
6.483945 11.914176 -6.805501 15.175770 1.072401 2.035821 0.007433 -0.002565 425792.000000 1 0 0
-11.704455 -0.007124 -6.536801 13.406122 0.000609 2.080133 0.006360 0.000566 825256.000000 1 0 0
-7.630655 -6.667124 -11.418201 15.266066 0.718110 2.415759 0.016716 -0.006369 -995320.000000 1 0 0
4.105945 5.977876 6.641999 9.834121 0.968946 0.829285 -0.003893 0.004485 -3793280.000000 1 0 0
-4.201955 -1.407324 -7.358901 8.590135 0.323179 2.599574 0.000574 -0.005887 -895581.000000 1 0 0
9.635045 9.272776 0.903399 13.402783 0.766241 1.503341 0.006428 0.001786 -719809.000000 1 0 0
-8.925655 3.953776 4.742199 10.853024 -0.416990 1.118594 -0.003312 -0.001094 -301360.000000 1 0 0
-6.886955 8.000376 -12.303201 16.211259 -0.860049 2.432464 -0.007958 -0.000795 -831516.000000 1 0 0
11.119645 -3.656724 7.191199 13.737957 -0.317712 1.019896 0.011574 -0.005169 1075370.000000 1 0 0
11.765345 6.971676 6.465499 15.127137 0.534931 1.129170 0.006130 -0.005716 73671.500000 1 0 0
-9.934355 -0.786324 -14.825001 17.863101 0.078987 2.549766 0.011272 -0.000424 474975.000000 1 0 0
1.726145 -13.120124 12.071999 17.912297 -1.439983 0.831253 0.005198 0.003169 60649.300000 1 0 0
2.840245 3.007076 13.046299 13.686322 0.813922 0.307027 -0.004678 -0.001389 -1039980.000000 1 0 0
-2.603655 -1.381824 10.904999 11.296347 0.487924 0.263991 0.004252 0.001849 -1177610.000000 1 0 0
2.591945 -10.096224 -8.197001 13.260571 -1.319499 2.237181 -0.011053 0.002366 -1595210.000000 1 0 0
13.790245 3.516676 -7.533801 16.102671 0.249690 2.057665 0.010620 -0.001844 -2606580.000000 1 0 0
7.367545 -1.543024 5.042999 9.060545 -0.206451 0.980522 0.000768 -0.000054 232323.000000 1 0 0
-1.294655 8.794476 10.314299 13.616303 -1.424634 0.711327 0.004814 -0.000795 334954.000000 1 0 0
-12.321555 -4.707024 0.892299 13.220174 0.364907 1.503250 0.002989 -0.000170 324458.000000 1 0 0
-4.915655 4.835376 -5.320601 8.709382 -0.777165 2.227999 -0.001411 -0.000886 -187404.000000 1 0 0
-11.184255 0.384976 1.866999 11.345548 -0.034408 1.405487 -0.007119 0.002546 -3038540.000000 1 0 0
-1.406155 2.334476 -4.071201 4.899156 -1.028656 2.551700 0.002509 -0.004153 883027.000000 1 0 0
3.081245 -9.842524 13.061199 16.642243 -1.267407 0.668387 0.002388 -0.001188 -2420550.000000 1 0 0
9.010445 4.650676 -1.449501 10.242947 0.476478 1.712785 0.004066 0.000958 -1703290.000000 1 0 0
4.037845 2.349076 3.811199 6.028896 0.526903 0.886465 -0.004872 0.005482 446997.000000 1 0 0
-5.491955 -3.296924 7.424799 9.806065 0.540654 0.711836 0.001508 0.001293 358470.000000 1 0 0
1.950745 -5.999224 7.572599 9.855980 -1.256414 0.694576 0.002288 -0.003790 -1038650.000000 1 0 0
-5.797555 -6.179824 -9.833901 12.981043 0.817303 2.430361 0.011650 -0.005062 -755884.000000 1 0 0
-11.756155 -5.878024 5.374499 14.200126 0.463644 1.182640 0.009757 -0.002860 -948475.000000 1 0 0
10.351745 6.188876 4.675099 12.935121 0.538843 1.200999 0.000696 -0.000241 -668687.000000 1 0 0
1.350745 -3.622524 0.365999 3.883445 -1.213891 1.476410 0.006938 -0.002660 -1059910.000000 1 0 0
8.573545 4.410476 6.971599 11.897948 0.475124 0.944745 -0.002329 0.001974 314086.000000 1 0 0
-7.880655 12.149876 3.459999 14.889453 -0.995392 1.336273 -0.002467 0.000671 280474.000000 1 0 0
-6.195355 13.204376 -7.023301 16.188414 -1.132099 2.019555 0.002851 -0.006464 249708.000000 1 0 0
4.368145 -6.943524 -0.971601 8.260582 -1.009257 1.688688 0.001823 -0.005167 -1547380.000000 1 0 0
-1.984155 -8.236524 11.067699 13.938119 1.334403 0.653337 0.005902 -0.005169 -80732.900000 1 0 0
11.555745 8.834276 -5.702301 15.623569 0.652712 1.944408 0.004601 -0.005845 647054.000000 1 0 0
-3.330255 -3.018124 -1.916501 4.885964 0.736271 1.973869 0.004068 -0.003589 -1684380.000000 1 0 0
-2.090455 5.958776 4.837099 7.954530 -1.233392 0.917139 -0.000724 0.001587 -1595550.000000 1 0 0
0.421445 -11.428824 -5.627201 12.746020 -1.533937 2.028052 -0.005123 -0.002245 -269646.000000 1 0 0
-8.879055 6.230676 -1.486701 10.948481 -0.611884 1.707008 -0.003422 0.000971 -491612.000000 1 0 0
2.895045 -0.069024 4.004099 4.941544 -0.023837 0.626144 -0.003777 0.004049 1194040.000000 1 0 0
-10.123355 4.010276 -1.100301 10.944190 -0.377175 1.671504 -0.005755 0.001123 -294459.000000 1 0 0
6.422545 5.459376 13.697699 16.083558 0.704513 0.551655 0.008122 -0.001154 -463352.000000 1 0 0
-8.723455 -1.715124 5.590099 10.501882 0.194134 1.009487 -0.003342 0.000908 -37688.600000 1 0 0
12.966245 -1.872724 -1.575401 13.195169 -0.143439 1.690474 0.009534 -0.004449 -920181.000000 1 0 0
4.944545 -5.658624 5.503599 9.314405 -0.852642 0.938660 -0.000242 -0.005099 223438.000000 1 0 0
-9.101855 -1.119724 3.269099 9.735736 0.122406 1.228360 -0.006220 0.003062 881650.000000 1 0 0
1.896645 5.421876 5.633999 8.045865 1.234288 0.795069 -0.000228 0.003179 -118212.000000 1 0 0
9.212145 3.023676 -7.409001 12.202439 0.317148 2.223295 0.000311 0.000453 -750180.000000 1 0 0
2.343845 -2.272924 -1.466801 3.579287 -0.770038 1.993034 0.000768 -0.001332 48064.200000 1 0 0
-6.262255 0.314976 -3.976301 7.424690 -0.050255 2.135957 -0.002369 0.001020 -2450660.000000 1 0 0
-4.063155 4.224376 5.019499 7.716862 -0.804849 0.862608 -0.001805 0.000213 319476.000000 1 0 0
-6.252655 1.694876 -12.487201 14.067640 -0.264704 2.663023 -0.002258 -0.002912 -3520370.000000 1 0 0
-0.178955 3.148576 6.238499 6.990309 -1.514020 0.468050 -0.003815 0.003619 876870.000000 1 0 0
-8.715255 9.404776 -1.983401 12.974566 -0.823433 1.724266 -0.005837 0.002600 118350.000000 1 0 0
-1.261255 -3.736524 -6.193201 7.342215 1.245258 2.574574 -0.004229 -0.001817 -223029.000000 1 0 0
-3.281455 7.026576 -2.959401 8.300529 -1.133890 1.935349 -0.000188 0.001369 1240650.000000 1 0 0
7.120645 -0.400924 -4.412601 8.386618 -0.056245 2.124861 0.002271 0.001291 -202477.000000 1 0 0
-5.183155 -10.825324 6.905299 13.846873 1.124253 1.048709 0.003671 -0.004203 263857.000000 1 0 0
9.887745 8.280876 -1.397001 12.972741 0.697186 1.678693 0.002130 0.004233 969451.000000 1 0 0
13.769245 4.647776 -4.467101 15.203582 0.325539 1.869016 0.006519 0.001205 782454.000000 1 0 0
4.735245 1.129576 -6.919101 8.460050 0.234170 2.528471 -0.000503 0.000566 -1121260.000000 1 0 0
8.918945 -4.786624 3.688999 10.773488 -0.492560 1.221311 0.003987 -0.006495 -865635.000000 1 0 0
-8.778755 -3.349424 -0.818901 9.431637 0.364490 1.657731 -0.002256 -0.000295 -208006.000000 1 0 0
-8.513055 -4.329024 -10.424401 14.137917 0.470437 2.399915 0.011535 -0.005778 156280.000000 1 0 0
10.506745 -1.161724 10.588499 14.961871 -0.110122 0.784561 0.014904 -0.005408 1115610.000000 1 0 0
2.157445 -11.644224 9.950799 15.468061 -1.387594 0.871979 0.003105 -0.003006 286746.000000 1 0 0
-6.372055 -10.608124 2.008399 12.536708 1.029879 1.409902 0.005979 -0.003817 -1149890.000000 1 0 0
-3.613155 -1.670424 6.527099 7.645144 0.433050 0.547637 0.000803 -0.000868 -3828750.000000 1 0 0
4.674145 -7.593324 3.921799 9.740980 -1.019014 1.156432 -0.002442 -0.003574 172950.000000 1 0 0
11.522445 -9.441724 -5.277801 15.804052 -0.686471 1.911290 0.026008 -0.009578 391271.000000 1 0 0
11.318645 1.147576 11.547099 16.210001 0.101043 0.777964 0.024905 -0.006609 585716.000000 1 0 0
-10.257755 -3.491824 4.288399 11.653529 0.328104 1.193948 0.002776 0.000055 1890520.000000 1 0 0
2.025045 8.772476 9.017999 12.742898 1.343930 0.784576 -0.000809 0.001833 -691046.000000 1 0 0
6.537545 8.819876 4.259799 11.776060 0.932933 1.200669 0.007961 0.000186 1138410.000000 1 0 0
-4.267855 3.566176 0.447399 5.579639 -0.696068 1.490526 0.000940 -0.002277 -3483080.000000 1 0 0
4.919845 6.924576 4.348399 9.542704 0.953065 1.097663 0.003241 0.001191 -1022200.000000 1 0 0
-8.320655 13.184976 1.096599 15.629441 -1.007843 1.500576 -0.002340 0.001237 115422.000000 1 0 0
8.857245 8.252576 -9.073801 15.129100 0.750072 2.213995 -0.001522 -0.005605 -1094520.000000 1 0 0
6.954745 1.873476 6.150499 9.471379 0.263135 0.864031 -0.005238 0.003406 -60141.400000 1 0 0
11.373145 -6.275124 2.992999 13.329803 -0.504185 1.344331 0.009357 -0.007773 52884.400000 1 0 0
11.489345 4.701676 -2.008601 12.575583 0.388430 1.731206 -0.002492 0.005178 375715.000000 1 0 0
-3.946955 14.152976 -6.079301 15.901041 -1.298828 1.963103 -0.002026 0.000005 -1452700.000000 1 0 0
7.146045 -3.069024 6.938399 10.422391 -0.405652 0.842337 0.002314 -0.004135 -1250040.000000 1 0 0
-8.012255 -0.471224 0.904299 8.076883 0.058745 1.458600 -0.002685 0.000600 471247.000000 1 0 0
-3.266755 1.101176 10.649399 11.193479 -0.325124 0.313068 -0.001994 0.005964 217883.000000 1 0 0
7.106245 -1.154024 -1.914301 7.449499 -0.160990 1.830682 0.004970 -0.000376 -1454220.000000 1 0 0
-7.646155 5.424076 2.965399 9.832491 -0.616998 1.264435 0.000071 0.000016 853716.000000 1 0 0
9.408645 -2.273224 2.815099 10.080423 -0.237067 1.287769 0.002709 -0.002682 -1712750.000000 1 0 0
0.190245 3.373076 1.661599 3.764937 1.514455 1.113710 0.001843 0.000440 -2369830.000000 1 0 0
-7.546155 -3.121924 3.820199 9.015808 0.392270 1.133245 -0.002306 -0.000922 -401597.000000 1 0 0
-2.350455 8.437176 -6.830001 11.106732 -1.299102 2.233109 -0.004310 0.000085 -398008.000000 1 0 0
4.515445 9.867576 7.449699 13.162686 1.141637 0.969186 0.002518 0.005713 1001940.000000 1 0 0
-11.826055 -3.105324 6.820499 14.000637 0.256786 1.061966 0.007004 -0.000879 -1630140.000000 1 0 0
-4.717855 2.291976 -5.633801 7.697469 -0.452230 2.391907 0.000770 -0.002591 -616294.000000 1 0 0
-2.760855 2.878976 -1.792901 4.373251 -0.806339 1.993217 0.000598 -0.002293 1898200.000000 1 0 0
2.337945 5.267176 11.559999 12.916761 1.153051 0.462452 -0.001506 -0.000178 218993.000000 1 0 0
-0.642855 1.696476 4.454399 4.809674 -1.208580 0.386767 -0.002426 0.002156 -1072770.000000 1 0 0
4.993345 1.519976 7.815299 9.398017 0.295489 0.588831 -0.007152 0.006990 381345.000000 1 0 0
3.306945 -8.077424 1.861399 8.924431 -1.182208 1.360680 -0.000652 -0.003881 1856170.000000 1 0 0
5.092845 6.440676 -4.542201 9.383548 0.901733 2.076085 0.007045 -0.001683 -2094440.000000 1 0 0
-4.123255 2.849176 -7.985601 9.428089 -0.604661 2.581114 -0.001559 -0.003987 52484.700000 1 0 0
-8.585255 -2.161124 -12.877301 15.626962 0.246602 2.539309 0.011495 -0.007036 -17996.900000 1 0 0
-7.938455 8.087076 1.378599 11.415797 -0.794672 1.449738 -0.000174 0.000491 -1696130.000000 1 0 0
7.320845 1.013476 -6.581201 9.896166 0.137563 2.298324 -0.002168 0.002455 8355.310000 1 0 0
8.976145 8.850876 5.525799 13.763853 0.778371 1.157673 0.005566 0.000914 423576.000000 1 0 0
9.383445 -1.078924 -1.373901 9.544669 -0.114479 1.715242 0.003551 -0.000702 2070410.000000 1 0 0
5.397645 0.092276 4.303299 6.903728 0.017094 0.897803 -0.005613 0.004626 -537452.000000 1 0 0
-4.162955 -7.340724 -8.096601 11.694929 1.054916 2.335492 0.010184 -0.005563 -736502.000000 1 0 0
-2.159955 7.445676 -0.498301 7.768643 -1.288451 1.634983 0.001688 -0.000301 398126.000000 1 0 0
13.315245 -3.323024 -7.460601 15.620461 -0.244570 2.068737 0.024517 -0.004866 1266660.000000 1 0 0
-4.810455 -5.071824 1.608599 7.172968 0.811840 1.344614 0.003837 -0.003821 736956.000000 1 0 0
-8.881955 1.372376 2.493799 9.326928 -0.153301 1.300127 -0.005302 0.001117 -1201960.000000 1 0 0
-1.164555 11.282476 10.257399 15.292635 -1.467942 0.835589 0.008597 -0.002590 230796.000000 1 0 0
-8.318555 0.282576 7.158499 10.978266 -0.033956 0.860497 -0.003094 -0.000586 -378219.000000 1 0 0
-6.189555 12.900976 -2.087301 14.460381 -1.123460 1.715649 -0.001895 0.002295 217138.000000 1 0 0
-12.961955 -0.764624 3.223799 13.378708 0.058922 1.327436 0.001301 0.000264 433681.000000 1 0 0
-6.789355 12.762176 8.683299 16.863219 -1.081885 1.029876 0.010523 -0.002228 1274990.000000 1 0 0
-7.937655 0.759476 -14.073301 16.175320 -0.095390 2.626096 0.001623 -0.002197 -217682.000000 1 0 0
7.248945 2.866676 3.801499 8.672740 0.376588 1.117060 -0.000952 0.002968 -599312.000000 1 0 0
-1.649255 0.642776 -2.089601 2.738547 -0.371628 2.438789 0.000826 -0.003654 701201.000000 1 0 0
-6.158255 9.716276 -10.411801 15.515661 -1.005888 2.306422 -0.007106 -0.001501 -115998.000000 1 0 0
-10.218455 13.824276 5.274299 17.981815 -0.934264 1.273106 -0.007792 0.004614 670349.000000 1 0 0
-5.699155 8.338176 2.304299 10.359312 -0.971229 1.346482 0.000303 0.000155 -599387.000000 1 0 0
-2.464355 -10.775324 -1.274901 11.126815 1.345960 1.685628 0.004525 -0.003597 990093.000000 1 0 0
-2.315255 -12.404924 8.787399 15.377286 1.386279 0.962521 0.008210 -0.001263 457332.000000 1 0 0
-14.677155 -6.369624 -1.713401 16.091201 0.409454 1.677479 0.012970 -0.003272 700148.000000 1 0 0
-2.787055 -9.272224 3.327099 10.237744 1.278806 1.239802 0.005775 -0.004334 -450937.000000 1 0 0
4.631145 -2.882024 7.580099 9.338708 -0.556665 0.623763 0.000320 -0.000335 -1859200.000000 1 0 0
-14.978255 -1.199024 -0.421701 15.032086 0.079881 1.598853 -0.002112 0.000215 142289.000000 1 0 0
5.446545 8.828776 -2.779701 10.739594 1.018037 1.832604 0.008311 -0.000308 -228780.000000 1 0 0
-5.701755 -5.720124 8.524299 11.742806 0.787006 0.758430 0.006062 0.000534 -2646550.000000 1 0 0
3.344745 3.604276 7.131299 8.662191 0.822729 0.603653 -0.003972 0.005366 705045.000000 1 0 0
3.122445 2.307676 9.397599 10.168082 0.636463 0.391795 -0.001360 -0.000021 -1797590.000000 1 0 0
9.846545 -3.091424 5.166899 11.541585 -0.304215 1.106631 0.008269 -0.003862 -533716.000000 1 0 0
6.605845 10.001876 -4.918501 12.956325 0.987103 1.960184 0.004937 -0.001235 682542.000000 1 0 0
-4.539355 12.047076 -8.595501 15.479678 -1.210447 2.159492 -0.002695 -0.001911 -237502.000000 1 0 0
-3.420455 -7.247324 2.051899 8.272455 1.129830 1.320140 0.005024 -0.004971 918082.000000 1 0 0
-7.446155 -4.144924 1.071999 8.589226 0.507937 1.445663 0.001073 -0.002016 3417730.000000 1 0 0
-1.836555 -4.036424 -10.945501 11.809727 1.143796 2.756652 0.002716 -0.002394 -1149180.000000 1 0 0
-5.232555 8.233876 -4.421101 10.710859 -1.004688 1.996287 -0.003654 -0.001890 -2392780.000000 1 0 0
-10.905555 -3.195924 -10.155201 15.240511 0.285073 2.300072 0.018078 -0.007697 -474564.000000 1 0 0
4.738345 -11.406724 -7.733801 14.573158 -1.177086 2.130209 -0.004816 -0.000094 -3842720.000000 1 0 0
-9.481855 -4.021324 7.219299 12.577555 0.401114 0.959435 0.001235 0.000733 -814980.000000 1 0 0
-5.787655 -9.670124 -5.152601 12.391834 1.031474 1.999625 0.010678 -0.007794 805000.000000 1 0 0
4.913545 4.413776 -9.541701 11.604672 0.731868 2.536113 -0.001276 0.005534 175589.000000 1 0 0
-3.470355 -7.224124 -14.134401 16.248465 1.122964 2.625779 0.005289 -0.005546 -229946.000000 1 0 0
0.600645 -0.777724 -8.789801 8.844559 -0.913168 3.030259 0.001410 -0.004909 810432.000000 1 0 0
-7.663655 2.141176 -2.933901 8.480803 -0.272446 1.924043 -0.001358 0.000026 -1190850.000000 1 0 0
-2.323255 7.691276 -12.671101 15.003668 -1.277447 2.576490 0.002508 -0.002595 96504.700000 1 0 0
-9.995755 8.877476 7.575799 15.366113 -0.726215 1.055239 -0.003492 -0.001704 -563077.000000 1 0 0
-10.499155 -3.221024 -14.315801 18.042988 0.297673 2.487216 0.019430 -0.005170 -320725.000000 1 0 0
-3.229855 4.932976 7.986299 9.927094 -0.991091 0.635971 -0.002473 0.002247 -629908.000000 1 0 0
8.701945 -2.456524 -3.517601 9.702158 -0.275136 1.941808 0.004847 0.000876 -4607740.000000 1 0 0
1.859245 -8.437524 -1.011301 8.698927 -1.353908 1.687316 -0.002395 0.000232 64505.600000 1 0 0
-13.463655 -2.856024 5.006199 14.645440 0.209030 1.221937 0.012473 -0.005579 418101.000000 1 0 0
7.042545 2.760776 -1.856301 7.788785 0.373603 1.811442 0.003487 0.001313 1471320.000000 1 0 0
-11.166955 4.463776 9.037699 15.043477 -0.380274 0.926330 -0.004628 -0.000859 -2947750.000000 1 0 0
-1.729455 -2.563424 8.031599 8.606320 0.977276 0.367521 -0.000116 0.000890 -558097.000000 1 0 0
3.262945 11.864176 -9.892501 15.788194 1.302407 2.247948 0.007774 -0.009505 689753.000000 1 0 0
3.615945 -4.988224 -7.003001 9.327350 -0.943556 2.420073 -0.006688 0.000436 108435.000000 1 0 0
8.305145 -13.838424 -9.591201 18.774145 -1.030266 2.106996 0.023786 0.002768 491786.000000 1 0 0
-6.225655 -5.957224 -0.413601 8.626608 0.763368 1.618760 0.010236 -0.003866 -194422.000000 1 0 0
-1.168055 -4.114724 9.937799 10.819203 1.294201 0.406442 0.001785 0.000472 178040.000000 1 0 0
2.739245 3.396076 1.807999 4.722886 0.892049 1.177953 -0.002418 0.003545 -1160860.000000 1 0 0
-9.221755 13.429876 7.719599 18.027605 -0.969080 1.128285 -0.001303 -0.004053 -577242.000000 1 0 0
4.029245 -11.037224 0.037399 11.749745 -1.220769 1.567613 -0.001177 -0.002596 232930.000000 1 0 0
-12.480555 -1.311124 -9.076601 15.487672 0.104669 2.196976 0.016110 -0.007957 -143725.000000 1 0 0
-4.023555 1.035476 -13.592501 14.213279 -0.251888 2.844953 0.001653 -0.001455 781337.000000 1 0 0
4.029345 -3.095124 4.949299 7.093022 -0.655014 0.798517 -0.003367 0.002338 192484.000000 1 0 0
1.712145 -1.199324 1.106999 2.365431 -0.611048 1.083781 0.000129 0.001367 197872.000000 1 0 0
8.219945 -9.010224 7.331299 14.230234 -0.831232 1.029565 0.003395 -0.007849 -893844.000000 1 0 0
-0.004755 2.337776 -6.161601 6.590186 -1.568762 2.778960 0.003154 -0.003652 -567544.000000 1 0 0
-3.828855 -9.881224 -3.437501 11.140697 1.201122 1.884468 0.006428 -0.004894 667206.000000 1 0 0
-9.360555 2.288576 -5.423401 11.057615 -0.239788 2.083422 -0.003431 0.002384 -446288.000000 1 0 0
9.057745 -7.589724 5.297199 12.950172 -0.697443 1.149389 0.003641 -0.007684 1618290.000000 1 0 0
-5.474855 -4.329324 4.604299 8.361618 0.669084 0.987657 0.001273 -0.000379 -1427560.000000 1 0 0
-0.211155 -12.493224 10.366799 16.235632 1.553896 0.878221 0.012131 -0.002211 -1015020.000000 1 0 0
-14.228955 -8.346424 3.103199 16.785583 0.530494 1.384854 0.010369 -0.003971 -1049880.000000 1 0 0
10.881745 -1.465824 -3.574301 11.547148 -0.133899 1.885505 0.010985 -0.001017 -216643.000000 1 0 0
-13.563255 3.081676 2.608799 14.151482 -0.223415 1.385388 -0.009840 0.000932 -1145360.000000 1 0 0
-6.468955 6.188276 0.834299 8.991007 -0.763226 1.477870 -0.001561 -0.001562 160731.000000 1 0 0
7.081045 -6.923324 -0.407801 9.911605 -0.774136 1.611952 0.002448 -0.007239 -917704.000000 1 0 0
-6.869555 7.853576 10.063499 14.496326 -0.852134 0.803474 0.000602 -0.000771 41527.400000 1 0 0
-12.556455 -5.112524 -1.958501 13.698109 0.386666 1.714264 -0.002032 -0.002602 -2720600.000000 1 0 0
-9.412755 -5.665324 0.150199 10.987193 0.541799 1.557126 0.003086 -0.000691 -763214.000000 1 0 0
-1.886555 1.849976 2.232399 3.459062 -0.775609 0.869280 -0.000829 0.000921 288771.000000 1 0 0
-7.208355 7.407676 7.555699 12.803228 -0.799034 0.939564 0.002188 -0.002673 48156.800000 1 0 0
5.644445 7.211676 -0.354801 9.164819 0.906705 1.609519 0.010068 -0.001577 -895497.000000 1 0 0
0.069345 -4.234124 7.674799 8.765566 -1.554420 0.504198 0.001538 -0.000740 -333023.000000 1 0 0
6.210745 0.710576 13.217799 14.621507 0.113915 0.441768 -0.000727 -0.004895 235161.000000 1 0 0
5.853945 6.120376 -7.781401 11.501212 0.807645 2.313894 -0.002109 0.000659 -932246.000000 1 0 0
9.851245 5.197176 9.107899 14.387894 0.485456 0.885342 0.001844 -0.002067 -779717.000000 1 0 0
-1.264955 -5.045224 -8.482101 9.949896 1.325137 2.591510 0.001127 -0.002560 455082.000000 1 0 0
9.981845 -3.465624 -7.878601 13.180293 -0.334172 2.211496 0.011988 -0.005169 421980.000000 1 0 0
8.276245 -5.696824 1.456199 10.152366 -0.602854 1.426865 0.005368 -0.008003 1401320.000000 1 0 0
15.737945 3.112776 -4.890101 16.771564 0.195268 1.866665 0.018050 0.003837 -489030.000000 1 0 0
-6.873555 3.608576 1.110799 7.842287 -0.483442 1.428676 -0.001163 -0.001340 135441.000000 1 0 0
-1.792555 3.766476 0.337799 4.184938 -1.126595 1.489991 0.000763 -0.003651 -1167680.000000 1 0 0
-2.581555 9.963976 7.068999 12.486633 -1.317282 0.968999 0.004480 0.004401 -130586.000000 1 0 0
5.496145 -5.708524 -8.693001 11.762785 -0.804350 2.402419 -0.003373 0.000598 -55511.400000 1 0 0
-1.176355 -1.036124 6.254599 6.448052 0.722101 0.245573 -0.004138 0.003169 -200301.000000 1 0 0
-5.703355 5.013076 -7.837101 10.912349 -0.721074 2.371989 -0.007875 0.001813 -126369.000000 1 0 0
6.781545 -1.291824 2.539799 7.355864 -0.188236 1.218264 -0.001194 0.001669 -1770150.000000 1 0 0
8.797545 7.541576 3.289199 12.045372 0.708680 1.294216 0.007011 -0.001047 -96238.000000 1 0 0
-5.117155 -4.927724 -7.702301 10.478224 0.766542 2.396577 0.011985 -0.007304 1098680.000000 1 0 0
-2.189355 7.897276 -10.099101 13.005848 -1.300359 2.459896 0.001398 -0.002034 350537.000000 1 0 0
-2.817955 -2.266824 1.595099 3.952683 0.677431 1.155405 -0.003631 0.001016 -423904.000000 1 0 0
5.991245 -2.090424 -9.275201 11.238071 -0.335706 2.541596 -0.001471 0.001434 984170.000000 1 0 0
1.194045 -7.593824 5.155199 9.255700 -1.414834 0.980057 0.000244 -0.002945 -58391.000000 1 0 0
1.678345 11.849576 1.242199 12.032139 1.430095 1.467372 0.005394 -0.001525 728430.000000 1 0 0
-1.186255 7.117676 2.603399 7.671128 -1.405651 1.224543 0.001957 0.001652 582767.000000 1 0 0
8.685345 7.926176 -6.533401 13.451573 0.739729 2.077958 0.004489 -0.003991 -144778.000000 1 0 0
3.705945 -11.131824 5.565799 12.985748 -1.249423 1.127845 0.007953 -0.003277 548646.000000 1 0 0
7.979545 -7.009724 12.361699 16.297882 -0.720787 0.709811 0.015814 -0.007524 382461.000000 1 0 0
-8.729055 -0.042224 -3.910101 9.564888 0.004837 1.991932 0.000397 -0.000506 -511374.000000 1 0 0
-3.339955 -5.136124 11.184699 12.752747 0.994219 0.501126 0.009126 -0.002736 1110770.000000 1 0 0
-8.034355 0.116276 -11.559701 14.078035 -0.014471 2.534160 0.004156 -0.005360 -1513930.000000 1 0 0
1.321445 -5.020824 5.324899 7.437031 -1.313440 0.772744 -0.001061 -0.001822 -869620.000000 1 0 0
6.662945 3.637076 -7.681401 10.799402 0.499664 2.362114 -0.001538 0.002569 -1653170.000000 1 0 0
16.310445 4.193276 -1.268501 16.888554 0.251642 1.645977 0.008827 0.011615 -801015.000000 1 0 0
7.909745 7.445176 0.199599 10.864371 0.755152 1.552423 0.007352 -0.001953 -1630100.000000 1 0 0
5.368745 -10.418224 14.022999 18.275867 -1.094966 0.696182 0.004364 -0.002527 -560428.000000 1 0 0
-5.234155 -9.289824 8.923499 13.904173 1.057701 0.873972 0.006160 -0.005612 396862.000000 1 0 0
-12.536355 -3.191624 2.810199 13.237971 0.249293 1.356886 0.004031 0.000198 -567694.000000 1 0 0
-2.097655 -1.319024 -5.847601 6.350939 0.561333 2.740784 0.001445 -0.004565 -2036820.000000 1 0 0
-2.510255 13.080976 -4.318501 14.002242 -1.381200 1.884323 -0.001868 0.005446 508982.000000 1 0 0
4.007745 -0.359224 -5.020301 6.433854 -0.089393 2.465933 0.000839 0.000973 -144437.000000 1 0 0
-8.838655 3.792176 -7.384301 12.125607 -0.405291 2.225575 -0.003669 0.000819 133583.000000 1 0 0
-4.483855 8.043876 -11.372901 14.633926 -1.062271 2.460936 -0.005158 0.000704 -2342540.000000 1 0 0
-10.211155 -6.513824 7.352899 14.169076 0.567831 1.025186 0.006177 0.000448 -1268360.000000 1 0 0
8.031745 5.284176 4.239499 10.507368 0.581917 1.155481 0.000381 0.002602 -2224720.000000 1 0 0
-6.773755 -7.645424 4.009599 10.973292 0.845777 1.196738 0.009307 -0.002426 -586513.000000 1 0 0
-4.211255 11.820876 8.107699 14.939966 -1.228559 0.997166 0.008964 -0.000292 -167499.000000 1 0 0
-7.117455 10.030276 -7.975101 14.658337 -0.953658 2.146072 -0.005127 -0.004848 -1702340.000000 1 0 0
13.003845 5.409276 4.753599 14.864621 0.394202 1.245286 0.002456 -0.003597 308468.000000 1 0 0
5.363445 4.028276 -3.628101 7.626052 0.644180 2.066614 0.004449 0.001318 594417.000000 1 0 0
-2.907255 -4.252224 5.087399 7.239832 0.971092 0.791617 0.002060 -0.000238 -886527.000000 1 0 0
12.485245 -2.261824 -5.376801 13.780681 -0.179216 1.971612 0.014283 -0.006050 -2100960.000000 1 0 0
-5.212255 9.726576 7.030899 13.084626 -1.078860 1.003516 0.002436 0.001608 -256767.000000 1 0 0
1.612745 3.925276 -0.438801 4.266297 1.180962 1.673831 0.006446 -0.000831 667196.000000 1 0 0
-0.086455 9.584076 7.804999 12.360421 -1.561776 0.887373 0.001337 0.003871 -798015.000000 1 0 0
-5.599955 2.212376 5.897399 8.428133 -0.376249 0.795780 -0.004518 0.001925 855958.000000 1 0 0
8.804745 0.919676 10.807899 13.970684 0.104075 0.686273 0.008357 -0.004337 -175002.000000 1 0 0
0.388945 -2.862424 -10.153601 10.556532 -1.435744 2.864413 -0.000344 -0.000646 -3220590.000000 1 0 0
1.146145 10.623576 -2.745801 11.032382 1.463325 1.822326 0.008932 -0.001606 -1846730.000000 1 0 0
2.298245 -4.326624 11.688699 12.673882 -1.082512 0.396892 0.001354 -0.003385 295086.000000 1 0 0
6.517145 -3.036624 9.419799 11.850184 -0.436033 0.651941 0.001656 -0.004954 228517.000000 1 0 0
-10.645255 -8.315624 5.610399 14.626949 0.663146 1.177142 0.008048 -0.003259 -1677600.000000 1 0 0
-2.958155 0.829676 -6.855401 7.512361 -0.273445 2.720272 0.002182 -0.003974 630185.000000 1 0 0
11.094545 2.702976 -5.115201 12.512405 0.238975 1.991946 0.001423 0.001499 -3049200.000000 1 0 0
-1.973155 -4.041024 0.006799 4.497028 1.116568 1.569284 0.000458 -0.002153 947412.000000 1 0 0
-1.219955 -6.528524 -10.668801 12.567149 1.386061 2.584780 -0.000739 -0.000777 1071950.000000 1 0 0
0.358345 6.807076 -6.566701 9.465002 1.518202 2.337531 0.005723 0.000856 -2042950.000000 1 0 0
2.036245 3.832976 -6.238301 7.599632 1.082467 2.533727 0.003425 -0.000637 -1406340.000000 1 0 0
1.635945 -14.780424 6.508299 16.232535 -1.460562 1.158252 0.025183 -0.003865 331417.000000 1 0 0
-1.696055 5.471976 -10.614701 12.061965 -1.270234 2.646688 0.003146 -0.004434 -398524.000000 1 0 0
13.703545 4.282576 -0.631801 14.371039 0.302899 1.614774 -0.000529 0.005111 -1587750.000000 1 0 0
-2.422555 3.291576 -6.218101 7.440970 -0.936324 2.560125 0.002649 -0.002783 -1480650.000000 1 0 0
5.727845 7.769976 14.217599 17.184902 0.935553 0.596457 0.006711 -0.005792 375949.000000 1 0 0
15.951745 0.628576 -5.608701 16.920721 0.039384 1.908657 0.014038 0.001824 -126209.000000 1 0 0
6.197145 -8.253624 10.614499 14.805218 -0.926758 0.771389 0.000381 -0.002421 1563380.000000 1 0 0
0.002545 -5.948024 -6.371801 8.716584 -1.570369 2.390579 -0.002468 -0.001770 -983391.000000 1 0 0
8.644245 5.485276 -7.449601 12.661271 0.565443 2.199847 0.000938 -0.000457 -349733.000000 1 0 0
-16.041355 -0.789624 5.258599 16.899747 0.049185 1.254378 0.015012 -0.009047 -285408.000000 1 0 0
-0.412355 4.144676 -12.352501 13.035822 -1.471632 2.816375 0.006672 -0.003215 546467.000000 1 0 0
-11.269155 3.743676 5.797199 13.214253 -0.320735 1.116636 -0.003911 -0.003009 -150849.000000 1 0 0
5.105145 -9.650924 -9.660101 14.578079 -1.084234 2.295142 -0.009259 0.001863 273800.000000 1 0 0
1.599445 11.247076 -11.607501 16.241583 1.429534 2.366960 0.010547 -0.002827 -2486050.000000 1 0 0
5.910145 2.422476 1.263899 6.511194 0.388998 1.375444 0.002313 0.003055 -265655.000000 1 0 0
5.670645 4.483876 5.008999 8.794966 0.669055 0.964862 -0.001463 0.003612 -856295.000000 1 0 0
0.406745 -1.527424 -6.401901 6.594149 -1.310541 2.899530 -0.001562 -0.001734 743602.000000 1 0 0
12.679945 6.881276 -4.513901 15.116490 0.497213 1.874030 0.006819 -0.000505 108674.000000 1 0 0
7.309445 3.152876 12.880299 15.141688 0.407231 0.553573 0.006643 -0.006258 -292665.000000 1 0 0
-2.637755 -0.275224 8.522699 8.925800 0.103964 0.301680 -0.001826 0.005252 254754.000000 1 0 0
2.302045 -15.298024 13.342399 20.429110 -1.421437 0.859116 0.013561 0.001855 -262792.000000 1 0 0
18.874045 4.392076 -1.748501 19.457059 0.228636 1.660782 0.021335 0.006226 805388.000000 1 0 0
-0.379255 -13.206624 7.261199 15.075933 1.542087 1.068269 0.006756 -0.001956 -1289910.000000 1 0 0
4.297745 1.574676 -0.573401 4.612917 0.351206 1.695422 0.004735 -0.000027 464179.000000 1 0 0
2.753245 -0.493324 -7.368201 7.881251 -0.177298 2.778781 -0.000525 0.000116 -147162.000000 1 0 0
7.206145 -11.288224 0.848799 13.419127 -1.002635 1.507501 0.001589 -0.004671 272560.000000 1 0 0
-11.928955 -7.408524 1.255099 14.098279 0.555757 1.481653 0.005033 0.000849 133695.000000 1 0 0
0.183245 -7.072424 9.941399 12.201810 -1.544892 0.618502 0.001993 -0.004662 -2843180.000000 1 0 0
-4.706955 -7.226224 10.545799 13.623054 0.993458 0.685482 0.009924 -0.000855 -878105.000000 1 0 0
11.861045 0.733376 -1.654401 11.998303 0.061752 1.709123 0.002570 0.000893 192139.000000 1 0 0
6.426045 -9.619124 -7.338401 13.699406 -0.981837 2.136101 -0.006687 -0.002526 305705.000000 1 0 0
-10.976955 4.992476 3.507599 12.558727 -0.426850 1.287736 -0.009348 -0.000815 418538.000000 1 0 0
5.958745 -9.064424 1.997699 11.030014 -0.989253 1.388676 -0.001364 -0.005960 5444490.000000 1 0 0
11.487145 -1.259824 5.974899 13.009268 -0.109236 1.093612 0.013601 -0.005748 -224831.000000 1 0 0
-6.497055 3.626676 4.129899 8.510028 -0.509119 1.064092 -0.004391 -0.000333 -1225460.000000 1 0 0
9.573945 6.345276 -3.104501 11.897936 0.585297 1.834779 0.002973 0.002185 878857.000000 1 0 0
-2.388155 6.600776 10.890099 12.956380 -1.223649 0.572554 -0.002846 0.000424 -145273.000000 1 0 0
1.806845 9.854476 3.003099 10.459158 1.389458 1.279571 0.002431 0.001024 -180677.000000 1 0 0
2.911545 6.157576 -5.612601 8.825765 1.129112 2.260014 0.004268 0.000256 -1827010.000000 1 0 0
11.947245 0.117576 -5.380601 13.103486 0.009841 1.993934 0.010866 -0.000903 536898.000000 1 0 0
-2.684655 -12.498924 6.250299 14.230134 1.359220 1.116055 0.006865 -0.001544 -32270.300000 1 0 0
10.881545 1.825176 -2.805101 11.384545 0.166184 1.819756 0.000427 0.001540 202099.000000 1 0 0
-8.962755 5.223076 0.903299 10.412851 -0.527642 1.483939 -0.004547 0.000576 596870.000000 1 0 0
1.191345 -10.192024 5.575499 11.678306 -1.454434 1.073076 0.001194 -0.004356 271698.000000 1 0 0
9.348745 -5.837224 -1.032101 11.069663 -0.558158 1.664169 0.009620 -0.006586 668612.000000 1 0 0
-7.825355 8.530576 -4.339801 12.362880 -0.828489 1.929472 -0.010127 0.000409 28872.100000 1 0 0
-7.448655 -0.080924 -1.629201 7.625176 0.010864 1.786117 -0.002040 0.000734 -1801090.000000 1 0 0
4.131645 8.806576 2.746899 10.108003 1.132128 1.295580 0.007861 -0.001835 878471.000000 1 0 0
-1.379955 -10.504324 -3.806301 11.257576 1.440174 1.915704 0.001816 -0.002567 347782.000000 1 0 0
3.116645 7.824476 -3.599001 9.159078 1.191739 1.974627 0.011190 -0.003145 -119410.000000 1 0 0
-4.287555 1.693676 -11.002001 11.928776 -0.376207 2.744806 -0.004207 -0.004347 -358422.000000 1 0 0
1.164545 2.881076 10.993299 11.424070 1.186670 0.275488 -0.002013 0.002524 677920.000000 1 0 0
2.125645 5.604576 -8.018201 10.011053 1.208288 2.499651 0.002995 0.000520 94060.100000 1 0 0
15.380545 6.129676 4.079299 17.052119 0.379242 1.329228 0.006745 -0.005450 -122382.000000 1 0 0
-4.552455 9.177776 4.549399 11.209525 -1.110329 1.152886 0.003802 0.003330 324386.000000 1 0 0
-0.868155 -8.207924 -12.456601 14.942912 1.465418 2.556413 -0.005662 -0.000192 748923.000000 1 0 0
14.213545 -4.235324 -5.305201 15.751444 -0.289601 1.914320 0.026413 -0.002180 720142.000000 1 0 0
-6.022455 -6.268824 -5.612201 10.347218 0.805440 2.144073 0.012363 -0.004754 607307.000000 1 0 0
-8.691155 2.517276 -12.163101 15.159614 -0.281922 2.501995 0.005319 -0.006382 -312434.000000 1 0 0
10.404045 5.412776 13.864899 18.159783 0.479722 0.702089 0.024693 -0.004865 801101.000000 1 0 0
-0.531155 10.908376 5.634799 12.289254 -1.522142 1.094474 0.001841 0.006286 456080.000000 1 0 0
0.303745 11.256976 -0.608901 11.277524 1.543820 1.624815 0.007191 -0.000532 54220.400000 1 0 0
-1.552355 -0.572224 3.724399 4.075340 0.353162 0.418039 -0.001962 0.002879 626600.000000 1 0 0
-4.886255 6.743276 8.808799 12.121972 -0.943743 0.757319 0.001167 0.000861 -1531500.000000 1 0 0
3.598945 -8.665824 -11.458901 14.810649 -1.177168 2.455446 -0.008320 0.006457 -123598.000000 1 0 0
6.708645 -3.785124 11.951399 14.218615 -0.513692 0.572506 0.007233 -0.006769 -433294.000000 1 0 0
-2.512355 -1.885424 -12.416801 12.807955 0.643796 2.893816 0.001888 -0.003891 392941.000000 1 0 0
-16.120155 -4.965324 5.316399 17.685529 0.298798 1.265467 0.022407 -0.007279 1282420.000000 1 0 0
-9.055555 7.209376 5.816299 12.954054 -0.672375 1.105157 -0.010155 0.000483 -3023450.000000 1 0 0
-12.671755 1.545976 5.999499 14.105226 -0.121402 1.131460 -0.006048 -0.002424 355743.000000 1 0 0
-3.633255 3.628576 10.153999 11.378524 -0.784754 0.468198 -0.000983 0.004149 586817.000000 1 0 0
2.126145 -12.256724 -1.175601 12.495191 -1.399038 1.665020 -0.000441 -0.000571 -3003220.000000 1 0 0
10.240545 -5.204024 -3.494901 12.006871 -0.470169 1.866147 0.013286 -0.005051 588248.000000 1 0 0
3.007345 -13.398524 0.983899 13.767084 -1.350002 1.499268 0.004029 -0.000814 359288.000000 1 0 0
9.984645 -1.506224 -6.068201 11.780700 -0.149725 2.111917 0.011742 -0.002914 795618.000000 1 0 0
11.920045 -5.390324 -1.479401 13.165549 -0.424687 1.683403 0.013780 -0.009210 443561.000000 1 0 0
1.445145 1.011776 5.925099 6.182146 0.610807 0.289380 -0.002590 0.003937 518428.000000 1 0 0
-10.920855 11.723876 6.572999 17.318160 -0.820845 1.181493 -0.010464 -0.002270 -316364.000000 1 0 0
4.774145 -14.006624 2.961399 15.091317 -1.242297 1.373283 0.009551 -0.005649 -4051200.000000 1 0 0
5.364345 -3.439224 -1.670201 6.587414 -0.570112 1.827139 0.001996 -0.000842 -1343160.000000 1 0 0
2.070145 -2.976124 -7.748401 8.554562 -0.963040 2.703972 -0.003997 0.001106 459338.000000 1 0 0
-2.757755 14.812776 -8.689001 17.393168 -1.386730 2.093892 0.009259 -0.007318 -741733.000000 1 0 0
-2.388855 6.105176 -8.185601 10.487320 -1.197827 2.466299 0.003684 -0.000729 -24949.000000 1 0 0
2.596045 -3.551524 -11.355901 12.178229 -0.939588 2.772003 -0.000510 0.000757 -1334370.000000 1 0 0
14.571945 2.798376 -2.665201 15.075668 0.189729 1.748519 0.006018 0.004809 826575.000000 1 0 0
-3.668255 13.083676 2.361999 13.791944 -1.297446 1.398689 -0.001888 0.005475 -70983.300000 1 0 0
7.900445 -4.853624 13.919099 16.724712 -0.550903 0.587647 0.016651 -0.006998 -949779.000000 1 0 0
-11.518655 7.394776 2.936899 13.999554 -0.570718 1.359441 -0.015924 0.001833 1111020.000000 1 0 0
-2.417955 11.890476 4.180399 12.833771 -1.370180 1.239008 0.004307 0.004473 1010390.000000 1 0 0
1.722845 1.452276 0.632599 2.340402 0.700388 1.297097 -0.000115 0.000347 -1593230.000000 1 0 0
-6.944055 8.635776 5.259499 12.266168 -0.893558 1.127653 0.000925 -0.001922 -362684.000000 1 0 0
-1.167555 9.209176 1.064099 9.343683 -1.444687 1.456664 0.001248 0.001957 267704.000000 1 0 0
5.020245 13.164976 -8.497301 16.453680 1.206485 2.113482 0.011869 -0.009733 -2793370.000000 1 0 0
8.874345 6.901276 7.315199 13.412447 0.660974 0.993926 -0.003407 -0.000395 -1403620.000000 1 0 0
7.199845 -13.637424 2.860499 15.684373 -1.085041 1.387391 0.016563 -0.006683 -325787.000000 1 0 0
4.238445 -13.430924 -1.250101 14.139196 -1.265114 1.659326 -0.000375 0.002520 -3730220.000000 1 0 0
12.126145 -11.750024 -4.611101 17.503391 -0.769646 1.837383 0.026438 -0.005049 -807316.000000 1 0 0
2.784145 0.175676 -1.893801 3.371766 0.063015 2.167193 0.004313 -0.003541 958530.000000 1 0 0
-13.540255 -3.106124 -10.718201 17.546121 0.225498 2.227941 0.025369 -0.014776 421038.000000 1 0 0
-6.740155 13.757376 5.126799 16.154850 -1.115237 1.247859 0.004357 0.000110 164790.000000 1 0 0
7.316045 -4.321724 -0.495601 8.511605 -0.533567 1.629056 0.004008 -0.001422 -1346600.000000 1 0 0
11.693645 1.902976 -7.288901 13.910094 0.161322 2.122338 0.014166 -0.002162 -1437420.000000 1 0 0
-7.557055 -4.621924 9.672899 13.116258 0.548908 0.741474 0.005631 0.002037 69208.600000 1 0 0
0.891445 2.955276 8.554299 9.094194 1.277831 0.346306 -0.002901 0.005412 -2363780.000000 1 0 0
1.623845 8.049276 -8.631501 11.913460 1.371730 2.381129 0.006226 -0.001371 187204.000000 1 0 0
-8.586955 -2.193224 -5.561201 10.462934 0.250067 2.131184 0.008216 -0.003383 -1422740.000000 1 0 0
6.566945 -0.507324 7.242399 9.789509 -0.077101 0.738005 -0.000667 0.000830 381859.000000 1 0 0
-11.021355 6.464576 7.212099 14.672266 -0.530471 1.056932 -0.004051 -0.000792 714409.000000 1 0 0
-6.105755 11.079176 4.936899 13.579446 -1.067108 1.198713 -0.001675 0.002064 -279788.000000 1 0 0
6.097545 -1.152924 -6.952801 9.319374 -0.186874 2.412920 -0.000213 0.000593 -777164.000000 1 0 0
4.512745 -5.761624 11.447899 13.587331 -0.906358 0.568811 0.001658 -0.006876 -1526840.000000 1 0 0
-8.967755 -7.388624 2.618999 11.910984 0.689151 1.349104 0.007755 -0.001961 -3354710.000000 1 0 0
-1.083255 12.720376 -9.265201 15.774199 -1.485842 2.198595 0.014385 -0.002937 796641.000000 1 0 0
-4.630155 9.303276 -2.369101 10.658421 -1.108998 1.794944 -0.006356 0.001122 356752.000000 1 0 0
-3.387555 9.689976 -0.170301 10.266459 -1.234483 1.587385 0.000519 0.000418 -1365340.000000 1 0 0
-3.456355 10.830076 -6.440901 13.066069 -1.261870 2.086272 -0.003337 0.001608 928033.000000 1 0 0
4.843445 -4.919424 0.393099 6.914782 -0.793180 1.513917 -0.000254 -0.003904 -1927660.000000 1 0 0
-2.149455 2.930676 -10.945601 11.533222 -0.937983 2.821003 0.002934 -0.003107 -2663780.000000 1 0 0
-3.637755 12.113376 -2.212601 12.839889 -1.279056 1.743983 -0.004111 0.003264 -102158.000000 1 0 0
-0.222555 0.326076 0.081199 0.403051 -0.971895 1.367947 -0.001686 -0.000713 -2478340.000000 1 0 0
-4.816655 -1.625624 0.063499 5.083980 0.325496 1.558306 -0.001313 -0.000738 238966.000000 1 0 0
2.701045 2.690176 -2.411301 4.510772 0.783382 2.134789 -0.003859 -0.000849 1363370.000000 1 0 0
6.029445 -9.652124 8.461399 14.181430 -1.012430 0.931472 0.002888 -0.003206 -62017.200000 1 0 0
-4.297355 -5.565924 6.582199 9.631828 0.913311 0.818414 0.002807 -0.001064 68186.900000 1 0 0
-6.195555 5.483876 -12.018601 14.591250 -0.724539 2.538676 -0.007351 -0.004470 56683.800000 1 0 0
-12.809655 3.001076 7.973799 15.384252 -0.230132 1.025924 -0.004802 -0.003383 617938.000000 1 0 0
4.625945 -7.464624 -4.793601 10.004928 -1.016006 2.070453 -0.003726 -0.002397 548713.000000 1 0 0
-5.960455 2.454976 -1.059601 6.532740 -0.390703 1.733715 -0.002090 -0.000860 -682634.000000 1 0 0
-6.809855 -2.792124 -14.593001 16.343983 0.389108 2.674468 0.006739 0.000171 161836.000000 1 0 0
2.622345 -6.059824 0.814599 6.652949 -1.162386 1.448047 0.000868 -0.002519 -1015460.000000 1 0 0
4.888645 -7.932124 13.052899 16.037319 -1.018471 0.619950 0.005789 -0.005084 137278.000000 1 0 0
-9.902855 -1.702124 7.948699 12.811931 0.170219 0.901526 0.000938 0.001473 -193968.000000 1 0 0
-4.447055 13.228076 -0.060801 13.955716 -1.246483 1.575153 -0.004116 0.005847 455804.000000 1 0 0
6.884145 2.272276 -4.445201 8.503793 0.318814 2.120848 0.001272 0.002500 -1550150.000000 1 0 0
5.207945 4.510176 -0.055101 6.889660 0.713720 1.578794 0.003850 -0.000064 -900128.000000 1 0 0
-5.943855 12.255976 1.829999 13.743626 -1.119240 1.437247 -0.001552 0.003272 -833625.000000 1 0 0
6.599645 -7.329424 6.454799 11.787289 -0.837743 0.991295 -0.001244 -0.006818 -1650410.000000 1 0 0
-0.394955 4.992676 7.684699 9.172644 -1.491854 0.577584 -0.004307 0.003553 -939773.000000 1 0 0
-5.710055 -3.560124 -1.527301 6.900135 0.557508 1.793988 0.004769 -0.003157 -1296830.000000 1 0 0
2.282345 -6.460724 -5.059901 8.517784 -1.231216 2.206868 -0.006730 0.001079 -1617130.000000 1 0 0
-14.295255 -4.865724 -3.832901 15.579497 0.328073 1.819370 0.006266 -0.005909 -393076.000000 1 0 0
-12.444055 -5.119524 -6.423301 14.910494 0.390298 2.016165 0.012459 -0.010524 -709423.000000 1 0 0
-14.713755 -3.775024 -1.333501 15.248725 0.251147 1.658358 -0.000063 0.000204 709053.000000 1 0 0
11.961045 2.976276 8.688599 15.080337 0.243878 0.956781 0.018234 -0.009909 -551819.000000 1 0 0
8.824545 -6.524924 7.548999 13.320458 -0.636687 0.968274 0.004617 -0.009230 151569.000000 1 0 0
-8.739055 -1.693924 -9.692901 13.160274 0.191459 2.398718 0.008178 -0.006451 37945.900000 1 0 0
-8.822755 5.104976 -3.821201 10.885925 -0.524547 1.929459 -0.003529 -0.000700 -1717510.000000 1 0 0
-4.155755 -6.224724 3.997599 8.485180 0.982133 1.080228 0.005557 -0.003309 -1155380.000000 1 0 0
-0.260855 -9.210824 3.593899 9.890573 1.542483 1.198918 0.001806 -0.005512 186044.000000 1 0 0
7.918445 -10.397524 3.268999 13.472068 -0.919931 1.325700 0.001779 -0.007170 -214305.000000 1 0 0
-0.054155 6.636576 9.716099 11.766463 -1.562636 0.599274 -0.002420 -0.001308 715605.000000 1 0 0
0.059445 3.567376 -9.788101 10.418092 1.554134 2.792049 0.005597 -0.003564 251340.000000 1 0 0
4.428745 -3.109324 11.026799 12.282995 -0.612119 0.456210 0.002159 -0.004116 -1170630.000000 1 0 0
8.580745 -9.146524 1.206199 12.599325 -0.817303 1.474914 0.005059 -0.007844 -749494.000000 1 0 0
-0.318255 -0.397924 11.520799 11.532061 0.896183 0.044199 0.001549 0.000662 -1716010.000000 1 0 0
10.740245 6.087576 11.402799 16.805810 0.515650 0.825073 0.021227 -0.004296 542963.000000 1 0 0
-6.243055 -2.957424 -11.834201 13.702934 0.442399 2.613213 0.004239 -0.005282 499298.000000 1 0 0
-1.709155 2.852476 8.506599 9.133458 -1.030978 0.372647 -0.002878 0.001965 -1336050.000000 1 0 0
-1.494055 13.538376 -6.746001 15.199617 -1.460884 2.030661 0.013190 -0.000452 269563.000000 1 0 0
7.635945 3.068676 9.910999 12.882248 0.382120 0.692968 0.001599 -0.002709 545554.000000 1 0 0
6.460045 8.471076 -7.909001 13.268143 0.919280 2.209418 0.009388 -0.005966 1327060.000000 1 0 0
6.581845 -2.937924 -3.964601 8.226186 -0.419829 2.073674 0.005364 -0.001855 -2762130.000000 1 0 0
1.977645 8.098776 1.132199 8.413271 1.331293 1.435814 0.004977 0.000490 1000890.000000 1 0 0
-17.648255 6.253376 6.071799 19.683302 -0.340531 1.257207 0.014227 -0.004624 357996.000000 1 0 0
-14.531455 3.402476 -10.465501 18.228186 -0.230002 2.182348 0.024479 -0.004934 -874880.000000 1 0 0
-18.072755 0.045176 -4.401901 18.601163 -0.002500 1.809709 0.014297 -0.000865 -610219.000000 1 0 0
-13.043955 8.048076 0.050799 15.327064 -0.552823 1.567482 -0.011257 0.002651 -913129.000000 1 0 0
-12.608255 -4.292224 -12.812901 18.481389 0.328124 2.336836 0.028854 -0.005739 -961406.000000 1 0 0
-17.289055 -0.519524 -8.850601 19.429732 0.030040 2.043751 0.024175 -0.017519 550082.000000 1 0 0
-16.782655 -2.154924 -2.056901 17.045001 0.127703 1.691766 0.022637 -0.000463 840295.000000 1 0 0
-15.366855 4.094976 1.659399 15.989455 -0.260429 1.466828 -0.006405 0.002595 52129.200000 1 0 0
-13.284055 6.006276 4.341199 15.211426 -0.424634 1.281382 -0.014120 0.000802 -875183.000000 1 0 0
-9.980855 14.238376 2.788099 17.610290 -0.959411 1.411805 0.003393 -0.001750 -221104.000000 1 0 0
-11.732155 2.446576 -6.488601 13.628322 -0.205590 2.067024 -0.000307 0.003294 282062.000000 1 0 0
-15.964355 10.613276 3.797899 19.542935 -0.586717 1.375216 0.003542 -0.006233 100196.000000 1 0 0
-12.786455 1.174176 -8.647101 15.480455 -0.091573 2.163471 0.009762 -0.002422 719754.000000 1 0 0
-12.256555 14.716376 3.866699 19.538328 -0.876343 1.371578 0.005900 0.002976 388867.000000 1 0 0
-10.484355 11.267776 -1.016701 15.424596 -0.821398 1.636758 -0.002429 -0.000358 -65209.300000 1 0 0
-17.021255 5.582676 8.690699 19.910240 -0.316927 1.119098 0.011755 -0.010518 369268.000000 1 0 0
-11.710355 12.556376 -9.276401 19.515292 -0.820247 2.066147 0.030202 -0.019013 -1173610.000000 1 0 0
-17.098955 -0.496624 2.902299 17.350627 0.029036 1.402733 0.010293 -0.002116 617200.000000 1 0 0
-13.233155 14.884576 -0.738501 19.930188 -0.844063 1.607859 0.028175 -0.012459 375503.000000 1 0 0
-16.621655 4.889076 -10.480801 20.249190 -0.286071 2.114830 0.055472 -0.007785 433746.000000 1 0 0
-11.726755 7.667976 -9.031001 16.669542 -0.579103 2.143334 0.004455 0.001069 -404737.000000 1 0 0
-14.937055 13.464376 -2.117601 20.221011 -0.733592 1.675712 0.042131 -0.016423 547626.000000 1 0 0
-11.690855 10.589376 -5.535401 16.716808 -0.736001 1.908295 0.021513 -0.009299 767399.000000 1 0 0
-17.615755 2.941376 -0.980401 17.886523 -0.165448 1.625636 0.005885 -0.000099 -222776.000000 1 0 0
-9.394555 15.572376 0.737499 18.201661 -1.027966 1.530267 0.012539 -0.008660 -124479.000000 1 0 0
-8.146855 13.158476 -3.837301 15.944956 -1.016427 1.813841 0.003879 -0.005379 -911090.000000 1 0 0
-17.792755 11.516776 2.046999 21.293391 -0.574456 1.474515 0.046987 -0.002448 115366.000000 1 0 0
-7.933755 15.748976 -7.502001 19.163892 -1.104143 1.973020 0.041317 -0.024124 -231683.000000 1 0 0
-6.198755 15.277376 -5.480401 17.374049 -1.185345 1.891712 0.005297 -0.005023 -349827.000000 1 0 0
-17.244755 5.372376 -0.211901 18.063469 -0.302007 1.582528 0.011465 0.000841 629881.000000 1 0 0
-5.266255 12.268876 -12.269401 18.132760 -1.165342 2.313990 -0.008186 -0.009922 130141.000000 1 0 0
-10.942155 3.758976 -11.346501 16.205053 -0.330901 2.346450 0.004411 -0.006436 683175.000000 1 0 0
-11.931155 11.202776 1.192899 16.409682 -0.753923 1.498037 -0.002281 0.000401 337844.000000 1 0 0
-12.745655 0.195076 -11.090901 16.896682 -0.015304 2.286827 0.012936 -0.010879 -462353.000000 1 0 0
-14.003655 -2.006624 -13.020801 19.226809 0.142324 2.314776 0.033904 -0.016824 85794.200000 1 0 0
-18.623155 -2.346524 -3.753201 19.141959 0.125340 1.768147 0.020160 -0.002996 102442.000000 1 0 0
-18.110355 4.787176 -5.304501 19.468944 -0.258423 1.846745 0.021130 -0.004308 81687.700000 1 0 0
-8.236655 15.373176 -2.407201 17.606012 -1.078935 1.707952 0.015930 -0.012675 427703.000000 1 0 0
-16.064155 9.061376 -5.428701 19.225931 -0.513585 1.857053 0.036382 -0.008258 -25493.700000 1 0 0
-18.270155 1.664076 2.043099 18.459198 -0.090831 1.459887 0.021675 -0.001699 -774766.000000 1 0 0
-15.619055 -2.587924 -8.718601 18.073911 0.164198 2.074173 0.012656 -0.010863 -138803.000000 1 0 0
-9.447355 10.597976 -7.052601 15.852722 -0.842736 2.031840 0.005176 -0.010497 3105.040000 1 0 0
-13.716555 11.898276 -7.773401 19.751927 -0.714532 1.975288 0.045235 -0.027900 36256.400000 1 0 0
-10.979955 6.588976 -3.849901 13.371453 -0.540487 1.862850 -0.005635 0.000993 -2111090.000000 1 0 0
-12.861955 4.865976 -12.819101 18.799920 -0.361681 2.321112 0.025373 -0.009804 -88030.500000 1 0 0
-17.757355 9.045276 2.587799 20.095706 -0.471125 1.441664 0.024835 -0.006667 958614.000000 1 0 0
-13.295655 8.890376 -6.700701 17.341068 -0.589387 1.967529 0.010168 -0.001391 -382221.000000 1 0 0
-15.732455 6.901776 -3.869201 17.610093 -0.413414 1.792319 0.007791 0.001573 -782293.000000 1 0 0
-14.814355 -0.210424 -9.358101 17.523797 0.014203 2.134147 0.019520 -0.012572 -786685.000000 1 0 0
-9.866655 5.885476 -6.075301 12.996115 -0.537843 2.057224 -0.005198 0.002501 374973.000000 1 0 0
-12.815755 12.325076 -0.878801 17.802342 -0.765883 1.620181 0.010965 -0.004796 -389299.000000 1 0 0
-10.247455 3.491276 -13.917701 17.632406 -0.328363 2.480505 0.000221 -0.009173 403195.000000 1 0 0
-10.804855 6.285576 -11.979801 17.313839 -0.526882 2.334942 0.003696 -0.004919 -929652.000000 1 0 0
-5.536855 11.549876 -14.799801 19.572698 -1.123775 2.428199 -0.005320 -0.013973 -418057.000000 1 0 0
-15.799555 13.334576 3.582199 20.982589 -0.700991 1.399233 0.021599 -0.005076 530494.000000 1 0 0
-15.063355 11.146276 -3.334301 19.033174 -0.637044 1.746889 0.029445 -0.003034 855213.000000 1 0 0
-18.124355 7.711176 -4.752801 20.261876 -0.402260 1.807571 0.039060 -0.007360 1042940.000000 1 0 0
-3.993855 16.258476 -10.534201 19.780251 -1.329918 2.132420 0.012107 -0.008777 -59223.600000 1 0 0
-15.644255 4.403176 -4.454101 16.851401 -0.274359 1.838291 0.006500 0.004060 295697.000000 1 0 0
-18.577855 -1.819024 -6.248701 19.684812 0.097602 1.893823 0.024656 -0.006174 541384.000000 1 0 0
-10.677355 8.601076 -5.935401 14.940329 -0.678112 1.979341 -0.002667 0.000778 45702.200000 1 0 0
-11.275455 13.653776 -6.854601 18.988077 -0.880513 1.940131 0.032457 -0.014679 284486.000000 1 0 0
-9.428555 10.471776 -4.364401 14.751398 -0.837773 1.871156 -0.009569 -0.001523 -1397030.000000 1 0 0
-11.015655 6.414676 -0.221401 12.749186 -0.527321 1.588163 -0.008615 0.002522 -609668.000000 1 0 0
-14.593655 9.436076 -1.551101 17.447642 -0.573973 1.659814 0.010401 0.002972 746137.000000 1 0 0
-18.597755 3.364476 4.618799 19.455835 -0.178972 1.331109 0.021569 -0.007238 383344.000000 1 0 0
-14.692955 13.184876 0.545599 19.748964 -0.731355 1.543166 0.007131 -0.004777 -427685.000000 1 0 0
-16.790355 2.560576 -9.432201 19.427789 -0.151337 2.077732 0.029689 -0.007175 882046.000000 1 0 0
-9.092555 8.533476 -8.825301 15.276803 -0.753690 2.186696 -0.002012 0.000988 -2570330.000000 1 0 0
-17.538655 4.781576 -2.781501 18.390341 -0.266162 1.722627 0.002868 0.004178 945744.000000 1 0 0
-13.441355 5.836676 -4.519601 15.335045 -0.409665 1.869963 0.001340 0.007004 -892794.000000 1 0 0
-12.262855 9.809876 3.426799 16.073402 -0.674721 1.355950 -0.016932 0.006487 214544.000000 1 0 0
-17.488355 2.501076 -4.101501 18.136159 -0.142051 1.798920 0.009260 0.002915 993214.000000 1 0 0
-11.130755 1.482076 -12.610301 16.885199 -0.132373 2.414072 0.016002 -0.006595 829708.000000 1 0 0
-11.351255 12.165076 3.604499 17.024467 -0.819991 1.357457 -0.007847 0.002355 281067.000000 1 0 0
-16.046355 13.318176 -4.518601 21.337223 -0.692757 1.784183 0.035120 -0.011404 -23213.500000 1 0 0
-11.037255 4.146776 -4.613701 12.661082 -0.359391 1.943785 -0.007150 0.002696 -392185.000000 1 0 0
-11.315655 15.107476 -9.025601 20.922270 -0.927929 2.016826 0.054507 -0.026284 291265.000000 1 0 0
-15.346055 7.257476 -0.495501 16.982871 -0.441751 1.599977 0.001222 0.005578 -854418.000000 1 0 0
-12.736455 8.446076 -4.222301 15.855010 -0.585558 1.840356 0.001897 0.002221 861247.000000 1 0 0
-19.282555 1.848676 -5.848101 20.234496 -0.095581 1.863996 0.046247 -0.011468 764488.000000 1 0 0
-12.401655 10.138976 -9.078701 18.412569 -0.685351 2.086412 0.021646 -0.015208 694486.000000 1 0 0
-16.712855 11.005376 -1.200601 20.046927 -0.582326 1.630722 0.022961 -0.004047 383387.000000 1 0 0
-10.555455 6.464376 -14.643301 19.173734 -0.549502 2.439847 0.019209 -0.014296 -57872.700000 1 0 0
-13.569155 12.936876 -4.340701 19.243867 -0.761549 1.798317 0.030056 -0.015967 -544785.000000 1 0 0
-17.969755 7.902876 -0.294301 19.632987 -0.414329 1.585787 0.029934 -0.000203 636285.000000 1 0 0
-12.751155 6.677776 -2.137701 14.551784 -0.482427 1.718233 -0.009493 0.005267 288480.000000 1 0 0
-13.693055 8.428576 -10.649101 19.285850 -0.551765 2.155763 0.023418 -0.008729 64788.100000 1 0 0
-14.897955 1.471676 -0.964201 15.001486 -0.098464 1.635114 -0.007472 0.002248 -702017.000000 1 0 0
-13.246255 2.825676 -2.503301 13.773679 -0.210169 1.753557 -0.006899 0.005758 -1002560.000000 1 0 0
-11.160955 9.314176 -11.021301 18.242530 -0.695445 2.219500 0.020703 -0.010458 -81307.700000 1 0 0
-15.372055 4.359276 -8.156501 17.939674 -0.276329 2.042790 0.021508 -0.005356 762315.000000 1 0 0
-18.543355 10.576676 4.465699 21.809736 -0.518352 1.364581 0.056597 -0.017812 316692.000000 1 0 0
-15.266655 6.238076 -6.347001 17.671129 -0.387905 1.938178 0.016263 0.003337 615547.000000 1 0 0
-7.618155 11.357076 -13.178901 18.992180 -0.979948 2.337704 -0.007332 -0.002775 516313.000000 1 0 0
-16.750955 9.139176 -2.975801 19.312546 -0.499452 1.725499 0.024035 -0.000563 508770.000000 1 0 0
-20.438355 -0.904624 -4.698001 20.990853 0.044232 1.796520 0.038989 -0.009814 569901.000000 1 0 0
-15.343955 4.338876 4.186799 16.486118 -0.275579 1.314025 -0.008422 0.004008 -238741.000000 1 0 0
-6.863855 12.597276 -9.542201 17.229553 -1.071902 2.157751 0.000945 -0.009067 -1393410.000000 1 0 0
-17.060955 1.534676 5.751199 18.069525 -0.089711 1.246880 0.007093 -0.006688 306935.000000 1 0 0
-10.494255 14.220076 -3.397201 17.996693 -0.935027 1.760704 0.031084 -0.020448 2319110.000000 1 0 0
-9.894255 8.522676 -13.127001 18.516222 -0.711062 2.358799 0.000216 -0.004961 -225783.000000 1 0 0
-13.861755 11.759776 2.752099 18.385175 -0.703542 1.420540 -0.004600 0.002222 -1004950.000000 1 0 0
-16.524355 6.920076 1.724699 17.997677 -0.396591 1.474820 -0.005692 0.002503 564820.000000 1 0 0
-9.299755 13.392476 -8.462201 18.369886 -0.963838 2.049531 0.029944 -0.020020 1109790.000000 1 0 0
-5.461255 9.813876 -13.056201 17.222133 -1.062989 2.431200 -0.008604 -0.002309 -646420.000000 1 0 0
-15.843555 1.860076 3.145799 16.259587 -0.116868 1.376095 -0.007723 0.002217 63878.000000 1 0 0
-18.654855 -4.965424 4.433799 19.807010 0.260142 1.345033 0.046890 -0.008579 643623.000000 1 0 0
-5.302755 14.458676 -9.163001 17.920188 -1.219276 2.107520 0.000761 -0.005206 701335.000000 1 0 0
-15.411855 -0.792124 -6.943601 16.922362 0.051352 1.993602 0.011635 -0.006337 791047.000000 1 0 0
-8.916655 11.039476 -9.495501 17.074581 -0.891374 2.160505 0.001455 -0.013833 403117.000000 1 0 0
-16.657155 1.321176 -6.205901 17.824689 -0.079150 1.926407 0.002917 -0.001563 -285329.000000 1 0 0
-11.137355 8.744676 -1.533701 14.242973 -0.665630 1.678687 -0.005080 0.000107 -1214190.000000 1 0 0
-10.731855 11.063576 -12.959501 20.137629 -0.800617 2.269919 0.015817 -0.008026 -293623.000000 1 0 0
-14.000155 11.908676 -10.350901 21.094124 -0.704848 2.083690 0.062141 -0.023758 512647.000000 1 0 0
-13.111455 5.852176 -7.752401 16.317413 -0.419807 2.065874 0.009736 0.003408 156040.000000 1 0 0
-8.791255 15.358876 -4.989301 18.386799 -1.050926 1.845594 0.021913 -0.019109 369559.000000 1 0 0
-8.539755 6.275276 -13.000801 16.772816 -0.633722 2.457688 -0.000118 -0.004665 -9766.400000 1 0 0
-16.289255 7.489976 4.195199 18.413019 -0.430983 1.340939 0.000059 0.002023 -18942.900000 1 0 0
-12.521555 5.494476 -10.274201 17.103737 -0.413502 2.215172 0.011289 -0.000799 -106334.000000 1 0 0
-12.416855 9.130976 -13.266301 20.335874 -0.634072 2.281490 0.043197 -0.019852 -578436.000000 1 0 0
-10.652255 5.200076 -8.533801 14.606064 -0.454136 2.194770 -0.003645 0.003651 -284071.000000 1 0 0
-17.656155 -4.518324 -2.650001 18.416774 0.250530 1.715188 0.019952 -0.002554 552305.000000 1 0 0
-8.899755 13.127876 -11.003201 19.303296 -0.975038 2.177323 0.031098 -0.019535 79016.400000 1 0 0
-15.102355 6.202276 6.061599 17.415291 -0.389682 1.215293 -0.003219 -0.000040 -1744270.000000 1 0 0
-16.291955 -3.231924 -4.482501 17.203661 0.195833 1.834393 0.010532 -0.002245 -962160.000000 1 0 0
-11.035255 -1.239024 -12.530701 16.743074 0.111810 2.416459 0.015996 -0.007842 487751.000000 1 0 0
-15.311155 6.909876 -8.727401 18.930013 -0.423932 2.049958 0.020406 0.000164 126756.000000 1 0 0
-14.981355 9.372876 0.987099 17.699327 -0.559057 1.514997 0.003362 -0.001228 -404366.000000 1 0 0
-19.460755 5.427776 7.721599 21.628797 -0.271997 1.205736 0.049144 -0.019441 654650.000000 1 0 0
-16.303155 0.622276 0.867599 16.338079 -0.038151 1.517668 0.006858 0.000656 338576.000000 1 0 0
-17.591355 3.757276 6.975699 19.293348 -0.210425 1.200856 0.013124 -0.001660 603385.000000 1 0 0
-15.344055 3.973676 -1.641301 15.934993 -0.253405 1.673979 -0.004109 0.001794 -2718540.000000 1 0 0
-10.826755 13.453776 0.411899 17.274038 -0.893173 1.546949 0.004584 -0.005095 -940990.000000 1 0 0
-13.467155 3.556976 -0.039001 13.929030 -0.258225 1.573596 -0.007511 0.003076 -24244.500000 1 0 0
-15.082555 0.223076 -4.487301 15.737507 -0.014789 1.859943 0.002175 0.002001 -1204910.000000 1 0 0
-18.567555 6.610176 3.277299 19.979721 -0.342016 1.406020 0.007516 -0.001516 1015940.000000 1 0 0
-14.041655 1.394876 -6.434201 15.508472 -0.099014 1.998611 0.003013 -0.000022 -122900.000000 1 0 0
-14.331655 11.954276 5.254099 19.388312 -0.695201 1.296372 -0.002127 -0.009260 -469498.000000 1 0 0
17.602945 5.467276 6.225799 19.455471 0.301143 1.245064 0.042017 -0.015741 279101.000000 1 0 0
18.524645 7.456776 -0.162101 19.969783 0.382688 1.578914 0.030069 0.002744 480975.000000 1 0 0
16.569245 5.237776 8.606799 19.392038 0.306174 1.110926 0.054047 -0.012940 438827.000000 1 0 0
11.603945 12.408676 10.846299 20.156115 0.818898 1.002598 0.029227 -0.008764 454443.000000 1 0 0
-2.331255 16.284776 -0.497701 16.458323 -1.428607 1.601041 -0.003471 0.001573 186543.000000 1 0 0
15.114345 12.716576 3.319599 20.029340 0.699456 1.404291 0.035552 -0.007741 194864.000000 1 0 0
13.588145 11.802576 6.637299 19.183123 0.715190 1.217495 0.041223 -0.005200 725360.000000 1 0 0
-0.697555 15.911176 8.677499 18.137009 -1.526984 1.071917 0.008457 -0.000836 616040.000000 1 0 0
0.595545 12.898176 9.417799 15.981632 1.524656 0.940618 0.004085 -0.002237 -116362.000000 1 0 0
0.728245 15.546376 -3.944501 16.055505 1.523987 1.819016 0.011141 -0.001250 1945620.000000 1 0 0
5.427945 10.226176 13.684499 17.924920 1.082822 0.702183 0.008811 -0.008447 -266322.000000 1 0 0
-1.321955 16.510476 -2.722201 16.785523 -1.490899 1.733691 0.001661 0.001796 -981691.000000 1 0 0
8.501945 10.015376 3.333199 13.553636 0.866948 1.322321 0.010223 -0.000606 350160.000000 1 0 0
12.527845 13.745976 -4.610901 19.161398 0.831728 1.813816 0.033136 -0.014605 -378262.000000 1 0 0
2.359945 11.707376 7.831899 14.281829 1.371884 0.990368 0.006179 0.002493 938298.000000 1 0 0
-0.297455 15.011276 -8.737801 17.371703 -1.550983 2.097852 0.020493 -0.001737 -1385130.000000 1 0 0
2.348945 15.992176 0.209899 16.165126 1.424958 1.557811 0.012673 -0.007492 -39764.500000 1 0 0
1.780045 13.403076 5.426899 14.569223 1.438760 1.189105 0.007138 0.003350 -75298.600000 1 0 0
17.510045 9.181876 -1.853001 19.858049 0.482959 1.664245 0.020359 0.003148 461258.000000 1 0 0
-7.327155 14.975576 7.315499 18.206362 -1.115767 1.157304 0.010135 -0.004752 -1494810.000000 1 0 0
8.558045 16.205276 -0.006601 18.326242 1.084920 1.571157 0.015596 -0.009123 -1100910.000000 1 0 0
15.753645 10.449676 2.052999 19.015464 0.585681 1.462621 0.028179 -0.001671 917626.000000 1 0 0
14.118045 7.448476 8.817899 18.236072 0.485472 1.066100 0.033111 -0.012218 -918761.000000 1 0 0
3.981645 18.373376 -1.546001 18.863313 1.357389 1.652846 0.024297 -0.024654 -857486.000000 1 0 0
-0.547855 17.648876 -4.826801 18.305218 -1.539764 1.837636 0.016519 -0.001176 626869.000000 1 0 0
1.312045 13.746676 -0.686101 13.826182 1.475640 1.620440 0.004747 -0.004460 -1284050.000000 1 0 0
10.230245 14.744776 4.331099 18.461440 0.964229 1.333987 0.023175 -0.015500 -1056230.000000 1 0 0
-1.852055 15.411276 -5.004801 16.309064 -1.451195 1.882701 0.008454 -0.001616 -391546.000000 1 0 0
15.155745 8.657276 -6.292501 18.553722 0.518989 1.916810 0.040012 -0.010218 -44031.800000 1 0 0
-2.374755 18.529076 0.902299 18.702414 -1.443328 1.522533 0.002878 -0.004275 -1259720.000000 1 0 0
-3.764555 19.423876 3.535399 20.098704 -1.379359 1.393975 0.004276 -0.006125 109841.000000 1 0 0
1.810245 17.709676 -2.826701 18.024979 1.468932 1.728268 0.012380 -0.008807 -275591.000000 1 0 0
2.790345 12.312876 3.320699 13.054501 1.347940 1.313598 0.007781 0.000569 624116.000000 1 0 0
-2.649155 16.050276 1.862999 16.373764 -1.407218 1.456770 0.000215 -0.004621 -1317350.000000 1 0 0
11.719545 12.805376 -2.356001 17.517880 0.829644 1.705696 0.001195 -0.002645 429612.000000 1 0 0
7.125445 11.668276 4.764899 14.478429 1.022570 1.235442 0.010237 -0.001168 53044.900000 1 0 0
7.101745 15.777176 2.057299 17.423735 1.147836 1.452446 0.013731 -0.009871 -1336600.000000 1 0 0
5.540445 12.263276 10.159499 16.861195 1.146454 0.924120 0.012227 -0.001121 1728740.000000 1 0 0
-1.500755 14.193876 3.279499 14.644914 -1.465455 1.344947 0.001666 0.004718 -894614.000000 1 0 0
4.568745 16.008176 1.552099 16.719574 1.292787 1.477831 0.007666 -0.013611 -3272720.000000 1 0 0
7.163545 13.242176 11.934999 19.212387 1.074917 0.900506 0.011259 -0.005989 -343582.000000 1 0 0
0.788545 17.274076 -9.407601 19.685489 1.525179 2.069053 0.031860 -0.005186 535194.000000 1 0 0
9.877645 9.655276 15.421499 20.703015 0.774014 0.730424 0.040384 -0.009713 -83034.600000 1 0 0
13.464545 7.370076 -0.095601 15.349955 0.500821 1.577024 -0.005073 0.006201 178031.000000 1 0 0
12.173945 13.779576 0.066799 18.387118 0.847185 1.567163 0.006663 -0.004571 367253.000000 1 0 0
9.277045 12.460176 3.431799 15.909016 0.930802 1.353373 0.010718 -0.000106 -727997.000000 1 0 0
-0.757055 12.875676 0.790099 12.922091 -1.512067 1.509615 0.002248 0.000388 -263412.000000 1 0 0
16.007745 7.368576 -0.819801 17.641312 0.431397 1.617284 0.019969 0.007006 -2358950.000000 1 0 0
-4.227655 18.487976 -2.296601 19.103736 -1.345991 1.691305 0.008127 -0.002718 -30070.400000 1 0 0
11.621645 9.218076 -3.164101 15.167303 0.670570 1.780953 0.006289 -0.000597 -139290.000000 1 0 0
14.743445 9.738376 7.702099 19.275048 0.583737 1.159728 0.049085 -0.012963 801868.000000 1 0 0
4.294145 13.767276 4.777699 15.192234 1.268449 1.250884 0.010780 0.001513 -833488.000000 1 0 0
2.087845 15.945776 5.707099 17.064520 1.440603 1.229783 0.010684 0.003040 62726.600000 1 0 0
6.007845 18.282476 5.495599 20.013614 1.253301 1.292630 0.018456 -0.026641 -426502.000000 1 0 0
10.760345 17.208476 -0.782801 20.310821 1.011986 1.609347 0.022396 -0.018380 -1071460.000000 1 0 0
9.996245 13.580876 -4.240101 17.388029 0.936281 1.817132 0.022709 -0.011743 1235660.000000 1 0 0
16.601645 7.913776 2.464899 18.555813 0.444823 1.437566 0.013178 0.003948 270572.000000 1 0 0
3.931145 13.979976 -0.479301 14.530085 1.296677 1.603789 0.009397 -0.006224 185331.000000 1 0 0
5.539245 13.109976 -2.394701 14.432231 1.171027 1.737495 0.008205 -0.004726 -218616.000000 1 0 0
-6.164155 16.864876 -3.025401 18.209171 -1.220378 1.737718 0.008568 -0.007974 -757264.000000 1 0 0
18.223445 9.944576 2.820199 20.950944 0.499538 1.435777 0.045325 -0.002382 -39649.400000 1 0 0
7.947245 12.867876 9.385399 17.799625 1.017534 1.015399 0.013602 -0.006656 1888160.000000 1 0 0
-2.631555 15.843176 6.788299 17.435949 -1.406199 1.170895 0.005293 0.005945 17632.100000 1 0 0
11.075045 16.140676 6.349699 20.579036 0.969421 1.257126 0.030238 -0.013016 -71659.400000 1 0 0
13.580145 12.012276 1.366199 18.181903 0.724212 1.495585 0.022123 0.000945 1798090.000000 1 0 0
17.502445 7.783276 -5.644101 19.969247 0.418435 1.857341 0.038586 0.012657 49985.700000 1 0 0
9.484545 9.201476 8.055599 15.476318 0.770251 1.023347 0.011076 -0.001101 -296729.000000 1 0 0
-1.972055 14.194576 -1.948001 14.462701 -1.432750 1.705898 -0.004072 0.001475 712241.000000 1 0 0
10.893745 11.643076 0.799599 15.964782 0.818635 1.520690 0.009019 0.004336 524911.000000 1 0 0
11.826545 9.761976 -0.442701 15.341425 0.690055 1.599657 0.000287 0.006837 -579949.000000 1 0 0
-0.259055 16.146176 11.193599 19.648480 -1.554753 0.964664 0.012580 -0.011885 491584.000000 1 0 0
1.952245 20.025976 -1.677701 20.190732 1.473618 1.653985 0.026140 -0.022592 -91158.800000 1 0 0
9.348645 14.440776 1.849399 17.301834 0.996266 1.463701 0.016015 -0.007022 61110.700000 1 0 0
8.533845 11.650376 -5.103001 15.316605 0.938593 1.910458 0.018170 -0.006440 -700137.000000 1 0 0
10.660845 10.097476 10.237399 17.900195 0.758265 0.961957 0.017067 -0.005249 728034.000000 1 0 0
-5.170455 15.865076 6.040299 17.745970 -1.255749 1.223480 -0.005957 0.006780 1321910.000000 1 0 0
14.402645 9.026976 -1.851401 17.098250 0.559863 1.679289 0.023593 0.002696 -392389.000000 1 0 0
12.201045 9.656376 6.881999 17.013906 0.669499 1.154372 0.013158 -0.008310 -731528.000000 1 0 0
3.168845 13.028576 9.879299 16.654907 1.332206 0.935798 0.007432 -0.005498 -446133.000000 1 0 0
8.410145 12.531076 -2.528001 15.301934 0.979701 1.736765 0.014755 -0.007109 -702540.000000 1 0 0
9.318545 17.038876 2.335899 19.560547 1.070337 1.451092 0.016107 -0.017807 52067.100000 1 0 0
9.669445 13.978676 -7.366001 18.524565 0.965644 1.979733 0.024215 -0.022493 31284.000000 1 0 0
6.351445 11.401976 7.325499 14.966925 1.062558 1.059342 0.006082 -0.000446 -856241.000000 1 0 0
5.474145 16.757276 -5.749801 18.542729 1.255052 1.886078 0.026884 -0.007983 -2407100.000000 1 0 0
-4.069955 17.250576 -4.634601 18.320110 -1.339102 1.826554 0.007793 -0.004380 -104150.000000 1 0 0
-0.258955 18.530076 -0.477501 18.538036 -1.556822 1.596557 0.007339 -0.008245 -781687.000000 1 0 0
6.521345 15.614976 -2.619401 17.123571 1.175181 1.724370 0.014416 -0.007875 896353.000000 1 0 0
-0.905555 20.723076 0.848299 20.760191 -1.527126 1.529923 0.013317 -0.008917 -163725.000000 1 0 0
-1.347955 18.806376 4.494999 19.383028 -1.499243 1.336762 0.005151 -0.001520 455345.000000 1 0 0
7.204845 13.749576 -4.325701 16.114352 1.088130 1.842567 0.012721 -0.005828 636677.000000 1 0 0
-1.096655 11.993176 7.688399 14.288121 -1.479610 1.002618 0.004804 0.004840 524619.000000 1 0 0
7.637545 10.896376 11.090399 17.322242 0.959450 0.875985 0.009501 0.000034 565605.000000 1 0 0
1.525745 15.984276 -7.270301 17.626181 1.475632 1.995962 0.015656 -0.006850 117578.000000 1 0 0
8.841945 7.226476 15.000099 18.852186 0.685198 0.650685 0.027065 0.000419 527486.000000 1 0 0
11.404845 11.361476 -4.678801 16.764391 0.783493 1.853644 0.014848 -0.009233 -395531.000000 1 0 0
-3.423755 17.034776 4.531399 17.956594 -1.372453 1.315685 -0.000145 0.000259 -373552.000000 1 0 0
3.936545 15.284176 -6.744001 17.163449 1.318718 1.974610 0.022660 -0.012234 -1101710.000000 1 0 0
-4.561255 14.076776 9.517699 17.593956 -1.257445 0.999213 0.022000 -0.006176 -693011.000000 1 0 0
6.211545 17.761476 0.571799 18.824991 1.234371 1.540417 0.011604 -0.018016 -606230.000000 1 0 0
9.847145 10.599476 -2.031401 14.609646 0.822176 1.710294 0.006976 -0.000930 116635.000000 1 0 0
7.002045 18.163576 -2.710201 19.654244 1.202853 1.709131 0.019722 -0.012590 474407.000000 1 0 0
3.477645 10.452676 10.417899 15.161961 1.249613 0.813296 0.002651 -0.000561 800872.000000 1 0 0
-0.015855 18.664076 2.151999 18.787738 -1.569947 1.456002 0.009087 -0.007058 424777.000000 1 0 0
-0.876755 17.128176 -7.347601 18.658252 -1.519653 1.975557 0.024632 -0.002200 300144.000000 1 0 0
9.941745 8.557376 12.998199 18.466731 0.710703 0.789964 0.023927 -0.009992 -62580.800000 1 0 0
3.649845 11.458076 5.558899 13.248028 1.262419 1.137790 0.005248 0.002577 763555.000000 1 0 0
13.148445 13.955276 8.116999 20.821071 0.815158 1.170333 0.043221 -0.017270 -31681.200000 1 0 0
-0.524055 17.550176 6.912699 18.869783 -1.540945 1.195727 0.004253 0.007647 -494618.000000 1 0 0
11.990945 13.668076 5.774899 19.077435 0.850668 1.263263 0.023728 -0.011759 -659456.000000 1 0 0
4.876945 14.588476 -4.430901 16.007533 1.248175 1.851260 0.009953 -0.005450 -1047880.000000 1 0 0
3.698345 17.578176 4.710799 18.570451 1.363427 1.314322 0.012018 -0.011229 -988652.000000 1 0 0
7.006245 11.757876 2.168799 13.857807 1.033414 1.413647 0.015006 -0.000696 998475.000000 1 0 0
6.355645 8.710376 11.764399 15.958257 0.940438 0.741882 0.005434 -0.004363 347029.000000 1 0 0
-5.447255 14.906176 1.685299 15.959540 -1.220437 1.465001 -0.002770 0.003239 -138797.000000 1 0 0
6.676745 13.766076 6.135099 16.484029 1.119209 1.189435 0.010938 -0.006900 12285.500000 1 0 0
5.807545 15.848176 4.921299 17.581566 1.219544 1.287093 0.008005 -0.015314 848117.000000 1 0 0
1.179645 17.992976 4.386499 18.557482 1.505329 1.332164 0.012266 -0.004221 -444881.000000 1 0 0
7.447145 17.804376 -7.073401 20.554532 1.174635 1.922107 0.025992 -0.011302 425458.000000 1 0 0
-2.527955 18.758776 -6.168401 19.908074 -1.436842 1.885825 0.023986 0.001502 -1497500.000000 1 0 0
13.620545 10.008576 -4.509301 17.493560 0.633711 1.831509 0.023522 -0.008879 -188086.000000 1 0 0
-1.656555 18.013876 9.998599 20.669202 -1.479094 1.065869 0.020969 -0.009695 -247718.000000 1 0 0
3.407645 11.790376 -1.553601 12.370881 1.289444 1.696714 0.010529 -0.004554 -276374.000000 1 0 0
4.327145 13.978176 -10.897001 18.244403 1.270588 2.210901 0.021591 -0.018845 -262252.000000 1 0 0
11.564645 13.259076 2.601799 17.785204 0.853551 1.423979 0.021980 -0.011857 -200993.000000 1 0 0
15.924945 6.346276 -7.133401 18.567835 0.379223 1.965116 0.025362 -0.000173 186093.000000 1 0 0
2.385345 16.095376 3.022999 16.549608 1.423667 1.387102 0.010618 -0.005789 76599.500000 1 0 0
13.588745 10.670076 3.577999 17.643882 0.665660 1.366590 0.021454 0.002814 -432345.000000 1 0 0
-4.974755 19.440976 -5.663301 20.851205 -1.320282 1.845857 0.011645 -0.011080 -216345.000000 1 0 0
5.414745 11.960876 0.086699 13.129720 1.145695 1.564193 0.012715 -0.003609 1528520.000000 1 0 0
4.670245 15.370676 9.662199 18.746385 1.275819 1.029303 0.013351 -0.010250 -319198.000000 1 0 0
7.730645 9.414676 13.944499 18.516156 0.883305 0.718036 0.013945 -0.011194 -874380.000000 1 0 0
-5.135855 13.709576 7.066299 16.256140 -1.212361 1.121108 0.003678 0.003651 -2261580.000000 1 0 0
-4.612655 17.132976 0.455599 17.748888 -1.307805 1.545124 0.000321 -0.000903 -897550.000000 1 0 0
-0.779755 16.563476 3.602499 16.968641 -1.523754 1.356865 0.006058 -0.000712 -1549410.000000 1 0 0
7.798945 16.770376 -4.710701 19.085590 1.135503 1.820193 0.014543 -0.010376 437851.000000 1 0 0
3.142345 16.534676 -4.559801 17.437363 1.382990 1.835368 0.016003 -0.004544 1171840.000000 1 0 0
9.556945 14.330776 7.936699 18.965693 0.982644 1.139029 0.022517 -0.016039 99751.300000 1 0 0
12.893745 11.054676 9.000199 19.221293 0.708756 1.083497 0.042454 -0.012464 1041730.000000 1 0 0
3.867045 12.298976 12.210899 17.757390 1.266163 0.812547 0.012431 -0.008944 741724.000000 1 0 0
-3.388555 19.103076 6.142499 20.350433 -1.395240 1.264178 0.017176 -0.004244 99999.800000 1 0 0
-2.726355 15.747976 10.316399 19.022614 -1.399371 0.997597 0.020572 -0.011077 -1781900.000000 1 0 0
2.005645 14.303976 7.794199 16.412675 1.431489 1.075958 0.011215 -0.000095 -464266.000000 1 0 0
4.166145 17.242776 7.957199 19.441891 1.333723 1.149130 0.014877 -0.010505 -155287.000000 1 0 0
-2.082955 13.461176 9.275499 16.479589 -1.417276 0.972969 0.017629 -0.004559 -1349700.000000 1 0 0
5.704845 17.698276 3.026899 18.839755 1.258973 1.409431 0.002046 -0.021052 65968.700000 1 0 0
7.395345 15.199276 -6.796201 18.218053 1.117959 1.953088 0.019131 -0.011926 71130.700000 1 0 0
10.952645 7.583176 9.432999 16.323188 0.605580 0.954656 0.007493 -0.005259 5100.050000 1 0 0
8.979045 16.497176 -2.523201 18.951164 1.072357 1.704335 0.019551 -0.009950 -1863920.000000 1 0 0
14.560845 11.209476 -6.633201 19.536374 0.656076 1.917214 0.052107 -0.016541 457127.000000 1 0 0
11.042345 6.214876 16.178199 20.549749 0.512634 0.664428 0.045343 -0.015162 505581.000000 1 0 0
8.549345 8.516576 10.331799 15.886140 0.783478 0.862731 0.006410 -0.001691 779195.000000 1 0 0
16.281245 9.539176 4.419499 19.380577 0.529987 1.340735 0.037698 -0.003146 -257222.000000 1 0 0
-3.592755 14.335276 4.691999 15.505576 -1.325231 1.263376 0.001600 0.005484 -1389900.000000 1 0 0
4.816545 14.657376 12.857699 20.083780 1.253304 0.876034 0.012887 -0.002877 -1062620.000000 1 0 0
16.101145 10.518076 -4.742701 19.808332 0.578657 1.812575 0.050777 -0.015452 -17816.800000 1 0 0
14.608645 14.051876 5.961699 21.128407 0.765974 1.284746 0.050316 -0.015125 -607522.000000 1 0 0
6.272345 9.430776 9.334099 14.676759 0.983884 0.881521 0.006654 -0.000475 762144.000000 1 0 0
10.520845 12.029776 8.575099 18.136593 0.852212 1.078323 0.021708 -0.012390 118447.000000 1 0 0
8.044845 11.493376 -0.240401 14.031216 0.960101 1.587930 0.010353 -0.002615 357260.000000 1 0 0
7.576345 13.352776 -8.650301 17.621729 1.054694 2.083905 0.016970 -0.008350 -1178970.000000 1 0 0
2.660045 15.325276 -2.194301 15.708434 1.398936 1.710944 0.008618 -0.007636 669855.000000 1 0 0
12.200245 13.229176 -7.395601 19.456413 0.825838 1.960713 0.039166 -0.031624 422145.000000 1 0 0
-8.161355 14.653476 9.829999 19.441218 -1.062628 1.040688 0.021204 -0.010364 128151.000000 1 0 0
11.508745 9.690976 2.416799 15.238344 0.699862 1.411524 0.008888 0.003962 -2345880.000000 1 0 0
12.205445 8.609176 4.507099 15.601434 0.614311 1.277729 0.007404 -0.001240 590436.000000 1 0 0
14.024145 7.953176 6.154999 17.257278 0.515881 1.206105 0.014293 -0.008363 -2601810.000000 1 0 0
16.194545 7.395676 7.273899 19.231976 0.428393 1.182925 0.059492 -0.012108 -140840.000000 1 0 0
13.616945 8.362976 2.307399 16.145731 0.550766 1.427395 0.004686 0.003642 -1813820.000000 1 0 0
-4.410055 17.334876 -7.190601 19.278259 -1.321677 1.953026 0.009191 -0.013432 169736.000000 1 0 0
3.312445 19.515676 -3.848601 20.165457 1.402666 1.762826 0.032266 -0.017461 195803.000000 1 0 0
-0.183055 14.897676 6.494999 16.252978 -1.558509 1.159695 0.007434 0.005883 213142.000000 1 0 0
6.613545 16.422276 8.232399 19.524408 1.187949 1.135536 0.020219 -0.002694 809714.000000 1 0 0
12.693945 15.213276 -1.963101 19.910645 0.875429 1.669552 0.023861 -0.014456 -166460.000000 1 0 0
12.559745 15.799276 4.282699 20.632640 0.899138 1.361707 0.028916 -0.015248 -231045.000000 1 0 0
2.969945 18.118576 1.578099 18.428070 1.408324 1.485056 0.021118 -0.014538 -774991.000000 1 0 0
10.190645 14.591876 -1.271001 17.843417 0.961160 1.642088 0.013007 -0.003130 -561634.000000 1 0 0
-6.400155 15.680876 -0.634301 16.948575 -1.183284 1.608230 0.001556 -0.002256 -199321.000000 1 0 0
-3.894555 15.900576 -2.562701 16.569953 -1.330593 1.726079 0.002400 0.000572 -860664.000000 1 0 0
-6.830055 17.078876 1.582099 18.461872 -1.190365 1.484996 0.006048 -0.004150 -849425.000000 1 0 0
-0.035955 19.467376 -6.597301 20.554912 -1.568949 1.897539 0.030442 -0.002868 -112145.000000 1 0 0
4.689945 14.931376 7.071999 17.174247 1.266455 1.146391 0.014714 -0.002331 -930882.000000 1 0 0
8.631645 12.235976 6.890899 16.483595 0.956434 1.139503 0.017062 -0.008481 -413663.000000 1 0 0
-7.457755 17.445776 -5.612601 19.785715 -1.166825 1.858415 0.029675 -0.021003 -9854.380000 1 0 0
-7.977355 17.695176 -1.435201 19.463229 -1.147260 1.644602 0.030649 -0.016826 796241.000000 1 0 0
-13.839755 -9.136324 9.108999 18.920494 0.583478 1.068504 0.031974 -0.013943 358078.000000 1 0 0
-12.599855 -12.935924 7.545699 19.571205 0.798558 1.174991 0.028020 -0.008679 80145.100000 1 0 0
-3.840955 -15.195024 12.349299 19.953618 1.323206 0.903455 0.014406 -0.008573 589291.000000 1 0 0
-2.056955 -14.274624 14.984399 20.797311 1.427683 0.766278 0.030188 0.001414 -189066.000000 1 0 0
-7.123855 -13.676424 12.842299 20.067848 1.090580 0.876371 0.027925 -0.010369 11592.800000 1 0 0
-9.930455 -11.637524 8.940999 17.719689 0.864382 1.041901 0.016077 -0.004608 495287.000000 1 0 0
-10.730355 -10.681724 11.219899 18.844784 0.783127 0.933052 0.029290 -0.012245 187471.000000 1 0 0
-6.024455 -12.241224 10.802999 17.402483 1.113453 0.901067 0.014835 -0.008107 720793.000000 1 0 0
-12.565355 -10.434724 7.108399 17.812943 0.693026 1.160307 0.014591 -0.006486 -514043.000000 1 0 0
-7.812355 -11.262824 12.385999 18.474227 0.964351 0.835985 0.021107 -0.009938 -423567.000000 1 0 0
-14.836555 -11.731524 7.318199 20.280731 0.669055 1.201623 0.041887 -0.007691 -741957.000000 1 0 0
-11.182355 -9.265424 8.951899 17.059591 0.691924 1.018383 0.012761 -0.006921 -496598.000000 1 0 0
-5.426955 -11.659924 13.284799 18.490309 1.135180 0.769191 0.021224 -0.014574 -407737.000000 1 0 0
3.876045 -12.515724 14.722899 19.708648 -1.270470 0.727217 0.004504 -0.001788 -2179110.000000 1 0 0
6.340945 -12.716724 14.435499 20.256018 -1.108245 0.777524 0.008408 0.000661 -1357310.000000 1 0 0
6.462845 -8.655924 16.154199 19.433258 -0.929450 0.589416 0.003954 -0.003187 -1207770.000000 1 0 0
0.599645 -1.896024 14.325699 14.463061 -1.264486 0.137931 0.003086 -0.005455 -1408300.000000 1 0 0
-0.128955 -6.382224 15.549299 16.808632 1.550594 0.389555 0.005630 -0.006646 -101156.000000 1 0 0
-1.393555 -4.605924 18.447099 19.064417 1.276995 0.255174 0.021950 -0.018199 -1187110.000000 1 0 0
-5.219355 12.742376 13.008499 18.942832 -1.182036 0.813823 0.019141 -0.007810 -1097720.000000 1 0 0
-4.145755 8.851176 11.695899 15.242200 -1.132759 0.696119 0.001672 0.001104 -243782.000000 1 0 0
-0.642555 -3.998524 14.994999 15.532259 1.411460 0.263785 0.009254 -0.006827 -122764.000000 1 0 0
-4.555955 9.258476 14.220799 17.570066 -1.113501 0.627707 0.008449 -0.006022 567108.000000 1 0 0
-13.511055 -2.555724 16.779599 21.694130 0.186949 0.686510 0.012361 -0.004544 -1074920.000000 1 0 0
-0.366255 0.907876 17.269599 17.297324 -1.187345 0.056627 0.013609 -0.008602 -1188020.000000 1 0 0
-3.316055 -7.249924 15.446699 17.382696 1.141812 0.476458 0.021669 -0.008784 394449.000000 1 0 0
-7.486655 5.600576 12.548399 15.648603 -0.642268 0.640351 -0.001822 -0.000541 -2918440.000000 1 0 0
-9.945355 9.825376 13.554499 19.472354 -0.779330 0.800860 0.010565 -0.006965 609204.000000 1 0 0
-5.556955 2.196076 11.133499 12.635557 -0.376357 0.492561 -0.001604 0.003740 -3103050.000000 1 0 0
-7.240955 -7.492624 16.887199 19.843093 0.802478 0.552840 0.025988 -0.013012 -150763.000000 1 0 0
-4.846355 3.012276 18.655399 19.508585 -0.556118 0.296838 0.021689 -0.003039 -818782.000000 1 0 0
0.977045 -8.357924 16.628199 18.636161 -1.454424 0.468483 0.007013 -0.003468 524644.000000 1 0 0
-15.041555 -3.755124 13.886899 20.813344 0.244649 0.840338 0.014243 -0.006813 482869.000000 1 0 0
-14.412955 2.154476 12.969599 19.508602 -0.148383 0.843551 0.008160 -0.009499 -136651.000000 1 0 0
-5.548655 0.896876 16.138699 17.089458 -0.160252 0.335135 0.016848 -0.003657 535133.000000 1 0 0
4.468745 5.750276 15.222099 16.874467 0.910153 0.446234 0.001394 -0.001996 -227441.000000 1 0 0
-1.087555 -12.092624 13.753599 18.346002 1.481102 0.723221 0.000696 -0.003971 -98732.500000 1 0 0
-5.925855 -4.054024 16.735399 18.210559 0.599992 0.405274 0.029464 -0.015208 27474.900000 1 0 0
-12.999755 -1.589124 9.783999 16.347648 0.121639 0.929174 0.002928 0.000536 -608420.000000 1 0 0
-14.569055 10.439676 10.290799 20.667481 -0.621757 1.049595 -0.002647 0.005860 242047.000000 1 0 0
-3.585255 -3.452224 17.701399 18.387806 0.766497 0.274095 0.025344 -0.016270 -542186.000000 1 0 0
-8.053955 9.261976 11.842399 17.055580 -0.855049 0.803292 0.001268 -0.006482 -446021.000000 1 0 0
-4.490655 10.720776 16.349199 20.059844 -1.174126 0.618030 0.013750 -0.005452 305306.000000 1 0 0
-12.641555 12.737876 8.192799 19.727756 -0.789193 1.142531 0.001996 -0.008411 -134700.000000 1 0 0
-12.673855 3.018576 10.494999 16.729716 -0.233817 0.892681 0.001069 -0.001685 -29234.900000 1 0 0
-10.255755 -3.454724 13.595199 17.376567 0.324919 0.672307 0.014785 -0.000909 -800431.000000 1 0 0
-4.217855 -6.405924 17.716299 19.305269 0.988517 0.408564 0.036116 -0.015805 -509750.000000 1 0 0
0.839945 -3.537924 17.650299 18.020973 -1.337700 0.203174 0.009458 -0.022557 -605866.000000 1 0 0
-5.973755 1.792676 13.636199 14.994844 -0.291541 0.428975 0.005128 0.002258 -538403.000000 1 0 0
-10.675255 8.695776 10.246899 17.163232 -0.683564 0.931007 -0.000724 -0.004947 -47711.000000 1 0 0
4.428945 2.438676 17.405999 18.125438 0.503321 0.282693 0.005697 -0.010725 -847053.000000 1 0 0
0.504445 -5.380324 13.188299 14.252494 -1.477312 0.388884 0.004567 -0.004145 -823436.000000 1 0 0
-4.018355 5.766076 20.706499 21.866731 -0.962157 0.327216 0.033917 -0.007895 -259087.000000 1 0 0
-10.974755 10.881576 8.990899 17.879883 -0.781135 1.043904 0.002744 -0.005584 -297025.000000 1 0 0
0.620345 4.208276 13.093499 13.767139 1.424440 0.314119 0.002432 0.000031 -2456670.000000 1 0 0
-3.210555 7.115276 13.394799 15.503402 -1.146928 0.527653 0.001195 -0.001480 -1268390.000000 1 0 0
0.573445 8.920876 14.218799 16.795390 1.506603 0.561252 -0.000940 -0.004268 -38825.900000 1 0 0
-4.300155 -6.705724 13.047599 15.287181 1.000585 0.548132 0.017282 -0.006047 193262.000000 1 0 0
-5.144955 8.137476 16.456699 19.065991 -1.006997 0.529333 0.019995 -0.004025 -30015.300000 1 0 0
1.549845 -10.668524 15.694399 19.040314 -1.426533 0.601881 0.002438 -0.001957 -793283.000000 1 0 0
-15.311655 -1.155824 14.154099 20.883516 0.075344 0.826079 0.015537 -0.009833 709189.000000 1 0 0
-13.639055 -5.244324 8.270699 16.790808 0.367080 1.055752 0.019609 -0.007142 -534010.000000 1 0 0
-14.207855 -2.005124 12.019199 18.717500 0.140202 0.873514 0.010937 -0.005016 336095.000000 1 0 0
9.354545 1.250976 16.831599 19.297025 0.132941 0.511037 0.031724 -0.012388 -587637.000000 1 0 0
5.042345 -6.681124 16.452799 18.459611 -0.924284 0.470622 0.015540 -0.023381 731236.000000 1 0 0
-6.151855 -2.743124 10.990099 12.890009 0.419441 0.549844 0.004295 0.001367 461809.000000 1 0 0
0.631745 -6.091424 17.978199 18.992635 -1.467455 0.328312 0.012885 -0.013786 -77573.600000 1 0 0
-8.735655 11.812176 12.289699 19.154004 -0.934019 0.874181 0.015033 -0.008974 -111580.000000 1 0 0
-6.705255 -5.842324 14.829999 17.292254 0.716734 0.540193 0.025359 -0.008184 -614842.000000 1 0 0
-4.232155 -8.886124 17.146399 19.770517 1.126316 0.521102 0.032432 -0.010586 137415.000000 1 0 0
2.495045 -6.186424 16.187199 17.507784 -1.187440 0.390887 0.007239 -0.010323 -263572.000000 1 0 0
2.101045 5.265476 16.066699 17.037560 1.191133 0.339214 -0.000741 -0.007876 -587800.000000 1 0 0
0.905545 -8.857124 14.051199 16.634447 -1.468911 0.564783 -0.002186 -0.002843 -505730.000000 1 0 0
-9.908555 -2.706424 11.185299 15.186017 0.266636 0.742837 -0.001139 0.003207 442041.000000 1 0 0
-1.268155 10.105876 12.508199 16.130468 -1.445962 0.683386 0.004488 -0.004625 25182.000000 1 0 0
-12.353355 -3.673624 11.221399 17.088613 0.289050 0.854416 0.009016 -0.001058 -2113350.000000 1 0 0
-1.769455 6.717176 19.928699 21.104608 -1.313225 0.335390 0.014378 -0.008975 646063.000000 1 0 0
0.350545 -13.428724 15.515999 20.523151 -1.544698 0.713579 -0.001466 -0.005464 -573678.000000 1 0 0
3.967945 -8.735224 15.306899 18.065156 -1.144417 0.559885 0.005951 -0.006529 -844687.000000 1 0 0
4.367645 -4.318924 16.117899 17.248655 -0.779789 0.364102 0.004005 -0.009062 -627146.000000 1 0 0
7.916045 1.654276 14.839299 16.899857 0.206013 0.498977 0.006838 -0.006189 -22548.100000 1 0 0
-6.349055 -0.182124 11.850799 13.445635 0.028677 0.492007 0.003734 0.002095 200053.000000 1 0 0
-3.421655 -10.959124 18.469099 21.746672 1.268167 0.556169 0.047666 -0.006425 50644.500000 1 0 0
3.165945 -1.633624 13.591799 14.050940 -0.476365 0.256345 0.000973 -0.005789 347585.000000 1 0 0
-2.647055 8.819876 15.891699 18.366905 -1.279226 0.525176 0.006584 -0.002260 345585.000000 1 0 0
-3.291755 3.962776 14.766899 15.639711 -0.877633 0.335662 0.006387 -0.002700 -1309330.000000 1 0 0
-4.295755 -8.948724 19.814299 22.161670 1.123243 0.464424 0.035876 -0.015417 -190442.000000 1 0 0
-5.812555 -2.947224 19.108399 20.189176 0.469267 0.328685 0.033274 -0.019946 -802458.000000 1 0 0
-6.663855 -8.810024 11.051799 15.625804 0.923215 0.785155 0.015507 -0.005459 -1261150.000000 1 0 0
-11.698555 2.435976 12.746199 17.471570 -0.205295 0.753148 0.007871 -0.011632 703445.000000 1 0 0
-11.719955 -7.516524 11.470499 18.039618 0.570266 0.881686 0.012527 -0.004015 -889023.000000 1 0 0
-11.075755 -7.285024 15.460299 20.365774 0.581801 0.708819 0.034423 -0.018869 -1068430.000000 1 0 0
0.118445 5.622876 17.746499 18.616363 1.549735 0.306902 0.001746 -0.008077 -42105.900000 1 0 0
-2.413755 -0.232724 13.169099 13.390502 0.096118 0.182099 0.002089 0.002898 479104.000000 1 0 0
-5.976155 -10.393424 18.433199 21.989100 1.048967 0.576661 0.042691 -0.007768 -1040070.000000 1 0 0
0.223445 2.583776 19.292799 19.466328 1.484531 0.133623 0.021668 -0.011176 -388434.000000 1 0 0
-0.761555 10.970576 14.941799 18.552382 -1.501490 0.634473 0.003357 -0.001432 228276.000000 1 0 0
-12.933055 -2.278224 14.237899 19.369357 0.174366 0.745021 0.015481 -0.005688 -1790820.000000 1 0 0
-13.853155 8.331376 11.729099 19.972318 -0.541453 0.943117 0.006790 -0.006866 542609.000000 1 0 0
-18.063955 -0.602824 6.963199 19.368945 0.033359 1.203061 0.041968 -0.017896 462705.000000 1 0 0
-1.953855 -7.698424 17.685099 19.386748 1.322245 0.422111 0.017274 -0.011481 -1643650.000000 1 0 0
5.588045 2.711876 14.696399 15.955082 0.451818 0.399872 0.002801 -0.007525 -2793420.000000 1 0 0
-14.106855 -6.616624 11.000799 19.073559 0.438571 0.956044 0.020055 -0.009176 340582.000000 1 0 0
3.009445 7.719076 16.286899 18.273039 1.199052 0.470575 -0.001354 -0.012584 -185774.000000 1 0 0
0.942945 2.147976 14.661999 14.848473 1.157134 0.158650 0.003544 -0.004838 -3943850.000000 1 0 0
-14.298855 0.651876 9.693199 17.286998 -0.045558 0.975539 0.009803 -0.004149 -1994500.000000 1 0 0
-9.633555 -5.201824 15.501299 18.977740 0.495109 0.614928 0.023971 -0.003034 -119568.000000 1 0 0
-2.575555 -0.167924 18.057399 18.240925 0.065107 0.141973 0.021722 -0.012439 173408.000000 1 0 0
6.787245 3.551776 17.756699 19.338618 0.482115 0.407287 0.022065 -0.006783 -421376.000000 1 0 0
-4.318355 -0.832024 14.765099 15.406122 0.190339 0.289483 0.014730 0.000675 533762.000000 1 0 0
4.442545 -8.785824 17.846799 20.382226 -1.102640 0.504107 0.017050 -0.005431 -135104.000000 1 0 0
1.796745 6.799376 13.552899 15.268951 1.312450 0.478663 0.000944 -0.002343 -1369910.000000 1 0 0
-3.822755 -0.794724 20.294699 20.666878 0.204973 0.190067 0.031945 -0.017151 65057.700000 1 0 0
-10.656855 1.553676 16.191399 19.445922 -0.144771 0.586944 0.019214 -0.013045 8140.730000 1 0 0
-3.907255 6.983576 18.376699 20.043454 -1.060695 0.410697 0.018533 -0.004604 -315196.000000 1 0 0
-12.753055 0.927476 14.596399 19.405038 -0.072598 0.719407 0.017553 -0.011093 1006720.000000 1 0 0
-16.111555 -4.634524 8.275699 18.696209 0.280090 1.112255 0.030777 -0.011779 -2111370.000000 1 0 0
-2.353455 0.705476 15.665299 15.856798 -0.291238 0.155571 0.012407 -0.003795 325269.000000 1 0 0
-13.780055 -8.991524 12.110999 20.430705 0.578133 0.936285 0.020658 -0.016303 675862.000000 1 0 0
6.104245 -3.116024 14.503699 16.041468 -0.471987 0.441439 0.007621 -0.008387 617713.000000 1 0 0
-15.596255 0.359276 7.458499 17.291659 -0.023032 1.124824 0.014757 -0.010016 -150362.000000 1 0 0
-14.009855 5.792376 12.459199 19.622928 -0.392047 0.882878 0.011868 -0.011483 -277312.000000 1 0 0
0.387945 9.479276 16.803299 19.296581 1.529894 0.513986 -0.005166 -0.008242 -593165.000000 1 0 0
-10.406455 -5.402324 10.810299 15.948103 0.478836 0.825972 0.011179 -0.002823 -118890.000000 1 0 0
-3.201855 -11.185224 15.140699 19.094551 1.291994 0.655189 0.023924 -0.001909 -634571.000000 1 0 0
-3.457455 2.672576 12.547099 13.286322 -0.658053 0.335147 -0.000565 0.006186 -966513.000000 1 0 0
-12.529555 -7.821524 7.292899 16.472776 0.558057 1.112162 0.018822 -0.006943 680926.000000 1 0 0
-8.201755 -1.862324 13.257799 15.700518 0.223278 0.565319 0.007150 0.000644 -64724.000000 1 0 0
-9.794755 6.442276 9.592799 15.148001 -0.581788 0.885023 -0.005824 -0.000347 -947682.000000 1 0 0
-18.085455 -3.512524 6.491999 19.533755 0.191830 1.232005 0.043286 -0.017544 633285.000000 1 0 0
-1.352655 0.122876 20.471499 20.516507 -0.090592 0.066250 0.027576 -0.015207 -591192.000000 1 0 0
-2.797855 2.605676 20.263899 20.621424 -0.749848 0.186483 0.026742 -0.007290 -624312.000000 1 0 0
-3.894255 11.312076 11.223799 16.404327 -1.239247 0.817294 0.008311 -0.006985 -541638.000000 1 0 0
-4.242855 -4.834724 14.856899 16.189621 0.850507 0.408594 0.021196 -0.010587 535528.000000 1 0 0
-0.219355 -14.460824 13.198999 19.580018 1.555629 0.831043 0.010675 -0.004574 456136.000000 1 0 0
-12.012955 0.381976 8.361599 14.641494 -0.031786 0.962964 -0.002213 0.000043 -390868.000000 1 0 0
-7.795755 2.093176 15.431199 17.414852 -0.262315 0.481947 0.010750 -0.001792 -556334.000000 1 0 0
3.445745 -2.217624 18.440799 18.890582 -0.571851 0.218655 0.013988 -0.011258 -283644.000000 1 0 0
-2.146055 4.924976 12.542099 13.644236 -1.159856 0.404693 -0.002110 0.003897 -433591.000000 1 0 0
-10.416555 -6.287224 13.298599 18.024609 0.543048 0.740988 0.009823 -0.003287 -147985.000000 1 0 0
2.348745 -3.847024 14.305699 14.998974 -1.022666 0.305228 -0.001035 -0.005973 -522916.000000 1 0 0
6.671445 0.984576 17.198399 18.473291 0.146523 0.373688 0.005814 -0.003388 367606.000000 1 0 0
-1.992855 -5.812624 13.839899 15.142684 1.240506 0.417844 0.011757 -0.005085 -434713.000000 1 0 0
-12.931455 3.505576 14.716299 19.901785 -0.264727 0.738549 0.003729 -0.005740 183703.000000 1 0 0
-13.404855 -6.771724 13.463899 20.169853 0.467775 0.839915 0.016301 -0.004831 -99520.400000 1 0 0
-9.571055 6.899876 11.937799 16.784649 -0.624623 0.779545 0.000991 -0.000645 -726638.000000 1 0 0
-1.288055 -2.582124 12.763799 13.085909 1.108081 0.222336 0.004202 0.000847 497191.000000 1 0 0
-0.086455 6.698276 15.391799 16.786359 -1.557890 0.410496 0.001639 -0.006546 689465.000000 1 0 0
-16.456355 -0.807924 9.660399 19.099416 0.049056 1.040492 0.030231 -0.007969 -26004.700000 1 0 0
-1.343555 2.729776 13.775399 14.107389 -1.113420 0.217375 -0.000051 0.000802 -2408660.000000 1 0 0
-11.326855 -3.439224 16.020499 19.919395 0.294788 0.636356 0.023198 -0.011945 -1042620.000000 1 0 0
-5.168655 -1.528024 17.129399 17.957343 0.287445 0.304844 0.023713 -0.006452 268023.000000 1 0 0
-11.992355 6.606676 11.065999 17.604576 -0.503540 0.891062 0.000893 -0.001208 -778549.000000 1 0 0
-2.768155 4.645176 18.686799 19.453452 -1.033382 0.281678 0.013168 -0.006072 125043.000000 1 0 0
5.010945 -1.774324 16.414599 17.253894 -0.340314 0.313188 0.003488 -0.008408 -1960070.000000 1 0 0
-8.094455 -4.133424 12.154299 15.176705 0.472130 0.642079 0.012362 -0.001318 -2169460.000000 1 0 0
-11.749755 -0.844024 16.168299 20.004575 0.071710 0.629656 0.031190 -0.010420 430196.000000 1 0 0
1.937045 2.127676 17.358599 17.595457 0.832263 0.164266 0.003743 -0.014067 -3159460.000000 1 0 0
-9.060855 -7.581124 11.496799 16.484809 0.696716 0.799008 0.013947 -0.003531 746980.000000 1 0 0
-7.386955 6.777076 14.946599 17.997130 -0.742366 0.590793 0.006703 -0.000736 -181372.000000 1 0 0
-5.674055 3.412976 15.799499 17.130892 -0.541526 0.396855 0.010143 0.000371 518180.000000 1 0 0
-9.390155 4.234576 11.556199 15.480710 -0.423651 0.728025 -0.003576 -0.004174 49380.800000 1 0 0
-10.387155 -0.102724 14.141799 17.546909 0.009889 0.633531 0.010097 -0.003711 -693656.000000 1 0 0
8.008445 -0.739124 15.758299 17.691961 -0.092032 0.471905 0.012875 -0.011718 -58436.300000 1 0 0
-8.620455 -7.525624 14.603099 18.552567 0.717694 0.664670 0.028441 -0.007909 -563577.000000 1 0 0
-0.178155 4.128576 15.628499 16.165607 -1.527671 0.258500 0.002604 -0.007192 -307465.000000 1 0 0
-8.125655 3.058076 9.621499 12.959604 -0.359952 0.734117 -0.005929 0.001735 -625338.000000 1 0 0
-2.254455 -9.813324 13.163099 16.572600 1.344980 0.652993 0.007122 -0.002875 562117.000000 1 0 0
-6.175355 10.330676 10.676499 16.088677 -1.032019 0.845171 0.009610 -0.004655 -1353430.000000 1 0 0
-8.757155 -2.810224 15.639699 18.143465 0.310525 0.531591 0.021382 -0.013914 867672.000000 1 0 0
4.108445 5.744876 17.723499 19.078924 0.949975 0.379211 0.008745 -0.008041 468306.000000 1 0 0
-6.967355 -1.013624 15.337199 16.876052 0.144468 0.430363 0.015366 -0.000374 454996.000000 1 0 0
-0.932455 -10.017124 15.415999 18.408293 1.477978 0.578198 0.002180 -0.003880 422319.000000 1 0 0
-4.317055 5.666176 16.204999 17.701540 -0.919723 0.414154 0.010112 -0.005747 522715.000000 1 0 0
3.562145 0.108676 17.436999 17.797461 0.030499 0.201605 0.007060 -0.011009 -1281520.000000 1 0 0
1.326645 0.263476 19.170599 19.218253 0.196052 0.070437 0.016516 -0.012716 -918488.000000 1 0 0
-6.359755 6.155376 17.816099 19.893429 -0.769069 0.461070 0.021826 -0.004299 -271445.000000 1 0 0
-12.104855 0.475776 11.006199 16.367355 -0.039284 0.833285 0.005581 -0.003166 -231532.000000 1 0 0
-5.475255 5.098476 13.916999 15.800498 -0.749780 0.493258 0.003698 -0.000253 -651340.000000 1 0 0
-8.816055 -9.512424 9.924499 16.331097 0.823374 0.917628 0.015364 -0.003468 -1434250.000000 1 0 0
6.771245 -3.497124 17.035099 18.662107 -0.476734 0.420665 0.007469 -0.012237 -730395.000000 1 0 0
-16.628255 1.748676 9.370799 19.166862 -0.104778 1.059961 0.024909 -0.012791 473469.000000 1 0 0
-4.217855 -9.646024 11.396299 15.514887 1.158584 0.745808 0.009915 -0.007159 829173.000000 1 0 0
-11.110255 -3.786624 9.122199 14.865759 0.328475 0.910136 0.005550 0.000314 -462796.000000 1 0 0
3.772045 -5.447124 18.459199 19.612279 -0.965133 0.344613 0.014263 -0.013169 -41135.600000 1 0 0
2.433445 -1.764624 16.098599 16.376826 -0.627410 0.184594 0.004838 -0.007625 -289559.000000 1 0 0
-3.143455 -4.194724 20.271899 20.938646 0.927690 0.253035 0.032155 -0.019853 -768917.000000 1 0 0
-6.441355 -3.332624 14.359599 16.087123 0.477454 0.467685 0.018898 -0.002302 -45617.700000 1 0 0
-9.740555 5.125176 13.863799 17.701717 -0.484363 0.671017 0.011896 -0.007739 -37332.300000 1 0 0
-5.982955 -5.302424 11.722699 14.189190 0.725169 0.598519 0.010853 0.001107 -339897.000000 1 0 0
5.951745 1.758176 19.452299 20.418285 0.287236 0.308829 0.023650 -0.014399 242839.000000 1 0 0
-2.828855 11.992576 13.554399 18.317916 -1.339147 0.737796 0.012471 -0.009672 -261905.000000 1 0 0
3.281645 1.451876 15.278599 15.694353 0.416535 0.230688 -0.000003 -0.005688 -1430270.000000 1 0 0
-5.797955 7.399976 12.981999 16.028357 -0.906191 0.626747 -0.001656 -0.003313 -594847.000000 1 0 0
-1.908455 -1.842424 15.254399 15.483327 0.767796 0.172175 0.012020 -0.002954 -129622.000000 1 0 0
-7.442755 10.502376 14.091899 19.086019 -0.954273 0.740196 0.027998 -0.010959 591679.000000 1 0 0
-10.156055 1.970076 10.686599 14.873804 -0.191601 0.769175 -0.003757 -0.000384 -737173.000000 1 0 0
-13.711355 5.074476 9.021199 17.179453 -0.354462 1.017945 0.000696 -0.002693 -338447.000000 1 0 0
0.779645 -4.650224 20.034299 20.581680 -1.404684 0.231146 0.031236 -0.025154 -10329.200000 1 0 0
-14.465955 -2.862024 7.449699 16.521291 0.195323 1.103006 0.015661 -0.003833 844560.000000 1 0 0
-2.483255 2.405676 17.647599 17.983092 -0.769531 0.193465 0.013006 -0.007272 151231.000000 1 0 0
-6.245555 -8.456924 14.724099 18.092142 0.934687 0.620067 0.019359 -0.003084 -734096.000000 1 0 0
-7.977855 1.932476 12.017499 14.553382 -0.237653 0.599260 -0.001711 0.001182 -1052460.000000 1 0 0
-14.661555 -3.581124 10.028999 18.120885 0.239562 0.984296 0.016455 -0.004534 746562.000000 1 0 0
-0.684755 7.081176 12.812699 14.655279 -1.474395 0.506862 0.003927 -0.003644 -516575.000000 1 0 0
-1.869055 -2.189524 19.369399 19.582160 0.864195 0.147545 0.023195 -0.015299 -103705.000000 1 0 0
-12.833655 10.227576 7.358799 17.984937 -0.672869 1.149258 -0.008271 -0.009299 -1007020.000000 1 0 0
-19.485755 2.019676 6.727799 20.713209 -0.103280 1.239988 0.048197 -0.015073 808149.000000 1 0 0
-16.220755 8.460376 6.566999 19.437498 -0.480760 1.226163 0.008446 0.000423 290804.000000 1 0 0
-12.284155 7.389176 13.556399 19.730087 -0.541537 0.813316 0.006638 -0.005416 17704.400000 1 0 0
-16.100255 8.247176 10.417899 20.875027 -0.473391 1.048282 0.015036 -0.004004 243232.000000 1 0 0
1.883745 10.863976 15.112999 18.707678 1.399110 0.630301 -0.000980 -0.016921 108610.000000 1 0 0
2.215445 14.201376 12.893299 19.308662 1.416042 0.839618 0.002193 -0.011427 -798043.000000 1 0 0
-3.095955 13.698476 11.702499 18.280637 -1.348523 0.876092 0.005667 -0.013534 194225.000000 1 0 0
8.905145 4.722576 15.835399 18.771366 0.487608 0.566856 0.024276 -0.004769 -87652.000000 1 0 0
-0.341155 12.585176 13.051799 18.134291 -1.543695 0.767383 0.003653 -0.004764 193367.000000 1 0 0
3.762945 13.112676 14.683299 20.042487 1.291336 0.748650 0.005125 -0.011050 146007.000000 1 0 0
-2.817355 -4.140624 -13.669801 14.558356 0.973334 2.790409 -0.000529 -0.005123 -224890.000000 1 0 0
5.459945 -11.529324 16.454899 20.820663 -1.128515 0.659472 0.004663 -0.001641 28382.800000 1 0 0
7.757645 -13.482024 7.329599 17.195029 -1.048657 1.130439 0.000375 -0.011170 -266029.000000 1 0 0
-0.136155 15.603576 1.431399 15.669685 -1.562071 1.479321 0.005150 -0.002675 -2103240.000000 1 0 0
-13.862355 8.116976 9.101299 18.463040 -0.529720 1.055323 -0.004192 0.001013 265636.000000 1 0 0
-15.546055 -9.821624 4.925399 19.036903 0.563457 1.309090 0.032055 -0.009737 -154648.000000 1 0 0
9.582345 -11.052524 11.039699 18.326335 -0.856525 0.924298 0.021493 -0.013636 -20938.400000 1 0 0
-5.768155 -10.498124 -16.733601 20.579009 1.068378 2.520322 0.026788 -0.011816 84674.900000 1 0 0
-1.649955 -12.677324 -14.636401 19.433505 1.441374 2.423638 0.004599 -0.004247 -128567.000000 1 0 0
5.555345 -15.982324 -11.773001 20.613105 -1.236267 2.178692 0.019635 -0.003002 259176.000000 1 0 0
2.752145 -12.314624 -16.333601 20.640029 -1.350924 2.483819 0.014121 0.004377 265473.000000 1 0 0
0.470345 -13.996924 -14.289901 20.008408 -1.537206 2.366269 0.004028 0.008254 226487.000000 1 0 0
-6.684155 -5.935024 -14.837801 17.322320 0.726103 2.599384 0.019486 -0.001169 7917.280000 1 0 0
-5.778655 -8.321624 -17.047301 19.830601 0.963829 2.605373 -0.002123 -0.010989 -46697.900000 1 0 0
-2.039355 -16.414524 -13.053901 21.071305 1.447189 2.238916 0.007070 -0.000970 252165.000000 1 0 0
16.189745 -8.123024 -8.941101 20.199867 -0.465038 2.029328 0.046469 -0.008249 -97094.600000 1 0 0
19.019545 -2.880824 -3.556701 19.562524 -0.150324 1.753625 0.046020 -0.014066 91163.100000 1 0 0
15.891945 -11.130524 -8.880901 21.338061 -0.610986 2.000058 0.052832 -0.015606 239904.000000 1 0 0
18.575945 -3.010024 -6.524601 19.917238 -0.160643 1.904543 0.150937 -0.005500 -291119.000000 1 0 0
9.097145 -10.036324 -15.915501 20.899498 -0.834444 2.436460 0.046955 0.010068 194940.000000 1 0 0
-4.772355 9.337776 -16.318501 19.397498 -1.098324 2.570421 0.006632 -0.008384 537150.000000 1 0 0
2.743145 -9.638124 -18.371201 20.926522 -1.293514 2.642236 0.022595 -0.001024 318063.000000 1 0 0
11.037345 7.765976 -14.628501 19.902925 0.613144 2.396452 0.039502 -0.049464 285814.000000 1 0 0
18.526045 -6.122924 -8.880001 21.437326 -0.319202 1.997894 0.053466 -0.009853 -120273.000000 1 0 0
12.153345 5.073776 -13.907901 19.154026 0.395484 2.383442 0.007134 -0.010344 152601.000000 1 0 0
15.969445 6.216276 -10.651701 20.177314 0.371214 2.126928 0.034829 -0.026133 262390.000000 1 0 0
3.550345 -0.518024 -19.470501 19.798326 -0.144886 2.959361 0.031229 0.004864 177168.000000 1 0 0
10.296645 -1.731624 -14.809501 18.120175 -0.166615 2.527495 0.021414 -0.007216 71320.800000 1 0 0
12.262545 -5.639824 -13.864101 19.349184 -0.431075 2.369599 0.044092 -0.010937 254770.000000 1 0 0
10.147945 6.607276 -12.795001 17.616723 0.577145 2.383718 0.016687 -0.010562 397557.000000 1 0 0
10.865245 5.037176 -16.365601 20.279536 0.434110 2.509852 0.041716 -0.016576 506966.000000 1 0 0
12.072745 -10.060424 -14.940501 21.683677 -0.694729 2.330933 0.067799 -0.014601 340173.000000 1 0 0
-1.397255 2.088076 -17.422001 17.602230 -0.981070 2.998369 0.006708 -0.002495 280673.000000 1 0 0
6.707645 -1.325524 -17.427101 18.720400 -0.195100 2.767706 0.017542 0.014290 2336.110000 1 0 0
6.972945 -6.064824 -15.593801 18.126519 -0.715857 2.606606 0.001841 -0.003023 240183.000000 1 0 0
-2.008755 -4.740124 -20.337601 20.979082 1.169962 2.893664 0.035574 -0.027656 216865.000000 1 0 0
16.406345 -0.243524 -13.057401 20.969577 -0.014842 2.242963 0.061492 -0.019011 -93349.900000 1 0 0
-4.092955 -0.408124 -18.373901 18.828677 0.099385 2.921360 0.013009 -0.007672 117175.000000 1 0 0
4.553445 8.988176 -17.867801 20.512910 1.101880 2.628135 0.031563 -0.010545 57710.700000 1 0 0
9.742945 -0.270124 -17.612501 20.129534 -0.027718 2.636146 0.037377 0.000257 -462327.000000 1 0 0
4.236545 4.476676 -18.334001 19.342299 0.812951 2.817283 0.024364 -0.004785 340469.000000 1 0 0
-2.476655 -11.218424 -17.910201 21.278209 1.353515 2.571249 0.034447 -0.021588 236707.000000 1 0 0
6.086445 -9.542524 -16.232301 19.788688 -1.003029 2.532700 0.011579 0.005675 155130.000000 1 0 0
10.190945 -12.448624 -10.629101 19.282152 -0.884792 2.154647 0.029999 0.003143 153316.000000 1 0 0
6.314845 6.942276 -16.658201 19.119836 0.832691 2.628544 0.017178 -0.021757 328126.000000 1 0 0
9.519145 1.970976 -20.213601 22.429635 0.204169 2.693328 0.076109 -0.009461 72918.400000 1 0 0
-1.163355 -0.755224 -20.171101 20.218731 0.575797 3.072939 0.029083 -0.008762 210379.000000 1 0 0
-0.428855 6.770776 -19.815701 20.944912 -1.507542 2.811729 0.031077 0.003254 107940.000000 1 0 0
8.869545 5.683876 -18.110301 20.951331 0.569902 2.614749 0.036829 -0.020836 130531.000000 1 0 0
12.109545 -0.095324 -13.033401 17.791001 -0.007872 2.392907 0.012001 -0.005296 -8587.100000 1 0 0
-4.300655 -2.636924 -19.860101 20.490794 0.550029 2.892842 0.010114 -0.007535 418686.000000 1 0 0
5.531245 -11.498724 -14.381401 19.226024 -1.122439 2.415866 -0.002194 0.003103 68361.200000 1 0 0
11.109645 1.828976 -15.915701 19.495612 0.163166 2.525900 0.023928 -0.009533 -147202.000000 1 0 0
-2.658055 -4.467024 -17.127701 17.899098 1.034032 2.846940 0.000404 -0.007215 105000.000000 1 0 0
-6.966455 -5.213824 -17.827701 19.837903 0.642488 2.687521 0.025179 0.000478 59493.200000 1 0 0
3.160045 10.447476 -15.398001 18.874164 1.277075 2.524949 0.014081 -0.007775 369797.000000 1 0 0
16.941645 -6.016924 -11.085201 21.121183 -0.341261 2.123321 0.065600 -0.011080 -98244.400000 1 0 0
9.567245 -3.657624 -17.768001 20.508833 -0.365161 2.618660 0.017043 -0.013836 -64813.500000 1 0 0
-7.304455 -1.926524 -18.703401 20.171360 0.257874 2.757732 0.011469 0.001271 562575.000000 1 0 0
1.382745 -7.518824 -19.408501 20.859880 -1.388924 2.766360 0.024133 -0.014580 160195.000000 1 0 0
6.011845 10.108876 -14.148301 18.398535 1.034276 2.448057 0.025473 -0.015472 500141.000000 1 0 0
6.172645 -4.200824 -17.666801 19.179789 -0.597556 2.741733 0.021985 -0.019036 354230.000000 1 0 0
5.105745 13.247676 -14.393101 20.217095 1.202933 2.363035 0.032341 -0.022284 -10291.700000 1 0 0
9.386645 11.280476 -15.268901 21.177762 0.876778 2.376023 0.044215 -0.024667 -5749.060000 1 0 0
17.046445 1.085976 -11.157601 20.402272 0.063621 2.149430 0.054318 -0.013515 32941.200000 1 0 0
14.548945 -2.960124 -12.670601 19.518664 -0.200720 2.277267 0.057328 -0.005825 -7282.440000 1 0 0
-8.549155 0.367776 -17.341601 19.337902 -0.042993 2.683206 0.018619 -0.009307 424595.000000 1 0 0
-3.234955 4.510776 -18.939601 19.736275 -0.948645 2.856495 0.019275 0.005020 111403.000000 1 0 0
4.795445 2.518376 -17.453201 18.274374 0.483573 2.840673 0.019838 0.011256 414005.000000 1 0 0
-5.156255 14.301476 -13.733001 20.486935 -1.224763 2.305449 0.012475 -0.019176 149367.000000 1 0 0
1.209145 9.160176 -17.698001 19.964722 1.439555 2.660444 0.031076 -0.012774 455549.000000 1 0 0
1.405445 -5.344324 -19.933001 20.684816 -1.313640 2.871154 0.031110 -0.000645 523220.000000 1 0 0
3.672745 -6.343324 -18.042001 19.474101 -1.045966 2.755696 0.015995 -0.018645 -187323.000000 1 0 0
-7.043855 7.491876 -15.887801 18.925283 -0.816210 2.567161 0.004497 0.000197 83297.000000 1 0 0
-11.938355 2.895176 -16.379001 20.473838 -0.237917 2.498086 0.065571 -0.033560 189186.000000 1 0 0
-4.167755 6.710676 -17.055301 18.795921 -1.015033 2.707837 0.002954 -0.001033 269735.000000 1 0 0
-7.928855 5.106776 -18.083701 20.395248 -0.572199 2.660873 0.012310 0.005714 342621.000000 1 0 0
-8.142855 4.056876 -15.312801 17.811407 -0.462217 2.605515 -0.008834 -0.007585 322205.000000 1 0 0
9.689645 13.525876 -12.663001 20.909092 0.949163 2.221343 0.050136 -0.027254 359383.000000 1 0 0
13.892945 9.879876 -12.034801 20.867734 0.618166 2.185502 0.050447 -0.016503 183918.000000 1 0 0
8.692145 15.380476 -9.957101 20.279455 1.056403 2.084027 0.020592 -0.017491 114193.000000 1 0 0
7.936045 14.300176 -14.204501 21.662034 1.064152 2.285949 0.050593 -0.019629 170591.000000 1 0 0
4.202645 15.689776 -13.106201 20.871124 1.309081 2.249724 0.050789 -0.018132 176910.000000 1 0 0
11.481145 10.762276 -10.717101 19.039420 0.753091 2.168675 0.050891 -0.041337 -186722.000000 1 0 0
15.947745 10.318576 -9.139901 21.079406 0.574280 2.019274 0.063444 -0.041139 339540.000000 1 0 0
13.721345 11.425076 -9.575801 20.260889 0.694335 2.063063 0.088105 -0.019035 -132524.000000 1 0 0
10.365545 11.183076 -7.500201 16.992902 0.823319 2.027924 0.010361 -0.014511 -169392.000000 1 0 0
5.809445 16.983876 -10.197901 20.644585 1.241216 2.087451 0.064932 -0.012524 84598.000000 1 0 0
11.860045 13.370076 -9.966501 20.463400 0.845177 2.079494 0.066803 -0.040789 128995.000000 1 0 0
8.351345 -19.421624 -1.730401 21.211759 -1.164696 1.652465 0.040546 -0.001811 159784.000000 1 0 0
7.712045 -17.982324 -3.893601 19.949931 -1.165654 1.767226 0.027740 0.023947 203836.000000 1 0 0
3.887345 -18.843324 5.167099 19.921878 -1.367352 1.308429 0.055981 -0.015385 -216500.000000 1 0 0
10.461145 -17.757924 -2.170101 20.724110 -1.038432 1.675702 0.037972 -0.003797 530294.000000 1 0 0
-3.365355 -14.855324 7.768099 17.098234 1.348015 1.099186 0.024421 -0.025348 214729.000000 1 0 0
-15.272555 -12.796024 -4.533101 20.433751 0.697395 1.794501 0.046052 -0.008068 167176.000000 1 0 0
-9.100455 -12.793924 -7.272901 17.303117 0.952520 2.004598 0.030285 -0.011264 19459.500000 1 0 0
-11.536455 -15.283524 6.856499 20.339309 0.924211 1.226955 0.032512 -0.003636 282646.000000 1 0 0
-14.771855 -6.955624 -7.324801 17.895282 0.440073 1.992499 0.054488 -0.033424 -207928.000000 1 0 0
5.014945 -15.243624 6.355499 17.260072 -1.252963 1.193703 0.033286 -0.014212 238791.000000 1 0 0
2.784145 -14.196724 9.071699 17.076128 -1.377142 1.010721 0.019159 -0.000682 450859.000000 1 0 0
3.338745 -17.397024 10.192299 20.437383 -1.381187 1.048688 0.044439 -0.007547 203303.000000 1 0 0
-7.387155 -17.243724 -5.530601 19.557700 1.166052 1.857491 -0.018089 -0.018697 -90862.300000 1 0 0
1.956845 -19.769324 -4.005901 20.265800 -1.472134 1.769775 0.037453 -0.013987 133252.000000 1 0 0
-17.335155 -10.907224 -2.237301 20.602928 0.561612 1.679602 -0.021328 -0.007867 -173782.000000 1 0 0
-4.227255 -14.924424 2.838899 15.769193 1.294782 1.389781 0.005103 0.001024 199161.000000 1 0 0
-10.970355 -9.809124 -14.568301 20.707559 0.729573 2.351143 0.058871 -0.015419 186313.000000 1 0 0
1.364345 -20.378124 2.483499 20.574186 -1.503945 1.449792 0.039934 -0.009406 252867.000000 1 0 0
5.607145 -18.716124 0.927499 19.560000 -1.279717 1.523360 0.018286 0.003415 162460.000000 1 0 0
-7.471755 -19.046424 -3.758401 20.801898 1.196953 1.752470 0.011034 -0.025473 45521.700000 1 0 0
-9.727655 -15.237524 -7.478401 19.563637 1.002618 1.963037 0.063118 -0.027699 -135666.000000 1 0 0
-11.833855 -11.380124 -12.286101 20.505990 0.765855 2.213232 0.055750 -0.004016 258711.000000 1 0 0
-12.954755 -14.962824 -3.083501 20.030471 0.857203 1.725351 0.043246 -0.023950 112722.000000 1 0 0
-0.353455 -20.569924 -2.639101 20.741542 1.553615 1.698380 0.039463 -0.014903 391968.000000 1 0 0
-12.074755 -16.811924 -1.124701 20.729338 0.947943 1.625079 0.060112 -0.006588 196270.000000 1 0 0
1.143845 -20.259524 5.032499 20.906523 -1.514397 1.327695 0.038847 -0.010502 100440.000000 1 0 0
-18.094055 -8.789224 2.407499 20.259352 0.452184 1.451681 0.047521 -0.007793 -23880.600000 1 0 0
-15.222755 -14.839724 -0.904401 21.278337 0.772658 1.613313 0.076301 -0.004590 -33583.200000 1 0 0
9.859345 -15.886424 -4.796701 19.302681 -1.015357 1.821927 0.021781 0.010088 -32507.600000 1 0 0
0.231045 -18.928424 -7.129801 20.228017 -1.558591 1.931007 0.033934 -0.010638 180534.000000 1 0 0
-9.957655 -18.119624 -2.872901 20.874128 1.068298 1.708864 0.035784 0.023299 548189.000000 1 0 0
-14.716555 -6.666824 -11.379701 19.761608 0.425359 2.184439 0.055625 -0.022969 78804.600000 1 0 0
-11.898555 -15.568024 2.084899 19.704969 0.918209 1.464792 0.043031 -0.000215 125262.000000 1 0 0
-2.419955 -16.363524 10.145199 19.404797 1.423973 1.020642 0.011806 -0.008525 319083.000000 1 0 0
-12.544555 -14.402124 -6.674301 20.231988 0.854224 1.906982 0.061677 -0.014467 172804.000000 1 0 0
5.899045 -17.018524 -6.942601 19.303590 -1.237131 1.938693 0.027074 -0.008824 -74651.800000 1 0 0
-17.447755 -7.474624 -3.173501 19.244877 0.404747 1.736454 0.009491 -0.007214 -91573.900000 1 0 0
-11.862055 -13.864024 -9.280001 20.470416 0.863060 2.041302 0.061696 -0.022797 61535.600000 1 0 0
-7.918355 -13.716324 9.987199 18.723836 1.047240 1.008187 0.031016 -0.005904 437706.000000 1 0 0
-16.006255 -8.654524 -5.833201 19.108303 0.495672 1.881019 0.054263 0.000642 370527.000000 1 0 0
-0.613055 -19.542224 -0.159801 19.552490 1.539436 1.578969 0.018080 -0.015471 58468.400000 1 0 0
-14.951055 -11.408824 -1.954901 18.908119 0.651819 1.674371 0.028534 -0.004252 78963.900000 1 0 0
-6.992055 -18.960124 1.223299 20.245286 1.217493 1.510336 0.013028 -0.005524 196098.000000 1 0 0
-1.267555 -21.310524 -4.807401 21.882784 1.511386 1.792292 0.019819 -0.007387 180814.000000 1 0 0
-8.732255 -19.854624 -1.283301 21.727983 1.156449 1.629893 0.022147 -0.000638 254553.000000 1 0 0
-17.970655 -7.247624 5.061999 20.027390 0.383351 1.315271 0.056375 -0.011256 216788.000000 1 0 0
-2.918955 -15.946924 -10.923801 19.548762 1.389759 2.163732 0.002580 0.010511 119771.000000 1 0 0
-2.967155 -18.391824 -7.778401 20.188282 1.410844 1.966322 0.007653 0.001771 170599.000000 1 0 0
3.964245 -17.649624 -6.193201 19.120151 -1.349855 1.900655 0.004821 0.027707 359195.000000 1 0 0
0.690345 -17.356724 -9.881001 19.984159 -1.531043 2.087989 0.009206 0.005848 -48175.500000 1 0 0
-7.466255 -10.521624 -14.054901 19.078516 0.953649 2.398955 0.011950 -0.035558 138826.000000 1 0 0
-4.894055 -19.603724 -1.829901 20.288083 1.326148 1.661115 0.012105 -0.015966 344437.000000 1 0 0
-8.757355 -15.813224 8.445299 19.951752 1.065041 1.133727 -0.005373 -0.009732 171439.000000 1 0 0
-7.050755 -15.572624 -10.133401 19.872231 1.145645 2.105897 0.020494 -0.005131 236996.000000 1 0 0
-12.631255 -8.057024 -12.391201 19.442379 0.567796 2.261824 0.049484 -0.016884 257380.000000 1 0 0
-15.770155 -12.995324 3.320299 20.702672 0.689232 1.409720 0.056988 -0.004806 170398.000000 1 0 0
-6.044055 -14.422024 -13.088201 20.391821 1.173946 2.267686 0.000679 -0.005441 383920.000000 1 0 0
-13.717555 -11.179124 -6.896101 18.992113 0.683791 1.942393 0.043268 -0.026811 120420.000000 1 0 0
-11.805955 -10.780824 -8.106701 17.925550 0.740043 2.040075 0.047954 -0.010884 145246.000000 1 0 0
-9.387255 -14.681324 2.804499 17.650129 1.001908 1.411226 0.003690 -0.007747 316225.000000 1 0 0
5.224745 -17.879424 8.354199 20.414808 -1.286491 1.149195 0.067338 -0.023355 239143.000000 1 0 0
-4.801455 -16.787424 5.017499 18.167192 1.292219 1.290974 0.002076 0.008177 378374.000000 1 0 0
-18.327455 -7.370124 -6.718701 20.865169 0.382346 1.898643 0.046115 -0.025015 120204.000000 1 0 0
-17.034755 -4.340724 -11.045201 20.761051 0.249506 2.131775 0.057072 -0.016000 -422971.000000 1 0 0
-15.624255 -4.013624 -13.139801 20.805790 0.251447 2.254341 0.046634 -0.022843 292292.000000 1 0 0
-19.358755 -4.624724 -6.004501 20.789505 0.234501 1.863794 0.049671 -0.013245 273050.000000 1 0 0
5.622145 -13.657524 8.970399 17.280177 -1.180286 1.024981 0.033836 -0.001405 343336.000000 1 0 0
19.829645 -2.662824 2.645899 20.181829 -0.133486 1.439315 0.048067 -0.015508 -171861.000000 1 0 0
17.992645 -2.587124 -0.150601 18.178315 -0.142809 1.579081 0.029414 -0.010674 303652.000000 1 0 0
14.287345 -11.574524 0.407799 18.391958 -0.680884 1.548622 0.057941 -0.002469 80164.900000 1 0 0
10.883145 -13.722124 5.388999 18.324323 -0.900271 1.272293 0.009162 -0.005243 465316.000000 1 0 0
9.935045 -13.179724 9.394499 18.991231 -0.924859 1.053335 0.021793 -0.004778 313378.000000 1 0 0
17.752445 5.200976 -4.697301 19.085704 0.284997 1.819467 0.008411 0.011102 -93246.300000 1 0 0
18.979145 -6.250724 -4.605101 20.505766 -0.318159 1.797304 0.064224 -0.016853 -13664.600000 1 0 0
17.745345 -10.102624 -0.263701 20.421307 -0.517548 1.583710 0.072084 -0.010705 372080.000000 1 0 0
17.586845 -8.634524 8.615999 21.402980 -0.456393 1.156484 0.095642 -0.023329 -96333.700000 1 0 0
19.970245 0.431476 -1.553301 20.035209 0.021603 1.648403 0.060753 -0.010775 34372.400000 1 0 0
7.720945 -12.791224 11.565899 18.894401 -1.027725 0.912040 0.025431 -0.013571 371158.000000 1 0 0
16.086345 -6.626024 -3.236601 17.696052 -0.390726 1.754731 0.048461 -0.013176 393549.000000 1 0 0
14.404045 -7.261424 11.240399 19.660909 -0.466941 0.962204 0.056433 -0.043139 476106.000000 1 0 0
17.155245 1.496376 9.264699 19.554442 0.087005 1.077207 0.121507 -0.041796 454854.000000 1 0 0
16.471945 -10.032624 2.508899 19.449243 -0.547064 1.441439 0.033400 -0.012317 324585.000000 1 0 0
16.218445 -7.146824 -5.893401 18.677452 -0.415060 1.891817 0.055216 -0.010968 343123.000000 1 0 0
17.720045 -4.325124 5.894199 19.168940 -0.239400 1.258245 0.053934 -0.015903 13035.900000 1 0 0
13.135345 -13.229824 8.064499 20.312598 -0.788982 1.162529 0.029763 -0.021044 378245.000000 1 0 0
15.098845 -14.345724 -1.823201 20.906912 -0.759826 1.658113 0.053995 -0.000987 80276.300000 1 0 0
18.650645 -6.461224 8.081899 21.328644 -0.333495 1.182165 0.079586 -0.016219 201808.000000 1 0 0
19.566045 3.778476 2.592999 20.095538 0.190766 1.441402 0.049783 -0.010311 35814.300000 1 0 0
15.398545 -10.151624 8.488299 20.303247 -0.582856 1.139470 0.059063 -0.034159 128038.000000 1 0 0
14.232245 -4.082924 10.692699 18.263649 -0.279376 0.945345 0.050610 -0.016817 -83322.300000 1 0 0
18.649745 -7.578824 1.608899 20.195051 -0.385992 1.491044 0.079250 -0.023338 118737.000000 1 0 0
18.786845 -5.206124 -1.570201 19.557985 -0.270332 1.651167 0.049679 -0.017868 151175.000000 1 0 0
14.591445 -13.644524 -6.190801 20.914332 -0.751875 1.871307 0.046319 -0.002915 384960.000000 1 0 0
13.816545 -9.729824 10.068099 19.670612 -0.613550 1.033477 0.028460 -0.020538 336633.000000 1 0 0
14.276045 2.243276 0.601899 14.463749 0.155861 1.529170 -0.001379 0.000237 -134294.000000 1 0 0
12.832045 2.456376 13.716899 18.943296 0.189137 0.761063 0.036207 -0.014656 60768.400000 1 0 0
18.405045 -3.470324 9.053699 20.802843 -0.186365 1.120520 0.070790 -0.016696 127943.000000 1 0 0
7.354645 -17.747924 4.437999 19.717389 -1.177943 1.343771 0.047911 -0.031341 494250.000000 1 0 0
12.217745 -3.212224 14.930399 19.557824 -0.257096 0.702239 0.042747 -0.000762 245768.000000 1 0 0
11.562445 -13.251324 -7.293001 19.038791 -0.853356 1.963903 0.029109 -0.006108 118670.000000 1 0 0
10.857645 -17.872224 4.980399 21.496725 -1.024869 1.336990 0.039072 -0.007248 591356.000000 1 0 0
18.437545 -0.352024 -4.953901 19.094714 -0.019090 1.833237 0.055846 -0.004494 89334.200000 1 0 0
4.157545 -13.315724 11.653599 18.176910 -1.268159 0.874838 0.006775 -0.009713 -65286.800000 1 0 0
8.898645 -2.400224 13.966999 16.733918 -0.263459 0.583296 0.002769 -0.011936 291340.000000 1 0 0
8.802545 -9.153324 14.126299 18.995274 -0.804931 0.732247 0.023339 -0.009644 472764.000000 1 0 0
21.000945 5.362676 -2.959001 21.875869 0.250011 1.706475 0.066369 0.001628 471995.000000 1 0 0
14.759745 -13.524124 2.038699 20.122333 -0.741740 1.469307 0.046208 -0.004586 208360.000000 1 0 0
10.481545 0.195276 14.344799 17.767222 0.018628 0.631108 0.017942 -0.025165 68396.000000 1 0 0
20.046045 -0.329324 7.663599 21.463530 -0.016427 1.205686 0.137932 -0.020785 103575.000000 1 0 0
19.827045 0.921476 0.762999 19.863106 0.046442 1.532374 0.049491 -0.010987 -516.187000 1 0 0
18.102745 0.761176 3.408299 18.436520 0.042023 1.384860 0.034918 -0.007583 -42290.000000 1 0 0
10.355045 -8.632824 16.336699 21.181131 -0.694945 0.689938 0.055032 0.000320 199451.000000 1 0 0
19.104645 2.824776 6.234599 20.293768 0.146795 1.258529 0.051854 -0.005205 27559.300000 1 0 0
14.565745 2.580476 7.143399 16.427048 0.175341 1.120918 0.019887 -0.013270 -48638.600000 1 0 0
11.317445 -16.045524 2.020699 19.738962 -0.956500 1.468246 0.015375 0.002678 303241.000000 1 0 0
9.511145 -15.968124 6.869799 19.815070 -1.033594 1.216750 0.047324 -0.011711 271322.000000 1 0 0
6.077445 6.607876 7.326699 11.587920 0.827188 0.886316 0.004273 0.002397 -1412940.000000 1 0 0
18.317745 2.908676 -6.336301 19.599716 0.157475 1.899996 0.019769 0.003531 188460.000000 1 0 0
14.085045 4.361376 -7.214201 16.415078 0.300283 2.025823 0.020087 -0.003813 397834.000000 1 0 0
-10.551855 -3.991524 -13.762701 17.795670 0.361641 2.454942 0.018341 -0.010575 -563513.000000 1 0 0
7.731645 -14.245124 -10.230101 19.166555 -1.073531 2.133822 0.015672 0.003710 -14040.400000 1 0 0
2.294845 -15.321924 14.292099 21.078229 -1.422126 0.825690 0.022280 -0.006179 195871.000000 1 0 0
-9.486755 -7.777724 1.924899 12.417598 0.686728 1.415155 0.007019 0.002693 316351.000000 1 0 0
-13.788255 3.067076 -9.978101 17.294087 -0.218878 2.185806 0.021938 -0.005482 418465.000000 1 0 0
-12.911255 -5.084924 -13.239801 19.179398 0.375182 2.332719 0.036698 -0.008051 13218.700000 1 0 0
-17.979255 -1.158924 -8.981901 20.131351 0.064370 2.033272 0.061247 -0.026684 481276.000000 1 0 0
-12.031155 15.574276 3.526699 19.993609 -0.913049 1.393477 0.006096 -0.003889 305356.000000 1 0 0
-17.451255 6.133976 9.333799 20.719358 -0.338003 1.103486 0.027314 -0.017698 108763.000000 1 0 0
-13.809955 15.505876 -0.309701 20.766391 -0.843184 1.585710 0.030502 -0.017177 235569.000000 1 0 0
-16.171255 5.706476 -10.658601 20.191066 -0.339236 2.126907 0.052317 -0.009961 -68751.500000 1 0 0
-17.775255 2.866476 -0.046801 18.004960 -0.159886 1.573396 0.010944 -0.001102 45248.700000 1 0 0
-9.922655 15.740376 -0.034101 18.606980 -1.008327 1.572629 0.016317 -0.010876 64636.000000 1 0 0
-18.217755 12.310576 2.349899 22.112416 -0.594262 1.464325 0.074747 -0.012606 81176.300000 1 0 0
-8.602655 16.279276 -7.919001 20.043231 -1.084655 1.976969 0.062274 -0.033634 96193.000000 1 0 0
-14.841055 -1.839524 -13.437101 20.104638 0.123319 2.302796 0.037004 -0.020053 90209.800000 1 0 0
-19.029155 4.863676 -5.075401 20.286049 -0.250234 1.823675 0.055631 -0.008512 -128545.000000 1 0 0
-16.690055 9.681576 -5.783801 20.143069 -0.525644 1.862032 0.049234 0.002701 42982.100000 1 0 0
-19.024055 1.294976 2.487999 19.229711 -0.067966 1.441050 0.034663 -0.009226 248586.000000 1 0 0
-13.115155 11.698976 -7.065601 18.941913 -0.728389 1.953052 0.032355 -0.022580 -98766.700000 1 0 0
-13.171255 5.709576 -13.127401 19.452761 -0.409038 2.311537 0.049428 -0.019857 -221618.000000 1 0 0
-13.979355 9.549576 -6.676601 18.198730 -0.599307 1.946440 0.022611 -0.008193 295786.000000 1 0 0
-6.297055 11.430576 -15.357001 20.153125 -1.067266 2.437217 -0.005335 -0.028065 279426.000000 1 0 0
-15.182955 13.981776 3.260799 20.896053 -0.744235 1.414107 0.025904 -0.008001 114006.000000 1 0 0
-18.803555 8.375276 -4.765801 21.128933 -0.419030 1.798312 0.073953 -0.014975 183918.000000 1 0 0
-4.831155 16.387076 -10.964001 20.299893 -1.284103 2.141354 0.006887 -0.001746 55989.000000 1 0 0
-19.362255 -2.168724 -6.654801 20.588508 0.111543 1.899936 0.036098 -0.010423 -192530.000000 1 0 0
-10.499555 13.503576 -6.327401 18.237962 -0.909902 1.925098 0.027661 -0.031113 140077.000000 1 0 0
-19.349055 2.877576 4.301099 20.029125 -0.147637 1.354368 0.041972 -0.008371 -183040.000000 1 0 0
-14.986255 12.287376 0.650899 19.390491 -0.686764 1.537222 0.001727 -0.007108 119186.000000 1 0 0
-16.975555 2.274276 -8.545501 19.140726 -0.133181 2.033598 -0.000173 -0.014995 136185.000000 1 0 0
-16.333355 14.170376 -4.212201 22.029995 -0.714608 1.763184 0.028356 0.026963 130281.000000 1 0 0
-11.003555 15.771576 -8.422301 20.994190 -0.961627 1.983593 0.063354 -0.029379 166677.000000 1 0 0
-19.363855 2.042876 -6.774501 20.616161 -0.105111 1.905619 0.060662 -0.019335 12554.300000 1 0 0
-17.163655 10.373076 -0.653301 20.065358 -0.543621 1.603361 0.025434 -0.005472 -27898.400000 1 0 0
-11.492855 6.354076 -14.750701 19.749511 -0.505045 2.414168 0.028885 -0.020139 318809.000000 1 0 0
-13.641555 12.623376 -5.234601 19.309135 -0.746652 1.845326 0.042646 -0.017134 429818.000000 1 0 0
-18.801055 7.595976 0.047999 20.277595 -0.383966 1.568429 0.035487 -0.006812 88529.400000 1 0 0
-14.420455 8.961776 -10.350801 19.884719 -0.556052 2.118280 0.031331 -0.011107 539701.000000 1 0 0
-18.519355 11.389576 4.956699 22.299279 -0.551383 1.346643 0.046492 -0.019898 168110.000000 1 0 0
-8.029355 12.140576 -13.524801 19.869182 -0.986473 2.319504 -0.014598 -0.006555 512018.000000 1 0 0
-20.981655 -1.531124 -5.161501 21.661378 0.072845 1.811392 0.051659 -0.016988 247516.000000 1 0 0
-10.666255 13.287776 -3.458001 17.386540 -0.894404 1.771021 0.018091 -0.006574 530149.000000 1 0 0
-18.766055 -4.835024 3.499399 19.692336 0.252163 1.392144 0.049887 -0.012648 -85445.500000 1 0 0
-11.499155 11.623676 -12.951701 20.858739 -0.790783 2.240718 0.034096 -0.009920 273824.000000 1 0 0
-14.792955 11.387976 -10.296001 21.319596 -0.656068 2.074801 0.059245 -0.024197 313033.000000 1 0 0
-12.552655 9.531576 -14.117001 21.159155 -0.649444 2.301215 0.050922 -0.019553 411851.000000 1 0 0
-18.242855 -5.083124 -3.139101 19.196194 0.271744 1.735061 0.013534 -0.005868 -293611.000000 1 0 0
-9.328755 12.450676 -11.513001 19.354437 -0.927771 2.207876 0.023947 -0.019513 47606.100000 1 0 0
-15.346355 7.776676 -8.340201 19.119264 -0.469028 2.022190 0.015631 -0.002185 67733.900000 1 0 0
-14.658055 8.923776 1.759299 17.250725 -0.546863 1.468635 0.003519 0.001602 -22844.500000 1 0 0
-19.766455 6.321476 7.619199 22.107148 -0.309529 1.218932 0.058531 -0.017006 318058.000000 1 0 0
-18.291955 5.706876 3.173699 19.422575 -0.302419 1.406658 -0.009406 -0.007042 176468.000000 1 0 0
-14.059855 12.845176 5.440799 19.806069 -0.740282 1.292515 -0.003546 -0.013548 159649.000000 1 0 0
18.030345 6.193076 5.786199 19.923042 0.330855 1.276123 0.041584 -0.011532 -4115.660000 1 0 0
18.537445 8.147176 0.490299 20.254721 0.414087 1.546587 0.042474 0.009678 -61249.800000 1 0 0
16.477545 4.292576 8.578999 19.066591 0.254846 1.104088 0.041717 -0.017507 -155224.000000 1 0 0
12.199245 13.130076 10.679499 20.863177 0.822131 1.033421 0.048399 -0.013867 92806.400000 1 0 0
15.279745 12.588876 4.246399 20.248020 0.689141 1.359509 0.040312 -0.007357 155270.000000 1 0 0
4.899745 10.076876 14.459799 18.293078 1.118220 0.659250 0.010233 -0.015556 291152.000000 1 0 0
12.455045 14.668976 -4.398101 19.739562 0.866840 1.795489 0.017386 0.028126 268977.000000 1 0 0
16.876445 9.433476 -2.514701 19.496886 0.509706 1.700136 -0.024491 -0.005067 -133039.000000 1 0 0
14.523745 7.414576 9.676299 18.961695 0.472023 1.035254 0.044797 -0.010176 10639.200000 1 0 0
4.697145 18.994276 -1.617301 19.633170 1.328367 1.653266 0.023204 -0.022895 368645.000000 1 0 0
-4.634155 19.721376 3.775899 20.607414 -1.340002 1.386525 0.006147 0.012409 314311.000000 1 0 0
6.762945 13.008476 12.764099 19.439138 1.091366 0.854470 0.019431 0.002890 -306309.000000 1 0 0
0.188645 17.248376 -10.143801 20.010966 1.559860 2.102395 0.030930 0.002302 -33449.300000 1 0 0
10.711945 9.264076 15.652599 21.108593 0.713044 0.735452 0.042427 -0.014653 -75790.100000 1 0 0
-1.183955 12.132576 1.199899 12.249119 -1.473520 1.472681 0.001712 0.002551 485685.000000 1 0 0
-4.922755 19.115676 -2.137501 19.854760 -1.318748 1.678662 0.013812 -0.003264 -25552.900000 1 0 0
5.962245 18.068076 6.419899 20.080310 1.252060 1.245372 0.024882 -0.029264 224799.000000 1 0 0
11.342945 17.497776 -1.475201 20.904803 0.995652 1.641423 0.026433 -0.011821 494089.000000 1 0 0
18.342245 10.690076 3.396999 21.500123 0.527685 1.412132 0.038290 -0.004953 266919.000000 1 0 0
11.709945 16.847276 6.345599 21.476037 0.963390 1.270845 0.042865 -0.005846 19151.500000 1 0 0
17.686945 8.503076 -5.052201 20.264626 0.448133 1.822765 0.013042 0.026194 228429.000000 1 0 0
-0.391455 15.272776 11.543299 19.148334 -1.545171 0.923746 0.008798 0.003679 369181.000000 1 0 0
1.059745 20.124476 -1.987801 20.250159 1.518185 1.669117 0.021982 -0.017509 309524.000000 1 0 0
14.258445 9.698976 -1.195601 17.285915 0.597332 1.640018 0.019788 -0.003334 -154047.000000 1 0 0
10.115045 17.438376 2.006499 20.259248 1.045179 1.471593 0.037325 -0.023576 299181.000000 1 0 0
0.066045 17.637776 -0.503501 17.645085 1.567052 1.599335 0.007161 -0.007647 100139.000000 1 0 0
0.001045 21.004076 0.808799 21.019643 1.570747 1.532309 0.016103 -0.011047 368969.000000 1 0 0
6.062745 17.307876 -0.249601 18.340713 1.233865 1.584406 0.016528 -0.024906 -41356.500000 1 0 0
7.620845 18.764176 -2.311701 20.384198 1.185010 1.684447 0.027377 -0.018397 10821.300000 1 0 0
10.159145 9.405976 12.630699 18.740735 0.746922 0.831226 0.021865 -0.013381 10828.100000 1 0 0
12.303945 14.371076 8.245199 20.637301 0.862737 1.159793 0.035545 -0.020059 241650.000000 1 0 0
0.411045 17.608576 7.069599 18.979203 1.547457 1.189104 0.005681 0.000731 277224.000000 1 0 0
7.024745 17.831676 -7.923901 20.738947 1.195518 1.962840 0.026371 -0.014789 -50752.200000 1 0 0
-1.106355 18.454276 9.361599 20.722545 -1.510917 1.102060 0.032836 -0.017399 255112.000000 1 0 0
15.978645 6.708176 -8.010101 19.091318 0.397476 2.003765 0.047911 -0.001380 -202664.000000 1 0 0
-5.268255 19.906976 -6.437401 21.575040 -1.312084 1.873783 0.012070 -0.006254 234896.000000 1 0 0
3.947245 15.880776 10.007899 19.181706 1.327178 1.021905 0.011696 -0.007151 207717.000000 1 0 0
8.856145 14.916176 7.674799 18.969084 1.035002 1.154260 0.018836 -0.008079 122939.000000 1 0 0
-2.611255 19.296276 6.653399 20.577479 -1.436289 1.241546 0.015790 -0.004751 291296.000000 1 0 0
4.521645 17.978776 8.441399 20.370049 1.324407 1.143510 0.014356 -0.014340 196314.000000 1 0 0
14.376445 12.029476 -6.190301 19.741081 0.696751 1.889751 0.010755 -0.013997 44365.200000 1 0 0
11.621645 6.893076 15.851199 20.828769 0.535348 0.705906 0.044585 -0.012299 179350.000000 1 0 0
16.827945 9.028376 5.004899 19.741842 0.492428 1.314482 0.053351 -0.006426 120025.000000 1 0 0
5.173345 14.703976 11.978499 19.658455 1.232489 0.915580 0.005740 -0.029171 273648.000000 1 0 0
15.984345 11.391076 -4.386701 20.112161 0.619159 1.790676 0.051592 0.011447 138729.000000 1 0 0
15.404845 14.009276 6.478199 21.806791 0.737988 1.269171 0.063241 -0.001641 410736.000000 1 0 0
12.582745 14.098576 -7.377101 20.285880 0.842150 1.942987 0.064819 -0.029261 296860.000000 1 0 0
-8.859355 15.297176 9.801599 20.212944 -1.045849 1.064528 0.037102 -0.009075 152639.000000 1 0 0
-3.727355 17.382776 -7.849501 19.433702 -1.359567 1.986585 -0.004937 0.022105 97118.300000 1 0 0
2.730245 19.320676 -4.573501 20.041449 1.430414 1.801027 0.031334 -0.027395 75758.100000 1 0 0
6.966945 16.516076 9.109199 20.107128 1.171615 1.100631 0.021207 -0.012905 544799.000000 1 0 0
13.523145 15.224276 -1.499701 20.418206 0.844504 1.644312 0.053490 -0.025481 152528.000000 1 0 0
12.856545 16.664776 4.538299 21.531411 0.913689 1.358428 0.045102 -0.026657 334244.000000 1 0 0
2.723945 18.486476 0.737399 18.700627 1.424501 1.531354 0.025027 -0.015720 92519.400000 1 0 0
-7.682955 17.175976 1.175099 18.852661 -1.150183 1.508425 0.014227 -0.008701 46191.800000 1 0 0
0.322045 19.982676 -5.884001 20.833448 1.554682 1.857123 0.033468 -0.000294 176055.000000 1 0 0
-7.140655 17.965876 -6.341601 20.346439 -1.192484 1.887758 0.037099 -0.023623 -31385.800000 1 0 0
-7.362555 18.390676 -1.233501 19.848066 -1.189995 1.632984 0.026270 -0.016958 176820.000000 1 0 0
-14.604655 -9.305424 8.571599 19.322504 0.567292 1.111177 0.034982 -0.015885 236358.000000 1 0 0
-13.204655 -13.587824 7.879799 20.520310 0.799699 1.176672 0.033883 -0.007727 129322.000000 1 0 0
-3.605355 -16.113824 12.401499 20.650692 1.350679 0.926624 0.025507 -0.006136 94478.000000 1 0 0
-2.377855 -15.088324 14.613699 21.139345 1.414486 0.807505 0.034784 -0.018256 418720.000000 1 0 0
-8.069155 -13.605624 12.905099 20.414844 1.035484 0.886481 0.034104 -0.014582 187599.000000 1 0 0
-10.181555 -11.302424 11.684699 19.181789 0.837523 0.915801 0.037635 -0.004099 -114984.000000 1 0 0
-7.755255 -10.723524 13.165999 18.667658 0.944669 0.787973 0.027831 0.002035 485843.000000 1 0 0
-15.346655 -12.463524 6.992099 20.970186 0.682095 1.230856 0.051415 -0.017811 206981.000000 1 0 0
-4.716855 -12.286224 13.362899 18.755455 1.204233 0.777769 0.030345 -0.014590 252870.000000 1 0 0
3.405745 -12.236424 13.946099 18.863267 -1.299338 0.738728 0.001684 -0.003242 500251.000000 1 0 0
6.228845 -13.605624 14.751199 21.012124 -1.141463 0.792548 0.001642 -0.001757 340041.000000 1 0 0
6.894045 -9.230824 16.775499 20.350757 -0.929314 0.601800 0.029291 -0.005602 614450.000000 1 0 0
-5.246355 13.388776 13.704199 19.864255 -1.197338 0.809456 0.015177 -0.006060 449900.000000 1 0 0
-13.904055 -1.797124 17.194999 22.186041 0.128539 0.684023 0.029084 -0.022298 312623.000000 1 0 0
-9.966155 8.912876 13.818099 19.227675 -0.729665 0.768928 -0.003878 -0.005127 364782.000000 1 0 0
-7.822255 -8.180124 17.190299 20.581751 0.807758 0.582263 0.030828 -0.008035 210157.000000 1 0 0
-5.142655 2.109976 18.632699 19.444186 -0.389345 0.289923 0.025777 0.005081 444034.000000 1 0 0
-15.866955 -3.627524 14.339599 21.692010 0.224759 0.848573 0.031917 -0.012223 102604.000000 1 0 0
-14.718855 3.023776 12.738899 19.699428 -0.202617 0.867594 0.017933 0.001685 299595.000000 1 0 0
-13.767255 10.746376 10.697599 20.480736 -0.662784 1.021221 -0.058571 0.049639 54482.100000 1 0 0
-4.892655 11.282676 15.697099 19.940807 -1.161628 0.664566 0.031863 -0.008504 188281.000000 1 0 0
-13.473155 12.808076 7.738899 20.136119 -0.760097 1.176315 0.009769 -0.026998 195011.000000 1 0 0
-3.783855 -6.187424 18.532599 19.901231 1.021935 0.373026 0.035379 -0.019050 343108.000000 1 0 0
0.361545 -2.720124 17.719599 17.930811 -1.438656 0.153639 0.009221 -0.023610 167195.000000 1 0 0
-4.176055 6.594376 21.144199 22.538908 -1.006268 0.353635 0.036882 -0.003734 167681.000000 1 0 0
2.162045 -10.560624 16.412799 19.636221 -1.368860 0.581130 0.010500 -0.008486 306737.000000 1 0 0
-14.992755 -0.285024 13.947899 20.479449 0.019008 0.821576 -0.002991 -0.007357 -8218.200000 1 0 0
-14.030755 -5.865024 7.667599 17.030933 0.395937 1.103789 0.021119 -0.006116 105350.000000 1 0 0
10.009845 0.585776 16.656499 19.441684 0.058453 0.541878 0.032871 0.003415 472441.000000 1 0 0
-7.965655 12.220276 11.911399 18.832638 -0.993129 0.886036 0.024369 -0.012764 156075.000000 1 0 0
-1.403455 7.450176 19.447899 20.873322 -1.384600 0.371701 0.012746 -0.030894 452866.000000 1 0 0
0.408045 -14.246824 15.995499 21.424156 -1.542163 0.727844 -0.008262 0.021166 527136.000000 1 0 0
-3.733055 -11.620424 17.862399 21.634122 1.259960 0.599428 0.046527 -0.007538 438742.000000 1 0 0
-2.231855 9.092876 16.701399 19.146757 -1.330104 0.510944 0.005668 -0.009428 445876.000000 1 0 0
-5.044955 -8.915224 20.397499 22.825222 1.055842 0.465408 0.072042 -0.030367 242095.000000 1 0 0
-6.754455 -2.842524 19.042799 20.404186 0.398339 0.367359 0.032350 -0.022610 -59942.200000 1 0 0
-10.855855 -7.837424 16.201199 21.017936 0.625308 0.690658 0.051638 -0.014449 219874.000000 1 0 0
0.167745 6.543776 17.974699 19.129531 1.545168 0.349246 -0.000524 -0.004314 123139.000000 1 0 0
-5.920755 -11.252824 18.834199 22.724622 1.086443 0.593834 0.050542 -0.010836 438438.000000 1 0 0
0.572445 3.465176 19.229299 19.547406 1.407076 0.180654 0.017400 0.001363 -8006.200000 1 0 0
-18.334455 -0.366824 7.842699 19.944792 0.020005 1.166665 0.029557 -0.016332 -71096.100000 1 0 0
-1.596455 -8.567124 17.826799 19.842859 1.386563 0.454687 0.016518 -0.002275 375366.000000 1 0 0
5.885745 3.483476 15.163799 16.634825 0.534405 0.423711 0.003674 -0.007098 475422.000000 1 0 0
-14.314955 -7.099624 10.209599 18.962028 0.460409 1.002231 0.045446 0.001299 103227.000000 1 0 0
3.692145 8.341676 16.507899 18.860706 1.154101 0.504837 0.001396 -0.016047 40643.900000 1 0 0
6.229945 4.319576 17.708499 19.262967 0.606254 0.404491 0.026947 -0.023206 320646.000000 1 0 0
4.219345 -9.705224 17.933399 20.823089 -1.160697 0.533118 -0.003807 -0.004042 411847.000000 1 0 0
-4.590755 -0.614324 19.765599 20.301018 0.133027 0.230177 0.030739 -0.015388 791432.000000 1 0 0
-11.242655 1.787376 16.901799 20.377998 -0.157662 0.592738 0.040526 -0.014857 350595.000000 1 0 0
-16.802155 -4.100024 8.649599 19.337481 0.239340 1.107055 0.031203 -0.015536 303034.000000 1 0 0
-13.045255 -9.593524 12.094399 20.211108 0.634094 0.929289 0.018011 -0.018463 123358.000000 1 0 0
-14.714355 6.123676 13.003699 20.569586 -0.394368 0.886432 0.019248 -0.013656 226299.000000 1 0 0
1.202745 9.056476 17.047799 19.341505 1.438764 0.491957 -0.003170 -0.020801 -25255.000000 1 0 0
-3.958955 -10.614324 15.081899 18.862685 1.213796 0.644230 0.027155 -0.002332 696435.000000 1 0 0
-18.337755 -4.089824 7.202999 20.121708 0.219436 1.204702 0.083485 -0.005894 -187984.000000 1 0 0
-0.914955 -0.477524 21.063499 21.088768 0.481021 0.048959 0.030950 -0.017689 303096.000000 1 0 0
-1.859555 2.737276 20.332299 20.599830 -0.974068 0.161340 0.018626 -0.012722 -358337.000000 1 0 0
-8.113355 1.694776 16.233099 18.226692 -0.205926 0.472084 0.012528 0.001992 452107.000000 1 0 0
2.786045 -1.836924 19.008599 19.299305 -0.582906 0.173787 0.014456 -0.007244 67141.900000 1 0 0
-12.162655 4.055376 14.620299 19.445550 -0.321836 0.719920 -0.011692 -0.003112 239615.000000 1 0 0
-13.314655 -5.826624 13.430699 19.789221 0.412503 0.824822 0.008141 -0.002011 49159.200000 1 0 0
-17.358155 -0.583124 9.857199 19.970227 0.033581 1.054578 0.039806 -0.015570 72675.300000 1 0 0
-7.442855 7.724076 14.997699 18.438775 -0.803938 0.620860 0.011002 -0.001148 -11708.200000 1 0 0
-9.968055 0.621376 13.691699 16.947296 -0.062256 0.630219 0.024194 -0.010455 202068.000000 1 0 0
7.360745 -0.896824 15.081399 16.805756 -0.121241 0.456967 0.008297 -0.009608 99258.900000 1 0 0
3.797145 6.239576 18.472399 19.864041 1.024108 0.376542 0.010218 -0.007333 -4205.720000 1 0 0
1.616645 0.581076 20.017699 20.091278 0.345054 0.085609 0.020635 -0.010215 144877.000000 1 0 0
-7.109355 6.618476 17.460899 19.980745 -0.749655 0.507656 0.025212 -0.009795 508080.000000 1 0 0
7.552445 -3.026824 16.768199 18.637961 -0.381173 0.451761 0.015441 -0.003047 431114.000000 1 0 0
-16.185455 2.560676 9.153599 18.770040 -0.156908 1.061377 0.014344 -0.009130 200850.000000 1 0 0
3.981445 -6.234524 18.947699 20.340513 -1.002468 0.372212 0.023084 -0.021050 145801.000000 1 0 0
-3.791355 -3.695824 20.755499 21.420183 0.772639 0.249770 0.030914 -0.015997 324478.000000 1 0 0
-10.136655 5.867176 14.305299 18.488297 -0.524691 0.686059 0.019459 -0.006139 117671.000000 1 0 0
6.691845 2.127476 19.919699 21.121111 0.307816 0.338909 0.037285 -0.009712 47009.500000 1 0 0
-7.741255 11.020476 14.830099 20.032717 -0.958433 0.737289 0.037534 -0.012514 198425.000000 1 0 0
-14.607255 4.890276 9.277699 17.982280 -0.323056 1.028697 0.007112 -0.003829 340834.000000 1 0 0
1.331845 -5.394924 20.242199 20.991084 -1.328766 0.267920 0.034671 -0.025439 338439.000000 1 0 0
-6.406155 -8.657624 13.809599 17.512804 0.933762 0.662360 0.024506 0.001897 339580.000000 1 0 0
-12.912055 10.079576 6.423699 17.594969 -0.662820 1.197070 -0.020241 -0.012405 184198.000000 1 0 0
-19.496155 2.159376 7.667399 21.060674 -0.110309 1.198170 0.031492 -0.015142 -42438.900000 1 0 0
-15.542055 8.992176 6.168199 18.985821 -0.524514 1.239907 -0.012149 -0.005231 140990.000000 1 0 0
-12.852455 7.781476 14.208799 20.679143 -0.544415 0.813296 0.014137 -0.007345 207230.000000 1 0 0
-16.653255 9.012776 10.520999 21.662236 -0.496063 1.063651 0.025461 -0.013944 198544.000000 1 0 0
1.902745 11.185976 14.219399 18.191696 1.402308 0.673502 -0.012927 -0.046087 344111.000000 1 0 0
1.802045 14.452076 13.711099 20.002602 1.446746 0.815553 0.001660 -0.017316 512630.000000 1 0 0
8.370145 5.141476 16.499399 19.202194 0.550842 0.537003 0.012765 -0.010390 123529.000000 1 0 0
-0.075055 13.262176 13.662899 19.041160 -1.565137 0.770524 0.005253 0.005358 56276.200000 1 0 0
4.568045 12.691276 14.960399 20.143214 1.225298 0.733700 0.025830 -0.004333 20495.200000 1 0 0
-3.620355 -4.617024 -13.494401 14.714712 0.905806 2.731462 0.001155 -0.008754 75293.000000 1 0 0
6.137045 -12.079124 16.831499 21.607126 -1.100713 0.677760 0.008235 0.004284 235182.000000 1 0 0
8.679145 -13.639524 7.160899 17.681703 -1.004096 1.153829 0.009319 -0.015498 294302.000000 1 0 0
-0.366155 15.384376 0.536099 15.398068 -1.547000 1.535973 0.002376 -0.001005 -292656.000000 1 0 0
-14.336355 7.466976 8.595899 18.307821 -0.480182 1.082049 0.000259 0.001880 65638.500000 1 0 0
-16.447155 -9.581924 4.743599 19.616929 0.527519 1.326564 0.057682 -0.010811 403072.000000 1 0 0
9.183245 -10.258324 11.374899 17.859270 -0.840640 0.880302 0.018082 -0.008342 85452.000000 1 0 0
-25.470295 6.144776 30.868512 40.489002 -0.236729 0.703794 0.081612 -0.018593 30737.900000 0 0 1
-24.512455 5.096676 30.821642 39.709069 -0.205001 0.682202 0.073296 -0.017079 -201928.000000 0 0 1
-23.538655 5.186676 31.821372 39.919539 -0.216881 0.648256 0.066231 -0.007983 451826.000000 0 0 1
-22.281755 4.307776 31.428342 38.765632 -0.190976 0.625404 0.063422 -0.015637 285695.000000 0 0 1
-22.486355 2.891476 31.363682 38.699837 -0.127886 0.625903 0.061787 -0.025896 110333.000000 0 0 1
-21.331755 2.206976 30.900462 37.613203 -0.103093 0.606703 0.044964 -0.021295 169559.000000 0 0 1
-20.772955 1.187476 31.874972 38.064939 -0.057102 0.578317 0.029146 -0.012311 -178633.000000 0 0 1
-21.350355 -0.048924 31.605792 38.141397 0.002291 0.594108 0.038747 0.005671 89410.600000 0 0 1
-21.329455 -0.879824 32.757165 39.099253 0.041226 0.577564 0.034141 0.002787 -54783.300000 0 0 1
-22.080255 -2.211024 32.529691 39.377749 0.099803 0.598657 0.031648 -0.025613 -286879.000000 0 0 1
-21.265755 -3.173824 31.901612 38.471007 0.148152 0.593054 0.064400 -0.027671 65107.700000 0 0 1
-21.242355 -4.488724 32.384455 38.988963 0.208247 0.590602 0.070449 -0.037588 -1141780.000000 0 0 1
-22.490755 -5.318324 32.034312 39.500833 0.232202 0.624974 0.053693 -0.023069 -545707.000000 0 0 1
-23.565455 -4.822824 32.779418 40.658093 0.201869 0.633060 0.039162 -0.017144 -612197.000000 0 0 1
-23.749755 -5.267824 34.100568 41.888537 0.218272 0.619655 0.035147 -0.017878 -102888.000000 0 0 1
-25.130115 -4.846724 -33.514371 42.169023 0.190526 2.489413 0.032677 -0.013391 618066.000000 0 0 1
-25.259385 -5.307924 -32.194571 41.263798 0.207123 2.465803 0.039132 -0.018089 -51601.000000 0 0 1
-26.394345 -4.740724 -31.591321 41.438479 0.177716 2.437759 0.047428 -0.020420 -423595.000000 0 0 1
-26.520745 -5.084424 -30.076761 40.420451 0.189417 2.409979 0.032157 -0.017421 -548209.000000 0 0 1
-27.044685 -6.389624 -29.936831 40.846740 0.232007 2.393380 0.035404 -0.015543 420143.000000 0 0 1
-26.818065 -6.980824 -28.638991 39.851378 0.254652 2.372648 0.007716 -0.018155 -40585.400000 0 0 1
-26.942465 -8.507624 -28.755601 40.313282 0.305861 2.364997 0.011645 -0.011846 163139.000000 0 0 1
-28.305125 -8.890524 -28.727571 41.297638 0.304338 2.340083 0.031551 -0.013951 -22814.600000 0 0 1
-28.413445 -10.295324 -28.745411 41.708707 0.347625 2.331173 0.024414 -0.011951 244904.000000 0 0 1
-29.846065 -10.657524 -28.303691 42.490815 0.342971 2.299782 0.052150 -0.009943 230355.000000 0 0 1
-29.850125 -11.329124 -27.055831 41.849696 0.362739 2.273784 0.064320 -0.018449 572832.000000 0 0 1
-31.128145 -11.220424 -26.397271 42.328185 0.345962 2.244178 0.065423 -0.015597 600645.000000 0 0 1
-31.157925 -12.037624 -25.120011 41.793967 0.368677 2.215603 0.074942 -0.014825 -223456.000000 0 0 1
-30.470015 -11.464824 -24.061801 40.482518 0.359880 2.207285 0.079290 -0.017028 -4662.320000 0 0 1
-30.353265 -12.269224 -22.932201 39.971745 0.384134 2.181825 0.086303 -0.025632 -226538.000000 0 0 1
-29.846765 -11.524024 -21.678701 38.647104 0.368472 2.166317 0.094190 -0.026153 -105399.000000 0 0 1
-29.728335 -12.190824 -20.431601 38.076770 0.389161 2.137187 0.094325 -0.022311 539532.000000 0 0 1
-28.870985 -13.353724 -20.367601 37.771615 0.433226 2.140319 0.093183 -0.022254 197901.000000 0 0 1
-28.401065 -13.507724 -18.877801 36.680383 0.443943 2.111403 0.101158 -0.029099 22200.800000 0 0 1
-27.953655 -12.316624 -18.285901 35.601689 0.415017 2.110200 0.090799 -0.032689 152974.000000 0 0 1
-27.666885 -12.395824 -16.888801 34.703668 0.421221 2.079056 0.091045 -0.027431 9580.070000 0 0 1
-27.352545 -11.092124 -16.041201 33.593408 0.385260 2.068615 0.079983 -0.024133 -1064270.000000 0 0 1
-26.066245 -10.715224 -16.338701 32.576346 0.390019 2.096187 0.080724 -0.032264 -814502.000000 0 0 1
-25.979275 -9.502524 -15.637101 31.776401 0.350657 2.085294 0.074497 -0.030433 -38907.900000 0 0 1
-24.670855 -8.654724 -15.788101 30.542094 0.337394 2.114056 0.081984 -0.028890 851588.000000 0 0 1
-23.621855 -9.297624 -15.051401 29.512413 0.374979 2.105984 0.064957 -0.034877 411706.000000 0 0 1
-22.411455 -8.589524 -15.015701 28.311209 0.365997 2.129845 0.087880 -0.058565 535396.000000 0 0 1
-21.299855 -9.040324 -13.997201 27.043168 0.401389 2.114825 0.058786 -0.031085 247243.000000 0 0 1
-20.597155 -10.204224 -14.376301 27.111751 0.459976 2.129705 0.055814 -0.025751 -62796.500000 0 0 1
-19.548555 -10.287924 -13.451801 25.863842 0.484446 2.117765 0.079555 -0.022392 -332319.000000 0 0 1
-18.406455 -11.285124 -13.765701 25.605588 0.550001 2.138391 0.086050 -0.016234 -14584.500000 0 0 1
-17.645755 -10.985724 -14.906601 25.578615 0.556850 2.192937 0.103728 -0.031481 587729.000000 0 0 1
-18.300255 -11.359424 -16.139101 26.914800 0.555519 2.213843 0.083402 -0.038070 271650.000000 0 0 1
-17.496255 -10.660124 -17.269301 26.795260 0.547215 2.271154 0.087542 -0.037345 39603.800000 0 0 1
-18.062555 -10.982624 -18.472201 28.073050 0.546305 2.288962 0.078274 -0.030630 455158.000000 0 0 1
-17.415155 -10.357024 -19.612701 28.199532 0.536523 2.339908 0.079003 -0.036508 -176472.000000 0 0 1
-18.078455 -10.730824 -20.909601 29.651181 0.535678 2.353482 0.085919 -0.030393 -447658.000000 0 0 1
-19.356355 -10.167824 -20.991601 30.310072 0.483679 2.335831 0.086107 -0.042758 -156678.000000 0 0 1
-20.219455 -10.835824 -21.891001 31.708948 0.491962 2.332801 0.073170 -0.027817 383826.000000 0 0 1
-21.617055 -10.178824 -21.996701 32.477075 0.440073 2.314882 0.056571 -0.028757 141083.000000 0 0 1
-21.525055 -9.079824 -22.929401 32.734212 0.399179 2.346855 0.058665 -0.033038 282909.000000 0 0 1
-22.670055 -8.922624 -23.746001 34.020835 0.374965 2.343375 0.039524 -0.037964 -217155.000000 0 0 1
-22.443955 -8.039524 -25.000801 34.545696 0.343965 2.379948 0.038816 -0.040304 -328897.000000 0 0 1
-21.526755 -8.682224 -25.838031 34.733069 0.383367 2.409688 0.058272 -0.037004 -90995.900000 0 0 1
-21.131355 -7.824024 -26.911311 35.099404 0.354606 2.444508 0.042847 -0.044170 -628605.000000 0 0 1
-19.871255 -8.260824 -27.627861 35.020090 0.393982 2.479837 0.083835 -0.042304 -650726.000000 0 0 1
-19.951355 -9.390124 -28.388771 35.946534 0.439894 2.481197 0.087547 -0.030660 -750044.000000 0 0 1
-18.700055 -9.800324 -28.789381 35.701077 0.482725 2.508837 0.060220 -0.018058 -839650.000000 0 0 1
-18.807255 -11.095824 -29.644221 36.818610 0.533016 2.506712 0.069233 -0.015404 132942.000000 0 0 1
-19.492155 -10.869924 -30.881311 38.101899 0.508702 2.515789 0.072366 -0.011040 556869.000000 0 0 1
-19.359155 -12.121924 -31.596331 38.987768 0.559433 2.515659 0.053566 -0.007123 334302.000000 0 0 1
-19.996155 -12.063524 -33.057031 40.473969 0.542837 2.526548 0.051395 -0.009134 -40059.600000 0 0 1
-19.170855 -11.378324 -33.945031 40.610997 0.535643 2.560490 0.054862 -0.008420 -395570.000000 0 0 1
-19.603055 -11.243024 32.958654 39.961960 0.520732 0.601035 0.055377 -0.015516 -393681.000000 0 0 1
-19.118255 -12.348924 32.009832 39.276366 0.573504 0.618085 0.061137 -0.013932 243126.000000 0 0 1
-17.699355 -12.301124 31.861902 38.467722 0.607365 0.594772 0.056398 -0.011789 639482.000000 0 0 1
-17.165855 -12.853424 30.666592 37.420809 0.642719 0.610247 0.054423 -0.014761 183648.000000 0 0 1
-17.035655 -14.385424 30.566662 37.834836 0.701252 0.630221 0.054967 -0.011646 -1571140.000000 0 0 1
-18.285955 -14.929724 30.433952 38.516207 0.684696 0.659727 0.058336 -0.014906 -1090970.000000 0 0 1
-18.325955 -16.326824 30.756712 39.349474 0.727772 0.673522 0.066773 -0.019810 -47238.500000 0 0 1
-18.619255 -16.713024 32.189772 40.769882 0.731499 0.660724 0.047809 -0.024992 303646.000000 0 0 1
-17.459455 -16.485024 32.980166 40.795587 0.756699 0.629325 0.052457 -0.020727 370265.000000 0 0 1
-17.868455 -16.362624 -33.919951 41.684292 0.741436 2.521345 0.053769 -0.026556 210724.000000 0 0 1
-16.726855 -15.774424 -33.074711 40.280971 0.756102 2.534132 0.045834 -0.019879 -113549.000000 0 0 1
-16.359455 -14.457324 -33.402841 39.904834 0.723752 2.562688 0.044927 -0.016381 -243453.000000 0 0 1
-15.303255 -13.892524 -32.648541 38.640899 0.737116 2.577215 0.053770 -0.014587 21076.200000 0 0 1
-15.606355 -13.464124 -31.182221 37.378762 0.711840 2.557518 0.070942 -0.019653 -117216.000000 0 0 1
-15.978555 -14.458624 -30.277251 37.162857 0.735503 2.523039 0.057720 -0.018630 -165165.000000 0 0 1
-16.149855 -14.007024 -28.925031 35.967652 0.714461 2.505117 0.057494 -0.014173 -61643.000000 0 0 1
-16.169855 -15.117824 -27.834161 35.563371 0.751786 2.469730 0.050394 -0.002928 -423695.000000 0 0 1
-14.980255 -15.806724 -27.619861 35.172678 0.812236 2.473920 0.051826 -0.016370 -481757.000000 0 0 1
-14.521255 -16.689924 -28.631911 36.182962 0.854770 2.483744 0.055303 -0.013674 -165908.000000 0 0 1
-13.075455 -17.196424 -28.406231 35.687512 0.920698 2.491407 0.048877 -0.007060 534097.000000 0 0 1
-12.075855 -16.196024 -28.641571 35.049637 0.930113 2.527283 0.043348 -0.015750 -15976.100000 0 0 1
-10.900655 -16.499624 -27.933531 34.224904 0.986963 2.525557 0.066833 -0.021910 678728.000000 0 0 1
-9.666455 -15.549924 -28.118021 33.553891 1.014617 2.564396 0.055651 -0.020230 507333.000000 0 0 1
-9.834355 -14.270124 -27.581641 32.574498 0.967385 2.580595 0.059306 -0.022787 -639665.000000 0 0 1
-8.672155 -13.902824 -26.898301 31.496244 1.013082 2.594453 0.072544 -0.025012 -249365.000000 0 0 1
-8.183655 -12.444224 -27.153031 30.969631 0.989078 2.639886 0.057044 -0.029460 -298950.000000 0 0 1
-7.379055 -12.320324 -28.279721 31.717242 1.031161 2.671706 0.066875 -0.026820 8259.990000 0 0 1
-7.345455 -10.944824 -28.676061 31.560440 0.979707 2.710735 0.061021 -0.023228 -32935.100000 0 0 1
-6.455855 -10.641724 -29.915021 32.401124 1.025498 2.747307 0.059086 -0.011904 -60707.500000 0 0 1
-5.068755 -10.732824 -29.623711 31.913164 1.129580 2.760503 0.073282 -0.015000 731441.000000 0 0 1
-4.166355 -10.569524 -30.725101 32.758284 1.195312 2.787420 0.070577 -0.014130 333681.000000 0 0 1
-4.051755 -9.107724 -31.165051 32.720449 1.152216 2.832021 0.051210 -0.011890 -1587340.000000 0 0 1
-2.980755 -8.740924 -31.930591 33.239304 1.242151 2.860049 0.041280 -0.014946 -878600.000000 0 0 1
-3.111955 -7.400024 -32.353501 33.334571 1.172715 2.898379 0.024015 -0.013977 -56931.800000 0 0 1
-1.892755 -6.744324 -33.035091 33.769597 1.297190 2.932644 0.043621 -0.021425 -10611.500000 0 0 1
-1.366555 -7.435224 34.046041 34.875248 1.389030 0.218500 0.047552 -0.020208 -353948.000000 0 0 1
-0.137155 -6.828524 33.765657 34.449487 1.550713 0.199581 0.068709 -0.012927 -102052.000000 0 0 1
0.512845 -7.387224 32.445456 33.279749 -1.501484 0.224386 0.067608 -0.011739 -112703.000000 0 0 1
-0.178255 -7.071424 31.255102 32.045564 1.545594 0.222571 0.064709 -0.009094 43028.900000 0 0 1
0.394345 -7.605524 30.069642 31.019072 -1.518993 0.248054 0.068286 -0.016362 -58804.200000 0 0 1
-0.193455 -6.945924 28.838852 29.664164 1.542952 0.236440 0.062405 -0.013157 -196423.000000 0 0 1
0.482445 -5.749724 28.561162 29.138154 -1.487085 0.199337 0.078746 -0.019045 69863.300000 0 0 1
0.165945 -5.139824 27.273522 27.754105 -1.538521 0.186365 0.079596 -0.012129 -5412.480000 0 0 1
-1.169255 -4.389824 27.044852 27.423744 1.310484 0.166422 0.068168 -0.002800 -164141.000000 0 0 1
-2.294855 -5.200324 27.081732 27.671825 1.155208 0.206886 0.051189 -0.000960 -692195.000000 0 0 1
-3.449655 -4.452524 26.747432 27.334048 0.911634 0.207549 0.035668 -0.008346 480768.000000 0 0 1
-4.814255 -5.045024 27.182372 28.062620 0.808800 0.251128 0.022699 0.000219 400190.000000 0 0 1
-5.323255 -6.144124 26.415842 27.638452 0.856859 0.298549 0.022901 -0.000856 523390.000000 0 0 1
-6.652355 -6.474324 26.835642 28.395816 0.771836 0.333030 0.019083 -0.002417 943994.000000 0 0 1
-6.922155 -8.028024 26.851052 28.867705 0.859234 0.375998 0.020897 -0.001893 409316.000000 0 0 1
-6.022255 -8.738624 27.697322 29.660963 0.967387 0.365914 0.026211 -0.008281 192333.000000 0 0 1
-6.345255 -10.109824 27.761572 30.218797 1.010306 0.406057 0.035321 -0.009535 353816.000000 0 0 1
-5.428355 -10.782924 28.831982 31.257346 1.104415 0.396530 0.038992 -0.012287 270268.000000 0 0 1
-5.645655 -12.159124 28.920532 31.876557 1.136103 0.434058 0.052175 -0.015315 -338781.000000 0 0 1
-4.780055 -12.714224 29.847902 32.793256 1.211183 0.427068 0.064451 -0.016596 -348204.000000 0 0 1
-4.916355 -14.188324 29.873582 33.435161 1.237237 0.465765 0.070035 -0.028537 -12960.600000 0 0 1
-6.153655 -14.751424 30.247832 34.211158 1.175588 0.486122 0.081112 -0.030611 -242773.000000 0 0 1
-6.002755 -16.148724 30.486152 35.017421 1.214907 0.514377 0.082022 -0.038618 208994.000000 0 0 1
-6.233855 -16.569124 31.965432 36.540192 1.210945 0.505769 0.103585 -0.037614 508280.000000 0 0 1
-7.617355 -16.778824 32.226728 37.122971 1.144632 0.519420 0.095074 -0.028514 69032.800000 0 0 1
-7.919755 -17.142324 33.539406 38.489915 1.138008 0.512785 0.110018 -0.030474 1150990.000000 0 0 1
-9.475355 -17.312224 33.836769 39.171704 1.070012 0.528020 0.105775 -0.022091 1420310.000000 0 0 1
-9.991355 -18.527024 33.241860 39.345890 1.076216 0.564489 0.102783 -0.029104 149630.000000 0 0 1
-10.362055 -18.469124 31.878622 38.271755 1.059511 0.586371 0.090051 -0.027949 -506405.000000 0 0 1
-10.987555 -19.818924 31.477722 38.786120 1.064583 0.623959 0.089184 -0.031478 -430817.000000 0 0 1
-12.123855 -20.127724 32.254189 39.905461 1.028654 0.629597 0.077535 -0.027109 -39294.900000 0 0 1
-12.510355 -21.481124 32.198282 40.677721 1.043427 0.657462 0.072870 -0.029649 3705.130000 0 0 1
-11.938555 -22.431124 33.312371 41.897476 1.081697 0.651636 0.084783 -0.030994 317869.000000 0 0 1
-10.522255 -22.647324 33.218185 41.557995 1.135856 0.644632 0.080922 -0.028511 779895.000000 0 0 1
-9.952155 -23.339224 -33.861131 42.312421 1.167729 2.498533 0.069032 -0.032290 199050.000000 0 0 1
-10.351755 -24.835224 -33.662551 43.094252 1.175877 2.467283 0.075413 -0.026686 -434346.000000 0 0 1
-9.759955 -25.571754 33.559030 43.305655 1.206191 0.684185 0.072556 -0.022070 -121917.000000 0 0 1
-9.732455 -26.950104 33.743708 44.268122 1.224242 0.704003 0.067330 -0.021039 -594209.000000 0 0 1
-8.977655 -27.676844 32.614866 43.707384 1.257131 0.728446 0.059333 -0.024543 552511.000000 0 0 1
-7.599455 -27.420154 32.400806 43.121094 1.300434 0.720629 0.052355 -0.033760 213485.000000 0 0 1
-6.713155 -28.202834 33.179078 44.060385 1.337114 0.718131 0.064537 -0.035547 46430.700000 0 0 1
-5.230755 -27.777574 33.194791 43.598722 1.384667 0.705372 0.071555 -0.036084 111475.000000 0 0 1
-5.094955 -26.608574 33.900872 43.396358 1.381608 0.674224 0.076406 -0.031650 28085.000000 0 0 1
-4.908055 -25.457424 33.035910 41.994533 1.380338 0.665397 0.104438 -0.026786 -5850.840000 0 0 1
-4.578555 -24.132424 33.817326 41.796514 1.383299 0.628187 0.106889 -0.035637 -395873.000000 0 0 1
-3.232855 -24.134324 -34.053686 41.863713 1.437636 2.520841 0.101591 -0.036533 -591803.000000 0 0 1
-2.945855 -22.948224 -33.290881 40.541112 1.443125 2.534243 0.099209 -0.035770 75806.700000 0 0 1
35.056005 -15.095924 2.133299 38.227756 -0.406624 1.514962 0.113784 -0.037270 533633.000000 0 0 1
35.951815 -15.466624 3.217599 39.269612 -0.406270 1.488768 0.085120 -0.038542 957547.000000 0 0 1
35.139595 -15.965524 4.270199 38.831993 -0.426462 1.460607 0.100244 -0.035805 314976.000000 0 0 1
35.945525 -16.234824 5.561499 39.831904 -0.424226 1.430714 0.085779 -0.015460 190534.000000 0 0 1
-36.330735 -17.219024 5.336199 40.557270 0.442593 1.438842 0.093216 -0.019544 171530.000000 0 0 1
-35.606917 -17.306824 6.570799 40.131710 0.452427 1.406325 0.080117 -0.016515 593405.000000 0 0 1
-34.273776 -18.117724 6.595699 39.324889 0.486279 1.402277 0.069383 -0.019394 291485.000000 0 0 1
-34.436081 -19.497724 6.406699 40.088037 0.515196 1.410292 0.084668 -0.022799 -1437.910000 0 0 1
-33.298785 -20.159124 6.916999 39.535354 0.544381 1.394934 0.069160 -0.018529 23873.600000 0 0 1
-33.471575 -21.682324 7.116599 40.510684 0.574815 1.394208 0.062350 -0.019172 -365223.000000 0 0 1
-33.615985 -22.441624 5.944299 40.853343 0.588640 1.424775 0.086248 -0.025963 85829.700000 0 0 1
-33.903135 -23.750124 6.245499 41.862838 0.611081 1.421048 0.091613 -0.028060 -344984.000000 0 0 1
-33.450665 -24.749124 5.204799 41.935141 0.636986 1.446360 0.099578 -0.025147 120171.000000 0 0 1
-34.110352 -24.587024 3.948699 42.233045 0.624555 1.477162 0.106455 -0.022915 341826.000000 0 0 1
-33.422655 -25.301894 2.917899 42.021112 0.647984 1.501302 0.111429 -0.019450 -11798.800000 0 0 1
-33.913115 -24.961824 1.542199 42.137518 0.634515 1.534189 0.096934 -0.020075 -628455.000000 0 0 1
-35.132184 -25.599584 1.254099 43.487720 0.629706 1.541954 0.099339 -0.015870 -281767.000000 0 0 1
-35.693302 -25.170374 0.069799 43.675673 0.614197 1.569198 0.092069 -0.014982 -475473.000000 0 0 1
36.588155 -24.010024 0.188699 43.763112 -0.580738 1.566484 0.108731 -0.016673 -247027.000000 0 0 1
35.250145 -24.506424 0.302799 42.932845 -0.607507 1.563743 0.085493 -0.009774 118676.000000 0 0 1
34.432805 -23.407824 0.601699 41.640201 -0.597048 1.556346 0.101119 -0.011616 134133.000000 0 0 1
32.931975 -23.642724 0.280999 40.540996 -0.622656 1.563865 0.055197 -0.003188 330346.000000 0 0 1
32.691475 -23.549324 -1.089001 40.304951 -0.624254 1.597819 0.067974 -0.013193 -210473.000000 0 0 1
31.313985 -23.559624 -1.374701 39.211112 -0.645015 1.605862 0.056941 -0.006997 107843.000000 0 0 1
30.937305 -23.202624 -2.848101 38.776156 -0.643494 1.644312 0.050372 0.001610 72142.800000 0 0 1
31.354105 -21.914224 -3.212301 38.387914 -0.610005 1.654574 0.081529 -0.027052 77405.000000 0 0 1
30.856085 -21.710824 -4.490001 37.994973 -0.613148 1.689247 0.076425 -0.044897 132984.000000 0 0 1
30.961315 -20.233024 -4.954801 37.316596 -0.578827 1.703967 0.086051 -0.044403 795038.000000 0 0 1
29.947605 -19.505024 -4.216201 35.987239 -0.577292 1.688224 0.101307 -0.047699 669067.000000 0 0 1
29.957935 -18.095624 -4.386201 35.272769 -0.543381 1.695470 0.102616 -0.044995 553448.000000 0 0 1
28.946995 -17.466724 -3.325301 33.971644 -0.542918 1.668838 0.119306 -0.038664 346889.000000 0 0 1
29.424275 -17.211224 -2.030401 34.148744 -0.529267 1.630289 0.111420 -0.030661 -202162.000000 0 0 1
29.865085 -18.347124 -1.221701 35.071823 -0.550892 1.605638 0.099197 -0.022896 -224091.000000 0 0 1
28.969825 -19.590524 -0.917801 34.984021 -0.594600 1.597034 0.089213 -0.022192 -195467.000000 0 0 1
27.937015 -19.256024 -0.009801 33.930390 -0.603485 1.571085 0.081115 -0.006559 309395.000000 0 0 1
27.342815 -20.529624 0.429199 34.194725 -0.644028 1.558244 0.059705 -0.005401 -675916.000000 0 0 1
26.305715 -20.270824 1.491599 33.243372 -0.656547 1.525912 0.051347 0.000710 -1082240.000000 0 0 1
25.532415 -21.431424 1.829599 33.384990 -0.698297 1.515966 0.037624 0.014322 -68416.200000 0 0 1
24.535215 -21.170624 2.757699 32.523484 -0.711917 1.485903 0.025680 0.008122 128898.000000 0 0 1
23.190615 -20.587024 2.229499 31.090205 -0.725995 1.499024 0.013971 0.003796 -362225.000000 0 0 1
23.258615 -19.191924 1.923299 30.215761 -0.689891 1.507101 0.045883 -0.013616 184788.000000 0 0 1
23.358815 -18.358124 3.071899 29.867901 -0.666095 1.467765 0.056667 -0.011777 -436374.000000 0 0 1
23.293915 -16.882324 2.654599 28.890591 -0.627146 1.478782 0.049481 -0.002797 564535.000000 0 0 1
22.003915 -16.491124 2.161799 27.582654 -0.643157 1.492341 0.053746 -0.003149 403568.000000 0 0 1
22.008315 -15.197824 1.691099 26.799246 -0.604355 1.507652 0.077167 -0.018979 -774288.000000 0 0 1
20.715015 -14.698324 1.075999 25.422634 -0.617106 1.528459 0.075760 -0.012627 -412761.000000 0 0 1
19.692615 -14.562824 2.059899 24.578814 -0.636752 1.486890 0.078893 -0.012439 44652.100000 0 1 0
18.893615 -13.419524 1.903899 23.252465 -0.617584 1.488825 0.106938 -0.022251 -298168.000000 0 1 0
19.413615 -12.025524 2.411499 22.963384 -0.554589 1.465587 0.114154 -0.021865 -352409.000000 0 1 0
20.421315 -11.519824 1.560399 23.498325 -0.513610 1.504343 0.112633 -0.018544 285548.000000 0 1 0
20.854515 -10.256424 1.983399 23.324641 -0.457073 1.485659 0.125434 -0.023798 16562.000000 0 1 0
21.757315 -9.694224 0.860399 23.834828 -0.419157 1.534690 0.140661 -0.023082 -286186.000000 0 1 0
20.990715 -9.260424 -0.211901 22.943637 -0.415485 1.580032 0.128422 -0.022936 640363.000000 0 1 0
21.805615 -8.837524 -1.302301 23.564436 -0.385055 1.626090 0.118141 -0.013729 459465.000000 0 1 0
20.881415 -8.305924 -2.504601 22.611831 -0.378579 1.681789 0.118002 -0.014123 773949.000000 0 1 0
21.608015 -7.782224 -3.636901 23.252879 -0.345692 1.727848 0.115317 -0.020534 942790.000000 0 1 0
22.541515 -8.662124 -4.306401 24.529521 -0.366877 1.747271 0.103860 -0.016112 -31086.900000 0 1 0
21.985615 -9.739124 -5.317501 24.627091 -0.416998 1.788431 0.081446 -0.015935 -396076.000000 0 1 0
21.366415 -9.209124 -6.464901 24.148014 -0.406950 1.841822 0.076558 -0.025945 -225081.000000 0 1 0
19.983515 -9.089724 -6.273901 22.832560 -0.426889 1.849156 0.069002 -0.016075 -580858.000000 0 1 0
19.186015 -9.218924 -7.631801 22.612742 -0.447928 1.915056 0.064971 -0.010691 -147615.000000 0 1 0
19.182515 -10.440724 -8.338501 23.377515 -0.498444 1.935518 0.058861 -0.007089 1317700.000000 0 1 0
20.412215 -10.760824 -9.023601 24.776586 -0.485151 1.943569 0.053955 -0.006270 462425.000000 0 1 0
20.294515 -12.138824 -9.752701 25.579944 -0.539046 1.961959 0.036365 -0.001937 -178900.000000 0 0 1
19.177415 -12.325624 -10.584501 25.134158 -0.571237 2.005476 0.062208 -0.006401 196928.000000 0 0 1
19.180315 -13.697524 -10.893301 25.964796 -0.620156 2.003736 0.068116 -0.007515 -86932.300000 0 0 1
18.113615 -14.045924 -11.943801 25.846574 -0.659582 2.051162 0.070216 -0.012282 -123007.000000 0 0 1
18.032915 -15.413024 -12.268401 26.706946 -0.707226 2.048083 0.064375 -0.018260 52067.700000 0 0 1
17.103415 -15.590524 -13.301801 26.693242 -0.739157 2.092457 0.067994 -0.019353 -277173.000000 0 0 1
16.995515 -17.069624 -13.713501 27.717859 -0.787574 2.088347 0.054025 -0.023052 -566367.000000 0 0 1
16.258515 -17.722724 -12.710401 27.202730 -0.828460 2.056971 0.045950 -0.017938 189064.000000 0 0 1
16.373415 -19.126524 -12.844901 28.264892 -0.862796 2.042548 0.047671 -0.017181 -768588.000000 0 0 1
15.456215 -19.897724 -11.877001 27.854571 -0.910373 2.011298 0.040791 -0.017297 -455236.000000 0 0 1
14.148115 -19.793824 -12.337201 27.279500 -0.950223 2.040085 0.036677 -0.021041 -926757.000000 0 0 1
13.159915 -20.351024 -11.521101 26.834368 -0.996782 2.014560 0.035987 -0.013940 107554.000000 0 0 1
11.710915 -20.228924 -12.051401 26.298121 -1.046022 2.046834 0.037238 -0.022003 205511.000000 0 0 1
10.883615 -21.030924 -11.242701 26.213568 -1.093243 2.014058 0.038269 -0.022314 188230.000000 0 0 1
9.513215 -21.028524 -11.622901 25.841670 -1.145952 2.037308 0.034833 -0.021677 684953.000000 0 0 1
8.491115 -21.616624 -10.620201 25.537543 -1.196508 1.999691 0.034101 -0.013050 -12102.800000 0 0 1
8.523615 -22.995324 -10.438801 26.653433 -1.215830 1.973220 0.042381 -0.013120 -111567.000000 0 0 1
7.661015 -23.399624 -9.402001 26.355856 -1.254396 1.935565 0.046314 -0.020356 1159.160000 0 0 1
7.624715 -24.925124 -9.292301 27.672097 -1.273931 1.913251 0.044640 -0.018193 -132842.000000 0 0 1
8.900015 -25.365774 -8.924001 28.324381 -1.233349 1.891321 0.025686 -0.005442 -584505.000000 0 0 1
9.238915 -26.622834 -9.464401 29.727222 -1.236770 1.894811 0.028110 -0.006888 344044.000000 0 0 1
10.762015 -26.886604 -9.314601 30.421575 -1.190054 1.881978 0.027428 -0.005987 323048.000000 0 0 1
10.981515 -27.066194 -7.915301 30.262592 -1.185362 1.835428 0.032921 -0.010060 860860.000000 0 0 1
12.333415 -27.569124 -7.765501 31.184495 -1.150137 1.822463 0.047709 -0.002441 926582.000000 0 0 1
12.783415 -28.001364 -6.328301 31.425141 -1.142527 1.773560 0.043485 -0.007591 53181.800000 0 0 1
12.309215 -29.229074 -5.792701 32.239896 -1.172209 1.751452 0.045787 -0.011769 -50495.800000 0 0 1
10.918215 -29.342774 -5.568701 31.799626 -1.214577 1.746822 0.054670 -0.011981 74648.900000 0 0 1
10.466115 -30.487634 -4.551901 32.553881 -1.240111 1.711083 0.066000 -0.019972 121544.000000 0 0 1
10.602215 -31.863474 -4.898801 33.936502 -1.249581 1.715654 0.072170 -0.026927 291214.000000 0 0 1
9.659815 -32.397614 -5.862501 34.311606 -1.281024 1.742499 0.075992 -0.030097 620640.000000 0 0 1
9.893515 -33.919114 -6.086301 35.852907 -1.286990 1.741380 0.079803 -0.029699 22267.800000 0 0 1
9.538015 33.581573 -4.964801 35.261098 1.294059 1.712067 0.071663 -0.032084 132776.000000 0 0 1
9.964015 32.213244 -5.107801 34.103729 1.270816 1.721135 0.083180 -0.020783 127048.000000 0 0 1
9.346515 31.401500 -3.951001 33.000333 1.281501 1.690810 0.093382 -0.018260 1181110.000000 0 0 1
7.911015 31.294820 -4.019701 32.528571 1.323194 1.694687 0.079711 -0.017564 460986.000000 0 0 1
7.432515 30.323800 -3.106501 31.375556 1.330430 1.669969 0.064754 -0.018784 -573667.000000 0 0 1
5.977715 30.003970 -3.389801 30.780872 1.374140 1.681147 0.054477 -0.024366 -701772.000000 0 0 1
5.822015 29.215500 -4.542601 30.134309 1.374095 1.722118 0.070424 -0.025072 38753.900000 0 0 1
5.496015 29.988080 -5.689401 31.013875 1.389535 1.755288 0.057926 -0.024703 -382378.000000 0 0 1
5.683215 29.147620 -6.934901 30.495501 1.378232 1.800211 0.060500 -0.019966 19490.400000 0 0 1
4.691715 28.178620 -7.234901 29.468468 1.405811 1.818845 0.068948 -0.026350 -25922.800000 0 0 1
4.804115 26.879350 -6.637101 28.100358 1.393935 1.809242 0.076170 -0.025820 -1155100.000000 0 0 1
3.875415 25.814590 -7.120601 27.057622 1.421784 1.837097 0.072255 -0.023710 -1119500.000000 0 0 1
2.564515 25.955280 -6.620901 26.908914 1.472311 1.819398 0.064930 -0.026042 355079.000000 0 0 1
1.685015 26.601110 -7.633001 27.725819 1.507537 1.849701 0.065762 -0.023935 601896.000000 0 0 1
1.298015 25.804810 -8.918101 27.333233 1.520537 1.903155 0.096939 -0.026962 -892760.000000 0 0 1
2.281415 25.777260 -9.924801 27.715946 1.482521 1.937018 0.082563 -0.028619 -175244.000000 0 0 1
2.101415 24.929650 -11.048301 27.349011 1.486701 1.986654 0.102327 -0.029289 -591902.000000 0 0 1
1.986415 23.354590 -10.851601 25.829053 1.485946 2.004387 0.106822 -0.023969 -469015.000000 0 0 1
0.812615 22.983320 -10.198401 25.157519 1.535454 1.988193 0.107856 -0.022917 -318509.000000 0 0 1
0.695815 21.616920 -10.312001 23.960651 1.538619 2.015702 0.064612 -0.018998 -107711.000000 0 1 0
-0.434385 20.950820 -9.508301 23.011592 -1.550066 1.996757 0.069130 -0.013868 50528.000000 0 1 0
-1.760885 21.192020 -9.901101 23.457073 -1.487895 2.006551 0.081873 -0.016146 -236111.000000 0 1 0
-2.704585 20.428420 -9.201701 22.567819 -1.439169 1.990769 0.056762 -0.009806 -248288.000000 0 1 0
-4.161085 20.743020 -9.559701 23.215844 -1.372822 1.995197 0.057725 -0.010884 -422996.000000 0 1 0
-5.084485 19.884720 -8.986001 22.405408 -1.320462 1.983474 0.042683 -0.019358 -296989.000000 0 1 0
-6.010085 19.421720 -9.939301 22.629937 -1.270691 2.025516 0.042625 -0.018942 -640818.000000 0 1 0
-6.899685 18.268920 -9.479801 21.707735 -1.209684 2.022725 0.047234 -0.024552 3881.640000 0 1 0
-7.992485 18.635620 -8.672301 22.053911 -1.165642 1.974940 0.067743 -0.025351 -612766.000000 0 1 0
-9.233885 18.727220 -9.288801 22.852905 -1.112706 1.989373 0.082830 -0.035327 -568499.000000 0 1 0
-10.346785 18.905820 -8.249101 23.076691 -1.070043 1.936348 0.106126 -0.043016 -72769.000000 0 1 0
-10.451085 17.837120 -7.325501 21.932875 -1.040796 1.911337 0.083803 -0.037683 -238619.000000 0 1 0
-11.467785 18.061420 -6.359201 22.319598 -1.005086 1.859715 0.097691 -0.041305 10462.200000 0 1 0
-11.970385 16.811520 -5.646701 21.396321 -0.952039 1.837870 0.078852 -0.044927 -159730.000000 0 1 0
-12.954385 17.267620 -4.747301 22.102572 -0.927159 1.787268 0.076039 -0.031238 -218981.000000 0 1 0
-13.393185 16.274820 -3.848001 21.425552 -0.882224 1.751375 0.071546 -0.028760 92362.700000 0 1 0
-14.644985 16.807320 -3.069501 22.502965 -0.854040 1.707627 0.057749 -0.016766 277811.000000 0 1 0
-15.822385 16.925120 -3.832101 23.483879 -0.819059 1.734709 0.088742 -0.033170 -970850.000000 0 1 0
-16.857585 17.210020 -3.003401 24.277220 -0.795743 1.694827 0.074701 -0.028475 -1205370.000000 0 1 0
-18.264085 17.273820 -3.598201 25.395053 -0.757540 1.712964 0.084686 -0.040466 -413670.000000 0 0 1
-18.355385 18.312920 -4.534501 26.321947 -0.784240 1.743931 0.076440 -0.040894 -329375.000000 0 0 1
-19.570785 18.297220 -5.230701 27.297695 -0.751779 1.763606 0.055641 -0.039548 -286938.000000 0 0 1
-19.479785 19.089120 -6.609501 28.063180 -0.775270 1.808552 0.039560 -0.025168 -290489.000000 0 0 1
-19.311685 20.448520 -6.276101 28.817922 -0.813983 1.790340 0.044943 -0.022310 77599.000000 0 0 1
-19.339585 21.307020 -7.436801 29.720610 -0.833764 1.823708 0.035000 -0.012536 -1783.910000 0 0 1
-19.148185 22.785220 -7.037801 30.583491 -0.871915 1.802995 0.037748 -0.012088 -295936.000000 0 0 1
-17.879385 23.087120 -6.526601 29.921298 -0.911842 1.790690 0.045555 -0.022286 -226420.000000 0 0 1
-17.905985 24.126620 -5.574401 30.558011 -0.932327 1.754244 0.047037 -0.018558 700184.000000 0 0 1
-16.457185 24.562590 -5.136301 30.009022 -0.980483 1.742802 0.049444 -0.020776 552047.000000 0 0 1
-16.429085 25.468180 -4.049501 30.576813 -0.997886 1.703624 0.040180 -0.024200 760856.000000 0 0 1
-15.102985 25.922170 -3.720001 30.230737 -1.043248 1.694163 0.045320 -0.025887 1054050.000000 0 0 1
-14.487785 27.032840 -4.633401 31.018362 -1.078817 1.720734 0.048370 -0.022927 -197299.000000 0 0 1
-15.050785 28.341250 -4.415701 32.392144 -1.082614 1.707542 0.058877 -0.024212 -127180.000000 0 0 1
-14.514085 29.345710 -5.216301 33.151760 -1.111486 1.728799 0.047194 -0.025678 -330947.000000 0 0 1
-15.150285 30.753230 -5.003301 34.645712 -1.113054 1.715716 0.044054 -0.028123 -126611.000000 0 0 1
-16.490885 30.932450 -5.350001 35.459671 -1.081001 1.722250 0.066788 -0.023434 -355692.000000 0 0 1
-17.074485 32.065470 -4.689701 36.629575 -1.081497 1.699179 0.066135 -0.027049 6552.000000 0 0 1
13.311445 -8.611324 18.682292 24.502602 -0.574201 0.703687 0.111525 -0.013674 54035.700000 0 1 0
13.282145 -10.001124 18.953392 25.212475 -0.645402 0.720090 0.081203 -0.014369 248184.000000 0 0 1
14.184845 -10.717124 18.090192 25.363785 -0.647033 0.776702 0.095519 -0.013773 384788.000000 0 0 1
14.632245 -12.093824 18.647592 26.610070 -0.690703 0.794317 0.103414 -0.023502 -22689.900000 0 0 1
15.659745 -11.971224 19.655892 27.836880 -0.652690 0.786807 0.080511 -0.017163 643430.000000 0 0 1
15.822745 -13.258324 20.274292 28.934224 -0.697444 0.794414 0.073798 -0.010719 -186211.000000 0 0 1
16.409745 -14.461924 19.514892 29.313102 -0.722388 0.842312 0.074409 -0.016518 -638235.000000 0 0 1
15.674745 -14.763724 18.360492 28.297930 -0.755477 0.864753 0.079600 -0.021829 2793.210000 0 0 1
15.832345 -16.096124 17.965992 28.853513 -0.793660 0.898656 0.080544 -0.021541 -106877.000000 0 0 1
15.083045 -16.471924 16.618792 27.838943 -0.829384 0.931087 0.072992 -0.019394 -683804.000000 0 0 1
13.700445 -16.272024 16.724192 27.058816 -0.870987 0.904513 0.093195 -0.016492 -659155.000000 0 0 1
13.134745 -15.986724 15.474492 25.837120 -0.883021 0.928639 0.103764 -0.025380 -165007.000000 0 0 1
12.753445 -17.280424 14.690292 26.020532 -0.935001 0.970890 0.070157 -0.015534 -972707.000000 0 0 1
13.807345 -18.029824 14.173392 26.769429 -0.917256 1.012830 0.064909 -0.009466 -319821.000000 0 0 1
13.331145 -18.991924 13.260192 26.725368 -0.958771 1.051620 0.060285 -0.010072 -775589.000000 0 0 1
14.412545 -19.928024 12.790392 27.720781 -0.944649 1.091223 0.061346 -0.016358 -857264.000000 0 0 1
14.789645 -20.794824 13.850192 29.034223 -0.952581 1.073524 0.033018 -0.004754 38380.700000 0 0 1
15.239045 -22.027024 13.349792 29.927165 -0.965572 1.108420 0.019730 0.001875 -299490.000000 0 0 1
15.883645 -22.985824 14.418092 31.440732 -0.966123 1.094400 0.003323 -0.000699 130055.000000 0 0 1
17.213845 -22.623824 14.725592 32.015573 -0.920373 1.092856 0.013358 -0.001689 -26474.700000 0 0 1
17.803545 -23.552924 15.642292 33.412389 -0.923533 1.083591 0.013877 -0.009804 197416.000000 0 0 1
19.227945 -23.109424 16.046992 34.077342 -0.876822 1.080487 0.018613 -0.005596 -111405.000000 0 0 1
20.237945 -23.495724 15.131292 34.504774 -0.859752 1.116837 0.005049 -0.020027 -555365.000000 0 0 1
21.357645 -22.724324 15.519292 34.833781 -0.816391 1.109037 0.015725 -0.014375 424056.000000 0 0 1
22.674345 -23.234024 14.820492 35.687431 -0.797589 1.142539 0.015977 -0.024001 391417.000000 0 0 1
23.198445 -24.325224 15.495792 37.013564 -0.809104 1.138836 0.020965 -0.019846 -187109.000000 0 0 1
24.373745 -24.833524 14.918192 37.859421 -0.794742 1.165771 0.031142 -0.023418 -205936.000000 0 0 1
24.861645 -26.187624 15.543492 39.312761 -0.811367 1.164314 0.034792 -0.025192 -374934.000000 0 0 1
25.313045 -25.946054 16.867992 39.980959 -0.797747 1.135256 0.028325 -0.018511 375882.000000 0 0 1
25.900745 -27.122934 17.494792 41.383207 -0.808444 1.134318 0.035036 -0.006722 146737.000000 0 0 1
25.997145 -26.938184 19.040692 42.000776 -0.803173 1.100286 0.027815 0.002099 373232.000000 0 0 1
24.808245 -26.593554 19.749092 41.384692 -0.820117 1.073322 0.020631 0.007851 91881.000000 0 0 1
25.147345 -26.150374 20.976792 41.907717 -0.804949 1.046566 0.024113 0.008910 -176401.000000 0 0 1
23.967445 -26.062364 21.955692 41.662184 -0.827247 1.015738 0.029858 0.004662 -428461.000000 0 0 1
23.472745 -27.344134 22.267092 42.361477 -0.861434 1.017323 0.026726 0.006658 -212987.000000 0 0 1
22.414245 -27.261064 23.195092 42.232407 -0.882660 0.989360 0.027146 0.006097 -391298.000000 0 0 1
21.985745 -28.756924 23.315262 43.057346 -0.918056 0.998584 0.059215 -0.000737 -380567.000000 0 0 1
22.902845 -29.622334 23.971282 44.459479 -0.912636 1.001343 0.060092 -0.010713 329763.000000 0 0 1
22.952145 -30.908784 23.419262 45.062353 -0.932063 1.024287 0.073619 -0.015204 -233503.000000 0 0 1
24.036345 -31.814714 24.039282 46.559735 -0.923778 1.028259 0.052831 -0.006409 18866.500000 0 0 1
23.760745 -32.154164 25.393212 47.363260 -0.934396 1.004942 0.054496 -0.011067 256937.000000 0 0 1
24.899145 -32.749254 25.964692 48.648188 -0.920738 1.007799 0.059092 -0.016174 -434861.000000 0 0 1
24.624645 -33.043914 27.481402 49.532825 -0.930368 0.982659 0.054967 -0.025211 201514.000000 0 0 1
23.856245 34.109033 27.904132 50.111747 0.960466 0.980222 0.049103 -0.015882 -156522.000000 0 0 1
22.523545 34.018005 27.481122 49.190922 0.985957 0.978024 0.057630 -0.013810 -386739.000000 0 0 1
21.827345 32.759476 28.153562 48.396687 0.983054 0.949948 0.086741 -0.026633 51780.600000 0 0 1
21.495545 32.986063 29.523212 49.211369 0.993258 0.927387 0.068997 -0.034547 -123151.000000 0 0 1
20.860245 31.877710 30.051282 48.522343 0.991346 0.902909 0.077342 -0.034161 -109886.000000 0 0 1
20.644045 32.137350 31.540042 49.535443 0.999804 0.880564 0.060313 -0.036668 457854.000000 0 0 1
21.882445 32.341250 32.233232 50.633774 0.975941 0.880721 0.048328 -0.027190 507543.000000 0 0 1
21.706245 32.650278 33.589319 51.627939 0.984080 0.862417 0.032737 -0.028593 -930597.000000 0 0 1
22.931345 32.490616 -33.789891 52.184705 0.956199 2.275103 0.008872 -0.031963 -959887.000000 0 0 1
23.351245 31.150200 -33.851781 51.590297 0.927530 2.286523 0.015323 -0.024023 723842.000000 0 0 1
24.571545 30.918220 -33.114311 51.538867 0.899279 2.268568 0.009559 -0.015435 781703.000000 0 0 1
24.764945 29.375600 -33.000111 50.648156 0.870354 2.280430 0.026414 -0.010072 -284110.000000 0 0 1
24.974345 28.805180 34.008843 51.088724 0.856510 0.842389 0.041702 -0.019134 166973.000000 0 0 1
24.619545 27.438940 33.977192 50.134489 0.839504 0.826138 0.057412 -0.030757 -106232.000000 0 0 1
24.740545 26.823820 32.575577 48.916052 0.825778 0.842032 0.088523 -0.037339 -156013.000000 0 0 1
26.083045 26.613450 32.224630 49.264873 0.795463 0.857791 0.076437 -0.034421 -11857.800000 0 0 1
26.217445 25.736740 31.133672 48.156409 0.776146 0.867793 0.107029 -0.051061 683302.000000 0 0 1
27.592545 24.972790 31.082902 48.488510 0.735601 0.874948 0.092279 -0.034979 585204.000000 0 0 1
27.557545 23.924510 32.009902 48.543118 0.714946 0.850760 0.117745 -0.037941 290873.000000 0 0 1
28.658545 23.895980 32.899111 49.746171 0.695024 0.848193 0.116878 -0.040951 -713506.000000 0 0 1
28.358545 23.053620 -34.013040 49.925578 0.682578 2.320299 0.096609 -0.042573 -208383.000000 0 0 1
27.495245 23.695370 -33.024881 49.072414 0.711304 2.309030 0.101767 -0.039623 1130360.000000 0 0 1
26.142845 23.966510 -33.387491 48.708998 0.741994 2.326015 0.104099 -0.041302 -31300.700000 0 0 1
25.307145 22.670820 -33.502191 47.715977 0.730505 2.349162 0.093505 -0.048784 -1235700.000000 0 0 1
25.157245 21.977320 -32.350421 46.502036 0.718035 2.340159 0.080902 -0.055080 219530.000000 0 0 1
24.483245 20.766820 -32.615391 45.765203 0.703451 2.364090 0.077253 -0.044680 -159868.000000 0 0 1
24.456245 19.792520 -31.415981 44.461395 0.680388 2.355464 0.072347 -0.046961 -528193.000000 0 0 1
23.548145 20.124320 -30.412601 43.410018 0.707160 2.347020 0.057092 -0.032331 -245255.000000 0 0 1
23.649945 19.186320 -29.349781 42.294733 0.681571 2.337736 0.063523 -0.027858 -375694.000000 0 0 1
22.627345 19.386520 -28.239831 41.052673 0.708414 2.329378 0.080534 -0.028301 -439664.000000 0 0 1
22.619645 18.391220 -27.185101 39.861197 0.682656 2.321282 0.086799 -0.021073 -255502.000000 0 0 1
23.589345 18.664020 -26.215851 39.900798 0.669355 2.287663 0.073246 -0.007308 -367938.000000 0 0 1
23.419145 17.985320 -24.855301 38.596814 0.654906 2.270476 0.077031 0.000356 -263858.000000 0 0 1
23.786245 16.642720 -24.853401 38.215928 0.610510 2.278830 0.081684 -0.022501 215754.000000 0 0 1
23.555345 16.045520 -23.564501 36.981059 0.597986 2.261662 0.082753 -0.010369 -362670.000000 0 0 1
24.583945 14.935020 -23.413401 37.089251 0.545924 2.253988 0.105961 -0.024946 -156047.000000 0 0 1
25.924745 15.378720 -23.226201 38.053303 0.535409 2.227311 0.130709 -0.032548 1022890.000000 0 0 1
26.894245 14.296320 -23.088301 38.219822 0.488588 2.219423 0.127763 -0.037464 706359.000000 0 0 1
26.793845 13.456420 -21.808701 37.075663 0.465423 2.199654 0.111437 -0.031733 -97743.900000 0 0 1
25.704245 12.508920 -21.798701 35.949474 0.452909 2.222285 0.102221 -0.024137 361100.000000 0 0 1
25.401145 12.150920 -20.459101 34.805716 0.446187 2.199144 0.087441 -0.037500 415239.000000 0 0 1
23.902145 11.702920 -20.454101 33.565475 0.455308 2.226074 0.075898 -0.029159 828338.000000 0 0 1
23.010845 12.817320 -20.619901 33.450904 0.508211 2.234988 0.101933 -0.029883 420692.000000 0 0 1
21.694245 12.361420 -20.955001 32.596887 0.517919 2.269013 0.088748 -0.031333 467427.000000 0 0 1
20.668445 13.511320 -20.862501 32.326218 0.578984 2.272309 0.093657 -0.028794 -381371.000000 0 0 1
20.914345 14.506520 -21.866001 33.555491 0.606428 2.280537 0.070394 -0.012888 479098.000000 0 0 1
20.014845 15.619620 -21.898601 33.527828 0.662676 2.282529 0.060779 -0.008862 1415510.000000 0 0 1
18.577045 15.491620 -22.560901 33.077049 0.695080 2.321387 0.053295 0.001519 852920.000000 0 0 1
17.627045 14.729320 -21.852301 31.704710 0.696080 2.331242 0.061317 -0.007751 45659.500000 0 0 1
16.556945 14.615820 -22.790401 31.735737 0.723209 2.371909 0.077594 -0.020263 142718.000000 0 0 1
15.473045 13.573120 -22.377101 30.403608 0.720081 2.397941 0.048805 -0.013300 558389.000000 0 0 1
14.270045 13.875620 -23.061501 30.463090 0.771385 2.429553 0.049315 -0.011889 -22545.600000 0 0 1
13.103145 13.351220 -22.459701 29.229876 0.794775 2.447105 0.062712 -0.015223 66992.200000 0 0 1
11.800545 13.711820 -23.183401 29.406410 0.860174 2.478966 0.058763 -0.013173 -271750.000000 0 0 1
11.656445 15.107120 -23.232801 30.064278 0.913623 2.453992 0.051738 -0.012567 84001.000000 0 0 1
11.109145 15.527220 -24.474601 31.040518 0.949768 2.479118 0.054526 -0.008906 -709938.000000 0 0 1
10.981945 17.127620 -24.564201 31.896057 1.000644 2.449846 0.051630 -0.006628 272852.000000 0 0 1
12.157745 17.948320 -24.623201 32.806326 0.975417 2.419709 0.064407 -0.010085 497328.000000 0 0 1
13.157045 17.623420 -25.605811 33.754264 0.929497 2.431950 0.061702 -0.019056 120816.000000 0 0 1
12.827645 17.640120 -27.131361 34.811393 0.942057 2.464475 0.071623 -0.024324 47122.800000 0 0 1
13.994945 17.558920 -27.962571 35.861951 0.897870 2.465028 0.069241 -0.023966 312133.000000 0 0 1
13.682345 17.266820 -29.303661 36.661345 0.900703 2.496937 0.069858 -0.024212 -117451.000000 0 0 1
14.761545 17.578720 -30.380981 38.077797 0.872289 2.494543 0.077735 -0.033063 -70532.000000 0 0 1
15.920645 16.803020 -30.297721 38.128209 0.812356 2.489190 0.063170 -0.025202 -903957.000000 0 0 1
16.736345 17.122120 -31.328071 39.429941 0.796791 2.489021 0.062964 -0.022754 -481808.000000 0 0 1
18.067045 16.337820 -31.532331 39.845080 0.735179 2.483848 0.060642 -0.019764 -366105.000000 0 0 1
19.006245 16.649920 -30.560131 39.653232 0.719409 2.450711 0.067589 -0.023565 30229.100000 0 0 1
20.183645 15.870120 -30.770731 40.075905 0.666323 2.446214 0.060577 -0.019356 590334.000000 0 0 1
21.418045 16.559520 -31.410431 41.467644 0.658158 2.430223 0.058301 -0.022371 -126245.000000 0 0 1
21.302545 16.851820 -32.759181 42.555214 0.669273 2.449331 0.054276 -0.022221 169025.000000 0 0 1
22.546645 17.373220 -33.149531 43.692921 0.656521 2.432101 0.064921 -0.022281 -189124.000000 0 0 1
22.542045 17.737820 33.575652 44.159919 0.666688 0.706991 0.042222 -0.010681 -267871.000000 0 0 1
23.465545 18.733720 33.237139 44.791645 0.673734 0.734690 0.066669 -0.017905 -213243.000000 0 0 1
23.426545 19.190420 31.863282 43.958434 0.686324 0.759979 0.084308 -0.017775 -128153.000000 0 0 1
24.487945 20.291520 31.558712 44.803544 0.691958 0.789247 0.091712 -0.021157 -593753.000000 0 0 1
25.773645 19.791820 31.670322 45.376274 0.654865 0.798267 0.073506 -0.024103 -1084070.000000 0 0 1
26.671545 20.859320 31.448202 46.211167 0.663719 0.822307 0.082272 -0.036022 241921.000000 0 0 1
28.152845 20.396420 31.329212 46.798677 0.626973 0.837333 0.091064 -0.032969 298662.000000 0 0 1
28.704245 19.839220 32.486370 47.674863 0.604768 0.821102 0.075214 -0.033370 -1097070.000000 0 0 1
30.026245 19.484120 32.354412 48.249500 0.575604 0.835827 0.055989 -0.025480 -778676.000000 0 0 1
30.686245 18.832620 33.601346 49.247981 0.550443 0.819908 0.046780 -0.023279 -193626.000000 0 0 1
30.840345 19.645520 -33.479221 49.577531 0.567187 2.312154 0.040875 -0.029710 76934.000000 0 0 1
29.737945 19.719520 -32.609471 48.338209 0.585536 2.311233 0.053552 -0.036956 -316458.000000 0 0 1
30.264345 20.104420 -31.247691 47.922192 0.586358 2.281082 0.050799 -0.035351 162623.000000 0 0 1
31.047945 19.101220 -30.594261 47.590338 0.551533 2.269032 0.040370 -0.032938 164511.000000 0 0 1
31.614045 19.579120 -29.381101 47.392393 0.554502 2.239480 0.032641 -0.029825 -1147.340000 0 0 1
33.027645 19.033620 -29.050671 47.927503 0.522806 2.221992 0.028423 -0.020075 240290.000000 0 0 1
33.931145 19.549620 -30.005991 49.334265 0.522702 2.224610 0.000378 -0.016977 -711437.000000 0 0 1
35.236345 19.671020 -29.550341 50.017714 0.509162 2.202843 -0.003719 -0.002014 -56788.100000 0 0 1
36.218045 20.498820 -30.445861 51.564512 0.515032 2.202403 0.003569 0.000332 495816.000000 0 0 1
-36.458426 19.886620 -31.591931 52.179925 -0.499351 2.221118 0.002399 -0.002537 166048.000000 0 0 1
-35.199926 20.499220 -31.785221 51.667718 -0.527352 2.233417 0.007312 -0.006744 -415064.000000 0 0 1
-34.292826 19.860820 -32.789171 51.435200 -0.524950 2.262026 0.008979 -0.007075 -484418.000000 0 0 1
-33.607026 18.719720 -32.311771 50.238538 -0.508215 2.269423 0.036437 -0.002694 483229.000000 0 0 1
-32.542526 18.337920 -33.189901 49.968639 -0.513154 2.297239 0.038502 -0.008084 263286.000000 0 0 1
-32.075826 16.921520 -32.837521 48.923402 -0.485442 2.306626 0.035733 0.002694 -460138.000000 0 0 1
-32.994526 15.923420 -33.107071 49.378864 -0.449637 2.305639 0.038428 0.001950 -660130.000000 0 0 1
-32.408026 14.669220 -33.202171 48.660562 -0.425049 2.321730 0.027588 0.014161 203119.000000 0 0 1
-33.406426 13.516120 -33.513791 49.212285 -0.384463 2.319930 0.040516 0.010268 -63589.300000 0 0 1
-32.739626 12.303220 -33.424991 48.378532 -0.359463 2.333537 0.054482 -0.004292 263986.000000 0 0 1
-33.661126 11.192120 -33.534881 48.815194 -0.320995 2.328116 0.062381 -0.009142 498324.000000 0 0 1
-33.025326 9.758420 -33.586291 48.103408 -0.287308 2.343691 0.063542 -0.006650 96948.900000 0 0 1
-32.231026 9.481020 33.487855 47.435906 -0.286089 0.787019 0.046523 -0.007819 46682.400000 0 0 1
-32.429226 8.204420 32.955940 46.958079 -0.247795 0.792852 0.071027 -0.022757 -681683.000000 0 0 1
-31.294326 7.713920 32.105132 45.492624 -0.241678 0.787355 0.085048 -0.021426 -1565730.000000 0 0 1
-30.151626 7.355020 32.748844 45.118773 -0.239262 0.758547 0.066513 -0.000698 -963424.000000 0 0 1
-29.184426 6.869420 31.824492 43.723197 -0.231172 0.755596 0.073617 -0.014786 -33847.700000 0 0 1
20.806145 -4.720324 -31.505801 38.049870 -0.223095 2.546352 0.016672 -0.040488 460229.000000 0 0 1
22.097145 -4.804524 -32.146241 39.303283 -0.214095 2.528552 0.030065 -0.038020 998273.000000 0 0 1
22.990245 -3.775524 -31.688251 39.331300 -0.162770 2.507611 0.032483 -0.033183 247750.000000 0 0 1
22.843045 -2.398624 -32.280811 39.618289 -0.104621 2.523173 0.026773 -0.030292 -858344.000000 0 0 1
23.796045 -1.496424 -31.833491 39.772631 -0.062803 2.498737 0.032327 -0.021725 -90289.600000 0 0 1
23.544945 -0.250324 -32.362061 40.021620 -0.010631 2.512590 0.035417 -0.021080 -355682.000000 0 0 1
24.355245 0.774876 -31.586941 39.893774 0.031805 2.484508 0.045742 -0.015727 -45551.300000 0 0 1
25.727945 0.716776 -31.925531 41.008297 0.027853 2.463091 0.055363 -0.020814 -227079.000000 0 0 1
26.435845 1.808876 -31.415491 41.098163 0.068319 2.440909 0.054522 -0.015739 -729500.000000 0 0 1
27.933945 1.930776 -31.635161 42.247090 0.069010 2.417065 0.052311 -0.018495 -378179.000000 0 0 1
28.430245 2.258576 -32.942131 43.572514 0.079276 2.428023 0.070246 -0.022785 100962.000000 0 0 1
28.355045 1.193576 -33.900301 44.211578 0.042069 2.444597 0.063496 -0.022815 250085.000000 0 0 1
29.352145 1.539676 33.115808 44.278389 0.052407 0.725903 0.054656 -0.031385 685018.000000 0 0 1
28.871845 2.575076 32.258616 43.368568 0.088955 0.732022 0.057641 -0.021279 265903.000000 0 0 1
29.115945 3.921076 32.597995 43.883281 0.133866 0.733503 0.058043 -0.017309 -129131.000000 0 0 1
28.491045 4.862376 31.546132 42.784819 0.169035 0.741701 0.071569 -0.018988 -48580.000000 0 0 1
28.309645 6.253676 31.891092 43.099724 0.217411 0.737819 0.060175 -0.021450 132854.000000 0 0 1
27.690145 7.012376 30.859542 42.050313 0.248030 0.746792 0.058899 -0.020549 -21701.000000 0 0 1
27.935845 8.509476 31.113682 42.671815 0.295679 0.753733 0.048274 -0.014158 -132042.000000 0 0 1
29.304545 8.769176 30.977992 43.534937 0.290762 0.779071 0.040753 -0.016488 -508222.000000 0 0 1
29.673845 10.122576 31.054582 44.129249 0.328749 0.790178 0.042676 -0.015791 438961.000000 0 0 1
31.042245 10.464276 30.399282 44.690473 0.325135 0.822736 0.049213 -0.006876 813064.000000 0 0 1
32.215345 10.007676 31.104852 45.885660 0.301198 0.825925 0.058311 -0.004957 -90744.000000 0 0 1
33.416445 10.351576 30.544662 46.441256 0.300400 0.853028 0.069606 -0.010560 -774961.000000 0 0 1
33.954545 11.789176 30.650052 47.236865 0.334182 0.864713 0.072847 -0.006919 -685573.000000 0 0 1
34.383345 12.116376 31.969182 48.487623 0.338803 0.850874 0.063659 -0.009750 301837.000000 0 0 1
34.889145 13.433776 32.064522 49.252942 0.367545 0.861872 0.062188 -0.008356 791283.000000 0 0 1
33.711245 14.491176 32.190402 48.812541 0.405981 0.850683 0.060328 -0.007368 249302.000000 0 0 1
33.005045 14.688376 31.008352 47.608815 0.418717 0.861480 0.061377 -0.011987 -204439.000000 0 0 1
32.055545 15.705976 31.159112 47.382759 0.455584 0.853162 0.056814 -0.018300 737480.000000 0 0 1
30.575545 15.214576 31.380932 46.380062 0.461731 0.827656 0.058033 -0.009445 580821.000000 0 0 1
29.868645 14.698676 30.252252 44.982060 0.457316 0.833160 0.051657 -0.009867 135394.000000 0 0 1
28.737945 14.009576 30.767012 44.370561 0.453593 0.804585 0.042484 -0.004952 45087.800000 0 0 1
27.791145 13.472776 29.651342 42.814314 0.451403 0.805769 0.031793 -0.005433 127639.000000 0 0 1
28.333945 12.578276 28.692822 42.241017 0.417794 0.824036 0.038823 -0.013371 -199607.000000 0 0 1
27.306945 12.247776 27.795642 40.844522 0.421624 0.822320 0.028700 -0.019107 319145.000000 0 0 1
26.931145 10.713776 27.623172 40.038871 0.378627 0.809433 0.026646 -0.007965 -279703.000000 0 0 1
28.036945 10.016576 27.108392 40.264960 0.343131 0.832201 0.038044 -0.015573 -120650.000000 0 0 1
27.775145 8.645576 26.917112 39.632506 0.301764 0.824168 0.041934 -0.018326 106309.000000 0 0 1
28.975945 7.811576 26.384172 39.959362 0.263328 0.849611 0.063773 -0.025618 175197.000000 0 0 1
29.239545 7.966676 25.005732 39.290018 0.266005 0.880923 0.064523 -0.023990 160945.000000 0 0 1
30.341945 7.102676 24.730402 39.782840 0.229947 0.899968 0.065846 -0.020703 221592.000000 0 0 1
30.903645 7.290276 23.307542 39.388131 0.231668 0.937580 0.084001 -0.019053 -252594.000000 0 0 1
31.504045 8.555976 23.128792 40.008131 0.265187 0.954395 0.100292 -0.027958 -144851.000000 0 0 1
30.660445 9.675576 22.880292 39.461214 0.305681 0.952292 0.109073 -0.032523 -433724.000000 0 0 1
30.319445 9.838976 21.377892 38.380834 0.313789 0.980034 0.087654 -0.015140 -48651.900000 0 0 1
31.439945 9.891976 20.535892 38.833544 0.304825 1.013589 0.107462 -0.030124 163121.000000 0 0 1
30.924345 10.001776 19.186492 37.742179 0.312809 1.037521 0.090418 -0.031818 -514211.000000 0 0 1
31.858845 10.792676 18.272492 38.279914 0.326631 1.073173 0.118210 -0.056768 965682.000000 0 0 1
33.161145 10.241076 17.954192 39.075493 0.299536 1.093393 0.122548 -0.050026 1027560.000000 0 0 1
34.080145 10.431776 19.000792 40.389458 0.297040 1.081008 0.140861 -0.046164 -760808.000000 0 0 1
35.494045 9.871076 18.699692 41.315177 0.271251 1.101105 0.166713 -0.049536 -41515.700000 0 0 1
35.486945 8.496976 18.533092 40.926731 0.235015 1.100853 0.144529 -0.035659 -58360.500000 0 0 1
36.535645 8.134876 17.690192 41.400150 0.219082 1.129294 0.153127 -0.037298 -648828.000000 0 0 1
-36.607426 6.623076 17.332292 41.041163 -0.178986 1.134799 0.144547 -0.040366 -691679.000000 0 0 1
35.518045 6.229176 16.652392 39.719470 0.173615 1.138177 0.105119 -0.039275 -145175.000000 0 0 1
35.566445 4.965176 16.069092 39.342606 0.138706 1.150052 0.107365 -0.035027 -520396.000000 0 0 1
34.294445 4.111976 16.140192 38.125098 0.119332 1.133658 0.074919 -0.025330 -331011.000000 0 0 1
34.163545 3.379876 17.327592 38.455387 0.098611 1.103371 0.078577 -0.015139 716766.000000 0 0 1
32.893845 2.709476 17.388292 37.305482 0.082185 1.085913 0.060105 -0.009233 569914.000000 0 0 1
32.773245 1.781876 18.604692 37.727910 0.054316 1.055115 0.044545 -0.010777 138170.000000 0 0 1
33.522045 0.537476 18.552392 38.317197 0.016032 1.065371 0.043284 -0.010818 187869.000000 0 0 1
33.289145 -0.246424 19.717692 38.691281 -0.007402 1.036058 0.040043 -0.002941 -83035.600000 0 0 1
33.883545 -1.635224 19.762992 39.259959 -0.048223 1.043281 0.045660 0.005411 -58609.000000 0 0 1
33.592045 -2.451224 20.912992 39.645771 -0.072841 1.015146 0.048743 0.014218 -113163.000000 0 0 1
34.133645 -3.732124 20.794292 40.142708 -0.108906 1.026274 0.046112 0.007246 -14019.400000 0 0 1
33.693245 -4.565924 22.009592 40.503142 -0.134694 0.996309 0.041385 0.020583 37106.500000 0 0 1
34.075345 -3.981124 23.239172 41.437152 -0.116306 0.975409 0.052994 0.005000 160837.000000 0 0 1
33.561645 -4.683124 24.350252 41.728293 -0.138643 0.947712 0.056081 0.004183 93014.200000 0 0 1
33.890945 -3.992524 25.707712 42.724967 -0.117265 0.925166 0.047940 -0.004648 239110.000000 0 0 1
33.231045 -4.573224 26.816842 42.946009 -0.136760 0.896393 0.059007 -0.005423 2177.320000 0 0 1
33.659845 -3.902124 27.970172 43.937936 -0.115413 0.880736 0.062442 -0.009434 69078.200000 0 0 1
32.896645 -4.363424 29.242012 44.230351 -0.131871 0.848472 0.064985 -0.017442 291645.000000 0 0 1
33.070145 -5.747924 29.509362 44.693126 -0.172091 0.849623 0.071366 -0.024908 149500.000000 0 0 1
32.026845 -6.122624 30.385662 44.570099 -0.188892 0.820644 0.070287 -0.032435 -117317.000000 0 0 1
32.059045 -7.628024 30.810672 45.113929 -0.233593 0.818999 0.072036 -0.028841 14154.000000 0 0 1
33.100645 -7.926724 31.717282 46.523882 -0.235047 0.820655 0.075608 -0.034331 -36951.600000 0 0 1
33.824645 -9.084224 31.319452 46.984442 -0.262377 0.841169 0.075971 -0.029491 944002.000000 0 0 1
35.238345 -9.232424 31.992042 48.481639 -0.256240 0.850138 0.093978 -0.031547 880107.000000 0 0 1
35.096845 -9.620724 33.328807 49.347302 -0.267547 0.829299 0.071733 -0.029566 -531167.000000 0 0 1
36.331145 -9.788824 33.929231 50.665233 -0.263184 0.837025 0.046079 -0.021598 -432070.000000 0 0 1
36.111045 -10.196024 -32.771241 49.818879 -0.275188 2.288701 0.050397 -0.024212 54533.300000 0 0 1
35.530045 -9.150324 -31.968131 48.662860 -0.252060 2.287537 0.052129 -0.024301 354052.000000 0 0 1
36.366345 -8.015824 -31.823371 48.984604 -0.216950 2.277934 0.054229 -0.017115 -159765.000000 0 0 1
35.738745 -6.866224 -31.075821 47.855089 -0.189810 2.277556 0.064551 -0.022841 -318640.000000 0 0 1
35.822445 -7.042024 -29.677061 47.048545 -0.194106 2.253348 0.048827 -0.012692 10412.100000 0 0 1
35.207245 -5.956824 -29.071341 46.045377 -0.167606 2.254106 0.054077 -0.018692 -251690.000000 0 0 1
35.587545 -5.790524 -27.580671 45.394900 -0.161299 2.223796 0.057874 -0.011838 1202850.000000 0 0 1
-36.280226 -5.470824 -27.456651 45.826329 0.149666 2.213230 0.058851 -0.014408 820822.000000 0 0 1
-36.000726 -4.920824 -26.215391 44.805284 0.135845 2.195795 0.064526 -0.018172 -101697.000000 0 0 1
-34.523326 -4.879524 -25.806851 43.378144 0.140410 2.207972 0.071398 -0.018901 -541960.000000 0 0 1
-34.387926 -4.181824 -24.599401 42.487029 0.121013 2.188281 0.083349 -0.023138 1002680.000000 0 0 1
-33.026826 -4.179524 -24.109201 41.103445 0.125880 2.197588 0.097939 -0.020758 1428900.000000 0 0 1
-31.927826 -3.293424 -24.763901 40.539900 0.102789 2.227933 0.098651 -0.019025 -142959.000000 0 0 1
-31.430926 -3.802424 -25.961921 40.943655 0.120392 2.257626 0.091094 -0.014728 663248.000000 0 0 1
-30.355226 -2.985424 -26.506551 40.409773 0.098034 2.286229 0.089946 -0.018164 901668.000000 0 0 1
-29.746826 -3.548724 -27.769371 40.848562 0.118736 2.318304 0.091322 -0.013943 -117946.000000 0 0 1
-30.746826 -3.716024 -28.733431 42.246730 0.120275 2.318742 0.100434 -0.011692 162459.000000 0 0 1
-30.200726 -4.418724 -29.860051 42.699316 0.145281 2.345228 0.087627 -0.015038 506536.000000 0 0 1
-31.348026 -4.606824 -30.948821 44.291659 0.145913 2.344446 0.067913 -0.008744 1157310.000000 0 0 1
-32.479126 -5.470024 -30.712931 45.034419 0.166851 2.321274 0.064536 -0.009610 687102.000000 0 0 1
-33.417726 -4.979124 -29.786091 45.041617 0.147908 2.293349 0.079646 -0.016129 -426290.000000 0 0 1
-34.484026 -4.010824 -30.367741 46.124120 0.115789 2.289476 0.116570 -0.023873 -679214.000000 0 0 1
-33.997026 -2.801924 -30.930661 46.047305 0.082231 2.307318 0.131868 -0.026929 -50523.200000 0 0 1
-33.483726 -1.840524 -30.012271 45.003154 0.054912 2.300827 0.132713 -0.017375 3491.720000 0 0 1
-33.058626 -0.483824 -30.656521 45.088015 0.014634 2.318458 0.135509 -0.020501 89818.500000 0 0 1
-34.127826 0.185476 -31.284291 46.297406 -0.005435 2.312743 0.147467 -0.019699 46685.200000 0 0 1
-33.664726 1.396576 -31.875021 46.381906 -0.041461 2.328465 0.146222 -0.017651 359321.000000 0 0 1
-34.826226 2.312376 -32.364871 47.599348 -0.066300 2.318482 0.124735 -0.023386 81577.900000 0 0 1
-35.394126 1.795376 -33.523591 48.783180 -0.050682 2.328418 0.122665 -0.033243 324911.000000 0 0 1
36.508845 2.180576 -33.539361 49.623980 0.059656 2.312941 0.103760 -0.032297 460886.000000 0 0 1
35.611345 1.525276 33.611925 48.992406 0.042805 0.814731 0.078268 -0.033392 -26280.700000 0 0 1
35.755045 1.970076 32.275899 48.208278 0.055044 0.837248 0.074149 -0.027457 304108.000000 0 0 1
-36.567726 1.180876 31.576252 48.328591 -0.032282 0.858774 0.076291 -0.022009 15537.100000 0 0 1
-36.428526 1.361076 30.019822 47.223720 -0.037346 0.881889 0.077647 -0.023395 -152357.000000 0 0 1
-35.849726 2.609576 29.768302 46.670810 -0.072664 0.879112 0.082295 -0.024758 -1308.000000 0 0 1
-35.532526 2.706476 28.441352 45.593814 -0.076022 0.897203 0.055381 -0.010236 -180096.000000 0 0 1
-34.851526 4.051776 28.157642 44.987760 -0.115739 0.894517 0.042999 -0.004249 -164720.000000 0 0 1
-34.330326 4.124976 26.836842 43.769884 -0.119582 0.910774 0.056606 -0.001353 250049.000000 0 0 1
-33.658826 5.350576 26.621952 43.246659 -0.157646 0.907670 0.054112 -0.003877 -303357.000000 0 0 1
-32.971126 5.484676 25.269662 41.901463 -0.164838 0.923448 0.059532 -0.009232 322995.000000 0 0 1
-31.720726 4.837276 25.026832 40.693316 -0.151330 0.908397 0.045680 -0.001720 782003.000000 0 0 1
-31.067726 5.041576 23.771342 39.442335 -0.160875 0.923934 0.049666 -0.003003 262878.000000 0 0 1
-31.815926 4.546476 22.510292 39.238206 -0.141938 0.959801 0.055173 -0.014956 -7410.040000 0 0 1
-31.895626 3.150776 22.356392 39.077699 -0.098465 0.961731 0.061498 -0.011270 -352491.000000 0 0 1
-32.556426 2.935076 21.160892 38.939939 -0.089910 0.996286 0.095291 -0.018379 -514135.000000 0 0 1
-32.338726 1.502376 20.690192 38.420494 -0.046424 1.002117 0.104828 -0.022946 689841.000000 0 0 1
-31.013726 1.167376 20.258692 37.062495 -0.037623 0.992487 0.128277 -0.024648 388871.000000 0 0 1
-30.765226 1.407676 18.890992 36.129631 -0.045724 1.020585 0.135729 -0.030065 155753.000000 0 0 1
-29.323626 1.131976 18.384792 34.628846 -0.038584 1.011123 0.134741 -0.035909 92763.800000 0 0 1
-28.978126 -0.267424 18.406392 34.330723 0.009228 1.004928 0.162475 -0.035911 257946.000000 0 0 1
-27.705026 -0.607424 17.869492 32.973567 0.021921 0.998060 0.169219 -0.035949 157928.000000 0 0 1
-27.562226 -0.569524 16.341492 32.047543 0.020660 1.035711 0.189071 -0.030219 -465598.000000 0 0 1
-27.234126 0.694276 15.853892 31.520240 -0.025487 1.043759 0.174162 -0.031847 228297.000000 0 0 1
-27.418226 0.750176 14.460492 31.006897 -0.027354 1.085621 0.154279 -0.026466 -74111.900000 0 0 1
-27.047026 2.164076 13.901092 30.487131 -0.079842 1.097339 0.149415 -0.024696 -24397.100000 0 0 1
-25.681526 2.285576 13.578392 29.139961 -0.088763 1.086064 0.127235 -0.034647 1406.910000 0 0 1
-25.396226 3.560776 13.029992 28.765050 -0.139301 1.100691 0.114537 -0.028721 16235.700000 0 0 1
-23.896326 3.685576 12.695792 27.309357 -0.153026 1.087288 0.093317 -0.029096 -183108.000000 0 0 1
-23.023626 3.621076 13.801192 27.086388 -0.155999 1.036164 0.051848 -0.018724 499107.000000 0 0 1
-21.704426 3.999776 13.416592 25.827993 -0.182239 1.024578 0.053042 -0.025943 255137.000000 0 0 1
-20.894226 4.579076 14.586592 25.890254 -0.215744 0.972300 0.032828 -0.024074 -428090.000000 0 0 1
-21.320126 5.900376 14.923392 26.684637 -0.269994 0.977315 0.032496 -0.018403 657800.000000 0 0 1
-20.568926 6.372976 16.051392 26.857824 -0.300455 0.930238 0.023867 -0.010420 6850.090000 0 0 1
-20.899326 7.794276 16.471092 27.727774 -0.356967 0.934739 0.033477 -0.010015 -257396.000000 0 0 1
-20.374326 8.813076 15.588892 27.125579 -0.408255 0.958567 0.052102 -0.013897 620280.000000 0 0 1
-20.675626 10.149576 15.904292 27.990032 -0.456338 0.966464 0.048953 -0.001483 -152208.000000 0 0 1
-20.082726 10.792276 17.240892 28.583867 -0.493111 0.923329 0.065975 -0.001942 85205.700000 0 0 1
-20.785026 10.434276 18.451992 29.687833 -0.465254 0.900097 0.071428 -0.009062 592793.000000 0 0 1
-20.248326 10.980676 19.648992 30.276275 -0.496913 0.864541 0.071305 -0.004615 -358883.000000 0 0 1
-12.376855 -33.510168 -20.360401 41.117683 1.216992 2.088831 0.084719 -0.040791 13075.100000 0 0 1
-13.408455 -33.836368 -19.452601 41.268513 1.193507 2.061636 0.102782 -0.035760 238539.000000 0 0 1
-14.567955 -33.025768 -19.666401 41.105888 1.155361 2.069665 0.088425 -0.055496 118460.000000 0 0 1
-15.775155 -33.652968 -18.962001 41.724516 1.132452 2.042559 0.081466 -0.042333 -1297200.000000 0 0 1
-16.468055 33.630276 -19.705601 42.314336 -1.115439 2.055217 0.076016 -0.042449 500532.000000 0 0 1
-17.187255 32.597776 -18.937301 41.432332 -1.085585 2.045490 0.085690 -0.037792 951577.000000 0 0 1
-18.557055 33.075276 -18.362301 42.136828 -1.059505 2.021699 0.091234 -0.042013 -401757.000000 0 0 1
-18.393155 -34.116668 -17.441101 42.502320 1.076341 1.993641 0.087126 -0.041417 -64626.100000 0 0 1
-19.609255 -33.748368 -16.831301 42.506093 1.044432 1.977924 0.062988 -0.036564 -184092.000000 0 0 1
-19.956755 33.903676 -15.513901 42.289626 -1.038778 1.946416 0.069018 -0.031593 -519078.000000 0 0 1
-20.080255 32.537676 -15.544901 41.274217 -1.017870 1.956947 0.077183 -0.040546 111445.000000 0 0 1
-20.487155 32.050076 -14.297701 40.636870 -1.002034 1.930333 0.075293 -0.032107 -440464.000000 0 0 1
-20.632355 30.514976 -14.185201 39.472494 -0.976265 1.938388 0.077976 -0.029043 1093360.000000 0 0 1
-19.407055 29.754276 -13.952701 38.165804 -0.992845 1.945053 0.090536 -0.031078 1064350.000000 0 0 1
-19.564155 28.363676 -14.044701 37.208977 -0.966975 1.957842 0.090023 -0.027944 514359.000000 0 0 1
-18.294455 27.597576 -13.511001 35.761159 -0.985405 1.958229 0.083939 -0.025491 1332370.000000 0 0 1
-17.115155 27.723076 -14.319101 35.588399 -1.017709 1.984882 0.103596 -0.028362 367235.000000 0 0 1
-16.029255 27.019576 -13.757101 34.296536 -1.035358 1.983538 0.106261 -0.031278 770981.000000 0 0 1
-14.623855 27.347576 -14.367701 34.178618 -1.079744 2.004651 0.097177 -0.033661 528838.000000 0 0 1
-14.602255 27.317376 -15.784501 34.765146 -1.079899 2.042082 0.096651 -0.033697 -114766.000000 0 0 1
-13.474255 27.940976 -16.349401 35.065034 -1.121457 2.055854 0.106775 -0.031400 -222878.000000 0 0 1
-13.585055 27.930276 -17.862801 35.829230 -1.118094 2.092726 0.121960 -0.048950 -37722.700000 0 0 1
-13.368655 26.634376 -18.361101 35.003442 -1.105604 2.122984 0.095340 -0.037189 249649.000000 0 0 1
-13.756155 26.550876 -19.729501 35.825048 -1.092769 2.154021 0.082958 -0.041904 436912.000000 0 0 1
-12.798655 25.642176 -20.595401 35.291604 -1.107849 2.193924 0.061057 -0.027278 -156485.000000 0 0 1
-11.603155 26.158176 -21.072001 35.537482 -1.153297 2.205516 0.049544 -0.023602 -797283.000000 0 0 1
-10.746955 25.093176 -21.417601 34.696948 -1.166149 2.236072 0.064869 -0.022935 -128792.000000 0 0 1
-9.575955 25.646176 -22.219801 35.258259 -1.213440 2.252609 0.072095 -0.020891 -374415.000000 0 0 1
-10.060455 26.127176 -23.448601 36.519570 -1.203238 2.268009 0.065977 -0.019265 389040.000000 0 0 1
-8.984555 26.383476 -24.348001 37.008583 -1.242576 2.288825 0.051092 -0.023437 63369.900000 0 0 1
-9.472755 27.157376 -25.539281 38.464413 -1.235182 2.296914 0.054878 -0.024922 -101966.000000 0 0 1
-10.234555 26.356476 -26.398141 38.681673 -1.200406 2.321900 0.051093 -0.018399 -378466.000000 0 0 1
-10.661255 27.106876 -27.540201 40.086254 -1.196075 2.328181 0.070652 -0.016518 -223232.000000 0 0 1
-11.755755 26.389276 -28.318381 40.453954 -1.151712 2.346215 0.053063 -0.012549 -264258.000000 0 0 1
-12.052255 27.040776 -29.479511 41.779206 -1.151518 2.354069 0.057449 -0.007739 -746188.000000 0 0 1
-13.294455 26.640776 -29.951871 42.232548 -1.107928 2.359178 0.039836 0.000864 -483731.000000 0 0 1
-13.675955 27.094676 -31.412411 43.679432 -1.103358 2.373386 0.032466 0.003914 166017.000000 0 0 1
-12.906355 26.410376 -32.439751 43.776928 -1.116242 2.405390 0.047604 -0.000036 259677.000000 0 0 1
-12.845855 24.977876 -32.547021 42.990916 -1.095783 2.429609 0.038646 -0.003328 -52931.900000 0 0 1
-11.845555 24.369776 -33.555121 43.129449 -1.118350 2.462288 0.030441 -0.003953 -123489.000000 0 0 1
-12.402855 24.365376 33.458075 43.208161 -1.099946 0.685115 0.028860 0.004146 95442.600000 0 0 1
-11.761455 23.368376 32.640221 41.830573 -1.104507 0.675658 0.033524 0.003350 272247.000000 0 0 1
-12.373855 23.474676 31.186222 40.948176 -1.085693 0.705014 0.035235 0.014267 -754371.000000 0 0 1
-13.713355 23.176476 31.078762 41.122921 -1.036507 0.713993 0.054630 -0.000578 -1150280.000000 0 0 1
-14.164055 23.156176 29.776442 40.292251 -1.021836 0.739194 0.061658 0.002046 -365588.000000 0 0 1
-15.504855 22.438776 29.695342 40.320126 -0.966146 0.742931 0.050426 -0.003352 -335996.000000 0 0 1
-15.334955 21.045576 29.842902 39.606514 -0.941097 0.717450 0.053910 -0.009577 -1010010.000000 0 0 1
-16.518855 20.366276 29.858572 39.739050 -0.889330 0.720667 0.052090 -0.015514 -1049200.000000 0 0 1
-16.308255 18.853176 30.084942 39.070515 -0.857650 0.691929 0.055607 -0.022963 -56911.500000 0 0 1
-16.022755 18.065776 28.888022 37.651278 -0.845259 0.696251 0.056914 -0.021879 174844.000000 0 0 1
-15.596755 16.776076 29.205992 37.117186 -0.821811 0.665094 0.051358 -0.035054 -15216.900000 0 0 1
-15.043855 15.981276 27.937762 35.527979 -0.815604 0.665903 0.047156 -0.032204 284921.000000 0 0 1
-13.982755 16.650376 27.291322 34.893677 -0.872262 0.672723 0.054145 -0.031442 -79827.900000 0 0 1
-13.402655 15.787276 26.301742 33.476124 -0.866910 0.666991 0.047331 -0.025403 864729.000000 0 0 1
-12.169455 16.346276 25.476322 32.624214 -0.930838 0.674687 0.046551 -0.018977 628092.000000 0 0 1
-12.371255 17.349676 24.506612 32.475117 -0.951363 0.715710 0.043479 -0.017727 -414006.000000 0 0 1
-12.908355 18.585676 24.907292 33.651541 -0.963749 0.737498 0.030639 -0.014790 205115.000000 0 0 1
-11.995855 19.517476 25.802912 34.505401 -1.019695 0.726064 0.022909 -0.013237 283592.000000 0 0 1
-11.629655 19.123876 27.107892 35.154080 -1.024426 0.690203 0.046368 -0.018630 -420390.000000 0 0 1
-12.477255 19.601076 28.117792 36.475942 -1.003928 0.690608 0.055814 -0.014416 -243321.000000 0 0 1
-12.124155 19.212576 29.610922 37.321909 -1.007856 0.654434 0.054861 -0.011884 -120259.000000 0 0 1
-11.065155 20.012276 30.074012 37.780617 -1.065715 0.650110 0.040046 -0.016463 -168782.000000 0 0 1
-10.678855 19.705476 31.418042 38.593226 -1.074175 0.619650 0.031863 -0.020384 -160071.000000 0 0 1
-9.515455 20.513476 32.017242 39.197581 -1.136473 0.614925 0.019498 -0.025202 355692.000000 0 0 1
-8.238655 19.947076 31.673272 38.326981 -1.179112 0.598119 0.035322 -0.030302 717703.000000 0 0 1
-7.233755 20.833476 32.229626 39.052653 -1.236602 0.600087 0.032235 -0.023491 119509.000000 0 0 1
-6.133555 19.998076 32.911450 38.996245 -1.273197 0.566164 0.037446 -0.022663 -678556.000000 0 0 1
-6.621255 19.268476 34.029961 39.662998 -1.239806 0.539477 0.037472 -0.031134 -240053.000000 0 0 1
-5.743755 18.959776 -33.150451 38.618859 -1.276641 2.602940 0.033143 -0.030876 -690690.000000 0 0 1
-4.678655 17.908176 -33.447331 38.227170 -1.315250 2.636154 0.030871 -0.031371 -680518.000000 0 0 1
-5.201455 16.592376 -33.703971 37.925186 -1.267015 2.665290 0.030080 -0.032701 83309.900000 0 0 1
-5.084855 16.258076 33.173982 37.292008 -1.267676 0.474386 0.023487 -0.024401 30672.300000 0 0 1
-5.688355 14.867376 32.880763 36.531368 -1.205374 0.450868 0.028929 -0.019698 -10763.700000 0 0 1
-4.890255 13.837476 33.438199 36.517167 -1.231090 0.413589 0.040144 -0.018759 467285.000000 0 0 1
-5.477455 12.554076 33.103410 35.825174 -1.159386 0.392315 0.047449 -0.020508 147798.000000 0 0 1
-4.636255 11.364176 33.582021 35.754601 -1.183437 0.350397 0.055328 -0.020809 -504672.000000 0 0 1
-4.646355 11.141376 -33.244671 35.368447 -1.175691 2.793288 0.065522 -0.026118 107605.000000 0 0 1
-3.829055 9.980376 -33.021701 34.708822 -1.204456 2.828521 0.084721 -0.026162 400932.000000 0 0 1
-3.790455 9.481476 -31.508331 33.121607 -1.190484 2.828197 0.082843 -0.027521 -23411.600000 0 0 1
-4.953655 8.761076 -31.178411 32.762608 -1.056194 2.829347 0.084150 -0.024826 -35445.800000 0 0 1
-5.046955 8.716976 -29.756831 31.415385 -1.045976 2.815202 0.096855 -0.020879 -494242.000000 0 0 1
-6.188755 7.812076 -29.350001 30.995996 -0.900827 2.814239 0.092727 -0.020637 -479312.000000 0 0 1
-5.805655 6.682676 -28.512831 29.855407 -0.855510 2.840560 0.099739 -0.019787 572865.000000 0 0 1
-6.951455 5.870776 -28.194111 29.625946 -0.701315 2.829423 0.105575 -0.036586 103678.000000 0 0 1
-6.982755 5.201176 -26.767541 28.148044 -0.640203 2.827107 0.095762 -0.038835 -378500.000000 0 0 1
-7.044755 6.038776 -25.624211 27.252442 -0.708660 2.794171 0.067886 -0.026675 -32779.100000 0 0 1
-5.991455 6.948276 -25.367871 26.976007 -0.859208 2.794561 0.075276 -0.024108 -264254.000000 0 0 1
-6.086455 7.900176 -24.195601 26.170305 -0.914354 2.750634 0.045169 -0.011237 -15017.100000 0 0 1
-6.359655 7.270476 -22.935801 24.886864 -0.852123 2.742986 0.036027 -0.004764 593450.000000 0 1 0
-7.708655 7.486576 -22.513401 24.946451 -0.770784 2.696264 0.038880 -0.002784 517535.000000 0 1 0
-7.715255 7.700576 -21.015101 23.674005 -0.784446 2.663093 0.032734 -0.004700 254324.000000 0 1 0
-6.954355 8.849176 -20.593101 23.467995 -0.904727 2.641415 0.008259 -0.001375 266960.000000 0 1 0
-6.824655 9.013476 -19.206001 22.286524 -0.922728 2.609557 0.010985 -0.001633 80431.600000 0 1 0
-8.119455 9.447276 -18.470001 22.278185 -0.860842 2.548225 0.005024 0.005354 -282980.000000 0 1 0
-7.900755 9.434176 -17.090701 21.059860 -0.873627 2.517562 0.000818 0.000102 -171700.000000 0 1 0
-8.957555 9.767776 -16.220701 20.946561 -0.828640 2.456539 -0.001025 -0.003008 -163403.000000 0 1 0
-9.444955 11.278476 -16.259401 21.926681 -0.873644 2.406152 0.008116 -0.011653 157949.000000 0 1 0
-8.485155 12.253776 -15.827301 21.740661 -0.965154 2.386203 -0.011471 -0.010964 445045.000000 0 1 0
-8.982055 13.551076 -16.070201 22.859579 -0.985455 2.350398 0.012239 -0.017634 364979.000000 0 1 0
-7.832855 14.573876 -15.856401 22.916740 -1.077633 2.334932 0.018645 -0.018955 291467.000000 0 1 0
-7.282455 14.695176 -14.529101 21.910663 -1.110701 2.295758 0.017203 -0.015157 387730.000000 0 1 0
-8.173155 15.265376 -13.543901 21.983390 -1.079228 2.234574 0.016119 -0.028918 -394430.000000 0 1 0
-7.471655 15.906776 -12.323001 21.464099 -1.131669 2.182327 0.021796 -0.032067 251817.000000 0 1 0
-6.824755 17.191776 -12.458901 22.301540 -1.192898 2.163561 0.025505 -0.033897 327284.000000 0 1 0
-5.865555 17.359376 -13.481401 22.748645 -1.244951 2.205109 0.026380 -0.027438 -503554.000000 0 1 0
-5.990855 18.710576 -14.194701 24.237689 -1.260925 2.196473 0.057369 -0.016091 -69040.800000 0 1 0
-5.461755 19.702176 -13.331601 24.407747 -1.300371 2.148622 0.058808 -0.022599 35791.900000 0 1 0
-5.735855 20.989876 -13.723901 25.725870 -1.304041 2.133491 0.062067 -0.022893 -596272.000000 0 0 1
-5.078955 22.002076 -12.695501 25.904882 -1.343930 2.082979 0.072103 -0.023324 -501965.000000 0 0 1
-5.336255 23.379676 -12.978701 27.267775 -1.346397 2.066865 0.066380 -0.027764 859489.000000 0 0 1
-6.665455 23.940176 -12.910401 28.004264 -1.299252 2.049936 0.065342 -0.029069 622506.000000 0 0 1
-7.307055 23.930876 -11.535101 27.552467 -1.274448 2.002765 0.040833 -0.027012 -508916.000000 0 0 1
-7.661255 22.652476 -11.082701 26.356323 -1.244665 2.004787 0.045098 -0.025259 79608.600000 0 0 1
-8.427755 22.546076 -9.886001 26.020869 -1.213077 1.960512 0.056724 -0.025630 16472.200000 0 0 1
-7.739155 23.019276 -8.610501 25.766690 -1.246465 1.911523 0.059411 -0.022679 -231614.000000 0 0 1
-7.587455 24.431376 -8.729201 27.030734 -1.269678 1.899627 0.054387 -0.017441 -62133.300000 0 0 1
-7.463655 25.102776 -7.486301 27.237846 -1.281796 1.849229 0.055266 -0.015156 -135789.000000 0 0 1
-7.649155 26.621776 -7.641701 28.733676 -1.291006 1.839985 0.067367 -0.021220 514814.000000 0 0 1
-6.589855 27.400276 -8.240501 29.361662 -1.334776 1.855273 0.047426 -0.022188 390766.000000 0 0 1
-6.456855 27.265876 -9.622101 29.626067 -1.338269 1.901581 0.048031 -0.015331 182017.000000 0 0 1
-5.736255 28.467776 -10.348901 30.828861 -1.371959 1.913133 0.050147 -0.015072 546742.000000 0 0 1
-6.478455 29.689976 -10.299501 32.086521 -1.355960 1.897573 0.052635 -0.010679 -279843.000000 0 0 1
-7.363355 29.807776 -11.358501 32.737411 -1.328617 1.925122 0.057491 -0.014119 -993352.000000 0 0 1
-8.438155 30.865276 -11.222401 33.908849 -1.303931 1.908115 0.062973 -0.013867 -824688.000000 0 0 1
-9.357355 30.421876 -10.290901 33.450759 -1.272394 1.883512 0.060847 -0.009471 -640637.000000 0 0 1
-10.463155 31.280176 -10.148101 34.509579 -1.247998 1.869275 0.048025 -0.020333 467533.000000 0 0 1
-11.561755 30.879376 -9.129601 34.213443 -1.212537 1.840912 0.053764 -0.018913 655578.000000 0 0 1
-12.505955 29.900576 -9.550001 33.788251 -1.174656 1.857344 0.060212 -0.024788 248987.000000 0 0 1
-13.649355 29.839776 -8.705001 33.948405 -1.141788 1.830111 0.069491 -0.018671 713696.000000 0 0 1
-14.655055 28.714376 -9.108601 33.500040 -1.098884 1.846161 0.079976 -0.026907 -122655.000000 0 0 1
-14.303755 27.423576 -8.683901 32.125692 -1.090029 1.844512 0.070411 -0.018331 -235416.000000 0 0 1
-15.164455 26.598676 -9.399201 32.028039 -1.052637 1.868649 0.081756 -0.021039 -180534.000000 0 0 1
-15.512355 25.165876 -8.812001 30.848110 -1.018402 1.860489 0.077159 -0.022184 491791.000000 0 0 1
-14.428255 24.215576 -8.863901 29.548899 -1.033452 1.875462 0.078491 -0.015054 748041.000000 0 0 1
-14.921855 22.894876 -8.621101 28.655898 -0.993188 1.876379 0.095330 -0.023151 79381.000000 0 0 1
-13.902355 21.783476 -8.919501 27.337755 -1.002757 1.903152 0.107444 -0.026243 -165956.000000 0 0 1
-13.879755 21.422276 -10.312301 27.530076 -0.995890 1.954743 0.103558 -0.020951 -95327.700000 0 0 1
-13.121455 20.305676 -10.637001 26.412854 -0.997100 1.985284 0.102888 -0.029030 -379136.000000 0 0 1
-13.292955 19.829476 -12.101301 26.764758 -0.980239 2.039955 0.098002 -0.022602 275470.000000 0 0 1
-14.570855 19.294976 -12.404601 27.174990 -0.923999 2.044821 0.100806 -0.017317 -131141.000000 0 0 1
-14.672755 19.036276 -13.806501 27.718027 -0.914129 2.092209 0.103614 -0.009597 429823.000000 0 0 1
-16.069455 18.535876 -14.314001 28.402407 -0.856551 2.098987 0.097626 -0.007126 357325.000000 0 0 1
-16.917955 19.654276 -14.462301 29.692860 -0.860079 2.079520 0.068426 -0.006607 -486433.000000 0 0 1
-18.096155 19.158076 -15.074001 30.359978 -0.813895 2.090369 0.050445 -0.000078 -561261.000000 0 0 1
-18.759755 20.290276 -15.852101 31.857697 -0.824572 2.091616 0.050293 -0.006375 -340608.000000 0 0 1
-19.187655 21.316476 -14.935401 32.336117 -0.837908 2.050910 0.055040 -0.009110 354182.000000 0 0 1
-19.463055 22.486976 -15.654201 33.608461 -0.857358 2.055314 0.062987 -0.019242 -158846.000000 0 0 1
-19.765355 23.742476 -14.820001 34.263784 -0.876556 2.018090 0.062871 -0.008452 -124788.000000 0 0 1
-21.006655 23.534976 -14.194401 34.592712 -0.842100 1.993611 0.050134 -0.009677 177200.000000 0 0 1
-21.498955 24.733276 -13.542101 35.458829 -0.855243 1.962659 0.064559 -0.017989 194157.000000 0 0 1
-25.818755 -0.607824 3.475399 26.058702 0.023538 1.437030 0.148166 -0.046368 -52052.000000 0 0 1
-26.365765 -0.011824 4.625299 26.768398 0.000448 1.397135 0.162000 -0.042347 -565959.000000 0 0 1
-27.745205 -0.131224 4.682399 28.137848 0.004730 1.403609 0.167443 -0.037004 -942978.000000 0 0 1
-28.296075 0.528476 5.972399 28.924327 -0.018674 1.362817 0.167725 -0.025885 -353509.000000 0 0 1
-28.492765 1.927776 5.831599 29.147239 -0.067555 1.369363 0.184394 -0.032093 160633.000000 0 0 1
-29.061325 2.498476 6.991499 29.994734 -0.085762 1.335541 0.195705 -0.025893 -274861.000000 0 0 1
-28.089085 2.869676 8.130799 29.382676 -0.101810 1.290416 0.210616 -0.028495 -97517.300000 0 0 1
-27.458405 1.691276 8.647699 28.837599 -0.061516 1.266234 0.196029 -0.038482 322462.000000 0 0 1
-26.360135 2.133376 9.430399 28.077401 -0.080756 1.228266 0.183100 -0.051041 -349394.000000 0 0 1
-25.432335 1.046276 9.991999 27.344806 -0.041116 1.196726 0.158296 -0.041231 -704054.000000 0 0 1
-24.435655 0.620676 9.114299 26.087486 -0.025395 1.213893 0.149749 -0.046115 11610.200000 0 0 1
-24.775655 -0.523924 8.380499 26.159900 0.021144 1.244690 0.125179 -0.033586 19475.900000 0 0 1
-23.485055 -1.210724 7.829799 24.785468 0.051507 1.249388 0.102635 -0.040086 575564.000000 0 1 0
-22.710655 -1.756924 8.928799 24.465978 0.077207 1.197220 0.112662 -0.051057 853655.000000 0 1 0
-21.437055 -2.107024 8.405199 23.122159 0.097974 1.198761 0.109812 -0.037798 219694.000000 0 1 0
-20.176855 -2.154224 9.294199 22.318788 0.106364 1.141282 0.071521 -0.029263 150006.000000 0 1 0
-19.651855 -0.857524 9.653199 21.911527 0.043608 1.114581 0.064652 -0.028713 645092.000000 0 1 0
-20.409055 -0.164624 10.652999 23.022663 0.008066 1.089738 0.082735 -0.035070 -631508.000000 0 1 0
-19.971955 1.340476 10.825099 22.756508 -0.067017 1.075045 0.050059 -0.024126 -342608.000000 0 1 0
-20.397255 2.157276 9.790999 22.728078 -0.105371 1.125430 0.064432 -0.018597 1330090.000000 0 1 0
-21.824855 2.212676 9.595699 23.943636 -0.101038 1.158448 0.092172 -0.025206 97318.100000 0 1 0
-22.322355 3.621776 9.097599 24.375625 -0.160847 1.188313 0.090839 -0.030900 -227015.000000 0 1 0
-22.247555 4.509676 10.182999 24.879396 -0.199995 1.149116 0.080534 -0.029539 557769.000000 0 1 0
-22.476155 5.782876 9.694399 25.151552 -0.251827 1.175112 0.068261 -0.020712 -173058.000000 0 0 1
-22.266255 6.914376 10.734699 25.667655 -0.301091 1.139313 0.056115 -0.020754 -273777.000000 0 0 1
-23.344055 6.988676 11.629199 27.000459 -0.290885 1.125524 0.063069 -0.015162 102662.000000 0 0 1
-23.279355 8.081776 12.553999 27.655856 -0.334147 1.099618 0.066860 -0.016325 -399588.000000 0 0 1
-24.012555 7.670976 13.801999 28.739204 -0.309210 1.069857 0.079507 -0.014806 -262703.000000 0 0 1
-25.390285 7.495576 13.556899 29.742894 -0.287061 1.097522 0.086185 -0.015486 -187746.000000 0 0 1
-26.029205 6.912076 14.654899 30.660437 -0.259560 1.072449 0.083511 -0.017551 589026.000000 0 0 1
-27.578755 6.794576 14.469899 31.876825 -0.241559 1.099624 0.111921 -0.016663 595829.000000 0 0 1
-27.991615 5.716476 13.680499 31.675932 -0.201451 1.124210 0.132585 -0.017290 808138.000000 0 0 1
-29.394335 5.773576 13.366599 32.802852 -0.193949 1.151100 0.162215 -0.030160 848378.000000 0 0 1
-29.847805 4.608776 12.474899 32.676527 -0.153199 1.179086 0.188925 -0.026520 45471.300000 0 0 1
-30.515765 3.476276 13.079499 33.382177 -0.113428 1.168197 0.178776 -0.031258 476655.000000 0 0 1
-30.994265 2.630876 12.057899 33.361039 -0.084680 1.200988 0.175630 -0.013607 450008.000000 0 0 1
-32.262795 1.770776 12.411499 34.613132 -0.054831 1.204052 0.144359 -0.004979 586727.000000 0 0 1
-32.041945 0.665976 13.251499 34.680427 -0.020782 1.178725 0.164705 -0.013963 863203.000000 0 0 1
-33.356915 0.089476 13.400899 35.948239 -0.002682 1.188790 0.129147 -0.011583 969327.000000 0 0 1
-33.465975 -1.075924 14.408799 36.451922 0.032139 1.164421 0.133724 -0.024758 -22228.400000 0 0 1
-32.988985 -2.335424 13.972599 35.902101 0.070676 1.171048 0.156821 -0.023078 191448.000000 0 0 1
-33.173475 -3.367024 14.962299 36.547048 0.101151 1.149002 0.182964 -0.018021 38496.400000 0 0 1
-33.089825 -4.773324 14.346199 36.380415 0.143265 1.165448 0.184823 -0.020991 305135.000000 0 0 1
-34.268073 -5.022124 13.598699 37.208160 0.145518 1.196652 0.130993 -0.022902 67587.700000 0 0 1
-34.118891 -6.255024 12.922199 37.016311 0.181317 1.214191 0.135639 -0.026751 11422.900000 0 0 1
-35.425031 -6.655924 12.141799 38.034950 0.185722 1.245882 0.132727 -0.012949 1015530.000000 0 0 1
-36.617405 -6.799724 12.899299 39.413989 0.183605 1.237376 0.085054 -0.015498 315912.000000 0 0 1
36.085425 -5.589824 13.474799 38.922670 -0.153684 1.217285 0.080123 -0.020677 -733453.000000 0 0 1
34.598275 -5.517824 13.062599 37.391423 -0.158151 1.213922 0.057985 -0.013585 50273.400000 0 0 1
33.724345 -6.349024 13.799399 36.987362 -0.186084 1.188465 0.056181 -0.009753 317790.000000 0 0 1
32.390905 -6.232524 13.306399 35.567897 -0.190093 1.187357 0.063460 -0.008555 345065.000000 0 0 1
31.439775 -7.319924 13.789499 35.102578 -0.228749 1.167085 0.047288 -0.011375 -227862.000000 0 0 1
31.060555 -7.156324 15.131899 35.283784 -0.226447 1.127563 0.071840 0.001813 465999.000000 0 0 1
30.135905 -8.216824 15.478799 34.860898 -0.266188 1.110720 0.078029 0.007449 469503.000000 0 0 1
29.777645 -8.305024 16.987399 35.273975 -0.271990 1.068335 0.051355 0.000960 927266.000000 0 0 1
30.877955 -8.745124 17.827299 36.711550 -0.275988 1.063742 0.042016 0.005786 719144.000000 0 0 1
30.450405 -8.888424 19.156699 37.056853 -0.284008 1.027507 0.035057 -0.001170 260535.000000 0 0 1
31.651835 -9.336524 20.054699 38.616062 -0.286841 1.024723 0.039455 0.003878 601342.000000 0 0 1
32.627995 -8.327024 20.266499 39.302116 -0.249877 1.029019 0.049995 0.006449 -523057.000000 0 0 1
33.788205 -8.718224 19.589799 40.017627 -0.252518 1.059247 0.025670 0.013373 204350.000000 0 0 1
35.121875 -8.278424 20.320199 41.412424 -0.231481 1.057928 0.027513 0.007130 816738.000000 0 0 1
35.364585 -8.926324 21.581499 42.380352 -0.247244 1.036502 0.034433 0.001142 -131185.000000 0 0 1
36.574525 -8.554824 22.196499 43.629869 -0.229770 1.037069 0.029871 0.000932 -2391.770000 0 0 1
36.608085 -8.927724 23.662699 44.494713 -0.239204 1.010061 0.032573 0.001564 -67585.300000 0 0 1
36.092095 -8.021124 24.618099 44.418786 -0.218686 0.983362 0.041482 0.006381 285313.000000 0 0 1
35.614795 -8.672824 25.820999 44.836988 -0.238868 0.957109 0.045644 -0.009293 -11658.400000 0 0 1
35.451345 -7.705524 27.070999 45.266013 -0.214026 0.929740 0.064542 -0.010194 -227177.000000 0 0 1
36.571795 -7.430124 27.861599 46.572219 -0.200437 0.929487 0.053596 -0.023119 -424961.000000 0 0 1
36.216065 -6.748924 29.041299 46.910003 -0.184238 0.903219 0.060546 -0.034026 469680.000000 0 0 1
-35.793884 -6.345124 29.853599 47.039346 0.175446 0.883239 0.077633 -0.028742 852526.000000 0 0 1
-35.255631 -7.361224 30.716599 47.335574 0.205838 0.864643 0.075245 -0.030486 1501110.000000 0 0 1
-33.807845 -7.261424 30.874399 46.356523 0.211571 0.841935 0.068230 -0.039218 1776010.000000 0 0 1
-33.235715 -8.055324 32.089699 46.896160 0.237784 0.817192 0.051798 -0.030485 -69377.600000 0 0 1
-33.357345 -9.477824 31.932899 47.140764 0.276834 0.826581 0.048495 -0.026333 216310.000000 0 0 1
-32.748115 -10.186324 32.981299 47.581155 0.301564 0.804934 0.037445 -0.016364 -377928.000000 0 0 1
-32.991315 -11.665824 32.948899 48.064002 0.339881 0.815477 0.042710 -0.014197 -689622.000000 0 0 1
-34.324747 -12.033624 33.168399 49.225390 0.337193 0.831448 0.035971 -0.017128 -406613.000000 0 0 1
-34.646850 -13.357224 33.016699 49.688249 0.367966 0.844003 0.039338 -0.019573 -1073000.000000 0 0 1
-36.121225 -13.499924 33.274099 50.932863 0.357665 0.858870 0.035566 -0.018705 -1038470.000000 0 0 1
-36.483535 -14.833424 33.311199 51.582117 0.386165 0.868739 0.035773 -0.028116 -397190.000000 0 0 1
35.430845 -15.029024 33.586299 51.080875 -0.401175 0.853284 0.027692 -0.024099 -245129.000000 0 0 1
34.939365 -16.467524 33.695499 51.257440 -0.440439 0.853463 0.028093 -0.013880 -233070.000000 0 0 1
35.455395 -17.043424 -33.356694 51.577441 -0.448089 2.274086 0.031644 -0.017798 265795.000000 0 0 1
35.467285 -18.475224 -33.440194 52.129730 -0.480234 2.267223 0.031898 -0.025542 -1034280.000000 0 0 1
36.043765 -19.150524 -32.194394 51.984368 -0.488383 2.238659 0.030230 -0.002604 -15954.500000 0 0 1
35.176135 -19.050424 -31.075994 50.655666 -0.496350 2.231250 0.037939 -0.002091 54996.800000 0 0 1
35.603445 -19.844724 -29.987994 50.603341 -0.508493 2.205090 0.032488 -0.004264 -652926.000000 0 0 1
34.695985 -19.833624 -28.742094 49.226944 -0.519306 2.194283 0.055451 -0.007541 1316550.000000 0 0 1
33.422035 -20.530524 -28.804994 48.664797 -0.550854 2.204218 0.052077 -0.001191 1825270.000000 0 0 1
32.384945 -19.884124 -29.565794 48.148720 -0.550645 2.231980 0.049115 -0.003216 -902735.000000 0 0 1
31.091615 -20.646824 -29.662394 47.674285 -0.586199 2.242331 0.047677 0.002275 -1008050.000000 0 0 1
30.166485 -19.853524 -30.340494 47.166988 -0.582071 2.269541 0.039898 0.004444 -25818.500000 0 0 1
28.887985 -20.458324 -30.385194 46.651031 -0.616205 2.280132 0.043264 0.004207 -16610.000000 0 0 1
27.820615 -19.935324 -31.317994 46.392031 -0.621758 2.311860 0.045137 0.008461 -24809.200000 0 0 1
28.174115 -20.129524 -32.644594 47.588318 -0.620371 2.326745 0.036396 0.000963 373982.000000 0 0 1
27.037315 -19.811724 -33.441094 47.347942 -0.632373 2.355032 0.053096 0.002155 509828.000000 0 0 1
27.348915 -19.912124 33.273399 47.450763 -0.629322 0.793690 0.047201 -0.000594 -551919.000000 0 0 1
28.330695 -19.057424 32.815999 47.357190 -0.592152 0.805229 0.025411 0.000418 -385386.000000 0 0 1
28.496025 -19.066224 31.428899 46.511504 -0.589674 0.828851 0.031531 -0.001183 35812.900000 0 0 1
27.348515 -18.463024 30.568899 44.980908 -0.593819 0.823583 0.025990 0.003618 -68257.700000 0 0 1
27.335515 -17.057224 30.824299 44.590545 -0.557876 0.807545 0.030505 0.000165 354459.000000 0 0 1
26.470315 -16.409024 29.904599 43.176599 -0.554926 0.805693 0.031484 0.002342 145435.000000 0 0 1
26.029815 -15.012224 30.384599 42.733382 -0.523135 0.779838 0.034251 -0.000494 206689.000000 0 0 1
27.186715 -14.234524 30.651499 43.373419 -0.482336 0.785989 0.042658 0.000282 322492.000000 0 0 1
26.900815 -12.935724 31.186399 43.169182 -0.448225 0.763497 0.060457 -0.012106 750015.000000 0 0 1
28.240095 -12.105024 31.295899 43.857358 -0.404955 0.776196 0.066169 -0.017005 929732.000000 0 0 1
28.772895 -11.665424 30.058499 43.214291 -0.385179 0.801585 0.069206 -0.018552 -536367.000000 0 0 1
30.066395 -11.176224 30.199199 44.055507 -0.355890 0.815533 0.074629 -0.021602 -613880.000000 0 0 1
30.580765 -10.653924 28.841099 43.364712 -0.335237 0.843192 0.075443 -0.015739 -322631.000000 0 0 1
30.294025 -9.331924 28.550599 42.660865 -0.298821 0.837603 0.075385 -0.020119 246302.000000 0 0 1
30.852445 -8.946924 27.240399 42.118406 -0.282249 0.867471 0.088318 -0.014797 508221.000000 0 0 1
30.912625 -7.359724 26.963399 41.674702 -0.233730 0.867157 0.081693 -0.011321 -158860.000000 0 0 1
29.587065 -6.954524 26.834599 40.544488 -0.230862 0.847505 0.083268 -0.009569 -547034.000000 0 0 1
29.658415 -5.605324 26.676399 40.282397 -0.186793 0.846999 0.074541 -0.010237 773171.000000 0 0 1
28.240135 -4.962624 26.553399 39.079609 -0.173953 0.823757 0.071023 -0.006538 279933.000000 0 0 1
27.578515 -5.255724 25.387999 37.851653 -0.188315 0.835612 0.073331 -0.008130 -1060220.000000 0 0 1
26.301515 -4.720624 25.405799 36.871515 -0.177590 0.810638 0.073299 -0.010894 -731832.000000 0 0 1
25.439515 -5.139124 24.214299 35.495236 -0.199331 0.820050 0.073297 -0.005697 -358554.000000 0 0 1
25.801015 -4.388924 23.111699 34.915693 -0.168494 0.847407 0.076337 0.002589 78211.300000 0 0 1
25.175815 -4.847024 21.928299 33.736710 -0.190200 0.863234 0.077622 -0.003101 -103520.000000 0 0 1
25.521415 -4.056624 20.639099 33.072212 -0.157631 0.896866 0.075485 -0.005609 -42259.000000 0 0 1
24.792515 -2.866524 20.536499 32.320791 -0.115109 0.882275 0.070094 -0.002313 2257.150000 0 0 1
25.421515 -1.974924 19.624899 32.175929 -0.077531 0.914831 0.066672 -0.002612 -257039.000000 0 0 1
24.486215 -0.877724 19.162499 31.105409 -0.035830 0.907078 0.060585 -0.010971 -539790.000000 0 0 1
23.539615 -1.310324 18.239199 29.807697 -0.055607 0.912341 0.062694 -0.016703 -983044.000000 0 0 1
22.541915 -0.381724 18.021999 28.863057 -0.016932 0.896437 0.075734 -0.018160 417196.000000 0 0 1
21.235215 -1.024824 17.428999 27.490992 -0.048223 0.884095 0.076356 -0.024259 623879.000000 0 0 1
21.545615 -1.595124 16.184499 26.994369 -0.073900 0.927856 0.089892 -0.021290 -55151.300000 0 0 1
20.440615 -2.253524 15.604099 25.814434 -0.109804 0.921694 0.102528 -0.021732 -176953.000000 0 0 1
20.778615 -3.005924 14.306299 25.405838 -0.143668 0.972651 0.102276 -0.033791 -627144.000000 0 0 1
19.711615 -3.679124 13.699599 24.285031 -0.184524 0.971433 0.114780 -0.039749 195220.000000 0 1 0
20.131515 -4.375824 12.548999 24.122668 -0.214033 1.023692 0.100002 -0.030149 -291337.000000 0 1 0
18.985915 -5.234724 11.973199 23.048314 -0.269032 1.024551 0.096096 -0.031508 -247464.000000 0 1 0
18.752115 -6.454224 12.635999 23.515256 -0.331486 1.003501 0.095763 -0.034336 214598.000000 0 1 0
17.667715 -7.078724 12.028299 22.515249 -0.381074 1.007201 0.084684 -0.031357 -524421.000000 0 1 0
17.489515 -8.583024 12.357399 23.070690 -0.456222 1.005540 0.099690 -0.035135 -91177.700000 0 1 0
18.421115 -9.358824 11.593599 23.692543 -0.470066 1.059469 0.086546 -0.041114 867207.000000 0 1 0
18.127415 -10.731924 11.630299 24.063275 -0.534537 1.066351 0.100723 -0.043810 171866.000000 0 1 0
18.889215 -11.481124 10.471399 24.459535 -0.546145 1.128395 0.106886 -0.043687 424605.000000 0 1 0
18.364615 -11.093324 9.180799 23.336837 -0.543399 1.166465 0.101567 -0.038997 839290.000000 0 1 0
19.130015 -11.621524 8.083099 23.798188 -0.545917 1.224250 0.122478 -0.045280 281599.000000 0 1 0
18.595515 -11.082024 6.740699 22.672482 -0.537437 1.268925 0.101496 -0.034488 102314.000000 0 1 0
18.948115 -9.698224 6.656299 22.302307 -0.473067 1.267720 0.085088 -0.028450 1137300.000000 0 1 0
19.744815 -9.459124 5.450399 22.561906 -0.446763 1.326807 0.092192 -0.025164 365537.000000 0 1 0
20.048015 -7.949324 5.243999 22.194913 -0.377498 1.332271 0.093425 -0.024654 -576876.000000 0 1 0
20.860115 -7.689524 4.151299 22.616508 -0.353168 1.386198 0.113232 -0.028191 391062.000000 0 1 0
20.681215 -6.339924 3.772699 21.957699 -0.297459 1.398123 0.082347 -0.029355 -467401.000000 0 1 0
21.287515 -5.926224 2.420299 22.229176 -0.271515 1.461701 0.095523 -0.031614 -204410.000000 0 1 0
20.600615 -6.323824 1.276499 21.587161 -0.297841 1.511629 0.069145 -0.034627 505753.000000 0 1 0
21.232015 -5.654324 0.215499 21.973081 -0.260271 1.560989 0.080901 -0.027409 59491.600000 0 1 0
-26.506095 -15.485724 0.482699 30.702015 0.528745 1.555074 0.080839 -0.007317 -495389.000000 0 0 1
-25.613825 -14.766724 -0.279201 29.566909 0.522971 1.580239 0.080177 -0.003399 764848.000000 0 0 1
-24.225955 -15.188524 -0.253401 28.594621 0.560002 1.579658 0.078222 -0.006080 1716650.000000 0 0 1
-23.316955 -14.791924 0.932499 27.628807 0.565320 1.537039 0.106596 -0.016316 -229691.000000 0 0 1
-23.634355 -15.495324 2.119799 28.340454 0.580321 1.495929 0.083676 -0.005015 67383.000000 0 0 1
-22.822655 -15.053524 3.197499 27.526463 0.583085 1.454373 0.102943 0.000642 341725.000000 0 0 1
-23.198655 -15.771224 4.524799 28.414484 0.597063 1.410873 0.092058 -0.002249 -126074.000000 0 0 1
-22.824655 -17.135124 4.467399 28.888320 0.643967 1.415529 0.097198 -0.014299 181697.000000 0 0 1
-23.057955 -17.818824 5.693399 29.691658 0.657924 1.377851 0.084588 -0.019160 -37250.400000 0 0 1
-23.170355 -19.304124 5.464599 30.649248 0.694623 1.391543 0.067136 -0.018409 -36030.400000 0 0 1
-23.659755 -20.012024 6.564099 31.675740 0.702066 1.362056 0.062132 -0.024975 -111792.000000 0 0 1
-23.853255 -21.410924 6.284399 32.663422 0.731493 1.377190 0.062110 -0.027170 214378.000000 0 0 1
-24.727255 -22.121824 7.382099 33.989816 0.729842 1.351866 0.066700 -0.023519 513990.000000 0 0 1
-23.987855 -22.384824 8.582599 33.913987 0.750843 1.314945 0.080835 -0.021013 -31966.200000 0 0 1
-24.874855 -22.625224 9.643599 34.980826 0.738073 1.291497 0.091345 -0.021263 54130.900000 0 0 1
-24.219255 -22.944824 11.008599 35.131560 0.758384 1.252074 0.068259 -0.024401 59662.600000 0 0 1
-23.445255 -21.895124 11.554999 34.096839 0.751223 1.225062 0.080421 -0.023279 164645.000000 0 0 1
-22.758555 -22.357724 12.719999 34.345568 0.776514 1.191407 0.088026 -0.023068 -39750.300000 0 0 1
-23.271655 -21.670824 14.027699 34.755875 0.749794 1.155341 0.071493 -0.013349 1395800.000000 0 0 1
-24.606955 -22.088624 14.454499 36.087977 0.731520 1.158696 0.068299 -0.012940 1259750.000000 0 0 1
-24.963955 -21.392824 15.600199 36.389809 0.708514 1.127746 0.062143 -0.008615 485108.000000 0 0 1
-26.425015 -21.659624 16.115899 37.777545 0.686616 1.130066 0.028092 -0.007157 1597530.000000 0 0 1
-27.526125 -21.360124 15.183099 38.006170 0.659931 1.159835 0.028025 -0.005612 1232850.000000 0 0 1
-27.820515 -22.409424 14.257299 38.463410 0.678086 1.191064 0.034255 -0.010860 -170148.000000 0 0 1
-28.912675 -23.360424 14.828799 40.019314 0.679579 1.191205 0.037605 -0.015788 -375037.000000 0 0 1
-28.497245 -24.111824 15.998399 40.613074 0.702232 1.165901 0.029151 -0.013210 -19129.800000 0 0 1
-29.390915 -25.138704 16.427799 42.019673 0.707576 1.169127 0.016555 -0.005881 50066.300000 0 0 1
-29.306025 -26.487954 15.724099 42.517080 0.734933 1.191970 0.027111 -0.008581 -185533.000000 0 0 1
-29.894545 -26.514904 14.456299 42.493629 0.725557 1.223668 0.033106 -0.012601 -7659.870000 0 0 1
-31.123145 -27.224634 14.550399 43.835430 0.718682 1.232445 0.044001 -0.013728 272689.000000 0 0 1
-31.840005 -27.479174 13.185599 44.076649 0.712015 1.266993 0.054787 -0.019661 50766.500000 0 0 1
-31.189585 -28.523114 12.470399 44.066644 0.740773 1.283887 0.066930 -0.023730 169309.000000 0 0 1
-31.815695 -28.838404 11.257599 44.391728 0.736351 1.314400 0.066752 -0.011971 24819.100000 0 0 1
-30.992065 -29.863704 10.383299 44.273715 0.766859 1.334066 0.064586 -0.014444 287219.000000 0 0 1
-30.952725 -31.095954 11.042199 45.243339 0.787706 1.324244 0.053046 -0.006756 -3391.550000 0 0 1
-30.697655 -32.184774 10.199599 45.631541 0.809043 1.345371 0.063334 -0.014516 -351972.000000 0 0 1
-30.720985 -33.493264 11.013799 46.764104 0.828544 1.333045 0.065336 -0.013043 -695286.000000 0 0 1
-32.026505 -33.947984 11.187199 47.992875 0.814514 1.335531 0.056327 -0.009606 -466436.000000 0 0 1
-32.065195 33.031902 11.790499 47.521566 -0.800247 1.320069 0.071255 -0.017244 -331279.000000 0 0 1
-33.448655 32.589652 12.313099 48.296070 -0.772391 1.313000 0.067725 -0.011830 623174.000000 0 0 1
-34.492544 32.248544 11.390899 48.574240 -0.751788 1.334087 0.033279 -0.011640 322112.000000 0 0 1
-35.179788 33.343675 10.920699 49.685812 -0.758609 1.349192 0.052347 -0.005531 -1009220.000000 0 0 1
-36.583865 33.155362 10.345399 50.444866 -0.736276 1.364248 0.040807 0.008528 -288306.000000 0 0 1
36.544535 32.399735 9.167199 49.691885 0.725352 1.385253 0.021209 -0.000079 -403997.000000 0 0 1
35.211075 32.328935 8.755199 48.596640 0.742751 1.389647 0.012207 0.004960 -452668.000000 0 0 1
35.011575 31.641290 7.373999 47.763558 0.734876 1.415791 0.018211 0.005620 -25081.800000 0 0 1
35.327595 30.250530 7.354299 47.087358 0.708132 1.413970 0.034672 -0.001014 144908.000000 0 0 1
35.328395 29.692800 6.063199 46.545894 0.698941 1.440162 0.059122 0.003268 -10099.800000 0 0 1
35.633375 28.185070 6.036399 45.832016 0.669213 1.438706 0.068895 -0.004319 115455.000000 0 0 1
34.537675 27.379110 6.437799 44.541126 0.670293 1.425752 0.064839 -0.001152 111012.000000 0 0 1
34.758015 26.734480 7.696799 44.520700 0.655651 1.397042 0.050491 -0.004268 -82266.300000 0 0 1
33.714975 25.653930 8.018699 43.117551 0.650445 1.383734 0.056201 -0.002284 -199629.000000 0 0 1
33.909905 24.415010 7.329299 42.422789 0.624021 1.397157 0.064710 0.000393 -11695.600000 0 0 1
32.847345 23.497270 7.525199 41.081607 0.620952 1.386579 0.061295 0.005743 -734020.000000 0 0 1
32.985115 22.114220 6.829399 40.295127 0.590604 1.400490 0.066379 0.001451 101007.000000 0 0 1
34.067505 21.304620 7.229099 40.825747 0.558862 1.392786 0.086541 -0.003553 649641.000000 0 0 1
35.393875 21.802020 6.928599 42.143326 0.552089 1.405641 0.087001 -0.006941 381036.000000 0 0 1
36.389155 20.618820 6.944899 42.397382 0.515514 1.406250 0.071974 -0.009839 -269805.000000 0 0 1
36.283525 19.720320 5.822999 41.704826 0.497844 1.430715 0.096408 -0.017950 77325.200000 0 0 1
-36.504905 18.436820 6.218399 41.366568 -0.467680 1.419900 0.100992 -0.022224 249537.000000 0 0 1
36.273495 17.372320 5.186499 40.551988 0.446647 1.442548 0.102248 -0.022067 260567.000000 0 0 1
-36.153515 17.365820 4.048399 40.311759 -0.447793 1.470200 0.101792 -0.021609 208325.000000 0 0 1
-36.579045 16.302420 3.195299 40.174686 -0.419253 1.491177 0.106077 -0.022962 -906085.000000 0 0 1
-35.711139 15.803220 2.016299 39.103615 -0.416624 1.519210 0.113730 -0.008829 -60164.700000 0 0 1
-34.518156 15.107420 2.296699 37.749332 -0.412550 1.509918 0.119735 -0.020817 -381263.000000 0 0 1
-33.486165 15.918120 2.738599 37.178082 -0.443745 1.497068 0.121184 -0.022214 -1246520.000000 0 0 1
-32.152425 15.176620 2.940199 35.675664 -0.441015 1.488288 0.104962 -0.024762 -127436.000000 0 0 1
-32.240225 14.248620 4.057499 35.481243 -0.416141 1.456189 0.110764 -0.027240 1372410.000000 0 0 1
-30.917925 13.755520 4.431299 34.128710 -0.418608 1.440588 0.104388 -0.027334 1311340.000000 0 0 1
-30.829845 13.094220 5.838399 34.000366 -0.401638 1.398225 0.103164 -0.027485 -139219.000000 0 0 1
-31.236505 11.747920 5.842599 33.880213 -0.359731 1.397481 0.116432 -0.028193 285061.000000 0 0 1
-30.936785 11.235620 7.208399 33.693989 -0.348368 1.355193 0.100843 -0.018356 124383.000000 0 0 1
-30.954105 9.703120 7.309899 33.252696 -0.303766 1.349157 0.116240 -0.020335 698748.000000 0 0 1
-32.313745 9.284520 7.201099 34.383663 -0.279787 1.359801 0.104608 -0.020527 413217.000000 0 0 1
-32.404415 7.877620 7.110799 34.097896 -0.238477 1.360714 0.126381 -0.021126 473284.000000 0 0 1
-33.885185 7.415120 6.911199 35.368835 -0.215435 1.374127 0.116837 -0.014829 583793.000000 0 0 1
-34.591113 7.447420 8.166699 36.313967 -0.212062 1.343965 0.105438 -0.007745 342646.000000 0 0 1
-35.907801 6.976020 7.899199 37.422352 -0.191886 1.358114 0.081195 -0.007771 724306.000000 0 0 1
36.554135 6.315320 9.071099 38.188649 0.171077 1.330970 0.078613 -0.006710 254027.000000 0 0 1
36.020195 7.122820 10.083099 38.077000 0.195227 1.302791 0.091021 -0.008310 390484.000000 0 0 1
-36.277365 7.684720 10.952699 38.666055 -0.208747 1.283601 0.103498 -0.018317 -97027.700000 0 0 1
36.374735 8.813320 11.802299 39.243983 0.237711 1.265326 0.091803 -0.023234 -314741.000000 0 0 1
35.585565 8.170920 12.777399 38.682791 0.225701 1.234162 0.076512 -0.024033 275409.000000 0 0 1
35.156265 9.050320 13.776399 38.828603 0.251960 1.208096 0.111652 -0.037300 -29816.000000 0 0 1
34.291945 8.399120 14.912599 38.325818 0.240201 1.171141 0.107164 -0.043641 -340220.000000 0 0 1
32.971055 8.055720 14.568399 36.935394 0.239632 1.165350 0.098438 -0.039983 162240.000000 0 0 1
32.376635 7.495820 15.742699 36.773175 0.227511 1.128404 0.092056 -0.037234 -464928.000000 0 0 1
30.886395 7.173320 15.673099 35.370495 0.228203 1.111729 0.069180 -0.028033 -1101770.000000 0 0 1
30.087395 8.280320 15.857399 35.003888 0.268560 1.100648 0.056878 -0.030797 -198585.000000 0 0 1
28.709825 7.953620 15.877599 33.758144 0.270257 1.081127 0.055312 -0.024060 459520.000000 0 0 1
27.991415 7.480820 17.194299 33.691630 0.261151 1.035212 0.051700 -0.020431 -139220.000000 0 0 1
27.717315 8.503720 18.201399 34.232349 0.297685 1.010188 0.066323 -0.026595 259818.000000 0 0 1
27.073215 7.986920 19.375799 34.236989 0.286874 0.969233 0.056017 -0.023515 -7835.710000 0 0 1
27.830715 6.960820 20.228699 35.102735 0.245085 0.956637 0.059071 -0.024821 85523.000000 0 0 1
27.129315 6.786620 21.447099 35.242531 0.245128 0.916555 0.038533 -0.009164 310815.000000 0 0 1
27.671415 5.629620 22.134299 35.879340 0.200706 0.905987 0.057155 -0.011755 -396852.000000 0 0 1
27.107715 5.360820 23.547499 36.304976 0.195241 0.865049 0.063417 -0.011623 55189.700000 0 0 1
25.795515 4.834920 23.515299 35.238535 0.185283 0.840195 0.021681 -0.006195 261574.000000 0 0 1
24.806315 5.842520 23.824499 34.886889 0.231310 0.819062 0.027542 -0.000928 179162.000000 0 0 1
23.413515 5.492520 23.267499 33.462471 0.230421 0.801916 0.048660 -0.013639 -532506.000000 0 0 1
23.182015 5.509420 21.878899 32.348814 0.233331 0.828010 0.069288 -0.006868 575755.000000 0 0 1
21.811515 5.307920 21.527099 31.101964 0.238714 0.806338 0.074188 -0.009165 -300687.000000 0 0 1
21.251015 3.842520 21.735899 30.640168 0.178883 0.782161 0.078382 -0.012427 532019.000000 0 0 1
19.894415 3.664220 21.312299 29.384151 0.182142 0.759328 0.082251 -0.018015 1451090.000000 0 0 1
18.826915 4.354020 21.958599 29.250475 0.227270 0.721661 0.079831 -0.014851 -79120.100000 0 0 1
17.464515 4.218020 21.250399 27.827692 0.236981 0.701861 0.104116 -0.018142 55699.200000 0 0 1
16.716615 3.018720 21.492299 27.394832 0.178657 0.668845 0.096578 -0.022850 1092820.000000 0 0 1
15.573215 2.978420 20.586699 25.984768 0.188971 0.656292 0.106030 -0.027289 685859.000000 0 0 1
14.504115 1.939820 20.961199 25.563726 0.132954 0.609458 0.107140 -0.024870 -627295.000000 0 0 1
14.903815 0.579220 20.922799 25.694799 0.038844 0.619306 0.086634 -0.026521 -19590.600000 0 0 1
14.075015 -0.288880 21.687699 25.856252 -0.020521 0.575758 0.092271 -0.027363 -226785.000000 0 0 1
14.468015 -1.747880 21.640199 26.089782 -0.120227 0.592672 0.066146 -0.017912 -129540.000000 0 0 1
14.124715 -2.410680 20.467699 24.984908 -0.169042 0.610777 0.086362 -0.013679 74886.200000 0 1 0
13.920515 -3.828580 20.662699 25.206862 -0.268395 0.609865 0.066265 -0.002465 21793.100000 0 0 1
13.634615 -4.577080 19.325499 24.089983 -0.323875 0.639790 0.071643 -0.005495 -176985.000000 0 1 0
12.267315 -4.462680 19.024199 23.072119 -0.348903 0.601384 0.074323 -0.009247 -261819.000000 0 1 0
12.082615 -4.912480 17.719199 22.002092 -0.386161 0.634545 0.076561 -0.008838 89889.100000 0 1 0
10.563515 -4.989480 17.455299 21.004052 -0.441269 0.589814 0.069188 -0.007105 340865.000000 0 1 0
9.885315 -6.024280 18.154499 21.531308 -0.547315 0.567649 0.067954 -0.004664 1512210.000000 0 1 0
8.440615 -6.060880 17.910099 20.706276 -0.622745 0.525726 0.044950 -0.017601 2022860.000000 0 1 0
7.672215 -7.066080 18.851899 21.544987 -0.744295 0.505357 0.038150 -0.022404 -44011.300000 0 1 0
7.992315 -8.440980 18.657699 21.982651 -0.812694 0.557186 0.053852 -0.024958 457689.000000 0 1 0
9.286115 -8.847780 19.118399 23.022344 -0.761231 0.590921 0.088729 -0.037099 863842.000000 0 1 0
9.703615 -10.356580 18.761099 23.524407 -0.817937 0.647629 0.095922 -0.032211 292125.000000 0 1 0
9.596415 -10.637980 17.381799 22.525202 -0.836828 0.689349 0.080505 -0.024227 73353.700000 0 1 0
10.003215 -11.916880 16.974799 23.026509 -0.872479 0.741901 0.080200 -0.024119 271430.000000 0 1 0
9.644215 -11.987780 15.457399 21.809377 -0.893315 0.783071 0.065890 -0.026990 220000.000000 0 1 0
10.214615 -13.155580 14.895199 22.344453 -0.910583 0.841135 0.051867 -0.026049 -35172.000000 0 1 0
9.920215 -13.296780 13.547999 21.418760 -0.929821 0.885982 0.037211 -0.021039 -169007.000000 0 1 0
10.758015 -14.420180 12.838999 22.102406 -0.929835 0.950978 0.052188 -0.024769 21552.700000 0 1 0
12.109715 -14.229080 12.567899 22.518081 -0.865691 0.978672 0.034131 -0.026174 -605891.000000 0 1 0
12.384715 -13.253480 11.561199 21.510398 -0.819271 1.003362 0.017157 -0.025102 -38639.600000 0 1 0
13.892115 -13.137880 11.166199 22.142239 -0.757502 1.042232 0.048309 -0.027747 683891.000000 0 1 0
14.441415 -14.221780 10.429099 22.794288 -0.777736 1.095580 0.051613 -0.023694 40195.000000 0 1 0
15.687615 -13.877380 9.834299 23.138634 -0.724245 1.131816 0.062354 -0.030941 230899.000000 0 1 0
16.431215 -15.207580 9.507499 24.323812 -0.746742 1.169217 0.059911 -0.031182 7720.570000 0 1 0
16.948515 -15.975480 10.639299 25.605913 -0.755853 1.142302 0.068885 -0.022338 421658.000000 0 0 1
15.984715 -16.746380 11.352299 25.784240 -0.808664 1.114885 0.070210 -0.016089 186777.000000 0 0 1
16.618615 -17.312280 12.654099 27.129681 -0.805839 1.085546 0.060531 -0.006836 71714.100000 0 0 1
17.687615 -18.221180 12.371999 28.247645 -0.800256 1.117442 0.071883 -0.016599 241077.000000 0 0 1
18.088615 -18.933880 13.544399 29.481189 -0.808225 1.093448 0.060668 -0.010830 -525587.000000 0 0 1
19.371515 -19.722780 13.296999 30.676600 -0.794383 1.122471 0.034436 -0.016776 -521775.000000 0 0 1
20.388715 -18.844480 12.878699 30.605146 -0.746058 1.136467 0.051587 -0.020991 -666805.000000 0 0 1
21.610315 -19.573280 12.953699 31.904816 -0.735976 1.152712 0.046586 -0.023888 977790.000000 0 0 1
22.716915 -18.864680 12.049299 31.892318 -0.693019 1.183364 0.060621 -0.022979 109191.000000 0 0 1
22.703815 -19.006680 10.584299 31.444307 -0.696991 1.227488 0.042472 -0.018585 -429870.000000 0 0 1
21.580415 -18.638280 9.823499 30.159591 -0.712375 1.239026 0.055433 -0.022975 -63377.200000 0 0 1
21.255115 -17.130480 9.830999 29.015199 -0.678356 1.225131 0.107106 -0.027220 138301.000000 0 0 1
22.085815 -16.377380 8.957499 28.917790 -0.638061 1.255858 0.098514 -0.024290 -199900.000000 0 0 1
21.645115 -15.074480 8.789799 27.803084 -0.608331 1.249133 0.125828 -0.035187 -114723.000000 0 0 1
-34.856463 25.456176 8.732699 44.036916 -0.630783 1.371169 0.090879 -0.006834 45636.900000 0 0 1
-33.995905 24.447376 9.261799 42.885624 -0.623448 1.353116 0.096026 -0.019769 223562.000000 0 0 1
-32.838575 25.042776 9.810699 42.447173 -0.651518 1.337560 0.108515 -0.016256 -491915.000000 0 0 1
-31.850115 24.069976 10.388099 41.251742 -0.647156 1.316234 0.116465 -0.034417 -745823.000000 0 0 1
-31.160945 23.348976 9.428299 40.063350 -0.643055 1.333233 0.107460 -0.027954 144085.000000 0 0 1
-30.124045 22.512976 9.933599 38.896897 -0.641798 1.312553 0.099604 -0.023944 145448.000000 0 0 1
-29.382615 21.727476 8.890199 37.609267 -0.636726 1.332154 0.088223 -0.028572 -511910.000000 0 0 1
-30.182405 20.770776 8.257699 37.557853 -0.602746 1.349119 0.086961 -0.033480 -299037.000000 0 0 1
-29.563265 20.053976 7.233499 36.448212 -0.596041 1.371010 0.083479 -0.038279 -62395.100000 0 0 1
-30.600865 19.375476 6.281699 36.759785 -0.564451 1.399068 0.078736 -0.031228 83000.200000 0 0 1
-31.239435 18.276376 6.953899 36.854918 -0.529348 1.380975 0.089094 -0.029495 109659.000000 0 0 1
-32.314825 17.923276 6.094899 37.451830 -0.506403 1.407330 0.069851 -0.028515 -203992.000000 0 0 1
-32.899975 16.590776 6.530099 37.420642 -0.467065 1.395393 0.077848 -0.022112 -340945.000000 0 0 1
-33.720355 16.710876 7.682599 38.410130 -0.460099 1.369423 0.076224 -0.027695 204204.000000 0 0 1
-34.279568 15.458876 8.099299 38.466405 -0.423656 1.358654 0.084344 -0.028279 -183831.000000 0 0 1
-35.259804 15.718676 9.248499 39.697170 -0.419352 1.335659 0.103468 -0.033386 34659.100000 0 0 1
-36.380465 16.536976 8.956999 40.954092 -0.426637 1.350306 0.114858 -0.033298 108281.000000 0 0 1
36.165405 16.878776 10.100199 41.168479 0.436663 1.322928 0.142196 -0.031406 -443041.000000 0 0 1
35.277375 18.063776 9.956599 40.864741 0.473241 1.324671 0.121957 -0.033932 -183262.000000 0 0 1
34.123845 17.788376 9.166999 39.558779 0.480533 1.336939 0.113115 -0.031224 -101490.000000 0 0 1
33.277235 18.889276 9.216199 39.358829 0.516281 1.334444 0.100144 -0.018208 255082.000000 0 0 1
31.800725 18.674976 8.741399 37.900566 0.530992 1.338061 0.068740 -0.019715 694787.000000 0 0 1
31.021115 19.840976 9.005299 37.908697 0.569026 1.330951 0.055774 -0.010341 -231564.000000 0 0 1
29.735955 19.970876 8.463299 36.806118 0.591415 1.338778 0.022719 -0.010593 -83297.800000 0 0 1
29.376825 19.841676 6.972299 36.128976 0.594038 1.376594 0.013659 -0.011303 -703470.000000 0 0 1
29.448425 18.539776 6.399099 35.381938 0.561877 1.388938 0.039625 -0.012924 19082.400000 0 0 1
29.250815 18.531476 5.004099 34.986666 0.564715 1.427275 0.045746 -0.020858 -443568.000000 0 0 1
27.947115 18.855276 4.265599 33.981731 0.593528 1.444938 0.070889 -0.022407 -265994.000000 0 0 1
26.846715 18.000976 4.596999 32.648333 0.590658 1.429523 0.057613 -0.031028 1452610.000000 0 0 1
25.543915 18.462376 4.193499 31.795226 0.625845 1.438520 0.075761 -0.028032 1101920.000000 0 0 1
24.813615 19.697976 4.761499 32.037441 0.670972 1.421621 0.083354 -0.022197 -751256.000000 0 0 1
25.347515 20.860176 4.248099 33.101206 0.688589 1.442105 0.074169 -0.018200 506603.000000 0 0 1
24.702315 22.038476 4.759399 33.444741 0.728468 1.428005 0.069445 -0.010974 363482.000000 0 0 1
25.711815 23.184476 4.480599 34.909786 0.733756 1.442093 0.036174 0.005808 633358.000000 0 0 1
26.950115 23.076276 5.161999 35.853444 0.708116 1.426319 0.042612 0.000071 300510.000000 0 0 1
27.698515 24.272576 5.093399 37.179408 0.719573 1.433369 0.029458 0.010546 -484110.000000 0 0 1
29.110095 24.232876 5.724499 38.306655 0.694220 1.420796 0.023575 0.007787 283187.000000 0 0 1
30.051675 23.269376 5.224099 38.364805 0.658880 1.434203 0.021131 0.005877 499494.000000 0 0 1
30.384715 23.336076 3.827599 38.502648 0.654935 1.471221 0.025778 -0.002461 -510073.000000 0 0 1
31.337045 24.452276 3.365199 39.890460 0.662612 1.486335 0.059159 -0.013684 -819654.000000 0 0 1
30.683255 25.649176 3.402299 40.136243 0.696271 1.485926 0.038530 -0.009722 -28104.100000 0 0 1
31.412485 26.681376 2.708099 41.303436 0.704138 1.505183 0.080197 -0.011096 -39755.600000 0 0 1
30.673405 28.085676 2.776099 41.681767 0.741387 1.504145 0.064054 -0.000919 1015710.000000 0 0 1
29.560355 28.206776 1.874199 40.901705 0.761971 1.524958 0.088093 -0.009347 552204.000000 0 0 1
28.346455 27.716576 2.413699 39.718460 0.774163 1.509989 0.062474 -0.005258 252975.000000 0 0 1
27.061215 28.344576 1.765699 39.228077 0.808557 1.525770 0.026326 -0.007791 292398.000000 0 0 1
26.855415 29.650776 2.245999 40.067772 0.834828 1.514712 0.032878 -0.004704 672635.000000 0 0 1
25.548115 30.098176 1.855599 39.522774 0.866984 1.523829 0.029953 -0.007535 735472.000000 0 0 1
25.206215 31.472676 2.515999 40.400654 0.895512 1.508480 0.045746 -0.018664 -180846.000000 0 0 1
25.182815 31.522176 3.924899 40.536732 0.896731 1.473821 0.023263 -0.029950 964429.000000 0 0 1
26.472815 31.603176 4.580799 41.479566 0.873508 1.460136 0.030246 -0.028615 804702.000000 0 0 1
26.434615 31.604676 6.115599 41.653871 0.874242 1.423444 0.040715 -0.033944 -10650.700000 0 0 1
25.894415 30.426276 6.758299 40.521027 0.865690 1.403228 0.038023 -0.034791 188706.000000 0 0 1
26.683215 29.265076 6.640699 40.156413 0.831513 1.404662 0.038192 -0.035408 -292214.000000 0 0 1
26.014015 28.028676 7.210999 38.914447 0.822660 1.384415 0.051737 -0.023652 -228256.000000 0 0 1
24.823015 27.689576 6.540899 37.758152 0.839932 1.396687 0.026209 -0.030364 -222091.000000 0 0 1
24.413615 26.423876 6.842799 36.620619 0.824920 1.382835 0.043515 -0.019837 -167680.000000 0 0 1
23.116815 26.068976 6.064799 35.366092 0.845347 1.398458 0.055617 -0.010126 49390.500000 0 0 1
23.300515 25.947776 4.666399 35.184888 0.839100 1.437779 0.032626 -0.006719 191106.000000 0 0 1
23.495015 27.161976 3.925899 36.127571 0.857660 1.461914 0.023556 0.003949 -289347.000000 0 0 1
23.629015 26.801076 2.349199 35.807077 0.848216 1.505142 0.024536 0.005155 -377159.000000 0 0 1
24.671915 25.917176 2.059699 35.841956 0.810008 1.513299 0.013292 0.017438 -241223.000000 0 0 1
24.785615 25.733376 0.665599 35.734806 0.804156 1.552169 0.024455 0.007258 -458578.000000 0 0 1
25.951915 24.894076 0.163099 35.961695 0.764596 1.566261 0.042507 0.001928 135335.000000 0 0 1
27.223115 25.569076 0.044799 37.348061 0.754077 1.569597 0.067135 -0.000835 1297250.000000 0 0 1
28.291985 24.946776 -0.643401 37.725217 0.722647 1.587852 0.078197 0.000697 270964.000000 0 0 1
28.933255 23.692076 -0.111301 37.395991 0.686131 1.573773 0.066477 -0.005880 -476904.000000 0 0 1
28.028915 22.564176 -0.136901 35.983064 0.677802 1.574601 0.056935 -0.004213 551127.000000 0 0 1
28.263675 21.638376 0.892899 35.606908 0.653404 1.545717 0.055843 -0.005837 -582961.000000 0 0 1
26.986315 20.962376 1.374299 34.198993 0.660420 1.530600 0.051839 -0.009393 -615339.000000 0 0 1
26.526315 20.005676 0.501399 33.228359 0.646172 1.555706 0.081959 -0.026404 -73436.100000 0 0 1
25.272315 19.537076 0.906699 31.956366 0.658098 1.542419 0.072941 -0.030557 -315636.000000 0 0 1
24.680015 18.355676 0.030399 30.757681 0.639487 1.569808 0.093263 -0.034118 -400768.000000 0 0 1
23.402715 17.964076 0.425999 29.505535 0.654674 1.556358 0.083792 -0.036095 -295219.000000 0 0 1
22.875115 16.897976 -0.399801 28.442439 0.636233 1.584853 0.103585 -0.051678 -360179.000000 0 0 1
21.376615 16.810176 -0.126301 27.194809 0.666382 1.575441 0.077779 -0.032361 -1842400.000000 0 0 1
20.827615 15.735976 -0.801701 26.116149 0.647034 1.601499 0.082483 -0.035421 2494690.000000 0 0 1
19.383715 15.495476 -0.541301 24.821990 0.674379 1.592605 0.077080 -0.029910 2383420.000000 0 1 0
18.343415 16.547476 -0.979701 24.723666 0.733971 1.610433 0.073245 -0.033763 -709212.000000 0 1 0
18.529415 17.771676 -0.319001 25.676321 0.764527 1.583221 0.071571 -0.029346 -385967.000000 0 0 1
17.547415 18.637476 -0.793401 25.610482 0.815514 1.601781 0.048847 -0.027603 -309167.000000 0 0 1
17.645115 20.126576 -0.306001 26.767943 0.851000 1.582228 0.052886 -0.024037 -568658.000000 0 0 1
17.320615 20.232676 1.078299 26.655724 0.862788 1.530332 0.056378 -0.018334 45160.500000 0 0 1
17.482915 21.500576 1.609799 27.758216 0.888096 1.512770 0.078408 -0.020766 -256159.000000 0 0 1
16.497015 22.663276 1.289699 28.061342 0.941578 1.524820 0.069922 -0.023424 -135661.000000 0 0 1
15.246615 22.411776 1.874299 27.170940 0.973418 1.501760 0.066930 -0.020798 -355954.000000 0 0 1
14.254315 23.290776 1.397499 27.342252 1.021589 1.519663 0.063100 -0.024225 -428970.000000 0 0 1
12.841115 23.015876 1.889299 26.423366 1.061890 1.499234 0.062765 -0.027861 -423252.000000 0 0 1
12.615115 23.367776 3.211699 26.749002 1.075779 1.450438 0.068466 -0.014347 -328734.000000 0 0 1
11.278515 23.251976 3.629099 26.096545 1.119175 1.431280 0.056923 -0.017431 58004.300000 0 0 1
11.124215 23.463576 5.171999 26.477106 1.128078 1.374194 0.058387 -0.015137 -23245.400000 0 0 1
11.656815 22.432576 5.967999 25.975350 1.091562 1.338969 0.063583 -0.044704 201779.000000 0 0 1
10.935615 22.455076 7.205699 25.995004 1.117603 1.289922 0.045284 -0.027606 -306032.000000 0 0 1
11.677715 21.563476 8.262799 25.877140 1.074463 1.245796 0.053782 -0.021303 1456740.000000 0 0 1
12.981615 21.971776 8.773999 26.986373 1.037146 1.239650 0.060299 -0.014541 930440.000000 0 0 1
13.971415 21.834376 7.795999 27.068765 1.001567 1.278651 0.078611 -0.017874 -1500240.000000 0 0 1
15.395715 21.755976 8.351599 27.930266 0.954952 1.267135 0.090080 -0.020926 -539159.000000 0 0 1
15.829715 20.550276 8.875399 27.416536 0.914434 1.241133 0.098881 -0.017991 1021260.000000 0 0 1
17.187115 20.570276 9.393999 28.403880 0.874762 1.233720 0.087498 -0.022732 1102610.000000 0 0 1
17.458915 21.351376 10.724999 29.592577 0.885358 1.199931 0.057233 -0.001890 -924628.000000 0 0 1
16.731815 20.838976 11.760999 29.198248 0.894284 1.156224 0.064309 -0.018311 -474119.000000 0 0 1
16.731415 21.540776 12.954899 30.195607 0.910405 1.127375 0.063014 -0.008263 190952.000000 0 0 1
17.797115 21.247076 14.071699 31.083569 0.873530 1.100999 0.056558 -0.001364 1309820.000000 0 0 1
19.170215 21.560176 13.766199 31.966335 0.844009 1.125587 0.059086 -0.001852 789930.000000 0 0 1
20.090915 21.173376 14.752999 32.704858 0.811625 1.102804 0.045544 -0.005974 -1211590.000000 0 0 1
21.485515 21.554776 14.424799 33.679527 0.787007 1.128190 0.051543 -0.011414 -1441320.000000 0 0 1
22.124315 20.833776 13.377199 33.203629 0.755365 1.156131 0.051326 -0.010320 366743.000000 0 0 1
23.424615 21.406976 13.255099 34.389953 0.740424 1.175117 0.057383 -0.017456 245501.000000 0 0 1
24.358315 20.792576 12.208499 34.273987 0.706588 1.206595 0.066175 -0.016121 -50716.600000 0 0 1
23.879615 21.083776 10.897899 33.667875 0.723298 1.241171 0.081409 -0.011902 966244.000000 0 0 1
24.950615 20.835176 9.974999 34.002035 0.695754 1.273052 0.092519 -0.029791 268443.000000 0 0 1
24.742015 21.753876 8.728999 34.082163 0.721220 1.311794 0.076586 -0.025387 110457.000000 0 0 1
25.125715 23.108776 9.065399 35.319946 0.743607 1.311226 0.058159 -0.019642 212147.000000 0 0 1
26.448515 23.410676 8.658999 36.367045 0.724545 1.330387 0.044589 -0.020046 -191080.000000 0 0 1
26.959415 24.687676 9.322999 37.725452 0.741441 1.321082 0.070197 -0.017938 612562.000000 0 0 1
28.235295 25.161876 8.843099 38.840086 0.727904 1.341102 0.057798 -0.008920 903217.000000 0 0 1
28.773995 26.124476 9.718499 40.060957 0.737173 1.325759 0.068045 -0.011629 -251136.000000 0 0 1
30.056315 26.729176 9.152399 41.250422 0.726874 1.347060 0.057780 -0.012375 -327284.000000 0 0 1
29.813855 27.809976 8.281599 41.603433 0.750637 1.370397 0.064331 -0.014630 -135584.000000 0 0 1
30.898625 27.979176 7.416599 42.338697 0.735854 1.394715 0.063843 -0.004895 -333143.000000 0 0 1
30.762675 29.074076 6.314799 42.796271 0.757186 1.422701 0.086821 -0.003643 34311.500000 0 0 1
30.611165 30.390976 6.720699 43.655729 0.781789 1.416234 0.081755 -0.008519 128801.000000 0 0 1
30.707035 31.243176 5.621199 44.166231 0.794052 1.443177 0.084802 -0.005629 1354.570000 0 0 1
30.708495 32.730976 5.964399 45.275849 0.817268 1.438678 0.046027 -0.004294 1297810.000000 0 0 1
29.453085 33.126276 6.593199 44.814112 0.844027 1.423137 0.043912 -0.014664 1182540.000000 0 0 1
29.485825 -33.729968 6.761299 45.308275 -0.852435 1.421008 0.034034 -0.002118 681980.000000 0 0 1
28.073315 -33.235068 7.235099 44.102465 -0.869393 1.405999 0.056210 -0.021508 1196030.000000 0 0 1
27.090415 -33.337368 6.204299 43.402350 -0.888411 1.427357 0.054030 -0.023176 -114903.000000 0 0 1
25.884915 -32.664668 6.467899 42.176333 -0.900680 1.416835 0.044651 -0.035768 381835.000000 0 0 1
24.777715 -32.884168 5.393699 41.525843 -0.925069 1.440541 0.054878 -0.027428 191077.000000 0 0 1
25.123215 -32.342368 4.109599 41.159367 -0.910369 1.470784 0.030798 -0.010566 649286.000000 0 0 1
24.109615 -32.562768 3.093299 40.634664 -0.933465 1.494598 0.040307 -0.017425 240461.000000 0 0 1
24.548915 -31.876568 1.839699 40.275915 -0.914540 1.525103 0.040233 -0.003593 -118533.000000 0 0 1
24.612115 -30.503968 2.068799 39.249563 -0.891893 1.518063 0.043712 0.006917 232064.000000 0 0 1
25.532615 -29.822068 1.217799 39.277897 -0.862734 1.539787 0.033351 0.011901 -331701.000000 0 0 1
25.618915 -28.280568 1.543199 38.190323 -0.834740 1.530377 0.027693 0.011821 526343.000000 0 0 1
24.449115 -27.448868 1.420299 36.786095 -0.843135 1.532177 0.022137 0.014106 537017.000000 0 0 1
23.824115 -27.412768 0.124299 36.318917 -0.855324 1.567374 0.028440 0.011728 -288810.000000 0 0 1
22.686215 -26.393468 0.065899 34.803503 -0.860790 1.568903 0.017598 0.013035 -310254.000000 0 0 1
23.125615 -25.045768 0.336399 34.091021 -0.825238 1.560928 0.014890 0.008980 24802.700000 0 0 1
23.218115 -24.576068 1.660399 33.849976 -0.813803 1.521725 0.007961 0.014254 132498.000000 0 0 1
21.900115 -24.493368 2.466999 32.948842 -0.841237 1.495853 0.017101 0.008702 -6848.560000 0 0 1
22.119515 -23.677068 3.556099 32.596354 -0.819395 1.461484 0.019202 -0.000986 -289124.000000 0 0 1
21.011815 -23.448568 4.396799 31.790935 -0.840151 1.432048 0.029492 -0.001847 -163934.000000 0 0 1
21.215215 -22.383268 5.487499 31.324250 -0.812183 1.394704 0.027647 -0.004440 -29705.800000 0 0 1
21.341215 -21.027268 5.083699 30.388114 -0.777988 1.402714 0.050829 -0.004127 -116527.000000 0 0 1
20.133515 -20.401068 4.707999 29.046983 -0.791999 1.407996 0.042023 0.002237 -837769.000000 0 0 1
20.045815 -18.879568 4.855699 27.961591 -0.755446 1.396255 0.052170 -0.001703 -78697.800000 0 0 1
19.579715 -18.319168 6.080099 27.494086 -0.752150 1.347811 0.084168 -0.014442 -417598.000000 0 0 1
18.194815 -18.516268 6.183399 26.685912 -0.794154 1.336961 0.062128 -0.016914 -545577.000000 0 0 1
18.913045 -26.244224 -11.929401 34.478590 -0.946342 1.924095 0.094976 -0.021124 -6032.110000 0 0 1
19.126145 -24.950324 -12.338401 33.772240 -0.916775 1.944796 0.105776 -0.025665 -363460.000000 0 0 1
17.940145 -24.408924 -12.850701 32.905697 -0.936976 1.972005 0.067971 -0.021162 -410326.000000 0 0 1
18.089545 -22.998424 -13.359201 32.165624 -0.904307 1.999097 0.059242 -0.027834 16839.500000 0 0 1
18.295945 -21.958024 -12.400701 31.155638 -0.876123 1.980159 0.062169 -0.025647 387168.000000 0 0 1
19.466645 -22.039524 -11.568601 31.599421 -0.847307 1.945613 0.062529 -0.032672 -151334.000000 0 0 1
19.286145 -22.645124 -10.162701 31.433064 -0.865334 1.900024 0.066749 -0.021617 614269.000000 0 0 1
18.359745 -21.933824 -9.288601 30.074091 -0.873868 1.884788 0.060810 -0.019483 978907.000000 0 0 1
16.990745 -22.260624 -9.488201 29.567664 -0.918860 1.897474 0.064964 0.001414 -271429.000000 0 0 1
16.050945 -21.653324 -8.452401 28.247873 -0.932906 1.874674 0.054062 -0.003710 -1468430.000000 0 0 1
15.889445 -20.267524 -8.620701 27.158120 -0.905897 1.893811 0.033655 -0.013391 75728.200000 0 0 1
14.992845 -19.756824 -7.666401 25.959414 -0.921643 1.870589 0.030288 -0.014402 -274048.000000 0 0 1
13.518345 -19.909824 -8.059101 25.379043 -0.974318 1.893940 0.028188 -0.006399 -849796.000000 0 0 1
13.126145 -21.312524 -8.002701 26.278557 -1.018776 1.880245 0.033390 -0.005325 -2527880.000000 0 0 1
11.848845 -21.541324 -8.303901 25.949538 -1.067913 1.896528 0.030299 -0.003727 -2249520.000000 0 0 1
11.334445 -22.908724 -7.927501 26.760503 -1.111345 1.871549 0.024960 -0.003519 -237918.000000 0 0 1
11.410245 -23.185824 -6.526801 26.652865 -1.113471 1.818194 0.028360 -0.004804 401523.000000 0 0 1
10.726145 -24.399724 -6.221501 27.369760 -1.156624 1.800114 0.018894 0.002866 50680.400000 0 0 1
11.199645 -24.939224 -4.892401 27.772874 -1.148710 1.747878 0.037477 -0.001559 -479868.000000 0 0 1
10.357145 -25.840744 -4.276301 28.165604 -1.189595 1.723213 0.058759 -0.007763 -712928.000000 0 0 1
11.012845 -26.358974 -3.150401 28.740273 -1.175038 1.680633 0.051665 -0.011605 77333.700000 0 0 1
10.165945 -27.058904 -2.076001 28.980001 -1.211415 1.642493 0.069529 -0.016049 -112234.000000 0 0 1
9.221245 -26.324574 -1.363001 27.926194 -1.233863 1.619623 0.056940 -0.012391 -184037.000000 0 0 1
8.360445 -27.189624 -0.642501 28.453216 -1.272485 1.593379 0.057886 -0.021008 60883.700000 0 0 1
7.604845 -26.523524 0.495099 27.596668 -1.291566 1.552855 0.065221 -0.015473 -351452.000000 0 0 1
6.439645 -25.847344 0.120199 26.637730 -1.326626 1.566284 0.069376 -0.025386 -182654.000000 0 0 1
5.729645 -25.401284 1.287199 26.071266 -1.348944 1.521404 0.061165 -0.020116 -126244.000000 0 0 1
4.348145 -24.780124 1.064599 25.181228 -1.397096 1.528506 0.059386 -0.023570 41736.400000 0 0 1
3.436245 -25.785704 0.606799 26.020732 -1.438315 1.547474 0.060143 -0.023419 -219630.000000 0 0 1
2.120445 -25.305194 0.711899 25.403856 -1.487197 1.542769 0.054967 -0.019886 15923.200000 0 0 1
0.998645 -26.290384 0.276199 26.310793 -1.532829 1.560299 0.061454 -0.019539 187384.000000 0 0 1
0.666545 -27.268864 1.233999 27.304907 -1.546358 1.525588 0.062923 -0.015966 -112676.000000 0 0 1
1.286945 -28.536424 1.065799 28.585304 -1.525729 1.533503 0.055520 -0.018212 -459792.000000 0 0 1
0.669245 -29.627234 1.880299 29.694383 -1.548211 1.507432 0.072371 -0.012988 -184618.000000 0 0 1
0.884545 -29.540644 3.248399 29.731871 -1.540862 1.461321 0.059798 -0.009171 -125816.000000 0 0 1
0.297045 -30.661044 3.859999 30.904489 -1.561109 1.445568 0.067419 -0.004852 -217667.000000 0 0 1
0.431445 -30.674424 5.422199 31.152956 -1.556732 1.395854 0.055663 -0.004885 431083.000000 0 0 1
1.805845 -30.641424 5.812299 31.240050 -1.511930 1.383653 0.050488 0.000363 402559.000000 0 0 1
2.029445 -30.717404 7.207899 31.616947 -1.504824 1.340798 0.053388 -0.005177 -1612380.000000 0 0 1
3.439345 -30.897534 7.596399 32.002999 -1.459938 1.331144 0.056831 -0.008666 -1538800.000000 0 0 1
3.817345 -32.204624 7.378599 33.258888 -1.452813 1.347081 0.048613 -0.009575 -580887.000000 0 0 1
5.175545 -32.511914 7.522099 33.769702 -1.412932 1.346165 0.026720 -0.012918 -369176.000000 0 0 1
5.364545 -34.046564 7.505099 35.274259 -1.414516 1.356393 0.025461 0.000152 -206395.000000 0 0 1
5.298345 33.689981 6.190399 34.661338 1.414806 1.391236 0.024041 0.001695 17573.800000 0 0 1
5.208145 32.258534 6.310899 33.280103 1.410727 1.380011 0.014566 0.000506 -315068.000000 0 0 1
5.492945 31.622940 4.963999 32.478055 1.398811 1.417353 0.030230 -0.006811 2221310.000000 0 0 1
6.881845 31.804980 4.469999 32.846575 1.357705 1.434286 0.036324 -0.008112 1844670.000000 0 0 1
7.597745 30.658930 4.121899 31.854133 1.327875 1.441033 0.029388 -0.003195 45972.900000 0 0 1
9.003345 30.990260 3.594499 32.471170 1.288058 1.459871 0.024998 -0.004866 -194479.000000 0 0 1
9.920345 31.330000 4.580699 33.180792 1.264144 1.432301 0.023262 -0.006052 224919.000000 0 0 1
11.251445 31.398770 4.039099 33.597502 1.226711 1.450285 0.042552 -0.012552 631377.000000 0 0 1
12.380245 31.793090 4.982099 34.480319 1.199461 1.425798 0.036450 -0.018939 -238483.000000 0 0 1
12.838845 30.684190 5.736599 33.752986 1.174513 1.400009 0.050395 -0.020008 -639834.000000 0 0 1
13.840045 31.141350 6.574199 34.706637 1.152587 1.380223 0.067351 -0.025473 -91008.700000 0 0 1
14.551745 30.094250 7.477999 34.254017 1.120404 1.350714 0.074925 -0.029981 -77997.500000 0 0 1
13.723245 29.774320 8.538199 33.878289 1.138908 1.316023 0.055184 -0.017105 -261155.000000 0 0 1
14.323345 28.820800 9.366699 33.519126 1.109568 1.287582 0.056401 -0.015481 129830.000000 0 0 1
14.017845 29.035950 10.888699 34.031605 1.121023 1.245111 0.036928 -0.008655 -332442.000000 0 0 1
14.717945 30.115740 11.450499 35.421599 1.116219 1.241621 0.061034 -0.025106 -185926.000000 0 0 1
14.410645 30.492080 12.764099 36.060447 1.129306 1.208990 0.053828 -0.018556 -83191.900000 0 0 1
15.499845 31.489570 13.277299 37.524990 1.113391 1.209138 0.057063 -0.016648 476591.000000 0 0 1
16.594345 30.799520 13.854999 37.629028 1.076604 1.193724 0.048508 -0.017547 -57652.700000 0 0 1
17.139745 31.582620 14.896599 38.899118 1.073579 1.177804 0.058448 -0.019396 -365464.000000 0 0 1
18.237445 30.891510 15.692799 39.155507 1.037487 1.158427 0.052622 -0.017443 214985.000000 0 0 1
19.459045 30.647540 14.995099 39.278227 1.005088 1.179090 0.043753 -0.015140 338119.000000 0 0 1
19.953745 29.378400 15.259099 38.653363 0.974168 1.164981 0.026417 -0.006846 -243817.000000 0 0 1
21.279545 29.079260 14.513399 38.846636 0.939060 1.187901 0.049118 -0.013302 94201.000000 0 0 1
22.404745 29.309950 15.332399 39.951574 0.918138 1.176916 0.056859 -0.009959 1347690.000000 0 0 1
23.647245 29.000430 14.589799 40.163159 0.886729 1.199028 0.058865 -0.013431 1787820.000000 0 0 1
24.941845 28.982350 15.438499 41.236143 0.860188 1.187055 0.082079 -0.016805 81197.000000 0 0 1
24.833845 28.011080 16.436099 40.883809 0.845450 1.157075 0.065556 -0.009634 98178.100000 0 0 1
25.837645 28.103810 17.421899 41.963444 0.827385 1.142668 0.068843 -0.013090 -274960.000000 0 0 1
26.698245 26.823430 17.680899 41.772082 0.787737 1.133744 0.042301 -0.004013 -46222.500000 0 0 1
26.234245 25.670870 18.405399 41.060783 0.774545 1.105992 0.046007 -0.006981 -201735.000000 0 0 1
25.922045 25.875160 19.788799 41.630192 0.784493 1.075438 0.060614 -0.004679 257460.000000 0 0 1
25.332145 24.544280 20.420499 40.757037 0.769603 1.046008 0.065787 -0.006129 824158.000000 0 0 1
26.370045 23.551070 20.551799 40.895093 0.728989 1.044251 0.041524 0.000697 514655.000000 0 0 1
25.825545 22.213620 20.579999 39.798744 0.710352 1.027335 0.040688 -0.008034 452052.000000 0 0 1
26.766745 21.005120 20.205999 39.572163 0.665371 1.034901 0.024753 -0.001357 449597.000000 0 0 1
26.026745 19.772320 20.214899 38.431474 0.649675 1.016908 0.007994 0.008669 1089250.000000 0 0 1
26.885745 18.597320 20.406499 38.537369 0.605145 1.012756 0.022281 0.004358 785298.000000 0 0 1
27.445945 18.352520 21.794099 39.561062 0.589394 0.987357 0.031563 0.008755 489359.000000 0 0 1
26.376745 17.862220 22.607799 39.062823 0.595257 0.953595 0.016927 0.014046 891575.000000 0 0 1
26.842645 17.730520 23.941199 40.100872 0.583746 0.931010 0.037299 0.015182 -76943.200000 0 0 1
25.879845 16.935120 24.865699 39.684602 0.579445 0.893635 0.017747 0.012168 46698.600000 0 0 1
25.703945 15.538720 24.541499 38.786979 0.543741 0.885729 0.017453 0.003607 -135576.000000 0 0 1
24.574645 15.080320 25.206499 38.297478 0.550399 0.852402 0.025410 -0.000334 -639657.000000 0 0 1
24.078545 13.796220 24.599999 37.084659 0.520305 0.845514 0.030781 0.001085 -350771.000000 0 0 1
22.920445 13.261820 25.192099 36.549480 0.524537 0.810329 0.017258 0.001698 56634.900000 0 0 1
22.507645 12.144920 24.447599 35.380478 0.494816 0.807937 0.033884 0.002093 -298171.000000 0 0 1
21.209845 11.510820 24.975299 34.729268 0.497230 0.768229 0.028730 -0.002217 -147630.000000 0 0 1
20.086245 12.360720 24.836099 34.250203 0.551653 0.759563 0.038904 -0.000534 139651.000000 0 0 1
18.889945 11.601720 25.031999 33.436969 0.550777 0.724799 0.045597 -0.005693 938032.000000 0 0 1
17.650845 12.582520 25.025099 33.107819 0.619303 0.713819 0.031658 -0.013423 333011.000000 0 0 1
17.347645 12.957020 26.314199 34.077298 0.641517 0.688513 0.061209 -0.014677 189353.000000 0 0 1
16.296245 13.898720 26.411299 34.004393 0.706163 0.681383 0.075124 -0.016641 -106297.000000 0 0 1
15.932345 14.179020 27.852499 35.080563 0.727236 0.653504 0.064005 -0.006909 -220198.000000 0 0 1
15.459045 13.122520 28.628899 35.082709 0.703830 0.616270 0.075982 -0.007184 -222063.000000 0 0 1
15.500545 13.353620 30.054299 36.357213 0.711129 0.597687 0.065542 -0.004605 1081720.000000 0 0 1
16.932645 13.134920 30.762999 37.491368 0.659757 0.608449 0.065652 -0.002462 759139.000000 0 0 1
17.826945 14.153520 30.564999 38.109595 0.671035 0.640112 0.081340 -0.005222 -862749.000000 0 0 1
19.047245 13.521020 30.252099 38.220479 0.617318 0.657512 0.072034 0.001339 -135055.000000 0 0 1
20.140445 14.606620 29.891799 38.891008 0.627464 0.694140 0.052676 -0.002312 106355.000000 0 0 1
20.009645 15.271920 28.656899 38.142303 0.651913 0.720743 0.070620 -0.008480 50136.000000 0 0 1
20.244045 14.510720 27.517399 37.115894 0.621905 0.735655 0.053663 -0.000223 -524888.000000 0 0 1
19.956145 15.350020 26.244199 36.367964 0.655669 0.764643 0.047913 -0.004326 -269771.000000 0 0 1
21.053445 16.100720 25.770999 36.967893 0.652877 0.799426 0.052519 0.002161 152943.000000 0 0 1
20.781145 16.717720 24.525799 36.233313 0.677458 0.827273 0.040355 0.002424 92478.500000 0 0 1
21.997445 17.569620 24.071699 37.040867 0.673955 0.863385 0.038006 -0.000069 -150603.000000 0 0 1
21.778445 18.227820 22.831099 36.439171 0.696878 0.893673 0.042623 -0.010842 528925.000000 0 0 1
22.954545 18.862020 22.309299 37.153624 0.687840 0.926719 0.039531 -0.004531 388426.000000 0 0 1
23.203145 20.254920 22.980799 38.428698 0.717661 0.929779 0.058411 -0.017495 291053.000000 0 0 1
22.290445 21.302020 22.593199 38.224241 0.762728 0.938412 0.062420 -0.016327 760748.000000 0 0 1
22.618245 22.495320 23.351199 39.533567 0.782673 0.938910 0.076160 -0.020664 393571.000000 0 0 1
21.595045 23.603860 22.977799 39.388671 0.829813 0.947936 0.083588 -0.031041 8428.980000 0 0 1
21.962345 24.291880 21.793299 39.336852 0.835719 0.983614 0.083338 -0.025566 -136014.000000 0 0 1
21.138345 25.354000 21.444199 39.363798 0.875825 0.994682 0.081854 -0.027268 -546187.000000 0 0 1
21.828445 26.312480 20.434499 39.829592 0.878274 1.032064 0.080250 -0.022382 1096.520000 0 0 1
21.836045 25.704400 19.120899 38.770321 0.866589 1.055050 0.066500 -0.023042 240278.000000 0 0 1
22.176645 26.733950 18.162799 39.196874 0.878306 1.088998 0.052224 -0.015953 -209438.000000 0 0 1
22.039445 26.103460 16.797199 38.069327 0.869614 1.113831 0.034407 -0.004250 -595403.000000 0 0 1
20.784345 25.712260 16.323499 36.872292 0.890988 1.112185 0.030476 -0.001677 -521639.000000 0 0 1
20.853245 25.280700 15.014999 36.047494 0.881075 1.141167 0.035686 -0.001642 582021.000000 0 0 1
19.451145 25.090950 14.289499 34.815120 0.911345 1.147860 0.049188 0.000317 787079.000000 0 0 1
18.769745 26.320760 14.089899 35.264869 0.951322 1.159776 0.049542 0.007781 -316399.000000 0 0 1
17.816745 26.523570 15.088399 35.335477 0.979295 1.129619 0.049924 0.009895 748257.000000 0 0 1
16.302945 26.102740 14.764499 34.133993 1.012507 1.123482 0.054815 -0.000727 815251.000000 0 0 1
16.030645 24.723050 14.583499 32.876880 0.995540 1.111208 0.046692 0.002345 -50550.400000 0 0 1
15.978945 23.972090 15.743199 32.830414 0.982864 1.070676 0.055645 0.004453 427605.000000 0 0 1
14.833545 24.322690 16.806499 33.076967 1.023155 1.037816 0.099942 -0.014340 522864.000000 0 0 1
14.920145 25.568970 17.472799 34.375597 1.042579 1.037597 0.075153 -0.015919 724788.000000 0 0 1
13.650845 26.138280 17.860299 34.475289 1.089504 1.026214 0.084453 -0.020494 801347.000000 0 0 1
13.862645 27.398630 18.704199 35.954206 1.102391 1.023684 0.092657 -0.035445 -114712.000000 0 0 1
14.239145 28.511820 17.904999 36.554974 1.107619 1.058924 0.090007 -0.029722 294639.000000 0 0 1
14.665445 29.571000 18.770499 37.971713 1.110402 1.053734 0.082524 -0.023807 -116656.000000 0 0 1
14.805445 30.832900 17.991099 38.646456 1.123127 1.086563 0.073451 -0.026758 332845.000000 0 0 1
13.551045 31.390760 17.578599 38.444997 1.163274 1.095907 0.071273 -0.015787 467233.000000 0 0 1
13.621945 32.689976 17.191099 39.366557 1.175976 1.118877 0.053615 -0.019487 833086.000000 0 0 1
12.176645 33.340429 17.184899 39.435716 1.220626 1.119903 0.050740 -0.029034 881981.000000 0 0 1
12.092045 -33.632054 16.523399 39.374551 -1.225649 1.137740 0.049694 -0.025524 75316.200000 0 0 1
12.768645 -32.426664 16.999099 38.774942 -1.195672 1.116974 0.052458 -0.030979 98280.900000 0 0 1
12.548145 -32.122844 18.453499 39.113484 -1.198394 1.079472 0.066234 -0.036580 478976.000000 0 0 1
13.475645 -32.849154 19.348199 40.435290 -1.181504 1.071853 0.083081 -0.037844 1095220.000000 0 0 1
13.087245 -32.744664 20.711699 40.895763 -1.190570 1.039732 0.073422 -0.034713 -823860.000000 0 0 1
14.109445 -33.386724 21.598899 42.193153 -1.170955 1.033395 0.084995 -0.035502 -485229.000000 0 0 1
15.338645 -32.703654 21.469999 42.020993 -1.132239 1.034524 0.092088 -0.034862 28944.100000 0 0 1
16.314145 -33.106984 22.449499 43.199580 -1.112949 1.024332 0.101532 -0.032731 66473.900000 0 0 1
17.623745 -32.383624 22.148999 43.010157 -1.072403 1.029822 0.108002 -0.032567 -484180.000000 0 0 1
17.598945 -30.958954 22.266899 41.999934 -1.053890 1.012001 0.114138 -0.039402 606875.000000 0 0 1
18.883845 -30.424214 21.922899 41.986258 -1.015306 1.021433 0.096640 -0.031554 500689.000000 0 0 1
-4.556855 13.097476 18.367392 23.014558 -1.235977 0.646699 0.013026 -0.001446 -264621.000000 0 1 0
-4.328755 14.327776 17.715792 23.192080 -1.277393 0.701504 0.007746 -0.009008 -420612.000000 0 1 0
-5.562255 14.958976 17.694092 23.828356 -1.214804 0.733905 0.017848 -0.009488 -601358.000000 0 1 0
-5.517955 16.473176 17.479292 24.644249 -1.247577 0.782342 0.017472 -0.009058 -129161.000000 0 1 0
-5.053555 17.172976 18.630392 25.836816 -1.284601 0.765438 0.005495 -0.001237 213417.000000 0 0 1
-4.804755 18.507676 18.362292 26.510253 -1.316795 0.805641 0.007932 -0.002925 -534848.000000 0 0 1
-4.016955 19.252076 19.443392 27.655449 -1.365097 0.791107 -0.000782 -0.006054 -54667.300000 0 0 1
-4.826655 19.470376 20.612192 28.762034 -1.327798 0.771815 -0.016895 -0.002479 435186.000000 0 0 1
-4.153955 20.217676 21.567292 29.852267 -1.368155 0.763432 -0.022271 0.003876 -297956.000000 0 0 1
-5.120755 20.485876 22.739392 31.031810 -1.325850 0.748402 -0.010164 0.005919 217041.000000 0 0 1
-5.485055 19.320276 23.489992 30.905317 -1.294173 0.707386 -0.005156 -0.004772 46697.500000 0 0 1
-6.365055 19.536176 24.580982 32.037490 -1.255833 0.696244 -0.005824 -0.009903 147271.000000 0 0 1
-5.726355 20.151676 25.871132 33.289588 -1.293932 0.680666 -0.010922 -0.015437 -762905.000000 0 0 1
-5.397955 21.490476 25.594212 33.853245 -1.324708 0.713564 -0.002486 -0.010343 -222000.000000 0 0 1
-4.409555 22.063276 26.390352 34.679720 -1.373536 0.705984 0.010275 -0.006401 -374126.000000 0 0 1
-2.953655 21.603976 26.282752 34.150240 -1.434921 0.692549 0.015895 -0.010270 -873197.000000 0 0 1
-2.742755 20.329176 26.850342 33.789628 -1.436689 0.652394 0.029541 -0.008521 659374.000000 0 0 1
-1.402955 20.007776 26.419362 33.170199 -1.500790 0.649347 0.032648 -0.004017 874048.000000 0 0 1
-0.878555 18.701376 27.086982 32.927465 -1.523853 0.604782 0.030831 0.003065 -340848.000000 0 0 1
-1.400055 17.531876 26.525582 31.826614 -1.491108 0.585492 0.028861 0.006694 459999.000000 0 0 1
-0.514255 16.397076 26.766182 31.393583 -1.539444 0.549855 0.023954 0.005315 963705.000000 0 0 1
0.871945 16.372176 26.055642 30.784816 1.517589 0.561646 0.030997 0.009370 -132630.000000 0 0 1
0.954745 16.065576 24.685822 29.468697 1.511438 0.577745 0.023060 -0.001064 -217280.000000 0 0 1
0.798045 14.671376 24.475412 28.547013 1.516455 0.540654 0.028621 0.002164 -143874.000000 0 0 1
0.854245 14.299776 23.004892 27.100524 1.511129 0.556948 0.025872 -0.006301 407900.000000 0 0 1
2.181945 14.294076 22.481292 26.729945 1.419319 0.571570 0.026109 -0.005348 217267.000000 0 0 1
2.291545 13.580876 21.281492 25.349424 1.403638 0.574387 0.011625 -0.007455 -345957.000000 0 0 1
3.723745 13.440576 20.745892 24.998148 1.300523 0.591873 0.003363 -0.007871 -65184.100000 0 1 0
4.257945 14.668876 20.298292 25.403281 1.288289 0.645096 0.009724 -0.006930 649834.000000 0 0 1
5.638045 14.479076 19.945792 25.283706 1.199468 0.661813 0.028409 -0.011484 660346.000000 0 0 1
6.211445 15.512376 18.978292 25.286190 1.189929 0.721918 0.036092 -0.021178 -149430.000000 0 0 1
6.012245 15.208476 17.620492 24.040103 1.194329 0.748130 0.036561 -0.036146 272316.000000 0 1 0
6.526545 16.299076 16.866192 24.345926 1.189924 0.805470 0.037025 -0.024531 -101612.000000 0 1 0
6.526845 15.913476 15.324792 23.036659 1.181574 0.842988 0.034623 -0.023875 -113528.000000 0 1 0
7.491445 15.038876 14.771292 22.371424 1.108639 0.849611 0.027632 -0.022211 -90527.600000 0 1 0
7.680245 13.804576 15.401892 22.062882 1.063087 0.798069 0.028975 -0.022909 36807.400000 0 1 0
8.860745 12.944476 14.832392 21.588703 0.970536 0.813383 0.032293 -0.022922 932455.000000 0 1 0
10.131845 13.557676 15.047492 22.647116 0.929016 0.844061 0.033686 -0.026323 239811.000000 0 1 0
11.212145 12.823276 14.551692 22.403132 0.852330 0.863819 0.041001 -0.011965 383311.000000 0 1 0
12.616445 13.510876 14.584692 23.546373 0.819618 0.902814 0.050081 -0.001947 13417.600000 0 1 0
13.383045 13.171676 15.737792 24.500552 0.777439 0.873243 0.049885 -0.014343 657659.000000 0 1 0
14.734545 13.610176 15.787092 25.525986 0.745751 0.904000 0.046601 -0.013867 972160.000000 0 0 1
15.694045 13.004876 14.678992 25.117775 0.691968 0.946648 0.062763 -0.019819 -1372740.000000 0 0 1
16.969345 13.528976 14.687592 26.205290 0.673068 0.975829 0.059247 -0.022034 -733675.000000 0 0 1
17.787745 13.001976 13.691492 25.940551 0.631198 1.014785 0.062638 -0.021522 -479525.000000 0 0 1
19.170745 13.653676 13.560792 27.163126 0.618876 1.048080 0.058394 -0.020664 -374293.000000 0 0 1
19.897145 13.313376 14.707492 28.097200 0.589692 1.019901 0.030929 -0.015271 -190320.000000 0 0 1
21.210345 13.849976 14.655892 29.265948 0.578469 1.046293 0.033302 -0.023903 -86578.800000 0 0 1
22.050745 13.366476 15.820492 30.252041 0.544943 1.020481 0.036899 -0.020799 -471153.000000 0 0 1
22.425945 12.012676 15.931892 30.017538 0.491767 1.011308 0.044823 -0.019808 610614.000000 0 0 1
23.129345 11.871876 17.189592 31.167132 0.474217 0.986600 0.030582 -0.016758 -2349.350000 0 0 1
23.509545 10.406276 17.419692 31.055353 0.416717 0.975295 0.049871 -0.012096 -185666.000000 0 0 1
22.484545 9.654076 18.043992 30.402986 0.405562 0.935403 0.023456 -0.008119 391593.000000 0 0 1
22.481445 8.275676 17.666992 29.766168 0.352718 0.935364 0.027500 -0.002132 -273601.000000 0 0 1
21.228245 7.532876 18.154792 28.930590 0.340990 0.892421 0.058331 -0.006097 -212940.000000 0 0 1
21.124145 6.183676 17.732292 28.264846 0.284774 0.892635 0.078595 -0.018085 519039.000000 0 0 1
19.942445 5.601576 18.274692 27.623235 0.273831 0.847886 0.082570 -0.017024 -52342.100000 0 0 1
19.636545 4.138476 17.820892 26.838500 0.207714 0.844634 0.109161 -0.017027 -550436.000000 0 0 1
19.122145 4.087376 16.495592 25.582565 0.210582 0.870037 0.102745 -0.023640 373437.000000 0 0 1
18.895345 2.791776 15.984392 24.906402 0.146688 0.873981 0.087467 -0.028384 197835.000000 0 1 0
17.893745 1.781476 16.666392 24.517919 0.099232 0.823356 0.105095 -0.023145 -36604.900000 0 1 0
18.322645 1.236076 17.848292 25.608762 0.067360 0.799646 0.114742 -0.025639 70403.700000 0 0 1
17.361745 0.397276 18.479192 25.358796 0.022878 0.754361 0.104342 -0.030684 222833.000000 0 0 1
17.949845 -0.153624 19.824592 26.743877 -0.008558 0.735827 0.112638 -0.027964 133581.000000 0 0 1
18.650045 -1.336424 19.587592 27.079216 -0.071536 0.762163 0.107101 -0.024655 116877.000000 0 0 1
17.777345 -2.431524 19.784792 26.709255 -0.135933 0.736615 0.084353 -0.016081 182435.000000 0 0 1
18.274745 -3.683424 19.022292 26.634216 -0.198893 0.775309 0.070168 -0.012801 17617.000000 0 0 1
17.977945 -3.603724 17.641792 25.444570 -0.197831 0.804680 0.098418 -0.024109 244804.000000 0 0 1
17.678645 -4.877924 17.123192 25.090483 -0.269223 0.819677 0.094150 -0.021918 -305969.000000 0 0 1
17.298545 -4.680124 15.637792 23.784107 -0.264225 0.853315 0.080883 -0.026069 -159592.000000 0 1 0
15.930445 -4.327724 15.475292 22.627260 -0.265262 0.817671 0.083419 -0.024420 474292.000000 0 1 0
15.483545 -4.372924 14.091392 21.387612 -0.275255 0.851497 0.074009 -0.024985 365702.000000 0 1 0
16.008345 -3.221724 13.213692 21.005910 -0.198600 0.890470 0.076668 -0.022903 -227792.000000 0 1 0
15.259345 -2.058324 13.520392 20.491103 -0.134080 0.850220 0.074328 -0.016985 255535.000000 0 1 0
15.716345 -0.865524 12.919592 20.363410 -0.055016 0.883498 0.072444 -0.019602 -168430.000000 0 1 0
14.737845 0.259576 13.280792 19.840637 0.017611 0.837431 0.079312 -0.011607 -165647.000000 0 1 0
14.994345 1.555376 12.771292 19.757415 0.103361 0.867933 0.074415 -0.015990 -3263.620000 0 1 0
15.804945 2.328076 13.612292 20.988347 0.146249 0.865100 0.084727 -0.019273 -346781.000000 0 1 0
16.035045 3.658476 13.026292 20.980738 0.224315 0.900945 0.075979 -0.024642 140724.000000 0 1 0
14.894145 4.494876 13.138192 20.362994 0.293096 0.869512 0.055986 -0.019944 571475.000000 0 1 0
15.116745 5.683276 12.459192 20.397232 0.359611 0.913691 0.071715 -0.022987 -267322.000000 0 1 0
14.033545 6.715176 12.741992 20.109508 0.446307 0.884560 0.053758 -0.018865 -454724.000000 0 1 0
14.232645 7.925476 12.026492 20.248898 0.508089 0.934857 0.042768 -0.023098 318737.000000 0 1 0
13.327445 8.968876 12.372792 20.276772 0.592349 0.914489 0.035799 -0.007271 -189744.000000 0 1 0
13.535745 9.659176 13.715992 21.555614 0.619799 0.881095 0.046410 -0.014743 -2949.720000 0 1 0
13.037445 8.969776 14.870892 21.715784 0.602628 0.816472 0.044070 -0.019028 856520.000000 0 1 0
13.677945 9.485376 16.057492 23.127939 0.606336 0.803364 0.070120 -0.024156 84939.900000 0 1 0
13.039245 8.921176 17.355792 23.469827 0.600029 0.738478 0.061706 -0.026161 -774521.000000 0 1 0
11.856545 9.560876 17.660292 23.321104 0.678619 0.711679 0.049783 -0.025569 -485654.000000 0 1 0
11.041545 9.055976 18.723792 23.547968 0.686921 0.651568 0.047170 -0.007154 447010.000000 0 1 0
11.651445 9.126876 20.200292 25.042121 0.664491 0.632330 0.063147 -0.012565 -238745.000000 0 0 1
12.820145 8.336576 20.329592 25.439082 0.576566 0.644920 0.085996 -0.021803 167195.000000 0 0 1
13.507345 8.748476 21.503692 26.858759 0.574745 0.642465 0.084553 -0.011451 -926434.000000 0 0 1
14.999745 8.532376 21.381292 27.476416 0.517189 0.679051 0.080578 -0.010093 -817213.000000 0 0 1
15.659445 9.524376 20.622992 27.590573 0.546441 0.726558 0.070306 -0.008599 -111051.000000 0 0 1
16.640945 8.964376 19.784892 27.362804 0.494122 0.762577 0.062364 -0.009373 -95427.100000 0 0 1
17.373445 10.045376 18.946692 27.599335 0.524238 0.814144 0.064593 -0.016162 -75586.100000 0 0 1
18.410345 10.668276 19.668892 28.976166 0.525188 0.824675 0.057941 -0.011500 21551.900000 0 0 1
19.191545 11.495576 18.828192 29.239775 0.539678 0.871180 0.044498 -0.011843 465314.000000 0 0 1
20.303745 12.222776 19.631492 30.773914 0.541886 0.878994 0.036602 -0.003013 -253089.000000 0 0 1
19.665545 13.130676 20.497392 31.293632 0.588717 0.856611 0.032624 -0.001684 544435.000000 0 0 1
20.467745 13.708676 21.551492 32.731074 0.590148 0.852050 0.036831 0.003602 -274538.000000 0 0 1
21.522745 14.770876 21.146592 33.594429 0.601466 0.889929 0.015518 0.005312 -771877.000000 0 0 1
22.618645 14.039776 20.674392 33.706808 0.555513 0.910489 -0.017214 0.012560 -1129440.000000 0 0 1
23.716445 14.895276 20.774992 34.870321 0.560795 0.932562 -0.018341 0.008400 -438361.000000 0 0 1
25.073645 14.152476 20.698792 35.460122 0.513859 0.947493 -0.017944 0.001309 -27755.100000 0 0 1
25.302045 13.298876 19.560792 34.636370 0.483921 0.970669 -0.006857 -0.005073 617115.000000 0 0 1
26.519145 12.577176 19.772592 35.389346 0.442851 0.977960 0.029765 -0.015143 498163.000000 0 0 1
27.083145 11.839676 18.510192 34.875519 0.412125 1.011311 0.070517 -0.022964 -15945.900000 0 0 1
27.328745 12.679776 17.394392 34.787956 0.434412 1.047184 0.074111 -0.032079 406583.000000 0 0 1
27.862645 11.923476 16.322792 34.422809 0.404356 1.076758 0.102760 -0.042720 198470.000000 0 0 1
26.800645 11.623176 15.220792 32.940026 0.409208 1.090462 0.079086 -0.044983 380434.000000 0 0 1
26.360745 12.800576 14.557292 32.720916 0.452055 1.109742 0.086456 -0.042365 176721.000000 0 0 1
25.332945 12.583076 13.612792 31.391081 0.461011 1.122255 0.068754 -0.036396 -22558.000000 0 0 1
24.970945 13.790276 12.748192 31.244779 0.504571 1.150523 0.055166 -0.033502 322285.000000 0 0 1
24.047545 14.743776 13.324592 31.196283 0.550003 1.129490 0.038200 -0.030171 740780.000000 0 0 1
23.864745 15.930476 12.493992 31.295462 0.588601 1.160123 0.024314 -0.021512 -478310.000000 0 0 1
22.886045 16.970576 13.027992 31.328902 0.638055 1.141924 0.028649 -0.024086 1011560.000000 0 0 1
21.499945 16.563576 12.880992 30.041964 0.656430 1.127669 0.048642 -0.030095 1058680.000000 0 0 1
20.579145 17.509576 13.365492 30.145030 0.704982 1.111438 0.036635 -0.022287 -444633.000000 0 0 1
19.737545 18.178276 12.286592 29.512383 0.744297 1.141402 0.066670 -0.016063 -444750.000000 0 0 1
18.707145 17.405676 11.745692 28.122520 0.749375 1.139926 0.068795 -0.013764 520236.000000 0 0 1
17.428445 17.705376 12.366792 27.751911 0.793280 1.108930 0.046550 -0.010613 1438980.000000 0 0 1
16.252745 16.972076 11.570492 26.193117 0.807045 1.113261 0.055601 -0.006993 478077.000000 0 0 1
16.090045 15.564876 11.832992 25.321426 0.768809 1.084549 0.051159 -0.000097 -26765.000000 0 0 1
15.182545 14.901676 10.996092 23.947519 0.776062 1.093731 0.058896 -0.011894 -68231.000000 0 1 0
15.819745 13.773076 10.134192 23.295145 0.716347 1.120720 0.076176 -0.015758 -6946.460000 0 1 0
15.891845 12.555276 10.888392 22.994407 0.668641 1.077509 0.073066 -0.013053 373806.000000 0 1 0
16.385245 11.481576 10.113492 22.418420 0.611213 1.102772 0.079749 -0.013889 -432097.000000 0 1 0
16.825845 10.329876 10.940492 22.572323 0.550599 1.064792 0.084798 -0.020209 -1106360.000000 0 1 0
17.480345 9.432376 10.120092 22.292340 0.494823 1.099579 0.090158 -0.017739 115053.000000 0 1 0
18.023745 8.315876 10.778092 22.587086 0.432281 1.073354 0.095307 -0.017360 566744.000000 0 1 0
19.287045 8.540376 11.673192 24.107914 0.416853 1.065341 0.078952 -0.019964 -88401.300000 0 1 0
18.892545 9.090176 12.939892 24.637377 0.448455 1.017830 0.065230 -0.022200 726478.000000 0 1 0
20.011045 9.277776 13.834292 26.036641 0.434133 1.010616 0.072176 -0.024708 -809515.000000 0 0 1
19.584145 9.627976 15.298892 26.651318 0.456922 0.959366 0.060670 -0.016582 -70098.800000 0 0 1
18.857245 8.643676 15.964992 26.176130 0.429796 0.914854 0.073780 -0.022534 306419.000000 0 0 1
17.632145 8.246876 15.376992 24.806357 0.437490 0.902205 0.078949 -0.027424 -920067.000000 0 1 0
17.102345 6.893676 15.967992 24.392411 0.383162 0.857104 0.087048 -0.024218 -583673.000000 0 1 0
16.469645 6.985476 17.239692 24.844578 0.401144 0.803903 0.098157 -0.018684 189145.000000 0 1 0
16.098745 5.696076 17.692992 24.589771 0.340075 0.767676 0.107722 -0.007033 193361.000000 0 1 0
14.697645 5.297576 17.128192 23.183184 0.345942 0.739479 0.105913 -0.028634 -284722.000000 0 1 0
14.310045 4.006276 17.508992 22.965026 0.272974 0.703752 0.117822 -0.015886 -15087.100000 0 1 0
13.447445 3.543476 16.485792 21.567831 0.257649 0.700733 0.082625 -0.017040 -259134.000000 0 1 0
13.064645 2.122076 16.830292 21.411372 0.161023 0.666412 0.073175 -0.015161 178805.000000 0 1 0
14.140645 1.153976 16.762492 21.960661 0.081427 0.702396 0.082371 -0.021170 443974.000000 0 1 0
13.874745 -0.246524 16.632692 21.661388 -0.017766 0.695318 0.072919 -0.010863 -274426.000000 0 1 0
13.098445 -0.911024 17.802992 22.121160 -0.069440 0.635467 0.058997 -0.015405 1916000.000000 0 1 0
11.660545 -0.662224 17.805892 21.294521 -0.056731 0.580529 0.044811 -0.000662 1702920.000000 0 1 0
10.903045 -1.478624 18.710492 21.705880 -0.134793 0.531592 0.054361 -0.013269 308194.000000 0 1 0
-25.994225 14.042676 28.774492 41.241580 -0.495306 0.798606 0.086154 -0.003404 35150.200000 0 0 1
-25.120025 14.084176 29.903062 41.515934 -0.511002 0.766592 0.078937 -0.005499 522677.000000 0 0 1
-24.378355 12.872076 29.991732 40.736943 -0.485806 0.743315 0.065728 0.004949 -174388.000000 0 0 1
-23.292855 12.938676 31.083662 40.940939 -0.507039 0.708664 0.061092 -0.000667 -281893.000000 0 0 1
-23.690455 12.941776 32.425106 42.191406 -0.499988 0.694265 0.056324 0.003355 275831.000000 0 0 1
-22.534055 13.051176 33.264672 42.245181 -0.524967 0.664185 0.065734 -0.000075 533065.000000 0 0 1
-22.835855 13.280076 -33.434361 42.610952 -0.526739 2.472915 0.079201 -0.004758 24076.600000 0 0 1
-23.365955 12.110276 -32.840171 42.084481 -0.478170 2.466004 0.056651 -0.000619 314635.000000 0 0 1
-24.090155 12.395776 -31.623661 41.641888 -0.475226 2.433217 0.048164 -0.009776 363241.000000 0 0 1
-25.009955 11.261176 -31.171541 41.520801 -0.423077 2.419986 0.038349 -0.011019 -330511.000000 0 0 1
-24.261255 10.283776 -30.534721 40.332788 -0.400919 2.429612 0.055982 -0.020392 24885.700000 0 0 1
-24.087355 9.186476 -31.422491 40.644372 -0.364354 2.454523 0.047737 -0.015121 135859.000000 0 0 1
-23.166755 8.090276 -30.819161 39.395074 -0.335979 2.469162 0.046705 -0.001100 175680.000000 0 0 1
-23.813055 7.213076 -29.885551 38.887482 -0.294119 2.447311 0.041816 -0.005462 1127190.000000 0 0 1
-22.819755 6.474576 -29.116501 37.555719 -0.276461 2.457967 0.034907 0.003080 605366.000000 0 0 1
-23.508955 5.644676 -28.072481 37.048584 -0.235647 2.430610 0.025071 0.007418 -139238.000000 0 0 1
-24.303255 4.585476 -28.530421 37.757910 -0.186485 2.427388 0.039136 0.000738 -14199.600000 0 0 1
-24.636755 3.712076 -27.472351 37.087455 -0.149547 2.404975 0.058620 0.010783 -98715.400000 0 0 1
-25.464595 2.417176 -27.807051 37.782542 -0.094639 2.397904 0.070347 0.009969 765587.000000 0 0 1
-26.792205 2.493376 -28.307291 39.055626 -0.092796 2.381532 0.082234 0.000203 369605.000000 0 0 1
-27.018645 3.230476 -29.469801 40.111250 -0.119000 2.396023 0.071369 0.003675 -1369010.000000 0 0 1
-28.361535 2.971576 -30.152091 41.501272 -0.104394 2.384061 0.107329 -0.011728 -709661.000000 0 0 1
-29.322925 3.746976 -29.462251 41.736052 -0.127094 2.354515 0.094680 -0.001597 -489430.000000 0 0 1
-30.506485 3.788976 -30.217421 43.105621 -0.123570 2.347607 0.098285 -0.014297 -105355.000000 0 0 1
-30.966135 5.179876 -30.711651 43.919679 -0.165741 2.345170 0.106040 -0.038296 -275458.000000 0 0 1
-29.941865 5.762876 -31.473221 43.821110 -0.190144 2.372038 0.105777 -0.031307 131935.000000 0 0 1
-30.300305 6.975876 -32.095241 44.686417 -0.226282 2.372055 0.104082 -0.035693 -643520.000000 0 0 1
-30.326385 8.261976 -31.157361 44.257554 -0.265980 2.351812 0.079603 -0.036974 359003.000000 0 0 1
-29.034015 8.808176 -30.860381 43.277259 -0.294550 2.364686 0.054283 -0.049212 859893.000000 0 0 1
-28.242295 8.021576 -29.976591 41.959134 -0.276739 2.366596 0.041632 -0.037508 -551966.000000 0 0 1
-28.262105 8.529176 -28.459631 41.005415 -0.293097 2.337890 0.020403 -0.018557 -562974.000000 0 0 1
-29.522505 8.670176 -27.863411 41.510480 -0.285649 2.306674 0.034324 -0.017109 -113208.000000 0 0 1
-30.113525 7.515376 -27.268791 41.314553 -0.244572 2.291653 0.036541 -0.009057 -1071060.000000 0 0 1
-31.519195 7.762676 -26.777711 42.080454 -0.241478 2.260548 0.041370 -0.007934 -870189.000000 0 0 1
-31.675735 8.519776 -25.609241 41.614565 -0.262750 2.233679 0.001665 -0.003962 -43224.000000 0 0 1
-31.454355 7.855076 -24.356901 40.550429 -0.244724 2.215119 0.007249 -0.003247 -90129.000000 0 0 1
-30.871515 8.881476 -23.327501 39.700169 -0.280127 2.198876 0.006496 -0.004583 -869059.000000 0 0 1
-31.780625 9.633876 -22.617701 40.179350 -0.294332 2.168709 0.011044 -0.000843 -218551.000000 0 0 1
-31.148545 10.699276 -21.891601 39.546790 -0.330865 2.157432 0.020184 -0.004817 388564.000000 0 0 1
-32.151255 11.688176 -21.163001 40.226724 -0.348683 2.124796 0.014959 0.002391 325210.000000 0 0 1
-32.607125 11.081676 -19.951001 39.800385 -0.327608 2.095870 0.009401 -0.006315 349949.000000 0 0 1
-33.338295 11.967876 -19.106101 40.245684 -0.344655 2.065461 0.000869 -0.000459 -34495.000000 0 0 1
-32.420195 12.840076 -18.235101 39.350420 -0.377098 2.052628 0.014150 -0.003299 -73335.500000 0 0 1
-31.682125 12.227576 -17.165901 38.051792 -0.368332 2.038816 0.040837 -0.006413 535900.000000 0 0 1
-32.403905 11.707276 -16.022401 37.997246 -0.346699 2.006086 0.034317 -0.002053 -101675.000000 0 0 1
-32.908155 12.824676 -15.063301 38.396902 -0.371605 1.973933 0.019039 -0.001113 -702232.000000 0 0 1
-33.826785 13.623176 -15.696301 39.701590 -0.382861 1.977253 0.007605 0.001476 -773372.000000 0 0 1
-34.393150 14.470076 -14.748901 40.122338 -0.398245 1.947221 -0.004136 0.004621 -80322.000000 0 0 1
-35.083208 15.686476 -15.431701 41.412974 -0.420458 1.952637 -0.000279 0.003032 482442.000000 0 0 1
-36.277565 15.305676 -16.107001 42.541285 -0.399246 1.959102 -0.001375 0.003843 253044.000000 0 0 1
36.241335 16.301176 -16.681201 43.097856 0.422684 1.968231 -0.004921 -0.002624 -1093330.000000 0 0 1
36.160795 16.337976 -18.217101 43.662287 0.424362 2.001189 -0.012135 -0.000496 242099.000000 0 0 1
35.228025 15.407376 -18.814301 42.806295 0.412294 2.025863 0.024526 -0.007148 223190.000000 0 0 1
33.930155 15.898876 -18.719701 41.886238 0.438194 2.034113 0.077595 -0.020498 -1179940.000000 0 0 1
32.770335 14.941476 -19.061301 40.748936 0.427787 2.057567 0.099630 -0.025329 -121135.000000 0 0 1
32.547505 14.694576 -20.453501 41.153570 0.424085 2.090939 0.097364 -0.023883 799099.000000 0 0 1
31.518065 13.697076 -20.658601 40.097084 0.409956 2.112054 0.070475 -0.024639 421309.000000 0 0 1
31.867395 12.212576 -20.411101 39.765449 0.365967 2.109807 0.070356 -0.006300 -133992.000000 0 0 1
32.087985 11.968676 -19.043401 39.185956 0.357012 2.078275 0.074218 -0.003912 -64109.100000 0 0 1
32.755975 10.753576 -18.858301 39.296677 0.317208 2.071332 0.054343 0.007080 -499231.000000 0 0 1
33.036165 10.435376 -17.391101 38.765135 0.305959 2.036025 0.041548 0.009076 -805308.000000 0 0 1
31.912475 10.354476 -16.571601 37.419770 0.313748 2.029579 0.054491 -0.002535 -419716.000000 0 0 1
32.271655 10.171976 -15.180401 37.086027 0.305341 1.992515 0.016248 0.002901 -21642.500000 0 0 1
31.523655 11.142976 -14.218501 36.332802 0.339772 1.972884 0.041284 -0.005818 -269523.000000 0 0 1
30.161935 10.864576 -14.056601 35.005276 0.345740 1.984012 0.058734 -0.004830 -167379.000000 0 0 1
29.574645 11.824676 -13.178901 34.469784 0.380355 1.963115 0.072541 -0.006757 434708.000000 0 0 1
28.022415 11.933076 -13.161001 33.179301 0.402582 1.978675 0.096004 -0.010973 -123767.000000 0 0 1
27.386715 10.874576 -12.452501 31.989895 0.377982 1.970628 0.085379 -0.013345 13363.200000 0 0 1
26.019115 10.703076 -12.738401 30.883929 0.390256 1.995950 0.093854 -0.008429 -263398.000000 0 0 1
25.693515 10.189676 -14.200201 31.074619 0.377559 2.045383 0.090415 -0.023509 -1005420.000000 0 0 1
26.020015 8.811476 -14.316701 30.978238 0.326521 2.051218 0.085005 -0.019901 -73030.300000 0 0 1
27.369315 8.616976 -14.623501 32.205255 0.305016 2.042127 0.088561 -0.025419 -598268.000000 0 0 1
28.144315 7.631876 -13.714001 32.224553 0.264801 2.010395 0.096605 -0.022838 -94734.800000 0 0 1
27.658015 6.276776 -13.756101 31.521327 0.223162 2.022397 0.086189 -0.035275 -228168.000000 0 0 1
26.568315 5.971076 -12.974201 30.163869 0.221071 2.015426 0.097700 -0.034306 -838314.000000 0 0 1
26.182715 4.482576 -13.014101 29.580312 0.169560 2.026348 0.103079 -0.039995 -257986.000000 0 0 1
25.258915 4.103376 -12.027001 28.275418 0.161046 2.010147 0.105963 -0.041271 264560.000000 0 0 1
25.067315 2.749076 -12.047501 27.947629 0.109231 2.016479 0.088814 -0.044559 -141515.000000 0 0 1
24.255115 2.207376 -10.803101 26.643763 0.090757 1.988283 0.090011 -0.041549 -20630.500000 0 0 1
24.914315 2.119776 -9.528201 26.758235 0.084878 1.934871 0.096411 -0.032416 443233.000000 0 0 1
24.058015 1.616276 -8.501201 25.566988 0.067082 1.909757 0.097525 -0.019633 -385307.000000 0 0 1
24.751215 1.071676 -7.212701 25.802988 0.043271 1.854101 0.110596 -0.006550 -166568.000000 0 0 1
24.864415 -0.315324 -7.062901 25.850012 -0.012681 1.847542 0.089999 -0.010783 608500.000000 0 0 1
25.748315 -0.949824 -7.981601 26.973762 -0.036872 1.871196 0.092871 -0.018133 -296121.000000 0 0 1
26.126215 -2.447124 -7.496501 27.290384 -0.093393 1.849068 0.102616 -0.018468 384108.000000 0 0 1
27.184515 -2.459024 -6.522901 28.064085 -0.090211 1.805370 0.106630 -0.020151 724835.000000 0 0 1
27.358215 -3.788124 -6.079401 28.280398 -0.137589 1.787456 0.117023 -0.026354 25122.600000 0 0 1
28.725095 -4.143624 -5.434201 29.526789 -0.143263 1.755895 0.116207 -0.019970 -585701.000000 0 0 1
29.769125 -4.286624 -6.329301 30.734931 -0.143013 1.778212 0.084028 -0.015133 257287.000000 0 0 1
30.900085 -4.744324 -5.538001 31.748910 -0.152348 1.746124 0.076334 -0.010648 1263940.000000 0 0 1
32.181835 -5.143024 -6.365301 33.205997 -0.158471 1.763681 0.054484 -0.013205 607055.000000 0 0 1
31.841355 -6.080824 -7.350401 33.239686 -0.188700 1.793773 0.058281 -0.028504 148433.000000 0 0 1
32.629215 -5.847224 -8.494101 34.219957 -0.177320 1.821639 0.060893 -0.028340 -942712.000000 0 0 1
32.016455 -6.610624 -9.712901 34.104167 -0.203614 1.859595 0.064819 -0.030309 1051250.000000 0 0 1
30.713145 -6.100724 -10.086401 32.897593 -0.196083 1.882415 0.063771 -0.032568 762879.000000 0 0 1
29.718485 -6.724324 -9.310901 31.860599 -0.222520 1.867363 0.066931 -0.032111 -1376700.000000 0 0 1
28.522985 -5.759024 -9.095801 30.487057 -0.199230 1.873759 0.075490 -0.027544 -127073.000000 0 0 1
27.664615 -5.720324 -10.213501 30.039451 -0.203900 1.917716 0.061497 -0.026358 221925.000000 0 0 1
26.510615 -4.932424 -10.137301 28.808096 -0.183951 1.930387 0.091533 -0.026815 720210.000000 0 0 1
25.135015 -5.607524 -9.814701 27.559783 -0.219502 1.934913 0.120034 -0.025849 -158673.000000 0 0 1
25.021815 -6.202524 -8.540001 27.156843 -0.242987 1.890694 0.115300 -0.030603 1137340.000000 0 0 1
23.680215 -6.553324 -8.163901 25.891078 -0.269986 1.891587 0.103037 -0.034676 486685.000000 0 0 1
22.798315 -5.384924 -7.654201 24.644419 -0.231947 1.886605 0.115522 -0.021871 -606272.000000 0 1 0
22.225615 -4.675224 -8.709501 24.324701 -0.207330 1.936977 0.110575 -0.017640 306754.000000 0 1 0
21.827115 -3.408724 -8.293401 23.597094 -0.154918 1.929925 0.098698 -0.016052 -136520.000000 0 1 0
21.739815 -2.380524 -9.429401 23.815962 -0.109066 1.977874 0.100435 -0.008685 33635.200000 0 1 0
23.047115 -2.170124 -9.945301 25.194999 -0.093884 1.976574 0.093900 -0.019289 949816.000000 0 0 1
22.990315 -1.438024 -11.144601 25.589541 -0.062468 2.021405 0.097411 -0.021953 -646629.000000 0 0 1
24.321915 -1.405024 -11.869401 27.100043 -0.057704 2.024152 0.082925 -0.020115 -648272.000000 0 0 1
25.374715 -0.686324 -11.241201 27.761697 -0.027041 1.987685 0.076276 -0.030791 -44531.900000 0 0 1
26.524215 -0.979224 -11.954601 29.110228 -0.036901 1.993981 0.068390 -0.027794 -744166.000000 0 0 1
27.793715 -0.218524 -11.512901 30.084635 -0.007862 1.963496 0.067504 -0.021416 385966.000000 0 0 1
29.013065 -0.519624 -12.218601 31.485269 -0.017908 1.969337 0.062911 -0.025322 1039810.000000 0 0 1
29.952635 0.543476 -12.062101 32.294736 0.018143 1.953576 0.069793 -0.021794 -19529.000000 0 0 1
29.780955 1.883776 -12.858801 32.493117 0.063170 1.977669 0.078355 -0.024163 -433108.000000 0 0 1
30.054905 1.720476 -14.271801 33.315787 0.057182 2.013495 0.066590 -0.025925 282101.000000 0 0 1
30.307655 2.896476 -14.934901 33.911573 0.095280 2.026849 0.080232 -0.025384 -209862.000000 0 0 1
30.542365 2.521976 -16.420401 34.768175 0.082386 2.062675 0.077295 -0.030837 -349382.000000 0 0 1
29.391985 1.913876 -16.931901 33.974122 0.065024 2.092521 0.064469 -0.018590 -289017.000000 0 0 1
29.531545 1.819676 -18.329701 34.805191 0.061540 2.125436 0.055835 -0.017775 718601.000000 0 0 1
28.269275 1.243376 -19.098201 34.138529 0.043955 2.164497 0.022704 -0.010587 263412.000000 0 0 1
28.166515 -0.168724 -18.812901 33.871910 -0.005990 2.159656 0.047326 -0.013576 293530.000000 0 0 1
27.818415 -0.912024 -19.971601 34.257274 -0.032773 2.193199 0.028446 -0.007834 -281765.000000 0 0 1
27.714615 -2.402724 -19.740401 34.110943 -0.086479 2.187944 0.028608 -0.010113 384476.000000 0 0 1
26.571915 -2.842324 -18.981901 32.778927 -0.106562 2.188407 0.032638 -0.012180 580261.000000 0 0 1
26.438815 -4.255724 -18.809501 32.724906 -0.159596 2.183127 0.037114 -0.007968 -481481.000000 0 0 1
27.358915 -5.023024 -17.855201 33.053732 -0.181575 2.141456 0.030784 -0.003149 -30252.700000 0 0 1
28.697535 -5.047924 -18.335401 34.426980 -0.174120 2.132452 0.033474 -0.002832 265998.000000 0 0 1
29.554465 -5.497924 -17.309301 34.688694 -0.183924 2.093229 0.038381 -0.005185 -249089.000000 0 0 1
31.056805 -5.270724 -17.521701 36.046022 -0.168111 2.078409 0.057145 -0.002623 -130509.000000 0 0 1
31.641165 -6.213224 -18.421801 37.136643 -0.193898 2.089845 0.049257 -0.005284 -250119.000000 0 0 1
32.933705 -5.858524 -18.832801 38.387832 -0.176047 2.083566 0.073385 -0.002386 -405116.000000 0 0 1
33.648535 -7.086624 -19.433601 39.498215 -0.207574 2.085196 0.062828 0.008771 -337659.000000 0 0 1
34.080365 -7.888524 -18.405701 39.528090 -0.227462 2.055149 0.072188 0.002952 -234901.000000 0 0 1
34.628615 -9.079524 -18.862701 40.464555 -0.256425 2.055735 0.065517 0.003853 -120652.000000 0 0 1
35.481965 -9.797624 -17.809501 40.891828 -0.269416 2.021420 0.070068 -0.004484 -729943.000000 0 0 1
34.684835 -10.116824 -16.684601 39.796530 -0.283805 2.003413 0.062705 -0.006343 258600.000000 0 0 1
35.179195 -10.973724 -15.623501 40.026143 -0.302373 1.971789 0.059608 -0.011673 -254188.000000 0 0 1
36.510905 -10.538124 -14.938001 40.831876 -0.280993 1.945333 0.083192 -0.017508 -242019.000000 0 0 1
-36.134405 -11.239524 -13.910801 40.317893 0.301561 1.923065 0.086520 -0.014757 328743.000000 0 0 1
-35.729998 -12.587924 -14.300101 40.491746 0.338728 1.931744 0.063874 -0.004363 -648323.000000 0 0 1
-34.352278 -12.663124 -14.970401 39.554350 0.353170 1.958946 0.075709 -0.013854 -652155.000000 0 0 1
-34.310099 -12.137724 -16.274801 39.866984 0.340025 1.991308 0.084633 -0.012461 462339.000000 0 0 1
-33.004365 -12.378424 -16.807801 39.051449 0.358818 2.015734 0.097027 -0.013686 422992.000000 0 0 1
-32.798855 -11.444524 -18.020801 39.134273 0.335722 2.049339 0.109116 -0.013963 216558.000000 0 0 1
-32.763795 -10.067924 -17.685401 38.569454 0.298130 2.047141 0.109890 -0.010541 -596721.000000 0 0 1
-33.879455 -9.455224 -18.209501 39.608139 0.272159 2.048500 0.104754 -0.007354 -684027.000000 0 0 1
-34.095827 -7.988924 -17.707301 39.241520 0.230156 2.038949 0.105829 -0.008219 156337.000000 0 0 1
-35.275805 -7.440524 -18.273001 40.418392 0.207877 2.039910 0.113095 -0.004328 301644.000000 0 0 1
-35.778774 -6.265524 -17.609801 40.366850 0.173361 2.022217 0.103705 -0.013063 230253.000000 0 0 1
24.771645 26.704376 -26.986111 45.332199 0.822927 2.208431 0.067559 0.008469 -90789.500000 0 0 1
25.641745 26.235776 -26.003101 44.966391 0.796848 2.187413 0.078649 -0.003867 -629285.000000 0 0 1
26.761045 25.659076 -26.599631 45.629838 0.764379 2.193143 0.072452 -0.012381 -432122.000000 0 0 1
27.546945 24.694076 -25.663131 45.024747 0.730843 2.177276 0.057511 -0.016660 -8650.090000 0 0 1
28.148345 25.386876 -24.580901 45.177909 0.733862 2.146102 0.073024 -0.007723 103369.000000 0 0 1
28.536945 24.494576 -23.549001 44.372254 0.709320 2.130240 0.054080 -0.008526 27014.700000 0 0 1
29.111045 25.300676 -22.349001 44.576395 0.715484 2.095971 0.038923 0.002112 -408150.000000 0 0 1
28.125745 26.020676 -21.688901 44.028872 0.746540 2.085878 0.059785 0.004924 -266438.000000 0 0 1
28.635145 26.913076 -20.710101 44.420642 0.754407 2.055817 0.035390 0.010678 540372.000000 0 0 1
27.493945 27.825276 -20.113201 43.985269 0.791388 2.045721 0.047088 0.017416 395908.000000 0 0 1
26.684345 27.179376 -19.177401 42.644407 0.794588 2.037231 0.063347 0.015062 127890.000000 0 0 1
25.829945 28.149876 -18.549401 42.469776 0.828349 2.022798 0.063531 0.011814 270375.000000 0 0 1
25.033745 27.633376 -17.330001 41.117159 0.834718 2.005871 0.057404 0.012522 308268.000000 0 0 1
24.096845 26.629376 -17.687101 40.032676 0.835282 2.028419 0.061861 0.010992 632589.000000 0 0 1
22.924545 26.598576 -16.854801 38.950011 0.859451 2.018314 0.048592 0.019111 805187.000000 0 0 1
21.824045 25.670076 -17.416001 37.928338 0.866201 2.047870 0.049466 0.010225 111989.000000 0 0 1
21.147245 26.204976 -18.556101 38.447830 0.891806 2.074452 0.045197 0.008340 -197126.000000 0 0 1
20.246345 25.237076 -19.027001 37.534668 0.894687 2.102402 0.043673 0.002377 7266.460000 0 0 1
19.564745 25.606876 -20.359301 38.118139 0.918368 2.134252 0.040386 0.003532 125588.000000 0 0 1
18.579245 26.598276 -20.260801 38.251231 0.961069 2.129016 0.027002 0.002941 -832141.000000 0 0 1
17.693345 26.634876 -21.314901 38.429105 0.984439 2.158745 0.025612 -0.000527 -507433.000000 0 0 1
16.604345 27.707476 -21.125801 38.596735 1.030911 2.149987 0.027469 -0.000511 -628037.000000 0 0 1
15.824945 27.456176 -20.020901 37.484757 1.047932 2.134248 0.032494 -0.001807 -287287.000000 0 0 1
14.825945 28.456576 -19.817701 37.713746 1.090488 2.124072 0.024710 -0.009657 382592.000000 0 0 1
14.347145 28.543576 -18.318701 36.825957 1.105039 2.091441 0.031987 -0.014747 316641.000000 0 0 1
13.477945 27.438176 -18.054101 35.502945 1.114204 2.104266 0.038716 -0.014239 55590.200000 0 0 1
12.963145 27.488576 -16.740801 34.697541 1.130140 2.074278 0.050221 -0.013687 88010.900000 0 0 1
12.096145 26.259076 -16.318701 33.198732 1.139124 2.084660 0.058918 -0.011504 37199.100000 0 0 1
12.775145 25.064076 -16.246901 32.486521 1.099419 2.094525 0.058079 -0.012932 -382007.000000 0 0 1
11.842445 24.030876 -16.089401 31.250525 1.112924 2.111632 0.077089 -0.010520 296201.000000 0 0 1
12.610545 22.706476 -16.161901 30.591125 1.063838 2.127417 0.075939 -0.010715 242633.000000 0 0 1
13.018745 22.456876 -17.489101 31.299643 1.045421 2.163691 0.075713 -0.009606 146182.000000 0 0 1
14.093245 21.519076 -17.558701 31.144794 0.990971 2.169747 0.075864 -0.006976 471355.000000 0 0 1
13.581345 20.053876 -17.828101 30.074110 0.975507 2.205334 0.084821 -0.011282 439142.000000 0 0 1
12.813145 19.452576 -16.775101 28.705111 0.988339 2.194930 0.081161 -0.014172 138966.000000 0 0 1
12.408945 18.121676 -17.059101 27.809890 0.970374 2.231178 0.072822 -0.014407 -42979.500000 0 0 1
13.477245 17.016076 -16.950801 27.541108 0.900934 2.233782 0.071783 -0.010518 -20148.000000 0 0 1
13.957945 16.779176 -15.650001 26.856796 0.876928 2.192868 0.065063 -0.014053 79996.500000 0 0 1
15.139645 16.005776 -15.662801 27.031779 0.813200 2.188815 0.069968 -0.015870 -649811.000000 0 0 1
15.643645 15.449876 -14.322901 26.240575 0.779166 2.148176 0.109090 -0.018412 -464135.000000 0 0 1
16.518245 16.359776 -13.567001 26.917619 0.780578 2.099043 0.084585 -0.019752 1071990.000000 0 0 1
17.853545 16.546976 -14.012601 28.087443 0.747435 2.093116 0.070865 -0.018281 161583.000000 0 0 1
18.687045 15.246476 -14.367401 28.072814 0.684352 2.108064 0.061560 -0.019204 -1244200.000000 0 0 1
19.096845 14.357376 -13.373801 27.380327 0.644664 2.081104 0.090318 -0.024430 -107753.000000 0 0 1
20.144445 14.767476 -12.566301 27.960489 0.632584 2.036924 0.098234 -0.022951 -962773.000000 0 0 1
20.929345 13.575576 -12.042001 27.700966 0.575417 2.020517 0.119419 -0.034064 -583060.000000 0 0 1
20.146345 12.816376 -11.144001 26.350018 0.566587 2.007464 0.160084 -0.034322 775705.000000 0 0 1
20.855145 11.686176 -10.580501 26.142892 0.510755 1.987467 0.167838 -0.020171 73262.400000 0 0 1
21.035245 10.470476 -11.524201 26.170969 0.461853 2.026777 0.143405 -0.027036 -464294.000000 0 0 1
21.899845 10.598876 -12.621901 27.408972 0.450742 2.049358 0.116503 -0.015543 188152.000000 0 0 1
22.012245 9.396376 -13.426101 27.442503 0.403454 2.082020 0.104522 -0.025452 31523.500000 0 0 1
22.659345 8.105976 -12.789401 27.252918 0.343546 2.059278 0.100446 -0.010035 -316547.000000 0 0 1
21.771445 7.505876 -11.889801 25.917202 0.331997 2.047397 0.102569 -0.025709 287104.000000 0 0 1
22.280145 6.306376 -11.342701 25.784338 0.275834 2.026291 0.092350 0.002355 -573758.000000 0 0 1
21.996845 4.981276 -12.137101 25.612175 0.222698 2.064488 0.078308 -0.011746 898317.000000 0 0 1
20.686445 4.406576 -11.928101 24.282226 0.209881 2.084295 0.049679 -0.027505 1599850.000000 0 1 0
19.597545 5.013876 -12.628901 23.847261 0.250469 2.128895 0.007075 -0.036779 -113094.000000 0 1 0
18.632045 3.963476 -13.178601 23.163285 0.209599 2.176017 0.008837 -0.043185 -388097.000000 0 1 0
19.222645 3.148976 -14.171401 24.088477 0.162374 2.199759 0.018009 -0.047530 217572.000000 0 1 0
19.238845 1.775376 -13.853901 23.774265 0.092020 2.192876 0.059389 -0.047563 -1006690.000000 0 1 0
20.235545 0.919776 -14.628401 24.986264 0.045422 2.196241 0.081834 -0.035908 -1108290.000000 0 1 0
21.479645 1.094176 -13.980601 25.652087 0.050896 2.147195 0.106093 -0.026485 -508311.000000 0 0 1
22.600145 0.708576 -14.709001 26.974494 0.031342 2.147535 0.068798 -0.029844 -478296.000000 0 0 1
22.826145 -0.760324 -15.180401 27.423631 -0.033297 2.157419 0.069146 -0.028544 -1543430.000000 0 0 1
21.938845 -1.289724 -16.119101 27.254389 -0.058720 2.203629 0.068627 -0.022498 31883.900000 0 0 1
22.541645 -2.289724 -16.893401 28.262264 -0.101230 2.211472 0.064558 -0.024008 312136.000000 0 0 1
21.470945 -3.012524 -17.796601 28.049880 -0.139397 2.258109 0.062499 -0.022347 637524.000000 0 0 1
20.491645 -3.756624 -17.080701 26.940120 -0.181311 2.257543 0.083070 -0.024119 725686.000000 0 0 1
19.565045 -4.419724 -17.961201 26.924518 -0.222170 2.301098 0.092410 -0.027462 1097220.000000 0 0 1
18.558245 -5.359124 -17.166601 25.842230 -0.281125 2.297333 0.099592 -0.028812 332419.000000 0 0 1
19.348945 -6.433224 -16.710701 26.363148 -0.320986 2.257338 0.097488 -0.020159 221494.000000 0 0 1
18.688845 -7.509224 -16.107101 25.789534 -0.382059 2.245364 0.100980 -0.018851 -855684.000000 0 0 1
19.479345 -8.669924 -15.480701 26.348900 -0.418757 2.198796 0.104312 -0.017833 -204173.000000 0 0 1
20.324145 -9.265524 -16.459001 27.745621 -0.427739 2.205838 0.106523 -0.015980 809737.000000 0 0 1
21.221745 -10.193324 -15.840901 28.376054 -0.447784 2.163070 0.101850 -0.020106 39935.300000 0 0 1
21.804845 -11.228424 -16.814001 29.736163 -0.475537 2.171762 0.083477 -0.017701 543334.000000 0 0 1
22.809545 -10.748624 -17.759201 30.841489 -0.440371 2.184405 0.075537 -0.011984 817600.000000 0 0 1
23.265245 -11.738924 -18.613001 32.023706 -0.467296 2.191030 0.065138 -0.009777 -383724.000000 0 0 1
22.547845 -11.822824 -20.022801 32.389767 -0.482932 2.237225 0.078397 -0.015009 1208660.000000 0 0 1
21.164945 -12.215924 -20.070601 31.622977 -0.523469 2.258396 0.080476 -0.022386 872453.000000 0 0 1
20.989345 -13.593724 -19.807201 31.900895 -0.574721 2.240684 0.064178 -0.010874 -217808.000000 0 0 1
19.461745 -13.863124 -19.748101 30.998923 -0.618951 2.261471 0.059632 -0.015266 166007.000000 0 0 1
18.840445 -13.425524 -20.935801 31.201199 -0.619126 2.306344 0.069022 -0.006673 258350.000000 0 0 1
17.437945 -13.697224 -20.843901 30.432944 -0.665827 2.325280 0.068740 -0.004298 626532.000000 0 0 1
16.660445 -13.193924 -22.086201 30.650454 -0.669801 2.375439 0.066739 -0.012734 -269385.000000 0 0 1
16.926745 -13.937824 -23.232401 31.945611 -0.688859 2.385101 0.067286 -0.003391 173450.000000 0 0 1
16.349945 -13.267624 -24.318501 32.167375 -0.681701 2.427975 0.072393 -0.013120 -38360.600000 0 0 1
16.310245 -14.040124 -25.644001 33.477813 -0.710740 2.443392 0.063446 -0.013996 -158897.000000 0 0 1
15.364045 -15.102624 -25.616881 33.471894 -0.776818 2.442343 0.077051 -0.014671 290380.000000 0 0 1
15.373345 -15.981724 -26.764021 34.757273 -0.804799 2.449679 0.075413 -0.017650 185233.000000 0 0 1
16.431645 -17.150724 -26.681531 35.721847 -0.806807 2.414221 0.064167 -0.012375 1411500.000000 0 0 1
17.784745 -16.657224 -26.834111 36.246790 -0.752673 2.404338 0.061028 -0.006169 884008.000000 0 0 1
18.667745 -17.734524 -27.109791 37.389020 -0.759767 2.381938 0.061851 -0.003594 1361650.000000 0 0 1
20.178545 -17.246124 -27.213491 38.015478 -0.707203 2.368641 0.048061 0.002108 1213220.000000 0 0 1
20.702345 -16.990324 -25.920301 37.270903 -0.687233 2.339852 0.041876 0.005819 299934.000000 0 0 1
22.105645 -16.752924 -26.022611 38.032831 -0.648511 2.324322 0.048665 0.006129 528562.000000 0 0 1
22.738245 -16.217624 -24.697101 37.282515 -0.619551 2.294856 0.041619 0.010742 -13763.300000 0 0 1
22.440845 -14.875824 -24.272901 36.249902 -0.585384 2.304465 0.049866 0.002748 -584796.000000 0 0 1
21.108245 -14.616124 -23.941301 35.105199 -0.605632 2.321273 0.069103 -0.003421 -407682.000000 0 0 1
20.801645 -13.264124 -23.397101 34.001026 -0.567643 2.329704 0.079243 -0.008247 -109560.000000 0 0 1
20.997645 -12.214724 -24.321601 34.375003 -0.526869 2.356804 0.090724 -0.020296 18500.200000 0 0 1
20.703045 -10.996524 -23.654101 33.302494 -0.488260 2.360692 0.083451 -0.022180 4658.720000 0 0 1
21.153245 -9.734024 -24.381301 33.714371 -0.431277 2.379181 0.095279 -0.028833 -63140.600000 0 0 1
20.680145 -8.674824 -23.604201 32.558858 -0.397182 2.381787 0.093041 -0.031306 50275.300000 0 0 1
20.527245 -7.478624 -24.331901 32.700749 -0.349381 2.409950 0.069621 -0.029305 -419528.000000 0 0 1
19.735345 -6.460824 -23.491201 31.353829 -0.316377 2.417694 0.068074 -0.038404 -385629.000000 0 0 1
18.408245 -6.817124 -23.220201 30.405828 -0.354670 2.439784 0.066602 -0.033353 -175819.000000 0 0 1
17.730645 -6.020824 -22.252601 29.082715 -0.327354 2.442069 0.058895 -0.031208 164702.000000 0 0 1
18.290345 -6.136324 -20.761901 28.341625 -0.323695 2.392869 0.079802 -0.038688 -513388.000000 0 0 1
17.885045 -7.225224 -19.988401 27.777956 -0.383934 2.373990 0.088033 -0.039449 184660.000000 0 0 1
18.295945 -8.556924 -20.339901 28.664858 -0.437471 2.359693 0.096507 -0.025853 -41921.700000 0 0 1
17.752345 -9.598324 -19.276301 27.907872 -0.495659 2.333269 0.087726 -0.021963 -298607.000000 0 0 1
16.358845 -9.550624 -19.291501 27.036794 -0.528438 2.365317 0.065051 -0.025347 -946816.000000 0 0 1
15.790845 -10.625224 -18.692101 26.676596 -0.592287 2.347165 0.074532 -0.021089 -987014.000000 0 0 1
14.294945 -10.549324 -18.417301 25.589659 -0.635761 2.374190 0.059060 -0.012812 -521841.000000 0 0 1
13.742045 -9.673924 -17.419301 24.204558 -0.613382 2.374124 0.063887 -0.012849 205778.000000 0 1 0
13.899445 -8.285824 -17.661701 23.953812 -0.537566 2.399896 0.062682 -0.027098 -1089840.000000 0 1 0
12.727945 -7.450124 -17.227601 22.678077 -0.529567 2.433585 0.053380 -0.007739 -564523.000000 0 1 0
11.513745 -7.682924 -17.929601 22.650921 -0.588429 2.484157 0.043536 -0.018381 -22057.100000 0 1 0
10.645345 -6.656624 -17.485601 21.526269 -0.558821 2.518866 0.029746 -0.014395 -95413.300000 0 1 0
9.225845 -6.758824 -18.093601 21.405053 -0.632270 2.577915 0.021415 -0.007005 -11119.400000 0 1 0
9.070445 -6.270324 -19.385201 22.301927 -0.604858 2.624412 0.032372 -0.018101 238265.000000 0 1 0
7.712245 -6.024224 -19.712101 22.007656 -0.663125 2.680783 0.030129 -0.014956 257371.000000 0 1 0
7.472545 -6.093924 -21.272401 23.355725 -0.684126 2.716015 0.045231 -0.016495 -22455.300000 0 1 0
7.501245 -7.323224 -21.983701 24.355315 -0.773390 2.696624 0.045595 -0.016279 209211.000000 0 1 0
6.856945 -7.080924 -23.250901 25.253942 -0.801467 2.740626 0.061803 -0.018798 174820.000000 0 0 1
6.950945 -8.189724 -24.309001 26.576583 -0.867034 2.725506 0.060487 -0.017711 245452.000000 0 0 1
6.131945 -9.318924 -23.939101 26.410673 -0.988811 2.705520 0.062990 -0.014305 444739.000000 0 0 1
5.878145 -10.169824 -25.020041 27.640195 -1.046711 2.702658 0.065301 -0.004245 218769.000000 0 0 1
4.926045 -11.357624 -24.633601 27.569473 -1.161562 2.675898 0.058619 -0.012063 268663.000000 0 0 1
5.525545 -12.338524 -23.853401 27.418161 -1.149750 2.625969 0.058467 -0.015188 381021.000000 0 0 1
4.591045 -13.411124 -23.597401 27.527682 -1.240970 2.600651 0.059830 -0.020941 280056.000000 0 0 1
5.151945 -14.372624 -22.499601 27.190934 -1.226609 2.545378 0.065951 -0.022250 343338.000000 0 0 1
6.205545 -15.306224 -22.786601 28.142823 -1.185621 2.514398 0.105530 -0.023872 1209560.000000 0 0 1
7.525945 -14.786924 -23.078801 28.424004 -1.100007 2.518277 0.092498 -0.021989 1252030.000000 0 0 1
8.281045 -14.084624 -21.918401 27.338044 -1.039285 2.501022 0.076396 -0.008636 -896308.000000 0 0 1
8.877145 -14.914224 -20.956801 27.210757 -1.033904 2.449898 0.087626 -0.007398 3230.720000 0 0 1
8.009345 -15.625424 -20.065401 26.663154 -1.097132 2.422725 0.102105 -0.013445 -169495.000000 0 0 1
8.639145 -16.093624 -18.782001 26.199296 -1.078140 2.370127 0.089798 -0.010072 248427.000000 0 0 1
9.803845 -16.913824 -18.834101 27.146200 -1.045486 2.337552 0.102834 -0.013711 67632.900000 0 0 1
10.359645 -17.229724 -17.577301 26.704815 -1.029447 2.289231 0.093083 -0.018386 -230942.000000 0 0 1
9.590145 -18.123024 -16.560301 26.356374 -1.084087 2.250191 0.095658 -0.025494 -317370.000000 0 0 1
9.311645 -19.483524 -16.985601 27.474080 -1.124965 2.237299 0.094709 -0.032708 314536.000000 0 0 1
8.385745 -19.778124 -18.026301 28.043581 -1.169781 2.268939 0.113867 -0.026856 188279.000000 0 0 1
6.885245 -19.685924 -17.660201 27.328097 -1.234340 2.273429 0.104061 -0.017073 77405.600000 0 0 1
6.359845 -18.357324 -17.620501 26.228248 -1.237290 2.307451 0.094925 -0.011960 411337.000000 0 0 1
4.954045 -18.229624 -17.451301 25.717886 -1.305447 2.316606 0.068366 -0.010237 539875.000000 0 0 1
4.562745 -16.819224 -16.996501 24.343089 -1.305890 2.343685 0.030712 0.000715 -20975.600000 0 1 0
5.093045 -16.600024 -15.730101 23.429383 -1.273104 2.306870 0.019257 0.003647 211443.000000 0 1 0
4.749445 -15.242024 -15.367401 22.159276 -1.268730 2.337129 0.010711 0.010138 269389.000000 0 1 0
10.713445 29.857176 -18.021501 36.482919 1.226283 2.087447 0.064072 -0.027150 11481.700000 0 0 1
9.630245 29.537476 -18.884101 36.356752 1.255629 2.116958 0.095517 -0.029370 683639.000000 0 0 1
8.641245 28.716076 -18.212901 35.085523 1.278496 2.116594 0.088284 -0.028139 -178517.000000 0 0 1
7.626345 28.171176 -19.123701 34.892582 1.306419 2.150856 0.093825 -0.023309 -658817.000000 0 0 1
6.616745 29.048376 -19.598801 35.660938 1.346834 2.152667 0.106463 -0.038396 -60709.000000 0 0 1
5.826045 28.402776 -20.571401 35.550570 1.368480 2.187871 0.098846 -0.040415 283110.000000 0 0 1
4.842445 29.392976 -21.291001 36.615612 1.407515 2.191335 0.084860 -0.039939 980771.000000 0 0 1
3.631345 29.554476 -20.538401 36.172913 1.448540 2.174608 0.091088 -0.033727 47955.600000 0 0 1
2.668845 30.386176 -21.102501 37.091212 1.483190 2.176007 0.101286 -0.043380 -855344.000000 0 0 1
1.290445 30.037276 -20.498101 36.387846 1.527861 2.169198 0.108194 -0.033597 -120777.000000 0 0 1
0.679345 28.807576 -20.913601 35.605009 1.547219 2.198612 0.112456 -0.046608 127364.000000 0 0 1
0.144645 28.915976 -22.240501 36.480056 1.565794 2.226430 0.127400 -0.057551 -692983.000000 0 0 1
-0.656655 27.665576 -22.677301 35.778140 -1.547065 2.257293 0.120773 -0.045712 -365708.000000 0 0 1
-1.815055 27.641476 -21.884101 35.302401 -1.505226 2.239417 0.130276 -0.043970 -668371.000000 0 0 1
-2.312455 26.352876 -22.155401 34.506280 -1.483271 2.267990 0.124256 -0.048645 55975.600000 0 0 1
-3.393955 25.874576 -21.140201 33.584531 -1.440371 2.251658 0.089417 -0.050670 238217.000000 0 0 1
-4.699255 26.405776 -21.258401 34.223788 -1.394677 2.241017 0.077215 -0.045498 156113.000000 0 0 1
-5.475455 25.866276 -20.197701 33.271489 -1.362193 2.223149 0.064190 -0.043590 -795770.000000 0 0 1
-6.694355 26.718776 -19.968901 34.021529 -1.325301 2.198082 0.054955 -0.047974 -896067.000000 0 0 1
-7.598155 26.071776 -19.114701 33.209054 -1.287218 2.184118 0.063110 -0.040031 -588603.000000 0 0 1
-8.358855 26.948776 -18.331101 33.647233 -1.270030 2.146950 0.059042 -0.045535 274388.000000 0 0 1
-9.617355 26.350176 -17.650701 33.141704 -1.220837 2.132446 0.078435 -0.041128 356497.000000 0 0 1
-9.343455 25.413876 -16.659501 31.791575 -1.218483 2.122363 0.079756 -0.038402 80818.100000 0 0 1
-10.565655 24.749676 -16.323601 31.474426 -1.167317 2.116045 0.057217 -0.030685 600133.000000 0 0 1
-10.588955 23.887076 -15.042901 30.149747 -1.153535 2.093171 0.066902 -0.026625 32507.900000 0 0 1
-9.785955 22.706876 -15.102501 28.973310 -1.163881 2.119118 0.074488 -0.025380 27406.400000 0 0 1
-9.707155 22.063576 -13.835401 27.792959 -1.156321 2.091859 0.077309 -0.021436 -532161.000000 0 0 1
-9.148555 20.669076 -14.002601 26.589088 -1.154096 2.125427 0.075893 -0.015323 -773887.000000 0 0 1
-9.943355 19.537076 -14.393801 26.224972 -1.100016 2.151794 0.070058 -0.013461 -434013.000000 0 0 1
-10.290755 19.475476 -15.748601 27.077893 -1.084691 2.191495 0.069763 -0.004725 -12483.600000 0 0 1
-9.259655 19.638976 -16.916101 27.524264 -1.130213 2.232661 0.063325 -0.012253 8859.840000 0 0 1
-8.472055 18.469876 -16.955201 26.464899 -1.140735 2.266164 0.059497 -0.015527 -382864.000000 0 0 1
-7.455355 18.543176 -17.933901 26.852496 -1.188521 2.302136 0.063478 -0.023682 75234.900000 0 0 1
-7.046955 17.066576 -18.179601 25.911880 -1.179211 2.348427 0.041417 -0.025426 65793.200000 0 0 1
-8.117555 16.191576 -18.511801 25.898815 -1.106074 2.367097 0.048916 -0.026827 -232762.000000 0 0 1
-8.063355 15.565176 -19.783101 26.432244 -1.092823 2.416512 0.057321 -0.026448 -162423.000000 0 0 1
-6.919855 14.528676 -19.934901 25.619663 -1.126296 2.462447 0.048650 -0.022652 -82474.200000 0 0 1
-6.985355 13.404376 -19.053601 24.321024 -1.090392 2.470948 0.016053 -0.019483 576341.000000 0 1 0
-5.712355 12.756476 -19.058401 23.634326 -1.149773 2.508813 0.024708 -0.010017 552285.000000 0 1 0
-4.755255 13.021076 -17.896101 22.636946 -1.220648 2.482536 0.031731 -0.004041 -179778.000000 0 1 0
-4.284955 14.332676 -17.856401 23.294581 -1.280290 2.444244 0.025149 -0.014830 -333467.000000 0 1 0
-3.952255 14.747776 -16.547701 22.515409 -1.308959 2.396389 0.041846 -0.002391 -106258.000000 0 1 0
-3.199355 16.091876 -16.465001 23.243937 -1.374538 2.357964 0.066173 -0.012903 -235696.000000 0 1 0
-3.816055 17.323776 -16.753201 24.399698 -1.353980 2.327619 0.038301 -0.017276 -244911.000000 0 1 0
-2.884255 18.419576 -16.700301 25.029978 -1.415471 2.301256 0.054026 -0.024130 369292.000000 0 0 1
-3.369755 19.800776 -17.236101 26.467134 -1.402228 2.279996 0.069478 -0.022589 132231.000000 0 0 1
-3.478655 19.786076 -18.655501 27.415645 -1.396762 2.319199 0.072945 -0.027580 -269309.000000 0 0 1
-3.984455 21.001876 -19.180101 28.719871 -1.383306 2.302091 0.096964 -0.023822 -44282.900000 0 0 1
-2.973655 22.155276 -19.306401 29.537028 -1.437375 2.283172 0.084316 -0.033655 -661991.000000 0 0 1
-1.945355 21.973076 -20.251901 29.945617 -1.482493 2.313510 0.106744 -0.025288 -408944.000000 0 0 1
-0.903655 22.900776 -20.145001 30.513656 -1.531357 2.291876 0.094455 -0.032320 586580.000000 0 0 1
0.239645 22.444676 -19.177801 29.523025 1.560120 2.277839 0.112681 -0.035937 -118114.000000 0 0 1
-0.318655 22.351576 -17.887601 28.629718 -1.556541 2.245661 0.104317 -0.035698 -326664.000000 0 0 1
0.648545 21.953976 -16.921601 27.726130 1.541264 2.227251 0.121532 -0.037550 134355.000000 0 0 1
0.181245 22.066576 -15.445901 26.935896 1.562583 2.181485 0.121948 -0.037509 -83128.600000 0 0 1
-0.910255 21.234176 -15.164601 26.109078 -1.527955 2.190529 0.104192 -0.025496 -311656.000000 0 0 1
-1.167155 21.341576 -13.778701 25.429859 -1.516161 2.143411 0.125042 -0.027724 41837.600000 0 0 1
-1.963055 20.155576 -13.196201 24.171069 -1.473707 2.148319 0.075418 -0.019859 -249764.000000 0 1 0
-1.300155 18.903476 -13.251101 23.121927 -1.502126 2.181076 0.079026 -0.016243 -372041.000000 0 1 0
-2.049555 17.860076 -12.735001 22.030961 -1.456540 2.187134 0.054115 -0.012538 -149159.000000 0 1 0
-1.322455 16.482176 -12.855801 20.944752 -1.490732 2.231656 0.031230 -0.002830 -145255.000000 0 1 0
-0.295455 16.154976 -11.923801 20.081026 -1.552510 2.206550 0.034569 -0.007702 359806.000000 0 1 0
0.128545 14.776676 -11.937501 18.996595 1.562097 2.250294 0.029760 -0.005590 409307.000000 0 1 0
0.846045 14.300676 -13.225501 19.497154 1.511704 2.316283 0.030295 0.001617 -233500.000000 0 1 0
-0.086255 13.926476 -14.213201 19.898977 -1.564603 2.366374 0.036516 -0.014239 -35720.200000 0 1 0
0.544245 13.089276 -15.139801 20.020962 1.529241 2.428279 0.036001 -0.010106 -222756.000000 0 1 0
-0.225655 12.848076 -16.478901 20.896846 -1.553235 2.479298 0.040592 -0.010841 65683.500000 0 1 0
-0.310755 14.097076 -17.170101 22.217932 -1.548756 2.454043 0.057463 -0.017222 26001.300000 0 1 0
-0.287755 13.889976 -18.546401 23.172899 -1.550083 2.498673 0.066330 -0.016535 -247227.000000 0 1 0
-0.852555 15.163876 -19.211601 24.489908 -1.514633 2.472638 0.068616 -0.015666 442491.000000 0 1 0
0.069545 16.273576 -19.335201 25.272201 1.566523 2.441959 0.072199 -0.019232 365185.000000 0 0 1
-0.617855 17.465576 -19.623201 26.277331 -1.535435 2.413993 0.093734 -0.029765 170233.000000 0 0 1
0.326345 18.505176 -20.262801 27.443199 1.553163 2.401423 0.102896 -0.034167 283565.000000 0 0 1
0.977945 18.078676 -21.447701 28.067754 1.516755 2.440504 0.094350 -0.041013 208450.000000 0 0 1
1.973245 19.005676 -21.831201 29.012252 1.467343 2.422619 0.093065 -0.032731 2104.800000 0 0 1
2.448745 18.910076 -23.242001 30.062900 1.442019 2.454530 0.094454 -0.034235 5366.380000 0 0 1
3.220145 17.773976 -23.584401 29.707029 1.391569 2.487992 0.070593 -0.031356 -125499.000000 0 0 1
3.875245 17.866576 -24.819101 30.825636 1.357206 2.506716 0.080874 -0.037403 191154.000000 0 0 1
4.888545 16.751476 -25.195591 30.648453 1.286854 2.535857 0.048628 -0.020899 -823217.000000 0 0 1
6.079245 16.862776 -24.436001 30.305587 1.224787 2.508700 0.042263 -0.018090 589061.000000 0 0 1
7.080145 15.835476 -24.678801 30.165112 1.150351 2.528937 0.038132 -0.026182 840805.000000 0 0 1
7.528845 15.724976 -26.156741 31.434591 1.124266 2.553681 0.022739 -0.020641 -1844510.000000 0 0 1
8.410545 16.788476 -26.497211 32.476028 1.106372 2.525081 0.021132 -0.016189 238297.000000 0 0 1
8.700145 16.891176 -27.907201 33.761165 1.095165 2.543847 0.033091 -0.018150 51645.900000 0 0 1
9.267145 15.700476 -28.703811 34.004319 1.037580 2.575723 0.030179 -0.023787 -1175130.000000 0 0 1
10.562945 15.344876 -28.380741 33.948601 0.967919 2.560733 0.046834 -0.022896 -683008.000000 0 0 1
11.010545 14.023376 -28.509471 33.625543 0.905172 2.582717 0.040555 -0.009274 67862.900000 0 0 1
10.440745 13.097476 -27.375431 32.093103 0.897791 2.592504 0.034962 -0.012884 -260215.000000 0 0 1
9.074345 12.825376 -27.506441 31.677094 0.955034 2.622639 0.032597 -0.015068 -671676.000000 0 0 1
8.612645 12.044376 -26.488321 30.345936 0.950024 2.631868 0.038338 -0.016367 5347.680000 0 0 1
7.152345 11.540276 -26.556681 29.826018 1.015965 2.668990 0.032813 -0.029321 415657.000000 0 0 1
6.194545 12.582976 -26.524421 30.004143 1.113331 2.655201 0.037477 -0.026615 -494591.000000 0 0 1
4.904145 12.116776 -26.238501 29.314260 1.186210 2.679399 0.054478 -0.031331 20444.600000 0 0 1
3.822645 13.227076 -26.403851 29.778037 1.289460 2.660930 0.071083 -0.032507 -492802.000000 0 0 1
3.384745 13.529376 -27.750411 31.057782 1.325651 2.675896 0.075184 -0.035334 498388.000000 0 0 1
4.230545 14.435776 -28.478231 32.207123 1.285719 2.655621 0.074993 -0.036877 254652.000000 0 0 1
4.035445 14.279176 -29.977351 33.448786 1.295369 2.681962 0.085746 -0.043678 -140018.000000 0 0 1
4.739145 13.185476 -30.498781 33.563253 1.225753 2.710945 0.076800 -0.040054 -46552.400000 0 0 1
4.802945 13.111476 -31.875691 34.799982 1.219661 2.728712 0.083994 -0.040565 -1285680.000000 0 0 1
5.690545 12.014476 -32.444351 35.062314 1.128458 2.752712 0.070202 -0.032350 684112.000000 0 0 1
7.114245 12.230076 -32.425641 35.378093 1.043941 2.730152 0.061892 -0.025519 1110400.000000 0 0 1
7.755245 12.290876 -31.146241 34.370013 1.007911 2.705015 0.056661 -0.026170 -675752.000000 0 0 1
7.927845 10.982376 -30.326001 33.213396 0.945543 2.721535 0.061400 -0.021771 -885962.000000 0 0 1
9.017445 10.226676 -30.702421 33.593718 0.848152 2.723668 0.059744 -0.017672 -677716.000000 0 0 1
8.977645 9.015676 -29.996971 32.583720 0.787512 2.740442 0.056944 -0.019710 -219672.000000 0 0 1
10.140345 8.060776 -30.259691 32.915826 0.671637 2.737108 0.034293 -0.011326 254700.000000 0 0 1
11.339545 8.329276 -29.534361 32.714532 0.633529 2.697010 0.045478 -0.015732 472787.000000 0 0 1
12.178745 7.189776 -29.436681 32.657815 0.533297 2.693712 0.016793 -0.001006 -194054.000000 0 0 1
13.415745 7.399776 -28.480041 32.339630 0.504051 2.648038 0.026008 0.005599 567474.000000 0 0 1
14.118545 6.230876 -28.228391 32.171403 0.415617 2.641290 0.020334 0.006807 -20374.600000 0 0 1
14.825345 5.578176 -29.280931 33.290837 0.359874 2.645710 0.017603 0.008417 -794003.000000 0 0 1
15.618645 4.393476 -28.713151 32.980142 0.274211 2.627256 0.013251 0.005721 205128.000000 0 0 1
16.582845 4.757076 -27.731911 32.660058 0.279365 2.585090 0.005404 0.001222 1188440.000000 0 0 1
17.586445 3.785976 -27.353411 32.738750 0.212042 2.559849 0.011854 0.011850 624564.000000 0 0 1
18.384645 4.130276 -26.091061 32.183813 0.220990 2.516124 0.016741 0.010915 -7410.980000 0 0 1
19.240745 5.258576 -26.318501 33.023058 0.266789 2.493064 0.038282 0.000233 175061.000000 0 0 1
19.847645 5.636776 -25.129531 32.514544 0.276716 2.454149 0.050409 -0.005985 -127328.000000 0 0 1
20.874845 6.790176 -25.381221 33.556997 0.314485 2.428529 0.050418 -0.004878 -44436.300000 0 0 1
20.344545 8.048376 -25.816461 33.840309 0.376711 2.438569 0.061338 -0.014522 611824.000000 0 0 1
21.281845 8.730576 -26.677081 35.225084 0.389299 2.430014 0.070824 -0.016766 -65523.600000 0 0 1
21.386445 8.259476 -28.148711 36.303566 0.368555 2.458098 0.074491 -0.012165 -56703.800000 0 0 1
20.251145 8.427776 -28.969591 36.336944 0.394362 2.493520 0.071439 -0.010441 538551.000000 0 0 1
19.130145 7.568076 -28.694101 35.307077 0.376716 2.519569 0.057411 -0.002810 544530.000000 0 0 1
17.786345 8.106876 -29.266341 35.193667 0.427660 2.552742 0.040806 -0.001510 37042.200000 0 0 1
17.748845 8.021376 -30.664441 36.327289 0.424464 2.575710 0.040414 0.001993 519521.000000 0 0 1
16.723245 8.851876 -31.201991 36.490915 0.486824 2.596467 0.027343 0.002672 -45321.400000 0 0 1
16.287345 8.384176 -32.668121 37.453680 0.475391 2.630534 0.017687 0.014132 249977.000000 0 0 1
15.532145 7.170076 -32.803011 36.995879 0.432482 2.660882 0.016203 0.018314 511403.000000 0 0 1
14.131845 7.428376 -32.702511 36.391538 0.483955 2.687432 0.014103 0.011597 -71254.100000 0 0 1
13.375645 6.231576 -33.212941 36.343361 0.435989 2.723501 0.011944 0.004073 -349398.000000 0 0 1
13.517145 5.064876 -32.379861 35.451680 0.358508 2.722238 0.016256 0.010445 -270887.000000 0 0 1
12.628045 4.076876 -32.764411 35.349612 0.312280 2.756777 0.020019 -0.003686 -366015.000000 0 0 1
12.452945 3.013876 -31.632761 34.129032 0.237455 2.756751 0.023865 -0.001422 -397218.000000 0 0 1
13.634845 2.392476 -31.248851 34.177824 0.173700 2.724577 0.015180 -0.003177 -227765.000000 0 0 1
13.350045 1.442876 -30.127881 32.984766 0.107662 2.722326 0.030890 -0.002477 -123110.000000 0 0 1
12.667145 0.130376 -30.541241 33.064195 0.010292 2.748412 0.042550 -0.002890 -179048.000000 0 0 1
13.356945 -0.823724 -31.319851 34.059060 -0.061592 2.737793 0.044107 -0.005758 450437.000000 0 0 1
14.468945 -1.446324 -30.641071 33.916330 -0.099630 2.698503 0.047604 -0.012978 567771.000000 0 0 1
14.962845 -2.721624 -31.322021 34.819003 -0.179925 2.689573 0.061474 -0.016809 -559484.000000 0 0 1
14.097645 -3.793924 -31.191431 34.438972 -0.262889 2.703828 0.079030 -0.016996 -252648.000000 0 0 1
14.319845 -4.820024 -32.129251 35.504639 -0.324685 2.702014 0.056684 -0.024396 -438731.000000 0 0 1
13.418745 -6.051224 -32.004291 35.227186 -0.423646 2.710503 0.084835 -0.024733 -184306.000000 0 0 1
13.661745 -6.799924 -30.837341 34.406741 -0.461834 2.682057 0.076626 -0.022143 438890.000000 0 0 1
12.948745 -8.031024 -30.859061 34.415825 -0.555152 2.682948 0.090095 -0.024608 139824.000000 0 0 1
13.373645 -8.725124 -29.572231 33.608020 -0.578069 2.646481 0.070924 -0.023113 -255655.000000 0 0 1
14.742945 -8.990824 -29.410131 34.104914 -0.547623 2.610675 0.083911 -0.024592 -150369.000000 0 0 1
15.154045 -9.542924 -28.220901 33.423521 -0.561992 2.576133 0.087270 -0.021581 -101559.000000 0 0 1
15.029545 -11.135124 -28.110811 33.765306 -0.637640 2.554465 0.069926 -0.022054 319060.000000 0 0 1
13.644745 -11.468324 -28.109711 33.284491 -0.698949 2.576481 0.076253 -0.028818 464104.000000 0 0 1
13.493345 -12.887324 -28.284281 33.884422 -0.762430 2.558435 0.081665 -0.036101 196175.000000 0 0 1
-10.112855 -2.550224 -17.729801 20.569865 0.247026 2.609862 0.023734 -0.008311 -111221.000000 0 1 0
-10.524555 -2.486824 -19.097701 21.947044 0.232032 2.626347 0.015849 -0.001519 -637679.000000 0 1 0
-11.538055 -3.352224 -19.411201 22.828904 0.282752 2.587333 0.024196 -0.004665 -797044.000000 0 1 0
-12.556955 -2.838824 -20.446601 24.161944 0.222338 2.579669 0.039482 -0.019112 444970.000000 0 1 0
-13.376655 -1.722524 -19.994401 24.118003 0.128066 2.548156 0.037671 -0.017452 160957.000000 0 1 0
-14.478155 -1.514024 -20.847301 25.426742 0.104194 2.532027 0.037729 -0.011296 335374.000000 0 0 1
-15.301455 -0.296624 -20.326601 25.443923 0.019383 2.496225 0.048744 -0.007257 -62944.000000 0 0 1
-14.687055 0.901876 -20.747001 25.435429 -0.061329 2.524688 0.046405 -0.013123 211380.000000 0 0 1
-15.563655 1.989376 -20.528101 25.837723 -0.127133 2.488982 0.052202 -0.003748 41791.000000 0 0 1
-15.093855 3.248176 -21.259201 26.274108 -0.211966 2.513468 0.071103 -0.025273 196306.000000 0 0 1
-13.799055 3.699976 -20.912101 25.326266 -0.261970 2.542253 0.078094 -0.031491 297350.000000 0 0 1
-13.374055 4.892376 -21.585301 25.859736 -0.350690 2.558397 0.085640 -0.035262 -164803.000000 0 0 1
-12.063155 5.422976 -20.999501 24.817483 -0.422479 2.579530 0.062870 -0.029045 -265355.000000 0 1 0
-12.301055 6.063876 -19.782301 24.071269 -0.457996 2.535398 0.077160 -0.034253 201389.000000 0 1 0
-11.064055 6.457776 -19.252101 23.124870 -0.528327 2.554452 0.050817 -0.018461 -405485.000000 0 1 0
-11.049355 6.919176 -17.783901 22.050633 -0.559466 2.509010 0.050890 -0.020627 38325.800000 0 1 0
-11.586155 8.230676 -17.676201 22.681074 -0.617664 2.464403 0.041126 -0.026203 979360.000000 0 1 0
-12.938555 8.307376 -17.173701 23.051133 -0.570776 2.411371 0.077347 -0.016878 1093110.000000 0 1 0
-13.607255 9.766176 -17.054901 23.904084 -0.622519 2.365238 0.092911 -0.022104 129853.000000 0 1 0
-12.986155 10.629976 -16.118501 23.268921 -0.685957 2.336029 0.060786 -0.017821 206479.000000 0 1 0
-13.520555 11.906576 -16.298001 24.293967 -0.722009 2.306173 0.061345 -0.024903 58135.600000 0 1 0
-12.805155 13.041976 -15.427101 23.917788 -0.794560 2.271827 0.066354 -0.022126 -111163.000000 0 1 0
-13.152355 13.135276 -14.094601 23.327617 -0.784748 2.219561 0.089243 -0.023694 170498.000000 0 1 0
-12.695855 14.392776 -13.520001 23.476098 -0.847960 2.184507 0.088982 -0.024083 -550075.000000 0 1 0
-13.213555 14.614376 -12.097101 23.119643 -0.835694 2.121444 0.085079 -0.027211 1241810.000000 0 1 0
-14.575455 15.012076 -11.836801 24.039888 -0.800154 2.085620 0.086915 -0.022629 967760.000000 0 1 0
-15.590755 14.120476 -12.220301 24.326842 -0.735953 2.097097 0.084402 -0.018459 -854203.000000 0 1 0
-16.945555 14.392076 -11.572201 25.063909 -0.704095 2.050716 0.055122 -0.014019 245717.000000 0 0 1
-18.013255 13.552976 -12.040101 25.556302 -0.645028 2.061357 0.054088 -0.017285 661349.000000 0 0 1
-19.210055 13.754076 -11.293101 26.186542 -0.621373 2.016681 0.085480 -0.022112 839166.000000 0 0 1
-20.489155 13.370976 -12.122601 27.304687 -0.578192 2.030826 0.073406 -0.026216 338646.000000 0 0 1
-20.727855 11.968876 -12.087901 26.814461 -0.523658 2.038455 0.087493 -0.027159 320129.000000 0 0 1
-21.958255 11.615976 -12.693301 27.896519 -0.486580 2.043184 0.110271 -0.025679 -2820.800000 0 0 1
-22.477755 10.230276 -12.265501 27.574455 -0.427111 2.031763 0.102725 -0.021393 -756959.000000 0 0 1
-21.568555 9.220376 -12.433301 26.548162 -0.403979 2.058196 0.110120 -0.025198 -280573.000000 0 0 1
-21.782855 8.237876 -11.480501 25.964539 -0.361557 2.028803 0.100885 -0.025071 44481.100000 0 0 1
-20.675155 7.148876 -11.543101 24.734827 -0.332903 2.056323 0.108279 -0.029744 -26371.700000 0 1 0
-20.744755 6.259576 -12.590001 25.060632 -0.293055 2.097147 0.125424 -0.031614 862929.000000 0 0 1
-19.618855 5.349176 -12.561201 23.901819 -0.266185 2.124138 0.122877 -0.036143 541697.000000 0 1 0
-19.710855 4.045176 -13.361501 24.153902 -0.202415 2.156975 0.135971 -0.054590 -133732.000000 0 1 0
-20.519655 2.995876 -12.841801 24.391461 -0.144976 2.125260 0.121365 -0.054199 329613.000000 0 1 0
-20.362855 1.871776 -13.695001 24.611024 -0.091664 2.160913 0.113867 -0.057663 55850.900000 0 1 0
-21.438955 0.742776 -13.564101 25.380413 -0.034632 2.134632 0.122997 -0.051440 1101190.000000 0 0 1
-22.728055 0.885776 -14.190801 26.809102 -0.038953 2.128604 0.106382 -0.046559 1067130.000000 0 0 1
-23.324055 -0.366624 -14.314101 27.368585 0.015717 2.121177 0.096744 -0.050758 304292.000000 0 0 1
-24.720155 -0.500024 -15.015001 28.927260 0.020225 2.116548 0.106099 -0.039914 826421.000000 0 0 1
-25.805395 0.057276 -14.271901 29.489131 -0.002220 2.075984 0.133986 -0.049486 523749.000000 0 0 1
-27.018065 -0.330724 -14.917101 30.864302 0.012240 2.075231 0.110416 -0.033954 263764.000000 0 0 1
-28.283635 0.051376 -14.123501 31.613920 -0.001816 2.033925 0.109714 -0.030714 -286062.000000 0 0 1
-28.502015 -0.625624 -12.931801 31.304756 0.021947 1.996645 0.122131 -0.035221 638083.000000 0 0 1
-29.716645 -0.208824 -12.290101 32.158501 0.007027 1.962943 0.133011 -0.032441 703776.000000 0 0 1
-29.976655 -0.810924 -10.896701 31.906043 0.027045 1.919335 0.139836 -0.038872 -132503.000000 0 0 1
-30.179655 -2.218124 -10.800801 32.130810 0.073365 1.913623 0.153679 -0.036908 184788.000000 0 0 1
-29.045265 -3.008624 -11.050501 31.221672 0.103216 1.932573 0.143662 -0.035206 -472864.000000 0 0 1
-29.214855 -4.464424 -10.607201 31.399866 0.151640 1.915386 0.134170 -0.036496 -306444.000000 0 0 1
-30.275915 -5.056524 -11.330201 32.719611 0.165487 1.924401 0.134115 -0.031229 374235.000000 0 0 1
-30.679705 -6.368924 -10.855101 33.160831 0.204687 1.904291 0.139050 -0.032664 -24899.800000 0 0 1
-29.956335 -7.546324 -11.562001 32.984980 0.246776 1.928926 0.126172 -0.031757 424479.000000 0 0 1
-28.545385 -7.539824 -11.430501 31.659822 0.258237 1.940181 0.080092 -0.024306 81315.800000 0 0 1
-27.854805 -8.556924 -12.088201 31.547357 0.298047 1.964029 0.083154 -0.026851 -749828.000000 0 0 1
-26.382595 -8.651524 -11.753301 30.150129 0.316876 1.971239 0.087013 -0.029867 -986823.000000 0 0 1
-25.621005 -7.491024 -11.941901 29.243125 0.284450 1.991460 0.074546 -0.029248 861273.000000 0 0 1
-24.302455 -7.504724 -11.373201 27.861800 0.299515 1.991278 0.085308 -0.036128 450763.000000 0 0 1
-24.130655 -7.410224 -9.817301 27.084670 0.297946 1.941710 0.086701 -0.031982 -599131.000000 0 0 1
-24.498055 -6.177124 -9.278001 26.914548 0.246999 1.922738 0.090669 -0.027540 64554.900000 0 0 1
-25.872995 -5.937824 -9.158801 28.081191 0.225592 1.903029 0.098478 -0.033417 -796042.000000 0 0 1
-26.154825 -4.593224 -8.450101 27.867128 0.173844 1.878875 0.118006 -0.039297 -380348.000000 0 0 1
-25.921705 -4.601624 -7.057401 27.256498 0.175690 1.832706 0.117398 -0.030514 356268.000000 0 0 1
-26.151215 -3.329424 -6.618101 27.180331 0.126633 1.816757 0.155220 -0.033565 -62590.100000 0 0 1
-25.819525 -3.099024 -5.111201 26.502381 0.119455 1.764871 0.152364 -0.030616 395380.000000 0 0 1
-24.440555 -3.099724 -4.765501 25.093008 0.126154 1.761870 0.111101 -0.023630 475473.000000 0 0 1
-24.190755 -3.016724 -3.337101 24.605477 0.124065 1.706840 0.077853 -0.018429 -151539.000000 0 1 0
-22.827755 -3.597724 -2.939601 23.295735 0.156317 1.697320 0.068751 -0.009824 -203236.000000 0 1 0
-22.784055 -5.004724 -2.951401 23.513213 0.216225 1.696649 0.088307 -0.014148 -327734.000000 0 1 0
-21.561255 -5.556124 -2.602901 22.417255 0.252203 1.687170 0.073043 -0.014764 -720054.000000 0 1 0
-21.653555 -7.080524 -2.468201 22.915111 0.316032 1.678716 0.093246 -0.014799 -14420.800000 0 1 0
-22.367455 -7.472224 -1.301301 23.618437 0.322411 1.625921 0.097559 -0.004668 198285.000000 0 1 0
-23.144055 -8.569324 -1.651101 24.734727 0.354609 1.637598 0.107969 -0.014862 46907.900000 0 1 0
-23.741255 -9.285924 -0.344501 25.494985 0.372837 1.584309 0.111244 -0.020321 1107900.000000 0 0 1
-22.660555 -10.061724 0.261799 24.795314 0.417869 1.560238 0.099457 -0.012293 1086340.000000 0 1 0
-22.950155 -10.765524 1.451499 25.391199 0.438609 1.513600 0.093919 -0.012111 1036190.000000 0 0 1
-21.611155 -11.256924 2.164199 24.463118 0.480216 1.482213 0.085472 -0.009798 1336190.000000 0 1 0
-20.845555 -12.154724 1.402199 24.171070 0.527889 1.512752 0.094615 -0.010854 750370.000000 0 1 0
-19.561155 -12.497724 1.927199 23.292617 0.568536 1.487963 0.079207 -0.010485 615271.000000 0 1 0
-18.836855 -13.677124 1.279499 23.313686 0.628018 1.515887 0.083111 -0.005186 -379180.000000 0 1 0
-19.454755 -14.940324 1.495299 24.575124 0.654892 1.509913 0.079260 -0.001622 229426.000000 0 1 0
-18.888255 -16.003424 0.760899 24.768018 0.702906 1.540070 0.077068 -0.006888 -38000.500000 0 1 0
-17.523655 -16.565924 1.219799 24.145315 0.757311 1.520256 0.087160 -0.013184 310385.000000 0 1 0
-16.437655 -15.630124 1.110799 22.709715 0.760221 1.521864 0.087014 -0.017090 278175.000000 0 1 0
-15.202055 -16.132024 1.569899 22.221819 0.815069 1.500091 0.087758 -0.024430 165685.000000 0 1 0
-14.900255 -16.257124 3.090899 22.268034 0.828920 1.431542 0.073964 -0.014795 -394413.000000 0 1 0
-14.626755 -15.006424 3.697399 21.279227 0.798210 1.396154 0.056424 -0.021096 -256390.000000 0 1 0
-14.054155 -15.142824 4.977099 21.250786 0.822668 1.334393 0.039237 -0.010720 -211462.000000 0 1 0
-14.860955 -15.699524 6.209399 22.491769 0.812831 1.291089 0.069634 -0.008883 -155127.000000 0 1 0
-15.760655 -14.738224 6.812399 22.627909 0.751887 1.264990 0.068007 -0.009556 442297.000000 0 1 0
-16.017855 -14.918224 8.209799 23.377893 0.749868 1.211968 0.075316 -0.011175 126053.000000 0 1 0
-16.940155 -16.099624 8.610899 24.906110 0.759964 1.217775 0.064215 -0.003904 13812.400000 0 1 0
-16.281355 -17.322624 8.299299 25.180035 0.816375 1.234918 0.060781 -0.004149 164386.000000 0 0 1
-16.991255 -18.491324 8.699999 26.576715 0.827649 1.237294 0.068387 -0.010326 99569.900000 0 0 1
-16.754455 -18.835224 10.190499 27.190507 0.843797 1.186635 0.077784 -0.012753 1500290.000000 0 0 1
-15.369255 -19.232924 10.392099 26.722932 0.896597 1.171377 0.077004 -0.013723 1257000.000000 0 0 1
-15.116355 -19.420624 11.775299 27.282274 0.909387 1.124520 0.089720 -0.022075 623982.000000 0 0 1
-13.814155 -20.191524 12.204299 27.339960 0.970783 1.108069 0.078899 -0.019980 390842.000000 0 0 1
-12.638755 -19.472324 12.024699 26.143889 0.995080 1.092865 0.076522 -0.022798 -1144910.000000 0 0 1
-11.516155 -20.290024 12.060199 26.263193 1.054558 1.093696 0.066193 -0.023974 525036.000000 0 0 1
-10.175155 -19.602024 12.524599 25.389736 1.091996 1.054924 0.075219 -0.022001 699106.000000 0 0 1
-9.665255 -18.703624 11.556999 24.016805 1.093832 1.068768 0.061830 -0.023567 132679.000000 0 1 0
-8.476055 -18.197324 12.182299 23.481791 1.134893 1.025352 0.048281 -0.014175 671070.000000 0 1 0
-7.464155 -17.462124 11.268199 22.081931 1.166854 1.035274 0.032815 -0.010715 60428.300000 0 1 0
-6.791055 -18.281124 10.374899 22.089736 1.215116 1.081879 0.029873 -0.010361 -472090.000000 0 1 0
-6.063755 -17.545624 9.435599 20.824230 1.238047 1.100549 0.024989 0.000999 -437424.000000 0 1 0
-4.949655 -18.268124 8.694999 20.828501 1.306204 1.140152 0.020745 0.001634 -457965.000000 0 1 0
-3.793255 -18.427224 9.461799 21.058894 1.367782 1.104813 0.032449 0.001582 -368469.000000 0 1 0
-2.762055 -18.992024 8.677499 21.062405 1.426376 1.146159 0.039929 0.004100 199833.000000 0 1 0
-1.403055 -19.277124 9.316799 21.456440 1.498141 1.121625 0.031659 -0.002853 -46912.900000 0 1 0
-0.448055 -19.945124 8.537399 21.700136 1.548336 1.166441 0.037440 0.009470 315719.000000 0 1 0
0.831945 -19.892324 9.181599 21.924836 -1.528998 1.138699 0.050056 -0.007165 817543.000000 0 1 0
2.006645 -20.410024 8.307099 22.126988 -1.472795 1.185937 0.065339 -0.022103 215962.000000 0 1 0
1.986745 -21.811924 7.909399 23.286600 -1.479962 1.224247 0.053393 -0.012688 -152271.000000 0 1 0
2.311745 -22.735124 8.952299 24.543302 -1.469463 1.197426 0.060674 -0.018276 -98751.200000 0 1 0
1.845545 -24.098824 8.525499 25.628958 -1.494363 1.231683 0.053419 -0.018726 -44567.400000 0 0 1
1.904445 -24.989124 9.580699 26.830449 -1.494732 1.205653 0.074138 -0.023907 -72971.900000 0 0 1
1.647445 -26.316214 9.128799 27.903264 -1.508276 1.237501 0.076457 -0.022176 -699761.000000 0 0 1
1.660145 -27.457454 10.188299 29.333757 -1.510407 1.216081 0.093327 -0.031343 476438.000000 0 0 1
0.745245 -27.333494 11.270399 29.575279 -1.543538 1.179838 0.080430 -0.039435 -267717.000000 0 0 1
-0.626055 -27.439674 11.017699 29.575620 1.547985 1.189066 0.064428 -0.035140 -645218.000000 0 0 1
-1.392255 -27.610754 12.309899 30.262612 1.520415 1.151882 0.068523 -0.034771 -269775.000000 0 0 1
-0.981055 -28.758724 13.014399 31.581660 1.536696 1.146053 0.065688 -0.032046 -90115.600000 0 0 1
-1.039155 -28.488004 14.394399 31.935011 1.534336 1.103202 0.065998 -0.034785 175378.000000 0 0 1
-0.631955 -29.677254 15.309499 33.399394 1.549505 1.094629 0.042312 -0.015228 211784.000000 0 0 1
-0.663755 -29.308074 16.665799 33.721693 1.548153 1.053864 0.048149 -0.009719 54111.400000 0 0 1
-0.161955 -30.283844 17.589599 35.021870 1.565448 1.044602 0.040109 -0.002380 63216.500000 0 0 1
-0.676055 -29.990324 19.042599 35.531636 1.548258 1.005183 0.041484 -0.008055 838006.000000 0 0 1
-2.083655 -30.257034 19.105099 35.844588 1.502040 1.008656 0.022692 -0.002663 482910.000000 0 0 1
-2.598255 -30.006594 20.364999 36.357665 1.484422 0.976254 0.032741 -0.012496 -765090.000000 0 0 1
-4.101955 -30.163654 20.532799 36.718767 1.435635 0.977387 0.050495 -0.020606 -1092760.000000 0 0 1
-4.773955 -29.171984 19.818099 35.588654 1.408586 0.980189 0.042467 -0.019048 -64121.600000 0 0 1
-6.056355 -28.883674 20.363999 35.855801 1.364110 0.966794 0.046954 -0.027200 381931.000000 0 0 1
-6.065255 -27.926104 21.608699 35.827231 1.356928 0.923369 0.056088 -0.030520 -505782.000000 0 0 1
-5.404855 -28.383664 22.778299 36.792604 1.382628 0.903200 0.052341 -0.029791 257.765000 0 0 1
-5.411155 -27.405914 23.841999 36.726089 1.375859 0.864285 0.048841 -0.026942 -249956.000000 0 0 1
-4.547455 -27.746754 25.079299 37.676689 1.408349 0.842439 0.057751 -0.029312 2434.270000 0 0 1
-4.968455 -28.826074 25.897499 39.067999 1.400114 0.846134 0.058341 -0.032879 145661.000000 0 0 1
-4.434255 -30.027984 25.371399 39.560717 1.424185 0.874568 0.053020 -0.033960 -1905.750000 0 0 1
-4.668555 -31.188154 26.316599 41.073832 1.422210 0.875368 0.063985 -0.029884 412594.000000 0 0 1
-3.867855 -31.022944 27.523699 41.652579 1.446759 0.848923 0.057714 -0.033804 634552.000000 0 0 1
-4.292455 -31.904824 28.528799 43.014362 1.437060 0.845658 0.048667 -0.034027 -258314.000000 0 0 1
-3.535955 -31.659184 29.851599 43.656899 1.459569 0.817870 0.066957 -0.036936 353447.000000 0 0 1
-2.128455 -31.846364 29.815599 43.677124 1.504060 0.819432 0.074562 -0.040260 182525.000000 0 0 1
-1.561055 -31.718184 31.089799 44.441598 1.521620 0.796007 0.076502 -0.041229 -324320.000000 0 0 1
-28.915005 2.953376 -9.894401 30.703406 -0.101787 1.898910 0.162255 -0.030713 63691.400000 0 0 1
-29.786595 2.770676 -10.986901 31.868949 -0.092751 1.922771 0.136971 -0.038449 344095.000000 0 0 1
-30.612255 3.935976 -11.202001 32.834234 -0.127874 1.918956 0.102638 -0.029222 859627.000000 0 0 1
-31.642165 3.686776 -12.389001 34.180496 -0.115992 1.941700 0.104463 -0.031750 330641.000000 0 0 1
-32.579545 2.670476 -12.136701 34.869152 -0.081785 1.926302 0.111134 -0.035483 273474.000000 0 0 1
-33.312975 2.339576 -13.327601 35.956264 -0.070115 1.950517 0.111763 -0.025904 866581.000000 0 0 1
-34.572115 1.431376 -13.033101 36.974880 -0.041379 1.931022 0.084931 -0.025840 714029.000000 0 0 1
-34.201559 0.181476 -12.553701 36.433158 -0.005306 1.922575 0.114566 -0.030979 47521.400000 0 0 1
-35.278061 -0.726024 -12.615401 37.472884 0.020577 1.914158 0.094947 -0.023446 -111353.000000 0 0 1
-34.763392 -2.151824 -12.355101 36.956357 0.061820 1.911676 0.107134 -0.031444 309427.000000 0 0 1
-33.780895 -2.546524 -13.304901 36.395797 0.075241 1.945032 0.105451 -0.026106 256600.000000 0 0 1
-33.081245 -3.740424 -13.007101 35.742751 0.112590 1.943257 0.117877 -0.032187 -44875.900000 0 0 1
-33.645555 -5.047324 -13.569301 36.628197 0.148904 1.950301 0.128599 -0.028265 -141780.000000 0 0 1
-33.421605 -6.171424 -12.744101 36.297414 0.182597 1.929544 0.123660 -0.031634 284312.000000 0 0 1
-34.182958 -7.213824 -13.329301 37.392301 0.207984 1.935285 0.120623 -0.026743 -373330.000000 0 0 1
-34.090919 -8.572524 -12.587201 37.337871 0.246353 1.914648 0.116915 -0.036296 586055.000000 0 0 1
-32.815145 -9.229424 -12.677201 36.369320 0.274172 1.926840 0.112192 -0.024750 1033670.000000 0 0 1
-32.262555 -9.566824 -13.944701 36.425970 0.288271 1.963647 0.105361 -0.016482 146122.000000 0 0 1
-31.028115 -10.526124 -13.852601 35.572992 0.327061 1.970791 0.089762 -0.016182 363687.000000 0 0 1
-31.391185 -11.848924 -13.487701 36.162433 0.360926 1.953010 0.089275 -0.015737 -625054.000000 0 0 1
-30.306165 -12.665324 -13.389501 35.470450 0.395852 1.957873 0.091607 -0.015752 -939674.000000 0 0 1
-30.651305 -14.051624 -14.020001 36.517271 0.429846 1.964843 0.106574 -0.020871 -119004.000000 0 0 1
-30.642625 -13.994424 -15.445501 37.059113 0.428410 2.000697 0.102325 -0.027122 229213.000000 0 0 1
-30.887205 -15.308524 -16.105601 38.049451 0.460143 2.007860 0.104578 -0.028999 24728.100000 0 0 1
-29.721855 -16.310624 -15.891501 37.442822 0.501903 2.009118 0.092331 -0.024342 -765904.000000 0 0 1
-28.552315 -15.911924 -16.460401 36.597388 0.508423 2.037304 0.093543 -0.030336 -371188.000000 0 0 1
-27.441775 -16.847724 -16.453501 36.160953 0.550610 2.043177 0.097422 -0.033263 1354170.000000 0 0 1
-26.100115 -16.153124 -16.805901 34.993967 0.554194 2.071738 0.103730 -0.038538 261395.000000 0 0 1
-26.061095 -15.893824 -18.185601 35.531823 0.547644 2.108089 0.091636 -0.041769 -102233.000000 0 0 1
-24.732855 -15.731224 -18.615601 34.723567 0.566503 2.136617 0.080435 -0.031692 -221834.000000 0 0 1
-24.767055 -15.328424 -20.162601 35.424541 0.554203 2.176293 0.080647 -0.032817 103767.000000 0 0 1
-25.176875 -16.391324 -21.050301 36.683317 0.577111 2.181982 0.075890 -0.037831 713067.000000 0 0 1
-26.583055 -16.473424 -21.272501 37.822636 0.554776 2.168115 0.085457 -0.041244 202729.000000 0 0 1
-26.925135 -17.863224 -21.932001 39.052149 0.585766 2.167124 0.080419 -0.032485 7719.900000 0 0 1
-26.426055 -18.007524 -23.274601 39.551414 0.598154 2.199955 0.068369 -0.019735 59144.700000 0 0 1
-27.060815 -19.083824 -23.923001 40.850827 0.614221 2.196439 0.058008 -0.026066 -465805.000000 0 0 1
-26.585645 -19.384724 -25.348731 41.534591 0.630018 2.227241 0.049870 -0.025998 -815902.000000 0 0 1
-25.325155 -19.935524 -25.427691 41.053089 0.666876 2.238756 0.065556 -0.025370 -965484.000000 0 0 1
-25.135475 -21.269324 -24.996401 41.340009 0.702277 2.220128 0.061318 -0.023020 -1006280.000000 0 0 1
-23.653455 -21.560624 -24.806701 40.493442 0.739144 2.230155 0.060416 -0.005576 -435732.000000 0 0 1
-22.924955 -21.553524 -26.019691 40.830531 0.754574 2.261735 0.059559 -0.012908 -784612.000000 0 0 1
-21.572955 -21.506924 -25.692371 39.850196 0.783865 2.271458 0.059056 -0.016749 -290640.000000 0 0 1
-20.564255 -21.180724 -26.831881 39.893126 0.800165 2.308505 0.047159 -0.017216 -275982.000000 0 0 1
-20.469155 -22.080524 -27.896501 41.045714 0.823250 2.318074 0.054000 -0.011941 -845023.000000 0 0 1
-21.329955 -21.972724 -28.974591 42.157971 0.800241 2.328543 0.070576 -0.024146 -628973.000000 0 0 1
-20.711655 -22.074124 -30.381441 42.886730 0.817231 2.358041 0.070276 -0.028283 -144516.000000 0 0 1
-20.149355 -23.322924 -30.641401 43.460911 0.858271 2.353267 0.068007 -0.029983 130577.000000 0 0 1
-19.601255 -23.438624 -31.942001 44.202599 0.874321 2.378392 0.067247 -0.029891 -83828.300000 0 0 1
-19.261955 -24.896724 -32.430131 45.194946 0.912315 2.371090 0.065412 -0.024215 102687.000000 0 0 1
-18.579855 -25.016224 -33.656121 45.866730 0.931976 2.394667 0.063416 -0.022783 73247.800000 0 0 1
-19.465255 -24.806124 33.512883 46.014707 0.905457 0.754947 0.063570 -0.020561 -658671.000000 0 0 1
-18.660855 -24.636924 32.187492 44.623314 0.922554 0.765096 0.064083 -0.020726 121483.000000 0 0 1
-18.015855 -23.376124 32.058172 43.574541 0.914182 0.744084 0.059974 -0.024841 -76213.300000 0 0 1
-17.276755 -23.353124 30.838482 42.365866 0.933852 0.755529 0.064252 -0.020356 3483.780000 0 0 1
-16.399955 -22.114324 30.631302 41.185902 0.932694 0.732159 0.059570 -0.015153 -21643.900000 0 0 1
-17.147455 -20.944424 30.312182 40.639051 0.884749 0.728929 0.063662 -0.022726 -25359.400000 0 0 1
-16.376155 -19.815624 29.949042 39.468754 0.880148 0.709322 0.056596 -0.022875 15678.200000 0 0 1
-15.552055 -19.119424 31.088452 39.672542 0.887928 0.670314 0.058438 -0.025494 131661.000000 0 0 1
-15.062555 -17.892124 30.685142 38.582206 0.871051 0.651264 0.060106 -0.024937 -393598.000000 0 0 1
-14.445055 -17.288324 31.776802 38.952675 0.874758 0.616720 0.060667 -0.026872 -276898.000000 0 0 1
-13.810655 -15.933924 31.573862 37.967524 0.856661 0.588811 0.060184 -0.025908 -249748.000000 0 0 1
-12.595455 -15.852324 30.874912 36.921563 0.899388 0.580425 0.065548 -0.024680 -262255.000000 0 0 1
-12.304955 -14.490824 30.713902 36.121180 0.866793 0.554238 0.057909 -0.023584 229672.000000 0 0 1
-10.936755 -14.205024 30.030712 34.974833 0.914667 0.538190 0.071927 -0.020918 541996.000000 0 0 1
-10.571455 -12.807524 29.941412 34.238523 0.880753 0.506403 0.067783 -0.022014 -214311.000000 0 0 1
-9.263955 -12.616724 30.434242 34.223467 0.937445 0.475028 0.068228 -0.024045 -9667.030000 0 0 1
-8.927055 -11.140324 30.457412 33.637079 0.895246 0.438307 0.065445 -0.020935 -369409.000000 0 0 1
-9.590255 -10.452124 31.470122 34.519392 0.828374 0.423479 0.070706 -0.022755 -116176.000000 0 0 1
-9.348855 -9.079824 31.383252 33.981654 0.770801 0.393598 0.051065 -0.018920 9127.280000 0 0 1
-10.109955 -8.283124 32.477946 35.009117 0.686401 0.382593 0.045581 -0.022675 316443.000000 0 0 1
-11.502655 -8.139224 32.284626 35.225773 0.615805 0.411540 0.038821 -0.022352 172336.000000 0 0 1
-12.324755 -7.536424 33.273343 36.274132 0.548823 0.409614 0.040960 -0.022786 240701.000000 0 0 1
-12.108455 -6.055724 33.690458 36.308862 0.463746 0.382096 0.028555 -0.023380 -426162.000000 0 0 1
-12.208155 -5.214124 32.566903 35.168584 0.403649 0.387061 0.028172 -0.022595 287807.000000 0 0 1
-12.358155 -3.916124 33.024791 35.478118 0.306875 0.374065 0.028406 -0.023329 -619037.000000 0 0 1
-11.949755 -2.854924 32.006152 34.283247 0.234515 0.366520 0.018479 -0.013419 -1019970.000000 0 0 1
-10.595055 -2.591324 32.017642 33.824541 0.239870 0.328336 0.022193 -0.015242 -861976.000000 0 0 1
-10.220955 -1.711424 30.924772 32.615003 0.165904 0.323350 0.011674 -0.009797 -385026.000000 0 0 1
-8.722055 -1.416824 30.994892 32.229877 0.161035 0.277724 0.031762 -0.012324 -458894.000000 0 0 1
-8.396855 -0.831624 32.229791 33.316035 0.098718 0.256059 0.040075 -0.025840 -593388.000000 0 0 1
-7.081655 -0.366524 32.316581 33.085428 0.051711 0.216004 0.060072 -0.027611 -491942.000000 0 0 1
-6.682155 0.306276 33.636220 34.294902 -0.045803 0.196307 0.084330 -0.039636 -358866.000000 0 0 1
-7.134755 1.634376 33.975469 34.754977 -0.225187 0.212193 0.087532 -0.022889 -240889.000000 0 0 1
-6.698055 2.707676 33.139091 33.917470 -0.384163 0.214651 0.088653 -0.019846 -227459.000000 0 0 1
-7.460255 4.022576 33.331730 34.392452 -0.494514 0.249004 0.079198 -0.019964 -59040.100000 0 0 1
-8.695555 4.023776 32.656055 34.032652 -0.433397 0.285394 0.049672 -0.006504 54978.100000 0 0 1
-9.491755 5.177076 32.907750 34.638354 -0.499327 0.317439 0.036747 -0.000209 262250.000000 0 0 1
-10.867455 5.130276 32.197842 34.367460 -0.441061 0.357227 0.014215 0.005166 198254.000000 0 0 1
-11.607555 6.294876 32.497809 35.078033 -0.496919 0.385944 0.016463 0.007356 132879.000000 0 0 1
-12.765555 6.491076 31.694562 34.779861 -0.470411 0.424389 -0.003739 0.008529 307693.000000 0 0 1
-13.445955 7.851276 32.012842 35.598572 -0.528507 0.452691 0.004559 0.004078 -133404.000000 0 0 1
-14.151855 7.844076 33.247538 36.975713 -0.506122 0.452922 0.009193 0.004108 -125684.000000 0 0 1
-14.673755 9.099276 33.336569 37.542546 -0.555072 0.477889 0.007624 0.010600 -234732.000000 0 0 1
-15.597455 9.419476 -33.691121 38.302726 -0.543290 2.645819 0.011935 0.010114 299230.000000 0 0 1
-14.892455 9.560976 -32.459491 36.970476 -0.570732 2.642431 0.017396 0.001223 -96522.500000 0 0 1
-15.703555 10.189176 -31.493911 36.637241 -0.575563 2.605311 0.028981 -0.001553 -351905.000000 0 0 1
-14.938855 10.371976 -30.098911 35.166628 -0.606887 2.598074 0.040117 -0.011719 673364.000000 0 0 1
-14.115455 11.528476 -30.085781 35.175362 -0.684858 2.596942 0.046849 -0.015300 1060830.000000 0 0 1
-12.795955 11.226476 -30.632171 35.044260 -0.720157 2.634375 0.048426 -0.024006 723523.000000 0 0 1
-11.937455 12.480876 -30.907411 35.405412 -0.807649 2.632029 0.052127 -0.019765 -126820.000000 0 0 1
-12.380655 13.305376 -31.963141 36.768955 -0.821384 2.624575 0.048023 -0.023892 -131751.000000 0 0 1
-11.554255 14.431176 -32.183421 37.115122 -0.895662 2.620196 0.042131 -0.032838 -292677.000000 0 0 1
-11.738155 15.604276 -31.177451 36.787378 -0.925863 2.582061 0.054691 -0.036035 189140.000000 0 0 1
-13.006955 16.232276 -31.254111 37.543137 -0.895262 2.554375 0.058346 -0.031903 155390.000000 0 0 1
-13.187055 17.204376 -30.264261 37.226529 -0.916822 2.520041 0.052904 -0.025872 -1127590.000000 0 0 1
-14.645255 17.563476 -30.168301 37.856117 -0.875755 2.492976 0.048010 -0.034425 -1171530.000000 0 0 1
-15.028555 18.355576 -31.327441 39.296224 -0.884729 2.493460 0.052080 -0.032143 -55761.000000 0 0 1
-16.361655 18.813576 -31.332681 40.042369 -0.854991 2.469448 0.047962 -0.027849 90129.000000 0 0 1
-16.731155 20.032076 -30.454981 40.108871 -0.874947 2.433045 0.026910 -0.024726 -549632.000000 0 0 1
-16.246155 21.313076 -30.848161 40.863111 -0.919493 2.426320 0.029767 -0.019690 658450.000000 0 0 1
-17.085155 22.365376 -30.306461 41.359330 -0.918452 2.393165 0.003007 -0.011261 51986.300000 0 0 1
-18.411355 22.621876 -31.014141 42.574690 -0.887653 2.386874 0.018543 -0.003603 -442497.000000 0 0 1
-19.383555 21.662176 -30.609761 42.212908 -0.840855 2.382017 0.019536 -0.009464 221570.000000 0 0 1
-20.524855 21.689576 -31.469951 43.382776 -0.812982 2.382415 0.052830 -0.014275 -226848.000000 0 0 1
-21.795555 21.122276 -30.771451 43.221279 -0.769712 2.363070 0.080705 -0.022202 -467505.000000 0 0 1
-22.422355 22.057176 -29.897151 43.394939 -0.777188 2.330842 0.112528 -0.020584 684425.000000 0 0 1
-23.249655 23.035476 -30.569681 44.784875 -0.780771 2.322096 0.115661 -0.014003 96445.600000 0 0 1
-24.572655 22.644976 -31.288541 45.777540 -0.744595 2.323331 0.119652 -0.026393 -260650.000000 0 0 1
-24.392055 21.733376 -32.333201 45.964638 -0.727822 2.351017 0.106682 -0.023324 -146528.000000 0 0 1
-25.583915 21.491776 -33.039291 46.989658 -0.698689 2.350570 0.125899 -0.026054 -134177.000000 0 0 1
-25.327195 20.650676 33.932996 47.110142 -0.684034 0.766575 0.115514 -0.013431 48590.100000 0 0 1
-25.109265 19.264076 34.056887 46.491412 -0.654425 0.748748 0.114253 -0.021106 124414.000000 0 0 1
-25.102865 18.719676 32.770480 45.326421 -0.640755 0.762678 0.085513 -0.022162 -152010.000000 0 0 1
-24.922255 17.199676 32.665755 44.542106 -0.604073 0.747533 0.082179 -0.002407 467567.000000 0 0 1
-25.954885 16.420676 33.309123 45.307751 -0.564090 0.744872 0.086064 -0.005375 610793.000000 0 0 1
-26.082015 15.179176 32.649821 44.459979 -0.527063 0.746067 0.092255 -0.011860 -602878.000000 0 0 1
-26.915775 14.042576 33.273101 45.041671 -0.480875 0.739630 0.061951 -0.001531 -1617240.000000 0 0 1
-28.254365 14.360776 33.228039 45.919970 -0.470240 0.761781 0.062683 0.005760 -1258730.000000 0 0 1
-29.027705 13.219476 32.873109 45.803968 -0.427343 0.770315 0.063853 0.008934 101270.000000 0 0 1
-29.251345 12.037576 33.839803 46.321450 -0.390400 0.751680 0.048468 -0.002354 -640201.000000 0 0 1
-28.104345 11.245976 33.953174 45.487847 -0.380636 0.728126 0.061826 -0.013727 -394643.000000 0 0 1
-28.482205 9.888476 34.060975 45.488108 -0.334161 0.724564 0.067657 -0.011495 -534914.000000 0 0 1
-27.281555 8.922076 -33.989201 44.487667 -0.316073 2.440308 0.062207 -0.011912 318604.000000 0 0 1
-26.469665 8.811476 33.070143 43.265687 -0.321351 0.700763 0.069028 -0.012258 148307.000000 0 0 1
-25.510515 9.831876 32.911002 42.785351 -0.367861 0.693189 0.063373 -0.007969 -413403.000000 0 0 1
-24.158655 9.409876 32.284244 41.406024 -0.371425 0.676611 0.061947 -0.002393 249510.000000 0 0 1
-24.289155 9.201476 30.880562 40.351448 -0.362125 0.699304 0.058448 -0.001417 265058.000000 0 0 1
-23.003655 8.940876 30.339382 39.109916 -0.370703 0.682899 0.057371 -0.000551 340982.000000 0 0 1
-22.860055 8.873476 28.830762 37.848825 -0.370262 0.704810 0.066999 -0.003075 -110515.000000 0 0 1
-23.170855 10.110676 28.258822 37.916689 -0.411447 0.729831 0.068991 0.004504 126537.000000 0 0 1
-23.192955 10.042176 26.843392 36.869041 -0.408614 0.755288 0.062412 -0.010320 -850512.000000 0 0 1
-23.549155 11.405776 26.155352 36.996714 -0.451041 0.785600 0.059613 -0.006491 97177.000000 0 0 1
-24.858755 11.886676 26.371842 38.140855 -0.446030 0.807326 0.086335 -0.005105 -8956.270000 0 0 1
-25.787015 11.289976 25.488652 37.975059 -0.412676 0.834977 0.083853 -0.002682 -1171640.000000 0 0 1
-27.219525 11.698076 25.732062 39.241388 -0.405902 0.855637 0.097188 -0.001590 -773810.000000 0 0 1
-27.405905 13.034076 25.253612 39.480574 -0.443933 0.876758 0.104962 -0.007267 213256.000000 0 0 1
-28.704325 13.530476 25.537642 40.733073 -0.440486 0.893163 0.108783 -0.015212 366169.000000 0 0 1
-28.803075 15.028676 25.167712 41.096131 -0.480914 0.911690 0.125512 -0.025149 370337.000000 0 0 1
-28.038365 15.886176 26.039412 41.431528 -0.515489 0.891183 0.137821 -0.027083 460978.000000 0 0 1
-27.606495 17.110976 25.429452 41.249983 -0.554864 0.906542 0.125318 -0.015477 -199482.000000 0 0 1
-22.674955 -9.376024 31.873682 40.224309 0.392087 0.656065 0.062000 -0.014995 487805.000000 0 0 1
-21.716455 -8.828824 30.936022 38.814817 0.386140 0.648458 0.055887 -0.017815 547257.000000 0 0 1
-22.186355 -9.015424 29.620682 38.090642 0.385968 0.679898 0.048706 -0.013406 210244.000000 0 0 1
-21.217955 -8.527524 28.488642 36.531124 0.382144 0.676377 0.067035 -0.014773 -154614.000000 0 0 1
-20.890055 -7.153224 28.427762 35.995842 0.329908 0.660393 0.067559 -0.014208 377070.000000 0 0 1
-19.777955 -6.779224 29.248542 35.952783 0.330216 0.620605 0.063281 -0.006280 80875.900000 0 0 1
-18.349455 -7.042324 28.725012 34.805504 0.366454 0.600062 0.057401 -0.001314 -851719.000000 0 0 1
-17.894955 -8.293824 28.498132 34.657762 0.434001 0.605403 0.054990 -0.012068 -172927.000000 0 0 1
-17.578655 -9.005224 29.746942 35.706914 0.473425 0.586132 0.060431 -0.015087 -188568.000000 0 0 1
-16.186655 -8.740224 30.390282 35.524197 0.495106 0.544317 0.054773 -0.014858 -142195.000000 0 0 1
-15.124755 -9.308924 29.695172 34.600831 0.551721 0.539002 0.048739 -0.010095 -713544.000000 0 0 1
-13.851755 -8.970624 30.175422 34.393303 0.574698 0.500457 0.042143 -0.015591 310970.000000 0 0 1
-12.714055 -9.823724 29.552142 33.637506 0.657851 0.497984 0.046569 -0.015883 111728.000000 0 0 1
-12.439755 -9.652324 28.155372 32.258950 0.659888 0.509902 0.053189 -0.011339 -312483.000000 0 0 1
-11.461355 -10.565524 27.733202 31.813888 0.744751 0.512069 0.060283 -0.014705 -352855.000000 0 0 1
-11.011955 -10.361124 26.292452 30.330003 0.754957 0.521888 0.049360 -0.010985 500782.000000 0 0 1
-11.977155 -10.605824 25.263852 29.903143 0.724749 0.564500 0.044468 -0.010213 513136.000000 0 0 1
-11.211655 -10.595624 24.056732 28.577873 0.757157 0.570195 0.051461 -0.013555 750872.000000 0 0 1
-12.088255 -10.991124 22.836492 28.079104 0.737897 0.621010 0.060807 -0.020872 -93983.600000 0 0 1
-12.330455 -12.430324 22.720792 28.684272 0.789431 0.656556 0.061053 -0.020447 226176.000000 0 0 1
-13.520255 -12.825124 22.055692 28.874464 0.759019 0.701542 0.067954 -0.017894 1169360.000000 0 0 1
-14.797955 -12.684124 22.991592 30.140998 0.708633 0.703162 0.069476 -0.014575 233174.000000 0 0 1
-16.039555 -12.988624 22.410792 30.466626 0.680680 0.744267 0.053962 -0.009289 137489.000000 0 0 1
-17.084755 -12.858824 23.361602 31.670217 0.645194 0.741210 0.054824 -0.005279 599941.000000 0 0 1
-18.421355 -13.594224 23.013792 32.462037 0.635751 0.782795 0.067862 -0.016073 103451.000000 0 0 1
-18.446055 -14.967324 23.100992 33.135081 0.681660 0.799345 0.071073 -0.015740 -580413.000000 0 0 1
-19.681155 -15.603724 23.129692 34.143912 0.670351 0.826550 0.057350 -0.013556 -794701.000000 0 0 1
-20.387355 -15.659724 24.492952 35.507406 0.654991 0.809586 0.059536 -0.011254 -430335.000000 0 0 1
-19.817955 -16.495224 25.480572 36.250563 0.694150 0.791328 0.068635 -0.009650 -22279.100000 0 0 1
-20.483955 -16.389924 26.710672 37.439044 0.674823 0.776395 0.060339 -0.016249 -342204.000000 0 0 1
-19.949355 -17.321124 27.759522 38.322176 0.714997 0.760673 0.063406 -0.015779 -216410.000000 0 0 1
-20.238655 -18.677824 27.502692 38.921232 0.745312 0.786080 0.064025 -0.011607 77026.500000 0 0 1
-19.770255 -19.503724 28.507342 39.798578 0.778612 0.772325 0.058991 -0.014377 -375992.000000 0 0 1
-19.789355 -21.039624 28.155182 40.336071 0.816011 0.798175 0.055559 -0.005052 -588745.000000 0 0 1
-21.056455 -21.630924 28.160192 41.282776 0.798855 0.820126 0.044958 0.002096 -445263.000000 0 0 1
-21.027955 -22.998424 27.866142 41.804596 0.830125 0.841184 0.049378 0.016060 1208670.000000 0 0 1
-22.429755 -23.611324 27.423162 42.574856 0.811056 0.870929 0.044527 0.014018 1200520.000000 0 0 1
-23.341355 -23.786024 28.499252 43.849757 0.794833 0.863305 0.041649 0.010662 -110357.000000 0 0 1
-24.595755 -24.188024 28.003942 44.432335 0.777040 0.888908 0.028188 0.011222 -252360.000000 0 0 1
-25.229185 -25.258504 28.877582 45.917519 0.785979 0.890657 0.004608 0.011180 -341898.000000 0 0 1
-25.828935 -24.715924 30.038402 46.693858 0.763381 0.871989 0.001576 0.012846 172751.000000 0 0 1
-26.476475 -25.624964 30.909282 48.093931 0.769056 0.872798 -0.001506 0.023787 162873.000000 0 0 1
-27.718495 -24.965224 31.565482 48.866727 0.733185 0.868529 0.022911 0.007321 169879.000000 0 0 1
-28.745445 -24.658224 30.650272 48.721328 0.709013 0.890410 0.027921 0.003928 -411343.000000 0 0 1
-29.617685 -23.693624 31.116042 49.059180 0.674730 0.883752 0.042383 -0.012077 -765841.000000 0 0 1
-30.864665 -23.539324 30.254672 49.214556 0.651556 0.908727 0.047963 -0.016747 -576701.000000 0 0 1
-31.727365 -24.619024 30.156592 50.220933 0.659907 0.926697 0.050784 -0.016374 -203952.000000 0 0 1
-32.883845 -24.324324 29.411172 50.378934 0.636879 0.947396 0.052658 -0.018928 1006020.000000 0 0 1
-34.204813 -25.091264 29.838262 51.863886 0.632896 0.957803 0.062008 -0.025060 899808.000000 0 0 1
-34.149144 -26.490784 29.690762 52.435360 0.659771 0.968865 0.066712 -0.028234 386653.000000 0 0 1
-35.251743 -27.062394 30.419302 53.855292 0.654727 0.970564 0.063519 -0.026455 591175.000000 0 0 1
-35.032962 -28.559734 30.722522 54.651991 0.683956 0.973815 0.064438 -0.028869 -151350.000000 0 0 1
-34.009325 -28.692604 31.669102 54.615307 0.700807 0.952242 0.059476 -0.031612 -203840.000000 0 0 1
-33.681595 -30.063314 31.867492 55.261105 0.728697 0.956148 0.060910 -0.036325 -398515.000000 0 0 1
-32.687245 -30.453154 32.919848 55.493846 0.750030 0.935748 0.055429 -0.026467 -565577.000000 0 0 1
-33.204925 -30.410054 -34.012962 56.428894 0.741492 2.217749 0.051462 -0.021147 -732203.000000 0 0 1
-32.204085 -30.456334 -33.040921 55.284662 0.757513 2.211364 0.042619 -0.028646 -364160.000000 0 0 1
-32.649235 -30.162404 -31.605991 54.540644 0.745827 2.188904 0.041780 -0.031755 164696.000000 0 0 1
-33.001735 -28.820694 -31.220721 53.800375 0.717871 2.189902 0.037309 -0.020454 -88981.700000 0 0 1
-31.820695 -28.059054 -31.038041 52.566407 0.722661 2.202417 0.040355 -0.011580 84239.000000 0 0 1
-32.020335 -26.567964 -30.868801 51.807735 0.692603 2.209100 0.037540 -0.009148 -172456.000000 0 0 1
-32.551465 -26.230934 -29.557581 51.198734 0.678285 2.186228 0.022889 -0.013453 39868.500000 0 0 1
-32.398095 -24.803224 -29.355231 50.264959 0.653396 2.194456 0.031113 -0.003261 224978.000000 0 0 1
-30.987875 -24.264224 -28.987951 48.880490 0.664303 2.205622 0.032994 -0.009451 37403.100000 0 0 1
-30.860025 -22.837024 -29.057771 48.147948 0.637083 2.218692 0.034787 -0.003070 805160.000000 0 0 1
-29.635705 -22.495024 -28.366571 46.786360 0.649269 2.222196 0.031705 -0.007826 711060.000000 0 0 1
-29.337595 -20.959724 -28.432251 45.917289 0.620346 2.238527 0.039733 -0.011290 -111526.000000 0 0 1
-29.073335 -20.502524 -29.741311 46.369795 0.614208 2.267110 0.050238 -0.002457 294647.000000 0 0 1
-28.875295 -19.060524 -29.801921 45.664436 0.583441 2.281845 0.042289 -0.004521 -496047.000000 0 0 1
-28.525595 -18.485724 -31.210751 46.146967 0.574996 2.313570 0.055889 -0.000622 430182.000000 0 0 1
-29.531525 -18.434224 -32.235451 47.445294 0.558040 2.317773 0.051221 -0.011048 385032.000000 0 0 1
-30.570705 -17.537524 -31.925691 47.553996 0.520835 2.306834 0.037400 -0.003459 -113268.000000 0 0 1
-31.436835 -17.011624 -33.133471 48.739069 0.496013 2.318304 0.034174 -0.010602 346319.000000 0 0 1
-32.288165 -17.828224 -33.882861 50.084124 0.504500 2.313822 0.052920 -0.017911 731792.000000 0 0 1
-33.676855 -17.480624 -33.735961 50.772216 0.478786 2.297564 0.062871 -0.016640 881906.000000 0 0 1
-34.480407 -18.220724 33.389865 51.339812 0.486138 0.862725 0.054737 -0.022720 -530136.000000 0 0 1
-34.591577 -19.592624 33.671871 52.098397 0.515346 0.868054 0.038649 -0.022106 257981.000000 0 0 1
-35.385547 -20.286624 32.718827 52.289633 0.520558 0.894738 0.043209 -0.023499 77822.000000 0 0 1
-35.689500 -21.755224 33.204645 53.381444 0.547426 0.899469 0.038737 -0.021605 735260.000000 0 0 1
-34.521442 -22.585024 33.115696 52.900497 0.579344 0.894383 0.049605 -0.023426 581659.000000 0 0 1
-34.793899 -23.734024 33.829031 54.021502 0.598633 0.894108 0.048965 -0.022252 -1064620.000000 0 0 1
-33.642955 -24.712824 33.898764 53.774513 0.633547 0.888744 0.052815 -0.021105 258356.000000 0 0 1
-32.458795 -24.554024 -33.537611 52.737509 0.647627 2.260015 0.033555 -0.022991 812243.000000 0 0 1
-31.744415 -23.360624 -33.810151 51.928345 0.634414 2.279819 0.044189 -0.029117 -472266.000000 0 0 1
-30.357685 -23.203724 -33.112491 50.561239 0.652618 2.284845 0.048026 -0.020096 60057.300000 0 0 1
-29.401375 -24.189524 -33.432781 50.668775 0.688450 2.291389 0.051809 -0.019782 858698.000000 0 0 1
-28.084815 -23.991524 -32.898141 49.463499 0.706958 2.298423 0.060447 -0.018629 910869.000000 0 0 1
-28.056275 -24.341024 -31.381131 48.625255 0.714611 2.272300 0.049039 -0.006273 -745063.000000 0 0 1
-28.173925 -25.711324 -31.148161 49.244799 0.739729 2.255595 0.047354 -0.009500 50242.500000 0 0 1
-27.566285 -25.963654 -29.909961 48.255748 0.755468 2.239312 0.041977 -0.007290 107821.000000 0 0 1
-27.140255 -27.436124 -29.702991 48.699097 0.790819 2.226767 0.038804 -0.010840 565636.000000 0 0 1
-28.321735 -28.218354 -29.696781 49.802560 0.783570 2.209668 0.028934 -0.002549 735200.000000 0 0 1
-27.871065 -29.491924 -29.334471 50.070760 0.813647 2.196738 0.029372 -0.004303 413097.000000 0 0 1
-28.763155 -30.669684 -29.878791 51.581884 0.817466 2.188604 0.042195 0.005917 126067.000000 0 0 1
-28.629115 -30.910044 -31.292421 52.481165 0.823689 2.209631 0.055557 -0.015850 169126.000000 0 0 1
-29.092505 -32.171234 -31.637291 53.686873 0.835610 2.200980 0.080640 -0.005926 -622464.000000 0 0 1
-28.554845 -32.811184 -32.925711 54.553235 0.854647 2.218745 0.051350 -0.019799 -803937.000000 0 0 1
-27.163095 -32.888034 -32.909701 53.874901 0.880445 2.227935 0.058190 -0.021295 -800061.000000 0 0 1
-26.721555 -33.601664 -34.022510 54.778139 0.898962 2.240937 0.063602 -0.022159 -568975.000000 0 0 1
-25.213975 -33.753054 34.054334 54.172971 0.929210 0.891016 0.070216 -0.028693 -441802.000000 0 0 1
-24.872555 33.861354 32.837577 53.324870 -0.937263 0.907393 0.060760 -0.016948 -98565.500000 0 0 1
-23.684755 33.106265 32.925288 52.355200 -0.949799 0.890681 0.059657 -0.011652 -137685.000000 0 0 1
-23.501655 32.300710 31.601422 50.934405 -0.941793 0.901501 0.057001 -0.016961 285668.000000 0 0 1
-24.699855 31.574740 31.337712 50.883192 -0.906963 0.907300 0.077029 -0.036879 580262.000000 0 0 1
-24.443255 30.551580 30.416442 49.558367 -0.896016 0.909995 0.073852 -0.026221 87150.200000 0 0 1
-25.805035 29.929520 30.011862 49.622454 -0.859266 0.921277 0.078204 -0.027325 90441.900000 0 0 1
-26.301815 29.006270 30.958082 49.915449 -0.834257 0.901785 0.082010 -0.030382 304665.000000 0 0 1
-27.491705 28.470110 30.378832 49.892028 -0.802880 0.916134 0.079305 -0.033052 322576.000000 0 0 1
-27.997455 27.240410 31.137962 49.954681 -0.771694 0.897810 0.067999 -0.047639 126767.000000 0 0 1
-27.221125 26.061440 30.856112 48.706139 -0.763637 0.884707 0.076895 -0.040541 421798.000000 0 0 1
-27.918705 24.839100 31.181412 48.669451 -0.727092 0.875416 0.081067 -0.033275 698191.000000 0 0 1
-29.127805 24.438420 30.288022 48.611004 -0.698077 0.898136 0.079531 -0.031015 483064.000000 0 0 1
-28.708205 24.006550 28.965102 47.322855 -0.696443 0.912115 0.085528 -0.030910 -159301.000000 0 0 1
-29.763445 23.430210 28.229142 47.241104 -0.666896 0.930348 0.088069 -0.020794 91312.800000 0 0 1
-29.357115 23.026320 26.781912 45.927361 -0.665127 0.948212 0.097855 -0.028203 -31224.100000 0 0 1
-28.183955 22.253020 26.816872 44.818265 -0.668345 0.929360 0.090230 -0.030234 -104832.000000 0 0 1
-27.558225 22.143020 25.543032 43.614397 -0.676871 0.945107 0.089706 -0.030189 -428692.000000 0 0 1
-26.082815 21.772120 25.617412 42.551031 -0.695562 0.924743 0.096951 -0.035464 -641679.000000 0 0 1
-25.935365 20.489120 26.190602 42.171019 -0.668618 0.900706 0.117784 -0.038163 -391989.000000 0 0 1
-24.648355 20.274820 26.674272 41.594790 -0.688348 0.874620 0.085728 -0.029419 -547878.000000 0 0 1
-24.699655 18.982920 27.515002 41.563200 -0.655268 0.847307 0.109483 -0.028561 -10901.200000 0 0 1
-23.467055 18.559320 28.065572 41.022279 -0.669147 0.817353 0.076210 -0.014042 399254.000000 0 0 1
-23.732755 17.487620 28.918562 41.295808 -0.635036 0.795009 0.079212 -0.013238 -416780.000000 0 0 1
-22.527755 16.584420 28.987552 40.284252 -0.634596 0.767606 0.062761 -0.013634 -408010.000000 0 0 1
-21.431155 17.075420 29.725122 40.428298 -0.672760 0.744753 0.072444 -0.011726 -170642.000000 0 0 1
-20.313755 16.218520 29.653862 39.434003 -0.673765 0.719725 0.058286 -0.009182 -323418.000000 0 0 1
-19.262655 16.708820 30.631232 39.856078 -0.714521 0.694231 0.051217 -0.010661 -855351.000000 0 0 1
-19.494155 16.201420 31.895842 40.741292 -0.693414 0.671503 0.051753 -0.007401 -209779.000000 0 0 1
-18.573755 16.649220 32.821220 41.223942 -0.730814 0.649859 0.056024 -0.019701 -1184240.000000 0 0 1
-18.795755 16.190720 -33.948941 42.047003 -0.711077 2.510536 0.050603 -0.025855 472518.000000 0 0 1
-19.800155 16.909420 -33.249791 42.231780 -0.706814 2.477241 0.058390 -0.025007 379944.000000 0 0 1
-21.169255 16.777120 -33.574131 43.090967 -0.670165 2.464098 0.067436 -0.019248 4196.790000 0 0 1
-22.041255 17.590620 -32.567741 43.080212 -0.673567 2.427945 0.081761 -0.026938 172579.000000 0 0 1
-21.980155 16.965720 -31.288881 41.832487 -0.657349 2.415774 0.082734 -0.033090 18571.200000 0 0 1
-22.820855 17.681820 -30.422001 41.939675 -0.659191 2.382376 0.079749 -0.030870 -524630.000000 0 0 1
-22.963355 17.178220 -28.994521 40.780991 -0.642265 2.361689 0.075053 -0.028711 314899.000000 0 0 1
-23.708155 15.961520 -28.822631 40.590526 -0.592547 2.360412 0.070266 -0.034368 -332942.000000 0 0 1
-25.097045 16.127420 -28.921061 41.549767 -0.571157 2.340689 0.079174 -0.027619 -392252.000000 0 0 1
-25.901445 15.089820 -28.061781 41.061553 -0.527517 2.323217 0.080764 -0.020765 163097.000000 0 0 1
-25.658885 13.717820 -28.415221 40.669175 -0.490961 2.344364 0.065065 -0.020377 -17746.100000 0 0 1
-26.530935 12.935320 -27.633261 40.432786 -0.453643 2.323257 0.035503 -0.015331 115291.000000 0 0 1
-26.196145 11.375620 -27.650811 39.751857 -0.409678 2.340031 0.057690 -0.015893 -138267.000000 0 0 1
-25.151705 11.028720 -26.791401 38.366915 -0.413239 2.343808 0.050688 -0.018319 -147315.000000 0 0 1
-24.473255 9.873020 -27.242811 37.928716 -0.383452 2.372100 0.042559 -0.006662 723791.000000 0 0 1
-23.217355 9.243520 -26.539721 36.453327 -0.378893 2.386264 0.072438 -0.005191 797593.000000 0 0 1
-23.546255 8.410920 -25.446941 35.675153 -0.343082 2.364986 0.055478 -0.005428 -56494.100000 0 0 1
-22.386155 8.038520 -24.760101 34.333954 -0.344745 2.376264 0.088699 0.001595 -22177.900000 0 0 1
-22.838755 7.084120 -23.627401 33.616181 -0.300770 2.350204 0.074289 0.010035 383606.000000 0 0 1
-23.356655 5.850720 -24.096101 34.064444 -0.245444 2.356564 0.070970 -0.008781 337477.000000 0 0 1
-23.728555 4.899520 -23.070201 33.455699 -0.203620 2.331698 0.064584 -0.004467 -433584.000000 0 0 1
35.406485 24.239176 -10.224901 44.110151 0.600313 1.804728 0.018966 0.001570 12662.900000 0 0 1
36.313595 23.963476 -9.186601 44.467055 0.583306 1.778888 0.023661 -0.008716 -442391.000000 0 0 1
-35.904010 23.166676 -9.628701 43.800739 -0.573021 1.792436 0.035400 -0.016249 -149742.000000 0 0 1
-35.044096 22.762376 -8.422601 42.628097 -0.576048 1.769688 0.043922 -0.013009 166511.000000 0 0 1
-35.724500 21.755376 -7.653401 42.521887 -0.546994 1.751770 0.036333 -0.023228 793507.000000 0 0 1
-34.822177 21.153876 -6.681701 41.288202 -0.545903 1.733342 0.069286 -0.016595 181692.000000 0 0 1
-35.528419 20.335976 -5.611201 41.319561 -0.519868 1.707017 0.058488 -0.010267 -355821.000000 0 0 1
-35.898522 19.066076 -6.084901 41.100428 -0.488225 1.719392 0.046380 -0.004951 461326.000000 0 0 1
-36.566535 18.288076 -5.076201 41.198702 -0.463753 1.694323 0.046242 -0.010719 152132.000000 0 0 1
35.884485 17.118176 -5.651901 40.158090 0.445108 1.712006 0.038917 0.000173 -254375.000000 0 0 1
34.724215 17.417776 -6.369201 39.366442 0.464929 1.733303 0.044498 -0.009497 -232772.000000 0 0 1
34.345125 16.336076 -7.257801 38.718609 0.443974 1.759362 0.066255 -0.006513 16356.100000 0 0 1
33.224265 16.785676 -8.204301 38.117204 0.467818 1.787733 0.047610 -0.011108 -150384.000000 0 0 1
32.927545 15.687476 -9.067501 37.583769 0.444610 1.814461 0.046440 -0.010418 -41129.800000 0 0 1
32.439175 16.089476 -10.344701 37.658786 0.460434 1.849069 0.054203 -0.007089 -582240.000000 0 0 1
31.882405 14.907976 -11.148501 36.919163 0.437387 1.877555 0.059887 -0.010303 -386976.000000 0 0 1
30.672075 14.372176 -10.684101 35.517399 0.438193 1.876342 0.065960 -0.001205 -20365.600000 0 0 1
30.692565 13.713676 -9.401801 34.906909 0.420196 1.843503 0.047960 -0.006789 -1450970.000000 0 0 1
29.562345 12.768476 -9.040801 33.447008 0.407715 1.844503 0.058832 0.005183 -583097.000000 0 0 1
29.670105 11.581476 -9.746501 33.308257 0.372153 1.867757 0.062477 0.003533 189828.000000 0 0 1
28.681165 10.629076 -9.437301 32.010141 0.354903 1.870066 0.071654 -0.006711 -449499.000000 0 0 1
29.006285 9.215776 -9.992601 32.033532 0.307630 1.888033 0.099241 -0.006653 209718.000000 0 0 1
30.114095 8.742276 -9.205501 32.680688 0.282539 1.856341 0.087293 -0.007568 649145.000000 0 0 1
30.231065 7.320276 -9.295301 32.463924 0.237571 1.861188 0.087631 -0.013103 -588941.000000 0 0 1
31.346105 6.832576 -8.407601 33.165496 0.214615 1.827098 0.096606 -0.019926 -1099800.000000 0 0 1
32.640325 6.979276 -8.888201 34.541298 0.210652 1.831045 0.089498 -0.017296 -732517.000000 0 0 1
33.517085 6.522876 -7.886901 35.044916 0.192211 1.797792 0.096234 -0.021184 506159.000000 0 0 1
35.039465 6.707876 -8.210001 36.608248 0.189149 1.796987 0.095624 -0.018812 788295.000000 0 0 1
35.521695 5.808976 -9.228501 37.157775 0.162098 1.821783 0.094586 -0.016878 750483.000000 0 0 1
-36.378025 6.061776 -9.519001 38.088282 -0.165116 1.823393 0.083574 -0.016825 -221424.000000 0 0 1
-35.848538 5.197576 -10.718601 37.775930 -0.143984 1.858490 0.076144 -0.013604 -256033.000000 0 0 1
-34.465656 5.378776 -10.928601 36.554713 -0.154813 1.874405 0.086360 -0.011402 317514.000000 0 0 1
-34.063822 6.507976 -11.646801 36.583408 -0.188778 1.894798 0.073267 -0.011935 -900676.000000 0 0 1
-33.434855 7.621676 -10.842701 35.965868 -0.224126 1.877032 0.072125 -0.006842 -1196060.000000 0 0 1
-34.266776 8.387076 -10.016301 36.672623 -0.240039 1.847439 0.075247 -0.004511 -241540.000000 0 0 1
-34.732870 9.517176 -10.706701 37.571031 -0.267446 1.859774 0.061259 -0.001804 -31925.400000 0 0 1
-35.669670 10.377476 -9.845101 38.431022 -0.283118 1.829860 0.061818 -0.004995 172604.000000 0 0 1
-34.987537 10.927776 -8.709901 37.675011 -0.302733 1.804092 0.077626 -0.001988 292126.000000 0 0 1
-35.746597 11.952076 -8.048001 38.541428 -0.322670 1.781159 0.071237 -0.005474 93316.800000 0 0 1
-34.902279 12.822476 -7.054101 37.846339 -0.352075 1.758281 0.081651 -0.003249 205527.000000 0 0 1
-34.149883 13.827676 -7.743501 37.648121 -0.384733 1.777956 0.070996 -0.007761 119901.000000 0 0 1
-33.748075 14.873776 -6.850601 37.511232 -0.415118 1.754455 0.078880 -0.009012 413813.000000 0 0 1
-32.730445 15.941276 -7.441801 37.158939 -0.453232 1.772429 0.056574 -0.003975 308129.000000 0 0 1
-33.130095 16.760476 -8.496401 38.088130 -0.468356 1.795761 0.047401 -0.004246 -352863.000000 0 0 1
-32.365435 17.939376 -8.538501 37.976949 -0.506120 1.797569 0.045911 -0.003344 74414.700000 0 0 1
-32.847945 18.747776 -9.743901 39.056501 -0.518630 1.822942 0.028946 -0.006761 86321.200000 0 0 1
-32.487945 18.432776 -11.025001 38.945917 -0.516083 1.857805 0.023556 -0.007658 256579.000000 0 0 1
-33.575595 18.838576 -11.892501 40.294468 -0.511310 1.870398 0.018205 -0.012689 545236.000000 0 0 1
-33.151425 18.947676 -13.375801 40.459158 -0.519237 1.907736 0.003310 0.001384 -214970.000000 0 0 1
-32.401605 20.083276 -13.716201 40.513408 -0.554868 1.916182 0.006104 -0.002485 45493.700000 0 0 1
-32.220415 20.247076 -15.116501 40.946402 -0.561035 1.948920 -0.003018 -0.001349 368629.000000 0 0 1
-31.287085 21.496876 -15.549301 41.021679 -0.602005 1.959567 0.011838 -0.016546 1465250.000000 0 0 1
-29.903755 21.346676 -15.165301 39.747975 -0.619958 1.962254 -0.000925 -0.011198 937141.000000 0 0 1
-29.158935 22.510976 -15.062501 39.797820 -0.657439 1.958945 0.018982 -0.017374 -120074.000000 0 0 1
-28.652775 23.202976 -16.407301 40.355411 -0.680687 1.989493 0.002238 -0.016998 -1871830.000000 0 0 1
-29.656075 23.759276 -17.161601 41.695402 -0.675448 1.994999 0.011533 -0.015816 -686839.000000 0 0 1
-29.284815 24.355976 -18.417801 42.308739 -0.693769 2.021189 -0.006302 -0.013493 -410615.000000 0 0 1
-28.548485 25.721176 -18.363101 42.588712 -0.733348 2.016589 0.006606 -0.013832 170858.000000 0 0 1
-29.269155 26.827876 -17.859701 43.536046 -0.741907 1.993500 0.019524 -0.011645 -524145.000000 0 0 1
-28.406675 27.848576 -17.539301 43.475390 -0.775478 1.986059 0.027019 -0.013430 -184913.000000 0 0 1
-29.106675 29.131376 -16.976601 44.542571 -0.785822 1.961817 0.027661 -0.013181 99157.000000 0 0 1
-29.455835 29.295176 -15.589001 44.371957 -0.782664 1.929783 0.021696 -0.013474 508458.000000 0 0 1
-28.311535 29.260676 -14.745701 43.303186 -0.801883 1.918269 0.024384 -0.008903 52954.900000 0 0 1
-28.464665 30.049676 -13.411801 43.509730 -0.812479 1.884147 0.024458 -0.002258 -138879.000000 0 0 1
-28.447385 31.443076 -13.633801 44.539885 -0.835376 1.881893 0.028355 0.002879 4955.540000 0 0 1
-28.359145 32.248676 -12.462501 44.716129 -0.849486 1.853239 0.033964 0.001400 -230851.000000 0 0 1
-27.551535 33.545376 -12.516501 45.177895 -0.883189 1.851518 0.030285 -0.005468 -253624.000000 0 0 1
-28.092855 -33.849568 -13.504301 46.014866 0.878068 1.868658 0.018445 -0.016497 -271494.000000 0 0 1
-27.380835 -32.669268 -13.684701 44.768988 0.873239 1.881442 0.034586 -0.020110 -381315.000000 0 0 1
-27.700665 -32.010868 -15.032201 44.922039 0.857457 1.912007 0.021639 -0.019401 -165409.000000 0 0 1
-27.263435 -32.624968 -16.201601 45.499179 0.874686 1.934872 0.023413 -0.024175 -162238.000000 0 0 1
-27.725495 -32.027368 -17.403401 45.796657 0.857269 1.960608 0.031742 -0.006678 -48527.700000 0 0 1
-26.871025 -32.421468 -18.655701 46.056908 0.878737 1.987838 0.017011 0.000198 -27645.300000 0 0 1
-26.812625 -33.736468 -19.181601 47.169905 0.899255 1.989580 0.023217 0.000031 82201.400000 0 0 1
-26.326735 33.533076 -18.257301 46.377724 -0.905209 1.975412 0.011147 -0.018765 -577515.000000 0 0 1
-26.384225 32.102276 -18.908001 45.652996 -0.882855 1.997825 0.028993 -0.028522 525182.000000 0 0 1
-27.681975 31.540576 -19.119201 46.115546 -0.850460 1.998292 0.037592 -0.027670 588497.000000 0 0 1
-28.410635 32.128976 -20.218201 47.415303 -0.846741 2.011313 0.048357 -0.019832 -392141.000000 0 0 1
-29.895365 31.762076 -20.237401 48.084455 -0.815664 2.005203 0.045789 -0.020813 -299670.000000 0 0 1
-30.172355 30.377576 -20.497801 47.469232 -0.788787 2.017297 0.032102 -0.018782 -43091.700000 0 0 1
-31.531285 30.093376 -20.278801 48.073517 -0.762069 2.006258 0.038392 -0.014176 -265968.000000 0 0 1
-31.927645 28.704176 -20.770601 47.694047 -0.732284 2.021386 0.034989 -0.013961 -423528.000000 0 0 1
-33.305135 28.489076 -20.959401 48.581437 -0.707618 2.016872 0.035537 -0.018460 15857.300000 0 0 1
-33.433865 27.249376 -21.592301 48.234628 -0.683835 2.034934 0.030225 -0.002664 -1226420.000000 0 0 1
-34.776272 26.732076 -21.986101 49.065076 -0.655354 2.035436 0.036505 0.000942 -965854.000000 0 0 1
-35.579410 27.399276 -22.947701 50.430266 -0.656234 2.043212 0.024636 0.006938 -405709.000000 0 0 1
-36.508695 26.520876 -23.465001 50.861066 -0.628242 2.050318 0.019833 0.007074 -126324.000000 0 0 1
35.844195 27.144076 -24.547401 51.226771 0.648144 2.070529 0.032309 -0.002296 147713.000000 0 0 1
36.516775 27.379076 -25.754371 52.405880 0.643352 2.084539 0.029384 -0.004433 -387245.000000 0 0 1
35.646785 27.754476 -26.792221 52.524540 0.661553 2.106085 0.069274 -0.012395 -64006.100000 0 0 1
36.380045 28.042276 -28.108061 53.851091 0.656690 2.119942 0.071546 -0.006241 184167.000000 0 0 1
-36.404055 26.824576 -28.678911 53.547111 -0.635036 2.135994 0.038020 0.016007 -61921.800000 0 0 1
-35.800082 27.153876 -29.924741 53.985822 -0.648910 2.158327 0.006986 0.017925 -780326.000000 0 0 1
-35.695363 25.981176 -30.887701 53.881635 -0.629179 2.181264 -0.010826 0.015255 -110662.000000 0 0 1
-34.976350 24.845076 -30.525231 52.653705 -0.617631 2.189201 -0.013189 0.018157 -1452830.000000 0 0 1
-33.613935 25.001176 -30.453171 51.791419 -0.639505 2.199376 -0.030331 0.021925 -1453320.000000 0 0 1
-33.074405 24.118076 -29.329061 50.356645 -0.630060 2.192507 -0.041533 0.026683 -232825.000000 0 0 1
-32.837275 22.793176 -29.715931 49.808153 -0.606772 2.210064 -0.015214 0.011500 21501.100000 0 0 1
-32.872945 21.849376 -28.644761 48.770361 -0.586613 2.198564 -0.008395 0.016277 -51808.500000 0 0 1
-32.550595 20.435076 -29.190571 48.262025 -0.560606 2.220355 -0.003688 0.008825 -341435.000000 0 0 1
-31.217435 20.242776 -29.579501 47.531517 -0.575281 2.242491 0.061870 0.000029 -388428.000000 0 0 1
-30.955425 18.923376 -29.862141 46.990212 -0.548695 2.259448 0.051212 -0.004883 1162880.000000 0 0 1
-29.402405 18.588776 -29.930681 45.889974 -0.563774 2.281315 0.078555 -0.015867 1084940.000000 0 0 1
-28.671675 19.174776 -31.025531 46.393109 -0.589458 2.303327 0.088086 -0.012842 249289.000000 0 0 1
-27.391405 18.597376 -31.177661 45.477446 -0.596458 2.326173 0.099493 -0.020883 79028.100000 0 0 1
-27.392595 17.094376 -31.757601 45.289262 -0.557917 2.347899 0.095132 -0.023258 -527340.000000 0 0 1
-27.768455 16.104676 -30.820621 44.501218 -0.525556 2.335855 0.062436 -0.013937 28943.000000 0 0 1
-27.620245 14.860476 -31.507631 44.457199 -0.493606 2.358476 0.043275 -0.009680 10815.400000 0 0 1
-28.257655 13.671876 -30.739721 43.935700 -0.450627 2.345707 0.038916 -0.005424 413003.000000 0 0 1
-29.675595 13.723076 -30.566571 44.758006 -0.433148 2.322562 0.033792 -0.006569 605333.000000 0 0 1
-30.396145 12.534676 -30.481851 44.835109 -0.391131 2.318376 0.030443 -0.001193 28101.600000 0 0 1
-30.175755 11.747776 -29.175691 43.586780 -0.371259 2.304157 0.018808 -0.019379 -487070.000000 0 0 1
-30.572235 12.520676 -28.055401 43.342063 -0.388707 2.274836 0.009662 -0.013965 246568.000000 0 0 1
-30.562945 11.608976 -27.013661 42.409903 -0.363006 2.261352 0.009652 -0.005677 -13850.000000 0 0 1
-30.399745 12.118776 -25.562551 41.526537 -0.379340 2.233907 0.002536 -0.011545 408202.000000 0 0 1
-29.033615 12.440076 -25.338411 40.493721 -0.404807 2.246872 0.013802 -0.018269 181464.000000 0 0 1
-28.855205 13.165876 -24.133901 39.854841 -0.428059 2.221247 0.009369 -0.008340 -174936.000000 0 0 1
-27.371165 13.290476 -23.750801 38.599456 -0.452033 2.233581 0.038299 -0.007504 -433929.000000 0 0 1
-26.697115 14.277176 -24.550701 38.978336 -0.491086 2.252163 0.051115 -0.013557 1185690.000000 0 0 1
-25.304395 14.534176 -24.287901 37.966523 -0.521363 2.264929 0.063772 -0.017296 884143.000000 0 0 1
-24.958455 15.126476 -22.920601 37.109146 -0.544868 2.236552 0.055965 -0.008828 -848623.000000 0 0 1
-25.389175 16.467676 -22.810201 37.895908 -0.575398 2.216696 0.069508 -0.012726 72775.000000 0 0 1
-25.526755 16.844376 -21.447801 37.354470 -0.583283 2.182386 0.063621 -0.007586 -290576.000000 0 0 1
-26.935285 16.886776 -20.825501 38.004925 -0.559992 2.150730 0.050507 -0.011522 -480663.000000 0 0 1
-27.603445 15.663576 -21.005501 38.059544 -0.516142 2.155451 0.050828 -0.005360 249351.000000 0 0 1
-28.775395 15.799376 -20.204801 38.547084 -0.502120 2.122524 0.044514 -0.001006 -567290.000000 0 0 1
-29.799735 14.653076 -20.298301 38.919891 -0.457000 2.119452 0.026258 -0.004751 125541.000000 0 0 1
-30.459005 14.488076 -21.572301 40.037726 -0.443985 2.139808 0.016135 -0.001852 921079.000000 0 0 1
-31.489495 15.466376 -21.814301 41.311752 -0.456551 2.127088 0.006317 0.002411 64084.600000 0 0 1
-32.078085 15.538776 -23.250101 42.556132 -0.451094 2.148784 -0.003624 0.006609 -355927.000000 0 0 1
-33.071815 14.634076 -23.609301 43.189122 -0.416594 2.149154 0.010106 0.002585 -113563.000000 0 0 1
-33.548585 14.890976 -24.943501 44.378227 -0.417739 2.167678 0.011899 0.006398 380200.000000 0 0 1
-34.907742 14.206076 -25.267031 45.373846 -0.386492 2.161401 0.018300 0.004063 120277.000000 0 0 1
-34.802015 12.783776 -25.367971 44.923704 -0.352028 2.170854 0.016429 0.005476 128662.000000 0 0 1
-34.619998 11.968876 -24.250501 43.930457 -0.332858 2.155581 -0.000877 0.004220 -187602.000000 0 0 1
-34.429148 10.509276 -24.671901 43.640736 -0.296260 2.171643 0.013566 -0.004949 -12196.100000 0 0 1
-35.622812 10.067876 -25.276021 44.824370 -0.275441 2.169885 0.029020 -0.002596 13216.600000 0 0 1
-35.404744 8.866576 -26.025001 44.826474 -0.245388 2.190228 0.030704 0.004078 -830708.000000 0 0 1
36.632025 8.191176 -26.539101 45.970909 0.219988 2.186217 0.049677 0.000965 -1117040.000000 0 0 1
35.987965 7.502676 -25.531901 44.758259 0.205533 2.177838 0.048088 0.003931 -502088.000000 0 0 1
34.830935 6.935776 -26.107601 44.078406 0.196556 2.204706 0.051810 0.001619 2461.860000 0 0 1
33.931825 6.122876 -25.105001 42.651137 0.178525 2.200138 0.062739 -0.012513 136439.000000 0 0 1
34.504845 5.000776 -24.491801 42.607985 0.143928 2.183177 0.064366 -0.016740 -6521.850000 0 0 1
33.556205 4.209676 -23.801401 41.355132 0.124800 2.184057 0.071878 -0.019165 325680.000000 0 0 1
34.275505 3.098676 -22.977801 41.381051 0.090160 2.159488 0.070136 -0.011800 142716.000000 0 0 1
35.052075 2.233576 -23.801101 42.427930 0.063636 2.166362 0.071264 -0.010913 85123.900000 0 0 1
35.730165 1.390076 -22.911601 42.467852 0.038885 2.140645 0.093724 -0.014385 -399641.000000 0 0 1
-36.459365 0.477076 -23.468401 43.362181 -0.013084 2.142681 0.099667 -0.014299 -8198.360000 0 0 1
36.272695 -0.576124 -24.178901 43.596555 -0.015882 2.158685 0.081219 -0.019479 375968.000000 0 0 1
-36.091555 -1.658824 -24.010001 43.380090 0.045929 2.157333 0.089190 -0.023201 437305.000000 0 0 1
-22.812555 29.114876 27.405742 46.034372 -0.906175 0.933117 0.041107 -0.024314 -1006500.000000 0 0 1
-24.122155 29.269276 26.949912 46.528128 -0.881505 0.953028 0.027157 -0.023126 122791.000000 0 0 1
-24.483255 28.801676 25.625532 45.668745 -0.866265 0.975061 0.023037 -0.014774 -371442.000000 0 0 1
-24.722755 27.308476 25.454442 44.776066 -0.835053 0.966135 0.035209 -0.022816 845362.000000 0 0 1
-26.011275 26.807376 25.919792 45.464904 -0.800469 0.964162 0.047212 -0.028422 1244160.000000 0 0 1
-26.205275 26.601776 27.305222 46.259551 -0.792907 0.939414 0.057993 -0.028985 -604614.000000 0 0 1
-25.550555 25.381576 27.981332 45.607129 -0.782080 0.910274 0.061231 -0.024541 733606.000000 0 0 1
-24.151655 25.550676 28.237572 45.094345 -0.813539 0.894141 0.063242 -0.025191 477874.000000 0 0 1
-23.933555 26.062476 29.593722 46.128691 -0.827954 0.874283 0.061418 -0.020117 -287486.000000 0 0 1
-22.476255 25.877976 30.029912 45.570246 -0.855632 0.851334 0.060378 -0.010935 -238923.000000 0 0 1
-21.509555 26.719576 29.313912 45.120972 -0.893007 0.863641 0.061085 -0.014865 1776930.000000 0 0 1
-20.164255 26.612376 29.839502 44.779590 -0.922384 0.841475 0.069080 -0.025421 1202830.000000 0 0 1
-19.460555 25.229376 29.655142 43.527716 -0.913774 0.821268 0.070203 -0.011317 -1190700.000000 0 0 1
-19.073855 25.108176 28.314562 42.378614 -0.921137 0.839099 0.071769 -0.016530 -150430.000000 0 0 1
-19.700355 24.171276 27.412302 41.518537 -0.886957 0.849655 0.076058 -0.022231 64546.400000 0 0 1
-19.467555 22.678276 27.580422 40.669025 -0.861433 0.825530 0.066425 -0.010504 243843.000000 0 0 1
-20.157055 22.207276 28.734662 41.534935 -0.833755 0.806791 0.064468 -0.017068 205661.000000 0 0 1
-20.249755 20.801576 28.735472 40.847099 -0.798840 0.790502 0.061354 -0.014930 -9251.110000 0 0 1
-20.772755 20.242576 30.059542 41.771346 -0.772473 0.767540 0.064184 -0.017042 -584610.000000 0 0 1
-19.879355 20.395876 31.091032 42.164355 -0.798222 0.741617 0.058598 -0.019632 -347666.000000 0 0 1
-20.449255 19.935676 32.296972 43.112616 -0.772682 0.724048 0.051040 -0.010534 -144356.000000 0 0 1
-19.568355 20.293876 33.525130 43.802925 -0.803597 0.699191 0.062375 -0.012891 -290787.000000 0 0 1
-19.521455 21.720376 33.804708 44.672365 -0.838665 0.712507 0.046612 -0.013438 80801.400000 0 0 1
-18.617955 22.423076 32.958781 43.996634 -0.877849 0.724063 0.064213 -0.011818 -161242.000000 0 0 1
-17.189155 22.531276 33.562910 43.927149 -0.919089 0.701216 0.054044 0.005225 -112307.000000 0 0 1
-16.592055 21.286676 33.436286 42.969805 -0.908708 0.679106 0.058327 -0.013197 -1498050.000000 0 0 1
-15.239755 21.371676 33.682846 42.702843 -0.951344 0.661986 0.051932 -0.014414 -1821030.000000 0 0 1
-14.471855 20.061576 33.564154 41.694770 -0.945870 0.635126 0.060201 -0.018767 113032.000000 0 0 1
-13.130255 20.037076 34.037650 41.622706 -0.990706 0.613277 0.049787 -0.024777 489302.000000 0 0 1
-12.904155 20.362276 -32.830261 40.730401 -1.005945 2.508224 0.050141 -0.026113 -1062030.000000 0 0 1
-11.426355 20.220576 -32.460161 39.913599 -1.056445 2.520530 0.040821 -0.027297 58887.200000 0 0 1
-10.610755 21.343576 -32.879931 40.610667 -1.109439 2.514331 0.035432 -0.025595 -530698.000000 0 0 1
-9.309655 21.055076 -32.493581 39.822340 -1.154484 2.525190 0.036424 -0.023164 -254315.000000 0 0 1
-8.242655 22.210076 -32.663441 40.350084 -1.215430 2.514098 0.047734 -0.027341 535915.000000 0 0 1
-8.255755 23.253476 -31.679511 40.155611 -1.229645 2.479844 0.061127 -0.020631 39996.000000 0 0 1
-7.832055 22.948976 -30.330091 38.831830 -1.241910 2.467162 0.055813 -0.025964 97799.100000 0 0 1
-7.607255 24.247276 -29.502671 38.938520 -1.266785 2.430537 0.069837 -0.024993 -302351.000000 0 0 1
-6.508655 24.935276 -30.000711 39.549630 -1.315471 2.431894 0.061503 -0.023959 -503140.000000 0 0 1
-6.034155 25.865976 -29.023651 39.342497 -1.341610 2.400480 0.076552 -0.019356 744975.000000 0 0 1
-4.622055 26.443676 -29.413381 39.821833 -1.397756 2.401824 0.056650 -0.022382 340149.000000 0 0 1
-3.561955 25.592076 -29.035851 38.868014 -1.432503 2.414390 0.056576 -0.019029 890920.000000 0 0 1
-2.258655 25.852876 -29.592671 39.359864 -1.483652 2.421658 0.065643 -0.021529 1230330.000000 0 0 1
-1.517455 27.199676 -29.419041 40.094950 -1.515065 2.394598 0.069637 -0.034960 -557459.000000 0 0 1
-1.094455 27.333476 -28.037261 39.171479 -1.530777 2.368504 0.079313 -0.045945 403780.000000 0 0 1
-0.510855 28.634876 -27.792481 39.907883 -1.552958 2.341187 0.081028 -0.045044 -592704.000000 0 0 1
0.186445 28.716876 -26.409871 39.015062 1.564304 2.314359 0.096845 -0.053163 391911.000000 0 0 1
1.328145 27.916976 -26.172281 38.289814 1.523257 2.323386 0.139749 -0.060358 48507.000000 0 0 1
2.474945 28.175676 -26.917651 39.045538 1.483181 2.331445 0.144256 -0.054031 -1011370.000000 0 0 1
3.793445 28.273976 -26.153711 38.701739 1.437425 2.312813 0.138687 -0.058145 -289659.000000 0 0 1
4.363645 27.112276 -25.598711 37.542122 1.411218 2.321107 0.133262 -0.046028 -350610.000000 0 0 1
5.531645 27.422476 -24.913801 37.460496 1.371748 2.298382 0.099718 -0.039117 -447394.000000 0 0 1
6.122645 26.319876 -24.068201 36.187028 1.342237 2.298432 0.098929 -0.037776 -339201.000000 0 0 1
7.374445 26.573976 -23.512501 36.240811 1.300102 2.276783 0.094434 -0.037130 -763061.000000 0 0 1
8.001145 25.368976 -23.097801 35.229415 1.265280 2.285826 0.082933 -0.024110 733416.000000 0 0 1
9.395845 25.593276 -22.426001 35.301887 1.218951 2.259146 0.081823 -0.007181 -64853.100000 0 0 1
9.452145 26.066276 -21.086201 34.834203 1.222924 2.220977 0.085304 -0.007241 -7598.990000 0 0 1
10.775845 26.291876 -20.633801 35.116027 1.181824 2.198873 0.091188 -0.015727 302685.000000 0 0 1
11.531145 25.016976 -20.188901 34.152718 1.138888 2.203263 0.062357 -0.006806 -542013.000000 0 0 1
11.812845 24.099176 -21.211801 34.208977 1.115039 2.239622 0.058204 -0.006504 -13605.800000 0 0 1
12.167645 22.804876 -20.692901 33.110574 1.080667 2.245881 0.057936 0.003580 329606.000000 0 0 1
12.553945 21.731376 -21.791801 33.237582 1.046945 2.285823 0.066973 -0.001231 -571684.000000 0 0 1
11.327945 21.490876 -22.338901 33.003130 1.085701 2.314301 0.064225 -0.014185 -489950.000000 0 0 1
11.567545 20.714076 -23.507701 33.398998 1.061497 2.351592 0.062036 -0.016423 -94286.000000 0 0 1
10.577045 21.030176 -24.606701 34.053369 1.104795 2.378341 0.080254 -0.016509 -300826.000000 0 0 1
9.231945 20.647876 -24.461401 33.315518 1.150345 2.395335 0.060528 -0.019443 27739.300000 0 0 1
8.564045 20.650576 -25.763381 34.110716 1.177672 2.426888 0.052765 -0.024869 255844.000000 0 0 1
7.059445 20.246676 -25.745951 33.505487 1.235305 2.447149 0.038973 -0.031913 815323.000000 0 0 1
6.094045 21.149276 -25.217321 33.471519 1.290251 2.424008 0.063325 -0.026993 318855.000000 0 0 1
6.306945 21.332576 -23.815301 32.588724 1.283336 2.390265 0.064845 -0.023091 -864535.000000 0 0 1
4.987645 21.644576 -23.077801 32.030442 1.344316 2.375313 0.086171 -0.028563 90213.500000 0 0 1
4.461445 22.932676 -23.325801 33.013711 1.378651 2.355406 0.092084 -0.025554 -82144.800000 0 0 1
3.056545 22.967676 -23.444101 32.961834 1.438493 2.362071 0.113892 -0.028052 -2246.280000 0 0 1
2.528545 23.906376 -24.520501 34.338948 1.465419 2.366095 0.106115 -0.027631 -1199550.000000 0 0 1
1.151545 23.987376 -24.469201 34.285013 1.522827 2.365562 0.128546 -0.046488 -1122490.000000 0 0 1
0.724345 24.744276 -25.565981 35.586841 1.541531 2.372312 0.125126 -0.041148 -526031.000000 0 0 1
-0.756955 24.703076 -25.914911 35.810579 -1.540164 2.379896 0.119367 -0.042892 -610476.000000 0 0 1
-1.159255 23.431176 -26.276761 35.225446 -1.521362 2.412771 0.118895 -0.043366 921102.000000 0 0 1
-2.517555 23.552076 -26.799991 35.766995 -1.464308 2.417792 0.115162 -0.033785 1344630.000000 0 0 1
-3.094655 22.198276 -27.249571 35.282850 -1.432279 2.453278 0.108487 -0.032154 -588981.000000 0 0 1
-2.429655 21.571676 -28.310511 35.675278 -1.458637 2.487435 0.118506 -0.044789 21307.400000 0 0 1
-3.095555 20.360576 -28.775861 35.386236 -1.419915 2.520415 0.093479 -0.038260 586227.000000 0 0 1
-4.331355 20.538076 -29.723281 36.387452 -1.362948 2.526734 0.085286 -0.041378 224306.000000 0 0 1
-4.121555 20.802376 -31.091081 37.634843 -1.375200 2.542992 0.075768 -0.039274 38729.000000 0 0 1
-3.531955 22.082776 -31.429161 38.573513 -1.412198 2.523156 0.080595 -0.039189 212178.000000 0 0 1
-3.017455 22.135676 -32.910891 39.777129 -1.435315 2.545227 0.052329 -0.030198 1324760.000000 0 0 1
-1.664355 21.607976 -33.067981 39.536895 -1.493923 2.561447 0.065581 -0.026382 1449570.000000 0 0 1
-1.379755 21.694076 33.772573 40.163707 -1.507281 0.571902 0.058257 -0.012497 -564770.000000 0 0 1
-0.277555 20.777876 33.337638 39.283524 -1.557439 0.557384 0.059094 -0.003023 -608418.000000 0 0 1
-0.763355 19.475176 33.040756 38.360875 -1.531620 0.532946 0.052563 0.003264 292164.000000 0 0 1
0.234845 18.679276 32.417828 37.415051 1.558225 0.522773 0.055468 -0.003569 -10571.800000 0 0 1
-0.222155 17.326176 31.882492 36.286899 -1.557975 0.497826 0.043515 0.001076 -53908.900000 0 0 1
-1.071055 17.348676 30.765732 35.336298 -1.509138 0.514264 0.030362 0.002056 -9662.660000 0 0 1
-1.831455 16.181776 30.671582 34.726791 -1.458096 0.488100 0.030478 0.003717 -303285.000000 0 0 1
-2.936555 16.032476 29.623542 33.811505 -1.389641 0.503005 0.035145 0.007268 84290.200000 0 0 1
-4.125755 16.756376 29.882152 34.507115 -1.329378 0.523708 0.026791 0.000157 64291.800000 0 0 1
-4.175655 17.980376 29.275092 34.608684 -1.342607 0.562567 0.019028 -0.000965 -18542.900000 0 0 1
-5.578955 18.658076 29.224802 35.118907 -1.280248 0.587792 0.018693 -0.010365 802677.000000 0 0 1
-6.477455 17.889176 28.430052 34.208886 -1.223394 0.589764 0.009814 -0.006706 462067.000000 0 0 1
-7.857355 18.212476 28.598992 34.804233 -1.163495 0.606391 0.024622 -0.005820 376458.000000 0 0 1
-8.871555 17.425376 27.776092 33.968508 -1.099882 0.613390 0.027082 -0.011983 -157030.000000 0 0 1
-9.129455 16.096576 28.157992 33.694498 -1.054868 0.581417 0.042663 -0.022604 91289.300000 0 0 1
-10.031055 15.969376 29.253092 34.804977 -1.009940 0.572617 0.049420 -0.024806 -394403.000000 0 0 1
-10.564455 14.562476 29.584592 34.625446 -0.943188 0.546367 0.051701 -0.036623 400712.000000 0 0 1
-9.596455 13.530676 29.920572 34.211281 -0.953898 0.506223 0.042138 -0.024419 738320.000000 0 0 1
-8.849055 13.713576 31.137992 35.155974 -0.997748 0.482776 0.022600 -0.019294 70679.500000 0 0 1
-9.568455 13.274576 32.437684 36.331433 -0.946240 0.467213 0.046189 -0.027402 -239816.000000 0 0 1
-9.778155 11.884576 32.629371 36.076742 -0.882331 0.440723 0.036394 -0.016814 149377.000000 0 0 1
-10.125555 11.565176 33.922572 37.242732 -0.851671 0.425456 0.022018 -0.007464 -179395.000000 0 0 1
-10.535555 10.050576 34.090272 37.069646 -0.761844 0.403665 0.026562 -0.009847 -461736.000000 0 0 1
-9.474855 9.137476 -34.031546 36.488525 -0.767274 2.772526 0.035465 -0.010948 -401225.000000 0 0 1
-9.521355 8.337976 -32.880211 35.231894 -0.719234 2.774156 0.066053 -0.016018 -280503.000000 0 0 1
-8.925055 8.941176 -31.585811 34.018594 -0.786300 2.761113 0.049165 -0.019174 -194351.000000 0 0 1
-9.533855 10.118276 -31.024951 33.997375 -0.815128 2.720319 0.046950 -0.015238 707844.000000 0 0 1
-8.511455 10.884976 -30.373791 33.369069 -0.907162 2.714655 0.056469 -0.024478 227685.000000 0 0 1
-7.615355 11.770076 -31.196481 34.201590 -0.996526 2.719260 0.032918 -0.025789 -390827.000000 0 0 1
-8.085155 13.094976 -31.259001 34.842120 -1.017663 2.684097 0.037003 -0.025714 -73174.900000 0 0 1
-7.177455 13.917776 -31.929961 35.563222 -1.094664 2.685628 0.024614 -0.028410 -243212.000000 0 0 1
-7.708055 15.313676 -32.106471 36.397092 -1.104477 2.651133 0.025813 -0.025167 -533698.000000 0 0 1
-8.674055 15.447976 -33.092961 37.536959 -1.059166 2.650059 0.033790 -0.028646 -478653.000000 0 0 1
-8.848855 16.765676 -33.484541 38.478626 -1.085160 2.626428 0.038626 -0.033448 -859960.000000 0 0 1
-9.219255 17.022776 33.284682 38.505060 -1.074438 0.526794 0.048744 -0.038988 1193660.000000 0 0 1
-10.443155 16.444476 32.781789 38.133004 -1.004999 0.536174 0.052598 -0.038026 1410810.000000 0 0 1
-11.719955 16.816376 33.299794 39.102739 -0.962129 0.551771 0.048747 -0.037356 262505.000000 0 0 1
-12.929455 16.482776 32.389495 38.573723 -0.905626 0.574107 0.066292 -0.035849 66010.400000 0 0 1
-13.155255 15.087176 32.326897 38.022518 -0.853697 0.554424 0.057257 -0.034485 364248.000000 0 0 1
-14.078755 14.553376 33.263205 38.941661 -0.801973 0.546824 0.048172 -0.024784 -208164.000000 0 0 1
-14.014655 12.997176 33.244409 38.347462 -0.747748 0.521795 0.034120 -0.015345 40682.300000 0 0 1
-14.424055 12.486476 31.987772 37.244906 -0.713521 0.537777 0.025622 -0.020705 38219.100000 0 0 1
-13.310455 11.928676 31.345482 36.083248 -0.730705 0.518227 0.027893 -0.016014 -361312.000000 0 0 1
-13.608255 11.508476 29.930362 34.834698 -0.701991 0.537070 0.033706 -0.016333 -168136.000000 0 0 1
-14.190655 10.231676 29.868562 34.614923 -0.624691 0.529854 0.024693 -0.007484 61580.900000 0 0 1
-14.387855 9.926176 28.530742 33.459566 -0.603915 0.549677 0.023333 -0.008413 -74803.200000 0 0 1
-15.160055 8.592276 28.339982 33.268740 -0.515628 0.551289 0.026231 -0.002202 357916.000000 0 0 1
-14.489155 7.413976 28.837602 33.113592 -0.472957 0.513829 0.004818 -0.000541 228813.000000 0 0 1
-15.189555 6.296276 28.334962 32.760277 -0.392955 0.525809 0.011930 0.009076 143236.000000 0 0 1
-14.423355 4.926876 28.387262 32.220241 -0.329163 0.492744 0.008300 0.010945 814591.000000 0 0 1
-13.412955 4.669676 27.370222 30.835731 -0.335023 0.478658 0.006275 -0.000120 491032.000000 0 0 1
-13.899355 4.466476 26.049292 29.861465 -0.310922 0.510832 0.018647 0.005462 -601327.000000 0 0 1
-12.880555 4.425376 24.904872 28.385653 -0.330935 0.500432 0.018516 0.015043 -580752.000000 0 0 1
-12.234355 3.177376 24.879972 27.906776 -0.254096 0.470065 0.011989 0.008719 -75913.100000 0 0 1
-11.546455 2.944176 23.663162 26.494038 -0.249665 0.466494 0.017297 0.006196 -249932.000000 0 0 1
-10.608155 1.713676 23.732622 26.052005 -0.160160 0.425164 0.013960 -0.000340 -23376.600000 0 0 1
-9.443155 1.916176 24.509742 26.335762 -0.200199 0.374573 0.010142 0.003447 132138.000000 0 0 1
-8.681555 0.715376 24.602642 26.099256 -0.082216 0.340293 0.000256 0.003799 363769.000000 0 0 1
-7.164655 1.036276 24.514932 25.561456 -0.143641 0.287137 0.033918 -0.007503 -243496.000000 0 0 1
-6.735155 1.428876 23.220612 24.219843 -0.209052 0.288248 0.045772 -0.007576 1432930.000000 0 1 0
-5.307555 1.604976 22.985892 23.645239 -0.293652 0.236709 0.037317 -0.010743 1475060.000000 0 1 0
-4.639755 2.813776 23.613432 24.228884 -0.545148 0.225876 0.049986 -0.008951 -671530.000000 0 1 0
-4.516855 2.744076 25.021152 25.573228 -0.545930 0.208164 0.053694 -0.007525 205770.000000 0 0 1
-3.790655 3.887976 25.492272 26.064178 -0.798072 0.209871 0.054243 -0.009108 240605.000000 0 0 1
4.924445 -23.582924 13.216999 27.478965 -1.364940 1.069017 0.076825 -0.010326 259062.000000 0 0 1
4.407145 -24.758324 13.808799 28.689379 -1.394635 1.068635 0.088880 -0.020442 -1100270.000000 0 0 1
3.203045 -25.067644 13.204099 28.513058 -1.443709 1.089318 0.090582 -0.027522 -536067.000000 0 0 1
2.584845 -26.325514 13.873799 29.869657 -1.472922 1.087751 0.080917 -0.029618 11908.300000 0 0 1
2.246645 -26.149074 15.213299 30.335885 -1.485090 1.045470 0.081030 -0.026132 -161560.000000 0 0 1
2.818645 -27.199614 15.947399 31.655699 -1.467537 1.042831 0.071344 -0.022600 -230618.000000 0 0 1
2.347045 -27.483164 17.383699 32.604078 -1.485604 1.008447 0.067235 -0.019782 272588.000000 0 0 1
3.158245 -26.756824 18.343499 32.594264 -1.453305 0.973048 0.074167 -0.027946 569272.000000 0 0 1
2.963945 -27.245404 19.665199 33.731544 -1.462435 0.948391 0.057110 -0.019845 -45633.000000 0 0 1
3.562445 -26.317744 20.671399 33.654441 -1.436251 0.909393 0.052168 -0.017233 -275745.000000 0 0 1
2.641145 -25.329904 21.043199 33.036281 -1.466902 0.880232 0.050821 -0.017020 -200779.000000 0 0 1
3.238045 -24.419824 21.924099 32.976944 -1.438966 0.843529 0.061329 -0.027268 -457472.000000 0 0 1
2.430745 -23.218724 22.387199 32.345082 -1.466487 0.806352 0.063994 -0.029505 -457565.000000 0 0 1
2.302745 -22.082624 21.530399 30.927382 -1.466893 0.800762 0.064023 -0.027939 -30752.900000 0 0 1
3.505745 -21.422324 21.187199 30.333209 -1.408585 0.797522 0.066595 -0.019116 -27382.400000 0 0 1
3.219945 -20.230724 20.304699 28.843214 -1.412959 0.789827 0.065511 -0.015603 11542.000000 0 0 1
2.638045 -19.236124 21.070799 28.652509 -1.434506 0.744553 0.046377 -0.015342 556207.000000 0 0 1
1.705445 -18.399124 20.304699 27.453908 -1.478369 0.738332 0.040420 -0.014440 833620.000000 0 0 1
1.404545 -17.086724 20.985899 27.098650 -1.488780 0.684989 0.064910 -0.013716 -161789.000000 0 0 1
2.462345 -16.191924 20.931099 26.577292 -1.419880 0.663964 0.031544 0.004776 -636610.000000 0 0 1
1.986745 -14.941024 21.266899 26.066498 -1.438599 0.616562 0.045935 0.006944 205392.000000 0 0 1
2.942845 -13.760224 20.988599 25.269060 -1.360104 0.590604 0.019153 0.013918 -418828.000000 0 0 1
3.141145 -13.423824 19.629199 23.986898 -1.340934 0.612297 0.006693 0.007875 405151.000000 0 1 0
1.986745 -12.963624 18.900499 23.005033 -1.418724 0.606618 0.009924 0.011875 539411.000000 0 1 0
1.319145 -11.691624 19.373899 22.666763 -1.458443 0.545771 0.002823 0.008727 -640265.000000 0 1 0
2.109045 -10.530824 19.356499 22.136404 -1.373138 0.506559 0.009250 0.016558 -320269.000000 0 1 0
1.637045 -9.502724 20.270799 22.447427 -1.400200 0.444015 0.016962 0.004589 1584790.000000 0 1 0
0.160245 -8.897424 20.202099 22.075204 -1.552788 0.414919 0.016293 -0.004964 1566340.000000 0 1 0
-0.180555 -7.916124 21.159499 22.592521 1.547992 0.358081 0.025335 -0.018032 -636425.000000 0 1 0
-1.499055 -7.428924 21.118899 22.437557 1.371684 0.344543 0.034263 -0.020940 -74301.300000 0 1 0
-1.911655 -6.948924 22.501099 23.627133 1.302336 0.309974 0.038412 -0.012080 -309267.000000 0 1 0
-2.255155 -8.001924 23.359399 24.794718 1.296095 0.341922 0.037169 -0.012288 -100656.000000 0 1 0
-2.455355 -7.517324 24.673799 25.910138 1.255094 0.310164 0.042125 -0.001720 -210412.000000 0 0 1
-2.452855 -8.679624 25.768499 27.301427 1.295379 0.336695 0.042428 -0.000668 830579.000000 0 0 1
-1.245955 -9.448924 25.962799 27.656852 1.439691 0.351819 0.047975 -0.001457 548882.000000 0 0 1
-1.389155 -10.281824 27.080099 28.999610 1.436502 0.365881 0.052298 -0.013554 -123517.000000 0 0 1
-0.190155 -11.201724 27.362499 29.567230 1.553822 0.388619 0.056438 -0.015871 340913.000000 0 0 1
0.901845 -10.564724 28.041899 29.979573 -1.485639 0.361501 0.058497 -0.013507 452740.000000 0 0 1
2.011145 -11.465924 28.019599 30.341556 -1.397161 0.393761 0.062125 -0.016484 585187.000000 0 0 1
3.177245 -10.987824 28.932599 31.111452 -1.289313 0.376475 0.070274 -0.018784 258049.000000 0 0 1
2.773645 -11.121224 30.293099 32.388988 -1.326381 0.361718 0.066489 -0.022341 -19425.700000 0 0 1
3.544845 -10.368524 31.191599 33.060370 -1.241369 0.337836 0.070793 -0.012681 -163500.000000 0 0 1
2.913145 -10.254624 32.630099 34.327352 -1.294007 0.315772 0.066757 -0.013460 -29675.200000 0 0 1
3.191145 -11.381224 33.445099 35.472388 -1.297429 0.339718 0.049670 -0.015160 60782.600000 0 0 1
2.805145 -11.261224 -33.432694 35.389674 -1.326667 2.807481 0.044384 -0.014567 -402648.000000 0 0 1
3.436745 -10.211224 -32.475094 34.215670 -1.246140 2.821255 0.034464 -0.008986 -385681.000000 0 0 1
2.967845 -8.849524 -32.518994 33.832043 -1.247216 2.862077 0.050989 -0.014080 73367.500000 0 0 1
3.547145 -7.929624 -31.611994 32.783827 -1.150166 2.873416 0.059952 -0.014145 -559981.000000 0 0 1
2.961945 -6.535524 -31.526994 32.333227 -1.145279 2.917810 0.049475 -0.023093 -333913.000000 0 0 1
3.163645 -5.731424 -32.676794 33.326127 -1.066432 2.943867 0.088095 -0.023963 117358.000000 0 0 1
3.052845 -4.354724 -32.239394 32.675098 -0.959371 2.978105 0.067010 -0.019310 17379.900000 0 0 1
3.110545 -3.294324 -33.365394 33.671614 -0.814084 3.006625 0.078827 -0.007163 214846.000000 0 0 1
2.010245 -3.386324 33.978899 34.206342 -1.035069 0.115382 0.079462 -0.011493 -61970.100000 0 0 1
2.253945 -2.666924 32.799999 32.985340 -0.869126 0.106058 0.107087 -0.017397 207765.000000 0 0 1
1.343745 -3.130724 31.636699 31.819613 -1.165363 0.107275 0.109516 -0.014144 224852.000000 0 0 1
-0.039955 -2.887524 31.775199 31.906154 1.556960 0.090633 0.087532 -0.021916 -148267.000000 0 0 1
-0.666055 -3.721524 30.773999 31.005360 1.393698 0.122240 0.099093 -0.022112 -10525.200000 0 0 1
-2.197955 -3.765424 30.886499 31.192711 1.042433 0.140235 0.072443 -0.020087 -397103.000000 0 0 1
-2.840555 -2.610524 30.440499 30.683995 0.743224 0.126065 0.062353 -0.020239 -345603.000000 0 0 1
-4.227455 -2.884224 30.501799 30.928140 0.598720 0.166233 0.055435 -0.017539 175650.000000 0 0 1
-5.117655 -1.853424 29.723199 30.217447 0.347469 0.181114 0.039371 -0.020756 -67923.400000 0 0 1
-4.845355 -1.717024 28.319599 28.782379 0.340558 0.179565 0.030908 -0.015752 -329490.000000 0 0 1
-5.612655 -0.781824 27.613799 28.189272 0.138406 0.202408 0.016438 -0.011798 -114313.000000 0 0 1
-5.816555 0.683976 28.117499 28.720966 -0.117054 0.205355 0.036885 -0.014616 -310644.000000 0 0 1
-6.980255 0.853576 28.868699 29.712865 -0.121680 0.238941 0.027457 -0.010663 -714225.000000 0 0 1
-7.162355 2.170476 29.243799 30.186256 -0.294243 0.250540 0.033594 -0.012894 -1151900.000000 0 0 1
-8.543855 2.472076 29.767199 31.067584 -0.281648 0.290351 0.025139 -0.012131 -625918.000000 0 0 1
-9.523055 2.065876 28.816099 30.419138 -0.213624 0.326092 0.007577 -0.004387 394028.000000 0 0 1
-10.829455 2.590476 29.069199 31.128861 -0.234795 0.365810 -0.005724 0.004539 1007620.000000 0 0 1
-11.895555 1.828176 28.183799 30.645929 -0.152493 0.403586 -0.004832 0.009927 271250.000000 0 0 1
-12.083755 0.486276 28.583599 31.036684 -0.040220 0.400255 -0.002425 0.007728 10145.200000 0 0 1
-12.383255 -0.296924 27.469099 30.132782 0.023973 0.423632 -0.002705 0.014718 -978140.000000 0 0 1
-12.284455 -1.831524 27.727199 30.381901 0.148003 0.421143 0.003116 0.010575 -205167.000000 0 0 1
-11.061455 -2.490724 27.917599 30.132239 0.221478 0.385787 0.002695 0.002545 183088.000000 0 0 1
-9.940455 -2.178324 27.098599 28.946361 0.215727 0.359235 -0.004669 0.004315 -192807.000000 0 0 1
-9.925555 -2.787624 25.655899 27.649822 0.273800 0.382092 -0.004110 0.008646 -691229.000000 0 0 1
-10.763555 -2.130224 24.748299 27.071577 0.195386 0.417316 -0.012509 0.008213 57369.600000 0 0 1
-10.768355 -2.774824 23.460499 25.962514 0.252197 0.442627 -0.004195 0.007186 221035.000000 0 0 1
-9.531755 -2.530224 22.533399 24.596960 0.259468 0.412541 0.007582 0.001479 443814.000000 0 1 0
-8.235355 -2.718824 23.027899 24.606853 0.318874 0.360182 0.015587 -0.003069 -663330.000000 0 1 0
-7.315855 -2.355124 22.050699 23.351695 0.311444 0.335375 0.017033 -0.007081 -720447.000000 0 1 0
-5.837055 -2.453424 22.435099 23.311460 0.397899 0.275069 0.027198 -0.016529 -243922.000000 0 1 0
-5.295455 -3.802424 22.578999 23.501308 0.622740 0.281085 0.030017 -0.013995 -78210.300000 0 1 0
-5.840855 -4.648124 23.556999 24.711391 0.672172 0.306866 0.030317 -0.009294 -483777.000000 0 1 0
-5.593955 -6.155024 23.270799 24.712481 0.833117 0.343262 0.035888 -0.007355 -125176.000000 0 1 0
-6.248155 -6.779224 22.130699 23.974260 0.826141 0.394725 0.028803 -0.014696 53079.600000 0 1 0
-6.032155 -6.122924 20.855799 22.557514 0.792866 0.390914 0.032972 -0.019915 -283071.000000 0 1 0
-7.144955 -6.274224 19.802599 21.967230 0.720602 0.447664 0.042346 -0.020944 -642707.000000 0 1 0
-8.302755 -5.593224 20.137799 22.488905 0.592828 0.461344 0.045422 -0.013794 -830711.000000 0 1 0
-9.111655 -5.405024 18.992199 21.747187 0.535404 0.508825 0.042809 -0.017354 203784.000000 0 1 0
-9.855655 -4.068124 19.018799 21.803630 0.391467 0.510957 0.032137 -0.018434 -9577.680000 0 1 0
-8.945455 -3.017324 18.887899 21.115827 0.325318 0.463507 0.032318 -0.013544 -29752.200000 0 1 0
-9.658255 -1.787224 18.890799 21.291744 0.182976 0.479478 0.024259 -0.021190 272482.000000 0 1 0
-8.722955 -0.677324 18.379799 20.355975 0.077493 0.444283 0.026970 -0.010880 -268817.000000 0 1 0
-7.628855 -0.388024 19.203399 20.666894 0.050819 0.378591 0.028461 0.000945 -91740.100000 0 1 0
-7.834855 0.543076 20.279099 21.746764 -0.069205 0.369492 0.039362 -0.003108 -339777.000000 0 1 0
-7.760555 1.966076 19.852999 21.406383 -0.248122 0.383305 0.043834 -0.016576 -750555.000000 0 1 0
-8.691255 2.347876 18.905599 20.939726 -0.263845 0.444425 0.029476 -0.024985 -216834.000000 0 1 0
-8.439355 3.685576 18.493699 20.659697 -0.411750 0.462010 0.033806 -0.024527 -353721.000000 0 1 0
-9.520955 4.190076 17.551799 20.402720 -0.414582 0.535002 0.030416 -0.014133 49142.100000 0 1 0
-10.773855 4.420076 18.227899 21.630287 -0.389319 0.568513 0.028603 -0.001041 133922.000000 0 1 0
-11.686855 5.020276 17.375599 21.533629 -0.405732 0.631902 0.029137 0.015371 -464505.000000 0 1 0
-11.706155 6.588176 17.328399 21.925135 -0.512614 0.659426 0.031613 0.012980 430791.000000 0 1 0
-10.517955 7.155976 16.722699 21.011522 -0.597422 0.650333 0.027839 0.001777 947248.000000 0 1 0
-10.597055 8.586176 16.838599 21.669297 -0.680955 0.680796 0.023141 -0.000277 -534435.000000 0 1 0
-9.291755 9.358676 16.876299 21.418007 -0.788986 0.663325 0.019227 -0.000015 -462952.000000 0 1 0
-8.727155 9.649176 18.178399 22.354508 -0.835530 0.621189 0.039137 0.011640 1026220.000000 0 1 0
-7.588555 10.538376 18.229299 22.381932 -0.946716 0.618990 0.033599 0.001386 861093.000000 0 1 0
-8.034955 11.995276 17.977399 23.057190 -0.980598 0.676630 0.030677 -0.000358 -170872.000000 0 1 0
-7.981755 12.352876 16.612399 22.187243 -0.997136 0.724642 0.016928 -0.008584 130525.000000 0 1 0
-8.835655 13.464976 16.388199 22.977107 -0.990078 0.776686 0.033330 -0.013232 26040.900000 0 1 0
-8.970955 14.053976 14.970199 22.407569 -1.002675 0.839162 0.033239 -0.007408 741516.000000 0 1 0
-7.788655 14.845576 14.788199 22.354980 -1.087628 0.847957 0.042009 -0.003445 548061.000000 0 1 0
-7.635355 15.454476 13.546999 21.923975 -1.111916 0.904717 0.028885 -0.007478 283316.000000 0 1 0
-6.518955 16.535376 13.542399 22.345291 -1.195263 0.919709 -0.001763 -0.002431 -180502.000000 0 1 0
-5.184555 16.158076 13.661199 21.785119 -1.260309 0.892986 0.002368 -0.013900 -825823.000000 0 1 0
-4.434755 17.363776 13.781499 22.607465 -1.320739 0.915241 0.007342 -0.015312 793758.000000 0 1 0
-2.895255 17.115476 13.540499 22.015157 -1.403223 0.908343 0.019044 -0.024430 843436.000000 0 1 0
-2.187055 16.631776 14.669099 22.284112 -1.440048 0.852270 0.017756 -0.022715 -120999.000000 0 1 0
-2.427255 15.227576 14.996799 21.509873 -1.412727 0.799305 0.019492 -0.019252 -784751.000000 0 1 0
-1.406655 14.671676 15.971699 21.733199 -1.475213 0.745279 0.009990 -0.014179 -228927.000000 0 1 0
-0.091855 14.605876 15.398499 21.223898 -1.564507 0.758997 -0.008063 -0.017188 389094.000000 0 1 0
0.825045 13.965276 16.274399 21.460794 1.511787 0.710046 -0.003036 -0.012066 191996.000000 0 1 0
1.649245 15.001576 17.093099 22.802222 1.461298 0.723302 -0.002269 -0.009619 -365462.000000 0 1 0
0.873545 15.734376 17.999799 23.923345 1.515335 0.719106 -0.013996 -0.009117 -446554.000000 0 1 0
1.633945 16.772476 18.528499 25.045778 1.473685 0.738045 0.001386 -0.007842 -655888.000000 0 0 1
0.815245 18.006676 18.837699 26.072282 1.525553 0.763358 0.007292 -0.011680 -169999.000000 0 0 1
0.364845 18.761576 17.733899 25.819005 1.551352 0.813644 -0.002522 -0.014866 1463390.000000 0 0 1
-0.953155 18.316876 17.262299 25.187366 -1.518806 0.815705 -0.001342 -0.012783 954002.000000 0 0 1
-1.720155 19.307876 16.353599 25.361254 -1.481940 0.870001 -0.000303 -0.007855 -62462.700000 0 0 1
-2.315755 20.360276 17.141599 26.715875 -1.457544 0.874180 -0.013624 -0.006874 -120326.000000 0 0 1
-2.822555 21.327976 16.277299 26.977766 -1.439220 0.923089 0.003811 -0.016684 -879226.000000 0 0 1
-3.531255 22.395076 17.087499 28.389995 -1.414404 0.924937 0.001456 -0.006791 -1014960.000000 0 0 1
-4.701755 21.931776 17.663099 28.549858 -1.359612 0.903741 0.009942 -0.004226 -742237.000000 0 0 1
-5.004655 22.827976 18.692999 29.926431 -1.354977 0.896136 0.011349 -0.010052 362080.000000 0 0 1
-6.240155 22.394676 19.564099 30.384454 -1.299045 0.871231 0.003480 -0.009547 -200496.000000 0 0 1
-7.487755 22.612976 18.989799 30.463513 -1.251033 0.897761 -0.002335 -0.013853 -1141850.000000 0 0 1
-8.447955 22.101076 19.871399 30.898188 -1.205692 0.872224 -0.020220 -0.013666 -994760.000000 0 0 1
-9.828955 22.512776 19.412399 31.309339 -1.159146 0.902029 0.001140 -0.024944 -872305.000000 0 0 1
-10.218555 23.831376 19.803299 32.627044 -1.165723 0.918567 0.011631 -0.018674 -87999.500000 0 0 1
-11.295355 24.265476 19.010299 32.829710 -1.135135 0.953224 0.006265 -0.021371 -215178.000000 0 0 1
-11.762955 25.687276 19.308899 34.220416 -1.141368 0.971271 0.016551 -0.018632 1412.860000 0 0 1
-12.590055 25.796276 20.454599 35.246957 -1.116749 0.951672 0.012908 -0.011458 -11645.400000 0 0 1
-13.199755 27.025476 20.572099 36.439280 -1.116456 0.970898 0.036787 -0.020268 -505858.000000 0 0 1
-14.217155 27.143576 21.719999 37.558749 -1.088309 0.954160 0.058739 -0.017526 -539140.000000 0 0 1
-15.467355 26.523976 21.511499 37.490065 -1.042862 0.959668 0.044468 -0.019302 52222.700000 0 0 1
-16.226655 26.863576 22.693499 38.729200 -1.027412 0.944740 0.034737 -0.012078 906382.000000 0 0 1
-17.629555 26.151176 22.698499 38.857523 -0.977638 0.946968 0.051154 -0.010412 772300.000000 0 0 1
-17.489555 24.833576 23.131499 38.179278 -0.957210 0.919943 0.063863 -0.014783 -261657.000000 0 0 1
-18.761255 24.297676 23.347999 38.568003 -0.913274 0.920563 0.076831 -0.009687 -267771.000000 0 0 1
28.047445 24.302276 23.647172 44.005097 0.713979 1.003477 0.068274 -0.023093 -59299.000000 0 0 1
27.804345 23.402476 24.740962 43.964448 0.699646 0.973088 0.066235 -0.033814 491163.000000 0 0 1
27.021345 22.273176 24.314772 42.631626 0.689372 0.963869 0.066208 -0.029020 -36022.100000 0 0 1
26.722545 21.284976 25.410102 42.577199 0.672614 0.931288 0.089245 -0.033530 -189511.000000 0 0 1
25.568745 21.669076 26.118902 42.491253 0.703031 0.908805 0.094854 -0.034841 13289.400000 0 0 1
25.144045 20.780176 27.143202 42.435741 0.690659 0.876779 0.098019 -0.032488 1185460.000000 0 0 1
23.734245 21.137176 27.788582 42.217293 0.727585 0.852335 0.101484 -0.036653 953141.000000 0 0 1
23.644045 22.420376 28.456332 43.260570 0.758840 0.852917 0.112077 -0.046793 -304368.000000 0 0 1
22.500445 22.543176 29.256682 43.248332 0.786347 0.827822 0.139051 -0.050172 -461328.000000 0 0 1
22.105945 23.921376 29.898702 44.213543 0.824820 0.828158 0.122546 -0.052301 -678221.000000 0 0 1
21.687345 24.826376 28.934992 43.862554 0.852782 0.850411 0.096949 -0.045464 -94499.700000 0 0 1
21.264045 26.045676 29.516972 44.741351 0.886127 0.850344 0.096471 -0.043097 132736.000000 0 0 1
19.881245 26.035376 30.231012 44.575989 0.918633 0.825499 0.089619 -0.036928 -794347.000000 0 0 1
18.822745 26.134276 29.271202 43.521252 0.946620 0.833117 0.094062 -0.041794 440510.000000 0 0 1
17.641545 26.760076 29.768482 43.743437 0.987947 0.822318 0.085264 -0.037335 303210.000000 0 0 1
16.713345 25.790476 30.504802 43.301588 0.995798 0.789116 0.050160 -0.027421 -1487960.000000 0 0 1
17.246345 25.343176 31.712222 44.106439 0.973269 0.768444 0.062936 -0.029541 -562880.000000 0 0 1
16.376545 24.685476 32.564545 44.022875 0.985053 0.738144 0.023966 -0.020958 -333761.000000 0 0 1
17.109145 24.290976 33.872162 45.056606 0.957162 0.720056 0.050161 -0.027759 35412.100000 0 0 1
17.522945 25.348976 -33.553001 45.556866 0.965955 2.398690 0.062258 -0.032729 6130.350000 0 0 1
17.425445 24.871376 -32.235341 44.287117 0.959653 2.386009 0.038660 -0.018771 6717.170000 0 0 1
17.778745 25.912576 -31.133231 44.235997 0.969457 2.351527 0.041445 0.001127 -41951.200000 0 0 1
16.827945 26.939976 -31.048661 44.418030 1.012452 2.344809 0.045291 -0.006745 181320.000000 0 0 1
17.482445 28.033876 -30.499701 44.964051 1.013191 2.316261 0.058222 -0.009696 31099.500000 0 0 1
16.893945 28.435676 -29.115481 44.064774 1.034718 2.292604 0.065122 -0.006649 -99267.900000 0 0 1
17.216645 27.445176 -28.177981 42.937736 1.010537 2.286637 0.050209 -0.002002 248362.000000 0 0 1
16.974645 27.935576 -26.853381 42.304126 1.024781 2.258507 0.028151 0.006155 -256348.000000 0 0 1
17.526245 27.057076 -25.722981 41.242289 0.996004 2.244269 0.026514 0.015035 66463.000000 0 0 1
18.939745 26.996076 -25.732581 41.829031 0.959015 2.233417 0.040171 0.015149 -264242.000000 0 0 1
19.444245 26.324576 -24.592501 40.937185 0.934609 2.215220 0.046494 0.013370 -1147550.000000 0 0 1
20.921545 26.497576 -24.538901 41.737157 0.902451 2.199305 0.046564 0.012661 -1125980.000000 0 0 1
21.668545 26.016176 -23.424201 41.171112 0.876321 2.176022 0.057325 0.011952 1175520.000000 0 0 1
23.087245 26.177176 -23.692601 42.185362 0.848037 2.167152 0.063578 0.016579 1739560.000000 0 0 1
23.987345 25.915076 -22.431401 41.834814 0.824009 2.136713 0.074814 0.015025 459451.000000 0 0 1
23.804945 24.594476 -22.018501 40.698625 0.801710 2.142438 0.077174 0.004011 162381.000000 0 0 1
24.425445 24.475576 -20.736401 40.319406 0.786423 2.110991 0.061291 0.015273 20428.200000 0 0 1
23.745645 23.382376 -19.864601 38.796824 0.777690 2.108327 0.052717 0.008618 -213937.000000 0 0 1
24.250845 22.042676 -19.979401 38.381760 0.737735 2.118284 0.056379 0.007186 223555.000000 0 0 1
23.966445 21.312176 -18.785401 37.168409 0.726844 2.100657 0.062630 0.009172 -942355.000000 0 0 1
24.032145 19.754276 -18.868201 36.383848 0.688009 2.115994 0.073602 0.002259 437857.000000 0 0 1
23.076445 19.135176 -19.730501 35.888298 0.692299 2.152892 0.055298 0.002280 -417114.000000 0 0 1
21.730945 19.365576 -19.487001 35.028599 0.727905 2.160743 0.064197 -0.010131 -1193270.000000 0 0 1
20.785245 19.121776 -20.698101 35.015427 0.743739 2.203235 0.048784 0.005849 85427.100000 0 0 1
21.059745 19.836876 -21.930001 36.303436 0.755506 2.219401 0.050225 0.008266 -26294.200000 0 0 1
21.048745 21.269776 -21.836101 37.044141 0.790621 2.201189 0.042923 0.011794 61630.300000 0 0 1
20.515545 21.937376 -23.159601 37.927604 0.818878 2.227648 0.051799 0.017734 476062.000000 0 0 1
19.110545 22.107276 -23.186101 37.303349 0.857975 2.241523 0.061346 0.004067 -118040.000000 0 0 1
18.673045 22.655476 -24.438001 38.199072 0.881462 2.264974 0.059525 0.006223 820877.000000 0 0 1
17.123045 22.816976 -24.584701 37.659270 0.927006 2.282097 0.059671 0.003590 586826.000000 0 0 1
16.609445 23.810776 -23.771901 37.522393 0.961710 2.256915 0.046370 0.000233 -133251.000000 0 0 1
15.196145 23.812976 -23.752001 36.907157 1.002800 2.269938 0.051784 -0.005209 247986.000000 0 0 1
14.599345 25.143476 -23.187901 37.188897 1.044733 2.244029 0.044588 -0.006299 58771.900000 0 0 1
14.724245 26.249576 -24.062601 38.533783 1.059598 2.245229 0.035212 0.001121 82129.600000 0 0 1
13.861545 27.278876 -23.603301 38.644474 1.100656 2.227843 0.059188 -0.005957 116340.000000 0 0 1
13.912245 28.720576 -24.219501 40.062530 1.119706 2.219988 0.052546 -0.004317 -64653.500000 0 0 1
13.523545 28.892576 -25.579161 40.889616 1.133023 2.246653 0.055376 -0.011847 -53033.800000 0 0 1
13.102945 30.200976 -25.946071 41.916402 1.161447 2.238260 0.090541 -0.022395 206603.000000 0 0 1
14.110945 31.402476 -25.832661 43.041383 1.148477 2.214525 0.092621 -0.024278 769510.000000 0 0 1
15.335245 31.260576 -26.568671 43.798261 1.114728 2.222592 0.052688 -0.004802 533704.000000 0 0 1
16.087445 32.477276 -26.443571 44.864706 1.110880 2.201121 0.055978 -0.017996 629612.000000 0 0 1
17.531545 32.306676 -27.018701 45.618928 1.073606 2.204669 0.044729 0.001862 460295.000000 0 0 1
18.355345 31.416276 -26.293261 44.891388 1.042029 2.196550 0.011579 0.003883 649854.000000 0 0 1
19.569045 31.097076 -27.008881 45.601045 1.009119 2.204690 0.033795 0.004424 305900.000000 0 0 1
20.533545 30.086376 -26.287441 44.920441 0.971921 2.195923 0.016010 0.015493 -69395.900000 0 0 1
20.994645 30.597876 -25.037041 44.764479 0.969428 2.164345 0.024942 0.011140 71815.200000 0 0 1
21.697945 31.829676 -25.007601 45.927216 0.972466 2.146595 0.019183 0.006725 -1788760.000000 0 0 1
23.042545 31.974376 -25.642751 47.019893 0.946341 2.147614 0.010402 0.015571 -1616620.000000 0 0 1
23.153045 31.626576 -26.983651 47.585935 0.938866 2.173717 0.007952 0.019038 -44430.800000 0 0 1
24.404445 31.862876 -27.612321 48.716117 0.917183 2.173413 0.008666 0.025000 -257571.000000 0 0 1
24.379345 31.161876 -28.990491 49.049603 0.906914 2.203149 0.014657 0.012743 -187442.000000 0 0 1
23.414645 31.581976 -29.915031 49.402185 0.932827 2.221241 0.026076 -0.006075 -1587660.000000 0 0 1
22.243445 30.900476 -29.802531 48.350813 0.946878 2.234935 0.018385 -0.009156 -2003120.000000 0 0 1
21.240545 31.633276 -30.678671 48.918358 0.979481 2.248673 0.005829 -0.008561 -1212440.000000 0 0 1
20.700945 32.841576 -30.121951 49.136852 1.008375 2.230676 0.023069 -0.014217 -606086.000000 0 0 1
19.939445 33.521976 -31.003491 49.824902 1.034197 2.242409 0.042412 -0.025125 -414259.000000 0 0 1
18.403745 33.246176 -30.868001 48.957528 1.065224 2.253001 0.051639 -0.029828 65027.100000 0 0 1
17.881145 31.984176 -31.113221 48.070317 1.061022 2.274760 0.078321 -0.035566 -123749.000000 0 0 1
18.095345 31.476376 -32.381941 48.649706 1.049047 2.299113 0.082509 -0.038562 -957325.000000 0 0 1
17.536445 32.142376 -33.652801 49.730979 1.071348 2.314063 0.101133 -0.043995 -909329.000000 0 0 1
18.101645 33.362976 -33.984371 50.947966 1.073678 2.301026 0.085448 -0.035831 -309023.000000 0 0 1
17.714145 33.980576 33.074776 50.620266 1.090253 0.858742 0.087957 -0.036354 -162862.000000 0 0 1
16.256145 -33.797368 32.887623 49.881059 -1.122473 0.850881 0.102655 -0.036251 -82461.400000 0 0 1
15.277745 33.403476 32.899047 49.310739 1.141831 0.840382 0.104232 -0.032380 1743990.000000 0 0 1
13.889945 33.863176 33.023326 49.296910 1.181546 0.836741 0.088404 -0.033835 1991710.000000 0 0 1
13.242345 -33.818568 31.709812 48.213768 -1.197578 0.853046 0.084300 -0.032311 -669969.000000 0 0 1
13.962545 -32.809868 31.056782 47.285979 -1.168452 0.854247 0.091343 -0.029875 289543.000000 0 0 1
13.186545 -32.217768 29.997242 45.953281 -1.182303 0.859552 0.097430 -0.038546 256013.000000 0 0 1
13.572945 -30.701068 29.738102 44.845681 -1.154531 0.845816 0.096907 -0.040178 -37068.200000 0 0 1
13.314745 -29.788968 30.781522 44.857186 -1.150466 0.814528 0.089653 -0.035816 304731.000000 0 0 1
13.296445 -28.418868 30.293372 43.613253 -1.133178 0.802945 0.109263 -0.040591 -522226.000000 0 0 1
13.015245 -27.362568 31.386772 43.626095 -1.126811 0.767787 0.089774 -0.030912 582269.000000 0 0 1
11.609145 -27.178868 31.625362 43.285409 -1.167116 0.751561 0.063257 -0.030497 1196640.000000 0 0 1
10.897345 -26.339668 30.670132 41.871078 -1.178515 0.748824 0.047792 -0.034952 120.617000 0 0 1
11.271045 -24.847868 30.910422 41.229930 -1.144951 0.723175 0.040035 -0.026488 -225319.000000 0 0 1
10.598045 -24.294068 32.006002 41.556040 -1.159444 0.691659 0.061323 -0.026696 69860.100000 0 0 1
11.182445 -23.062368 32.322479 41.251212 -1.119319 0.670434 0.053540 -0.018681 240231.000000 0 0 1
10.524445 -22.464968 33.609073 41.773299 -1.132679 0.635864 0.045388 -0.012877 -125315.000000 0 0 1
10.571645 -23.180368 -33.383811 41.994856 -1.142914 2.489721 0.041133 -0.008427 686951.000000 0 0 1
11.899545 -23.417768 -32.888111 42.090603 -1.100657 2.467646 0.056475 -0.010760 885983.000000 0 0 1
12.575745 -22.196068 -32.165631 41.054142 -1.055316 2.471063 0.058445 -0.015581 -42589.400000 0 0 1
13.015845 -21.188668 -33.101641 41.401576 -1.019941 2.497302 0.051750 -0.009683 65316.300000 0 0 1
14.031445 -20.377468 -32.571581 40.902696 -0.967778 2.491981 0.062864 -0.018713 -144478.000000 0 0 1
14.401045 -19.131668 -33.422821 41.115639 -0.925548 2.519907 0.057487 -0.014939 -427191.000000 0 0 1
15.029945 -19.528768 33.597958 41.666471 -0.914849 0.632834 0.065695 -0.001883 370225.000000 0 0 1
14.929745 -18.527768 32.602267 40.361904 -0.892527 0.630473 0.053438 -0.000023 -146394.000000 0 0 1
15.917545 -17.347868 32.740623 40.326978 -0.828369 0.623433 0.062309 0.003577 -1067180.000000 0 0 1
15.728045 -16.472668 33.795057 40.753233 -0.808518 0.593013 0.052343 -0.003031 456766.000000 0 0 1
16.504945 -15.286668 33.635674 40.465466 -0.747096 0.589499 0.057101 -0.006412 95054.200000 0 0 1
18.027945 -15.275168 33.819208 41.256228 -0.702927 0.609847 0.066713 -0.005449 -520303.000000 0 0 1
18.762845 -16.011268 32.891890 41.113033 -0.706436 0.643442 0.068548 -0.002056 1355170.000000 0 0 1
20.203145 -15.833868 33.039143 41.838539 -0.664743 0.660506 0.068788 -0.006956 1099980.000000 0 0 1
20.972945 -16.514868 31.956242 41.639004 -0.667033 0.695928 0.070318 -0.007661 -840139.000000 0 0 1
21.145445 -15.877268 30.763972 40.566482 -0.644051 0.710004 0.067684 0.005920 348710.000000 0 0 1
21.846445 -16.600168 29.784522 40.496302 -0.649780 0.744410 0.063850 0.002175 -201363.000000 0 0 1
22.090645 -15.744168 28.535872 39.372216 -0.619204 0.760093 0.053989 0.008116 454584.000000 0 0 1
23.127745 -14.763368 28.731852 39.728691 -0.568135 0.762370 0.028166 0.007928 749514.000000 0 0 1
23.066845 -13.919668 27.595192 38.565932 -0.542952 0.773410 0.031970 0.006002 72866.700000 0 0 1
23.721245 -12.603168 27.957422 38.770539 -0.488375 0.765408 0.031838 0.007588 -586910.000000 0 0 1
22.802045 -11.723168 28.450752 38.298971 -0.474886 0.733465 0.036474 0.000934 -518605.000000 0 0 1
23.418645 -10.524368 28.827612 38.603451 -0.422356 0.727615 0.041314 -0.011354 -166219.000000 0 0 1
22.517645 -9.280568 28.682902 37.628209 -0.390933 0.703981 0.045025 -0.009670 193328.000000 0 0 1
21.486245 -9.238668 29.655802 37.768747 -0.406082 0.667787 0.051766 -0.014920 -165053.000000 0 0 1
20.691545 -8.090168 29.529132 36.953491 -0.372714 0.645018 0.054287 -0.017129 1125170.000000 0 0 1
19.425345 -8.018468 30.520072 37.055561 -0.391478 0.603014 0.041436 -0.007637 1029220.000000 0 0 1
19.681945 -7.692268 31.883362 38.250473 -0.372575 0.585309 0.047364 -0.018427 90512.200000 0 0 1
19.947945 -8.844768 32.691073 39.304665 -0.417346 0.588570 0.054466 -0.024788 -241974.000000 0 0 1
20.179145 -8.510068 -34.067331 40.499410 -0.399094 2.570260 0.048915 -0.037049 695830.000000 0 0 1
18.908345 -8.343168 -33.412191 39.287510 -0.415547 2.587643 0.034346 -0.038085 720834.000000 0 0 1
19.021145 -7.949068 -32.065921 38.121056 -0.395847 2.570222 0.027270 -0.045456 96688.700000 0 0 1
17.758545 -7.391568 -31.352891 36.783216 -0.394416 2.591296 0.023061 -0.038306 211173.000000 0 0 1
18.066545 -6.593068 -30.219721 35.820387 -0.349915 2.574834 0.013975 -0.035282 753084.000000 0 0 1
16.842945 -6.035168 -29.714341 34.685013 -0.344068 2.599617 0.020078 -0.028297 647909.000000 0 0 1
17.112245 -4.816968 -28.736261 33.790602 -0.274392 2.587583 0.013374 -0.018749 -237601.000000 0 0 1
17.889045 -5.111068 -27.592481 33.278911 -0.278295 2.548343 0.016320 -0.016680 -55641.100000 0 0 1
17.415245 -6.044268 -26.575061 32.342817 -0.334060 2.535128 0.022911 -0.027698 -63860.400000 0 0 1
16.034745 -5.771868 -25.912861 31.014575 -0.345520 2.559849 0.030558 -0.023383 293776.000000 0 0 1
15.887945 -4.679468 -25.033731 30.016860 -0.286430 2.557094 0.004533 -0.018310 -106859.000000 0 0 1
14.625645 -4.667068 -24.376801 28.808322 -0.308888 2.579557 0.058870 -0.020935 333465.000000 0 0 1
14.488745 -3.503368 -23.335001 27.689702 -0.237246 2.573135 0.063529 -0.020443 -71339.900000 0 0 1
14.402445 -2.218768 -23.916201 28.006035 -0.152853 2.594357 0.036618 -0.019850 159919.000000 0 0 1
13.817145 -1.301768 -23.038401 26.895650 -0.093937 2.599410 0.043073 -0.020106 -146271.000000 0 0 1
14.197445 0.156232 -23.366601 27.342090 0.011004 2.595580 0.029169 -0.018051 -417626.000000 0 0 1
13.496745 0.718232 -24.458401 27.944433 0.053165 2.636751 0.036565 -0.020316 385643.000000 0 0 1
14.192645 1.841232 -25.004601 28.810612 0.129011 2.621746 0.026537 -0.004359 -174687.000000 0 0 1
13.501145 2.344232 -26.284461 29.642018 0.171918 2.661019 0.028302 0.001545 166473.000000 0 0 1
12.364245 3.183232 -26.121441 29.074683 0.251982 2.686967 0.040736 -0.014418 424296.000000 0 0 1
11.838245 3.574232 -27.400811 30.061996 0.293220 2.717656 0.048609 -0.013338 -275565.000000 0 0 1
10.507745 4.330232 -27.338751 29.606940 0.390893 2.747616 0.055343 -0.018984 -318884.000000 0 0 1
10.618945 5.608232 -26.723541 29.297814 0.485901 2.719258 0.047376 -0.028932 88809.900000 0 0 1
9.402245 6.322232 -26.846441 29.139393 0.591973 2.742235 0.044097 -0.033678 192699.000000 0 0 1
8.350745 5.051276 -31.284401 32.771391 0.544007 2.839196 0.060419 -0.020390 -66270.100000 0 0 1
8.519545 4.130876 -30.176141 31.626670 0.451471 2.837556 0.047072 -0.006346 320836.000000 0 0 1
8.378745 2.798476 -30.629431 31.877843 0.322348 2.860806 0.042215 -0.000892 -111898.000000 0 0 1
8.133945 1.775476 -29.501241 30.653492 0.214909 2.866538 0.050555 -0.009280 235544.000000 0 0 1
9.289045 1.572176 -28.686191 30.193636 0.167662 2.824270 0.057789 -0.009250 668488.000000 0 0 1
9.029945 0.649176 -27.650971 29.095318 0.071768 2.825181 0.065855 -0.011074 -6741.820000 0 0 1
10.336045 0.197676 -26.959771 28.873901 0.019123 2.775428 0.067557 -0.025892 -258956.000000 0 0 1
11.138445 -0.617524 -27.775621 29.932113 -0.055384 2.759681 0.062160 -0.015559 -179376.000000 0 0 1
12.066945 -1.213524 -26.868391 29.478708 -0.100229 2.717593 0.059082 -0.018262 -61986.500000 0 0 1
12.682045 -2.443024 -27.568191 30.443518 -0.190305 2.703476 0.050759 -0.015995 -296551.000000 0 0 1
11.800945 -3.516624 -27.590361 30.213523 -0.289616 2.721814 0.067731 -0.018129 -374551.000000 0 0 1
12.370445 -4.659724 -28.161001 31.109209 -0.360244 2.702718 0.060680 -0.017347 -127781.000000 0 0 1
11.870045 -6.033024 -27.579211 30.625287 -0.470231 2.691800 0.068710 -0.015763 57838.800000 0 0 1
12.129745 -6.126424 -26.172631 29.490175 -0.467699 2.662695 0.082669 -0.017728 246453.000000 0 0 1
11.551245 -7.293724 -25.571091 28.991557 -0.563205 2.650925 0.096243 -0.019859 492584.000000 0 0 1
11.024345 -7.040724 -24.100801 27.421827 -0.568357 2.644329 0.090975 -0.018699 538632.000000 0 0 1
12.155045 -6.986124 -23.226701 27.129885 -0.521647 2.598529 0.054543 -0.013228 449229.000000 0 0 1
11.837045 -6.875124 -21.844001 25.778738 -0.526193 2.581800 0.062702 -0.017505 -199075.000000 0 0 1
13.072545 -6.762424 -20.941201 25.596010 -0.477391 2.528971 0.066456 -0.023541 90329.700000 0 0 1
13.570445 -5.452924 -20.781101 25.411523 -0.382077 2.528344 0.061312 -0.031472 182880.000000 0 0 1
14.599945 -5.431424 -19.792401 25.187256 -0.356153 2.474801 0.069144 -0.034052 153851.000000 0 0 1
15.127545 -4.071124 -19.289801 24.849811 -0.262891 2.459500 0.078026 -0.034028 -548883.000000 0 1 0
16.069345 -3.589724 -20.171501 26.038422 -0.219781 2.457009 0.077907 -0.030241 -172822.000000 0 0 1
16.556545 -2.303624 -19.739101 25.866155 -0.138249 2.438931 0.080189 -0.028123 -25246.000000 0 0 1
17.566345 -1.689624 -20.714501 27.212531 -0.095890 2.435976 0.045550 -0.018578 -109960.000000 0 0 1
18.825345 -2.308124 -20.764001 28.122318 -0.121998 2.401411 0.057588 -0.023343 -408905.000000 0 0 1
19.737745 -1.564324 -21.480801 29.213875 -0.079090 2.396897 0.051504 -0.019504 -327322.000000 0 0 1
21.081345 -2.298224 -21.734501 30.365992 -0.108588 2.368496 0.033253 -0.011105 -1356670.000000 0 0 1
21.904945 -2.234224 -20.620501 30.166594 -0.101645 2.323417 0.034269 -0.007013 -190984.000000 0 0 1
23.196845 -2.740524 -20.850601 31.310568 -0.117597 2.299534 0.040913 -0.010081 -36359.900000 0 0 1
24.157945 -1.967124 -21.768701 32.578401 -0.081248 2.302575 0.039028 -0.010177 -1356950.000000 0 0 1
23.890045 -2.192224 -23.151801 33.339856 -0.091507 2.338407 0.039924 -0.015145 374507.000000 0 0 1
24.724645 -1.434324 -24.045801 34.519066 -0.057947 2.341437 0.042592 -0.008431 915888.000000 0 0 1
26.034545 -2.165924 -24.532101 35.837309 -0.083003 2.324770 0.041465 -0.010247 159720.000000 0 0 1
26.996545 -2.223224 -23.473801 35.843765 -0.082167 2.284836 0.041242 -0.009118 79638.200000 0 0 1
28.237345 -2.786024 -23.802501 37.036045 -0.098346 2.268794 0.047307 -0.005390 560311.000000 0 0 1
29.216945 -1.910224 -24.688301 38.298708 -0.065288 2.271329 0.051414 -0.010323 -638538.000000 0 0 1
28.830345 -1.857724 -25.980381 38.853830 -0.064347 2.303215 0.059321 -0.008284 -178738.000000 0 0 1
29.347645 -0.781224 -26.642811 39.645100 -0.026613 2.307747 0.056110 -0.016294 -807844.000000 0 0 1
28.742445 -0.517824 -28.088961 40.191865 -0.018014 2.344615 0.053404 -0.020683 1276490.000000 0 0 1
27.376845 -0.042924 -28.210141 39.310374 -0.001568 2.371184 0.049414 -0.013679 1098900.000000 0 0 1
26.993845 1.115476 -27.548441 38.585341 0.041300 2.365936 0.042904 -0.008550 -164983.000000 0 0 1
25.496645 1.474476 -27.834341 37.775700 0.057766 2.399169 0.036175 -0.004203 231634.000000 0 0 1
24.662645 0.891976 -26.859481 36.475655 0.036151 2.398482 0.031162 -0.007058 -1206960.000000 0 0 1
23.395545 1.354976 -27.111451 35.835991 0.057851 2.428806 0.026944 -0.002412 -1606430.000000 0 0 1
22.376645 1.043176 -26.040461 34.349790 0.046585 2.431186 0.028666 -0.002699 -541577.000000 0 0 1
22.519745 1.865376 -24.899401 33.624377 0.082644 2.404635 0.029837 0.000251 134488.000000 0 0 1
21.459345 1.767576 -23.979801 32.228228 0.082183 2.409926 0.031581 -0.002107 -313485.000000 0 0 1
21.703145 2.412576 -22.652401 31.463920 0.110708 2.374524 0.026434 0.003427 -332993.000000 0 0 1
21.439345 3.825976 -22.536001 31.339351 0.176597 2.373297 0.032366 0.004402 373534.000000 0 0 1
21.740345 4.267576 -21.231401 30.685944 0.193833 2.334904 0.033037 -0.000975 -182529.000000 0 0 1
21.293145 5.682776 -20.773401 30.285742 0.260804 2.326655 0.042901 -0.000007 -300848.000000 0 0 1
22.042345 6.691576 -21.396001 31.439323 0.294736 2.319308 0.037807 -0.000612 172030.000000 0 0 1
21.808645 7.997976 -20.914901 31.257282 0.351504 2.303822 0.040124 0.001919 -409109.000000 0 0 1
22.266245 8.367276 -19.494601 30.754454 0.359457 2.257355 0.052616 -0.009989 844915.000000 0 0 1
23.692145 8.251276 -19.225701 31.607418 0.335133 2.224670 0.044339 -0.009611 1673840.000000 0 0 1
24.133445 8.476376 -17.874001 31.205000 0.337770 2.180705 0.070064 -0.030706 -27087.500000 0 0 1
23.919045 9.857176 -17.272301 31.106543 0.390899 2.159475 0.080230 -0.044474 796316.000000 0 0 1
22.553145 10.193976 -16.912401 29.976504 0.424514 2.170246 0.074477 -0.048095 1258990.000000 0 0 1
22.463845 11.632176 -16.845801 30.392645 0.477800 2.158285 0.073009 -0.041216 687686.000000 0 0 1
20.932745 12.010276 -16.774101 29.390424 0.520898 2.178195 0.067137 -0.043850 870456.000000 0 0 1
20.168845 11.894976 -17.936101 29.495364 0.532863 2.224460 0.069701 -0.042937 -128901.000000 0 0 1
19.565345 10.650776 -18.008401 28.645144 0.498510 2.250641 0.067752 -0.045720 -414865.000000 0 0 1
18.539745 10.456976 -19.174501 28.648420 0.513551 2.304068 0.071139 -0.025528 -22318.100000 0 0 1
19.148745 10.539376 -20.441501 29.926708 0.503147 2.322730 0.073953 -0.024387 313080.000000 0 0 1
18.394245 10.022876 -21.559401 30.060174 0.498913 2.370584 0.064841 -0.023830 -282846.000000 0 0 1
19.258045 10.046676 -22.821001 31.505652 0.480846 2.380882 0.082923 -0.029795 -151314.000000 0 0 1
19.467845 11.319876 -23.402601 32.477967 0.526680 2.375418 0.079105 -0.033823 314576.000000 0 0 1
20.308145 11.479176 -24.547101 33.863733 0.514476 2.381655 0.077129 -0.033538 216004.000000 0 0 1
20.418545 12.958476 -24.809501 34.646074 0.565503 2.368972 0.086567 -0.032011 -231928.000000 0 0 1
21.239545 13.327876 -25.872041 36.029336 0.560397 2.371840 0.080822 -0.025958 -168138.000000 0 0 1
21.142245 14.748276 -26.230261 36.776797 0.609096 2.364890 0.096651 -0.022768 -126153.000000 0 0 1
19.927245 15.189876 -27.066611 36.883992 0.651306 2.394740 0.085307 -0.026784 481833.000000 0 0 1
18.688745 15.031076 -26.373261 35.647599 0.677348 2.403618 0.072467 -0.020697 160249.000000 0 0 1
17.599845 15.445076 -27.180511 35.875968 0.720283 2.430462 0.071374 -0.024026 -140007.000000 0 0 1
16.244745 15.140076 -26.544101 34.607845 0.750215 2.444944 0.079466 -0.022399 -251073.000000 0 0 1
15.907045 13.735876 -26.563681 33.872371 0.712285 2.472248 0.067995 -0.020882 -48018.500000 0 0 1
14.605045 13.451676 -26.116651 32.807536 0.744313 2.491548 0.049340 -0.017126 -202569.000000 0 0 1
14.407945 11.949376 -25.831981 31.900905 0.692389 2.514534 0.045411 -0.017279 -82713.000000 0 0 1
13.074645 11.517376 -25.677431 31.031061 0.722158 2.545392 0.041016 -0.014188 -35315.200000 0 0 1
12.992745 10.107676 -25.565751 30.406976 0.661149 2.569529 0.057062 -0.020363 176053.000000 0 0 1
11.492345 9.725076 -25.535571 29.643152 0.702297 2.608880 0.038496 -0.029056 130501.000000 0 0 1
10.870445 9.993576 -24.279601 28.417198 0.743395 2.595188 0.040669 -0.029898 238537.000000 0 0 1
9.619545 9.307576 -24.204801 27.659339 0.768917 2.636447 0.041950 -0.036589 -28716.200000 0 0 1
8.813245 9.865376 -23.054501 26.580236 0.841667 2.620659 0.031646 -0.033050 -639673.000000 0 0 1
8.157445 11.063676 -23.427901 27.162757 0.935461 2.610987 0.031341 -0.029989 -107318.000000 0 0 1
7.465045 11.698176 -22.379501 26.332799 1.002806 2.586538 0.037143 -0.015733 49728.000000 0 0 1
8.335545 12.511076 -21.396901 26.150253 0.983080 2.529120 0.044662 -0.020183 55537.100000 0 0 1
9.324745 11.769776 -20.710801 25.581552 0.900792 2.514265 0.047830 -0.026711 -598564.000000 0 0 1
10.088545 12.629776 -19.899301 25.637320 0.896793 2.459389 0.057269 -0.025901 -629093.000000 0 0 1
11.132245 11.811176 -19.130301 25.087829 0.814981 2.438016 0.068375 -0.028003 -150734.000000 0 0 1
12.161645 11.229376 -19.934001 25.910787 0.745563 2.448591 0.086549 -0.027227 331696.000000 0 0 1
11.762145 10.141376 -20.717201 25.892045 0.711537 2.498321 0.074748 -0.036915 -984939.000000 0 0 1
12.959545 9.573376 -21.492401 26.861173 0.636238 2.498306 0.075941 -0.032418 69004.600000 0 0 1
13.914445 8.953176 -20.650501 26.461563 0.571753 2.466095 0.096184 -0.043713 -312511.000000 0 0 1
15.020945 8.571476 -21.411501 27.523651 0.518548 2.462163 0.093470 -0.040460 -562175.000000 0 0 1
15.711745 7.352276 -20.756901 27.051134 0.437679 2.445449 0.114145 -0.039675 -58997.300000 0 0 1
16.440745 7.541276 -19.562801 26.643425 0.430061 2.395350 0.093860 -0.033283 481795.000000 0 0 1
17.087345 6.302176 -19.169501 26.441720 0.353343 2.381790 0.071006 -0.030600 351653.000000 0 0 1
17.881545 6.423076 -17.857501 26.074813 0.344848 2.325203 0.089217 -0.029262 -951258.000000 0 0 1
18.963845 7.298376 -17.830101 27.033428 0.367385 2.291026 0.056102 -0.033273 147930.000000 0 0 1
19.672345 7.394476 -16.579001 26.768315 0.359544 2.238713 0.065303 -0.051579 618108.000000 0 0 1
20.372145 6.089976 -16.052801 26.642157 0.290481 2.217469 0.067330 -0.050789 410338.000000 0 0 1
21.579045 5.648076 -16.742401 27.890212 0.255996 2.214668 0.054242 -0.045998 1127520.000000 0 0 1
22.212945 4.708676 -15.947701 27.747355 0.208887 2.183091 0.072823 -0.052200 -199401.000000 0 0 1
23.474145 4.110376 -16.597701 29.041597 0.173345 2.179147 0.046573 -0.009682 -25457.700000 0 0 1
24.305845 3.332876 -15.760701 29.159593 0.136273 2.141825 0.047852 -0.016818 522285.000000 0 0 1
25.423745 2.887276 -16.539901 30.467548 0.113082 2.144646 0.050558 -0.027853 528317.000000 0 0 1
26.375345 1.898976 -15.821201 30.815180 0.071874 2.109964 0.067272 -0.038608 14744.800000 0 0 1
25.795845 0.586976 -15.658501 30.182094 0.022751 2.116244 0.071732 -0.029815 -326073.000000 0 0 1
26.767445 -0.390924 -15.561601 30.964695 -0.014603 2.097353 0.059942 -0.023892 -744665.000000 0 0 1
26.250745 -1.840324 -15.785901 30.686855 -0.069991 2.111126 0.041099 -0.023080 -439000.000000 0 0 1
25.714445 -2.417024 -14.598301 29.667913 -0.093719 2.085247 0.052838 -0.025760 402109.000000 0 0 1
25.501845 -3.801624 -14.781901 29.720381 -0.147983 2.091356 0.045614 -0.018125 -1057550.000000 0 0 1
24.856545 -4.567824 -13.608901 28.703920 -0.181740 2.064753 0.056692 -0.023472 -12211.500000 0 0 1
23.485645 -4.330524 -13.402601 27.385373 -0.182342 2.082206 0.079225 -0.020052 202579.000000 0 0 1
22.650845 -5.041224 -14.292001 27.253183 -0.218993 2.122825 0.095590 -0.018447 -495078.000000 0 0 1
21.169145 -5.189124 -13.865601 25.832433 -0.240387 2.137379 0.109343 -0.021113 -25462.600000 0 0 1
20.974745 -6.271224 -12.965201 25.443361 -0.290529 2.105483 0.116315 -0.017870 524125.000000 0 0 1
21.043745 -5.844424 -11.616601 24.737459 -0.270900 2.059629 0.132457 -0.019779 -456446.000000 0 1 0
20.718045 -6.981724 -10.578601 24.287623 -0.325036 2.021451 0.126373 -0.019752 1200800.000000 0 1 0
19.335845 -7.457424 -10.611301 23.282778 -0.368100 2.044019 0.110777 -0.014736 2044070.000000 0 1 0
19.227545 -8.585924 -11.506001 23.995929 -0.419975 2.070879 0.108599 -0.017304 831514.000000 0 1 0
17.800745 -9.314324 -11.566401 23.181992 -0.482078 2.093170 0.113527 -0.017577 557015.000000 0 1 0
16.847645 -8.408024 -11.957701 22.305260 -0.462897 2.136599 0.100642 -0.011490 -193824.000000 0 1 0
15.558445 -8.990724 -12.131701 21.681247 -0.523987 2.164637 0.085148 -0.012659 537869.000000 0 1 0
14.408245 -7.996024 -12.395101 20.619710 -0.506645 2.215709 0.062624 -0.010430 -256774.000000 0 1 0
14.410045 -7.201424 -13.571501 21.064082 -0.463448 2.270899 0.067987 -0.015987 742228.000000 0 1 0
15.417845 -6.167824 -13.585101 21.454765 -0.380545 2.256474 0.073525 -0.018833 274959.000000 0 1 0
15.243845 -5.122424 -14.735101 21.811401 -0.324178 2.312532 0.066798 -0.018256 -255818.000000 0 1 0
14.172145 -4.238624 -14.493001 20.709000 -0.290614 2.345971 0.068965 -0.018975 25134.700000 0 1 0
14.051145 -3.183524 -15.446401 21.122519 -0.222805 2.390988 0.068951 -0.022037 87704.200000 0 1 0
15.224845 -2.169624 -15.477001 21.818358 -0.141552 2.359382 0.080440 -0.029760 -329874.000000 0 1 0
16.302245 -2.540424 -16.319501 23.206530 -0.154589 2.350725 0.081443 -0.027652 766903.000000 0 1 0
17.449745 -1.688524 -16.224301 23.886663 -0.096465 2.317496 0.084508 -0.021569 492064.000000 0 1 0
18.423045 -2.007924 -15.068601 23.885206 -0.108561 2.253478 0.083162 -0.025056 -907343.000000 0 1 0
17.890245 -1.917024 -13.775301 22.660423 -0.106747 2.224211 0.080652 -0.019351 237222.000000 0 1 0
18.871645 -2.384124 -12.863801 22.963022 -0.125668 2.165419 0.077765 -0.016819 96594.000000 0 1 0
18.425245 -2.411024 -11.379701 21.789912 -0.130115 2.120279 0.078541 -0.013064 -243543.000000 0 1 0
18.252045 -1.175824 -10.729201 21.204609 -0.064333 2.101319 0.074099 -0.011171 563217.000000 0 1 0
17.868345 -1.517724 -9.437401 20.264396 -0.084736 2.055237 0.075240 -0.007790 -780212.000000 0 1 0
17.923745 -0.392624 -8.359901 19.781373 -0.021902 2.007125 0.071711 -0.005714 -157909.000000 0 1 0
19.200445 0.056076 -7.937801 20.776643 0.002921 1.962814 0.082108 -0.005016 1183330.000000 0 1 0
20.015445 0.805276 -8.896301 21.918272 0.040211 1.988743 0.075039 0.000744 165303.000000 0 1 0
19.413745 2.140276 -9.443601 21.694605 0.109802 2.021165 0.055370 -0.010120 -460667.000000 0 1 0
19.394645 3.212876 -8.524301 21.427518 0.164167 1.979936 0.054969 -0.007826 343051.000000 0 1 0
18.703945 4.235476 -9.149501 21.248298 0.222693 2.015953 0.046471 -0.022211 -591400.000000 0 1 0
19.066045 5.656576 -8.739301 21.722944 0.288411 1.984832 0.086332 -0.004379 -443831.000000 0 1 0
18.414545 6.615676 -9.559901 21.777381 0.344904 2.025263 0.083106 -0.009075 487408.000000 0 1 0
18.367545 7.911676 -9.038401 21.946617 0.406724 1.995264 0.067885 -0.010999 -220553.000000 0 1 0
-26.301685 -28.964304 5.757299 39.545620 0.833539 1.424691 0.071095 -0.000067 81808.500000 0 0 1
-26.586065 -27.864794 6.700299 39.091682 0.808878 1.398546 0.069080 -0.003631 375051.000000 0 0 1
-25.416055 -27.053144 6.816499 37.740073 0.816589 1.389183 0.075539 -0.006174 56153.500000 0 0 1
-25.705905 -25.830444 7.716299 37.249787 0.787815 1.362135 0.072502 -0.011342 -595808.000000 0 0 1
-26.660765 -24.914024 7.228499 37.198873 0.751543 1.375232 0.063055 -0.013659 1663580.000000 0 0 1
-28.058945 -25.314194 7.439399 38.515678 0.734018 1.376422 0.059979 -0.013451 1594240.000000 0 0 1
-28.567605 -25.345354 8.962999 39.227929 0.725702 1.340275 0.048573 -0.005290 -574110.000000 0 0 1
-27.901565 -26.261084 9.832999 39.557929 0.755119 1.319590 0.042165 -0.006371 -205808.000000 0 0 1
-28.498915 -26.462264 11.067299 40.434202 0.748359 1.293547 0.046589 -0.013382 2631.250000 0 0 1
-27.535355 -27.355264 11.955599 40.613330 0.782117 1.271994 0.038217 -0.006997 449960.000000 0 0 1
-26.356765 -26.714704 12.343499 39.505904 0.792143 1.253028 0.044089 -0.005700 -551410.000000 0 0 1
-26.523385 -25.777084 13.431599 39.349153 0.771130 1.222450 0.040503 -0.007359 -430808.000000 0 0 1
-25.242055 -25.328434 14.185399 38.469682 0.787106 1.193141 0.068488 -0.016012 111179.000000 0 0 1
-24.601855 -26.355774 14.912599 39.016198 0.819804 1.178604 0.083643 -0.019448 -510147.000000 0 0 1
-23.368855 -25.889954 15.381099 38.117861 0.836534 1.155442 0.094718 -0.025378 -292238.000000 0 0 1
-22.527955 -27.036304 15.983899 38.651721 0.876108 1.144461 0.092091 -0.030510 -309955.000000 0 0 1
-23.145255 -27.626324 17.088699 39.886592 0.873429 1.128039 0.082360 -0.028250 38867.300000 0 0 1
-22.390055 -28.727224 17.595499 40.449593 0.908742 1.120760 0.092035 -0.016253 -94016.600000 0 0 1
-23.173755 -29.732374 18.420599 41.956590 0.908736 1.116267 0.093827 -0.022338 14792.400000 0 0 1
-24.200855 -30.453144 17.765899 42.763332 0.899301 1.142362 0.063001 -0.013018 355637.000000 0 0 1
-24.790455 -31.510684 18.484299 44.149283 0.904198 1.138808 0.067395 -0.010429 -98844.200000 0 0 1
-25.733175 -32.327824 17.598799 44.911048 0.898495 1.168145 0.053055 -0.011087 -247642.000000 0 0 1
-25.010155 -33.166974 16.779999 44.800942 0.924697 1.186890 0.049874 -0.009856 220568.000000 0 0 1
-25.883315 -34.126309 16.202599 45.793833 0.921905 1.209148 0.039614 -0.006110 -272163.000000 0 0 1
-25.366995 33.575191 14.860699 44.627551 -0.923767 1.231319 0.041396 -0.013736 656745.000000 0 0 1
-24.220955 32.714856 14.833399 43.323738 -0.933490 1.221342 0.031649 -0.011800 796539.000000 0 0 1
-22.971555 33.397207 14.880999 43.179972 -0.968286 1.218955 0.051913 -0.018755 264456.000000 0 0 1
-21.772255 32.404116 14.901999 41.786690 -0.979181 1.206148 0.077181 -0.031892 236218.000000 0 0 1
-21.687155 31.578060 13.756299 40.703100 -0.968999 1.226041 0.065144 -0.018352 -224191.000000 0 0 1
-20.564455 30.742750 13.848299 39.494163 -0.981235 1.212540 0.064898 -0.021547 -179789.000000 0 0 1
-20.450355 29.974370 12.478599 38.371804 -0.972075 1.239571 0.055519 -0.018023 157871.000000 0 0 1
-20.042155 30.820930 11.420499 38.497345 -0.994226 1.269606 0.041924 -0.010656 -42755.100000 0 0 1
-20.367755 30.208200 10.188699 37.831077 -0.977565 1.298109 0.049935 -0.009114 11306.000000 0 0 1
-19.827255 30.974040 8.978499 37.856633 -1.001395 1.331344 0.039634 -0.004749 -429115.000000 0 0 1
-18.432555 30.878240 8.895699 37.045354 -1.032628 1.328297 0.036520 -0.012413 -705851.000000 0 0 1
-17.888755 31.549820 7.774499 37.092338 -1.054995 1.359632 0.057697 -0.018949 -19657.400000 0 0 1
-17.432155 30.611190 6.596399 35.839050 -1.053128 1.385685 0.053044 -0.017329 -389416.000000 0 0 1
-18.367155 29.725250 6.034999 35.459331 -1.017321 1.399769 0.031502 -0.011311 -262090.000000 0 0 1
-18.389455 28.503710 6.845199 34.604773 -0.997831 1.371672 0.012262 -0.003201 -84112.500000 0 0 1
-19.393555 27.496370 6.257399 34.224486 -0.956513 1.386928 0.006047 0.001402 -375030.000000 0 0 1
-18.942255 26.876760 5.102799 33.274733 -0.956868 1.416835 0.013195 -0.009601 200787.000000 0 0 1
-19.900255 25.941590 4.654599 33.025014 -0.916430 1.429384 0.024950 -0.011791 -720122.000000 0 0 1
-19.370555 25.062520 3.514199 31.870016 -0.912806 1.460305 0.039985 -0.019639 -1116480.000000 0 0 1
-19.111655 25.693210 2.245799 32.100468 -0.931249 1.500778 0.043045 -0.021407 1169150.000000 0 0 1
-17.938855 26.542610 2.125499 32.106548 -0.976462 1.504546 0.037821 -0.019227 320238.000000 0 0 1
-16.553255 25.917930 2.389799 30.845754 -1.002420 1.493243 0.037951 -0.018217 -711486.000000 0 0 1
-16.242555 24.836770 1.529199 29.715723 -0.991634 1.519313 0.055796 -0.025386 27925.800000 0 0 1
-15.924155 25.170130 0.182099 29.785019 -1.006707 1.564683 0.065080 -0.025523 -245129.000000 0 0 1
-15.666155 23.906640 -0.693601 28.590855 -0.990700 1.595058 0.062018 -0.025614 3616.540000 0 0 1
-16.814955 23.079720 -0.767301 28.565801 -0.941159 1.597660 0.071476 -0.033577 151951.000000 0 0 1
-16.752355 22.043120 -1.732801 27.740641 -0.920938 1.633301 0.065462 -0.029240 -410287.000000 0 0 1
-15.819555 20.868120 -1.474801 26.228073 -0.922149 1.627056 0.070990 -0.032989 -238074.000000 0 0 1
-16.198155 19.973120 -0.427701 25.719423 -0.889385 1.587427 0.077490 -0.039462 -209736.000000 0 0 1
-15.168155 19.087720 -0.073401 24.380718 -0.899323 1.573807 0.085029 -0.033352 -361397.000000 0 1 0
-15.537055 17.993520 1.005799 23.794506 -0.858528 1.528514 0.055822 -0.025236 243230.000000 0 1 0
-16.315055 16.995520 0.363099 23.561846 -0.805823 1.555385 0.050216 -0.023232 484811.000000 0 1 0
-16.942455 16.101020 1.274599 23.407568 -0.759939 1.516317 0.061176 -0.033284 19329.300000 0 1 0
-17.573755 14.816320 0.764799 22.998808 -0.700471 1.537536 0.067229 -0.034062 -259554.000000 0 1 0
-18.659055 15.030120 -0.112501 23.959915 -0.678094 1.575492 0.095731 -0.042877 355930.000000 0 1 0
-19.155455 13.928020 -0.833401 23.698434 -0.628686 1.605971 0.070056 -0.033438 656766.000000 0 1 0
-20.429155 14.165620 -1.752701 24.921620 -0.606284 1.641183 0.074877 -0.027972 421926.000000 0 1 0
-21.167855 13.002420 -2.163501 24.936355 -0.550834 1.657666 0.069993 -0.033490 1306800.000000 0 1 0
-22.183155 12.551720 -1.247001 25.518485 -0.514910 1.619682 0.093083 -0.036424 285780.000000 0 0 1
-23.433255 13.419520 -0.921901 27.019454 -0.520081 1.604923 0.105463 -0.034518 -484692.000000 0 0 1
-23.169355 14.650720 -0.272701 27.414175 -0.563854 1.580744 0.102773 -0.035804 249938.000000 0 0 1
-24.355555 15.269820 0.208899 28.747246 -0.560003 1.563530 0.081377 -0.027246 -67830.000000 0 0 1
-24.167755 16.663920 0.836799 29.367786 -0.603651 1.542299 0.072722 -0.028196 -315173.000000 0 0 1
-23.704655 16.458520 2.110299 28.935220 -0.606901 1.497800 0.080781 -0.031735 -54509.000000 0 0 1
-23.454855 17.640420 2.798199 29.481258 -0.644844 1.475739 0.071113 -0.036886 129110.000000 0 0 1
-24.709555 18.487420 3.161799 31.021667 -0.642341 1.468697 0.072418 -0.036868 -112686.000000 0 0 1
-25.584465 17.803020 4.074799 31.434319 -0.607937 1.440802 0.075317 -0.036760 762547.000000 0 0 1
-26.812665 18.538920 4.260499 32.874952 -0.604947 1.440834 0.070112 -0.038282 388301.000000 0 0 1
-27.888735 18.086520 3.272599 33.400804 -0.575337 1.472659 0.089020 -0.030813 -1583900.000000 0 0 1
-28.996765 18.917220 3.353799 34.783927 -0.578054 1.474228 0.088364 -0.025526 -447125.000000 0 0 1
-29.777675 18.772520 2.166699 35.267720 -0.562489 1.509322 0.090941 -0.018365 129790.000000 0 0 1
-31.095415 19.574420 2.127999 36.805043 -0.561825 1.512946 0.094706 -0.025626 288909.000000 0 0 1
-32.164145 19.129420 2.951999 37.539063 -0.536546 1.492077 0.118261 -0.020781 169054.000000 0 0 1
-33.321695 19.903520 2.732399 38.909530 -0.538442 1.500514 0.110311 -0.017330 214065.000000 0 0 1
-33.950765 20.391620 4.076299 39.813175 -0.540878 1.468231 0.091033 -0.019451 -147122.000000 0 0 1
-33.051265 21.301020 4.695799 39.600128 -0.572488 1.451936 0.089908 -0.025519 230267.000000 0 0 1
-33.514755 22.031320 5.773499 40.520997 -0.581533 1.427828 0.075934 -0.028371 -624379.000000 0 0 1
-32.482265 23.058820 6.236699 40.320010 -0.617332 1.415493 0.094202 -0.037105 -206739.000000 0 0 1
-32.378375 24.249250 5.475699 40.821179 -0.642818 1.436252 0.088161 -0.029369 -39276.200000 0 0 1
-31.497015 25.120240 6.105799 40.747629 -0.673241 1.420386 0.073014 -0.029472 -405646.000000 0 0 1
-31.866725 26.596770 5.863999 41.919719 -0.695500 1.430450 0.073146 -0.021487 -457807.000000 0 0 1
-32.916705 27.024700 6.703099 43.113518 -0.687417 1.414687 0.090146 -0.016152 80158.800000 0 0 1
-33.017405 28.462570 6.728699 44.108303 -0.711447 1.417649 0.073717 -0.007522 -437198.000000 0 0 1
-34.180384 28.881260 7.609699 45.390896 -0.701564 1.402353 0.067102 -0.005222 -740970.000000 0 0 1
-33.715545 28.934810 8.942599 45.320319 -0.709238 1.372173 0.073058 -0.018957 394036.000000 0 0 1
-34.559171 29.543570 9.919599 46.535549 -0.707314 1.355986 0.076263 -0.011630 -341611.000000 0 0 1
-35.822645 28.829490 10.374599 47.138453 -0.677651 1.348892 0.065942 -0.010433 -511823.000000 0 0 1
-35.477907 27.570940 10.988199 46.255585 -0.660639 1.330949 0.074321 -0.014456 46799.200000 0 0 1
-36.533865 26.871430 11.631399 46.819724 -0.634170 1.319738 0.080976 -0.016021 -285488.000000 0 0 1
-36.097485 25.544820 12.309299 45.902997 -0.615850 1.299315 0.113446 -0.016373 -268332.000000 0 0 1
-35.176989 25.825050 13.325199 45.628004 -0.633277 1.274437 0.136359 -0.030161 -126223.000000 0 0 1
-34.550291 24.702060 13.952399 44.705524 -0.620696 1.253398 0.147805 -0.029161 899233.000000 0 0 1
-33.216055 25.090300 14.692699 44.144138 -0.646927 1.231488 0.136052 -0.040073 659704.000000 0 0 1
-33.499105 26.015970 15.730599 45.237954 -0.660319 1.215647 0.122420 -0.039095 -476562.000000 0 0 1
-32.338785 26.436380 16.366699 44.861432 -0.685310 1.197348 0.142771 -0.029320 -509218.000000 0 0 1
-32.578845 27.599960 17.357599 46.091488 -0.702851 1.184684 0.131057 -0.029120 -248290.000000 0 0 1
-32.752145 28.803860 16.636499 46.681244 -0.721345 1.206400 0.138258 -0.022563 58808.800000 0 0 1
-32.995075 29.864290 17.522499 47.828745 -0.735633 1.195703 0.115808 -0.018627 -67086.200000 0 0 1
-32.793695 31.217860 16.792699 48.290537 -0.760785 1.215633 0.099797 -0.011325 789421.000000 0 0 1
-31.409275 31.295180 16.427799 47.284284 -0.783579 1.215971 0.079451 -0.006864 454159.000000 0 0 1
-31.144905 32.508496 15.759499 47.698735 -0.806817 1.234073 0.060155 0.007105 -874700.000000 0 0 1
-29.668325 32.634065 15.472799 46.739697 -0.832965 1.233389 0.075643 -0.005522 -466641.000000 0 0 1
-29.039715 31.978630 14.341599 45.515045 -0.833525 1.250239 0.072429 -0.005420 259528.000000 0 0 1
-28.704845 30.574010 14.411799 44.344540 -0.816919 1.239789 0.075864 -0.004813 1738.620000 0 0 1
-29.809495 29.582200 13.965399 44.257711 -0.781571 1.249763 0.106302 -0.010237 202165.000000 0 0 1
-29.970815 29.619640 12.600699 43.981252 -0.779505 1.280223 0.113041 -0.022656 -668853.000000 0 0 1
-30.937315 28.687850 12.299299 43.947503 -0.747689 1.287144 0.111002 -0.026771 -394489.000000 0 0 1
-31.010405 28.410520 10.723899 43.402822 -0.741672 1.321132 0.106847 -0.020172 315250.000000 0 0 1
-29.884925 27.680290 10.233799 42.000451 -0.747119 1.324659 0.086504 -0.010453 213039.000000 0 0 1
-29.880095 27.769760 8.824999 41.735600 -0.748808 1.357738 0.083266 -0.012269 288764.000000 0 0 1
-28.650615 27.042780 8.220699 40.246113 -0.756537 1.365088 0.087260 -0.016677 275819.000000 0 0 1
-28.670565 27.206800 6.815899 40.108201 -0.759208 1.400030 0.073905 -0.023901 429963.000000 0 0 1
-27.523375 26.531840 6.262599 38.738803 -0.767057 1.408422 0.063561 -0.018872 524758.000000 0 0 1
-27.240775 26.927990 4.864599 38.611408 -0.779624 1.444472 0.055150 -0.017078 -287107.000000 0 0 1
-26.751185 28.247370 4.684699 39.185281 -0.812596 1.450957 0.048821 -0.020231 112165.000000 0 0 1
-26.495595 28.454970 3.351099 39.024759 -0.821040 1.484819 0.044661 -0.023641 -377189.000000 0 0 1
-25.530245 29.614590 3.063299 39.219908 -0.859329 1.492611 0.036479 -0.025149 -708680.000000 0 0 1
-24.205055 29.285130 3.286399 38.135338 -0.880086 1.484512 0.031587 -0.019976 -547380.000000 0 0 1
-23.193455 30.033480 2.606799 38.036058 -0.913205 1.502208 0.033965 -0.014233 783495.000000 0 0 1
-21.819455 29.674050 3.244799 36.975216 -0.936767 1.482927 0.029841 -0.025591 -314610.000000 0 0 1
-20.785255 30.363960 2.659099 36.892652 -0.970524 1.498657 0.034408 -0.027976 -426930.000000 0 0 1
-19.511855 30.010650 3.202599 35.938952 -0.994306 1.481566 0.050377 -0.034928 976136.000000 0 0 1
-18.230255 30.670090 2.638399 35.776498 -1.034506 1.496983 0.053182 -0.034388 333024.000000 0 0 1
-18.158555 32.038790 3.101799 36.957251 -1.055171 1.486768 0.058823 -0.034237 -253787.000000 0 0 1
-16.962055 32.661924 2.701399 36.902712 -1.091811 1.497528 0.071150 -0.026220 -305490.000000 0 0 1
-16.573055 33.879255 3.540899 37.881500 -1.115842 1.477187 0.075786 -0.032922 122861.000000 0 0 1
-17.507755 -33.292674 3.635599 37.790755 1.086664 1.474444 0.074953 -0.038128 370466.000000 0 0 1
-16.883555 -32.203134 4.314999 36.615782 1.087912 1.452677 0.084498 -0.025627 174314.000000 0 0 1
-17.852655 -31.094204 4.793799 36.173848 1.049603 1.437884 0.087328 -0.018957 -57360.300000 0 0 1
-18.358055 -30.280474 3.793699 35.613445 1.025781 1.464069 0.071097 -0.011833 190636.000000 0 0 1
-19.342655 -29.401374 4.292799 35.454298 0.988900 1.449419 0.081225 -0.010538 -357727.000000 0 0 1
-19.873555 -28.326634 3.292599 34.759137 0.959007 1.475928 0.049699 -0.016667 317671.000000 0 0 1
-18.973155 -27.221344 3.017499 33.317975 0.962090 1.480105 0.046047 -0.016517 157191.000000 0 0 1
-19.480255 -26.385544 2.030199 32.860295 0.934830 1.508974 0.027752 -0.007289 -271917.000000 0 0 1
-18.556755 -25.230394 1.665599 31.363995 0.936645 1.517666 0.052665 -0.009461 -656636.000000 0 0 1
-17.383955 -25.656604 1.065999 31.009669 0.975288 1.536413 0.076523 -0.009380 -1266820.000000 0 0 1
-16.509355 -24.565524 1.048799 29.616275 0.979073 1.535376 0.089215 -0.008970 -109187.000000 0 0 1
-15.138355 -24.787924 0.376399 29.047421 1.022535 1.557838 0.096531 -0.014304 -301113.000000 0 0 1
-15.020355 -24.956224 -1.027801 29.145850 1.029004 1.606068 0.082575 -0.011168 -66782.100000 0 0 1
-15.423155 -23.885324 -1.871701 28.493608 0.997438 1.636532 0.104891 -0.017658 -250280.000000 0 0 1
-15.560255 -24.240624 -3.369201 29.001395 1.000131 1.687233 0.058194 -0.021514 440948.000000 0 0 1
-14.283855 -24.433524 -3.974101 28.580047 1.041777 1.710300 0.084030 -0.022119 437852.000000 0 0 1
-14.412955 -24.275124 -5.369001 28.737451 1.034997 1.758730 0.059662 -0.015229 142624.000000 0 0 1
-13.153655 -24.721924 -6.134701 28.667520 1.081827 1.786459 0.080228 -0.022770 79966.500000 0 0 1
-13.005355 -26.127194 -6.037101 29.802955 1.108934 1.774775 0.053170 -0.024683 397625.000000 0 0 1
-11.886655 -26.527044 -6.851001 29.864910 1.149527 1.802257 0.068033 -0.022099 629948.000000 0 0 1
22.968845 12.238376 28.017782 38.240578 0.489562 0.748557 0.016284 0.000883 -781275.000000 0 0 1
23.787645 11.130776 28.176682 38.518458 0.437658 0.750261 0.015339 -0.006208 -26172.100000 0 0 1
23.460745 10.228176 29.242382 38.860507 0.411125 0.718952 0.031341 -0.013606 -404965.000000 0 0 1
23.654045 10.761676 30.691822 40.215860 0.426972 0.702581 0.043282 -0.011533 64003.100000 0 0 1
22.847545 11.884876 30.976142 40.283768 0.479662 0.693602 0.038848 -0.002407 254087.000000 0 0 1
23.072945 12.160276 32.364449 41.565498 0.485042 0.678305 0.040254 -0.004682 -269953.000000 0 0 1
22.139645 13.249376 32.913669 41.821280 0.539276 0.664853 0.039240 0.004853 124297.000000 0 0 1
20.855845 12.777776 33.296693 41.314738 0.549685 0.633555 0.058908 0.003022 635005.000000 0 0 1
20.084545 13.760476 34.014265 41.829533 0.600675 0.621229 0.056315 0.006439 194959.000000 0 0 1
18.854745 13.184176 -33.484981 40.627181 0.610222 2.539587 0.058276 0.012634 -144027.000000 0 0 1
17.803545 12.807176 33.876193 40.355748 0.623602 0.574546 0.052306 0.007447 -59122.500000 0 0 1
16.825745 12.059376 -33.689711 39.541508 0.621861 2.590607 0.040640 0.004329 -729508.000000 0 0 1
15.446545 12.034576 33.911878 39.159191 0.661873 0.523649 0.033026 0.008353 -436763.000000 0 0 1
15.276045 11.082976 32.870284 37.903106 0.627645 0.521207 0.036881 0.013085 -1512670.000000 0 0 1
13.952045 10.920676 32.587857 37.092980 0.664121 0.497989 0.038837 0.005445 -1356660.000000 0 0 1
13.770945 9.839576 31.558652 35.810678 0.620403 0.492267 0.044633 0.002859 -206427.000000 0 0 1
14.060045 8.514876 32.006282 35.980412 0.544533 0.474443 0.018824 -0.001756 334496.000000 0 0 1
14.666245 7.655076 30.987612 35.127354 0.481055 0.490387 0.015945 -0.019745 228950.000000 0 0 1
15.163945 6.311076 31.569362 35.586507 0.394385 0.479738 0.045590 -0.022785 14159.400000 0 0 1
14.180145 5.349676 31.859362 35.280511 0.360755 0.444025 0.042304 -0.017861 -288897.000000 0 0 1
14.796845 4.119176 31.983532 35.480425 0.271508 0.447708 0.034880 -0.022781 -371147.000000 0 0 1
13.780445 2.990576 32.050142 35.015079 0.213702 0.414485 0.020325 -0.013927 -294621.000000 0 0 1
14.334945 1.748676 32.477035 35.543020 0.121387 0.418404 0.020121 -0.016588 -254797.000000 0 0 1
13.373945 0.881376 33.026523 35.642537 0.065807 0.385517 0.026307 -0.016980 -409987.000000 0 0 1
13.971145 -0.443224 33.575923 36.369382 -0.031714 0.394492 0.015716 -0.018359 -53595.300000 0 0 1
14.197045 -1.442224 32.571252 35.560126 -0.101239 0.412931 0.008190 -0.015998 -55537.900000 0 0 1
14.811245 -2.574324 33.106069 36.359482 -0.172090 0.426254 0.033214 -0.021566 -255495.000000 0 0 1
15.147545 -3.727124 32.061622 35.655114 -0.241262 0.452824 0.037175 -0.021412 -1821960.000000 0 0 1
15.467745 -5.026324 32.580666 36.414487 -0.314191 0.462999 0.047816 -0.024527 461535.000000 0 0 1
16.673745 -5.314324 33.296365 37.615206 -0.308545 0.483908 0.038924 -0.027038 -454755.000000 0 0 1
17.918945 -4.870324 32.579072 37.499394 -0.265386 0.518044 0.041401 -0.028182 -2125660.000000 0 0 1
18.038845 -3.465924 32.487598 37.320993 -0.189823 0.514597 0.036902 -0.029402 -415478.000000 0 0 1
18.978045 -3.135224 31.497202 36.906226 -0.163724 0.548248 0.059189 -0.039334 -268109.000000 0 0 1
18.844945 -1.612424 31.198122 36.483622 -0.085355 0.545001 0.064575 -0.040369 -346674.000000 0 0 1
19.072045 -0.873924 32.408024 37.613650 -0.045790 0.532377 0.043199 -0.033446 158100.000000 0 0 1
19.189145 0.530176 32.315795 37.587431 0.027622 0.536016 0.031037 -0.026083 -426386.000000 0 0 1
20.337345 1.149276 31.519962 37.529141 0.056451 0.573735 0.064798 -0.033615 -761901.000000 0 0 1
20.422345 0.938476 30.109602 36.394244 0.045921 0.596481 0.069692 -0.033359 559412.000000 0 0 1
21.372045 1.929276 29.575322 36.540198 0.090027 0.627681 0.071213 -0.030687 584566.000000 0 0 1
20.961745 3.443176 29.430132 36.295769 0.162806 0.625207 0.078045 -0.027997 -542707.000000 0 0 1
20.670345 4.014276 30.693562 37.221933 0.191817 0.601285 0.077438 -0.033955 258094.000000 0 0 1
20.212445 5.348776 30.645242 37.098291 0.258698 0.598724 0.073387 -0.036666 -352809.000000 0 0 1
19.739245 5.765476 32.046662 38.077119 0.284177 0.570511 0.068249 -0.023457 -425076.000000 0 0 1
18.704045 5.032376 32.606733 37.925784 0.262829 0.536014 0.058278 -0.015134 -324089.000000 0 0 1
18.536945 5.510976 33.943590 39.066053 0.288975 0.517867 0.043785 -0.005733 128589.000000 0 0 1
17.445245 4.753076 -33.488321 38.057797 0.266000 2.646518 0.048176 -0.006701 -27438.400000 0 0 1
17.690845 3.390276 -33.474941 38.013572 0.189344 2.647934 0.032338 -0.006472 176967.000000 0 0 1
16.693145 2.654776 -32.773271 36.875415 0.157713 2.665422 0.022884 -0.002989 145335.000000 0 0 1
16.952745 1.166276 -32.962911 37.085162 0.068687 2.665612 0.015336 -0.009630 -134576.000000 0 0 1
17.949945 0.538776 -32.193291 36.863244 0.030006 2.632766 -0.005031 -0.013057 86676.000000 0 0 1
18.128045 -0.841924 -32.482451 37.208124 -0.046410 2.632103 0.010798 -0.012734 -50955.700000 0 0 1
18.931145 -1.577924 -31.378651 36.681028 -0.083158 2.597208 0.014732 -0.015044 187776.000000 0 0 1
18.232145 -1.659324 -30.105891 35.235339 -0.090761 2.595236 0.005456 -0.016338 739899.000000 0 0 1
18.334945 -0.448424 -29.341201 34.601696 -0.024452 2.582940 -0.001500 -0.000748 -110864.000000 0 0 1
18.310045 -0.665924 -27.823921 33.314738 -0.036353 2.559263 0.005680 -0.007761 279099.000000 0 0 1
17.003645 -0.992924 -27.360891 32.229306 -0.058329 2.584781 0.014647 -0.008794 288489.000000 0 0 1
16.877445 -1.147224 -25.912761 30.945685 -0.067869 2.563237 0.016909 -0.014442 -23946.000000 0 0 1
17.667745 -2.289124 -25.189331 30.852742 -0.128847 2.526010 0.028970 -0.015254 -845796.000000 0 0 1
19.042745 -2.056424 -25.141461 31.606140 -0.107573 2.490565 0.027934 -0.009495 -896248.000000 0 0 1
19.789245 -3.253024 -25.121201 32.144535 -0.162926 2.467875 0.036252 -0.014860 -68416.400000 0 0 1
20.411945 -3.500524 -26.469251 33.608368 -0.169842 2.477667 0.042076 -0.018059 -1080150.000000 0 0 1
21.458745 -2.608124 -26.701881 34.355065 -0.120948 2.461052 0.037354 -0.013075 -601965.000000 0 0 1
21.879645 -2.685424 -28.066391 35.688271 -0.122125 2.475807 0.040378 -0.018426 1013520.000000 0 0 1
23.346945 -2.105224 -28.230081 36.693995 -0.089928 2.448600 0.032262 -0.020908 1162580.000000 0 0 1
24.297345 -3.127024 -27.952601 37.168362 -0.127995 2.421969 0.040419 -0.027899 -120082.000000 0 0 1
25.613945 -2.674424 -28.183791 38.177910 -0.104036 2.401228 0.042361 -0.028267 442402.000000 0 0 1
26.752045 -3.662624 -27.753311 38.721221 -0.136064 2.369922 0.051098 -0.026811 185965.000000 0 0 1
26.812145 -4.868824 -28.541091 39.461252 -0.179633 2.379320 0.068215 -0.038804 698740.000000 0 0 1
27.974245 -5.678124 -28.300281 40.195838 -0.200256 2.351895 0.064470 -0.037488 435574.000000 0 0 1
27.879345 -6.580224 -27.066021 39.409729 -0.231783 2.327853 0.056956 -0.025636 -224320.000000 0 0 1
27.782845 -5.995524 -25.732511 38.340512 -0.212540 2.306565 0.044091 -0.011990 228948.000000 0 0 1
27.551945 -7.069924 -24.814501 37.747224 -0.251184 2.288141 0.030364 -0.010131 -106670.000000 0 0 1
27.636845 -6.751624 -23.296001 36.770685 -0.239605 2.256927 0.013257 0.001550 553637.000000 0 0 1
28.992145 -6.576124 -22.857301 37.499948 -0.223050 2.226263 0.014402 0.004387 918036.000000 0 0 1
29.041145 -5.804624 -21.669001 36.696421 -0.197276 2.202467 0.020132 -0.000624 210454.000000 0 0 1
30.521645 -5.365924 -21.472701 37.702000 -0.174029 2.176739 0.036884 0.001147 99600.700000 0 0 1
30.896045 -4.286124 -22.279301 38.331497 -0.137847 2.191032 0.044734 -0.005756 927255.000000 0 0 1
32.199245 -3.840124 -21.824901 39.087904 -0.118701 2.163197 0.056591 -0.005725 1086340.000000 0 0 1
32.708645 -2.533624 -22.445301 39.750047 -0.077306 2.170819 0.061808 -0.011447 205384.000000 0 0 1
31.912745 -1.468024 -21.953401 38.762484 -0.045969 2.172875 0.057542 -0.013805 486965.000000 0 0 1
32.354645 -0.207024 -22.432901 39.371321 -0.006398 2.177032 0.061721 -0.013129 28646.000000 0 0 1
31.238045 0.841876 -22.146401 38.301270 0.026944 2.187337 0.061587 -0.011083 -50407.800000 0 0 1
30.172645 0.707276 -23.056201 37.979957 0.023437 2.223155 0.043952 -0.007585 -108243.000000 0 0 1
29.155645 1.613176 -22.746301 37.014162 0.055273 2.232586 0.039581 -0.004919 181988.000000 0 0 1
28.017645 1.764176 -23.828401 36.822458 0.062884 2.274592 0.031223 -0.003186 975409.000000 0 0 1
26.955245 2.627476 -23.396201 35.789259 0.097169 2.283288 0.028868 0.000828 407328.000000 0 0 1
26.037445 2.863976 -24.422601 35.813605 0.109554 2.321203 0.030644 0.003859 95529.500000 0 0 1
24.897045 3.884376 -24.128501 34.887473 0.154770 2.334511 0.029994 0.006205 322684.000000 0 0 1
25.478945 5.146276 -23.921901 35.325885 0.199300 2.314717 0.034057 0.007426 211168.000000 0 0 1
24.445745 6.031776 -23.604101 34.512756 0.241909 2.323924 0.041716 -0.003794 -195867.000000 0 0 1
24.941345 7.411076 -23.170701 34.840725 0.288831 2.298352 0.051801 -0.005454 134444.000000 0 0 1
25.712445 8.178476 -24.100101 36.177785 0.307955 2.299841 0.053772 -0.002604 236217.000000 0 0 1
26.114145 9.355576 -23.470401 36.336415 0.344012 2.273024 0.065355 -0.011453 91211.500000 0 0 1
27.054245 10.307276 -24.289301 37.790769 0.364008 2.268854 0.095797 -0.009301 264383.000000 0 0 1
26.512445 10.760376 -25.529771 38.346638 0.385549 2.299312 0.096855 -0.014438 145066.000000 0 0 1
25.320145 11.513376 -25.487141 37.726144 0.426766 2.312551 0.099898 -0.014847 93979.100000 0 0 1
24.762645 11.880476 -26.889061 38.436388 0.447336 2.345596 0.089742 -0.013952 -282227.000000 0 0 1
24.257745 10.813276 -27.637151 38.329848 0.419327 2.376091 0.077597 -0.010918 355142.000000 0 0 1
25.183945 9.875076 -28.227221 39.096345 0.373693 2.377472 0.073685 -0.012759 292971.000000 0 0 1
25.879145 10.315676 -29.556711 40.617022 0.379307 2.385748 0.070726 -0.010912 297564.000000 0 0 1
26.813445 11.410076 -29.341041 41.352719 0.402324 2.359629 0.064652 -0.001041 1372200.000000 0 0 1
27.678645 11.818776 -30.418121 42.790804 0.403563 2.361512 0.053219 0.006755 465788.000000 0 0 1
28.809345 10.896776 -30.879661 43.615038 0.361606 2.357465 0.051045 -0.001910 -501832.000000 0 0 1
28.287945 9.802076 -31.615371 43.541017 0.333563 2.383437 0.047464 -0.007828 956598.000000 0 0 1
29.287545 8.769476 -31.783271 44.100344 0.290931 2.375613 0.044244 -0.008370 450609.000000 0 0 1
28.775245 7.676376 -32.733191 44.253850 0.260699 2.403374 0.056577 -0.003518 342683.000000 0 0 1
27.695445 6.886076 -32.222581 43.043588 0.243694 2.416750 0.071073 -0.004273 510690.000000 0 0 1
27.243345 6.120776 -33.359831 43.503357 0.221001 2.444689 0.083800 -0.006343 -404420.000000 0 0 1
26.140845 5.103776 -33.066511 42.459233 0.192816 2.463519 0.062886 -0.010020 624835.000000 0 0 1
24.787245 5.575676 -33.075901 41.707444 0.221259 2.486589 0.075870 -0.008988 783560.000000 0 0 1
24.177145 5.890476 -31.814211 40.390297 0.238982 2.477814 0.072099 0.001140 -44594.400000 0 0 1
22.677845 6.162776 -32.016981 39.715885 0.265345 2.508414 0.058515 -0.005009 -222487.000000 0 0 1
22.366745 7.341576 -32.696551 40.289384 0.317156 2.517584 0.066748 0.002580 767406.000000 0 0 1
20.995345 7.734376 -32.437781 39.406024 0.352959 2.537765 0.069230 -0.002301 1258650.000000 0 0 1
20.500545 9.034076 -33.202691 40.053783 0.415072 2.548029 0.064953 0.001157 -7870.390000 0 0 1
20.093545 8.821576 33.691718 40.208240 0.413690 0.577316 0.067761 -0.006552 -41300.800000 0 0 1
19.678645 9.927476 32.933601 39.628600 0.467225 0.589792 0.057639 -0.008201 148397.000000 0 0 1
18.621345 9.484576 31.864062 38.105513 0.471091 0.580468 0.039664 -0.006275 220532.000000 0 0 1
19.050745 8.579276 30.880972 37.284974 0.423135 0.594834 0.043310 -0.020791 -665630.000000 0 0 1
19.910345 9.042876 29.891902 37.036755 0.426324 0.631594 0.052584 -0.023021 -551658.000000 0 0 1
19.326545 10.032976 28.768062 36.080151 0.478834 0.647925 0.037960 -0.019469 -90592.500000 0 0 1
18.390945 9.316376 27.990482 34.763325 0.468893 0.634830 0.044925 -0.014673 -363572.000000 0 0 1
17.109945 9.850676 28.211622 34.433728 0.522381 0.610604 0.050655 -0.021368 -801746.000000 0 0 1
15.996045 9.068476 27.540752 33.115007 0.515741 0.588688 0.057627 -0.019543 -1008520.000000 0 0 1
16.044845 9.135876 26.101192 31.971448 0.517613 0.615663 0.061453 -0.013985 422706.000000 0 0 1
14.927545 8.625176 25.365112 30.669434 0.523938 0.596960 0.073055 -0.012592 342530.000000 0 0 1
14.769845 7.092576 25.315692 30.155218 0.447688 0.574410 0.064642 -0.010690 -127215.000000 0 0 1
14.739245 6.459076 26.542302 31.039632 0.413017 0.545033 0.049426 -0.019666 17762.800000 0 0 1
14.853145 5.073176 26.335752 30.658194 0.329132 0.537460 0.052062 -0.021374 -221802.000000 0 0 1
15.169145 4.223976 27.517182 31.703946 0.271579 0.519753 0.036199 -0.030308 -973040.000000 0 0 1
16.360845 4.639676 28.089702 32.836492 0.276329 0.544393 0.045199 -0.020961 -226322.000000 0 0 1
16.935545 3.934276 29.220592 34.001973 0.228260 0.536742 0.047034 -0.025483 -407913.000000 0 0 1
17.465745 2.483776 28.966342 33.915636 0.141261 0.547035 0.064063 -0.027369 -1146620.000000 0 0 1
16.589045 1.443876 28.619072 33.110911 0.086819 0.526961 0.055054 -0.033626 -140472.000000 0 0 1
15.892545 0.985376 29.765922 33.757281 0.061923 0.491209 0.039224 -0.026931 31468.600000 0 0 1
15.547845 -0.554524 29.832192 33.645247 -0.035651 0.480706 0.043969 -0.024112 -392404.000000 0 0 1
14.836145 -1.157524 28.769322 32.390198 -0.077863 0.477360 0.040410 -0.019697 93498.800000 0 0 1
15.347545 -1.219724 27.425402 31.451352 -0.079307 0.511534 0.053433 -0.021176 -1700950.000000 0 0 1
16.405545 -2.301624 27.203062 31.850368 -0.139386 0.546999 0.050512 -0.018637 640956.000000 0 0 1
17.699245 -2.094824 27.809682 33.030742 -0.117809 0.569940 0.056458 -0.026344 970433.000000 0 0 1
18.407445 -1.035924 27.163582 32.829367 -0.056218 0.596304 0.062992 -0.026183 -436488.000000 0 0 1
19.894645 -0.799124 27.607042 34.037982 -0.040146 0.624825 0.086033 -0.023375 437162.000000 0 0 1
20.801045 -1.529324 26.853172 34.001693 -0.073389 0.660379 0.073001 -0.021084 -710718.000000 0 0 1
22.120645 -1.301624 27.309902 35.168848 -0.058774 0.681646 0.071301 -0.022883 404302.000000 0 0 1
23.146245 -2.047824 26.399202 35.169022 -0.088243 0.721769 0.074431 -0.020668 -75612.500000 0 0 1
23.337545 -1.598524 25.070092 34.288566 -0.068389 0.750790 0.076671 -0.009448 913951.000000 0 0 1
22.367945 -2.147624 24.108962 32.957234 -0.095720 0.750244 0.083105 -0.001880 658433.000000 0 0 1
22.519045 -1.479724 22.711192 32.017108 -0.065616 0.782227 0.074109 -0.020377 12605.300000 0 0 1
21.766945 -0.280524 22.697892 31.449529 -0.012887 0.764506 0.069589 -0.014864 25375.500000 0 0 1
21.645845 0.242276 21.426392 30.458029 0.011192 0.790524 0.061648 -0.009018 3820.230000 0 0 1
-30.550225 -27.289068 -10.100201 42.190325 0.729075 1.812540 0.029601 0.001580 83381.400000 0 0 1
-30.798035 -26.101468 -9.383201 41.446955 0.703043 1.799167 0.039070 0.003265 -73744.700000 0 0 1
-31.224495 -26.474268 -8.062801 41.723671 0.703255 1.765263 0.061142 -0.004579 -522607.000000 0 0 1
-31.543105 -25.364768 -7.115401 41.097054 0.677254 1.744810 0.082996 -0.015104 -363124.000000 0 0 1
-30.497255 -24.511768 -6.733901 39.702075 0.677015 1.741231 0.067287 -0.014621 -781814.000000 0 0 1
-29.559165 -25.114968 -5.879401 39.231024 0.704291 1.721229 0.075469 -0.016825 -325135.000000 0 0 1
-28.343625 -24.240468 -5.567501 37.708864 0.707526 1.718982 0.060574 -0.013392 -851452.000000 0 0 1
-28.483765 -23.206668 -4.549401 37.021229 0.683660 1.693994 0.058738 -0.008651 211717.000000 0 0 1
-29.385005 -22.132668 -4.877901 37.109668 0.645543 1.702623 0.063623 -0.014811 319029.000000 0 0 1
-29.209605 -20.892868 -3.924401 36.126360 0.620904 1.679641 0.064841 -0.016252 -471773.000000 0 0 1
-28.073085 -20.120068 -4.118801 34.783326 0.621848 1.689488 0.063128 -0.021920 -409878.000000 0 0 1
-28.056305 -19.181868 -3.077601 34.125825 0.599697 1.661103 0.076506 -0.017800 242534.000000 0 0 1
-26.907945 -18.138368 -3.189601 32.606924 0.593124 1.668773 0.076120 -0.016570 330697.000000 0 0 1
-27.171955 -17.194868 -4.227001 32.432178 0.564201 1.701502 0.083305 -0.025406 -201692.000000 0 0 1
-26.309145 -16.113068 -4.110601 31.123932 0.549525 1.703255 0.089215 -0.023327 -162302.000000 0 0 1
-26.626685 -15.028768 -5.222701 31.018073 0.513851 1.739978 0.090273 -0.032764 -42316.000000 0 0 1
-27.840965 -14.364368 -4.993901 31.723705 0.476321 1.728872 0.078499 -0.025807 -37583.100000 0 0 1
-28.278785 -13.514368 -6.074101 31.925265 0.445810 1.762223 0.102690 -0.042724 946684.000000 0 0 1
-29.733135 -12.904468 -5.967101 32.957411 0.409477 1.752855 0.094726 -0.030908 961837.000000 0 0 1
-30.745635 -13.823668 -6.332201 34.299922 0.422533 1.756474 0.098703 -0.031691 -387603.000000 0 0 1
-31.968385 -13.157468 -6.442401 35.165340 0.390447 1.755040 0.095157 -0.027828 -603884.000000 0 0 1
-33.000235 -14.004068 -7.198101 36.564219 0.401331 1.768952 0.063654 -0.025459 -442421.000000 0 0 1
-33.403935 -15.156868 -6.506501 37.254370 0.425964 1.746347 0.057706 -0.029166 193676.000000 0 0 1
-33.861425 -16.142168 -7.471901 38.249118 0.444845 1.767409 0.064101 -0.019637 -211842.000000 0 0 1
-34.793867 -17.226668 -6.782201 39.412809 0.459725 1.743738 0.045944 -0.027736 417329.000000 0 0 1
-36.148095 -16.844568 -6.667601 40.433664 0.436069 1.736455 0.032331 -0.031914 60598.400000 0 0 1
-36.465855 -15.835768 -5.681201 40.159758 0.409690 1.712737 0.045213 -0.035984 -541471.000000 0 0 1
35.318565 -15.658468 -5.347801 39.002405 -0.417310 1.708344 0.073625 -0.037989 -894898.000000 0 0 1
34.618525 -14.958968 -6.343901 38.242098 -0.407876 1.737455 0.079402 -0.042004 1066450.000000 0 0 1
33.197455 -15.200068 -6.333701 37.057103 -0.429378 1.742557 0.085751 -0.039876 1450730.000000 0 0 1
32.285125 -14.646468 -5.186601 35.829445 -0.425893 1.716065 0.113027 -0.042047 -580962.000000 0 0 1
32.602945 -15.318168 -3.995001 36.243045 -0.439230 1.681249 0.098682 -0.040111 8851.910000 0 0 1
31.950725 -14.813768 -2.850701 35.333030 -0.434142 1.651565 0.116205 -0.037955 -1115050.000000 0 0 1
32.102295 -15.563868 -1.504701 35.707919 -0.451431 1.612948 0.117972 -0.032170 504789.000000 0 0 1
33.444365 -15.693868 -0.982301 36.956568 -0.438749 1.597379 0.129298 -0.028302 1403160.000000 0 0 1
34.364725 -16.461968 -1.798501 38.146629 -0.446737 1.617961 0.109873 -0.026033 -438002.000000 0 0 1
34.086155 -17.968968 -2.016401 38.585174 -0.485141 1.623079 0.110512 -0.034887 -828013.000000 0 0 1
34.686005 -18.726568 -0.970201 39.430249 -0.495047 1.595404 0.099366 -0.036249 364254.000000 0 0 1
34.456955 -20.100368 -1.287301 39.911949 -0.528085 1.603055 0.082776 -0.032237 -175524.000000 0 0 1
35.382405 -20.689368 -2.338301 41.054015 -0.529120 1.627784 0.089354 -0.033306 -465761.000000 0 0 1
35.176705 -20.219268 -3.615601 40.734407 -0.521678 1.659674 0.072425 -0.045933 97098.700000 0 0 1
36.208465 -20.630668 -4.504001 41.916147 -0.517898 1.678457 0.090903 -0.044404 -230140.000000 0 0 1
36.070575 -19.929368 -5.895701 41.629621 -0.504769 1.712897 0.103449 -0.046340 248524.000000 0 0 1
34.861265 -20.250168 -6.586501 40.850448 -0.526241 1.732738 0.092559 -0.047892 641393.000000 0 0 1
34.454725 -19.171868 -7.388601 40.115833 -0.507771 1.756036 0.092043 -0.053728 -459434.000000 0 0 1
33.283655 -19.475768 -8.303301 39.446825 -0.529425 1.782876 0.113811 -0.059609 -317663.000000 0 0 1
33.661975 -20.412468 -9.320901 40.455860 -0.545109 1.803282 0.119906 -0.053815 526892.000000 0 0 1
32.516125 -20.877968 -10.029101 39.922059 -0.570788 1.824734 0.122063 -0.059772 -52969.700000 0 0 1
32.599075 -22.309268 -10.658301 40.914576 -0.600147 1.834338 0.115737 -0.045794 -191002.000000 0 0 1
32.371185 -23.263268 -9.627201 41.009222 -0.623128 1.807765 0.108577 -0.043581 -80754.500000 0 0 1
32.172755 -24.537268 -10.219701 41.732553 -0.651562 1.818198 0.085098 -0.030546 -178564.000000 0 0 1
31.258445 -25.493468 -9.446601 41.427594 -0.684163 1.800847 0.066734 -0.026559 -20529.300000 0 0 1
29.917635 -25.060768 -9.377901 40.137912 -0.697286 1.806618 0.061507 -0.030491 -402550.000000 0 0 1
29.125165 -25.965668 -8.614301 39.958695 -0.728110 1.788082 0.036591 -0.013137 -606778.000000 0 0 1
27.810315 -25.232268 -8.448601 38.489737 -0.736833 1.792101 0.015949 -0.021639 -1160810.000000 0 0 1
27.095515 -25.076468 -9.637301 38.155914 -0.746718 1.826139 0.016954 -0.023296 -437753.000000 0 0 1
25.931915 -24.354268 -9.289701 36.768099 -0.754035 1.826221 0.035844 -0.027885 55123.800000 0 0 1
25.130915 -23.961368 -10.600301 36.305322 -0.761579 1.867089 0.082917 -0.039729 405359.000000 0 0 1
24.433815 -25.046168 -11.262801 36.758299 -0.797773 1.882207 0.081509 -0.034290 1119420.000000 0 0 1
23.399315 -24.647668 -12.181201 36.102869 -0.811374 1.914953 0.103348 -0.021386 960441.000000 0 0 1
22.587715 -25.849268 -12.780301 36.629573 -0.852633 1.927200 0.113825 -0.025180 346420.000000 0 0 1
23.435215 -26.653968 -13.565901 37.995749 -0.849570 1.935891 0.109760 -0.018654 266577.000000 0 0 1
22.727715 -27.870468 -13.809301 38.522835 -0.886689 1.937425 0.114558 -0.013163 41266.300000 0 0 1
23.439315 -29.143968 -14.358301 40.061617 -0.893463 1.937356 0.101788 -0.021115 -368387.000000 0 0 1
23.785215 -29.106668 -15.720901 40.744095 -0.885671 1.966920 0.112412 -0.019612 459580.000000 0 0 1
24.312415 -30.401568 -16.067601 42.113141 -0.896233 1.962252 0.102094 -0.021945 -26935.300000 0 0 1
24.474015 -30.448468 -17.570701 42.834754 -0.893752 1.993467 0.094987 -0.018760 931567.000000 0 0 1
23.161715 -30.517868 -18.178001 42.405719 -0.921588 2.013815 0.086263 -0.017067 1182400.000000 0 0 1
23.212615 -30.114668 -19.530401 42.745237 -0.914111 2.045306 0.063661 -0.008965 -214900.000000 0 0 1
21.789215 -30.227968 -20.087801 42.332253 -0.946227 2.065223 0.038757 0.000641 -125558.000000 0 0 1
21.721415 -30.176868 -21.490101 42.945170 -0.946903 2.094866 0.023744 0.005150 -51180.500000 0 0 1
20.364915 -30.103768 -21.891701 42.428919 -0.976023 2.112926 0.030355 -0.007344 -63133.200000 0 0 1
20.140715 -30.322668 -23.403801 43.276443 -0.984494 2.142182 0.027003 -0.006716 -289338.000000 0 0 1
20.659215 -29.227468 -24.161901 43.183857 -0.955493 2.164594 0.027516 -0.011619 446709.000000 0 0 1
20.789915 -29.527868 -25.576441 44.252343 -0.957339 2.187033 0.029449 -0.018633 -598930.000000 0 0 1
21.068515 -28.282168 -26.451031 44.084242 -0.930542 2.214311 0.033569 -0.022924 308828.000000 0 0 1
20.102415 -27.224668 -26.445861 42.949659 -0.934767 2.234122 0.042883 -0.028933 303774.000000 0 0 1
18.957215 -27.484068 -27.250711 43.096998 -0.966981 2.255329 0.069003 -0.031945 -303503.000000 0 0 1
18.242315 -26.190868 -27.608271 42.201425 -0.962414 2.283924 0.068794 -0.033254 -728922.000000 0 0 1
17.431715 -25.677168 -26.601781 40.875866 -0.974386 2.279426 0.055972 -0.023385 -479215.000000 0 0 1
16.955815 -24.452868 -27.028081 40.199000 -0.964508 2.308185 0.045575 -0.012451 267155.000000 0 0 1
15.796615 -23.839968 -26.163981 38.761205 -0.985607 2.311767 0.054887 -0.013966 988516.000000 0 0 1
14.555015 -24.572268 -26.234361 38.779976 -1.036032 2.313786 0.088804 -0.032295 592824.000000 0 0 1
13.573215 -24.141268 -25.283311 37.500384 -1.058603 2.310697 0.079701 -0.033710 579564.000000 0 0 1
13.826615 -24.473668 -23.745801 36.796722 -1.056541 2.272243 0.075441 -0.028297 1006850.000000 0 0 1
15.048515 -23.911068 -23.173001 36.540183 -1.009073 2.257742 0.028831 -0.019800 1074960.000000 0 0 1
14.995915 -24.232368 -21.808301 35.884358 -1.016640 2.224006 0.035155 -0.024284 -43014.700000 0 0 1
16.165615 -23.671068 -21.008901 35.539000 -0.971621 2.203281 0.032375 -0.025807 -359637.000000 0 0 1
16.187915 -22.285368 -20.762401 34.492949 -0.942576 2.216714 0.025493 -0.029279 540126.000000 0 0 1
17.448415 -21.734968 -20.356801 34.514567 -0.894362 2.201611 0.037829 -0.022346 226733.000000 0 0 1
17.250515 -20.299268 -19.798501 33.190679 -0.866413 2.209939 0.036666 -0.009984 334365.000000 0 0 1
16.459215 -20.141868 -18.620701 31.989547 -0.885677 2.192089 0.031760 -0.020107 1722690.000000 0 0 1
15.026115 -19.989768 -18.843701 31.312298 -0.926214 2.216548 0.057317 -0.025877 987598.000000 0 0 1
14.223115 -20.045468 -17.570801 30.213421 -0.953695 2.191437 0.061814 -0.027575 -493234.000000 0 0 1
14.449015 -19.005368 -16.671301 29.118900 -0.920761 2.180379 0.061599 -0.026168 86099.900000 0 0 1
13.694215 -19.158068 -15.488701 28.186219 -0.950205 2.152578 0.061017 -0.027572 -225989.000000 0 0 1
13.540215 -17.867068 -14.644301 26.777324 -0.922302 2.149444 0.066563 -0.025532 -713121.000000 0 0 1
12.657015 -16.943568 -15.230101 26.062243 -0.929212 2.194905 0.082966 -0.030064 108349.000000 0 0 1
12.758815 -15.754268 -14.520601 24.936563 -0.890070 2.192353 0.077506 -0.022149 -480916.000000 0 1 0
11.392315 -15.287468 -14.037901 23.676025 -0.930370 2.205472 0.074591 -0.010748 -816475.000000 0 1 0
10.656015 -14.675568 -15.055401 23.570915 -0.942764 2.263640 0.076252 -0.009988 308809.000000 0 1 0
9.552315 -13.865868 -14.607201 22.290790 -0.967553 2.285379 0.075951 -0.016594 298602.000000 0 1 0
8.733515 -13.407968 -15.809901 22.494463 -0.993460 2.350172 0.062409 -0.004193 -355078.000000 0 1 0
9.212615 -12.363668 -16.613101 22.665562 -0.930415 2.393469 0.053553 0.008564 -364491.000000 0 1 0
10.282215 -12.628568 -17.468701 23.882215 -0.887455 2.391246 0.068583 0.007838 -454399.000000 0 1 0
10.538215 -11.438568 -18.388701 24.084002 -0.826344 2.439548 0.069311 0.004186 -2822.370000 0 1 0
9.586115 -11.257268 -19.436801 24.421485 -0.865404 2.491272 0.057535 -0.001639 370131.000000 0 1 0
9.754415 -9.979268 -20.026301 24.408751 -0.796792 2.533004 0.059260 -0.011249 383215.000000 0 1 0
9.151215 -9.929168 -21.481701 25.373147 -0.826148 2.580419 0.050646 -0.015138 521981.000000 0 0 1
10.076515 -10.654468 -22.295001 26.685594 -0.813270 2.559783 0.063295 -0.007307 44126.400000 0 0 1
9.696315 -10.776168 -23.618501 27.712414 -0.838096 2.591109 0.080687 -0.007128 -100716.000000 0 0 1
10.721215 -11.488368 -24.519201 29.122470 -0.819926 2.571654 0.099162 -0.009165 9663.410000 0 0 1
10.724915 -12.876868 -24.221601 29.453752 -0.876324 2.536344 0.097164 -0.017673 15323.000000 0 0 1
11.874715 -13.462868 -24.814801 30.627308 -0.847996 2.515321 0.095255 -0.022478 229942.000000 0 0 1
12.045715 -15.002168 -24.492401 31.145497 -0.894270 2.475734 0.091892 -0.021579 -82912.400000 0 0 1
11.039515 -15.784368 -25.077511 31.621175 -0.960476 2.486614 0.099039 -0.025544 -449494.000000 0 0 1
10.908815 -17.084768 -24.560601 31.845167 -1.002540 2.451600 0.105227 -0.029456 802250.000000 0 0 1
9.643215 -17.851968 -25.100701 32.275835 -1.075526 2.461784 0.108595 -0.031508 802996.000000 0 0 1
9.895115 -18.491168 -26.345171 33.673500 -1.079444 2.469260 0.099412 -0.040737 199072.000000 0 0 1
8.728115 -19.142168 -26.830791 34.095365 -1.142995 2.476620 0.106066 -0.038201 213968.000000 0 0 1
9.061715 -20.126068 -27.965031 35.626061 -1.147736 2.473428 0.085112 -0.040547 -191876.000000 0 0 1
9.701615 -21.332368 -27.582991 36.194097 -1.143971 2.437324 0.084126 -0.041330 11373.500000 0 0 1
9.771815 -22.133068 -28.778841 37.597643 -1.155031 2.442525 0.079634 -0.032327 -87448.200000 0 0 1
10.602815 -23.421468 -28.649731 38.494051 -1.145702 2.410228 0.069528 -0.028811 -6446.080000 0 0 1
10.387915 -24.399868 -29.663451 39.789228 -1.168302 2.412103 0.071661 -0.019925 -100680.000000 0 0 1
11.018815 -25.629068 -29.364281 40.503388 -1.164754 2.381807 0.083545 -0.018235 36278.200000 0 0 1
10.381215 -26.374068 -28.179001 39.967702 -1.195807 2.353282 0.093898 -0.026539 317862.000000 0 0 1
10.902815 -25.907768 -26.939721 38.933692 -1.172461 2.334967 0.103837 -0.035798 -399488.000000 0 0 1
10.174415 -26.431068 -25.864761 38.354999 -1.203338 2.310883 0.097330 -0.036302 211911.000000 0 0 1
9.270715 -25.313868 -25.265791 36.947236 -1.219736 2.323801 0.092337 -0.030595 -27818.400000 0 0 1
9.958715 -24.240768 -24.709601 36.018818 -1.180993 2.326800 0.094503 -0.029537 -589030.000000 0 0 1
9.168615 -23.128468 -24.543101 34.947866 -1.193379 2.349388 0.101484 -0.036209 -408629.000000 0 0 1
10.126515 -21.946268 -24.333601 34.297363 -1.138484 2.359569 0.120285 -0.038640 469237.000000 0 0 1
10.927615 -22.003768 -23.155901 33.760544 -1.109853 2.326618 0.125613 -0.038132 -46065.800000 0 0 1
11.947815 -21.052668 -23.223501 33.545434 -1.054601 2.335468 0.106564 -0.032028 -481521.000000 0 0 1
12.716115 -20.882668 -21.914001 32.833045 -1.023835 2.301558 0.090422 -0.025608 408615.000000 0 0 1
11.940715 -20.243168 -20.825101 31.401455 -1.037863 2.295868 0.087580 -0.027051 496043.000000 0 0 1
11.523515 -18.890168 -20.977101 30.490468 -1.023037 2.329510 0.080759 -0.017925 -395511.000000 0 0 1
12.598515 -17.810568 -20.885901 30.201983 -0.955147 2.334416 0.080514 -0.013508 30169.800000 0 0 1
13.609615 -18.046768 -21.868601 31.450647 -0.924657 2.339676 0.073511 -0.012082 186612.000000 0 0 1
14.631015 -17.068768 -21.716601 31.257322 -0.862148 2.338894 0.076838 -0.009143 182170.000000 0 0 1
15.840215 -17.117468 -22.663101 32.519783 -0.824133 2.341865 0.056131 -0.000215 488356.000000 0 0 1
17.062915 -17.646268 -22.123401 33.045101 -0.802203 2.304320 0.048630 0.003576 -55924.900000 0 0 1
18.093815 -17.118468 -22.864101 33.811170 -0.757706 2.313428 0.032417 0.004952 -1328420.000000 0 0 1
19.453415 -17.416168 -22.246901 34.302811 -0.730199 2.276467 0.019752 0.005486 -573779.000000 0 0 1
19.768715 -18.777568 -22.172201 35.142647 -0.759691 2.253535 0.022438 0.000692 -331365.000000 0 0 1
21.094315 -18.990468 -21.776801 35.774810 -0.732961 2.225241 0.025304 -0.003642 -256075.000000 0 0 1
21.450215 -20.449268 -21.605101 36.675123 -0.761513 2.200734 0.025210 -0.007400 -201070.000000 0 0 1
20.794515 -21.081368 -20.524901 36.029259 -0.792248 2.176904 0.022603 -0.010318 93915.900000 0 0 1
21.268615 -22.377068 -20.347501 36.974423 -0.810789 2.153535 0.039946 -0.009476 -183155.000000 0 0 1
-17.187655 12.801976 28.328262 35.521775 -0.640188 0.647673 0.038316 -0.029524 -493548.000000 0 0 1
-18.195855 13.725476 28.076632 36.163173 -0.646259 0.681883 0.034470 -0.023157 -262922.000000 0 0 1
-18.854255 13.377676 26.850222 35.431336 -0.617094 0.710846 0.041696 -0.023917 -288287.000000 0 0 1
-20.024755 14.337376 26.637692 36.278338 -0.621372 0.746222 0.048799 -0.015920 -130816.000000 0 0 1
-19.563555 15.675676 26.460872 36.450477 -0.675514 0.758396 0.049329 -0.016112 -451812.000000 0 0 1
-20.547855 16.317576 25.767432 36.775511 -0.671149 0.794463 0.055928 -0.017625 -1180310.000000 0 0 1
-20.373955 17.817776 25.706442 37.328171 -0.718568 0.811156 0.054604 -0.010442 163214.000000 0 0 1
-19.108655 18.321276 25.309032 36.624541 -0.764365 0.807869 0.035736 -0.017832 167630.000000 0 0 1
-18.255455 18.485676 26.438092 37.066893 -0.791664 0.776667 0.058382 -0.016491 88090.200000 0 0 1
-16.922455 19.226376 26.106712 36.572988 -0.849046 0.775852 0.060469 -0.015019 255113.000000 0 0 1
-16.987755 20.594976 25.827152 37.145372 -0.881086 0.801960 0.063772 -0.012461 -94089.400000 0 0 1
-15.718255 21.148276 25.571462 36.718017 -0.931635 0.800388 0.065893 -0.009055 -139274.000000 0 0 1
-15.715655 22.660576 25.369522 37.471271 -0.964430 0.827064 0.060573 -0.008400 -35287.900000 0 0 1
-15.714655 23.468476 26.524492 38.746206 -0.980761 0.816783 0.060552 -0.006075 109312.000000 0 0 1
-15.605455 24.829176 26.137262 39.283262 -1.009675 0.842829 0.058722 -0.012320 -64718.200000 0 0 1
-15.228955 25.798976 27.318152 40.543676 -1.037545 0.831463 0.041159 -0.001275 -56696.400000 0 0 1
-13.836055 25.755376 27.514842 40.147757 -1.077825 0.815727 0.038905 -0.006562 -288115.000000 0 0 1
-13.434355 26.820176 28.376532 41.292025 -1.106425 0.813147 0.050490 -0.002441 1562070.000000 0 0 1
-11.851955 26.901076 28.544502 40.974691 -1.155807 0.800097 0.057530 -0.000818 1837070.000000 0 0 1
-11.160355 27.520576 27.474872 40.457437 -1.185534 0.824253 0.048312 -0.002191 -188869.000000 0 0 1
-9.761855 27.581076 27.601992 40.222873 -1.230622 0.814508 0.023763 0.001608 -108415.000000 0 0 1
-9.069455 28.017376 26.297102 39.481210 -1.257733 0.841874 0.035366 -0.005802 1512650.000000 0 0 1
-7.618855 27.825976 26.334602 39.062043 -1.303543 0.830951 0.019077 -0.004231 1676480.000000 0 0 1
-6.994055 28.617976 25.361282 38.872870 -1.331101 0.860028 0.038365 -0.016535 -610061.000000 0 0 1
-5.483855 28.434576 25.234532 38.410668 -1.380277 0.854008 0.027853 -0.016331 -1403600.000000 0 0 1
-4.822255 28.983776 26.374662 39.483366 -1.405929 0.839286 0.038432 -0.021816 193146.000000 0 0 1
-3.417955 28.788576 26.338252 39.168457 -1.452623 0.833302 0.026734 -0.016734 514342.000000 0 0 1
-2.630555 29.635676 25.288432 39.047380 -1.482265 0.866320 0.026207 -0.011897 -1123600.000000 0 0 1
-2.812055 29.175576 23.949312 37.850911 -1.474709 0.885726 0.016033 -0.001588 -108287.000000 0 0 1
-2.687155 30.239576 22.973492 38.071434 -1.482167 0.922999 0.011572 -0.003190 -269235.000000 0 0 1
-3.091855 29.979276 21.471192 37.004441 -1.468027 0.951782 0.014563 0.004110 821856.000000 0 0 1
-4.467855 29.798276 21.123292 36.797995 -1.421968 0.959373 0.005022 0.004864 607723.000000 0 0 1
-5.092255 28.587076 21.553892 36.162443 -1.394514 0.932249 0.013965 0.003373 -1280180.000000 0 0 1
-6.545855 28.505576 21.220992 36.135116 -1.345075 0.943117 0.022709 -0.009759 -1545610.000000 0 0 1
-6.852555 28.484176 19.865892 35.397168 -1.334709 0.974927 0.022761 -0.011793 122405.000000 0 0 1
-7.648855 27.403276 19.382692 34.425765 -1.298602 0.972750 0.011124 -0.011073 -596589.000000 0 0 1
-6.916455 26.080576 19.092592 33.053909 -1.311568 0.954986 -0.003875 -0.008870 529297.000000 0 0 1
-5.964555 26.059976 18.011592 32.235318 -1.345794 0.977914 -0.000013 -0.006734 1201600.000000 0 0 1
-4.672555 26.628176 18.313692 32.654002 -1.397091 0.975396 0.013636 -0.009637 297504.000000 0 0 1
-3.837855 26.859176 17.055792 32.047535 -1.428869 1.009596 0.011329 -0.004859 -377042.000000 0 0 1
-3.079955 25.769076 16.626592 30.821664 -1.451839 1.001019 0.017674 -0.013522 -240968.000000 0 0 1
-2.633455 26.058676 15.318892 30.342349 -1.470080 1.041567 0.029279 -0.020516 -317547.000000 0 0 1
-1.968655 24.874576 14.610192 28.915011 -1.491818 1.041089 0.029830 -0.019219 194998.000000 0 0 1
-0.833455 24.439376 15.347092 28.870590 -1.536707 1.010329 0.021243 -0.018437 238679.000000 0 0 1
-0.096055 23.395776 14.704892 27.633411 -1.566691 1.009668 0.023317 -0.033600 -278539.000000 0 0 1
1.025845 22.919976 15.643392 27.768568 1.526069 0.972363 0.020081 -0.025144 -758466.000000 0 0 1
1.985445 23.914576 15.740292 28.698532 1.487964 0.990263 0.032989 -0.025923 166871.000000 0 0 1
3.266145 23.304476 15.968692 28.438802 1.431552 0.974586 0.035769 -0.030795 679992.000000 0 0 1
4.491145 24.231676 16.133192 29.455465 1.387534 0.991166 0.049363 -0.026065 315790.000000 0 0 1
5.723445 23.542176 15.997192 29.032775 1.332309 0.987229 0.053111 -0.025722 276300.000000 0 0 1
6.817245 24.450276 16.101592 30.059143 1.298881 1.005503 0.076861 -0.029625 -90619.300000 0 0 1
8.207545 23.790576 16.165692 29.911284 1.238590 0.999819 0.085149 -0.028109 -249811.000000 0 0 1
8.617345 23.102876 15.008392 28.866128 1.213781 1.024026 0.073174 -0.017311 172475.000000 0 0 1
9.276245 23.970876 14.049892 29.292509 1.201564 1.070551 0.072876 -0.020622 -62095.800000 0 0 1
9.895645 23.126276 12.914092 28.275824 1.166475 1.096493 0.063496 -0.016280 86245.900000 0 0 1
10.986045 22.303776 13.280592 28.187333 1.113115 1.080197 0.065747 -0.009954 203429.000000 0 0 1
11.752645 21.966476 12.135792 27.711517 1.079522 1.117498 0.071312 -0.012705 1137290.000000 0 0 1
12.958645 20.988176 12.493492 27.649907 1.017662 1.101963 0.068823 -0.009294 1032590.000000 0 0 1
12.419945 19.633076 12.629192 26.442564 1.006748 1.072866 0.068751 -0.005932 777679.000000 0 0 1
13.370245 18.669776 13.115792 26.445188 0.949318 1.051855 0.065722 -0.012663 366714.000000 0 0 1
13.931445 18.811376 14.594292 27.585257 0.933347 1.013302 0.064629 -0.008967 153708.000000 0 0 1
14.723345 17.657576 14.874092 27.382576 0.875767 0.996558 0.075167 -0.002910 103937.000000 0 0 1
15.401345 17.799476 16.129292 28.533784 0.857504 0.970036 0.059234 -0.011852 -158964.000000 0 0 1
16.624545 16.877876 16.095192 28.640765 0.792960 0.974033 0.040760 -0.007781 -719592.000000 0 0 1
17.248145 16.772376 17.306492 29.636561 0.771414 0.947201 0.046352 -0.014575 -293308.000000 0 0 1
18.402245 15.949876 17.127792 29.772511 0.714130 0.957839 0.041418 -0.015008 391400.000000 0 0 1
19.145045 15.740876 18.475292 30.913498 0.688126 0.930236 0.043374 -0.017759 44747.500000 0 0 1
19.681645 16.895676 19.140392 32.236402 0.709378 0.935084 0.062874 -0.009879 420768.000000 0 0 1
18.676645 17.532276 19.876492 32.423336 0.753804 0.910906 0.046393 -0.006620 21303.000000 0 0 1
19.288145 18.691476 20.785592 33.962400 0.769689 0.912187 0.050844 -0.007251 -96585.000000 0 0 1
18.343645 19.535676 21.400092 34.294254 0.816857 0.896927 0.073376 -0.020855 7477.940000 0 0 1
18.930245 20.600576 22.156992 35.688516 0.827627 0.900978 0.069681 -0.016679 67558.000000 0 0 1
17.866345 21.668376 22.534792 36.007522 0.881273 0.894594 0.078205 -0.025055 46289.700000 0 0 1
16.980345 21.254076 23.514162 35.958082 0.896713 0.858025 0.082814 -0.025926 -41132.500000 0 0 1
16.107145 22.285976 23.993472 36.493719 0.944966 0.853342 0.077165 -0.030772 629078.000000 0 0 1
15.406445 21.870676 25.332972 36.843513 0.957101 0.812641 0.088193 -0.031268 -371775.000000 0 0 1
14.464745 20.869676 25.186282 35.764801 0.964717 0.789473 0.088713 -0.029540 -576039.000000 0 0 1
13.688445 20.839676 26.391102 36.306417 0.989624 0.757001 0.080676 -0.021163 95079.700000 0 0 1
12.494345 19.850476 26.383522 35.302129 1.009023 0.726711 0.080580 -0.009607 98740.800000 0 0 1
12.883445 18.450976 26.341262 34.645111 0.961244 0.706996 0.082943 -0.013981 210782.000000 0 0 1
13.541345 17.930976 25.180512 33.748276 0.923980 0.728570 0.090793 -0.020443 12900.400000 0 0 1
12.644645 17.750576 23.904572 32.348084 0.951829 0.739242 0.096058 -0.020543 -363950.000000 0 0 1
12.559745 18.926876 23.053592 32.364208 0.984925 0.778002 0.102104 -0.020653 216060.000000 0 0 1
13.735745 19.322376 22.339192 32.573983 0.952811 0.815096 0.098078 -0.026047 484170.000000 0 0 1
14.305845 18.213076 21.400392 31.533317 0.904977 0.824860 0.098413 -0.025848 -216427.000000 0 0 1
13.460445 17.941776 20.273192 30.233974 0.927149 0.835855 0.098387 -0.023121 291706.000000 0 0 1
13.878445 16.781976 19.523192 29.247239 0.879816 0.839920 0.065783 -0.017361 572727.000000 0 0 1
12.737445 16.101476 18.667492 27.748429 0.901522 0.832890 0.069195 -0.013269 537860.000000 0 0 1
12.260445 16.868376 17.558592 27.261049 0.942290 0.870962 0.084816 -0.012450 590762.000000 0 0 1
11.118945 16.279976 16.919392 25.979499 0.971583 0.861554 0.066373 -0.018187 813418.000000 0 0 1
10.598245 17.065076 15.621692 25.447532 1.015043 0.909832 0.057301 -0.009369 71741.400000 0 0 1
9.829445 18.219876 15.809892 26.048696 1.076058 0.918597 0.065179 -0.020131 -24905.300000 0 0 1
9.420545 18.724376 14.570492 25.527400 1.104659 0.963343 0.042163 -0.005352 -628161.000000 0 0 1
8.402545 19.841976 14.613692 26.035875 1.170220 0.974852 0.056469 -0.006917 -102834.000000 0 0 1
7.107145 19.332876 14.933492 25.441714 1.218512 0.943487 0.015971 -0.014027 -380606.000000 0 0 1
6.210945 20.391076 14.897992 26.006191 1.275133 0.960801 0.037645 -0.019682 -391030.000000 0 0 1
4.845145 20.028276 15.510692 25.791255 1.333441 0.925552 0.027948 -0.025593 7417.100000 0 0 1
3.960045 19.323176 14.646792 24.568183 1.368658 0.932075 0.022622 -0.033544 -411111.000000 0 1 0
2.965245 18.723176 15.452692 24.456813 1.413728 0.886877 0.010163 -0.030423 -35355.300000 0 1 0
1.738045 18.379976 14.581292 23.525697 1.476515 0.902305 0.009388 -0.026728 -365664.000000 0 1 0
1.073145 19.504276 14.099192 24.090572 1.515831 0.945599 0.014911 -0.028002 -450385.000000 0 1 0
0.241045 19.086476 13.051192 23.123263 1.558168 0.971068 0.015928 -0.032969 -425466.000000 0 1 0
-0.547855 20.222276 12.346392 23.699662 -1.543711 1.022830 0.018358 -0.029135 202912.000000 0 1 0
-1.635355 20.742576 13.126492 24.601497 -1.492119 1.007986 0.018926 -0.026320 -364189.000000 0 1 0
-2.669155 20.834476 12.192592 24.287015 -1.443378 1.044862 0.025825 -0.032468 353561.000000 0 1 0
-3.987655 21.536976 12.740292 25.338859 -1.387716 1.043965 0.025529 -0.028269 847631.000000 0 0 1
-4.643855 20.647476 13.581292 25.146275 -1.349566 1.000250 0.025461 -0.032004 890612.000000 0 0 1
-5.810055 21.273376 14.232592 26.246523 -1.304184 0.997665 0.018868 -0.023391 1098580.000000 0 0 1
-6.471655 20.396876 15.347992 26.333928 -1.263557 0.948599 0.011268 -0.022395 -282993.000000 0 0 1
-7.434455 19.460776 14.870992 25.595690 -1.205883 0.950845 0.021886 -0.019968 200994.000000 0 0 1
-8.072655 18.702376 15.928892 25.858775 -1.163317 0.907147 0.019374 -0.008996 -180753.000000 0 0 1
-9.139755 19.378476 16.772692 27.209992 -1.130089 0.906613 0.017923 -0.001507 -152295.000000 0 0 1
-10.382255 19.463376 16.073792 27.294341 -1.080767 0.941092 0.012274 -0.008312 516138.000000 0 0 1
-11.504155 19.647476 16.931792 28.373482 -1.041086 0.931355 0.011230 0.002529 1721370.000000 0 0 1
-12.908055 19.708776 16.167392 28.573385 -0.990957 0.969369 0.019063 -0.009270 980384.000000 0 0 1
-13.158255 20.932676 15.518892 29.191653 -1.009613 1.010283 0.017031 -0.015594 168086.000000 0 0 1
-14.164355 20.798876 14.530492 29.057829 -0.972926 1.047135 0.021842 -0.018936 -182795.000000 0 0 1
-15.162355 21.947076 14.398392 30.313114 -0.966231 1.075845 0.020282 -0.023950 -716818.000000 0 0 1
-16.251955 21.812876 15.259892 31.189612 -0.930463 1.059553 0.016271 -0.030373 -867921.000000 0 0 1
-17.141455 22.823876 14.930692 32.213109 -0.926635 1.088858 0.029326 -0.028786 -935984.000000 0 0 1
-18.542555 22.743276 15.515992 33.193809 -0.886796 1.084408 0.067542 -0.029222 -1129800.000000 0 0 1
-19.278555 21.617476 15.035092 32.634827 -0.842528 1.092005 0.064713 -0.032701 85427.200000 0 0 1
-20.363655 21.260876 15.850592 33.435678 -0.806950 1.076898 0.063281 -0.025974 838349.000000 0 0 1
-21.590655 22.247176 16.044692 34.907383 -0.800373 1.093211 0.060439 -0.029057 -249229.000000 0 0 1
-22.451255 22.389076 14.928592 35.045577 -0.784011 1.130755 0.059002 -0.022332 -241040.000000 0 0 1
-23.269255 23.489076 15.139192 36.364682 -0.790099 1.141407 0.065658 -0.033505 -616738.000000 0 0 1
-22.960655 24.723176 14.298692 36.645323 -0.822344 1.169957 0.051801 -0.023890 -638729.000000 0 0 1
-21.707655 25.217276 14.640592 36.352170 -0.860051 1.156284 0.047178 -0.038851 -551618.000000 0 0 1
-21.288955 26.275276 13.831292 36.536480 -0.889850 1.182555 0.030100 -0.027178 261916.000000 0 0 1
-19.845955 26.822776 14.060192 36.207903 -0.933796 1.171990 0.039138 -0.026533 230015.000000 0 0 1
-18.862755 25.968176 13.535092 34.833151 -0.942584 1.171718 0.033527 -0.015961 -909418.000000 0 0 1
-17.637255 26.624276 13.614792 34.717250 -0.985719 1.167815 0.032890 -0.021173 -393879.000000 0 0 1
-16.531955 25.856076 12.816692 33.258229 -1.001920 1.175189 0.034261 -0.017415 1277230.000000 0 0 1
-15.224255 26.444976 13.031492 33.180333 -1.048439 1.167179 0.038238 -0.013787 1297160.000000 0 0 1
-14.214355 25.900876 12.183192 31.958308 -1.068876 1.179679 0.037418 -0.005492 753664.000000 0 0 1
-12.791755 26.520876 12.345392 31.927959 -1.121386 1.173785 0.041254 0.000307 -191528.000000 0 0 1
-11.842655 25.742176 11.684592 30.650250 -1.139617 1.179677 0.045454 -0.004801 534150.000000 0 0 1
-10.488355 26.159276 11.948892 30.611915 -1.189478 1.169801 0.057853 -0.010868 965745.000000 0 0 1
-9.925355 27.382376 11.129092 31.179543 -1.223054 1.205811 0.055216 -0.005732 -13097.100000 0 0 1
-8.814555 27.947276 11.833892 31.603602 -1.265272 1.186995 0.074848 -0.024106 220137.000000 0 0 1
-8.187755 28.930176 11.072692 32.040583 -1.294991 1.217936 0.082103 -0.022497 -372111.000000 0 0 1
-7.025055 29.607176 11.829092 32.647568 -1.337829 1.200033 0.072148 -0.024105 -147491.000000 0 0 1
-5.848155 28.857276 11.603292 31.647744 -1.370846 1.195403 0.075885 -0.026546 -969180.000000 0 0 1
-4.817255 29.474676 12.294992 32.297513 -1.408792 1.180266 0.077496 -0.029848 255663.000000 0 0 1
-3.362255 29.132976 11.803592 31.612653 -1.455894 1.188144 0.074699 -0.040535 762710.000000 0 0 1
-3.136955 29.754576 10.535192 31.720113 -1.465757 1.232236 0.093895 -0.040414 -71509.200000 0 0 1
-1.794655 29.617076 10.141492 31.356688 -1.510275 1.241451 0.087729 -0.036504 33076.400000 0 0 1
-1.535155 30.232976 8.753192 31.512028 -1.520062 1.289321 0.087820 -0.031742 190579.000000 0 0 1
-2.136455 29.534676 7.652592 30.584697 -1.498585 1.317899 0.098724 -0.028735 220349.000000 0 0 1
-2.411555 30.414076 6.560492 31.206917 -1.491671 1.358991 0.087857 -0.020363 101035.000000 0 0 1
11.642545 -33.679368 -26.696061 44.525592 -1.237968 2.213756 0.147068 -0.043444 231278.000000 0 0 1
12.401845 -33.507268 -25.480361 43.883842 -1.216307 2.190301 0.132710 -0.038053 404265.000000 0 0 1
13.267445 -32.401268 -25.564781 43.352339 -1.182150 2.201481 0.134143 -0.026847 -382973.000000 0 0 1
14.109545 -32.267968 -24.260301 42.765210 -1.158586 2.174008 0.123071 -0.033308 -832324.000000 0 0 1
13.359145 -31.876568 -23.141701 41.594719 -1.173942 2.160797 0.125706 -0.035796 17316.200000 0 0 1
13.909045 -32.103868 -21.867501 41.259029 -1.161958 2.129403 0.089675 -0.026516 -166510.000000 0 0 1
15.385045 -31.870668 -21.451501 41.383644 -1.121057 2.115725 0.050491 -0.014156 278821.000000 0 0 1
16.239945 -32.810268 -22.096801 42.761175 -1.111185 2.113846 0.062045 -0.014015 -114466.000000 0 0 1
17.570845 -32.744468 -21.648101 43.006686 -1.078295 2.098286 0.029716 -0.015621 -4928.860000 0 0 1
18.469945 -33.977768 -21.974101 44.480206 -1.072888 2.087503 0.003506 -0.002483 100096.000000 0 0 1
19.837045 -33.713768 -21.730401 44.747478 -1.038953 2.077872 -0.000717 0.016809 -4098.380000 0 0 1
20.597245 33.358676 -21.759801 44.839009 1.017646 2.077488 0.004712 0.020156 -504524.000000 0 0 1
22.009145 33.627076 -21.256401 45.464462 0.991260 2.057301 0.027174 0.023758 -525663.000000 0 0 1
22.851745 -33.816968 -22.045701 46.387525 -0.976533 2.066045 0.021925 0.020419 -155779.000000 0 0 1
24.132745 -33.713068 -21.483301 46.695744 -0.949527 2.048870 0.028312 0.024278 -146164.000000 0 0 1
25.149045 -33.063868 -22.437801 47.213862 -0.920533 2.066030 0.037183 0.017247 -41808.400000 0 0 1
25.198545 -31.639768 -22.524201 46.296665 -0.898242 2.078897 0.034900 0.010139 548227.000000 0 0 1
24.077145 -31.176768 -23.319701 45.776721 -0.913189 2.105310 0.016360 0.010817 593616.000000 0 0 1
24.040645 -29.596668 -23.489401 44.784677 -0.888615 2.122920 0.015246 -0.014792 -311914.000000 0 0 1
25.065145 -28.984468 -24.217901 45.330647 -0.857785 2.134417 0.027082 -0.012230 -112922.000000 0 0 1
24.756645 -27.614068 -24.057201 44.206076 -0.839906 2.146238 0.040405 -0.008858 529159.000000 0 0 1
25.296045 -26.725968 -25.203091 44.602276 -0.812878 2.171306 0.038650 -0.012613 -15252.400000 0 0 1
24.456245 -26.771168 -26.333621 44.813647 -0.830557 2.198917 0.028729 -0.013000 -429631.000000 0 0 1
25.073445 -26.355168 -27.558731 45.637223 -0.810315 2.219138 0.030130 -0.013070 -795933.000000 0 0 1
24.068845 -26.007468 -28.661191 45.575888 -0.824092 2.250892 0.031380 -0.015892 326716.000000 0 0 1
23.305445 -24.788468 -28.461151 44.358190 -0.816224 2.267406 0.048229 -0.020990 -286448.000000 0 0 1
22.207345 -25.039068 -27.621741 43.394489 -0.845262 2.260782 0.040298 -0.019894 -1076850.000000 0 0 1
21.334645 -23.779768 -27.501891 42.154459 -0.839543 2.281553 0.045448 -0.017620 -488715.000000 0 0 1
20.631545 -23.355868 -28.606261 42.302191 -0.847253 2.313437 0.059835 -0.015212 -237842.000000 0 0 1
20.322545 -22.017468 -28.375921 41.267028 -0.825408 2.328999 0.046319 -0.006483 -320576.000000 0 0 1
19.246045 -21.500768 -29.339081 41.151852 -0.840677 2.364488 0.061665 -0.013407 324723.000000 0 0 1
17.955345 -22.061468 -29.120691 40.707707 -0.887650 2.367936 0.061764 -0.014041 496932.000000 0 0 1
16.941545 -21.424468 -29.890921 40.490628 -0.901717 2.401222 0.060443 -0.018735 -82312.800000 0 0 1
15.667845 -22.261368 -29.798391 40.360797 -0.957516 2.401343 0.060983 -0.018816 -626887.000000 0 0 1
15.872045 -23.407168 -30.535231 41.619919 -0.974930 2.394502 0.062262 -0.012609 386869.000000 0 0 1
14.842745 -24.364968 -30.333301 41.642141 -1.023651 2.386821 0.071327 -0.020926 180141.000000 0 0 1
15.373145 -25.790668 -30.610111 42.877395 -1.033269 2.365846 0.089836 -0.018790 479103.000000 0 0 1
14.401145 -26.739668 -30.190831 42.823931 -1.076772 2.353218 0.100370 -0.024364 495907.000000 0 0 1
14.861245 -28.071468 -30.582521 44.092567 -1.083900 2.337268 0.130314 -0.022576 247185.000000 0 0 1
14.082245 -29.187268 -29.880401 44.079979 -1.121263 2.315655 0.132939 -0.038781 -164555.000000 0 0 1
14.409145 -29.481568 -28.558071 43.501146 -1.116188 2.286953 0.160317 -0.047334 -159148.000000 0 0 1
14.209045 -28.420068 -27.598791 42.086702 -1.107177 2.285986 0.142525 -0.045176 577605.000000 0 0 1
15.401345 -28.257968 -26.558231 41.725937 -1.071779 2.260738 0.108946 -0.033581 285330.000000 0 0 1
15.391045 -29.193868 -25.471451 41.688859 -1.085625 2.228106 0.115499 -0.043784 402983.000000 0 0 1
16.236045 -28.885868 -24.338201 41.113873 -1.058729 2.204298 0.112694 -0.040934 -599215.000000 0 0 1
15.750945 -27.727868 -23.441501 39.578162 -1.054197 2.204687 0.104685 -0.039823 1774580.000000 0 0 1
14.549045 -27.928768 -22.598501 38.760586 -1.090542 2.193247 0.095636 -0.042322 1345790.000000 0 0 1
13.361645 -28.175668 -23.300601 38.927109 -1.127979 2.212511 0.119337 -0.035880 -686803.000000 0 0 1
12.073345 -28.156568 -22.427001 37.967464 -1.165717 2.202710 0.097032 -0.023648 359266.000000 0 0 1
11.742845 -26.835868 -21.963701 36.612325 -1.158319 2.214171 0.069954 -0.023988 485589.000000 0 0 1
10.514145 -26.717668 -21.250101 35.720412 -1.195882 2.207939 0.074360 -0.018911 -71761.800000 0 0 1
10.139945 -25.183368 -21.019301 34.334116 -1.188012 2.229635 0.093966 -0.025541 -61673.400000 0 0 1
10.863745 -24.606968 -19.928001 33.476097 -1.155041 2.208423 0.075819 -0.027323 296364.000000 0 0 1
10.705845 -23.205468 -19.894701 32.386849 -1.138544 2.232274 0.081072 -0.035446 20759.800000 0 0 1
11.362045 -22.523968 -18.636801 31.364878 -1.103601 2.207059 0.080200 -0.033402 52353.400000 0 0 1
10.720345 -22.965768 -17.468901 30.781728 -1.134062 2.174273 0.088413 -0.034813 169784.000000 0 0 1
11.042245 -22.157268 -16.378201 29.683685 -1.108463 2.155267 0.073264 -0.032692 -955995.000000 0 0 1
10.069345 -22.414968 -15.295901 28.944552 -1.148588 2.127576 0.054034 -0.026136 -752009.000000 0 0 1
10.230345 -23.746168 -14.780401 29.782557 -1.164006 2.090102 0.057974 -0.018161 129169.000000 0 0 1
9.422345 -24.113268 -13.673601 29.277938 -1.198286 2.056722 0.051231 -0.013107 13129.000000 0 0 1
9.312145 -25.626968 -13.379901 30.372344 -1.222258 2.026984 0.052588 -0.008865 603748.000000 0 0 1
10.521345 -26.201168 -12.858201 31.024720 -1.188946 1.998135 0.039400 -0.008839 557963.000000 0 0 1
10.616245 -27.595868 -13.105201 32.341658 -1.203545 1.988006 0.038106 -0.008918 -1005840.000000 0 0 1
11.942945 -28.142468 -12.519201 33.035781 -1.169456 1.959467 0.047469 -0.009706 1015970.000000 0 0 1
13.206345 -27.773168 -13.116501 33.433501 -1.126934 1.973945 0.048024 -0.003895 912588.000000 0 0 1
13.263945 -27.995568 -14.507101 34.207310 -1.128338 2.008757 0.048652 -0.008358 -995572.000000 0 0 1
14.611745 -27.643768 -15.189901 34.762251 -1.084553 2.023019 0.020071 -0.008687 330685.000000 0 0 1
15.758845 -28.340768 -14.766001 35.631097 -1.063321 1.998094 0.062780 -0.006263 -328032.000000 0 0 1
16.914245 -27.628868 -15.100701 35.741813 -1.021458 2.006992 0.071558 -0.011311 381043.000000 0 0 1
18.251945 -28.417068 -14.890001 36.910369 -0.999862 1.986036 0.069131 -0.012943 629524.000000 0 0 1
18.474745 -29.530868 -15.722001 38.217400 -1.011760 1.994768 0.045438 0.000808 270685.000000 0 0 1
19.760145 -30.142468 -15.612501 39.278262 -0.990524 1.979570 0.059603 0.001856 505586.000000 0 0 1
20.162545 -31.216268 -16.640701 40.717275 -0.997310 1.991813 0.046141 -0.005936 26470.600000 0 0 1
19.641545 -32.530568 -16.532101 41.440783 -1.027597 1.981149 0.020797 0.010898 137326.000000 0 0 1
20.202645 -33.329268 -17.569501 42.751308 -1.025865 1.994314 0.021289 0.003376 6518.960000 0 0 1
20.043945 33.406076 -17.294701 42.624316 1.030370 1.988593 0.002031 0.013155 -190933.000000 0 0 1
20.678145 32.900676 -16.057601 42.046245 1.009683 1.962651 0.033445 0.007770 361015.000000 0 0 1
20.485945 31.495376 -15.835601 40.772527 0.994110 1.969679 0.022659 -0.001693 -207057.000000 0 0 1
21.481645 30.837576 -14.822401 40.399514 0.962352 1.946466 0.046681 -0.004955 1168440.000000 0 0 1
22.871945 30.709376 -15.197701 41.196623 0.930640 1.948629 0.048758 0.002983 1109740.000000 0 0 1
23.816845 30.395676 -14.205101 41.145159 0.906160 1.923295 0.062749 -0.005049 168453.000000 0 0 1
23.665045 29.146176 -13.285801 39.825199 0.888815 1.910919 0.062433 0.006843 -920504.000000 0 0 1
23.864145 27.875076 -13.940101 39.253582 0.862766 1.933849 0.056622 0.015099 -60152.600000 0 0 1
23.643945 26.753676 -13.105601 38.033565 0.847024 1.922588 0.037098 0.013912 -369702.000000 0 0 1
22.172745 26.433176 -12.877601 36.826295 0.872827 1.928031 0.034911 0.012826 -416369.000000 0 0 1
21.408345 26.120676 -14.080401 36.590499 0.884222 1.965799 0.045499 -0.004106 1176760.000000 0 0 1
19.993045 26.034876 -13.820301 35.616532 0.915916 1.969290 0.044827 -0.013173 1344290.000000 0 0 1
19.117145 27.361576 -13.762101 36.104245 0.960953 1.961865 0.037365 -0.018327 105687.000000 0 0 1
19.039445 28.037276 -15.040201 37.078255 0.974252 1.988469 0.032834 -0.017229 -29357.900000 0 0 1
18.414245 27.384476 -16.141501 36.736113 0.978812 2.025716 0.025716 -0.011469 -476471.000000 0 0 1
18.514245 28.287076 -17.375901 38.011286 0.991255 2.045556 0.014673 -0.002694 522530.000000 0 0 1
17.700345 29.493476 -17.452701 38.571546 1.030271 2.040336 0.015569 -0.003624 392113.000000 0 0 1
18.142545 30.282876 -18.541901 39.874887 1.031037 2.054433 0.004736 -0.000945 298388.000000 0 0 1
17.144445 31.444176 -18.912501 40.501246 1.071619 2.056647 -0.002975 0.000516 410563.000000 0 0 1
17.271345 32.557676 -18.033101 41.030408 1.083060 2.025845 0.004400 -0.004304 491923.000000 0 0 1
16.255645 33.554676 -18.374201 41.566496 1.119664 2.028672 0.013590 -0.000767 742964.000000 0 0 1
16.155445 -33.417168 -17.561201 41.062164 -1.120478 2.012714 0.012639 0.004134 -398448.000000 0 0 1
15.094945 -32.646368 -18.021501 40.229556 -1.137697 2.035286 0.017407 0.003722 -400494.000000 0 0 1
14.799845 -31.654068 -17.046801 38.879414 -1.133444 2.024673 0.032271 0.000770 597847.000000 0 0 1
13.661145 -30.679068 -17.565801 37.899729 -1.151864 2.052716 0.047369 -0.004876 979724.000000 0 0 1
12.415645 -31.320168 -17.833901 38.120194 -1.193388 2.057634 0.042378 -0.000442 75325.700000 0 0 1
11.429545 -30.337868 -17.971401 37.067398 -1.210499 2.076966 0.030733 0.008061 -150399.000000 0 0 1
9.989445 -30.810568 -18.228301 37.166531 -1.257269 2.083402 0.050414 -0.010082 -658167.000000 0 0 1
9.410145 -31.561868 -17.136201 37.126159 -1.281038 2.050557 0.054971 -0.010001 1052000.000000 0 0 1
8.262845 -32.369568 -17.476901 37.702859 -1.320868 2.052786 0.079381 -0.008695 1336280.000000 0 0 1
6.950445 -31.724468 -18.052301 37.156912 -1.355116 2.078120 0.073260 -0.003077 -187932.000000 0 0 1
6.984445 -31.323568 -19.410901 37.506419 -1.351408 2.114764 0.061870 0.001874 -74247.000000 0 0 1
6.760245 -32.298268 -20.384901 38.786895 -1.364468 2.124171 0.071944 -0.012857 -829854.000000 0 0 1
7.010945 -31.674968 -21.764801 39.066143 -1.352968 2.161718 0.072491 0.002470 520350.000000 0 0 1
8.362345 -31.316968 -22.121001 39.243088 -1.309861 2.169645 0.073875 -0.005827 1174750.000000 0 0 1
9.285645 -32.358668 -22.442901 40.459738 -1.291345 2.158795 0.082342 -0.009506 91157.100000 0 0 1
8.838645 -33.244568 -23.605801 41.719981 -1.310940 2.172218 0.094273 -0.024126 -244009.000000 0 0 1
7.948145 33.962576 -23.160901 41.869523 1.340907 2.156959 0.093721 -0.034541 231731.000000 0 0 1
7.878345 32.899676 -24.120101 41.548000 1.335757 2.190183 0.108667 -0.046619 -131551.000000 0 0 1
6.853645 31.754476 -23.737201 40.233990 1.358225 2.201829 0.109589 -0.055083 1479140.000000 0 0 1
5.494745 32.227776 -23.648001 40.349098 1.401923 2.197015 0.105984 -0.043953 964776.000000 0 0 1
5.147045 32.850676 -22.378701 40.080734 1.415380 2.163181 0.079126 -0.039858 -1225240.000000 0 0 1
3.989845 33.810276 -22.522901 40.820763 1.453333 2.155259 0.081530 -0.026889 -407291.000000 0 0 1
2.771145 33.096876 -22.683001 40.219411 1.487263 2.169996 0.080641 -0.044390 -2237.810000 0 0 1
1.721645 33.999076 -22.895601 41.025721 1.520202 2.162865 0.066169 -0.032160 -54958.100000 0 0 1
0.320745 33.551376 -22.407301 40.347055 1.561237 2.159597 0.062994 -0.045391 216888.000000 0 0 1
0.221045 33.533876 -21.003201 39.568980 1.564205 2.130340 0.053883 -0.041637 56743.800000 0 0 1
-1.094955 33.133376 -20.649701 39.056750 -1.537761 2.127877 0.047395 -0.044779 422119.000000 0 0 1
-1.401355 33.467676 -19.156901 38.588029 -1.528949 2.090297 0.060857 -0.037670 49738.200000 0 0 1
-0.646255 32.680076 -18.247701 37.435059 -1.551024 2.079963 0.078001 -0.043945 -150876.000000 0 0 1
-1.215755 32.582376 -16.970501 36.757138 -1.533500 2.050699 0.056219 -0.029946 -70381.200000 0 0 1
-0.380255 31.648676 -16.102801 35.511738 -1.558782 2.041429 0.038717 -0.021749 -893679.000000 0 0 1
0.856645 32.120276 -15.761401 35.789213 1.544133 2.026835 0.035492 -0.020835 -1421170.000000 0 0 1
1.456745 31.105076 -14.953901 34.543698 1.523998 2.018502 0.053664 -0.010770 100767.000000 0 0 1
2.555645 31.645576 -14.026601 34.709067 1.490213 1.986812 0.063677 -0.015919 635643.000000 0 0 1
3.705045 32.170876 -14.741901 35.581123 1.456134 1.997990 0.059317 -0.020330 815881.000000 0 0 1
4.418645 33.067876 -13.900001 36.141650 1.437960 1.965568 0.059120 -0.027602 12451.900000 0 0 1
5.789845 33.509576 -14.472701 36.957720 1.399704 1.973168 0.070544 -0.043364 266328.000000 0 0 1
6.709645 32.435476 -14.439301 36.132712 1.366812 1.981897 0.074940 -0.030559 -713658.000000 0 0 1
7.906745 32.751776 -15.095001 36.919568 1.333915 1.992003 0.071176 -0.018224 -175994.000000 0 0 1
8.758645 31.472176 -15.175401 36.020890 1.299367 2.005668 0.066098 -0.024911 -167532.000000 0 0 1
9.469145 31.201576 -13.979501 35.477169 1.276147 1.975822 0.054402 -0.025373 108748.000000 0 0 1
10.398645 30.120176 -14.119101 34.852630 1.238370 1.987894 0.053316 -0.028119 370631.000000 0 0 1
9.879945 28.694776 -13.817501 33.345567 1.239198 1.998050 0.061319 -0.021721 -215330.000000 0 0 1
9.227645 28.008576 -14.845201 33.015296 1.252538 2.037165 0.074479 -0.025492 -56403.900000 0 0 1
8.703645 26.756976 -14.501301 31.654019 1.256307 2.046674 0.067991 -0.019843 -419370.000000 0 0 1
7.858845 26.053976 -15.553401 31.344528 1.277838 2.090022 0.070144 -0.016973 -304772.000000 0 0 1
8.582445 25.673476 -16.699201 31.806431 1.248183 2.123542 0.073713 -0.013432 -481213.000000 0 0 1
7.843245 24.882776 -17.580601 31.460238 1.265446 2.163758 0.063476 -0.009222 229914.000000 0 0 1
8.686345 23.852376 -18.452701 31.382967 1.221553 2.199361 0.069558 -0.007957 245658.000000 0 0 1
7.851645 22.901976 -19.120401 30.850261 1.240517 2.239260 0.078175 -0.013031 384062.000000 0 0 1
8.629945 21.835876 -19.721201 30.662799 1.194419 2.269419 0.077955 -0.008481 397884.000000 0 0 1
7.786345 20.780176 -20.507101 30.215627 1.212288 2.316776 0.070150 -0.018111 169875.000000 0 0 1
6.916245 20.032176 -19.676901 28.918903 1.238353 2.319127 0.062790 -0.020722 -342727.000000 0 0 1
6.040445 19.286076 -20.469901 28.765545 1.267272 2.362586 0.057270 -0.027908 -464077.000000 0 0 1
25.687745 -12.651524 -9.295301 30.105214 -0.457639 1.884686 0.085326 -0.007266 114284.000000 0 0 1
26.109645 -11.978524 -8.112301 29.849757 -0.430129 1.846029 0.095599 -0.016747 1114140.000000 0 0 1
25.053345 -12.160424 -7.138001 28.748862 -0.451884 1.821709 0.088597 -0.007101 429170.000000 0 0 1
25.276545 -11.345024 -5.829901 28.312559 -0.421886 1.778192 0.069597 -0.012793 -358341.000000 0 0 1
25.252645 -9.899624 -5.890501 27.756019 -0.373611 1.784647 0.079743 -0.019035 283573.000000 0 0 1
26.320745 -9.349724 -6.624201 28.706776 -0.341320 1.803649 0.072012 -0.029381 -1255050.000000 0 0 1
26.640845 -7.906424 -6.222201 28.477393 -0.288498 1.791069 0.114081 -0.029549 -293991.000000 0 0 1
27.269845 -7.722924 -4.973101 28.775332 -0.275977 1.744494 0.117084 -0.029392 -740525.000000 0 0 1
28.579445 -8.149924 -4.983401 30.133705 -0.277794 1.736936 0.095114 -0.025686 -1783740.000000 0 0 1
29.279345 -8.093324 -3.628701 30.593290 -0.269684 1.689687 0.102884 -0.028941 -342092.000000 0 0 1
29.676045 -6.790324 -3.269601 30.618073 -0.224943 1.677787 0.120172 -0.019757 462292.000000 0 0 1
30.398645 -6.838324 -2.035501 31.224726 -0.221272 1.636031 0.108440 -0.015578 8168.840000 0 0 1
30.720045 -5.430524 -1.481601 31.231504 -0.174967 1.618253 0.105849 -0.024096 -886151.000000 0 0 1
29.597545 -4.707924 -1.130101 29.990937 -0.157743 1.608487 0.143143 -0.019735 -663551.000000 0 0 1
29.858745 -3.402624 -0.667801 30.059415 -0.113468 1.593014 0.137795 -0.015688 -283290.000000 0 0 1
30.575345 -3.326724 0.713499 30.764068 -0.108378 1.547602 0.130293 -0.028832 33956.500000 0 0 1
29.798445 -3.480824 1.909899 30.061789 -0.116285 1.507221 0.148247 -0.042698 385199.000000 0 0 1
30.572045 -3.268024 3.053799 30.897501 -0.106491 1.471798 0.108908 -0.036451 -411530.000000 0 0 1
29.986245 -3.986724 4.273299 30.550449 -0.132177 1.430459 0.115773 -0.036599 -234768.000000 0 0 1
30.203445 -5.382724 4.246099 30.971780 -0.176364 1.433267 0.101233 -0.045085 197612.000000 0 0 1
29.836345 -5.944124 5.473199 30.911098 -0.196650 1.392795 0.103093 -0.047203 8209.460000 0 0 1
30.663545 -7.255824 5.798399 32.039372 -0.232353 1.388816 0.068669 -0.035432 -424154.000000 0 0 1
32.017945 -6.958124 5.929499 33.297496 -0.213992 1.391765 0.070568 -0.040492 -659345.000000 0 0 1
32.743245 -8.161824 5.788799 34.238073 -0.244289 1.400905 0.072019 -0.041885 -25418.500000 0 0 1
34.277445 -8.174324 5.821299 35.716247 -0.234103 1.407079 0.088620 -0.041993 115726.000000 0 0 1
35.028545 -7.676024 4.723599 36.169499 -0.215726 1.439826 0.093147 -0.041542 -896143.000000 0 0 1
36.331445 -7.421924 5.091599 37.429710 -0.201511 1.434342 0.108979 -0.041947 -1166360.000000 0 0 1
-36.051426 -7.215624 3.894699 36.972141 0.197538 1.465259 0.107845 -0.036651 -380799.000000 0 0 1
-35.642026 -8.352824 3.164699 36.744237 0.230199 1.484562 0.121281 -0.033469 350129.000000 0 0 1
-34.801226 -8.022924 2.063199 35.773585 0.226577 1.513090 0.143276 -0.034207 -46140.700000 0 0 1
-34.501626 -9.313024 1.201299 35.756646 0.263647 1.537193 0.132642 -0.029306 7925.550000 0 0 1
-33.733226 -10.321424 1.845599 35.325183 0.296927 1.518527 0.128192 -0.029548 407865.000000 0 0 1
-33.795426 -11.546824 1.111199 35.730865 0.329233 1.539692 0.113444 -0.030145 -746092.000000 0 0 1
-33.463226 -12.752624 2.027199 35.868181 0.364102 1.514248 0.084250 -0.031215 759945.000000 0 0 1
-32.132526 -12.792724 2.533099 34.678085 0.378888 1.497685 0.087322 -0.028020 585281.000000 0 0 1
-31.086726 -13.081224 1.604899 33.765050 0.398306 1.523247 0.078470 -0.016431 -401818.000000 0 0 1
-29.864926 -13.553024 2.424099 32.885780 0.426018 1.497017 0.078836 -0.016522 -200684.000000 0 0 1
-29.118226 -12.487724 2.978899 31.822762 0.405138 1.477050 0.080137 -0.018785 -175382.000000 0 0 1
-27.853626 -12.898424 3.399399 30.882838 0.433677 1.460499 0.079407 -0.006055 -329585.000000 0 0 1
-26.859326 -11.767124 3.786399 29.567303 0.412916 1.442383 0.089395 -0.006604 466882.000000 0 0 1
-25.679626 -12.284224 4.418999 28.807514 0.446190 1.416791 0.087390 0.000572 630587.000000 0 0 1
-24.896626 -11.231424 4.968199 27.760941 0.423787 1.390863 0.082467 0.003155 60417.300000 0 0 1
-23.508226 -11.755224 5.402099 26.832902 0.463685 1.368087 0.084079 0.005876 -26786.700000 0 0 1
-23.460726 -12.329224 6.679099 27.331772 0.483859 1.323925 0.080474 0.000969 -416462.000000 0 0 1
-22.123126 -12.683124 6.889399 26.415112 0.520554 1.306932 0.075874 -0.003337 -276109.000000 0 0 1
-21.651526 -12.348924 8.369799 26.293307 0.518332 1.246835 0.072216 -0.004308 -426572.000000 0 0 1
-21.432526 -10.953924 8.547599 25.542182 0.472479 1.229566 0.065822 -0.003165 325001.000000 0 0 1
-22.564126 -10.222324 8.989099 26.352221 0.425374 1.222695 0.070602 0.000001 -248468.000000 0 0 1
-22.944426 -10.490224 10.484499 27.320618 0.428826 1.176934 0.079690 -0.002877 -123399.000000 0 0 1
-23.603626 -11.746824 10.752499 28.473413 0.461782 1.183558 0.058944 -0.009981 754741.000000 0 0 1
-24.975526 -11.911324 10.439799 29.574413 0.445014 1.210020 0.064213 -0.011784 793155.000000 0 0 1
-26.097526 -11.251224 11.330899 30.595100 0.407045 1.191410 0.092939 -0.015593 70668.800000 0 0 1
-26.220926 -11.964924 12.512899 31.420837 0.428091 1.161204 0.072742 -0.019536 43211.800000 0 0 1
-27.320426 -11.604724 13.306099 32.528872 0.401670 1.149378 0.076536 -0.026362 -260276.000000 0 0 1
-27.311326 -12.415124 14.634999 33.380039 0.426654 1.116939 0.073301 -0.033133 -52477.200000 0 0 1
-27.451426 -13.798224 14.365999 33.916864 0.465759 1.133419 0.056221 -0.025365 370594.000000 0 0 1
-26.922826 -14.445124 15.500999 34.260489 0.492449 1.101291 0.024168 -0.015733 -452682.000000 0 0 1
-26.959126 -15.952724 15.429799 34.919372 0.534322 1.113115 0.029060 -0.009198 1068390.000000 0 0 1
-28.199526 -16.592624 15.879299 36.368675 0.531847 1.118958 0.028778 -0.005182 1048340.000000 0 0 1
-28.087926 -18.006824 15.829899 36.929162 0.570084 1.127792 0.023108 -0.006728 -180888.000000 0 0 1
-29.260826 -18.813524 16.423099 38.468985 0.571410 1.129715 0.015257 -0.000236 -109834.000000 0 0 1
-29.355926 -18.672324 17.877199 39.115474 0.566518 1.096136 0.018194 0.000389 171090.000000 0 0 1
-30.049126 -19.779824 18.469599 40.439059 0.582153 1.096484 0.018973 0.007680 360245.000000 0 0 1
-29.161326 -21.042124 18.681999 40.523709 0.625060 1.091659 0.014380 0.005562 189082.000000 0 0 1
-28.016026 -20.966724 19.501599 40.060124 0.642466 1.062364 0.026112 0.006355 140280.000000 0 0 1
-27.396126 -22.222424 19.668799 40.388680 0.681504 1.062159 0.031703 -0.001678 -338828.000000 0 0 1
-25.984026 -22.088624 20.258899 39.667365 0.704543 1.034775 0.040094 0.001191 -653570.000000 0 0 1
-25.020726 -21.750124 19.326799 38.374858 0.715584 1.042999 0.039692 -0.007375 -904266.000000 0 0 1
-23.770026 -21.630324 19.944699 37.824278 0.738303 1.015378 0.057480 -0.000178 121020.000000 0 0 1
-22.625026 -21.336324 18.920699 36.402244 0.756092 1.024218 0.065682 -0.007657 365391.000000 0 0 1
-22.240926 -22.446524 18.078299 36.405083 0.789999 1.051134 0.071556 -0.010927 319515.000000 0 0 1
-20.959126 -22.268924 17.508399 35.238245 0.815689 1.050822 0.084326 -0.020891 42878.600000 0 0 1
-20.659626 -23.217724 16.335099 35.110088 0.843633 1.086875 0.084970 -0.021999 -468948.000000 0 0 1
-20.483526 -24.573324 16.657399 36.067880 0.875920 1.090734 0.098599 -0.027738 1576040.000000 0 0 1
-19.194626 -25.044624 17.199199 35.937157 0.916871 1.071747 0.109322 -0.023619 2329920.000000 0 0 1
-17.913726 -24.993324 16.268899 34.788574 0.948923 1.084165 0.117677 -0.025001 876351.000000 0 0 1
-17.306826 -23.686424 16.282499 33.551344 0.939785 1.064089 0.116474 -0.030681 -330028.000000 0 0 1
-15.989126 -23.780124 15.822599 32.733791 0.978853 1.066294 0.110725 -0.033100 -60428.800000 0 0 1
-15.182826 -22.439124 15.827399 31.377365 0.975933 1.042085 0.103100 -0.030822 -70269.700000 0 0 1
-15.665326 -21.486924 14.921499 30.491662 0.940830 1.059437 0.110630 -0.022712 189996.000000 0 0 1
-16.756026 -20.684724 15.400299 30.753722 0.889947 1.046317 0.098320 -0.013078 248659.000000 0 0 1
-16.456726 -19.436224 16.308099 30.241440 0.868219 1.001234 0.100571 -0.023593 -300095.000000 0 0 1
-15.829726 -18.418724 15.557999 28.842346 0.860849 1.001054 0.095913 -0.022118 -83672.900000 0 0 1
-15.385826 -17.406824 16.437199 28.458789 0.846950 0.955036 0.086226 -0.024150 -494041.000000 0 0 1
-14.692426 -16.301124 15.636799 26.946307 0.837256 0.951706 0.079599 -0.023535 -162881.000000 0 0 1
-15.503626 -15.509124 14.801699 26.457241 0.785575 0.977065 0.057512 -0.020158 -59985.600000 0 0 1
-15.739126 -16.035124 13.506899 26.216056 0.794714 1.029538 0.088221 -0.025168 -38955.600000 0 0 1
-16.571026 -15.180224 12.524999 25.727683 0.741623 1.062340 0.059512 -0.020047 956566.000000 0 0 1
-17.992126 -15.245924 12.774599 26.820611 0.702963 1.074357 0.044367 -0.018451 904128.000000 0 0 1
-18.645426 -14.251624 11.974199 26.346577 0.652622 1.098999 0.061733 -0.020878 -88249.900000 0 0 1
-20.175226 -14.456524 12.019599 27.577193 0.621746 1.119811 0.048661 -0.025042 -23419.300000 0 0 1
-20.680526 -15.630924 11.401099 28.319516 0.647221 1.156454 0.055428 -0.027344 91232.300000 0 0 1
-21.017926 -15.490824 10.004299 27.960773 0.635148 1.204888 0.067921 -0.022705 -71265.300000 0 0 1
-21.818026 -16.704424 9.469999 29.064495 0.653426 1.238910 0.072039 -0.013325 567281.000000 0 0 1
-21.009626 -17.898424 9.482499 29.183484 0.705605 1.239862 0.070523 -0.002431 955930.000000 0 0 1
-21.824426 -19.030824 9.055299 30.339351 0.717126 1.267710 0.068993 -0.014936 875139.000000 0 0 1
-21.036526 -20.395624 9.133199 30.690914 0.769931 1.268633 0.061318 -0.009401 865126.000000 0 0 1
-20.010326 -20.624224 8.161799 29.872842 0.800505 1.294060 0.082270 -0.009305 101343.000000 0 0 1
-19.545726 -21.941524 8.235899 30.517141 0.843082 1.297530 0.075168 -0.013864 320337.000000 0 0 1
-18.235726 -22.331424 7.488899 29.787880 0.886018 1.316662 0.085571 -0.019793 677763.000000 0 0 1
-17.065626 -21.779824 8.065099 28.820863 0.906165 1.287174 0.074380 -0.016415 -593296.000000 0 0 1
-15.884426 -22.240624 7.535999 28.350513 0.950598 1.301747 0.091586 -0.014215 -345730.000000 0 0 1
-14.587826 -21.882724 8.283799 27.573168 0.982814 1.265653 0.061501 -0.003477 -235657.000000 0 0 1
-13.371026 -22.291424 7.768999 27.130227 1.030503 1.280371 0.077598 -0.003916 -664017.000000 0 0 1
-12.278226 -22.015924 8.613699 26.639285 1.062063 1.241533 0.071590 -0.009094 646681.000000 0 0 1
-10.875426 -22.244424 7.978599 26.014367 1.116063 1.259073 0.061036 -0.007807 451719.000000 0 0 1
-10.572426 -23.626524 7.971399 27.083796 1.150039 1.272049 0.055526 0.001254 712528.000000 0 0 1
-9.334426 -24.045524 7.332099 26.815637 1.200505 1.293843 0.073115 -0.004935 1198050.000000 0 0 1
-9.217426 -25.580464 7.231299 28.135613 1.224948 1.310863 0.067663 -0.002482 -121218.000000 0 0 1
-10.130726 -26.184104 6.346199 28.783904 1.201631 1.348492 0.069645 -0.005948 -179483.000000 0 0 1
-10.311926 -27.587584 6.565499 30.174764 1.213088 1.351459 0.083037 -0.007284 455298.000000 0 0 1
-9.220326 -28.404384 5.809299 30.423205 1.256918 1.378667 0.084827 -0.008779 816562.000000 0 0 1
-7.854226 -28.089384 6.143399 29.806772 1.298144 1.363201 0.079951 -0.006846 567429.000000 0 0 1
-6.941226 -29.017974 5.576199 30.353211 1.336004 1.386037 0.069226 0.000154 326840.000000 0 0 1
-6.897226 -30.379594 6.293899 31.782143 1.347546 1.371446 0.080641 -0.008913 -681160.000000 0 0 1
-6.478226 -30.294774 7.659599 31.912539 1.360129 1.328411 0.080929 -0.010151 190031.000000 0 0 1
-6.530226 -31.559624 8.237599 33.264271 1.366759 1.320552 0.115508 -0.020208 -33597.700000 0 0 1
-6.650226 -31.535074 9.794199 33.684013 1.362958 1.275768 0.099155 -0.018092 -787377.000000 0 0 1
-5.580226 -30.970594 10.432099 33.153360 1.392531 1.250696 0.083542 -0.012843 -486815.000000 0 0 1
-5.753226 -31.285824 11.785599 33.923483 1.388936 1.215981 0.072267 -0.010345 228108.000000 0 0 1
-5.003226 -30.357334 12.765099 33.309874 1.407454 1.177514 0.073104 -0.012887 149099.000000 0 0 1
-5.654226 -29.122404 12.721799 32.278922 1.379028 1.165685 0.064732 -0.014006 326834.000000 0 0 1
-4.988226 -28.181264 13.578699 31.677233 1.395606 1.127789 0.059625 -0.021784 154908.000000 0 0 1
-5.843226 -27.705654 14.772699 31.937113 1.362939 1.089920 0.060384 -0.022733 61556.500000 0 0 1
-6.343226 -28.754924 15.589599 33.318429 1.353677 1.083886 0.044189 -0.019999 -88822.600000 0 0 1
-5.384226 -29.251924 16.482299 34.004869 1.388770 1.064772 0.036907 -0.012392 73065.800000 0 0 1
-5.786226 -30.667754 17.051799 35.563399 1.384314 1.070739 0.041084 -0.013351 124356.000000 0 0 1
-5.812226 -31.757214 16.135299 36.092249 1.389779 1.107324 0.046403 -0.006747 112742.000000 0 0 1
-6.360226 -32.941894 16.682499 37.469009 1.380069 1.109360 0.041966 -0.009741 87051.800000 0 0 1
-5.817226 34.008169 15.987799 38.026378 -1.401382 1.136866 0.033080 -0.013359 -245142.000000 0 0 1
-6.305226 33.759476 14.697499 37.356052 -1.386155 1.166422 0.045609 -0.013460 149256.000000 0 0 1
-5.653226 32.702345 14.000599 36.019705 -1.399619 1.171584 0.052077 -0.021211 184698.000000 0 0 1
-4.296226 33.018633 13.330199 35.866167 -1.441408 1.189994 0.071957 -0.018879 78900.900000 0 0 1
-4.525226 33.467349 11.991499 35.837650 -1.436398 1.229609 0.079948 -0.020478 217424.000000 0 0 1
-3.364226 33.902136 11.315499 35.898654 -1.471887 1.250122 0.091635 -0.025257 -397793.000000 0 0 1
-3.736226 -33.960024 9.855099 35.557918 1.461219 1.289963 0.083873 -0.022173 -340278.000000 0 0 1
-4.091226 33.390671 8.780699 34.767452 -1.448878 1.315476 0.088192 -0.029188 717323.000000 0 0 1
-5.053226 32.352168 9.026099 33.965694 -1.415854 1.301823 0.105078 -0.034164 258143.000000 0 0 1
-6.503226 32.693601 9.411799 34.637342 -1.374445 1.295612 0.116453 -0.020992 -342801.000000 0 0 1
-7.217226 33.198304 8.268599 34.965490 -1.356730 1.332056 0.113679 -0.018093 -472824.000000 0 0 1
-8.513526 33.520816 8.719699 35.667330 -1.322078 1.323820 0.097742 -0.019489 -367170.000000 0 0 1
-9.548526 33.652975 7.608399 35.799230 -1.294328 1.356633 0.110707 -0.029552 -346471.000000 0 0 1
-9.403426 -33.450064 6.797399 35.405308 1.296751 1.377609 0.110613 -0.022588 -390529.000000 0 0 1
-10.090726 -33.520014 5.620099 35.454190 1.278389 1.411608 0.098059 -0.010935 -820947.000000 0 0 1
-10.151726 -32.261984 4.726099 34.150097 1.265940 1.431959 0.081332 -0.010194 69801.600000 0 0 1
-11.057726 -31.264474 5.157799 33.561041 1.230844 1.416501 0.090482 -0.015900 378959.000000 0 0 1
-12.411726 -31.474664 4.764499 34.167321 1.195179 1.430894 0.088952 -0.012913 501371.000000 0 0 1
-13.380426 -30.452694 5.468499 33.709150 1.156806 1.407850 0.083821 -0.018069 82769.300000 0 0 1
-13.738826 -30.781484 6.783799 34.384226 1.150995 1.372200 0.081500 -0.017818 60589.300000 0 0 1
-14.336026 -29.652124 7.416999 33.760657 1.120457 1.349296 0.070970 -0.020366 -45166.700000 0 0 1
33.405325 -12.858124 -12.346001 37.863846 -0.367433 1.902932 0.055713 -0.021508 -454672.000000 0 0 1
32.428145 -13.000424 -11.360001 36.737518 -0.381281 1.885170 0.056576 -0.023489 -172671.000000 0 0 1
32.275195 -14.358524 -10.936801 36.979305 -0.418586 1.871042 0.056172 -0.023522 -447713.000000 0 0 1
33.336665 -15.022824 -10.046701 37.920373 -0.423386 1.838940 0.058253 -0.025376 13351.000000 0 0 1
34.592305 -15.059324 -10.716801 39.220666 -0.410594 1.847560 0.055135 -0.027650 -940922.000000 0 0 1
35.517095 -15.567324 -9.859801 40.012764 -0.413086 1.819777 0.050578 -0.026494 -483137.000000 0 0 1
-36.335575 -15.556724 -10.484001 40.892542 0.404527 1.830071 0.032594 -0.028529 294015.000000 0 0 1
-35.733037 -14.295024 -10.695601 39.944881 0.380550 1.841863 0.042039 -0.018699 -238798.000000 0 0 1
-34.380113 -14.385224 -11.051501 38.872388 0.396282 1.859075 0.052909 -0.021094 -120628.000000 0 0 1
-33.671595 -13.031224 -11.165601 37.792324 0.369258 1.870719 0.071525 -0.023391 -245891.000000 0 0 1
-33.614685 -12.312124 -9.946001 37.154521 0.351097 1.841794 0.086815 -0.022932 656941.000000 0 0 1
-32.993215 -11.017724 -10.237301 36.259410 0.322296 1.857024 0.092458 -0.018626 211791.000000 0 0 1
-33.382135 -9.956024 -9.170201 36.021965 0.289845 1.828202 0.100522 -0.034392 158698.000000 0 0 1
-32.603845 -9.970924 -7.981701 35.016248 0.296788 1.800761 0.105902 -0.029649 473786.000000 0 0 1
-32.940035 -8.822324 -7.191001 34.850966 0.261688 1.778625 0.120268 -0.040786 -89927.400000 0 0 1
-32.398155 -8.934424 -5.774801 34.100040 0.269081 1.740965 0.107857 -0.028816 255643.000000 0 0 1
-31.108035 -8.307224 -5.632401 32.687058 0.260955 1.743974 0.121243 -0.040644 709384.000000 0 0 1
-30.568735 -8.443624 -4.308201 32.004733 0.269498 1.705818 0.135137 -0.034412 -661959.000000 0 0 1
-30.104715 -9.824124 -3.790201 31.893148 0.315436 1.689918 0.121207 -0.029988 -547088.000000 0 0 1
-31.026565 -10.907824 -3.660401 33.091191 0.338067 1.681639 0.127873 -0.031350 -237712.000000 0 0 1
-31.844775 -10.777424 -2.561901 33.716553 0.326336 1.646853 0.102351 -0.029939 -251240.000000 0 0 1
-32.672805 -12.058724 -2.214601 34.897414 0.353566 1.634299 0.100029 -0.024128 338300.000000 0 0 1
-33.764415 -12.402724 -3.075301 36.101534 0.352030 1.656084 0.095614 -0.031032 612893.000000 0 0 1
-34.224641 -13.681924 -2.619801 36.951109 0.380307 1.641755 0.086402 -0.024460 622409.000000 0 0 1
-35.752127 -13.685124 -2.258301 38.348366 0.365572 1.629720 0.075339 -0.021257 519807.000000 0 0 1
-36.080745 -13.087924 -1.043801 38.395357 0.347979 1.597985 0.090244 -0.018976 709571.000000 0 0 1
35.815765 -12.727724 -1.127401 38.026767 -0.341448 1.600448 0.113158 -0.028176 554103.000000 0 0 1
35.221505 -11.654424 -0.220001 37.100248 -0.319549 1.576726 0.107944 -0.032019 -86272.400000 0 0 1
35.336575 -11.950024 1.168199 37.320789 -0.326104 1.539490 0.123419 -0.025383 146282.000000 0 0 1
35.324605 -10.808124 2.060899 36.998521 -0.296921 1.515065 0.110570 -0.028070 -210455.000000 0 0 1
35.735495 -11.130424 3.500899 37.592130 -0.301943 1.477533 0.112529 -0.039459 -205401.000000 0 0 1
34.748035 -11.744724 4.272999 36.927266 -0.325942 1.454823 0.105132 -0.041399 -291507.000000 0 0 1
35.190905 -11.920724 5.634599 37.579943 -0.326613 1.420292 0.100152 -0.041198 105345.000000 0 0 1
34.027495 -12.433924 6.515399 36.809283 -0.350335 1.392855 0.091821 -0.029149 442322.000000 0 0 1
33.166735 -11.355224 6.890499 35.727474 -0.329859 1.376717 0.079268 -0.033193 198659.000000 0 0 1
32.862695 -11.288724 8.299599 35.724996 -0.330883 1.336335 0.070764 -0.021083 -798168.000000 0 0 1
32.211645 -10.011024 8.856699 34.874802 -0.301325 1.314027 0.057782 -0.030628 -840209.000000 0 0 1
30.876435 -9.968324 8.476699 33.534701 -0.312282 1.315250 0.068419 -0.031139 -938220.000000 0 0 1
30.186655 -8.965224 9.142599 32.790189 -0.288696 1.288230 0.069211 -0.018684 -69432.400000 0 0 1
28.664175 -9.090324 8.854999 31.347726 -0.307099 1.284421 0.062113 -0.021648 129631.000000 0 0 1
28.327555 -8.584324 7.568999 30.552099 -0.294242 1.320449 0.081355 -0.025448 148985.000000 0 0 1
27.523615 -9.570624 6.918299 29.950110 -0.334646 1.337697 0.106222 -0.038808 19501.100000 0 0 1
26.572815 -8.998324 5.820099 28.652362 -0.326509 1.366245 0.112703 -0.039620 -47523.400000 0 0 1
25.525115 -8.277724 6.444099 27.596714 -0.313596 1.335111 0.127923 -0.035725 197824.000000 0 0 1
24.597315 -7.718524 5.523599 26.365008 -0.304065 1.359728 0.141551 -0.040231 73716.000000 0 0 1
24.987515 -6.350024 4.817999 26.228073 -0.248860 1.386051 0.140106 -0.037213 -391628.000000 0 0 1
25.902615 -6.539424 3.774599 26.980681 -0.247294 1.430436 0.131238 -0.037689 16139.600000 0 0 1
26.327215 -5.320324 3.198599 27.049198 -0.199399 1.452268 0.135901 -0.040593 327888.000000 0 0 1
27.005215 -5.491224 1.789099 27.615866 -0.200604 1.505966 0.136894 -0.043083 1066410.000000 0 0 1
26.004015 -5.830524 0.824199 26.662391 -0.220568 1.539879 0.146290 -0.042431 1027940.000000 0 0 1
26.715815 -5.651024 -0.410801 27.310027 -0.208451 1.585839 0.138634 -0.040951 132928.000000 0 0 1
25.906215 -5.883024 -1.707901 26.620647 -0.223302 1.634997 0.148762 -0.038542 683929.000000 0 0 1
24.743015 -5.033624 -1.751601 25.310517 -0.200697 1.640056 0.155858 -0.031868 743881.000000 0 0 1
23.974015 -5.201624 -2.923001 24.705348 -0.213658 1.689389 0.137988 -0.030664 498817.000000 0 1 0
22.576915 -4.489324 -2.884001 23.198892 -0.196285 1.695435 0.099127 -0.024381 248747.000000 0 1 0
22.433015 -3.099424 -3.053101 22.850996 -0.137294 1.704806 0.086464 -0.022956 210898.000000 0 1 0
22.963315 -2.527124 -4.252701 23.490118 -0.109609 1.752842 0.096824 -0.019725 -454981.000000 0 1 0
22.100515 -1.452524 -4.876601 22.678709 -0.065629 1.787519 0.074323 -0.012246 -340916.000000 0 1 0
22.038515 -0.185124 -4.305801 22.455964 -0.008400 1.763735 0.072834 -0.005512 310827.000000 0 1 0
21.135815 0.644076 -4.997601 21.728174 0.030464 1.802880 0.070909 -0.000383 -825458.000000 0 1 0
20.949415 2.060076 -4.397801 21.504943 0.098021 1.776751 0.071587 0.009389 -146527.000000 0 1 0
22.073415 2.915476 -4.503101 22.715932 0.131321 1.770354 0.092305 0.006715 1021960.000000 0 1 0
23.187415 2.611376 -3.649801 23.617717 0.112148 1.725955 0.125925 0.007076 350104.000000 0 1 0
24.384215 3.578176 -3.693601 24.920593 0.145702 1.719559 0.121435 -0.000154 139532.000000 0 1 0
23.956315 4.862476 -3.283501 24.664348 0.200252 1.704320 0.106736 0.006610 593210.000000 0 1 0
24.970515 5.431076 -2.498401 25.676160 0.214164 1.668255 0.104653 -0.005518 -16660.000000 0 0 1
24.711215 6.968376 -2.436301 25.790269 0.274855 1.665403 0.093656 -0.007946 253023.000000 0 0 1
23.620415 7.306276 -1.588501 24.775573 0.299986 1.634956 0.101215 -0.013640 627428.000000 0 1 0
22.961815 8.474276 -2.063101 24.562465 0.353552 1.654889 0.104707 -0.008877 -457204.000000 0 1 0
21.788915 8.834076 -1.162301 23.540362 0.385186 1.620191 0.084313 -0.005847 -300496.000000 0 1 0
22.290315 9.456376 0.052499 24.213301 0.401224 1.568628 0.072856 -0.013752 1253140.000000 0 1 0
21.207515 10.003876 0.806899 23.462466 0.440764 1.536398 0.053045 -0.009182 423769.000000 0 1 0
21.736915 10.674776 2.139299 24.310922 0.456494 1.482685 0.072507 -0.012811 -584383.000000 0 1 0
22.470815 11.844876 1.992599 25.479581 0.485110 1.492513 0.080169 -0.024221 412386.000000 0 0 1
21.775715 13.048976 1.560599 25.434092 0.539864 1.509399 0.075181 -0.020559 547231.000000 0 0 1
20.671515 13.687776 2.505899 24.918794 0.584874 1.470063 0.063719 -0.015126 884330.000000 0 1 0
19.350815 13.133676 2.426099 23.512411 0.596297 1.467429 0.081300 -0.008999 1528630.000000 0 1 0
18.377515 13.893276 3.205699 23.260109 0.647326 1.432537 0.076221 -0.014083 504288.000000 0 1 0
18.415415 13.765176 4.751099 23.477234 0.641887 1.367018 0.075196 -0.012195 -468428.000000 0 1 0
18.009815 12.558876 5.228199 22.570177 0.608935 1.337031 0.065373 -0.004662 162066.000000 0 1 0
18.507415 12.458376 6.518199 23.242686 0.592482 1.286543 0.089816 -0.015788 -38214.400000 0 1 0
18.466315 10.985076 7.017799 22.603677 0.536640 1.255107 0.062825 -0.016494 -50389.100000 0 1 0
19.398215 10.110676 6.424399 22.798891 0.480477 1.285142 0.042832 -0.021757 332808.000000 0 1 0
19.319815 8.826176 6.975399 22.356494 0.428532 1.253491 0.042037 -0.018947 -173769.000000 0 1 0
20.253515 7.780276 6.358299 22.608970 0.366764 1.285722 0.042938 -0.021278 -265363.000000 0 1 0
19.841415 7.457176 5.054099 21.790712 0.359506 1.336727 0.028872 -0.020197 786570.000000 0 1 0
20.884915 6.804876 4.350299 22.392211 0.314980 1.375276 0.047956 -0.023378 32238.800000 0 1 0
20.588815 6.704176 2.858599 21.840716 0.314795 1.439536 0.054062 -0.013278 -122239.000000 0 1 0
21.506215 5.824776 2.251499 22.394521 0.264496 1.470088 0.052527 -0.015249 422983.000000 0 1 0
21.142615 5.628376 0.978799 21.900841 0.260176 1.526089 0.050629 -0.005439 -320041.000000 0 1 0
22.127615 4.652176 0.308599 22.613477 0.207225 1.557149 0.083798 -0.012621 27350.500000 0 1 0
21.944015 3.347276 0.763999 22.210983 0.151370 1.536392 0.064427 -0.008520 808223.000000 0 1 0
22.968115 2.466676 0.286599 23.101968 0.106986 1.558390 0.083966 -0.004886 243983.000000 0 1 0
22.911815 0.968176 0.737899 22.944131 0.042232 1.538630 0.112933 -0.009442 -656477.000000 0 1 0
21.904215 0.306676 0.027499 21.906379 0.014000 1.569541 0.065063 -0.017512 361502.000000 0 1 0
22.319815 -0.963224 -0.536101 22.347021 -0.043129 1.594788 0.106093 -0.017495 -997566.000000 0 1 0
22.579415 -2.147724 0.480499 22.686418 -0.094833 1.549615 0.143225 -0.017727 -305135.000000 0 1 0
23.617715 -2.039824 1.421399 23.748215 -0.086155 1.510908 0.157106 -0.019632 -198799.000000 0 1 0
24.834315 -2.307724 0.760599 24.952902 -0.092659 1.540310 0.167849 -0.025472 -857481.000000 0 1 0
26.002615 -1.802724 1.653399 26.117418 -0.069218 1.507448 0.167785 -0.028057 -129842.000000 0 0 1
25.748815 -0.445424 1.925199 25.824528 -0.017297 1.496178 0.151498 -0.026950 371097.000000 0 0 1
26.267715 -0.114724 3.179199 26.459655 -0.004367 1.450353 0.143733 -0.032835 -369004.000000 0 0 1
25.930915 1.349376 3.639999 26.219892 0.051990 1.431521 0.113983 -0.022545 147888.000000 0 0 1
26.529315 2.422676 2.874099 26.794297 0.091068 1.463324 0.150687 -0.021307 801954.000000 0 0 1
27.946515 2.533276 2.824999 28.202940 0.090400 1.470461 0.165110 -0.021878 589136.000000 0 0 1
28.498715 3.672076 1.881499 28.795849 0.128145 1.505411 0.181536 -0.023489 -282960.000000 0 0 1
27.934215 3.496276 0.598799 28.158531 0.124514 1.549529 0.197295 -0.019335 238926.000000 0 0 1
28.333905 4.402376 -0.410501 28.676813 0.154142 1.585112 0.181581 -0.014535 477685.000000 0 0 1
29.772665 4.051776 -0.953801 30.062239 0.135260 1.602529 0.165068 -0.021493 656101.000000 0 0 1
30.794555 4.355976 -0.022501 31.101120 0.140521 1.571520 0.157454 -0.026636 73343.100000 0 0 1
32.067965 3.923976 -0.451801 32.310309 0.121759 1.584780 0.129222 -0.029424 310348.000000 0 0 1
33.314815 4.300376 0.377299 33.593340 0.128373 1.559565 0.095050 -0.028522 -105713.000000 0 0 1
33.343485 3.554276 1.553899 33.568370 0.106195 1.524489 0.099688 -0.024614 326727.000000 0 0 1
32.467425 3.967976 2.600199 32.812186 0.121611 1.491468 0.105189 -0.015793 45349.500000 0 0 1
32.372725 2.918976 3.733099 32.717729 0.089925 1.456447 0.107584 -0.017703 -31951.800000 0 0 1
31.582515 1.792276 3.331299 31.808255 0.056688 1.465873 0.133274 -0.020192 391641.000000 0 0 1
31.746635 0.626476 4.119099 32.018874 0.019731 1.441793 0.111166 -0.022469 487789.000000 0 0 1
33.061215 -0.183224 3.820399 33.281721 -0.005542 1.455753 0.104069 -0.027412 150520.000000 0 0 1
34.215485 0.409176 4.321599 34.489753 0.011958 1.445165 0.099075 -0.023256 -484134.000000 0 0 1
35.329745 -0.438424 4.154399 35.575864 -0.012409 1.453754 0.085197 -0.031917 -237471.000000 0 0 1
-36.613955 0.230676 4.607099 36.903391 -0.006300 1.445628 0.092472 -0.040779 276430.000000 0 0 1
-36.062055 1.317976 3.906999 36.297018 -0.036531 1.462948 0.087102 -0.041422 261998.000000 0 0 1
-35.731743 1.095876 2.557899 35.839940 -0.030660 1.499366 0.112505 -0.038594 -813567.000000 0 0 1
-35.607525 2.387076 1.687799 35.727338 -0.066938 1.523538 0.098995 -0.034906 -204151.000000 0 0 1
-34.474618 3.179776 1.826399 34.669093 -0.091975 1.518091 0.131617 -0.047163 -132436.000000 0 0 1
-33.303015 2.753376 1.151499 33.436475 -0.082489 1.536351 0.156237 -0.046006 86245.900000 0 0 1
-32.091625 3.674076 1.522199 32.337105 -0.113991 1.523706 0.156070 -0.037548 87947.800000 0 0 1
-31.752985 3.411276 2.880499 32.065342 -0.107021 1.480843 0.164093 -0.042611 89603.000000 0 0 1
-31.035935 4.500876 3.434599 31.548116 -0.144017 1.461712 0.182189 -0.034539 -340226.000000 0 0 1
-31.207245 4.545276 5.010299 31.932034 -0.144631 1.413240 0.175958 -0.026242 1249170.000000 0 0 1
-32.487865 4.861976 5.635399 33.329535 -0.148553 1.400899 0.161331 -0.013355 2159650.000000 0 0 1
-33.633595 4.000076 5.410699 34.300073 -0.118375 1.412389 0.151260 -0.013000 488197.000000 0 0 1
-33.776085 2.916476 6.483799 34.516220 -0.086134 1.381826 0.125216 -0.014041 -395819.000000 0 0 1
-33.900185 3.526776 7.730899 34.948927 -0.103661 1.347746 0.113893 -0.008249 157435.000000 0 0 1
-33.746385 2.631576 8.835499 34.982992 -0.077823 1.315465 0.096920 -0.013940 -132516.000000 0 0 1
-34.880133 1.662276 9.277999 36.131262 -0.047621 1.311101 0.078821 -0.007514 -193689.000000 0 0 1
-35.064213 0.652976 8.309199 36.041201 -0.018620 1.338156 0.081346 -0.015150 422969.000000 0 0 1
-35.965502 -0.415924 8.652899 36.994094 0.011564 1.334710 0.088744 -0.012532 113276.000000 0 0 1
-35.505207 -1.326524 9.840699 36.867584 0.037344 1.300601 0.091177 -0.008466 -607926.000000 0 0 1
-34.315892 -2.015524 9.644099 35.702261 0.058667 1.297273 0.109265 -0.023077 -552701.000000 0 0 1
-33.986005 -2.719524 10.800299 35.764379 0.079849 1.264022 0.111939 -0.013161 292028.000000 0 0 1
-32.710165 -3.588924 10.568899 34.562073 0.109282 1.260023 0.152118 -0.011676 221079.000000 0 0 1
-32.896045 -4.660024 9.666999 34.602261 0.140723 1.287653 0.138385 -0.027360 -248040.000000 0 0 1
-31.781555 -5.489624 9.501999 33.622778 0.171042 1.284287 0.147362 -0.037413 -52354.400000 0 0 1
-32.127135 -6.679924 8.524799 33.903487 0.205001 1.316625 0.135121 -0.020941 -643271.000000 0 0 1
-33.079855 -7.524124 8.972699 35.091289 0.223648 1.312229 0.139805 -0.026716 -1032040.000000 0 0 1
-33.516115 -8.281924 7.881899 35.412492 0.242250 1.346342 0.119138 -0.032891 -76447.000000 0 0 1
-34.491918 -9.417024 8.269299 36.698148 0.266526 1.343512 0.129062 -0.033132 -433938.000000 0 0 1
-35.618034 -8.859924 8.859999 37.757677 0.243800 1.333933 0.121243 -0.038376 -1033620.000000 0 0 1
-36.541775 -9.872824 9.081999 38.926298 0.263879 1.335313 0.107020 -0.043735 -479699.000000 0 0 1
8.252145 -23.788424 10.300599 27.204583 -1.236888 1.182476 0.096465 -0.023811 286450.000000 0 0 1
7.456545 -24.329924 9.240599 27.072752 -1.273409 1.222470 0.099827 -0.030544 178258.000000 0 0 1
6.375945 -25.149384 9.653999 27.682916 -1.322505 1.214575 0.108941 -0.029804 440192.000000 0 0 1
5.872745 -25.982194 8.482899 27.955734 -1.348502 1.262495 0.091328 -0.020167 -359471.000000 0 0 1
5.318745 -25.337724 7.365899 26.917388 -1.363886 1.293612 0.094339 -0.017649 -253388.000000 0 0 1
5.142245 -26.310414 6.364999 27.553471 -1.377784 1.337685 0.071754 -0.015255 -330547.000000 0 0 1
4.248045 -25.826854 5.193199 26.684107 -1.407774 1.374929 0.067442 -0.011749 1133350.000000 0 0 1
2.821145 -25.753094 5.262799 26.436296 -1.461686 1.370383 0.061110 -0.018702 546878.000000 0 0 1
2.159145 -27.001574 5.426399 27.625942 -1.491002 1.373087 0.050962 -0.013576 -1052270.000000 0 0 1
0.654745 -26.832544 5.391699 27.376715 -1.546400 1.372556 0.054117 -0.014006 -1005850.000000 0 0 1
0.000945 -26.258634 6.588099 27.072475 -1.570760 1.324978 0.056434 -0.024062 -111557.000000 0 0 1
-1.391955 -26.377154 6.661699 27.240962 1.518074 1.323744 0.039743 -0.022648 -57779.800000 0 0 1
-2.005655 -27.801364 6.625099 28.650138 1.498779 1.337443 0.043684 -0.012409 -1084170.000000 0 0 1
-1.790855 -28.551654 7.829899 29.659929 1.508155 1.303641 0.050516 -0.017147 177723.000000 0 0 1
-2.391355 -29.855784 7.845599 30.961909 1.490870 1.314608 0.060246 -0.015614 150783.000000 0 0 1
-2.074455 -30.510284 9.241199 31.946526 1.502909 1.277331 0.067598 -0.018399 -729571.000000 0 0 1
-0.735955 -30.704234 9.496199 32.147619 1.546832 1.270929 0.068266 -0.019289 -1163190.000000 0 0 1
-0.549655 -31.235884 10.792699 33.052457 1.553201 1.238164 0.069538 -0.012508 220952.000000 0 0 1
0.935145 -31.330394 11.210599 33.288821 -1.540957 1.227314 0.060420 -0.018279 131458.000000 0 0 1
1.636245 -32.469874 10.704999 34.228161 -1.520446 1.252705 0.063885 -0.016676 727292.000000 0 0 1
3.046545 -32.434764 10.958099 34.371140 -1.477143 1.246315 0.059610 -0.014836 936446.000000 0 0 1
3.564145 -32.960074 12.362599 35.382247 -1.463080 1.213864 0.055182 -0.015809 -326555.000000 0 0 1
3.132445 -32.148984 13.421399 34.978612 -1.473668 1.176993 0.055173 -0.008050 -143482.000000 0 0 1
3.677145 -32.545224 14.641599 35.876028 -1.458288 1.150406 0.056265 -0.004648 -627605.000000 0 0 1
3.443145 -31.546504 15.813499 35.455661 -1.462082 1.108496 0.057552 -0.004426 23884.800000 0 0 1
3.972545 -30.274844 15.542399 34.262420 -1.440326 1.099964 0.054005 -0.010707 1032080.000000 0 0 1
5.391145 -30.164344 15.846499 34.497298 -1.393938 1.093528 0.049376 -0.002178 1231760.000000 0 0 1
6.033745 -28.971554 15.018499 33.186026 -1.365467 1.101168 0.057575 -0.011843 -185741.000000 0 0 1
6.157445 -29.277124 13.647699 32.883488 -1.363502 1.142818 0.051883 -0.010462 21355.300000 0 0 1
4.971245 -29.213524 12.858899 32.303166 -1.402242 1.161385 0.055503 -0.005962 -255952.000000 0 0 1
5.197445 -29.338624 11.334799 31.878612 -1.395462 1.207282 0.054847 -0.019343 34221.300000 0 0 1
5.632545 -30.590954 10.871099 32.950156 -1.388711 1.234572 0.041735 -0.012876 -311661.000000 0 0 1
6.980245 -30.898584 11.130899 33.575932 -1.348618 1.232888 0.040810 -0.010071 -327192.000000 0 0 1
7.522445 -32.274054 10.586999 34.789169 -1.341804 1.261573 0.023841 -0.007915 -297924.000000 0 0 1
7.091145 -33.316524 11.461799 35.939504 -1.361084 1.246207 0.021919 -0.018597 287755.000000 0 0 1
7.365845 33.706994 10.935399 36.193923 1.355653 1.263866 0.022165 -0.013544 -291432.000000 0 0 1
7.021745 32.561722 11.875699 35.363864 1.358405 1.228327 0.012992 -0.013049 567995.000000 0 0 1
5.643445 32.493026 12.243899 35.178947 1.398830 1.215310 0.018026 -0.013035 533551.000000 0 0 1
5.255545 31.216470 12.747399 34.126016 1.404002 1.187975 0.032496 -0.006307 522602.000000 0 0 1
4.011245 31.224540 13.686899 34.327732 1.443032 1.160684 0.047538 -0.011560 613083.000000 0 0 1
4.348445 31.759750 14.999099 35.391576 1.434726 1.133155 0.054225 -0.008000 213728.000000 0 0 1
3.182845 31.947350 15.771999 35.770374 1.471496 1.114169 0.055037 -0.005645 -155470.000000 0 0 1
3.460545 32.185980 17.244199 36.677992 1.463691 1.081334 0.051602 -0.001200 -210283.000000 0 0 1
3.909045 33.455328 17.499699 37.957596 1.454480 1.091638 0.059337 0.001585 42333.700000 0 0 1
4.238045 33.467904 18.883499 38.660680 1.444837 1.060493 0.052697 0.000420 102532.000000 0 0 1
4.468645 -33.441624 19.609499 39.023626 -1.437958 1.044305 0.050102 -0.007833 92902.800000 0 0 1
3.248145 -32.889784 20.038699 38.650197 -1.472357 1.025744 0.040296 -0.007229 -79892.300000 0 0 1
3.467745 -31.913824 21.054699 38.390334 -1.462561 0.990302 0.044837 -0.014127 798952.000000 0 0 1
2.120145 -31.169084 21.413299 37.875271 -1.502880 0.969922 0.042027 -0.012405 898029.000000 0 0 1
1.258545 -32.078184 22.104599 38.977007 -1.531583 0.967793 0.054084 -0.013218 193523.000000 0 0 1
0.214345 -31.372404 22.807299 38.787196 -1.563964 0.942199 0.049003 -0.020128 67549.700000 0 0 1
-0.811555 -32.393804 23.295199 39.908438 1.545749 0.947498 0.030444 -0.015594 -1168570.000000 0 0 1
-1.610955 -32.885544 22.239499 39.732222 1.521849 0.976731 0.030337 -0.015598 144859.000000 0 0 1
-2.472155 -33.923624 22.700599 40.893043 1.498051 0.982288 0.028114 -0.014955 -376486.000000 0 0 1
-3.780655 -33.585804 23.412299 41.114904 1.458701 0.964977 0.040636 -0.015740 -203032.000000 0 0 1
-4.728155 -33.031024 22.489399 40.238999 1.428619 0.977743 0.026304 -0.015988 12891.500000 0 0 1
-5.993255 -32.715934 23.035499 40.458443 1.389615 0.965067 0.033486 -0.016941 144837.000000 0 0 1
-7.017755 -32.267124 21.981899 39.668880 1.356642 0.983473 0.013650 -0.008395 -331039.000000 0 0 1
-7.577855 -33.347474 21.317399 40.297759 1.347352 1.013378 0.003650 -0.001042 -127812.000000 0 0 1
-8.706455 -32.864044 20.598999 39.751308 1.311822 1.026055 0.025285 -0.016358 -18781.900000 0 0 1
-9.883955 -33.844244 20.603899 40.836822 1.286656 1.041945 0.042235 -0.013954 -213301.000000 0 0 1
-10.408655 -33.895134 21.934399 41.693381 1.272853 1.016802 0.063687 -0.023533 -564000.000000 0 0 1
-11.656955 33.718609 21.868099 41.845465 -1.237946 1.020908 0.053472 -0.014356 -10273.200000 0 0 1
-12.266155 33.737255 23.321599 42.808386 -1.222076 0.994657 0.047359 -0.012658 349253.000000 0 0 1
-12.793755 -33.392444 24.009599 43.071990 1.204914 0.979510 0.045379 -0.009542 276352.000000 0 0 1
-11.734655 -32.555664 24.411299 42.349556 1.224843 0.956451 0.029686 -0.006840 28015.800000 0 0 1
-12.256255 -31.227504 24.957999 41.812372 1.196787 0.931159 0.024793 -0.008322 -70227.500000 0 0 1
-12.933955 -31.362464 26.179099 42.851331 1.179644 0.913563 0.019604 -0.003853 7024.230000 0 0 1
-13.464255 -30.095264 26.512399 42.307427 1.150117 0.893536 0.043304 -0.014267 -127389.000000 0 0 1
-14.043755 -29.889824 27.912299 43.240317 1.131558 0.869098 0.046902 -0.016240 53608.300000 0 0 1
-13.118655 -29.660254 28.954999 43.476680 1.154366 0.841977 0.032370 -0.008459 117437.000000 0 0 1
-13.845455 -29.158674 30.069099 44.114347 1.127486 0.820826 0.043537 -0.010103 171669.000000 0 0 1
-13.071055 -28.958704 31.420399 44.684454 1.146805 0.790962 0.037635 -0.006446 -666741.000000 0 0 1
-13.914155 -28.507584 32.414899 45.354291 1.116725 0.774595 0.046170 -0.008405 -117946.000000 0 0 1
-13.363755 -28.401954 33.727199 46.073690 1.131008 0.749503 0.038520 -0.008929 -246278.000000 0 0 1
-12.842855 -29.708664 -33.793694 46.792707 1.162764 2.377774 0.039169 -0.005454 -701522.000000 0 0 1
-11.509255 -29.937164 34.101099 46.814332 1.203769 0.754765 0.025935 -0.005952 -615623.000000 0 0 1
-11.101655 -31.177704 -33.542794 47.121280 1.228718 2.362910 0.036063 -0.000849 -46589.500000 0 0 1
-9.570255 -31.327454 -33.587594 46.916155 1.274310 2.368718 0.046730 -0.010179 -64047.400000 0 0 1
-8.860855 -30.447074 -32.733394 45.574271 1.287594 2.372070 0.055776 -0.019576 -335503.000000 0 0 1
-7.536255 -30.903814 -32.650294 45.583797 1.331603 2.369238 0.058619 -0.028062 -201895.000000 0 0 1
-6.630855 -30.321824 -31.552394 44.259856 1.355503 2.364407 0.063429 -0.020312 117781.000000 0 0 1
-6.961855 -30.699054 -30.195494 43.619574 1.347791 2.335394 0.068331 -0.025750 -21984.400000 0 0 1
-6.234155 -29.889874 -29.280194 42.303652 1.365173 2.335251 0.061967 -0.016564 22799.800000 0 0 1
-6.452655 -30.289504 -27.782894 41.605048 1.360901 2.302015 0.071167 -0.026328 -246320.000000 0 0 1
-6.014455 -31.569364 -27.375494 42.216301 1.382537 2.276353 0.059276 -0.019711 -67539.200000 0 0 1
-6.887855 -32.063304 -26.371994 42.083014 1.359192 2.248064 0.068347 -0.026429 210817.000000 0 0 1
-6.442355 -33.354384 -25.709094 42.602540 1.379997 2.218634 0.059265 -0.026573 118755.000000 0 0 1
-5.362155 -33.035294 -24.859494 41.690260 1.409884 2.209668 0.029439 -0.030847 -59039.700000 0 0 1
-5.012855 -34.103289 -23.967594 41.983432 1.424851 2.178376 0.053215 -0.033439 -602057.000000 0 0 1
-4.211655 -33.625704 -22.793194 40.840613 1.446194 2.162892 0.066776 -0.044378 -593200.000000 0 0 1
-4.883255 -32.984904 -21.748994 39.810411 1.423819 2.148754 0.075949 -0.038315 -68605.800000 0 0 1
-5.177755 -31.580734 -21.983594 38.825640 1.408289 2.172701 0.054454 -0.029680 37808.500000 0 0 1
-5.845555 -30.861234 -20.798394 37.671733 1.383600 2.155672 0.084109 -0.040840 528979.000000 0 0 1
-7.259155 -31.039434 -20.620794 37.965233 1.341057 2.144980 0.096185 -0.045482 874942.000000 0 0 1
-7.922155 -29.970774 -19.976194 36.878939 1.312377 2.143218 0.092769 -0.044218 124197.000000 0 0 1
-8.316555 -28.788074 -20.920894 36.545890 1.289564 2.180294 0.100017 -0.049094 150374.000000 0 0 1
-7.149255 -28.124834 -21.443794 36.082606 1.321871 2.207188 0.093148 -0.034103 333939.000000 0 0 1
-7.383255 -27.248264 -22.506994 36.104641 1.306188 2.243857 0.107664 -0.044249 -878064.000000 0 0 1
-6.482255 -27.631854 -23.714494 36.985351 1.340370 2.266839 0.092846 -0.036392 1196080.000000 0 0 1
-5.078155 -27.349044 -23.691494 36.538264 1.387208 2.276280 0.092827 -0.022965 526085.000000 0 0 1
-4.318455 -27.783334 -22.620294 36.086568 1.416597 2.248280 0.077887 -0.027476 -1450400.000000 0 0 1
-2.804555 -27.543504 -22.810994 35.872714 1.469323 2.259954 0.074524 -0.033187 -35994.000000 0 0 1
-2.288755 -26.244154 -22.959994 34.945033 1.483806 2.287671 0.087200 -0.033233 -17353.300000 0 0 1
-2.569755 -25.317014 -21.949094 33.605320 1.469640 2.282525 0.102316 -0.035315 -830312.000000 0 0 1
-2.469555 -23.839124 -22.549794 32.907381 1.467572 2.325744 0.097853 -0.031640 -446230.000000 0 0 1
-3.280855 -23.471624 -23.619294 33.459710 1.431917 2.354493 0.094402 -0.031143 -700173.000000 0 0 1
-4.629155 -23.319524 -23.256994 33.258338 1.374834 2.345190 0.082232 -0.031421 -786431.000000 0 0 1
-5.522755 -23.550424 -24.471794 34.409185 1.340451 2.361999 0.089866 -0.025782 -261919.000000 0 0 1
-5.540355 -22.393824 -25.259494 34.208492 1.328261 2.401489 0.109483 -0.026909 -383529.000000 0 0 1
-6.138455 -22.673924 -26.445894 35.371921 1.306407 2.415316 0.122190 -0.022914 -112410.000000 0 0 1
-6.310455 -21.308424 -27.255394 35.167133 1.282877 2.457550 0.136542 -0.016504 -24738.200000 0 0 1
-6.547355 -21.401524 -28.645894 36.352171 1.273909 2.478367 0.137417 -0.019480 475439.000000 0 0 1
-5.433655 -21.797624 -29.468594 37.054811 1.326498 2.490250 0.127048 -0.021686 538482.000000 0 0 1
-5.819955 -22.011324 -30.987594 38.452584 1.312304 2.507931 0.130917 -0.035256 301333.000000 0 0 1
-6.557955 -20.958024 -31.626894 38.503324 1.267539 2.534670 0.116368 -0.039781 55599.500000 0 0 1
-7.201155 -21.397124 -32.777294 39.800057 1.246156 2.538436 0.120206 -0.034012 -217141.000000 0 0 1
-6.768455 -20.553024 -34.007594 40.308253 1.252665 2.574913 0.120115 -0.033471 845715.000000 0 0 1
-5.529255 -20.870024 33.569099 39.912591 1.311809 0.571547 0.115448 -0.035326 197892.000000 0 0 1
-5.438555 -20.270724 32.320099 38.536592 1.308673 0.575930 0.120285 -0.032114 -598812.000000 0 0 1
-4.047755 -20.524224 31.792399 38.057650 1.376077 0.581982 0.083862 -0.033540 -2142440.000000 0 0 1
-3.907755 -21.872824 31.362499 38.435625 1.394004 0.616383 0.095585 -0.036516 1371690.000000 0 0 1
-2.655755 -22.164124 30.649199 37.916682 1.451543 0.629486 0.090872 -0.034237 2447080.000000 0 0 1
-1.307855 -21.704624 31.340499 38.144830 1.510612 0.606552 0.069694 -0.041800 -718860.000000 0 0 1
-0.802555 -20.461024 30.858699 37.034536 1.531593 0.585852 0.053991 -0.041891 -269704.000000 0 0 1
0.206345 -19.888224 31.649699 37.380308 -1.560421 0.561055 0.054473 -0.042686 -379037.000000 0 0 1
-0.182855 -19.449924 33.104999 38.396275 1.561395 0.531213 0.054589 -0.043915 518760.000000 0 0 1
-1.340255 -18.582724 33.151699 38.028266 1.498797 0.512004 0.060976 -0.044194 594622.000000 0 0 1
-1.764855 -18.462324 -33.727994 38.490904 1.475494 2.638838 0.069722 -0.041316 -223798.000000 0 0 1
-2.963955 -17.537924 -33.598194 38.015818 1.403376 2.654709 0.074480 -0.035895 -39000.100000 0 0 1
-2.553055 -16.191224 -33.900294 37.655063 1.414403 2.691220 0.081458 -0.033337 525296.000000 0 0 1
-3.556255 -15.273824 -33.438394 36.933221 1.342039 2.703057 0.081774 -0.032473 410967.000000 0 0 1
-3.240255 -13.827224 -33.826894 36.687193 1.340611 2.744103 0.066167 -0.032599 193215.000000 0 0 1
-2.151755 -13.290724 -33.066094 35.702100 1.410290 2.754914 0.056184 -0.027735 162326.000000 0 0 1
-1.962355 -11.871224 -33.196494 35.309829 1.406974 2.793863 0.043144 -0.019117 65857.500000 0 0 1
-1.315355 -11.341324 33.693899 35.575759 1.455333 0.326712 0.040791 -0.017648 12244.800000 0 0 1
-2.215455 -11.328324 32.582199 34.566441 1.377666 0.340475 0.051466 -0.021332 226031.000000 0 0 1
-1.670855 -10.950324 31.307499 33.209349 1.419379 0.340069 0.054821 -0.016691 -34116.500000 0 0 1
-0.726755 -11.961924 30.592199 32.855721 1.510115 0.373360 0.050616 -0.023317 217517.000000 0 0 1
-1.288155 -13.203224 30.188099 32.974320 1.473540 0.414039 0.068016 -0.034125 -123037.000000 0 0 1
-0.252555 -14.106324 29.883099 33.046206 1.552895 0.441101 0.062108 -0.032411 -54769.600000 0 0 1
-0.499055 -15.558424 30.286799 34.052956 1.538731 0.474759 0.060884 -0.039509 -273090.000000 0 0 1
-1.414355 -16.206024 29.463499 33.656104 1.483743 0.504476 0.066222 -0.039706 23183.300000 0 0 1
-2.035955 -17.261224 30.228699 34.869316 1.453389 0.521819 0.073323 -0.033261 -38257.600000 0 0 1
-2.356855 -18.456124 29.311099 34.717773 1.443783 0.565599 0.073376 -0.030049 105788.000000 0 0 1
-3.481655 -18.196424 28.450099 33.950551 1.381744 0.577214 0.085048 -0.033341 372938.000000 0 0 1
-3.789855 -19.457524 27.902099 34.226968 1.378429 0.617708 0.091641 -0.034259 -21897.600000 0 0 1
-4.801355 -19.326924 26.765299 33.361118 1.327297 0.639674 0.067720 -0.038884 -227560.000000 0 0 1
-5.329555 -20.570224 26.292699 33.805980 1.317280 0.679713 0.072102 -0.024367 -279536.000000 0 0 1
-4.464055 -21.330824 25.510599 33.551788 1.364496 0.706968 0.077066 -0.026631 -427344.000000 0 0 1
-29.606645 -33.870168 -0.488001 44.988664 0.852464 1.581644 0.046858 -0.030469 -76597.400000 0 0 1
-28.651265 -32.901468 -0.062301 43.628035 0.854339 1.572224 0.064589 -0.022371 303930.000000 0 0 1
-29.010715 -32.263568 1.183599 43.404612 0.838435 1.543524 0.059296 -0.017526 -16002.400000 0 0 1
-28.231585 -30.973068 1.402099 41.932317 0.831670 1.537353 0.087362 -0.018828 954865.000000 0 0 1
-26.866275 -31.183268 1.797699 41.199814 0.859629 1.527149 0.090326 -0.025103 499058.000000 0 0 1
-26.124335 -29.970668 1.755099 39.797012 0.853859 1.526681 0.100922 -0.011133 249289.000000 0 0 1
-24.605755 -30.155868 1.968599 38.970437 0.886404 1.520260 0.066685 -0.013836 -52648.900000 0 0 1
-24.341955 -30.628968 3.270099 39.260133 0.899273 1.487407 0.062831 -0.009893 500123.000000 0 0 1
-23.005655 -30.257468 3.625599 38.182712 0.920717 1.475699 0.049513 -0.007718 261455.000000 0 0 1
-22.716455 -30.688968 5.107899 38.521951 0.933587 1.437808 0.067196 -0.005836 -544972.000000 0 0 1
-23.233255 -29.950268 6.191799 38.407565 0.911032 1.408877 0.074776 -0.001105 -35175.200000 0 0 1
-22.731455 -30.434268 7.407899 38.701947 0.929280 1.378199 0.079473 -0.006103 -94093.400000 0 0 1
-23.563055 -29.881168 8.621899 39.018443 0.903071 1.347988 0.076532 -0.007988 230649.000000 0 0 1
-23.157655 -28.581168 9.054299 37.883248 0.889842 1.329455 0.095575 -0.010851 40404.900000 0 0 1
-23.884255 -28.220468 10.198899 38.351923 0.868428 1.301629 0.078614 -0.006487 -94200.700000 0 0 1
-23.168555 -27.186968 11.088699 37.401503 0.865030 1.269794 0.089542 -0.015705 398407.000000 0 0 1
-21.933555 -27.671968 11.593399 37.164843 0.900567 1.253556 0.101407 -0.016590 -155351.000000 0 0 1
-21.128955 -26.652568 12.124399 36.108076 0.900489 1.228362 0.102018 -0.021611 102316.000000 0 0 1
-19.707555 -27.087268 12.530699 35.764874 0.941814 1.212837 0.107254 -0.024258 -20660.000000 0 0 1
-19.558955 -28.135868 13.466299 36.817401 0.963325 1.196348 0.108680 -0.018746 -174831.000000 0 0 1
-18.264355 -28.195568 14.030599 36.406516 0.995988 1.175169 0.127141 -0.023431 228948.000000 0 0 1
-18.269255 -29.278168 15.121499 37.678064 1.012924 1.157823 0.143140 -0.037453 101025.000000 0 0 1
-18.236455 -30.601568 14.662099 38.522739 1.033373 1.180342 0.140926 -0.029938 -85221.600000 0 0 1
-18.280355 -31.547168 15.696099 39.695878 1.045616 1.164283 0.145096 -0.028301 195475.000000 0 0 1
-17.957655 -32.989868 15.128899 40.493115 1.072310 1.187891 0.132914 -0.029395 257115.000000 0 0 1
-17.982855 -34.090168 16.039399 41.746676 1.085385 1.176447 0.133981 -0.020543 -191936.000000 0 0 1
-17.434655 33.014876 15.534999 40.438663 -1.084934 1.176496 0.109395 -0.025769 -124521.000000 0 0 1
-17.450755 31.857076 16.568899 39.924060 -1.069657 1.142842 0.116083 -0.032367 453802.000000 0 0 1
-18.795155 31.361276 16.622599 40.163395 -1.030884 1.144090 0.121353 -0.028226 739125.000000 0 0 1
-18.915455 30.254876 17.471599 39.729193 -1.012051 1.115457 0.094304 -0.018066 -256677.000000 0 0 1
-19.611455 30.725676 18.752799 40.991997 -1.002707 1.095643 0.087068 -0.016497 -503522.000000 0 0 1
-18.898855 31.646576 19.526799 41.712928 -1.032449 1.083630 0.096471 -0.007669 -243107.000000 0 0 1
-19.517655 31.854376 20.752899 42.735500 -1.021080 1.063732 0.076371 -0.009008 -70302.700000 0 0 1
-19.090455 33.205776 21.510399 43.929106 -1.049027 1.059095 0.070182 -0.004528 486562.000000 0 0 1
-17.782755 33.274676 22.068599 43.708735 -1.079991 1.041529 0.045863 -0.004470 26095.900000 0 0 1
-17.682455 33.762576 23.359099 44.701547 -1.088346 1.020949 0.040678 -0.012361 -108377.000000 0 0 1
-18.198055 32.969076 24.603899 44.983120 -1.066439 0.992070 0.029965 -0.021620 -990433.000000 0 0 1
-19.573955 33.040376 24.559399 45.584759 -1.035965 1.001828 0.021620 -0.020698 -1147350.000000 0 0 1
-20.213455 32.176576 25.479299 45.750525 -1.009896 0.980126 0.014496 -0.016503 -424236.000000 0 0 1
-21.734455 32.283176 25.332599 46.436307 -0.978254 0.993770 0.047722 -0.023389 -584822.000000 0 0 1
-22.105055 31.787376 24.017499 45.562167 -0.963162 1.015569 0.026616 -0.007329 -1114480.000000 0 0 1
-23.463055 31.962776 23.996699 46.346258 -0.937566 1.026554 0.011927 -0.007906 -1328420.000000 0 0 1
-24.219555 31.719576 22.658499 45.892548 -0.918678 1.054423 0.010869 -0.008702 -44901.900000 0 0 1
-23.952955 32.724376 21.753299 46.019940 -0.938941 1.078452 0.004225 -0.003333 32017.400000 0 0 1
-23.925455 32.116476 20.529299 45.003862 -0.930529 1.097113 -0.000067 -0.002659 -31857.900000 0 0 1
-23.519655 33.071976 19.385199 44.974612 -0.952616 1.125168 0.027191 -0.007000 527812.000000 0 0 1
-22.145155 33.446476 19.504799 44.603944 -0.985957 1.118215 0.067000 -0.011346 407968.000000 0 0 1
-21.845655 -33.872168 18.466899 44.334893 0.997984 1.141169 0.084752 -0.012353 666777.000000 0 0 1
-20.439655 -33.245468 18.762899 43.302275 1.019558 1.122645 0.100859 -0.015084 773368.000000 0 0 1
-20.585155 -32.208468 19.729199 43.015989 1.002106 1.094323 0.091397 -0.025296 -413204.000000 0 0 1
-19.299555 -31.736168 19.905699 42.141358 1.024424 1.078835 0.098477 -0.031601 -595539.000000 0 0 1
-19.255855 -30.702268 21.065599 41.918691 1.010631 1.044268 0.095717 -0.023392 -171770.000000 0 0 1
-19.813455 -29.507568 20.637199 41.099435 0.979476 1.044738 0.125703 -0.032835 25750.500000 0 0 1
-20.155055 -28.762068 21.791099 41.332007 0.959566 1.015470 0.108327 -0.022932 276674.000000 0 0 1
-21.073855 -27.536268 21.376499 40.734606 0.917567 1.018346 0.086944 -0.029137 -180390.000000 0 0 1
-20.427755 -26.549368 20.609899 39.331032 0.914978 1.019243 0.092789 -0.026914 20071.300000 0 0 1
-21.148755 -25.368668 20.368199 38.803385 0.875867 1.018190 0.078898 -0.011534 195919.000000 0 0 1
-22.413755 -25.378268 19.446299 39.046017 0.847348 1.049465 0.080128 -0.017209 562086.000000 0 0 1
-23.627355 -25.880768 19.991999 40.345335 0.830883 1.052361 0.070384 -0.014760 -134073.000000 0 0 1
-24.631755 -25.654168 19.064599 40.352430 0.805727 1.078725 0.070834 -0.013372 -109601.000000 0 0 1
-26.092875 -25.840968 19.625899 41.638560 0.780548 1.079987 0.049090 -0.016265 905276.000000 0 0 1
-26.680635 -27.156768 19.702399 42.866430 0.794242 1.093226 0.035746 -0.013589 157721.000000 0 0 1
-26.918545 -27.769768 18.429599 42.841781 0.800962 1.126106 0.053337 -0.023273 -1054420.000000 0 0 1
-27.939265 -28.871468 18.404499 44.191513 0.801806 1.141236 0.060523 -0.021976 1608700.000000 0 0 1
-29.287815 -28.379168 18.745499 44.883706 0.769643 1.139943 0.025748 -0.018036 1896370.000000 0 0 1
-30.367585 -29.108568 18.168699 45.821399 0.764233 1.163083 0.031189 -0.012119 214290.000000 0 0 1
-31.776325 -28.653868 18.509799 46.619649 0.733774 1.162508 0.035341 -0.012983 -218405.000000 0 0 1
-32.119615 -27.437768 17.893499 45.876771 0.706949 1.170128 0.039579 -0.002914 1453590.000000 0 0 1
-33.488085 -26.952968 18.096099 46.641003 0.677693 1.172350 0.021806 0.008934 1498940.000000 0 0 1
-33.872485 -25.742668 17.195899 45.888225 0.649863 1.186686 0.021828 -0.000652 -225372.000000 0 0 1
-34.005035 -26.051768 15.808399 45.661171 0.653735 1.217267 0.043424 -0.013813 247566.000000 0 0 1
-34.523416 -24.932268 15.066799 45.171813 0.625460 1.230736 0.034656 -0.011581 -184356.000000 0 0 1
-33.495985 -23.883468 14.624399 43.660899 0.619414 1.229240 0.010976 -0.003957 152699.000000 0 0 1
-32.747635 -23.355368 15.732899 43.190334 0.619525 1.197949 0.006481 -0.004054 150933.000000 0 0 1
-32.265645 -22.038568 15.625499 42.082378 0.599249 1.190380 0.014802 0.001806 -129691.000000 0 0 1
-33.311495 -20.923368 15.926099 42.439176 0.560834 1.186110 0.020938 -0.009771 70497.700000 0 0 1
-33.501965 -20.710268 17.306499 43.021062 0.553681 1.156791 0.022786 -0.005209 178053.000000 0 0 1
-34.437535 -19.655168 17.389299 43.297311 0.518633 1.157505 0.035688 -0.013172 -216881.000000 0 0 1
-34.877316 -19.250568 18.807399 44.053715 0.504340 1.129713 0.029121 0.000314 129910.000000 0 0 1
-35.767552 -20.192368 19.450099 45.446186 0.513941 1.128539 0.041251 0.004540 487931.000000 0 0 1
-35.905450 -19.754468 20.778299 45.947558 0.502982 1.101546 0.039878 0.006990 249134.000000 0 0 1
36.000595 -19.876068 21.534199 46.420067 -0.504457 1.088406 0.056125 0.000655 732032.000000 0 0 1
35.438935 -21.147468 21.859299 46.700776 -0.538011 1.083689 0.073526 -0.008905 353591.000000 0 0 1
36.221955 -21.880168 22.802199 48.069866 -0.543398 1.076565 0.064590 -0.002239 -211376.000000 0 0 1
35.534965 -23.152868 23.153499 48.320529 -0.577465 1.071093 0.068697 -0.006063 833188.000000 0 0 1
34.361695 -23.048968 24.011199 47.838464 -0.590841 1.044976 0.086718 -0.020722 1076420.000000 0 0 1
34.177245 -24.248068 24.737199 48.661914 -0.617060 1.037531 0.090787 -0.039977 102301.000000 0 0 1
33.037775 -24.172268 25.814999 48.396356 -0.631657 1.008172 0.102181 -0.042064 -114924.000000 0 0 1
31.748585 -24.154068 25.307699 47.242685 -0.650372 1.005465 0.102914 -0.036057 -721782.000000 0 0 1
30.836705 -24.084568 26.395099 47.198199 -0.663070 0.977328 0.079110 -0.030518 697357.000000 0 0 1
29.447715 -24.709768 26.034299 46.427635 -0.698136 0.975505 0.068440 -0.024827 349018.000000 0 0 1
28.448855 -23.895868 25.483499 45.052842 -0.698636 0.969592 0.069620 -0.016392 -537265.000000 0 0 1
27.267115 -24.638068 25.312999 44.623736 -0.734790 0.967629 0.057218 -0.012430 -44674.500000 0 0 1
26.055715 -23.758968 24.928699 43.183664 -0.739325 0.955413 0.050080 -0.006744 -250512.000000 0 0 1
25.987615 -23.107268 23.666699 42.064410 -0.726796 0.973233 0.053769 -0.008995 17590.200000 0 0 1
27.051215 -22.194268 23.455999 42.125261 -0.687089 0.980249 0.056464 -0.004096 91534.100000 0 0 1
27.163315 -21.588568 22.018699 41.094222 -0.671543 1.005329 0.062681 -0.008659 35298.600000 0 0 1
26.498115 -20.353468 21.890699 39.945168 -0.654991 0.990803 0.060301 -0.008637 -148785.000000 0 0 1
26.364615 -19.881868 20.549199 38.892816 -0.646127 1.014135 0.039243 -0.009144 5227.380000 0 0 1
25.667915 -18.490268 20.500699 37.696293 -0.624263 0.995792 0.049571 -0.003535 -252540.000000 0 0 1
26.251915 -17.442268 21.179999 37.973518 -0.586445 0.979115 0.048092 -0.014864 -256296.000000 0 0 1
26.195615 -17.448968 22.606199 38.751993 -0.587612 0.947942 0.045926 -0.013142 -32070.500000 0 0 1
26.288415 -16.071368 23.255199 38.602771 -0.548722 0.924263 0.059809 -0.007923 -438107.000000 0 0 1
25.085315 -15.402868 23.016099 37.366592 -0.550664 0.907200 0.051723 -0.003849 -540865.000000 0 0 1
25.024315 -14.154868 23.690999 37.253725 -0.514775 0.881575 0.039378 0.003578 -955969.000000 0 0 1
23.729815 -13.399768 23.483099 35.973794 -0.514044 0.859543 0.022777 0.004573 -703984.000000 0 0 1
22.727515 -14.145368 24.136199 36.044243 -0.556720 0.837090 0.032854 0.001319 -291147.000000 0 0 1
21.469315 -13.503768 24.024199 34.934873 -0.561456 0.812500 0.031325 0.004567 2076290.000000 0 0 1
20.166215 -14.318968 24.580199 34.869689 -0.617437 0.788492 0.051380 0.003930 1681870.000000 0 0 1
19.658015 -15.293668 23.750799 34.415611 -0.661173 0.809146 0.064655 -0.000085 -14992.100000 0 0 1
18.318615 -15.600168 24.085399 34.044725 -0.705423 0.784894 0.068053 0.005222 118738.000000 0 0 1
17.733815 -16.693368 23.196999 33.634171 -0.755186 0.809742 0.073431 -0.007680 -309002.000000 0 0 1
18.188315 -17.991068 23.520099 34.751811 -0.779946 0.827386 0.068398 -0.012022 152686.000000 0 0 1
17.813515 -18.938368 22.485999 34.374456 -0.815995 0.857740 0.062438 -0.015572 -40351.100000 0 0 1
18.341515 -20.379368 22.657699 35.568260 -0.837979 0.880170 0.050165 -0.011251 -420101.000000 0 0 1
17.732515 -20.950168 23.768699 36.308438 -0.868388 0.857099 0.048735 -0.018904 3498.890000 0 0 1
18.087915 -22.264468 24.178599 37.516448 -0.888533 0.870453 0.054982 -0.023684 -642708.000000 0 0 1
17.568415 -23.427868 23.404899 37.487378 -0.927363 0.896509 0.054262 -0.024802 -462853.000000 0 0 1
18.419615 -23.821568 22.377899 37.516925 -0.912591 0.931695 0.037366 -0.015623 -708166.000000 0 0 1
19.450015 -24.645868 22.827099 38.817500 -0.902688 0.942136 0.041624 -0.011295 -914009.000000 0 0 1
20.498815 -24.749268 21.701699 38.777460 -0.879060 0.976836 0.034508 0.006606 -600695.000000 0 0 1
20.021715 -25.488068 20.602799 38.405546 -0.904939 1.004567 0.027721 -0.007217 185669.000000 0 0 1
20.985815 -25.512068 19.594699 38.408622 -0.882436 1.035421 0.033543 -0.013675 -326188.000000 0 0 1
20.258115 -26.036368 18.399099 37.773145 -0.909571 1.062036 0.032604 -0.020634 88852.900000 0 0 1
19.778615 -27.367468 18.568799 38.535337 -0.944994 1.068015 0.045728 -0.027151 -157799.000000 0 0 1
18.959415 -27.738668 17.492399 37.879772 -0.971229 1.090787 0.048277 -0.028969 -51903.800000 0 0 1
18.010715 -28.929068 17.825199 38.457958 -1.013938 1.088857 0.059750 -0.029348 -225916.000000 0 0 1
17.046415 -28.544168 18.762399 38.175613 -1.032442 1.057013 0.080600 -0.045038 39249.400000 0 0 1
16.272515 -29.720568 19.110499 38.901389 -1.069861 1.057266 0.093509 -0.044176 -93481.500000 0 0 1
15.046415 -29.594168 19.997799 38.757210 -1.100431 1.028649 0.082159 -0.035590 377446.000000 0 0 1
14.067915 -28.718968 19.370399 37.388470 -1.115304 1.026186 0.076556 -0.032328 135100.000000 0 0 1
12.874815 -28.579668 20.093299 37.233035 -1.147536 1.000759 0.054536 -0.026359 -299292.000000 0 0 1
11.711715 -28.092968 19.241899 36.008746 -1.175814 1.007037 0.049216 -0.024601 -467378.000000 0 0 1
11.283215 -28.948968 18.199899 36.008193 -1.199147 1.040907 0.046658 -0.024852 -36794.300000 0 0 1
11.024015 -28.175468 17.054299 34.730894 -1.197845 1.057512 0.045029 -0.015465 5021.950000 0 0 1
10.890015 -29.063468 15.803999 34.828781 -1.212291 1.099813 0.044692 -0.019600 -82023.300000 0 0 1
9.677815 -29.766168 15.755499 35.041698 -1.256449 1.104455 0.056268 -0.015693 -112007.000000 0 0 1
9.823415 -30.752868 14.719799 35.481134 -1.261610 1.143004 0.043383 -0.012672 832933.000000 0 0 1
8.499515 -31.605268 14.524999 35.806568 -1.308085 1.153104 0.038259 -0.008328 565710.000000 0 0 1
8.189315 -32.509468 15.557699 36.959063 -1.324025 1.136310 0.046457 -0.013573 -194575.000000 0 0 1
7.275915 -33.411268 15.000299 37.339801 -1.356376 1.157398 0.032010 -0.012267 -434029.000000 0 0 1
7.016615 33.609076 15.918899 37.844606 1.364981 1.136647 0.060570 -0.017060 4494.980000 0 0 1
8.119815 32.716876 16.021899 37.323272 1.327527 1.127108 0.056419 -0.015734 -151497.000000 0 0 1
8.007315 31.661176 16.965899 36.802023 1.323084 1.091669 0.068060 -0.023811 429901.000000 0 0 1
9.334815 30.884776 17.262099 36.592188 1.277280 1.079530 0.075143 -0.026582 321801.000000 0 0 1
9.918615 30.176276 16.194299 35.654479 1.253231 1.099321 0.075115 -0.029889 -530662.000000 0 0 1
11.044815 29.436176 16.580399 35.544142 1.211840 1.085497 0.079226 -0.027637 -225773.000000 0 0 1
11.817015 28.678376 15.500699 34.675103 1.179943 1.107358 0.072180 -0.025227 162661.000000 0 0 1
11.135815 27.509976 15.043999 33.273519 1.186166 1.101643 0.073997 -0.026270 158624.000000 0 0 1
11.903915 27.001576 13.960899 32.644984 1.155569 1.128896 0.073677 -0.017621 335537.000000 0 0 1
-9.349355 -9.379824 19.246792 23.363016 0.787025 0.602689 0.045754 -0.015215 211459.000000 0 1 0
-9.679855 -9.508624 17.851792 22.423202 0.776475 0.649923 0.049444 -0.017420 -116372.000000 0 1 0
-9.701855 -10.861824 17.513592 22.777864 0.841747 0.693699 0.055891 -0.018989 191315.000000 0 1 0
-9.905555 -11.126224 15.992792 21.855944 0.843372 0.749930 0.055842 -0.015845 -126355.000000 0 1 0
-11.230055 -10.959724 15.550892 22.092078 0.773216 0.789905 0.054251 -0.018134 -104032.000000 0 1 0
-11.531955 -11.518524 14.295092 21.679761 0.784815 0.850809 0.054301 -0.020492 20507.500000 0 1 0
-11.569455 -13.092324 14.166692 22.493474 0.847070 0.889483 0.048660 -0.020547 690729.000000 0 1 0
-10.277855 -13.693324 13.877892 22.039449 0.926928 0.889650 0.047012 -0.016905 1011820.000000 0 1 0
-10.304255 -15.090024 14.076092 23.065621 0.971672 0.914404 0.069622 -0.020245 80831.300000 0 1 0
-10.077855 -15.624424 15.482692 24.195031 0.997939 0.876413 0.085158 -0.027036 -14282.000000 0 1 0
-11.163555 -15.312224 16.313392 25.004318 0.940831 0.860019 0.089248 -0.021184 -32333.600000 0 0 1
-10.765555 -15.405824 17.666192 25.794009 0.960878 0.816337 0.097394 -0.024179 24407.300000 0 0 1
-11.973655 -14.911324 18.471592 26.587886 0.894234 0.802742 0.082097 -0.019160 -306065.000000 0 0 1
-12.197055 -13.552124 18.175392 25.744380 0.837975 0.786970 0.075969 -0.017061 786991.000000 0 0 1
-13.473855 -13.336824 17.542692 25.829473 0.780287 0.824160 0.081024 -0.029496 1013690.000000 0 0 1
-14.774155 -13.328824 18.383692 27.090466 0.734014 0.824936 0.060202 -0.018025 -49156.200000 0 0 1
-15.192355 -14.644524 18.779992 28.248147 0.767039 0.843541 0.074161 -0.023058 465403.000000 0 0 1
-16.369855 -14.520424 19.605992 29.380432 0.725599 0.840199 0.071121 -0.020033 609745.000000 0 0 1
-16.979455 -15.866624 20.087492 30.717405 0.751531 0.858009 0.077843 -0.014209 -545820.000000 0 0 1
-17.928055 -16.364424 19.223092 30.963475 0.739833 0.900994 0.060245 -0.012750 -675181.000000 0 0 1
-18.206555 -17.703424 19.487292 32.010067 0.771388 0.916266 0.077087 -0.015737 -67421.800000 0 0 1
-19.525455 -18.296624 18.917992 32.770417 0.752920 0.955392 0.069717 -0.008946 52284.700000 0 0 1
-19.595355 -18.407224 17.525292 32.092673 0.754144 0.993114 0.067666 -0.013799 130132.000000 0 0 1
-19.839655 -17.176024 16.873992 31.198707 0.713562 0.999342 0.057477 -0.009110 -892822.000000 0 0 1
-19.377855 -17.277524 15.390692 30.180913 0.728161 1.035672 0.066543 -0.017078 191898.000000 0 0 1
-20.075755 -18.343524 14.695892 30.911002 0.740341 1.075348 0.063620 -0.015910 371968.000000 0 0 1
-19.687755 -18.345924 13.350892 30.040422 0.750133 1.110257 0.076173 -0.018943 -9115.640000 0 0 1
-19.841555 -19.763124 12.688492 30.745182 0.783418 1.145382 0.076742 -0.013428 143990.000000 0 0 1
-18.899955 -20.762924 13.092292 30.979274 0.832334 1.134468 0.096187 -0.016121 132686.000000 0 0 1
-19.045955 -21.997324 12.422692 31.637856 0.857183 1.167282 0.080992 -0.011299 88287.700000 0 0 1
-17.722655 -22.810924 12.502192 31.475952 0.910277 1.162334 0.100948 -0.017564 321921.000000 0 0 1
-17.903855 -24.065524 11.883192 32.263101 0.931170 1.193593 0.116168 -0.031928 424143.000000 0 0 1
-17.013955 -24.218924 10.755392 31.491418 0.958390 1.222248 0.098817 -0.027069 221720.000000 0 0 1
-17.282755 -25.427004 9.823792 32.275889 0.973824 1.261520 0.101640 -0.026698 265268.000000 0 0 1
-18.532755 -25.196744 9.184492 32.598985 0.936626 1.285188 0.085153 -0.026937 -216531.000000 0 0 1
-19.014155 -26.342104 8.513792 33.584657 0.945578 1.314497 0.090732 -0.023039 749064.000000 0 0 1
-20.381455 -25.935394 7.859392 33.908972 0.904740 1.336890 0.077368 -0.019777 584547.000000 0 0 1
-20.200555 -24.933424 6.857192 32.814008 0.889879 1.360273 0.075890 -0.030422 -686411.000000 0 0 1
-21.158055 -24.967124 5.876992 33.249956 0.867792 1.393111 0.071209 -0.020644 -574609.000000 0 0 1
-21.114255 -23.653324 5.109492 32.115392 0.842054 1.411019 0.067648 -0.019215 -38502.000000 0 0 1
-22.041955 -23.587624 4.043992 32.535790 0.819259 1.446180 0.054830 -0.016668 50427.900000 0 0 1
-21.850055 -22.444924 3.300392 31.497494 0.798827 1.465821 0.055222 -0.015958 390034.000000 0 0 1
-22.588955 -22.407724 1.911192 31.875063 0.781371 1.510802 0.031039 -0.014746 94179.600000 0 0 1
-21.940655 -23.315424 1.072692 32.033607 0.815766 1.537304 0.028119 -0.014519 140061.000000 0 0 1
-22.424755 -23.323624 -0.264408 32.356313 0.805044 1.578968 0.026702 -0.003569 -539908.000000 0 0 1
-21.631655 -24.241224 -1.181308 32.510936 0.842224 1.607140 0.035138 -0.001692 -452381.000000 0 0 1
-20.390355 -23.685724 -1.563308 31.292556 0.860025 1.620775 0.041163 -0.007720 347500.000000 0 0 1
-19.646355 -24.223824 -2.665808 31.303026 0.889363 1.656061 0.046386 -0.009109 478728.000000 0 0 1
-19.196155 -25.693024 -2.638708 32.180532 0.929131 1.652886 0.050605 -0.002557 -485954.000000 0 0 1
-20.220055 -26.520784 -3.097208 33.493213 0.919392 1.663401 0.062697 -0.000785 12810.600000 0 0 1
-19.601055 -27.676514 -3.618008 34.106902 0.954575 1.677075 0.060053 -0.002425 -780332.000000 0 0 1
-20.582755 -28.513014 -4.392908 35.439235 0.945541 1.695072 0.054840 -0.007287 -207989.000000 0 0 1
-21.258955 -27.827304 -5.435708 35.437959 0.918420 1.724791 0.048826 -0.007260 -55761.000000 0 0 1
-21.860355 -28.765104 -6.299408 36.674090 0.920951 1.743420 0.050933 -0.020019 46874.400000 0 0 1
-22.500355 -28.215874 -7.593908 36.879113 0.897621 1.778193 0.049519 -0.003377 517208.000000 0 0 1
-21.471955 -27.834574 -8.520208 36.171844 0.913731 1.808579 0.055243 -0.008478 653157.000000 0 0 1
-21.859555 -27.832304 -9.895208 36.747686 0.905020 1.843436 0.051225 -0.002481 9248.840000 0 0 1
-22.893055 -26.734594 -10.331208 36.681935 0.862651 1.856302 0.047470 0.007689 43001.100000 0 0 1
-22.432755 -25.411884 -10.560708 35.503815 0.847585 1.872820 0.042862 0.008780 -25610.000000 0 0 1
-21.999655 -24.719324 -9.384008 34.396067 0.843546 1.847122 0.036277 0.009009 80563.800000 0 0 1
-21.702555 -23.207324 -9.638208 33.203552 0.818892 1.865312 0.025981 -0.000645 730878.000000 0 0 1
-22.926755 -22.588824 -10.065308 33.722418 0.777974 1.873891 0.033183 -0.001869 743046.000000 0 0 1
-22.742555 -21.195924 -10.140908 32.700597 0.750213 1.886109 0.048930 -0.001679 16707.800000 0 0 1
-24.066755 -20.470424 -10.412008 33.266453 0.704824 1.889134 0.069268 -0.003101 -383512.000000 0 0 1
-24.578655 -20.692224 -11.746408 34.209012 0.699760 1.921301 0.058518 -0.000913 868029.000000 0 0 1
-25.868285 -20.128324 -12.024808 34.912943 0.661249 1.922420 0.054908 -0.004556 496518.000000 0 0 1
-25.920565 -18.595524 -12.113408 34.123362 0.622311 1.933698 0.060057 -0.011261 -804773.000000 0 0 1
-25.251775 -17.983724 -13.230608 33.706312 0.618852 1.974173 0.074616 -0.000279 541220.000000 0 0 1
-25.063195 -16.586824 -13.079308 32.777352 0.584626 1.981260 0.080167 -0.012955 208891.000000 0 0 1
-24.035255 -16.122224 -11.965208 31.317500 0.590841 1.962822 0.059830 -0.004900 -151779.000000 0 0 1
-24.474655 -16.366624 -10.639108 31.306002 0.589421 1.917546 0.092949 -0.006742 273106.000000 0 0 1
-23.443355 -16.263124 -9.679708 30.129335 0.606499 1.897869 0.074152 -0.007268 -6046.960000 0 0 1
-23.939355 -16.645524 -8.263408 30.305942 0.607578 1.846960 0.060748 -0.013858 97212.400000 0 0 1
-24.418155 -17.982424 -8.267708 31.431972 0.634764 1.836963 0.059119 -0.009433 -88177.100000 0 0 1
-25.332805 -18.154624 -7.224408 31.992710 0.621810 1.798575 0.061483 -0.010804 -9360.380000 0 0 1
-25.501355 -19.613624 -6.816108 32.885752 0.655627 1.779576 0.065944 -0.005774 14235.600000 0 0 1
-25.992645 -20.364824 -7.906208 33.953671 0.664589 1.805806 0.053022 -0.021629 -64496.600000 0 0 1
-26.438435 -21.601224 -7.406208 34.935020 0.685044 1.784417 0.059400 -0.011665 11632.300000 0 0 1
-25.850345 -22.841724 -8.145708 35.444848 0.723688 1.802682 0.046628 -0.000945 232615.000000 0 0 1
-26.449395 -24.121724 -7.811408 36.639407 0.739403 1.785642 0.054890 -0.001025 -122652.000000 0 0 1
-25.844595 -25.211054 -8.483708 37.087918 0.772990 1.801586 0.047869 0.006911 -28736.400000 0 0 1
-26.667805 -26.492134 -8.236608 38.481771 0.782094 1.786504 0.064293 -0.000045 119973.000000 0 0 1
-26.423475 -27.064224 -6.960808 38.459396 0.797377 1.752790 0.079573 -0.015822 180430.000000 0 0 1
-26.945775 -28.369214 -6.890308 39.728622 0.811126 1.745112 0.087442 -0.015483 -38447.200000 0 0 1
-26.599425 -28.898724 -5.467708 39.655535 0.826805 1.709117 0.101031 -0.022059 -46842.300000 0 0 1
-27.431805 -28.465604 -4.409408 39.777348 0.803891 1.681877 0.073333 -0.021258 -201939.000000 0 0 1
-26.962895 -28.638434 -3.094108 39.455432 0.815524 1.649297 0.061982 -0.015351 -445958.000000 0 0 1
-27.166175 -30.038594 -2.447708 40.574739 0.835569 1.631159 0.072705 -0.008629 -44312.100000 0 0 1
-26.535485 -31.074314 -3.209708 40.988379 0.864021 1.649184 0.090213 -0.030041 104769.000000 0 0 1
-26.382905 -32.334464 -2.600408 41.813124 0.886413 1.633028 0.083665 -0.036380 120666.000000 0 0 1
-25.372185 -32.488814 -1.432108 41.247082 0.907779 1.605524 0.088737 -0.032682 359110.000000 0 0 1
-24.005055 -32.366574 -1.788308 40.336532 0.932653 1.615146 0.076539 -0.037502 140529.000000 0 0 1
-23.168255 -32.157254 -0.672808 39.639749 0.946465 1.587770 0.067786 -0.030468 970135.000000 0 0 1
-21.975555 -31.133554 -0.831008 38.117106 0.956156 1.592600 0.072498 -0.026248 759647.000000 0 0 1
-22.447555 -29.794374 -0.706808 37.310816 0.925113 1.589741 0.064017 -0.017626 83138.100000 0 0 1
-23.117355 -29.203004 -1.800408 37.288993 0.901193 1.619098 0.076950 -0.014904 -157440.000000 0 0 1
-23.608655 -27.814004 -1.345508 36.507503 0.866997 1.607660 0.042325 -0.011129 134905.000000 0 0 1
-24.822755 -27.800174 -0.614308 37.274606 0.841918 1.587278 0.058251 -0.015854 67240.400000 0 0 1
-25.391215 -26.542654 -0.313208 36.733151 0.807566 1.579323 0.067067 -0.017600 45787.200000 0 0 1
-24.748455 -25.830744 0.869292 35.783642 0.806793 1.546501 0.060327 -0.011349 -327325.000000 0 0 1
-24.906155 -26.494694 2.133992 36.425805 0.816293 1.512178 0.060982 -0.017164 227923.000000 0 0 1
-24.319255 -25.689814 3.189192 35.518497 0.812797 1.480886 0.064485 -0.014379 673724.000000 0 0 1
-25.355775 -24.673824 3.826192 35.585849 0.771768 1.463068 0.067895 -0.020703 440406.000000 0 0 1
-25.788705 -23.685624 2.915492 35.136394 0.742915 1.487724 0.058642 -0.023516 -43048.000000 0 0 1
-26.451495 -22.628024 3.607192 34.996013 0.707652 1.467539 0.055308 -0.018724 162359.000000 0 0 1
-26.687005 -21.340924 2.797592 34.284950 0.674543 1.489107 0.046675 -0.018150 -330319.000000 0 0 1
-25.519495 -20.557624 2.817792 32.890736 0.678125 1.485020 0.034234 -0.013766 -135926.000000 0 0 1
-25.554885 -19.519624 1.871492 32.211339 0.652295 1.512663 0.029040 -0.006039 -344043.000000 0 0 1
-24.347255 -18.599724 1.726092 30.687423 0.652360 1.514519 0.045549 -0.003610 -870034.000000 0 0 1
-23.193555 -19.246524 1.313892 30.167797 0.692662 1.527230 0.047548 -0.010023 374673.000000 0 0 1
-22.018555 -18.441724 1.659692 28.769229 0.697224 1.513074 0.065932 -0.007069 2051070.000000 0 0 1
-20.651155 -19.224624 1.451392 28.251777 0.749639 1.519400 0.065243 -0.012813 712691.000000 0 0 1
-20.442755 -19.422124 0.086992 28.198098 0.759801 1.567711 0.040430 -0.005139 39836.700000 0 0 1
-19.355455 -20.318124 -0.075708 28.061816 0.809658 1.573494 0.085057 -0.009334 151910.000000 0 0 1
-19.107855 -20.568724 -1.566708 28.118270 0.822201 1.626544 0.095266 -0.009527 394910.000000 0 0 1
-18.385755 -19.596424 -2.401708 26.978214 0.817262 1.659938 0.097928 -0.016135 406770.000000 0 0 1
-18.308155 -19.997624 -3.723908 27.367152 0.829474 1.707292 0.090034 -0.011748 -376313.000000 0 0 1
-17.459555 -19.030624 -4.508108 26.216860 0.828426 1.743610 0.098885 -0.011197 1131390.000000 0 0 1
-16.051455 -19.221024 -4.212808 25.393793 0.875017 1.737466 0.134895 -0.022532 1355060.000000 0 0 1
-15.197255 -18.343424 -4.949708 24.329763 0.878926 1.775669 0.128778 -0.022941 618524.000000 0 1 0
-13.689855 -18.237124 -4.585408 23.260069 0.926874 1.769233 0.145806 -0.034395 45141.100000 0 1 0
-12.905555 -19.336124 -4.854108 23.748714 0.982264 1.776642 0.118938 -0.034585 -743228.000000 0 1 0
-11.846555 -18.967224 -5.678008 23.072413 1.012499 1.819446 0.103434 -0.041873 -166558.000000 0 1 0
-10.720755 -20.033824 -5.824408 23.456607 1.079439 1.821727 0.088387 -0.047278 476702.000000 0 1 0
-11.149055 -21.219424 -6.520308 24.841091 1.087022 1.836389 0.087065 -0.039020 -463488.000000 0 1 0
-10.045455 -21.967024 -6.931708 25.129860 1.141891 1.850255 0.086441 -0.034672 -177486.000000 0 0 1
-10.308255 -23.130024 -7.946508 26.540631 1.151553 1.874870 0.077858 -0.016713 -117481.000000 0 0 1
-10.835955 -22.600324 -9.165308 26.686990 1.123715 1.921371 0.073936 -0.015099 -5206.720000 0 0 1
-10.976255 -23.720924 -10.061308 28.006969 1.137411 1.938253 0.074718 -0.012524 104696.000000 0 0 1
-11.575255 -23.350724 -11.429808 28.458450 1.110584 1.984094 0.096972 -0.013444 349843.000000 0 0 1
-10.699055 -22.614324 -12.270008 27.864503 1.128891 2.026780 0.090394 -0.012999 602275.000000 0 0 1
-11.558255 -22.014124 -13.256508 28.177117 1.087319 2.060620 0.098535 -0.021029 294004.000000 0 0 1
-10.884655 -20.810124 -13.935408 27.308104 1.088882 2.106333 0.088789 -0.015538 -612991.000000 0 0 1
-10.655555 -19.664824 -13.117708 25.929142 1.074225 2.101228 0.102280 -0.024167 -312738.000000 0 0 1
-10.326555 -18.621724 -13.977508 25.471103 1.064472 2.151676 0.094307 -0.016413 -127102.000000 0 0 1
-9.750055 -17.411324 -13.241208 23.948849 1.060321 2.156631 0.092168 -0.022246 -381564.000000 0 1 0
-10.704155 -16.815224 -12.383808 23.466772 1.003916 2.126707 0.087640 -0.027018 154610.000000 0 1 0
-10.175755 -15.731824 -11.662008 22.068953 0.996656 2.127552 0.084058 -0.025226 -48854.900000 0 1 0
-10.166355 -14.386124 -12.467008 21.581048 0.955603 2.186684 0.094169 -0.015840 353990.000000 0 1 0
-11.470155 -13.836524 -12.630508 21.966875 0.878635 2.183376 0.094245 -0.014379 347120.000000 0 1 0
-11.787455 -13.864724 -13.998408 22.959314 0.866200 2.226485 0.121532 -0.025516 -42726.700000 0 1 0
-13.141855 -13.226024 -14.371608 23.541011 0.788590 2.227478 0.126506 -0.028711 80928.800000 0 1 0
-13.102655 -11.803824 -14.186108 22.633062 0.733297 2.248219 0.096174 -0.012355 -228725.000000 0 1 0
-14.225055 -11.180024 -14.755108 23.346485 0.666108 2.254935 0.094647 -0.023860 -155703.000000 0 1 0
-14.398955 -9.738124 -14.147308 22.412213 0.594647 2.253937 0.080186 -0.031014 -457543.000000 0 1 0
-13.353155 -8.856524 -14.364808 21.519584 0.585636 2.301673 0.068687 -0.021186 -458197.000000 0 1 0
-13.392455 -8.170324 -15.578908 22.109148 0.547790 2.352707 0.064675 -0.022882 324061.000000 0 1 0
-12.272855 -7.087224 -15.727908 21.171179 0.523690 2.408177 0.048124 -0.007256 1546370.000000 0 1 0
-10.930455 -7.559024 -16.022608 20.816764 0.605036 2.449163 0.037768 -0.006361 1480090.000000 0 1 0
-9.955055 -6.569624 -15.730508 19.741124 0.583323 2.492842 0.023783 0.001114 310749.000000 0 1 0
11.177245 21.627176 16.600692 29.466057 1.093788 0.972321 0.103777 -0.007529 -127183.000000 0 0 1
12.257845 21.853276 17.489592 30.556608 1.059611 0.961407 0.123126 -0.028676 185184.000000 0 0 1
12.869645 20.631376 17.829692 30.152601 1.013068 0.938108 0.101959 -0.025231 424041.000000 0 0 1
14.097245 20.743076 18.793292 31.339996 0.973885 0.927722 0.111476 -0.029634 990493.000000 0 0 1
15.332445 21.179676 18.225092 31.871877 0.944195 0.962069 0.096138 -0.019004 43065.300000 0 0 1
16.406645 20.947276 19.102392 32.754660 0.906362 0.948139 0.096724 -0.024511 90610.400000 0 0 1
17.741845 21.237876 18.357892 33.208924 0.874847 0.985076 0.065316 -0.010626 -609251.000000 0 0 1
17.963045 22.683876 18.327992 34.251197 0.901023 1.006164 0.071040 -0.014734 -817107.000000 0 0 1
19.166845 23.137076 17.844792 34.944654 0.878974 1.034846 0.062478 -0.010856 -1209700.000000 0 0 1
20.442945 22.857476 18.616692 35.874217 0.841103 1.025182 0.044714 -0.016844 -861256.000000 0 0 1
20.923645 21.541876 18.350792 35.193791 0.799956 1.022281 0.054159 -0.007845 608362.000000 0 0 1
22.289545 21.349876 18.721592 36.099017 0.763869 1.025563 0.063410 -0.017345 431324.000000 0 0 1
22.679945 19.872676 18.463092 35.358011 0.719522 1.021396 0.053434 -0.013299 -46720.000000 0 0 1
22.662345 19.510576 17.076992 34.436436 0.710802 1.051927 0.041339 -0.006609 168830.000000 0 0 1
22.104845 18.250076 16.776392 33.213503 0.690165 1.041290 0.035897 -0.000200 -184307.000000 0 0 1
22.914745 17.024076 17.272392 33.365255 0.638962 1.026664 0.022305 -0.004010 11088.600000 0 0 1
24.164745 16.937776 16.632992 33.874468 0.611349 1.057538 0.027908 -0.012777 215483.000000 0 0 1
24.948745 15.827476 17.079092 34.126884 0.565330 1.046668 0.012618 -0.005242 -106965.000000 0 0 1
26.193545 15.591476 16.175392 34.508538 0.536913 1.082937 0.102174 -0.034544 -632915.000000 0 0 1
27.172645 16.602176 16.184492 35.720059 0.548460 1.100565 0.077097 -0.027914 64790.300000 0 0 1
28.172445 16.397276 17.165392 36.840304 0.527103 1.086099 0.080658 -0.040101 34860.800000 0 0 1
29.289645 15.368376 16.774392 37.087066 0.483214 1.101456 0.093457 -0.044234 -371038.000000 0 0 1
30.058145 15.783376 15.642592 37.380445 0.483521 1.139036 0.150894 -0.046441 161459.000000 0 0 1
30.150945 14.721976 14.717292 36.638978 0.454224 1.157441 0.174061 -0.055084 300992.000000 0 0 1
29.110445 14.871276 13.554492 35.387810 0.472295 1.177725 0.149080 -0.043884 323130.000000 0 0 1
29.512045 15.791376 12.528092 35.739074 0.491318 1.212645 0.151318 -0.040594 -395160.000000 0 0 1
28.634445 15.620876 11.444992 34.567774 0.499403 1.233339 0.122201 -0.037877 46759.300000 0 0 1
27.356145 16.485476 11.363992 33.900883 0.542347 1.228966 0.108365 -0.038187 -499519.000000 0 0 1
27.457745 17.891576 11.254592 34.651148 0.577502 1.239999 0.085472 -0.028479 -184407.000000 0 0 1
28.226345 18.649476 12.151692 35.947088 0.583869 1.225959 0.087707 -0.039698 -348040.000000 0 0 1
27.754645 18.698176 13.677992 36.152864 0.592853 1.182796 0.081854 -0.036470 1112110.000000 0 0 1
26.424745 19.277276 13.803192 35.502234 0.630262 1.171470 0.060355 -0.019477 1077810.000000 0 0 1
25.897145 19.299176 15.106792 35.655791 0.640438 1.133288 0.047455 -0.015874 -196690.000000 0 0 1
26.718845 20.090176 16.135292 37.119530 0.644723 1.121108 0.046280 -0.017242 -258142.000000 0 0 1
26.580245 21.482676 16.027692 37.747870 0.679733 1.132278 0.026449 -0.003057 1129710.000000 0 0 1
25.347245 22.039976 16.588792 37.462400 0.715719 1.112064 0.041128 -0.005353 986364.000000 0 0 1
25.184945 23.532376 16.304692 38.130003 0.751490 1.128951 0.037756 -0.000393 -43671.900000 0 0 1
24.798445 23.790076 14.922992 37.465001 0.764648 1.161114 0.049651 -0.015432 363256.000000 0 0 1
24.890345 25.153076 14.639892 38.295338 0.790648 1.178524 0.054437 -0.018400 -404459.000000 0 0 1
24.831545 25.537876 13.159692 37.973230 0.799420 1.216904 0.061492 -0.021912 -564054.000000 0 0 1
23.491045 25.686176 12.791292 37.084039 0.830006 1.218635 0.057219 -0.009893 -191369.000000 0 0 1
23.368145 26.119276 11.447492 36.869118 0.840934 1.255088 0.050051 -0.025159 -133508.000000 0 0 1
22.964145 25.063576 10.400192 35.548541 0.829083 1.273890 0.066984 -0.022628 499306.000000 0 0 1
21.573445 24.695076 10.359892 34.388772 0.852764 1.264785 0.061585 -0.019678 800384.000000 0 0 1
21.225345 23.361476 10.757192 33.346529 0.833271 1.242334 0.059932 -0.011156 30793.100000 0 0 1
20.913245 22.346576 9.594792 32.074808 0.818519 1.267007 0.077926 -0.014192 -212069.000000 0 0 1
19.765245 22.663176 8.831092 31.341229 0.853594 1.285156 0.094455 -0.018827 -176398.000000 0 0 1
20.014145 23.360676 7.611592 31.689486 0.862399 1.328232 0.091172 -0.023432 -136170.000000 0 0 1
18.782045 23.852776 6.803192 31.112756 0.903776 1.350353 0.092245 -0.018344 -628083.000000 0 0 1
18.180345 22.714676 6.148392 29.736916 0.895824 1.362535 0.094164 -0.011401 456747.000000 0 0 1
17.241545 22.961076 5.112492 29.165381 0.926717 1.394593 0.114519 -0.026442 978237.000000 0 0 1
15.939845 23.761876 5.503492 29.137499 0.979927 1.380775 0.097943 -0.024200 -48672.400000 0 0 1
16.119545 25.210676 5.405892 30.407920 1.001913 1.392067 0.109365 -0.026146 -24480.100000 0 0 1
14.947445 25.848276 5.829992 30.422825 1.046503 1.377971 0.096761 -0.027590 -201149.000000 0 0 1
14.711445 27.226876 5.096092 31.363985 1.075409 1.407590 0.088410 -0.029398 -155198.000000 0 0 1
14.369145 27.092876 3.743792 30.895182 1.083152 1.449321 0.084400 -0.014986 272585.000000 0 0 1
14.027045 28.336376 3.124392 31.772158 1.111141 1.472300 0.076708 -0.016928 -12839.600000 0 0 1
13.450945 28.207376 1.663992 31.294614 1.125832 1.517599 0.088301 -0.017049 377960.000000 0 0 1
14.432845 27.912076 0.656692 31.429640 1.093576 1.549901 0.097899 -0.023213 539354.000000 0 0 1
14.922345 26.553276 0.626292 30.465474 1.058804 1.550237 0.082126 -0.018655 -26484.300000 0 0 1
15.989745 26.266776 -0.415708 30.753671 1.023972 1.584314 0.090546 -0.025969 73810.600000 0 0 1
15.397445 26.353776 -1.677408 30.568227 1.042031 1.625698 0.084333 -0.025421 151416.000000 0 0 1
16.452945 26.542876 -2.604608 31.337001 1.015900 1.654008 0.068316 -0.013003 -60694.300000 0 0 1
16.093845 27.150276 -3.978408 31.811587 1.035711 1.696186 0.085598 -0.013195 -652463.000000 0 0 1
15.298145 26.399476 -4.853808 30.895389 1.045597 1.728555 0.103449 -0.020570 -350060.000000 0 0 1
15.262645 27.032576 -6.112208 31.639652 1.056812 1.765200 0.090953 -0.017744 -284363.000000 0 0 1
13.989545 26.674476 -6.863508 30.892439 1.087777 1.794840 0.115494 -0.022627 -278819.000000 0 0 1
13.769045 25.319476 -7.103208 29.683632 1.072716 1.812438 0.106600 -0.020038 -733958.000000 0 0 1
12.536145 25.247676 -7.743908 29.232998 1.109931 1.838900 0.095344 -0.022657 -558631.000000 0 0 1
12.190845 23.828476 -8.217708 27.998995 1.097905 1.868682 0.100473 -0.015322 -263131.000000 0 0 1
12.930445 23.354676 -9.299908 28.268810 1.065151 1.906021 0.090629 -0.019792 -72116.400000 0 0 1
12.364145 22.143776 -9.792408 27.186581 1.061559 1.939271 0.087078 -0.010566 -206867.000000 0 0 1
12.831245 21.583076 -11.137208 27.468299 1.034427 1.988275 0.084341 -0.011084 -282147.000000 0 0 1
12.196345 20.362976 -11.496808 26.373817 1.031151 2.021854 0.086784 -0.014039 -170150.000000 0 0 1
12.338145 19.934376 -12.891708 26.754538 1.016568 2.073563 0.086459 -0.016347 31798.900000 0 0 1
13.747845 19.484976 -13.345708 27.327193 0.956348 2.081014 0.077728 -0.015500 -536799.000000 0 0 1
14.705945 20.457376 -13.253608 28.468003 0.947526 2.055065 0.079161 -0.017019 -1170760.000000 0 0 1
15.936145 19.894676 -13.644608 28.912526 0.895430 2.062272 0.067368 -0.013305 150595.000000 0 0 1
17.166045 20.840776 -13.579508 30.222741 0.881785 2.036794 0.075628 -0.016613 12499.900000 0 0 1
17.292245 21.931476 -14.460308 31.450149 0.903127 2.048549 0.070016 -0.016314 221703.000000 0 0 1
16.285745 22.944676 -14.351808 31.585725 0.953535 2.042468 0.071728 -0.017101 266193.000000 0 0 1
16.733945 24.269576 -14.927008 33.043196 0.967150 2.039514 0.075320 -0.015141 127122.000000 0 0 1
17.121445 24.430976 -16.269808 33.981217 0.959528 2.070070 0.062555 -0.017182 57480.400000 0 0 1
16.009445 24.849776 -17.043308 34.121665 0.998475 2.093802 0.060544 -0.014422 151375.000000 0 0 1
16.279945 24.842676 -18.528008 35.006889 0.990689 2.128533 0.045750 -0.010105 -69821.000000 0 0 1
16.468745 23.500576 -18.912108 34.368073 0.959547 2.153497 0.058206 -0.000752 -86952.700000 0 0 1
16.427945 23.331576 -20.322508 35.032045 0.957319 2.189662 0.056732 0.005228 -162427.000000 0 0 1
16.953545 21.953876 -20.724208 34.624964 0.913216 2.212466 0.057819 0.006406 -201231.000000 0 0 1
15.960445 20.962476 -20.738608 33.529853 0.920051 2.237644 0.073604 0.006286 -47872.900000 0 0 1
16.480445 19.712776 -21.241808 33.337862 0.874470 2.261614 0.069770 0.001454 206800.000000 0 0 1
15.445945 18.587776 -21.532308 32.368548 0.877453 2.298589 0.061821 0.002162 -128450.000000 0 0 1
14.885045 18.013476 -20.353208 30.988755 0.880206 2.287355 0.070798 -0.004242 830806.000000 0 0 1
13.970345 16.913676 -20.621708 30.108102 0.880414 2.325293 0.061601 -0.006838 576738.000000 0 0 1
12.515445 17.151476 -21.022008 29.878660 0.940414 2.351218 0.067145 -0.005586 62934.900000 0 0 1
11.524445 17.376876 -19.997208 28.890431 0.985194 2.335293 0.058048 -0.007370 49110.800000 0 0 1
10.279245 17.716876 -20.526008 28.997717 1.045067 2.357245 0.057178 -0.003038 -261946.000000 0 0 1
9.140045 17.350276 -19.549008 27.690002 1.085943 2.354624 0.056569 -0.015276 -384750.000000 0 0 1
8.972345 15.945276 -19.460608 26.710861 1.058258 2.387022 0.049215 -0.013303 -998347.000000 0 0 1
7.798645 15.544676 -18.875608 25.666017 1.105796 2.397100 0.057585 -0.016861 -764553.000000 0 0 1
7.686745 15.572276 -17.292808 24.507612 1.112268 2.354079 0.060552 -0.023729 -89291.400000 0 1 0
7.487045 16.868476 -16.898008 25.022870 1.153070 2.312171 0.075083 -0.026269 -192082.000000 0 0 1
6.930345 16.779376 -15.584408 23.925947 1.179110 2.280172 0.068821 -0.035057 -52590.700000 0 1 0
6.554945 18.245476 -15.149008 24.604007 1.225892 2.234087 0.079917 -0.032573 -444052.000000 0 1 0
7.534645 19.196476 -14.852608 25.414082 1.196771 2.194967 0.072056 -0.030813 -344147.000000 0 0 1
8.097245 19.887276 -16.002308 26.779526 1.184135 2.211248 0.089766 -0.028144 699538.000000 0 0 1
9.358945 20.769176 -15.661808 27.644905 1.147429 2.173091 0.073403 -0.015129 500911.000000 0 0 1
9.165945 21.957776 -14.954808 28.103465 1.175351 2.131915 0.073712 -0.016680 -116281.000000 0 0 1
8.783045 21.788676 -13.600908 27.145405 1.187619 2.095595 0.066346 -0.021996 -73735.500000 0 0 1
8.348045 23.121576 -12.925108 27.773289 1.224312 2.054859 0.062739 -0.019719 903509.000000 0 0 1
7.072045 23.681176 -13.394908 28.111128 1.280592 2.067464 0.073501 -0.020085 1237890.000000 0 0 1
6.515445 24.562276 -12.443108 28.294653 1.311506 2.026138 0.063173 -0.021544 -115365.000000 0 0 1
5.892445 23.977376 -11.158308 27.095079 1.329821 1.995247 0.060706 -0.016902 -856069.000000 0 0 1
6.785045 23.687276 -10.131408 26.641496 1.291823 1.960903 0.051776 -0.015094 156104.000000 0 0 1
6.049345 23.168376 -9.004808 25.582314 1.315395 1.930496 0.064424 -0.021014 632248.000000 0 0 1
6.929145 23.039376 -7.709708 25.263917 1.278650 1.880910 0.046676 -0.022135 202685.000000 0 0 1
7.173045 24.274776 -7.127508 26.296743 1.283479 1.845271 0.047458 -0.019719 169837.000000 0 0 1
8.117745 24.097576 -6.092908 26.147935 1.245866 1.805975 0.072807 -0.017705 135894.000000 0 0 1
8.647745 25.428476 -5.493808 27.414829 1.242985 1.772558 0.072125 -0.021482 172896.000000 0 0 1
9.289445 26.350776 -6.361408 28.655274 1.231869 1.794659 0.085233 -0.023037 131942.000000 0 0 1
9.652945 27.527576 -5.648108 29.712757 1.233530 1.762050 0.083687 -0.022495 230478.000000 0 0 1
9.970645 28.750876 -6.535408 31.124559 1.236980 1.782347 0.081120 -0.017259 1271150.000000 0 0 1
11.267345 28.703876 -7.187308 31.662643 1.196740 1.799789 0.087128 -0.017471 889100.000000 0 0 1
11.424045 29.852076 -8.014808 32.952882 1.205302 1.816481 0.076264 -0.019631 663332.000000 0 0 1
12.834145 29.889876 -8.692608 33.670186 1.165221 1.831923 0.085561 -0.024839 443995.000000 0 0 1
13.878645 30.116276 -7.819308 34.069759 1.138968 1.802369 0.060880 -0.018825 -571036.000000 0 0 1
15.096545 30.503676 -8.430008 35.063442 1.111230 1.813596 0.051314 -0.022314 515285.000000 0 0 1
16.259845 30.837476 -7.473508 35.653693 1.085567 1.781976 0.040292 -0.019212 138397.000000 0 0 1
16.853845 29.710276 -6.852108 34.838255 1.054788 1.768770 0.042891 -0.016892 -332729.000000 0 0 1
17.961445 30.092576 -6.060908 35.565591 1.032679 1.742047 0.027543 -0.008161 17526.800000 0 0 1
19.049245 29.018376 -6.062508 35.237677 0.989897 1.743703 0.029309 -0.002565 -337529.000000 0 0 1
18.708645 28.029276 -5.121808 34.086458 0.982239 1.721627 0.058412 -0.016511 -52647.700000 0 0 1
19.753345 27.077676 -4.956508 33.881590 0.940540 1.717612 0.049798 -0.013042 -110287.000000 0 0 1
19.968145 25.959076 -5.968508 33.289991 0.915110 1.751059 0.056404 -0.004849 -258069.000000 0 0 1
20.640945 26.279176 -7.156308 34.173915 0.904991 1.781766 0.039795 0.006000 133658.000000 0 0 1
20.519445 25.272876 -8.169108 33.563376 0.888832 1.816659 0.047635 -0.003421 -895856.000000 0 0 1
21.173845 25.631476 -9.498508 34.576378 0.880349 1.849085 0.048860 -0.005185 560617.000000 0 0 1
22.548545 26.011676 -9.460008 35.700643 0.856594 1.838981 0.041692 0.003007 724407.000000 0 0 1
23.439445 24.902576 -9.343708 35.452091 0.815655 1.837506 0.056788 0.002255 302786.000000 0 0 1
24.989545 25.066476 -9.330708 36.604203 0.786935 1.828549 0.022459 0.009142 675131.000000 0 0 1
25.536545 25.321376 -10.603008 37.492813 0.781167 1.857509 0.031975 0.010520 -418121.000000 0 0 1
26.936945 25.318676 -10.462708 38.420081 0.754440 1.846604 0.031019 0.022796 -76921.700000 0 0 1
27.659645 25.432876 -11.830608 39.393533 0.743481 1.875823 0.027258 0.020515 9418.400000 0 0 1
27.478745 26.697376 -12.470208 40.290661 0.770976 1.885470 0.038155 0.030833 -67680.100000 0 0 1
28.102745 26.757176 -13.760808 41.171235 0.760876 1.911588 0.017971 0.031981 255974.000000 0 0 1
27.865745 28.036576 -14.611608 42.143190 0.788454 1.924861 0.033033 0.015010 -10985.500000 0 0 1
28.443145 29.225276 -14.147808 43.165840 0.798960 1.904722 0.057208 -0.004457 39270.700000 0 0 1
28.312445 30.204976 -15.152608 44.085561 0.817728 1.921660 0.065546 0.002508 -180398.000000 0 0 1
28.757845 31.649876 -14.760608 45.239406 0.833237 1.903159 0.070137 -0.009122 855159.000000 0 0 1
30.184345 31.804076 -14.648408 46.229534 0.811522 1.893216 0.075927 -0.018503 885268.000000 0 0 1
30.572845 33.146876 -14.410808 47.340106 0.825772 1.880115 0.086500 -0.026840 -377136.000000 0 0 1
16.354545 -31.858968 -27.484701 45.142815 -1.096532 2.225392 0.096718 -0.053725 -225883.000000 0 0 1
17.327045 -32.802168 -27.045931 45.909597 -1.084822 2.200757 0.075216 -0.034141 219351.000000 0 0 1
18.006345 -32.271668 -25.908971 45.132735 -1.061861 2.182254 0.064819 -0.035414 -56578.600000 0 0 1
19.305845 -33.061668 -25.585431 46.047843 -1.042274 2.159913 -0.008190 -0.026565 622178.000000 0 0 1
20.447145 -32.793668 -26.414141 46.810439 -1.013270 2.170356 0.010037 -0.022302 566867.000000 0 0 1
20.455745 -33.415168 -27.682951 47.972458 -1.021477 2.185920 0.030023 -0.016384 -72712.700000 0 0 1
21.879745 -33.308568 -28.335161 48.898520 -0.989599 2.188873 0.038924 -0.006399 504843.000000 0 0 1
22.131945 -31.899768 -28.575211 48.207477 -0.964246 2.205271 0.035806 -0.021633 -505816.000000 0 0 1
23.237145 -31.391068 -27.915721 48.006786 -0.933566 2.191362 -0.001590 -0.010944 -747022.000000 0 0 1
23.872245 -30.138368 -28.562971 47.896227 -0.900898 2.209744 -0.009277 0.000993 7514.500000 0 0 1
24.440245 -30.438368 -29.819581 49.122573 -0.894264 2.223132 -0.007688 -0.005318 -191232.000000 0 0 1
24.793145 -29.245568 -30.514491 49.001402 -0.867606 2.243019 0.004848 -0.012485 204336.000000 0 0 1
25.283845 -29.359168 -31.994971 50.248500 -0.859841 2.261053 0.018023 -0.005367 836675.000000 0 0 1
26.471545 -30.110868 -32.310411 51.491453 -0.849629 2.249123 0.024563 -0.018249 431711.000000 0 0 1
26.444145 -30.588168 -33.636311 52.595915 -0.857932 2.264674 0.025639 -0.024338 240555.000000 0 0 1
27.736945 -31.364168 -34.030268 53.954687 -0.846694 2.253276 0.024402 -0.028170 696117.000000 0 0 1
28.858345 -30.489068 -34.042292 54.048728 -0.812869 2.252149 0.039977 -0.030609 -148696.000000 0 0 1
30.068545 -31.205468 34.081906 55.131433 -0.803951 0.904354 0.034957 -0.021807 -17720.700000 0 0 1
31.361745 -30.406668 -34.106227 55.419845 -0.769937 2.233709 0.049079 -0.031906 -164956.000000 0 0 1
31.344145 -29.515368 33.049508 54.275983 -0.755358 0.916103 0.050145 -0.028575 741552.000000 0 0 1
32.570845 -28.763968 32.923983 54.518019 -0.723411 0.922399 0.058178 -0.030400 675153.000000 0 0 1
32.488645 -27.715868 31.791522 53.238916 -0.706288 0.930855 0.058647 -0.031721 307329.000000 0 0 1
33.764045 -27.193268 31.400272 53.530006 -0.678020 0.943952 0.056862 -0.035820 569972.000000 0 0 1
33.751545 -26.143268 30.486402 52.460060 -0.659048 0.950673 0.067170 -0.032833 26455.800000 0 0 1
34.454545 -26.553568 29.132572 52.353742 -0.656608 0.980682 0.068831 -0.029757 95350.000000 0 0 1
33.786845 -27.649568 28.528822 52.153074 -0.685832 0.991995 0.067308 -0.040824 878266.000000 0 0 1
32.651045 -27.288068 27.733672 50.792577 -0.696162 0.993192 0.072715 -0.044800 386572.000000 0 0 1
31.849745 -28.440368 27.081932 50.563740 -0.728909 1.005578 0.063848 -0.033397 955699.000000 0 0 1
30.590745 -28.012368 26.514042 49.228862 -0.741429 1.002037 0.069305 -0.027189 948564.000000 0 0 1
29.939445 -29.057868 25.818352 49.064420 -0.770457 1.016655 0.052840 -0.016755 309461.000000 0 0 1
28.592245 -28.702568 25.119472 47.669086 -0.787324 1.015782 0.036677 -0.005253 -65909.500000 0 0 1
27.588845 -28.495768 26.067112 47.462063 -0.801567 0.989366 0.030264 -0.006484 -685716.000000 0 0 1
26.389845 -28.355068 25.325242 46.279603 -0.821281 0.991754 0.026752 0.012959 299329.000000 0 0 1
25.096745 -28.298168 26.173922 45.996816 -0.845284 0.965461 0.033480 0.004468 160563.000000 0 0 1
25.138145 -27.155568 27.008512 45.812781 -0.823958 0.940306 0.023128 -0.000182 -203034.000000 0 0 1
23.910045 -26.957968 27.649412 45.419294 -0.845245 0.916301 0.031062 -0.009039 -333328.000000 0 0 1
23.969645 -25.842868 28.734482 45.476017 -0.822986 0.886846 0.037764 -0.002645 -25136.700000 0 0 1
22.763645 -25.772368 29.480922 45.293744 -0.847308 0.862050 0.059873 -0.009481 255682.000000 0 0 1
22.815545 -24.815368 30.549292 45.492975 -0.827359 0.834543 0.061415 -0.013503 -135977.000000 0 0 1
22.388045 -23.346768 30.053272 44.153089 -0.806358 0.822132 0.060483 -0.013742 -155559.000000 0 0 1
23.114745 -22.810268 28.933842 43.494447 -0.778768 0.842994 0.060669 -0.010601 264795.000000 0 0 1
22.853045 -21.408568 28.666312 42.454044 -0.752775 0.829518 0.079957 -0.003985 109683.000000 0 0 1
23.592245 -20.354668 29.539772 42.936053 -0.711861 0.812074 0.070723 -0.003502 135175.000000 0 0 1
23.106945 -20.398468 30.862972 43.618246 -0.723222 0.784743 0.071291 -0.004719 619143.000000 0 0 1
23.923845 -19.523868 31.637492 44.209305 -0.684472 0.773271 0.068521 -0.011787 129009.000000 0 0 1
23.286545 -19.346568 33.051290 44.821207 -0.693244 0.741579 0.068243 -0.000380 100783.000000 0 0 1
23.494145 -20.407568 33.900681 46.018473 -0.715207 0.742655 0.063350 -0.001586 390047.000000 0 0 1
22.723445 -20.248468 -33.124791 44.984521 -0.727867 2.398471 0.064348 -0.007687 102826.000000 0 0 1
22.894545 -21.409268 -32.150841 44.902043 -0.751886 2.368883 0.054401 0.000747 526014.000000 0 0 1
24.115045 -21.424368 -31.394881 45.013081 -0.726382 2.342645 0.046077 -0.005143 457154.000000 0 0 1
24.113245 -22.570768 -30.571231 45.005425 -0.752369 2.317576 0.042976 -0.008012 -109741.000000 0 0 1
25.377845 -22.789368 -29.722041 45.241463 -0.731710 2.287582 0.041550 0.001699 -430313.000000 0 0 1
26.374245 -23.446268 -30.432031 46.598678 -0.726695 2.282423 0.049530 0.003657 -653006.000000 0 0 1
27.402845 -23.934068 -29.581881 46.891824 -0.717932 2.253449 0.051935 -0.005525 420449.000000 0 0 1
28.510645 -24.791268 -30.289981 48.424650 -0.715732 2.246578 0.040193 -0.006821 222402.000000 0 0 1
29.259445 -23.965468 -31.174851 49.013570 -0.686260 2.260159 0.047957 -0.002034 124938.000000 0 0 1
28.654045 -23.806468 -32.462891 49.412969 -0.693256 2.287590 0.051639 -0.000865 -249935.000000 0 0 1
28.856245 -24.943768 -33.516801 50.776475 -0.712803 2.291729 0.048427 0.001415 -322521.000000 0 0 1
28.121345 -26.141868 -33.359641 50.863277 -0.748935 2.286129 0.053834 -0.005172 -390938.000000 0 0 1
28.507245 -27.335868 -34.008481 52.119953 -0.764425 2.281681 0.050983 -0.013578 -307378.000000 0 0 1
28.176645 -27.437668 32.672055 51.129366 -0.772111 0.877589 0.053318 -0.019513 215968.000000 0 0 1
28.988145 -26.598568 31.861382 50.625527 -0.742436 0.890075 0.043357 -0.025797 47868.900000 0 0 1
28.632645 -26.650868 30.496732 49.599876 -0.749566 0.908594 0.039715 -0.023676 -111026.000000 0 0 1
29.628345 -25.879168 29.572362 49.214781 -0.717957 0.926190 0.055340 -0.026634 99298.600000 0 0 1
29.829945 -24.441368 29.621192 48.627369 -0.686433 0.915812 0.052256 -0.029150 66497.500000 0 0 1
30.252145 -23.975868 30.881362 49.433723 -0.670172 0.896046 0.046502 -0.011308 -1275410.000000 0 0 1
30.750345 -22.517368 30.935622 49.087964 -0.632053 0.888975 0.039323 -0.005016 907964.000000 0 0 1
32.056445 -22.266068 30.408552 49.478010 -0.607085 0.908934 0.053968 -0.017329 609957.000000 0 0 1
33.125345 -22.772968 31.179942 50.873228 -0.602273 0.911077 0.048154 -0.017387 -935335.000000 0 0 1
34.496745 -22.172968 30.872972 51.330364 -0.571265 0.925474 0.054139 -0.025982 -478332.000000 0 0 1
34.879045 -22.558168 29.585682 50.997365 -0.574090 0.951894 0.064638 -0.033383 105365.000000 0 0 1
36.161045 -21.991968 29.355552 51.507438 -0.546403 0.964378 0.053680 -0.033649 230235.000000 0 0 1
-36.551726 -22.232568 27.941702 51.098478 0.546463 0.992234 0.068712 -0.031187 -252896.000000 0 0 1
-36.153926 -23.520768 27.760092 51.292841 0.576778 0.998923 0.071677 -0.027911 30542.500000 0 0 1
-35.737426 -23.802868 26.389152 50.399677 0.587575 1.019728 0.069041 -0.020360 -117349.000000 0 0 1
-35.530826 -25.333268 26.159462 50.877613 0.619394 1.030763 0.064034 -0.035124 -531740.000000 0 0 1
36.557645 -26.032168 26.384072 52.060104 -0.618791 1.039327 0.074839 -0.039632 -306225.000000 0 0 1
36.614445 -27.415568 26.036942 52.632245 -0.642709 1.053312 0.076637 -0.036329 742614.000000 0 0 1
-35.702026 -28.353968 26.928532 52.950240 0.671184 1.037281 0.076161 -0.034240 -30585.500000 0 0 1
-35.647026 -29.671068 26.387712 53.360979 0.694162 1.053522 0.084455 -0.031682 573197.000000 0 0 1
-34.640226 -30.513768 26.965782 53.462030 0.722149 1.042119 0.082999 -0.028005 705071.000000 0 0 1
-33.148626 -30.110868 26.868142 52.224446 0.737414 1.030402 0.087290 -0.022706 -662367.000000 0 0 1
-32.712026 -30.116168 25.575242 51.294768 0.744105 1.048821 0.077008 -0.020543 -720683.000000 0 0 1
-31.382826 -29.732168 25.403252 50.141886 0.758396 1.039528 0.051769 -0.010977 -495913.000000 0 0 1
-30.936426 -29.545668 23.971672 49.037230 0.762408 1.060029 0.048338 -0.007655 -134465.000000 0 0 1
-30.769126 -30.722068 23.235532 49.299843 0.784633 1.080020 0.054855 -0.008778 268259.000000 0 0 1
-30.424526 -30.593068 21.865592 48.370359 0.788160 1.101739 0.044790 -0.003895 -966745.000000 0 0 1
-30.303126 -31.993368 21.129192 48.870213 0.812524 1.123695 0.055190 -0.001374 263878.000000 0 0 1
-29.235526 -32.868868 21.524992 48.973500 0.843835 1.115728 0.055566 -0.007635 534970.000000 0 0 1
-27.928726 -32.312568 21.389892 47.766549 0.858041 1.106492 0.069671 -0.004819 -56808.200000 0 0 1
-26.866526 -33.432768 21.226892 47.855419 0.893865 1.111226 0.053398 0.005909 -265088.000000 0 0 1
-27.099726 33.941376 20.121992 47.867596 -0.897015 1.136946 0.039485 0.001870 351639.000000 0 0 1
-28.229626 33.045976 20.080292 47.876575 -0.863838 1.137992 0.046941 0.004557 465464.000000 0 0 1
-28.335926 31.886276 21.126692 47.602483 -0.844284 1.110945 0.050356 0.001231 -186627.000000 0 0 1
-27.331826 30.913076 21.093992 46.342243 -0.846807 1.098224 0.035715 -0.003653 -203940.000000 0 0 1
-27.603326 29.894476 22.053092 46.281337 -0.825225 1.074126 0.041787 -0.011833 60733.600000 0 0 1
-26.778726 28.607976 21.822092 44.852203 -0.818413 1.062679 0.036859 -0.010971 134268.000000 0 0 1
-25.388426 28.747176 22.028592 44.229302 -0.847362 1.049443 0.028082 -0.005930 -13748.300000 0 0 1
-24.660326 27.741176 21.349892 42.819650 -0.844124 1.048813 0.022183 -0.012715 -849761.000000 0 0 1
-23.179826 28.041376 21.332392 42.174566 -0.880028 1.040474 0.010575 -0.003052 -1182840.000000 0 0 1
-22.614526 28.008676 22.637492 42.524802 -0.891553 1.009438 0.024909 -0.003487 155824.000000 0 0 1
-21.415526 28.755276 22.609992 42.387526 -0.930663 1.008168 0.058934 -0.009118 -285294.000000 0 0 1
-20.716926 28.752476 23.982382 42.790776 -0.946427 0.975859 0.049790 -0.005713 -313996.000000 0 0 1
-20.228326 27.464776 24.465862 41.977107 -0.935979 0.948579 0.055069 -0.019653 475109.000000 0 0 1
-19.910326 27.430376 25.841682 42.622050 -0.942932 0.919399 0.052809 -0.019488 3731.040000 0 0 1
-18.621826 28.037876 26.458322 42.812822 -0.984526 0.904600 0.061814 -0.012683 -471699.000000 0 0 1
-18.438926 29.440276 26.278492 43.557812 -1.011251 0.923162 0.032730 -0.009116 854355.000000 0 0 1
-17.074826 29.824976 26.495362 43.394505 -1.050842 0.914017 0.030185 -0.005137 581000.000000 0 0 1
-16.537026 29.877176 27.944722 44.125122 -1.065270 0.884978 0.018527 0.000472 -504900.000000 0 0 1
-16.506726 28.601876 28.697502 43.750268 -1.047370 0.855371 0.031819 -0.001028 172042.000000 0 0 1
-16.635626 28.859076 30.057582 44.867010 -1.047878 0.836687 0.021084 0.001312 -154055.000000 0 0 1
-16.520826 27.548876 30.805612 44.506898 -1.030604 0.806328 0.021482 0.000838 160596.000000 0 0 1
-15.146226 27.306076 31.097502 44.069089 -1.064365 0.787451 0.034509 0.005426 443333.000000 0 0 1
-14.963026 26.145276 31.978382 43.932727 -1.050991 0.755550 0.049482 0.006359 -65429.500000 0 0 1
-15.229826 26.292176 33.493956 45.222463 -1.045772 0.736761 0.053713 0.008856 1402830.000000 0 0 1
-16.671426 26.211776 33.722979 45.850114 -1.004306 0.744385 0.045490 0.008105 1186750.000000 0 0 1
-17.166226 26.842376 -33.380531 46.145989 -1.001824 2.379464 0.038842 0.013842 662801.000000 0 0 1
-18.479826 26.139376 -32.868031 45.881134 -0.955406 2.369387 0.021162 0.011829 1416790.000000 0 0 1
-19.591626 26.245876 -33.792151 47.059402 -0.929562 2.371828 0.018924 0.009258 327769.000000 0 0 1
-20.742026 25.700076 -33.204691 46.832436 -0.891753 2.358890 0.033163 0.007416 -300947.000000 0 0 1
-22.040426 25.845476 -34.026174 48.078577 -0.864692 2.357062 0.078718 -0.017102 -125640.000000 0 0 1
-22.252726 25.060076 32.981444 47.020919 -0.844665 0.793408 0.078162 -0.015862 5593.660000 0 0 1
-22.283826 23.657476 33.184322 46.448297 -0.815289 0.774979 0.071138 -0.014196 -282281.000000 0 0 1
-22.627326 22.915476 31.859162 45.300343 -0.791725 0.790785 0.066833 -0.017000 -1980570.000000 0 0 1
-23.936326 22.967276 31.581742 45.802291 -0.764741 0.809966 0.080903 -0.023050 -2174920.000000 0 0 1
-24.269226 22.417476 30.323342 44.844661 -0.745756 0.828223 0.091641 -0.019199 551769.000000 0 0 1
-25.779226 22.097876 30.112252 45.383172 -0.708658 0.845294 0.098351 -0.022841 455681.000000 0 0 1
-26.152226 20.746476 30.394162 45.145988 -0.670640 0.832212 0.102140 -0.025469 -248096.000000 0 0 1
-27.436926 20.494976 29.891192 45.456708 -0.641569 0.853201 0.106548 -0.030942 -350842.000000 0 0 1
-28.037226 19.115176 30.192832 45.421174 -0.598392 0.843664 0.126370 -0.028278 -390564.000000 0 0 1
-28.545626 18.885076 31.507282 46.521045 -0.584469 0.826751 0.123645 -0.026151 77862.100000 0 0 1
-28.710026 17.544876 31.885202 46.354658 -0.548546 0.812269 0.110751 -0.014315 -608720.000000 0 0 1
-29.717126 16.658176 31.150912 46.162557 -0.510913 0.830090 0.086710 -0.011399 218997.000000 0 0 1
-31.086226 17.011176 31.347352 47.311627 -0.500711 0.846549 0.065173 -0.010776 536072.000000 0 0 1
-31.970726 16.012576 30.855492 47.229136 -0.464328 0.858842 0.063033 0.005340 158947.000000 0 0 1
-33.472726 16.335776 30.911182 48.402295 -0.454028 0.878079 0.049652 0.008845 -83132.700000 0 0 1
-33.948626 16.042576 32.241646 49.491385 -0.441451 0.861289 0.040882 0.006443 1014320.000000 0 0 1
-35.378826 16.199276 32.249493 50.538180 -0.429388 0.878741 0.048625 0.000120 1048400.000000 0 0 1
-36.006926 16.500376 33.699967 52.004316 -0.429698 0.865811 0.047242 0.000981 897574.000000 0 0 1
35.913345 16.946576 33.806177 52.151820 0.440895 0.865544 0.040614 -0.006256 509137.000000 0 0 1
35.624145 17.547476 -33.179861 51.748399 0.457688 2.266827 0.023896 -0.010926 -3090.840000 0 0 1
34.124745 17.857776 -32.977981 50.704493 0.482120 2.278902 0.037935 -0.012087 248983.000000 0 0 1
33.403645 16.644576 -32.780761 49.673169 0.462276 2.291520 0.044519 -0.006700 -376385.000000 0 0 1
32.200345 16.822376 -32.088541 48.471940 0.481429 2.294284 0.052611 -0.020514 -710443.000000 0 0 1
31.389245 15.521876 -32.085401 47.494066 0.459235 2.312529 0.056175 -0.014997 -225477.000000 0 0 1
30.786645 15.313376 -33.362261 47.909889 0.461568 2.341102 0.058619 -0.018524 -333036.000000 0 0 1
30.047645 14.127576 -33.408891 47.102053 0.439502 2.359283 0.050975 -0.021713 -368401.000000 0 0 1
30.693145 12.799376 -33.832311 47.439629 0.395084 2.364800 0.052516 -0.010050 -201039.000000 0 0 1
31.508645 12.158476 -32.872171 47.129639 0.368273 2.342677 0.054073 -0.003933 118078.000000 0 0 1
31.864045 10.914776 -33.352131 47.400573 0.330015 2.351280 0.051366 -0.002439 -235863.000000 0 0 1
17.805045 -21.023024 9.811999 29.244871 -0.868087 1.228648 0.027224 -0.011292 -81066.900000 0 0 1
17.640945 -22.250224 10.572499 30.299391 -0.900434 1.214363 0.025720 -0.012232 -166181.000000 0 0 1
18.829045 -22.930824 10.898299 31.608994 -0.883307 1.218787 0.020252 -0.008755 -452848.000000 0 0 1
18.576145 -24.239424 11.736899 32.716626 -0.916906 1.203874 0.027300 -0.006746 242229.000000 0 0 1
17.930245 -25.239814 10.918699 32.829253 -0.953128 1.231747 0.026639 -0.012348 -322493.000000 0 0 1
16.548245 -25.230164 11.122599 32.157701 -0.990291 1.217623 0.019194 -0.010167 -771033.000000 0 0 1
15.762345 -26.252534 10.313399 32.311194 -1.030074 1.245922 0.042806 -0.007950 -117477.000000 0 0 1
15.584445 -25.811824 8.967699 31.457031 -1.027608 1.281709 0.042392 -0.013376 403084.000000 0 0 1
14.620045 -26.633284 8.288699 31.492539 -1.068768 1.304463 0.051222 -0.008025 282681.000000 0 0 1
14.406445 -26.068314 6.850399 30.561914 -1.065927 1.344727 0.063201 -0.013215 14931.500000 0 0 1
13.780845 -24.782924 6.932699 29.191905 -1.063311 1.331018 0.072282 -0.024576 330214.000000 0 0 1
13.278245 -24.287224 5.677799 28.256299 -1.070477 1.368480 0.073448 -0.013285 300480.000000 0 0 1
12.561345 -22.899924 5.836999 26.763117 -1.069081 1.350931 0.078675 -0.016274 407162.000000 0 0 1
11.873745 -22.432624 4.642199 25.802295 -1.083979 1.389897 0.082520 -0.016213 360746.000000 0 0 1
11.205945 -21.202524 4.829199 24.463061 -1.084594 1.372083 0.089018 -0.017938 96227.200000 0 1 0
10.444545 -20.624624 3.628599 23.401503 -1.102033 1.415110 0.076097 -0.019054 -58559.600000 0 1 0
11.294545 -20.050224 2.660799 23.165881 -1.057790 1.455684 0.067357 -0.013781 185134.000000 0 1 0
10.546845 -19.628924 1.524799 22.335075 -1.077747 1.502474 0.050701 0.001500 380341.000000 0 1 0
11.513745 -19.181224 0.406599 22.375231 -1.030185 1.552623 0.037252 0.002296 324533.000000 0 1 0
12.360245 -18.097824 0.749799 21.928727 -0.971593 1.536597 0.047010 0.001201 -407477.000000 0 1 0
13.042645 -17.722324 -0.397201 22.007933 -0.936352 1.588845 0.063167 -0.002513 -630886.000000 0 1 0
14.111345 -16.663324 -0.028701 21.835687 -0.868134 1.572111 0.064190 0.002397 -127397.000000 0 1 0
15.155645 -17.362124 0.612899 23.054556 -0.853149 1.544208 0.074562 -0.004050 -986079.000000 0 1 0
16.263145 -16.564924 0.795499 23.227557 -0.794591 1.536542 0.068084 -0.016161 -460108.000000 0 1 0
17.516245 -17.241224 1.385799 24.617048 -0.777486 1.514472 0.060497 -0.004137 40052.500000 0 1 0
17.936745 -18.266124 0.563699 25.606559 -0.794496 1.548781 0.044313 -0.000414 749689.000000 0 0 1
19.157745 -18.845324 1.095199 26.895443 -0.777177 1.530064 0.038768 -0.000188 1161340.000000 0 0 1
19.431645 -20.304424 0.528199 28.109383 -0.807359 1.552004 0.019808 0.006353 -17316.700000 0 0 1
18.602145 -21.211724 1.177499 28.237626 -0.850849 1.529085 0.024764 0.004097 -108520.000000 0 0 1
18.928245 -22.475024 0.659899 29.391165 -0.870854 1.548342 0.026644 0.001882 250230.000000 0 0 1
17.863145 -23.610724 0.810999 29.617831 -0.923104 1.543411 0.036483 0.003464 212113.000000 0 0 1
17.982445 -24.268924 2.100799 30.278083 -0.933102 1.501357 0.030906 0.005327 246542.000000 0 0 1
16.812645 -24.981824 2.445799 30.211562 -0.978425 1.489752 0.042183 0.003710 78331.400000 0 0 1
17.105145 -25.916234 3.681599 31.269655 -0.987412 1.452785 0.045067 -0.006354 343452.000000 0 0 1
17.998845 -27.019164 3.578799 32.661926 -0.983151 1.461005 0.029698 0.001419 -89873.400000 0 0 1
19.268145 -26.688664 4.061999 33.166941 -0.945484 1.448017 0.037998 0.003262 -612244.000000 0 0 1
20.351645 -27.764514 4.196899 34.679556 -0.938258 1.449480 0.053006 -0.001089 -128993.000000 0 0 1
20.838945 -28.173054 2.936399 35.165395 -0.933935 1.487196 0.035077 0.010019 -173771.000000 0 0 1
21.716745 -29.278764 2.983499 36.575460 -0.932613 1.489135 0.041260 0.010352 227717.000000 0 0 1
21.021145 -30.705944 3.318499 37.359817 -0.970484 1.481854 0.056866 0.003631 229837.000000 0 0 1
20.763645 -30.780524 4.725299 37.428572 -0.977342 1.444210 0.083916 -0.000002 -82881.600000 0 0 1
20.067345 -31.987274 4.980999 38.087982 -1.010506 1.439645 0.066571 -0.016827 -72974.700000 0 0 1
19.836245 -32.381434 6.426099 38.514005 -1.021178 1.403161 0.090731 -0.026227 -313220.000000 0 0 1
21.003145 -32.700094 7.142399 39.515087 -0.999856 1.389046 0.081840 -0.042200 -106168.000000 0 0 1
20.716945 -33.549904 8.268199 40.288347 -1.017611 1.364102 0.077849 -0.036868 -243572.000000 0 0 1
21.921645 33.988463 8.869499 41.405823 0.997963 1.354914 0.084545 -0.040321 -174829.000000 0 0 1
22.893645 -33.462254 9.489299 41.639983 -0.970778 1.340887 0.088586 -0.041816 -412279.000000 0 0 1
24.039145 34.068938 9.790399 42.830187 0.956320 1.340171 0.106618 -0.043994 -658065.000000 0 0 1
25.140245 -33.451034 10.551599 43.154835 -0.926302 1.323787 0.100751 -0.038591 -526749.000000 0 0 1
25.815645 -32.547344 9.696199 42.659036 -0.900233 1.341497 0.070533 -0.031361 195126.000000 0 0 1
26.736145 -31.730704 10.429499 42.783565 -0.870617 1.324542 0.054347 -0.024816 541157.000000 0 0 1
27.379145 -30.603674 9.593099 42.169064 -0.840953 1.341296 0.052139 -0.025094 -550122.000000 0 0 1
26.362045 -29.723424 9.233099 40.788349 -0.845260 1.342451 0.042132 -0.026540 -105033.000000 0 0 1
26.743845 -28.895524 8.187899 40.214751 -0.824051 1.365758 0.046525 -0.024829 -169164.000000 0 0 1
26.249745 -27.482224 8.458499 38.934148 -0.808332 1.351799 0.037582 -0.017655 -401882.000000 0 0 1
26.920645 -26.935904 9.527699 39.256096 -0.785681 1.325642 0.036882 -0.025712 -26067.100000 0 0 1
26.425545 -25.602564 9.704599 38.052331 -0.769581 1.312915 0.041410 -0.022538 531448.000000 0 0 1
27.403945 -24.742024 10.612999 38.415878 -0.734395 1.290890 0.053707 -0.031558 263292.000000 0 0 1
28.648445 -24.523724 10.007599 39.016643 -0.707980 1.311402 0.039517 -0.025942 -787503.000000 0 0 1
29.526145 -23.930724 10.932899 39.547453 -0.681106 1.290698 0.044861 -0.028557 -374904.000000 0 0 1
30.896245 -23.648824 10.318799 40.253228 -0.653302 1.311555 0.055165 -0.027395 -298201.000000 0 0 1
30.886445 -22.798824 9.193799 39.475116 -0.635874 1.335737 0.046839 -0.019247 -717271.000000 0 0 1
32.155445 -22.575424 8.659599 40.231965 -0.612115 1.353857 0.046373 -0.023318 -487073.000000 0 0 1
32.032045 -21.919424 7.272299 39.489231 -0.600109 1.385580 0.051990 -0.007027 -16811.300000 0 0 1
31.562145 -20.599924 7.307099 38.391660 -0.578256 1.379298 0.047898 0.007006 -23081.100000 0 0 1
31.901545 -19.913224 6.054999 38.090787 -0.558030 1.411157 0.044895 0.007073 231298.000000 0 0 1
31.519945 -18.448524 6.035899 37.017388 -0.529538 1.407009 0.059171 0.008454 306385.000000 0 0 1
32.259145 -17.781824 7.051699 37.504295 -0.503778 1.381647 0.061395 0.009246 -46531.500000 0 0 1
31.873445 -16.404324 7.174899 36.558138 -0.475315 1.373254 0.068290 0.002376 12388.600000 0 0 1
32.197645 -15.652324 8.505399 36.797084 -0.452492 1.337544 0.067125 -0.023130 -384752.000000 0 0 1
33.561245 -15.362724 8.523299 37.881619 -0.429282 1.343855 0.076644 -0.017536 -632276.000000 0 0 1
34.022345 -14.682724 9.668199 38.295905 -0.407415 1.315574 0.073239 -0.028668 291770.000000 0 0 1
35.548945 -14.470524 9.781499 39.608096 -0.386577 1.321258 0.066194 -0.028979 -27860.200000 0 0 1
36.183545 -13.595524 8.923299 39.670044 -0.359417 1.343917 0.075950 -0.023073 -115352.000000 0 0 1
-35.763626 -14.029124 8.718999 39.393834 0.373828 1.347619 0.073010 -0.023887 139697.000000 0 0 1
-34.792626 -13.089024 8.031099 38.030881 0.359823 1.358021 0.083675 -0.034085 -353251.000000 0 0 1
-35.134226 -12.876724 6.642399 38.004543 0.351299 1.395115 0.101332 -0.040032 614728.000000 0 0 1
-34.000126 -12.418724 5.897999 36.674509 0.350200 1.409275 0.097042 -0.033109 623484.000000 0 0 1
-32.924426 -13.417824 5.461199 35.970550 0.386984 1.418383 0.075165 -0.023246 -576546.000000 0 0 1
-32.236426 -14.042224 6.485699 35.755216 0.410816 1.388395 0.086504 -0.020630 -30619.700000 0 0 1
-31.274026 -14.951524 5.942199 35.169909 0.445959 1.401025 0.073745 -0.008915 572310.000000 0 0 1
-30.604826 -15.801624 7.115199 35.170623 0.476611 1.367085 0.067900 -0.018993 980867.000000 0 0 1
-31.555826 -16.717224 7.712399 36.533776 0.487176 1.358093 0.072233 -0.023283 675759.000000 0 0 1
-31.072826 -16.996724 8.996299 36.542339 0.500534 1.322051 0.061672 -0.021417 467081.000000 0 0 1
-32.179026 -17.730124 9.849899 38.037711 0.503598 1.308860 0.031193 -0.018832 -1103440.000000 0 0 1
-33.219826 -16.813924 10.093599 38.576490 0.468549 1.306063 0.049908 -0.017936 281776.000000 0 0 1
-34.317126 -17.256924 10.885399 39.924409 0.465938 1.294650 0.058177 -0.019470 558816.000000 0 0 1
-35.084826 -18.517124 10.342499 40.997514 0.485625 1.315770 0.056798 -0.022802 -1305700.000000 0 0 1
-34.394026 -19.786724 10.353399 41.008003 0.522056 1.315561 0.056887 -0.021836 -261533.000000 0 0 1
-33.922926 -20.210824 11.596699 41.154899 0.537316 1.285146 0.054204 -0.030174 -322705.000000 0 0 1
-34.976226 -20.825624 12.569599 42.603260 0.537047 1.271301 0.048924 -0.032112 135815.000000 0 0 1
-35.373226 -22.113024 12.209099 43.466228 0.558696 1.286078 0.041947 -0.029879 935326.000000 0 0 1
36.560545 -22.135324 11.656299 44.300285 -0.544412 1.304541 0.061955 -0.028728 1124250.000000 0 0 1
36.058345 -23.591624 11.368399 44.564666 -0.579366 1.312846 0.060436 -0.019931 76664.300000 0 0 1
36.079345 -24.251624 12.600599 45.261854 -0.591806 1.288675 0.075452 -0.013545 -37130.600000 0 0 1
35.434545 -25.471734 12.514899 45.398666 -0.623258 1.291513 0.041149 -0.003787 -227599.000000 0 0 1
34.521845 -25.766494 13.746399 45.217623 -0.641182 1.261902 0.047278 -0.016356 629190.000000 0 0 1
33.323445 -24.987024 13.582899 43.809799 -0.643394 1.255559 0.052335 -0.021212 268542.000000 0 0 1
32.561145 -24.794924 14.747299 43.502864 -0.650813 1.224947 0.050351 -0.010885 -413964.000000 0 0 1
32.706945 -23.363924 15.310299 43.011887 -0.620286 1.206860 0.062754 -0.019388 717131.000000 0 0 1
33.907945 -22.972124 16.001699 43.971827 -0.595455 1.198336 0.068571 -0.025176 441379.000000 0 0 1
34.980045 -22.601424 15.151399 44.316958 -0.573645 1.221872 0.063478 -0.022971 -76033.800000 0 0 1
36.039345 -21.812324 15.953899 45.045962 -0.544261 1.208771 0.063325 -0.026197 -260173.000000 0 0 1
35.744145 -20.439324 16.300099 44.284343 -0.519443 1.193855 0.073893 -0.017332 856489.000000 0 0 1
34.661445 -20.349624 17.276399 43.749250 -0.530878 1.164842 0.073156 -0.015318 805348.000000 0 0 1
34.663645 -18.967724 17.946899 43.398548 -0.500686 1.144461 0.080361 -0.006054 -363916.000000 0 0 1
34.238645 -17.983824 16.998299 42.245057 -0.483642 1.156688 0.078015 -0.011930 108639.000000 0 0 1
34.140245 -16.662024 17.542799 41.844105 -0.454039 1.138186 0.078976 -0.007907 -476726.000000 0 0 1
35.428845 -15.954424 17.951799 42.802030 -0.423123 1.137996 0.054556 -0.015907 -653167.000000 0 0 1
36.099045 -16.473224 19.041199 44.012218 -0.428109 1.123384 0.050341 0.001354 -638060.000000 0 0 1
-36.278826 -15.552324 19.512699 44.031504 0.404991 1.111683 0.043380 -0.015754 -700014.000000 0 0 1
-35.762226 -15.714824 20.940799 44.321660 0.414025 1.078701 0.041652 -0.003071 -139293.000000 0 0 1
-34.741826 -16.656524 21.192999 43.972462 0.447062 1.067905 0.034048 -0.002091 166216.000000 0 0 1
-34.355926 -16.503524 22.558899 44.289952 0.447820 1.036372 0.032306 0.001917 274478.000000 0 0 1
-33.401426 -17.617924 23.112499 44.274531 0.485374 1.021571 0.032417 0.003668 -259149.000000 0 0 1
-33.939726 -18.918524 23.124299 45.216686 0.508519 1.033971 0.034619 -0.000528 148631.000000 0 0 1
-33.119926 -19.857524 23.801399 45.362510 0.540099 1.018442 0.018693 0.005755 -482139.000000 0 0 1
-32.007626 -20.482624 22.941799 44.388648 0.569263 1.027642 0.014117 0.013821 -681179.000000 0 0 1
-30.972126 -19.560224 22.775999 43.134917 0.563290 1.014532 0.016576 0.019374 -891647.000000 0 0 1
-29.796726 -20.289424 22.513099 42.501120 0.597811 1.012542 0.015761 0.011795 -668647.000000 0 0 1
-28.587726 -19.362424 22.488299 41.205401 0.595327 0.993499 0.030370 0.008865 -597782.000000 0 0 1
-28.275226 -18.884624 23.750199 41.475165 0.588846 0.961078 0.016100 0.011377 -224983.000000 0 0 1
-26.995826 -18.315424 23.745699 40.349567 0.596119 0.941595 0.037710 -0.002678 -431123.000000 0 0 1
-26.686326 -17.548724 25.052799 40.592615 0.581694 0.905647 0.036667 -0.009283 -356413.000000 0 0 1
-25.419026 -16.888524 25.063099 39.490607 0.586435 0.883228 0.048371 -0.012701 318008.000000 0 0 1
-25.065726 -16.265924 26.276099 39.790756 0.575623 0.849502 0.047829 -0.022497 103775.000000 0 0 1
-24.144026 -17.177224 27.122599 40.169968 0.618368 0.829566 0.040965 -0.017880 -248914.000000 0 0 1
-24.686626 -18.407124 27.544499 41.315265 0.640699 0.841037 0.042031 -0.012177 751654.000000 0 0 1
-23.700626 -18.955024 28.475699 41.615838 0.674600 0.817220 0.037411 -0.011906 903179.000000 0 0 1
-24.194126 -20.297224 28.975299 42.859083 0.698033 0.828394 0.025627 -0.003837 -556502.000000 0 0 1
-25.200226 -20.178024 29.912699 44.011062 0.675173 0.823493 0.028155 -0.011212 -442244.000000 0 0 1
-25.602226 -21.426524 30.462999 45.194736 0.696840 0.831134 0.022359 -0.004007 -146264.000000 0 0 1
-26.747326 -21.405324 31.494099 46.534778 0.674911 0.827408 0.043476 -0.010808 -793645.000000 0 0 1
-26.506626 -20.537224 32.541999 46.726443 0.659183 0.800377 0.053840 -0.017985 372641.000000 0 0 1
-27.502526 -20.531224 33.584299 48.019009 0.641271 0.796244 0.053743 -0.019844 -376730.000000 0 0 1
-28.629026 -19.594224 33.268299 48.065938 0.600192 0.806348 0.033852 -0.020562 -913527.000000 0 0 1
-29.475126 -20.104124 32.227999 48.079130 0.598591 0.836168 0.042823 -0.020375 -588139.000000 0 0 1
-30.728826 -19.506624 32.347399 48.694181 0.565615 0.844243 0.062032 -0.028455 -614462.000000 0 0 1
-31.652826 -20.145124 31.257399 48.833926 0.566784 0.876200 0.051023 -0.003561 -134241.000000 0 0 1
-32.028426 -19.276924 30.224399 48.072176 0.541793 0.890878 0.042965 -0.022254 461522.000000 0 0 1
-33.100626 -19.823124 29.467899 48.548581 0.539592 0.918544 0.048697 -0.020162 97887.900000 0 0 1
-33.470526 -18.892324 28.312099 47.736474 0.513867 0.935903 0.043666 -0.015896 -196868.000000 0 0 1
-34.481126 -19.527624 27.549399 48.262257 0.515293 0.963284 0.027131 -0.014606 174835.000000 0 0 1
-35.189426 -18.576924 26.798699 47.974660 0.485727 0.978098 0.043524 -0.011333 -411221.000000 0 0 1
-36.289526 -19.134124 25.884699 48.508370 0.485219 1.007929 0.032798 -0.005243 834734.000000 0 0 1
35.790645 -19.509324 26.623899 48.686918 -0.499070 0.992212 0.049621 -0.004722 991057.000000 0 0 1
34.746945 -19.826424 25.716999 47.558398 -0.518517 0.999473 0.093970 -0.008976 285319.000000 0 0 1
33.441545 -20.374524 26.351699 47.200319 -0.547199 0.978467 0.087342 -0.020098 16703.400000 0 0 1
32.538945 -19.380524 26.748199 46.366515 -0.537185 0.955885 0.073823 -0.029606 -372057.000000 0 0 1
31.478145 -19.968024 27.436599 46.285662 -0.565292 0.936307 0.066511 -0.017018 -272874.000000 0 0 1
-30.064025 -5.919624 33.905130 45.699512 0.194414 0.734875 0.046105 -0.020465 172441.000000 0 0 1
-30.754255 -5.975124 32.669201 45.263705 0.191895 0.764465 0.060368 -0.017264 402754.000000 0 0 1
-30.251065 -4.891524 31.898852 44.233366 0.160310 0.765337 0.060757 -0.014626 146243.000000 0 0 1
-30.902175 -4.769624 30.486112 43.670319 0.153137 0.798060 0.060680 -0.025224 -26376.100000 0 0 1
-30.760025 -5.814224 29.494282 43.010429 0.186815 0.815167 0.061298 -0.027668 390660.000000 0 0 1
-29.432365 -5.999324 28.985252 41.742075 0.201080 0.803225 0.049825 -0.018212 500272.000000 0 0 1
-29.358175 -6.851024 27.682702 40.928852 0.229257 0.827985 0.044694 -0.024276 -228442.000000 0 0 1
-29.835155 -6.128424 26.653922 40.473765 0.202592 0.851909 0.061557 -0.031960 -361251.000000 0 0 1
-29.967585 -6.869824 25.449102 39.911244 0.225348 0.879362 0.062940 -0.024321 -215875.000000 0 0 1
-30.676855 -6.266224 24.248102 39.601837 0.201494 0.911833 0.088691 -0.015553 -434560.000000 0 0 1
-29.975335 -5.291424 23.521902 38.468166 0.174726 0.912887 0.097654 -0.022900 -256426.000000 0 0 1
-30.682665 -4.661324 22.467992 38.314025 0.150768 0.944168 0.111907 -0.022514 132080.000000 0 0 1
-29.848675 -3.460124 21.907492 37.186746 0.115407 0.940826 0.111905 -0.023542 98946.600000 0 0 1
-28.647745 -3.933624 21.363092 35.952029 0.136457 0.934512 0.127777 -0.026649 -338315.000000 0 0 1
-27.897915 -2.809824 20.898692 34.970618 0.100380 0.930283 0.139265 -0.019034 -1028010.000000 0 0 1
-26.561745 -3.092824 20.305892 33.577092 0.115917 0.921339 0.141311 -0.013918 -1290150.000000 0 0 1
-26.466125 -3.744624 18.997592 32.793086 0.140554 0.952906 0.164828 -0.024884 -187876.000000 0 0 1
-25.173955 -3.514524 18.480692 31.426356 0.138713 0.942134 0.131040 -0.020263 -272723.000000 0 0 1
-25.048355 -4.127024 17.056792 30.584090 0.163295 0.979182 0.129570 -0.022755 -197908.000000 0 0 1
-25.699805 -3.377824 16.063592 30.494732 0.130685 1.016005 0.172580 -0.025324 55978.800000 0 0 1
-25.830785 -4.055924 14.879592 30.084585 0.155747 1.053431 0.149689 -0.025359 -704754.000000 0 0 1
-27.248205 -4.073724 14.337092 31.058205 0.148405 1.090976 0.174018 -0.031380 -409290.000000 0 0 1
-27.674035 -2.794524 13.802792 31.051226 0.100639 1.110162 0.185593 -0.039087 5065.860000 0 0 1
-29.009695 -2.845024 13.361092 32.065174 0.097759 1.141000 0.197427 -0.040079 181224.000000 0 0 1
-29.586775 -1.684624 12.512292 32.167883 0.056877 1.171285 0.182460 -0.025411 -264105.000000 0 0 1
-28.799735 -1.516924 11.380192 31.003783 0.052623 1.194952 0.178236 -0.025527 -17686.400000 0 0 1
-29.082045 -0.373724 10.561792 30.942794 0.012850 1.222462 0.165936 -0.017503 47207.300000 0 0 1
-30.424775 -0.344824 9.770292 31.956916 0.011333 1.260088 0.171027 -0.015178 399742.000000 0 0 1
-30.404675 -1.231824 8.676092 31.642317 0.040492 1.293046 0.160830 -0.027517 -508335.000000 0 0 1
-31.601415 -1.179924 7.965792 32.611279 0.037320 1.324035 0.142037 -0.028441 -434599.000000 0 0 1
-31.834355 -2.065224 6.716492 32.600653 0.064783 1.363287 0.149606 -0.033113 -95865.100000 0 0 1
-31.216555 -1.618624 5.500692 31.738791 0.051805 1.396605 0.155018 -0.040758 313122.000000 0 0 1
-31.857285 -0.527224 4.859892 32.230159 0.016548 1.419432 0.143923 -0.030936 -248617.000000 0 0 1
-31.301355 -0.000424 3.506192 31.497115 0.000014 1.459247 0.140498 -0.033055 -332972.000000 0 0 1
-31.571295 -0.939224 2.477992 31.682318 0.029741 1.492503 0.131650 -0.047643 527475.000000 0 0 1
-31.107385 -0.442724 1.212492 31.134154 0.014231 1.531842 0.142094 -0.052257 -146412.000000 0 0 1
-31.898725 -1.079324 0.036192 31.917001 0.033823 1.569662 0.143173 -0.049256 552367.000000 0 0 1
-33.288375 -0.767624 0.117092 33.297431 0.023056 1.567280 0.135497 -0.045712 493721.000000 0 0 1
-34.071865 -1.268424 -0.925708 34.108032 0.037211 1.597940 0.121998 -0.041884 239485.000000 0 0 1
-35.579694 -0.932524 -0.759108 35.600007 0.026203 1.592121 0.102623 -0.034460 176983.000000 0 0 1
-36.289095 -1.697624 0.206892 36.329371 0.046746 1.565101 0.097847 -0.034041 -708121.000000 0 0 1
35.632125 -1.446024 0.157292 35.661801 -0.040560 1.566386 0.084740 -0.027285 -1031060.000000 0 0 1
34.796455 -2.648524 0.644792 34.903062 -0.075968 1.552321 0.088560 -0.033234 -343736.000000 0 0 1
34.998805 -2.927924 1.984592 35.177090 -0.083463 1.514349 0.094945 -0.038881 182941.000000 0 0 1
34.339005 -4.121924 2.373592 34.666864 -0.119465 1.502274 0.088785 -0.029943 -117600.000000 0 0 1
34.317775 -4.323124 3.867192 34.804515 -0.125313 1.459455 0.095736 -0.027006 -11381.900000 0 0 1
33.589075 -3.326924 4.541392 34.057578 -0.098726 1.437053 0.098429 -0.035990 83371.900000 0 0 1
33.562105 -3.694224 5.933792 34.282241 -0.109630 1.396834 0.087890 -0.036339 -386644.000000 0 0 1
32.943195 -2.615024 6.783992 33.735960 -0.079214 1.368325 0.107694 -0.033250 -248690.000000 0 0 1
31.555925 -2.507524 6.552392 32.326428 -0.079296 1.366687 0.104809 -0.030154 -71724.000000 0 0 1
31.043655 -1.343724 7.149792 31.884693 -0.043258 1.344634 0.116489 -0.025148 -521461.000000 0 0 1
29.555775 -1.401324 7.491492 30.522614 -0.047377 1.322822 0.109952 -0.019023 -877135.000000 0 0 1
28.756375 -1.129724 6.349292 29.470644 -0.039266 1.353649 0.127403 -0.026105 1498230.000000 0 0 1
27.335615 -1.295824 6.600892 28.151142 -0.047369 1.334112 0.118156 -0.012934 1335970.000000 0 0 1
26.756315 -2.759624 6.696592 27.719312 -0.102776 1.326797 0.138234 -0.024556 -883470.000000 0 0 1
27.112315 -3.595724 7.718192 28.417905 -0.131854 1.295745 0.111532 -0.018767 195565.000000 0 0 1
26.490015 -4.856224 7.676192 28.004066 -0.181310 1.293132 0.119380 -0.030212 -497859.000000 0 0 1
26.856515 -5.788524 8.852192 28.864177 -0.212288 1.259089 0.103744 -0.024010 -356876.000000 0 0 1
26.029815 -5.573724 9.976992 28.428120 -0.210943 1.212206 0.097951 -0.016338 252543.000000 0 0 1
26.483315 -6.194624 11.138492 29.390565 -0.229776 1.182100 0.078469 -0.015706 -611903.000000 0 0 1
25.453015 -6.221524 12.250092 28.924524 -0.239731 1.133470 0.066994 -0.013311 -191022.000000 0 0 1
24.257115 -6.871424 11.873892 27.867784 -0.276043 1.130642 0.086910 -0.025544 -745533.000000 0 0 1
23.274015 -6.726124 12.805492 27.402575 -0.281332 1.084551 0.089001 -0.029475 -792052.000000 0 0 1
22.289815 -7.904124 12.850392 26.915490 -0.340773 1.073063 0.093837 -0.029018 -217163.000000 0 0 1
22.611615 -9.017224 13.599392 27.884385 -0.379460 1.061336 0.082729 -0.026823 54319.000000 0 0 1
21.570915 -9.972624 13.555092 27.358694 -0.433050 1.052434 0.122822 -0.042834 -45980.600000 0 0 1
21.915215 -11.119424 14.476292 28.521593 -0.469537 1.038451 0.095019 -0.031520 -200921.000000 0 0 1
22.004215 -10.737224 15.810892 29.145458 -0.453971 0.997407 0.073533 -0.026740 300007.000000 0 0 1
22.348115 -11.863524 16.608792 30.266044 -0.488023 0.989916 0.067388 -0.023843 -191518.000000 0 0 1
22.168815 -11.714924 18.142392 30.949025 -0.486141 0.944433 0.063581 -0.018032 -247895.000000 0 0 1
20.841715 -11.591724 18.589192 30.237447 -0.507575 0.908697 0.058127 -0.014697 -269011.000000 0 0 1
20.646715 -11.826924 19.979192 31.069777 -0.520197 0.872332 0.068243 -0.008502 77866.700000 0 0 1
21.070615 -10.740224 20.979592 31.614340 -0.471397 0.845162 0.041448 -0.000763 -605973.000000 0 0 1
20.256915 -9.607924 21.041892 30.747618 -0.442880 0.817095 0.044705 -0.001441 -585139.000000 0 0 1
20.637515 -8.478424 20.249992 30.130597 -0.389804 0.833790 0.044705 -0.000575 -1443540.000000 0 0 1
21.776715 -7.598724 20.747292 31.022831 -0.335728 0.838237 0.044655 0.006371 376653.000000 0 0 1
23.093615 -8.130424 20.826292 32.142702 -0.338512 0.865930 0.043106 0.004743 859161.000000 0 0 1
23.683315 -8.423124 19.498692 31.812693 -0.341705 0.911043 0.050759 -0.001603 -1106650.000000 0 0 1
25.003415 -9.160724 19.521092 33.017611 -0.351191 0.938210 0.064706 -0.005705 -488810.000000 0 0 1
24.870115 -10.475324 19.968092 33.570519 -0.398649 0.933767 0.051768 -0.010044 84674.900000 0 0 1
26.102215 -11.153724 19.840092 34.631783 -0.403825 0.960773 0.055080 -0.014267 148813.000000 0 0 1
25.986915 -12.683324 20.119192 35.227380 -0.454055 0.962922 0.043500 -0.012641 -203264.000000 0 0 1
25.187515 -13.354624 19.199392 34.371115 -0.487521 0.978110 0.064744 -0.014605 -89119.400000 0 0 1
25.129315 -14.723224 19.487592 35.043145 -0.529986 0.981107 0.059016 -0.012468 -437668.000000 0 0 1
24.089715 -15.513424 18.699892 34.215006 -0.572135 0.992569 0.075928 -0.017272 -573783.000000 0 0 1
24.318615 -15.399324 17.295492 33.580772 -0.564497 1.029740 0.067835 -0.019640 252231.000000 0 0 1
23.304015 -15.941824 16.452792 32.678941 -0.599962 1.043189 0.052858 -0.022757 -67998.300000 0 0 1
23.075615 -17.486124 16.536992 33.342475 -0.648459 1.051840 0.041241 -0.019122 -778755.000000 0 0 1
24.167315 -18.222324 16.124992 34.294716 -0.646061 1.081292 0.060516 -0.014716 -532589.000000 0 0 1
24.153915 -19.468724 16.708392 35.236532 -0.678406 1.076766 0.045850 -0.009629 -104653.000000 0 0 1
25.307215 -20.411824 16.319592 36.378933 -0.678729 1.105598 0.048163 -0.004293 -101216.000000 0 0 1
25.306315 -20.695024 14.929992 35.938812 -0.685489 1.142383 0.052807 -0.019099 -38146.900000 0 0 1
26.284915 -21.664124 14.672992 37.088107 -0.689326 1.164048 0.055729 -0.028671 -410483.000000 0 0 1
26.799515 -21.616924 13.194892 36.872897 -0.678762 1.204834 0.057321 -0.041235 -554899.000000 0 0 1
25.831715 -21.705424 12.215792 35.883541 -0.698814 1.223423 0.044835 -0.026788 -287437.000000 0 0 1
26.442515 -21.296024 10.998492 35.688850 -0.678007 1.257520 0.045371 -0.023041 -698284.000000 0 0 1
25.509015 -21.096124 9.836092 34.532665 -0.690993 1.281963 0.027849 -0.018698 -82878.200000 0 0 1
24.791015 -22.241524 9.322692 34.586014 -0.731244 1.297870 0.023714 -0.020789 283065.000000 0 0 1
23.551415 -22.394124 9.995392 34.001085 -0.760215 1.272416 0.017450 -0.007981 -216602.000000 0 0 1
22.606815 -23.373024 9.231492 33.802171 -0.802061 1.294179 0.016418 -0.009158 -330527.000000 0 0 1
22.929715 -24.755924 9.336092 35.011287 -0.823676 1.300871 0.018627 -0.008189 -40568.500000 0 0 1
22.725015 -25.485184 8.115292 35.096707 -0.842589 1.337458 0.028978 -0.001686 209069.000000 0 0 1
21.255015 -25.928574 7.858192 34.435705 -0.884127 1.340569 0.042201 0.004348 437576.000000 0 0 1
20.387915 -24.829524 7.566792 33.006494 -0.883312 1.339488 0.030207 0.003168 -646729.000000 0 0 1
19.084415 -25.346034 7.520892 32.606750 -0.925407 1.338046 0.052602 -0.015496 -2662.620000 0 0 1
17.985915 -24.241424 7.483292 31.098865 -0.932467 1.327782 0.043406 -0.012760 61404.200000 0 0 1
17.925715 -23.530724 6.286192 30.241402 -0.919786 1.361402 0.057537 -0.011700 -100667.000000 0 0 1
16.917115 -22.563224 6.352892 28.907561 -0.927446 1.349222 0.060582 -0.009856 -295160.000000 0 0 1
16.634415 -21.816024 5.060492 27.897154 -0.919352 1.388388 0.064759 -0.004462 -741322.000000 0 0 1
15.594515 -20.930724 5.244492 26.623087 -0.930468 1.372509 0.069721 -0.005825 -508241.000000 0 0 1
15.218515 -20.342324 4.008992 25.719357 -0.928499 1.414284 0.069499 -0.006622 284683.000000 0 0 1
14.426515 -19.043524 4.102892 24.240748 -0.922478 1.400722 0.076951 -0.005383 285391.000000 0 1 0
15.345515 -17.984324 4.338392 24.036272 -0.864406 1.389308 0.067679 -0.005668 289618.000000 0 1 0
14.704515 -16.720724 4.352092 22.688016 -0.849469 1.377777 0.050120 -0.003273 -235350.000000 0 1 0
15.645015 -15.530724 4.452992 22.489976 -0.781732 1.371480 0.042909 -0.004728 -468726.000000 0 1 0
16.142715 -15.412624 5.800592 23.060422 -0.762265 1.316526 0.065148 -0.015773 841800.000000 0 1 0
17.259815 -14.502024 5.824792 23.283859 -0.698788 1.317946 0.089195 -0.018649 2208020.000000 0 1 0
18.749215 -15.038524 5.572192 24.672648 -0.676013 1.342986 0.106864 -0.027063 1392160.000000 0 1 0
19.616615 -13.911324 5.630292 24.698921 -0.616847 1.340817 0.110336 -0.029228 1006720.000000 0 1 0
20.965415 -14.275724 5.247992 25.901474 -0.597804 1.366770 0.108154 -0.028659 1068530.000000 0 0 1
21.965115 -13.089924 5.235592 26.100264 -0.537430 1.368831 0.102515 -0.029899 24127.400000 0 0 1
22.184615 -12.606824 6.532292 26.339324 -0.516761 1.320176 0.127815 -0.038679 -126495.000000 0 0 1
23.205815 -11.664624 6.486792 26.770352 -0.465773 1.326048 0.120148 -0.040562 -391575.000000 0 0 1
23.271315 -10.919024 7.830792 26.871927 -0.438710 1.275094 0.129576 -0.041332 -101236.000000 0 0 1
23.811315 -11.692824 8.869592 27.970887 -0.456471 1.248125 0.128852 -0.033816 250460.000000 0 0 1
23.860115 -11.130724 10.135292 28.212094 -0.436490 1.203329 0.143406 -0.042557 -19137.600000 0 0 1
24.287715 -12.118124 11.289592 29.397226 -0.462800 1.176633 0.110930 -0.031879 517062.000000 0 0 1
23.321115 -13.172924 11.524492 29.158433 -0.514173 1.164470 0.124263 -0.031398 1185820.000000 0 0 1
23.900115 -14.138024 12.413792 30.417124 -0.534180 1.150404 0.115632 -0.032393 567082.000000 0 0 1
22.830815 -15.194524 12.846192 30.284390 -0.587213 1.132734 0.098421 -0.031873 1406360.000000 0 0 1
21.735315 -14.643724 13.618792 29.535302 -0.592876 1.091559 0.082059 -0.027668 1823660.000000 0 0 1
20.505415 -15.422524 13.611892 29.044963 -0.644856 1.083036 0.070241 -0.021747 980536.000000 0 0 1
19.281615 -14.678724 14.123192 28.048354 -0.650682 1.043116 0.064590 -0.025935 -873593.000000 0 0 1
19.363215 -14.381924 15.442992 28.640178 -0.638841 1.001301 0.063636 -0.024424 130970.000000 0 0 1
18.757715 -13.163924 15.853792 27.865453 -0.611924 0.965579 0.080923 -0.031999 -366412.000000 0 0 1
17.248215 -12.956524 15.855392 26.772484 -0.644256 0.936976 0.092521 -0.034216 -509165.000000 0 0 1
16.506715 -13.247824 14.613992 25.720522 -0.676307 0.966499 0.094235 -0.044113 1033190.000000 0 0 1
15.110415 -12.978024 14.740992 24.780044 -0.709626 0.933688 0.098820 -0.045346 548306.000000 0 1 0
14.772215 -11.458524 14.411392 23.605176 -0.659735 0.914081 0.089217 -0.041231 -625136.000000 0 1 0
15.388315 -10.485324 15.156392 24.009549 -0.598121 0.887613 0.085507 -0.033808 -378689.000000 0 1 0
14.961515 -9.208524 14.795392 22.968401 -0.551725 0.870868 0.081536 -0.027762 -1054200.000000 0 1 0
15.623415 -8.126324 15.565492 23.503463 -0.479628 0.846960 0.095886 -0.026341 -116518.000000 0 1 0
17.033915 -8.105624 15.462892 24.391728 -0.444143 0.884159 0.099901 -0.031507 346503.000000 0 1 0
17.697515 -8.908724 16.479192 25.770742 -0.466355 0.877009 0.097260 -0.031342 -358750.000000 0 0 1
19.222915 -8.792924 16.283292 26.682983 -0.429006 0.914420 0.076836 -0.025190 -185500.000000 0 0 1
19.749015 -7.595824 16.844792 27.045649 -0.367176 0.898444 0.065825 -0.023680 620178.000000 0 0 1
21.021215 -7.317424 16.258792 27.564188 -0.334979 0.939921 0.049211 -0.019696 280208.000000 0 0 1
21.578715 -5.921624 16.642392 27.886839 -0.267827 0.931310 0.045320 -0.016008 -350354.000000 0 0 1
22.308915 -5.923224 17.819792 29.160200 -0.259522 0.913347 0.056633 -0.012744 -24783.500000 0 0 1
22.610215 -4.594624 18.147192 29.353926 -0.200480 0.904320 0.063531 -0.015923 -46910.200000 0 0 1
-5.799855 -32.977868 -6.809601 34.169413 1.396706 1.771429 0.055644 -0.020615 -128033.000000 0 0 1
-6.421555 -31.696368 -6.761001 33.039480 1.370906 1.776886 0.058967 -0.023125 -57593.900000 0 0 1
-5.949255 -30.935768 -5.676501 32.009968 1.380806 1.749075 0.067654 -0.028659 -684266.000000 0 0 1
-6.790355 -29.609968 -5.531701 30.878129 1.345368 1.750915 0.068371 -0.028486 614045.000000 0 0 1
-8.137455 -29.724168 -5.132301 31.242357 1.303578 1.735818 0.065186 -0.028275 -185092.000000 0 0 1
-8.989855 -30.323568 -6.053401 32.202173 1.282586 1.759903 0.058575 -0.025671 -1279510.000000 0 0 1
-10.471855 -30.223468 -5.645301 32.480566 1.237260 1.745489 0.048295 -0.024224 -296261.000000 0 0 1
-11.396455 -30.706168 -6.560301 33.403375 1.215409 1.768478 0.040565 -0.020429 -1145320.000000 0 0 1
-12.671455 -30.441668 -6.060701 33.526005 1.176357 1.752572 0.047888 -0.019808 166645.000000 0 0 1
-13.817755 -30.868268 -7.064501 34.549783 1.149910 1.776722 0.048003 -0.020327 565212.000000 0 0 1
-13.923755 -29.922268 -8.083801 33.978830 1.135267 1.811007 0.063295 -0.022765 371086.000000 0 0 1
-15.020255 -30.247268 -8.937601 34.934023 1.109887 1.829515 0.066420 -0.024494 -39846.000000 0 0 1
-15.049155 -29.485368 -10.302801 34.670040 1.098868 1.872521 0.070507 -0.023540 -358626.000000 0 0 1
-15.444155 -28.117068 -10.286201 33.688238 1.068506 1.881087 0.074359 -0.024488 649460.000000 0 0 1
-14.470655 -27.236668 -9.701001 32.331801 1.082429 1.875536 0.072161 -0.019458 134136.000000 0 0 1
-15.014855 -25.812568 -9.455201 31.323080 1.043951 1.877440 0.072598 -0.009625 -182861.000000 0 0 1
-15.068755 -25.009268 -10.600901 31.063000 1.028521 1.919065 0.086635 -0.017917 138226.000000 0 0 1
-15.409155 -23.698768 -10.198101 30.051205 0.994274 1.917030 0.082743 -0.005130 -40119.400000 0 0 1
-16.126955 -22.941268 -11.390001 30.267352 0.958082 1.956610 0.085746 -0.008703 572306.000000 0 0 1
-17.461555 -23.408768 -11.560201 31.408830 0.929898 1.947713 0.082614 -0.015130 -130023.000000 0 0 1
-18.137555 -22.796868 -12.614701 31.745847 0.898734 1.979440 0.098950 -0.019754 238470.000000 0 0 1
-19.582555 -23.353968 -12.794901 33.054406 0.873010 1.968266 0.078526 -0.013567 290840.000000 0 0 1
-19.707355 -24.687968 -13.164501 34.222503 0.897119 1.965651 0.104065 -0.016844 -216035.000000 0 0 1
-19.435455 -25.557168 -12.147901 34.328957 0.920628 1.932499 0.097536 -0.018934 -965559.000000 0 0 1
-19.525255 -27.088868 -12.531901 35.666383 0.946256 1.929824 0.098031 -0.020931 332314.000000 0 0 1
-18.651155 -27.595968 -13.556101 35.960686 0.976452 1.957319 0.097274 -0.024551 817171.000000 0 0 1
-17.248555 -27.537468 -13.322501 35.118568 1.011215 1.959898 0.091744 -0.024618 69944.700000 0 0 1
-16.549955 -28.751268 -13.913701 35.973984 1.048492 1.967924 0.080635 -0.024415 -357620.000000 0 0 1
-16.704555 -29.084368 -15.273801 36.854194 1.049452 1.998122 0.091536 -0.032718 -156317.000000 0 0 1
-15.865655 -30.089568 -15.745701 37.483706 1.085563 2.004316 0.102525 -0.038746 -230985.000000 0 0 1
-16.442955 -31.516268 -15.459601 38.763968 1.089917 1.981019 0.097113 -0.043867 -442305.000000 0 0 1
-16.596455 -31.839768 -14.120301 38.582328 1.090294 1.945480 0.092575 -0.038559 68670.900000 0 0 1
-16.906555 -33.215868 -14.029201 39.823912 1.099982 1.930803 0.073042 -0.032479 -1143470.000000 0 0 1
-17.509655 -33.587268 -12.628501 39.927079 1.090240 1.892612 0.084846 -0.031876 1575940.000000 0 0 1
-18.927055 -33.325268 -12.366501 40.270799 1.054277 1.882923 0.089104 -0.028113 1892820.000000 0 0 1
-19.439755 -31.986668 -12.590901 39.491541 1.024701 1.895286 0.093195 -0.032900 -363540.000000 0 0 1
-18.940855 -30.900168 -11.609101 38.057162 1.020895 1.880781 0.102421 -0.030491 -217400.000000 0 0 1
-19.204655 -31.233268 -10.245801 38.069834 1.019509 1.843288 0.090734 -0.033467 494343.000000 0 0 1
-18.591355 -30.213968 -9.442701 36.710856 1.019186 1.830939 0.086921 -0.021821 -365059.000000 0 0 1
-18.868755 -30.429968 -7.954801 36.678219 1.015749 1.789414 0.078320 -0.021407 47850.600000 0 0 1
-17.973455 -31.321768 -7.288301 36.840434 1.049840 1.769944 0.067428 -0.024227 360822.000000 0 0 1
-18.371155 -31.508468 -5.930501 36.952046 1.042930 1.731985 0.080334 -0.025475 -146155.000000 0 0 1
-17.473255 -32.483668 -5.167301 37.245192 1.077283 1.709983 0.073380 -0.027114 -295754.000000 0 0 1
-16.298555 -31.963868 -4.618801 36.175476 1.099256 1.698823 0.063205 -0.025292 -97309.400000 0 0 1
-16.380655 -32.026868 -3.233701 36.117904 1.098018 1.660448 0.061176 -0.019948 -138951.000000 0 0 1
-15.101855 -31.447968 -2.621701 34.984483 1.123100 1.645806 0.056477 -0.015349 13728.100000 0 0 1
-13.908655 -32.111868 -2.974101 35.120763 1.162059 1.655580 0.055693 -0.012930 729475.000000 0 0 1
-12.753855 -31.404168 -2.454301 33.983911 1.185025 1.643079 0.060337 -0.019058 1609330.000000 0 0 1
-11.322455 -32.007668 -2.573601 34.048674 1.230792 1.646454 0.056878 -0.024992 365642.000000 0 0 1
-11.129555 -33.054868 -1.673301 34.918351 1.246019 1.618735 0.058675 -0.018685 792910.000000 0 0 1
-9.772655 -33.536968 -1.535701 34.965574 1.287248 1.614731 0.069572 -0.023026 861736.000000 0 0 1
-8.825555 -32.742368 -0.626901 33.916752 1.307508 1.589281 0.073590 -0.024328 -376922.000000 0 0 1
-9.138355 -32.811468 0.759399 34.068734 1.299169 1.548504 0.077960 -0.016831 115163.000000 0 0 1
-8.048955 -32.350068 1.544899 33.372133 1.326940 1.524487 0.070774 -0.015771 802612.000000 0 0 1
-7.029255 -33.477568 1.932099 34.262093 1.363834 1.514375 0.073987 -0.014293 439667.000000 0 0 1
-7.646055 33.847876 2.890599 34.820920 -1.348630 1.487687 0.094099 -0.024589 108568.000000 0 0 1
-6.774155 32.862776 3.359599 33.721479 -1.367509 1.471003 0.096738 -0.018798 -44341.200000 0 0 1
-5.898755 33.252276 4.594799 34.082567 -1.395229 1.435571 0.101165 -0.019811 -237098.000000 0 0 1
-4.904355 -34.089368 4.289999 34.706509 1.427909 1.446871 0.091768 -0.011814 -688368.000000 0 0 1
-4.403555 -33.600468 5.560599 34.340981 1.440483 1.408157 0.083867 -0.010384 181802.000000 0 0 1
-3.102455 -32.758168 5.450499 33.353122 1.476370 1.406642 0.087268 -0.007619 25823.100000 0 0 1
-3.115155 -31.595568 4.637399 32.085660 1.472519 1.425757 0.079473 -0.006135 246.931000 0 0 1
-3.188355 -31.740268 3.218899 32.061995 1.470681 1.470231 0.088530 -0.007484 -540060.000000 0 0 1
-3.601655 -30.463368 2.504899 30.777642 1.453114 1.489319 0.068446 -0.008519 -144527.000000 0 0 1
-2.746455 -29.363668 2.649799 29.610631 1.477535 1.481188 0.063139 -0.008880 -295666.000000 0 0 1
-3.286655 -28.277768 1.956999 28.535313 1.455088 1.502161 0.065013 -0.013168 191305.000000 0 0 1
-2.805955 -26.959968 2.533999 27.223784 1.467091 1.477581 0.064603 -0.014298 -2396.770000 0 0 1
-3.150855 -25.847368 1.688299 26.093384 1.449492 1.506049 0.072887 -0.023626 -103858.000000 0 0 1
-2.885255 -24.628768 2.350199 24.908319 1.454178 1.476302 0.052300 -0.018692 22180.200000 0 1 0
-3.940355 -24.161168 3.387499 24.713631 1.409133 1.433293 0.035138 -0.011522 -25368.600000 0 1 0
-3.964055 -24.983668 4.522299 25.697248 1.413442 1.393891 0.049081 -0.008013 13414.500000 0 0 1
-4.927955 -24.480068 5.440799 25.557010 1.372146 1.356266 0.039581 -0.006839 209525.000000 0 0 1
-5.485255 -25.586868 6.393599 26.937965 1.359615 1.331164 0.055979 -0.012208 -369953.000000 0 0 1
-4.603555 -25.996768 7.404499 27.419906 1.395531 1.297361 0.035935 -0.019235 -331847.000000 0 0 1
-5.218755 -26.872668 8.357799 28.622168 1.378981 1.274474 0.042561 -0.018456 -47149.900000 0 0 1
-4.394255 -27.241668 9.603299 29.217140 1.410868 1.235883 0.038834 -0.016952 -328625.000000 0 0 1
-4.274255 -26.223368 10.520299 28.576406 1.409223 1.193782 0.039937 -0.033291 -407547.000000 0 0 1
-5.421055 -25.824068 11.224399 28.675032 1.363878 1.168606 0.045449 -0.036237 -226346.000000 0 0 1
-5.172355 -24.627468 12.200299 27.966278 1.363781 1.119369 0.043894 -0.036997 112302.000000 0 0 1
-4.385455 -25.118568 13.256799 28.738778 1.397948 1.091352 0.059821 -0.035918 -474378.000000 0 0 1
-3.522555 -24.105668 13.732999 27.965816 1.425694 1.057486 0.050234 -0.042474 -543567.000000 0 0 1
-2.489855 -24.644968 14.708999 28.808479 1.470109 1.034939 0.046003 -0.041263 -772124.000000 0 0 1
-2.954555 -25.229268 15.905899 29.970702 1.454219 1.011352 0.050781 -0.040666 405253.000000 0 0 1
-1.796855 -25.707668 16.615299 30.662372 1.501014 0.998125 0.050360 -0.042298 955053.000000 0 0 1
-2.153955 -26.377568 17.986299 31.998790 1.489319 0.973882 0.039764 -0.020468 112018.000000 0 0 1
-2.476555 -25.405768 18.969099 31.802721 1.473623 0.931711 0.053554 -0.024676 -40548.600000 0 0 1
-2.906355 -26.028268 20.176599 33.060744 1.459595 0.914371 0.072328 -0.021151 98197.900000 0 0 1
-3.284555 -25.022468 21.293899 33.020332 1.440278 0.869940 0.083210 -0.029431 -99309.800000 0 0 1
-2.713855 -25.409568 22.530399 34.068020 1.464395 0.848198 0.061132 -0.027766 60477.000000 0 0 1
-2.692155 -24.392168 23.584099 34.035794 1.460872 0.805265 0.058860 -0.027353 -97058.700000 0 0 1
-1.684155 -23.233368 23.480799 33.075273 1.498434 0.781412 0.058062 -0.028444 -296407.000000 0 0 1
-2.037755 -22.283768 22.528299 31.752842 1.479604 0.782023 0.079488 -0.026025 549120.000000 0 0 1
-1.013655 -21.259768 22.346799 30.860730 1.523153 0.761042 0.084140 -0.029965 260665.000000 0 0 1
-1.430755 -20.088368 21.340199 29.342694 1.499693 0.756454 0.079469 -0.012738 454808.000000 0 0 1
-2.334455 -19.135268 21.962799 29.222811 1.449399 0.720367 0.071541 -0.021300 1062300.000000 0 0 1
-3.683555 -19.545368 22.178399 29.790458 1.384519 0.731041 0.088989 -0.031906 212478.000000 0 0 1
-4.681055 -19.374468 20.991199 28.946722 1.333730 0.759520 0.083048 -0.030203 -133757.000000 0 0 1
-4.667255 -20.277368 19.881999 28.779312 1.344566 0.808141 0.087500 -0.031826 -549848.000000 0 0 1
-5.514655 -21.377068 20.041699 29.817112 1.318330 0.833682 0.068097 -0.019879 -27948.900000 0 0 1
-5.298655 -22.307268 18.817599 29.661287 1.337588 0.883543 0.065338 -0.027050 -4241.650000 0 0 1
-6.009155 -23.500968 18.894099 30.747234 1.320462 0.909047 0.050144 -0.030706 -303837.000000 0 0 1
-5.624855 -24.221968 17.772399 30.564700 1.342619 0.950264 0.057151 -0.031597 119651.000000 0 0 1
-6.315455 -25.601768 17.787899 31.807937 1.328944 0.977342 0.046672 -0.034983 298933.000000 0 0 1
-7.713755 -25.443168 17.726599 31.954485 1.276428 0.982740 0.072578 -0.035877 -430478.000000 0 0 1
-8.418055 -26.669068 17.633699 33.061309 1.265046 1.008224 0.076098 -0.035474 536659.000000 0 0 1
-9.933455 -26.647968 17.945599 33.627849 1.213986 1.007882 0.073117 -0.031144 -272278.000000 0 0 1
-10.748355 -26.009068 16.953599 32.854578 1.178916 1.028599 0.097010 -0.038539 599561.000000 0 0 1
-12.135955 -26.106668 17.308399 33.591966 1.135653 1.029492 0.098003 -0.035780 925737.000000 0 0 1
-12.576255 -25.085968 18.397999 33.555243 1.106088 0.990478 0.106388 -0.046087 -888649.000000 0 0 1
-12.664555 -23.773468 17.887199 32.334511 1.081318 0.984605 0.107846 -0.042278 28675.300000 0 0 1
-12.827055 -22.774968 18.871399 32.239141 1.057869 0.945476 0.104532 -0.041238 410399.000000 0 0 1
-11.455455 -22.247968 19.402399 31.664690 1.095301 0.911266 0.099581 -0.041025 761730.000000 0 0 1
-10.773455 -23.050268 20.362899 32.588799 1.133576 0.895865 0.099985 -0.040636 -84919.300000 0 0 1
-9.387155 -23.110968 20.155999 32.070232 1.184976 0.891179 0.076857 -0.041589 -284425.000000 0 0 1
-8.578355 -23.985768 21.060699 33.052357 1.227328 0.879947 0.059718 -0.033654 -239470.000000 0 0 1
-8.618255 -23.555868 22.435899 33.652976 1.220059 0.841045 0.063575 -0.030557 -329191.000000 0 0 1
-7.788555 -24.270968 23.271299 34.515139 1.260277 0.830869 0.053108 -0.031329 -289539.000000 0 0 1
-7.918255 -23.999668 24.762599 35.381763 1.252110 0.795582 0.059479 -0.028663 111281.000000 0 0 1
-6.850855 -24.602968 25.468999 36.068132 1.299220 0.786770 0.057957 -0.023391 47116.800000 0 0 1
-6.842155 -24.259468 26.837599 36.818386 1.295896 0.754056 0.066303 -0.025665 493842.000000 0 0 1
-5.512755 -24.688468 27.549699 37.401829 1.351107 0.742786 0.064844 -0.027816 154920.000000 0 0 1
-4.363655 -24.131768 27.001599 36.475609 1.391903 0.737333 0.059167 -0.027515 -323984.000000 0 0 1
-3.235155 -24.339068 27.854799 37.131473 1.438651 0.722482 0.058430 -0.025036 506753.000000 0 0 1
-1.931455 -23.757968 27.275499 36.223258 1.489678 0.718213 0.053645 -0.025623 -376453.000000 0 0 1
-1.897255 -22.338868 27.263999 35.298020 1.486069 0.688194 0.068570 -0.030036 -306832.000000 0 0 1
-0.700455 -21.804068 26.738699 34.508927 1.538682 0.684343 0.065001 -0.032941 349829.000000 0 0 1
0.385245 -21.485068 27.816299 35.149723 -1.552867 0.657756 0.049951 -0.027998 80832.100000 0 0 1
0.878545 -22.669568 28.447599 36.386083 -1.532061 0.673207 0.047803 -0.029403 70453.100000 0 0 1
1.726145 -22.311768 29.532599 37.053596 -1.493585 0.648445 0.027937 -0.031316 -362061.000000 0 0 1
2.205445 -23.595368 30.216799 38.401306 -1.477598 0.665077 0.041651 -0.032925 -265019.000000 0 0 1
3.017245 -24.385368 29.319099 38.253882 -1.447690 0.697524 0.045012 -0.040573 391875.000000 0 0 1
3.521645 -25.600768 29.854199 39.485117 -1.434094 0.713482 0.038590 -0.022785 -947818.000000 0 0 1
4.772945 -25.420368 30.750099 40.181397 -1.385197 0.699317 0.034868 -0.025639 488236.000000 0 0 1
6.042545 -25.020368 30.214799 39.692130 -1.333829 0.705590 0.042303 -0.028078 825302.000000 0 0 1
6.485645 -25.934768 29.244199 39.621950 -1.325747 0.740575 0.047934 -0.028086 -1034650.000000 0 0 1
7.873345 -25.591868 28.646499 39.211671 -1.272336 0.751654 0.045904 -0.026770 191613.000000 0 0 1
7.613745 -24.746168 27.517999 37.783359 -1.272314 0.754944 0.050219 -0.028724 101540.000000 0 0 1
8.802845 -24.318268 26.883699 37.304175 -1.223485 0.766040 0.037590 -0.017754 -191570.000000 0 0 1
8.763745 -23.265768 25.785899 35.819153 -1.210554 0.767151 0.040826 -0.016737 -124902.000000 0 0 1
8.193645 -23.682468 24.529499 35.066956 -1.237708 0.796092 0.056794 -0.018426 213344.000000 0 0 1
7.853645 -22.489468 23.791999 33.667716 -1.234822 0.786014 0.046941 -0.011387 -182833.000000 0 0 1
6.948145 -22.685268 22.609899 32.773551 -1.273584 0.809470 0.052870 -0.007885 -477019.000000 0 0 1
7.625745 -23.338168 21.581199 32.688992 -1.254982 0.849714 0.044746 -0.004694 4794.510000 0 0 1
7.178245 -22.907668 20.337099 31.462454 -1.267132 0.867949 0.058733 0.000981 -182754.000000 0 0 1
7.773945 -23.692968 19.174899 31.455805 -1.253752 0.915263 0.059842 -0.005905 -606688.000000 0 0 1
9.136545 -23.467268 19.045499 31.574042 -1.199521 0.923288 0.072465 -0.005031 -597532.000000 0 0 1
9.750545 -24.435268 18.139999 31.956455 -1.191122 0.967151 0.070222 -0.013437 808214.000000 0 0 1
11.172645 -24.057568 17.635399 31.852815 -1.136021 0.984052 0.057362 -0.006541 563893.000000 0 0 1
11.103445 -23.221368 16.526299 30.588183 -1.124776 1.000022 0.065088 0.006870 -346788.000000 0 0 1
12.356745 -22.680268 16.195599 30.485753 -1.071936 1.010719 0.054116 -0.005384 -63790.500000 0 0 1
-12.418655 22.420476 11.494599 28.089617 -1.064965 1.149206 0.048917 -0.013741 -95330.400000 0 0 1
-13.508255 21.536276 11.344699 27.838577 -1.010593 1.151063 0.025166 -0.014522 128909.000000 0 0 1
-13.036155 20.249476 10.971399 26.464207 -0.998808 1.143321 0.047223 -0.016669 -136033.000000 0 0 1
-13.970255 19.609176 9.962799 26.056577 -0.951774 1.178455 0.045555 -0.011898 -1062650.000000 0 0 1
-14.035555 20.355576 8.754599 26.229550 -0.967139 1.230498 0.044960 -0.019739 -448067.000000 0 0 1
-14.789455 19.839676 7.688399 25.912395 -0.930215 1.269553 0.045076 -0.016029 1045770.000000 0 0 1
-16.327155 20.040276 8.045299 27.072412 -0.887146 1.269062 0.038683 -0.009747 153569.000000 0 0 1
-16.751055 18.956376 8.772599 26.774999 -0.847081 1.236990 0.038031 -0.019963 -955277.000000 0 0 1
-18.151255 19.053476 8.802799 27.748735 -0.809644 1.247987 0.044868 -0.017386 -409682.000000 0 0 1
-18.813955 17.867076 9.531299 27.641328 -0.759590 1.218749 0.046891 -0.012920 -177926.000000 0 0 1
-18.840355 16.664176 8.870099 26.670816 -0.724182 1.231762 0.054227 -0.018573 -134169.000000 0 0 1
-19.185555 15.577776 9.683799 26.542958 -0.681987 1.197341 0.060281 -0.023295 178365.000000 0 0 1
-18.119755 14.968276 10.685199 25.817597 -0.690439 1.144092 0.053247 -0.014408 1051910.000000 0 0 1
-17.157655 14.082476 10.048699 24.365501 -0.687277 1.145693 0.035107 -0.008239 325002.000000 0 1 0
-16.410955 13.244476 10.889499 23.734296 -0.679026 1.094142 0.027286 -0.006561 92267.500000 0 1 0
-17.169055 12.197476 11.780599 24.131668 -0.617694 1.060793 0.028864 -0.004839 -16431.700000 0 1 0
-18.032255 11.314076 11.096799 24.006447 -0.560349 1.090274 0.017139 -0.009520 227690.000000 0 1 0
-19.016555 10.765476 11.983199 24.922318 -0.515128 1.069204 0.042904 -0.005014 961536.000000 0 1 0
-20.155655 9.932676 11.246499 25.127520 -0.457870 1.106742 0.055287 -0.012312 339223.000000 0 0 1
-19.725955 8.904276 10.327999 23.980555 -0.424017 1.125548 0.052367 -0.010702 121457.000000 0 1 0
-19.061255 9.298076 9.143399 23.095182 -0.453840 1.163748 0.049413 -0.005983 -277969.000000 0 1 0
-19.972055 9.733876 7.936599 23.592816 -0.453497 1.227706 0.055183 -0.005841 84629.100000 0 1 0
-20.456455 8.667176 7.217099 23.359645 -0.400760 1.256701 0.044103 -0.015646 -60636.400000 0 1 0
-21.248455 9.081176 6.151099 23.912353 -0.403885 1.310636 0.053456 -0.013718 -177370.000000 0 1 0
-21.412355 7.891576 5.149799 23.394152 -0.353106 1.348847 0.052733 -0.015443 -14773.700000 0 1 0
-22.206055 6.885076 5.706599 23.939057 -0.300655 1.330099 0.079964 -0.022420 383021.000000 0 1 0
-21.832055 5.676576 5.066399 23.119917 -0.254378 1.349868 0.080084 -0.017257 -236057.000000 0 1 0
-22.560155 4.431576 5.592399 23.661665 -0.193964 1.332190 0.067234 -0.023600 -315699.000000 0 1 0
-23.865855 4.463976 5.078299 24.805146 -0.184908 1.364611 0.113192 -0.024473 -118593.000000 0 1 0
-24.483455 3.197776 5.001399 25.192843 -0.129875 1.370944 0.130417 -0.031222 361709.000000 0 0 1
-25.770415 3.232276 4.113199 26.296013 -0.124774 1.413732 0.146328 -0.034999 317595.000000 0 0 1
-25.424655 3.241576 2.699799 25.772269 -0.126813 1.465848 0.158155 -0.031142 616640.000000 0 0 1
-26.548385 3.166776 1.835999 26.799555 -0.118722 1.502234 0.160495 -0.032021 24592.100000 0 0 1
-26.184515 3.009076 0.322399 26.358819 -0.114416 1.558565 0.175819 -0.031073 -233711.000000 0 0 1
-25.557515 4.146576 -0.248601 25.892904 -0.160843 1.580398 0.165568 -0.032077 390956.000000 0 0 1
-25.697035 4.202676 -1.671901 26.092056 -0.162112 1.634917 0.174746 -0.023109 555082.000000 0 0 1
-27.106515 4.631276 -2.236001 27.590063 -0.169221 1.651929 0.182832 -0.030696 726794.000000 0 0 1
-28.081435 3.607976 -2.102401 28.390220 -0.127783 1.644918 0.171313 -0.027931 204602.000000 0 0 1
-29.367335 4.163276 -2.314901 29.751168 -0.140827 1.648684 0.151973 -0.019005 -62387.700000 0 0 1
-30.490075 3.115176 -2.229901 30.729814 -0.101817 1.643425 0.153374 -0.021695 -366539.000000 0 0 1
-30.697335 2.543076 -3.514701 31.002367 -0.082655 1.684409 0.144078 -0.021616 285308.000000 0 0 1
-31.846245 1.748976 -3.666601 32.104302 -0.054864 1.685255 0.148045 -0.025761 -264219.000000 0 0 1
-32.102385 1.194176 -5.054501 32.519797 -0.037182 1.726857 0.135325 -0.026504 333842.000000 0 0 1
-30.946985 0.502776 -5.576101 31.449350 -0.016245 1.749043 0.163160 -0.035342 849864.000000 0 0 1
-31.134315 -0.206724 -6.780001 31.864663 0.006640 1.785210 0.164008 -0.031787 -224936.000000 0 0 1
-31.575175 0.618376 -8.008301 32.580776 -0.019582 1.819140 0.153332 -0.029732 448459.000000 0 0 1
-32.977145 0.905876 -7.969801 33.938628 -0.027463 1.807840 0.140417 -0.023877 591343.000000 0 0 1
-33.398265 1.534676 -9.175901 34.669822 -0.045918 1.838653 0.125458 -0.022004 429836.000000 0 0 1
-34.913195 1.911376 -9.049001 36.117433 -0.054692 1.824038 0.117052 -0.023897 558769.000000 0 0 1
-35.142925 2.649976 -7.875501 36.111924 -0.075263 1.790649 0.098167 -0.015040 75496.900000 0 0 1
-36.511855 2.950376 -7.703301 37.432087 -0.080631 1.778071 0.099516 -0.017043 -82391.700000 0 0 1
36.367645 3.640476 -6.423401 37.109551 0.099770 1.744765 0.112386 -0.022652 100584.000000 0 0 1
34.963365 3.607576 -6.216501 35.694487 0.102818 1.745848 0.119772 -0.028178 454437.000000 0 0 1
34.583035 4.238476 -4.963201 35.193527 0.121951 1.712294 0.123479 -0.032029 175211.000000 0 0 1
33.079635 4.120176 -4.635901 33.656050 0.123915 1.708979 0.119957 -0.035742 9846.020000 0 0 1
32.914985 2.822176 -4.089901 33.287959 0.085532 1.693972 0.107954 -0.030983 108699.000000 0 0 1
31.622215 2.230176 -4.065801 31.960427 0.070409 1.698356 0.117677 -0.023575 46013.000000 0 0 1
31.653115 0.845076 -3.349801 31.841090 0.026692 1.676195 0.137722 -0.016759 -177517.000000 0 0 1
32.607385 -0.079124 -3.858301 32.834956 -0.002427 1.688574 0.092735 -0.014651 334480.000000 0 0 1
32.357885 -1.377424 -3.397201 32.564874 -0.042543 1.675308 0.098400 -0.011543 -82765.500000 0 0 1
33.663945 -2.179824 -3.295401 33.895022 -0.064662 1.668174 0.074691 -0.008779 -47882.400000 0 0 1
33.378735 -3.531124 -3.091901 33.707101 -0.105398 1.662654 0.059091 -0.012056 573905.000000 0 0 1
34.638915 -4.195224 -3.028301 35.023206 -0.120526 1.657370 0.077505 -0.012329 407785.000000 0 0 1
34.490575 -5.673024 -2.581101 35.049180 -0.163021 1.644505 0.079394 -0.014820 -160277.000000 0 0 1
34.242605 -5.784924 -1.195001 34.748372 -0.167359 1.605193 0.073660 -0.019295 66794.700000 0 0 1
34.395395 -7.096524 -0.820301 35.129428 -0.203467 1.594149 0.092742 -0.015323 -222549.000000 0 0 1
33.932285 -7.385024 0.621899 34.732194 -0.214298 1.552890 0.088435 -0.015673 -425542.000000 0 0 1
32.531475 -7.258324 0.616199 33.337064 -0.219521 1.552311 0.079294 -0.019074 -807.308000 0 0 1
31.961205 -7.598824 1.904499 32.907262 -0.233418 1.512889 0.088200 -0.028175 -620670.000000 0 0 1
31.914265 -9.115824 2.364799 33.274778 -0.278226 1.499668 0.097083 -0.025051 32486.100000 0 0 1
30.873465 -9.942824 1.813099 32.485657 -0.311562 1.514955 0.097032 -0.028328 247069.000000 0 0 1
29.573585 -9.537724 2.131199 31.146543 -0.311977 1.502318 0.083971 -0.034210 -1828620.000000 0 0 1
28.532925 -10.655824 1.886899 30.516140 -0.357417 1.508924 0.082339 -0.030733 1052650.000000 0 0 1
27.203315 -10.408624 2.437599 29.228440 -0.365437 1.487301 0.109186 -0.035218 1622440.000000 0 0 1
26.434715 -9.293624 2.067199 28.096956 -0.338072 1.497156 0.123045 -0.033745 -579094.000000 0 0 1
25.763215 -9.374524 0.638599 27.423216 -0.348979 1.547507 0.109134 -0.030957 13092.100000 0 0 1
26.749115 -9.470724 -0.414601 28.379247 -0.340285 1.585406 0.109921 -0.034231 838353.000000 0 0 1
26.211315 -9.558924 -1.734601 27.953799 -0.349699 1.632889 0.114372 -0.021280 -169538.000000 0 0 1
25.459815 -10.869424 -2.086001 27.761447 -0.403500 1.646007 0.099327 -0.014562 523645.000000 0 0 1
24.106715 -10.923824 -1.636501 26.516820 -0.425466 1.632551 0.095483 -0.014375 191220.000000 0 0 1
23.565515 -12.217124 -1.811001 26.605851 -0.478284 1.638917 0.077518 -0.013275 -125117.000000 0 0 1
22.092615 -12.456624 -1.413301 25.401743 -0.513404 1.626463 0.083647 -0.010957 -399209.000000 0 0 1
21.236315 -11.912624 -2.379801 24.465386 -0.511215 1.668223 0.080869 -0.008080 -751304.000000 0 1 0
19.935415 -12.172824 -1.944001 23.438804 -0.548187 1.653831 0.092146 -0.011775 -693425.000000 0 1 0
18.918115 -11.471124 -2.887601 22.311880 -0.545080 1.700580 0.093414 -0.014347 -156165.000000 0 1 0
18.822815 -12.184324 -4.121801 22.797924 -0.574487 1.752593 0.072027 -0.015626 268781.000000 0 1 0
17.710115 -11.824024 -4.902201 21.851482 -0.588678 1.797064 0.066555 -0.012797 -321941.000000 0 1 0
17.652415 -12.423324 -6.327601 22.494116 -0.613255 1.855945 0.064538 -0.014898 -431564.000000 0 1 0
17.302715 -13.772724 -6.402801 23.023200 -0.672289 1.852614 0.064830 -0.011657 271109.000000 0 1 0
17.427815 -14.196124 -7.759901 23.779713 -0.683560 1.903209 0.060610 -0.018600 -347054.000000 0 1 0
16.521815 -15.357124 -8.224101 24.009320 -0.748880 1.920413 0.053544 -0.016987 761314.000000 0 1 0
15.115515 -15.033024 -8.112001 22.809541 -0.782662 1.934396 0.058928 -0.015700 1814580.000000 0 1 0
14.160315 -15.921324 -8.727501 23.025472 -0.843872 1.959552 0.053292 -0.017513 575148.000000 0 1 0
14.212515 -16.085324 -10.328601 23.820437 -0.847133 2.019283 0.063022 -0.020981 -761532.000000 0 1 0
13.694315 -15.035124 -11.130501 23.183556 -0.832035 2.071569 0.066574 -0.014995 291616.000000 0 1 0
14.132015 -13.681224 -10.854601 22.465798 -0.769192 2.075058 0.074653 -0.009071 27555.100000 0 1 0
13.809215 -12.721424 -11.992801 22.279056 -0.744420 2.139214 0.077304 -0.005308 244051.000000 0 1 0
14.857315 -12.831824 -12.931601 23.507910 -0.712377 2.153275 0.071899 -0.007108 524707.000000 0 1 0
14.449615 -12.277824 -14.176001 23.674783 -0.704319 2.212774 0.082345 -0.006411 -37233.300000 0 1 0
15.707915 -11.964924 -14.987501 24.789578 -0.650955 2.220046 0.079846 -0.011588 14939.900000 0 1 0
16.558115 -13.045924 -15.325501 26.062200 -0.667311 2.199424 0.077030 -0.015665 579404.000000 0 0 1
17.661815 -12.635024 -16.121701 27.046123 -0.620978 2.209409 0.076916 -0.015108 93874.100000 0 0 1
18.874615 -13.577124 -16.249901 28.366330 -0.623583 2.180786 0.069646 -0.014682 -120222.000000 0 0 1
19.685115 -13.557824 -15.082901 28.263267 -0.603125 2.133716 0.064382 -0.022686 430312.000000 0 0 1
20.691315 -14.567024 -15.143801 29.490056 -0.613416 2.110081 0.053202 -0.017865 149716.000000 0 0 1
21.734515 -14.467824 -14.004701 29.628343 -0.587306 2.063125 0.050726 -0.016177 72191.100000 0 0 1
22.481615 -13.263524 -14.013901 29.626567 -0.533013 2.063509 0.062728 -0.017222 88182.300000 0 0 1
23.332815 -13.188724 -12.894401 29.742701 -0.514471 2.019204 0.049458 -0.010214 103697.000000 0 0 1
23.991215 -11.777824 -12.736501 29.605979 -0.456359 2.015511 0.062470 -0.013016 -423222.000000 0 0 1
23.171715 -10.774124 -12.184701 28.310370 -0.435232 2.015729 0.067112 -0.010487 1421.020000 0 0 1
23.676415 -9.458724 -12.068601 28.207999 -0.380075 2.012902 0.081428 -0.018100 477512.000000 0 0 1
24.844415 -9.167524 -11.033301 28.688363 -0.353498 1.965562 0.092330 -0.017258 1211870.000000 0 0 1
26.156915 -9.487424 -11.489101 30.103071 -0.347954 1.962387 0.074031 -0.004985 375265.000000 0 0 1
27.120815 -9.259724 -10.505801 30.522990 -0.329015 1.922176 0.072569 -0.016295 -628940.000000 0 0 1
28.409335 -10.037324 -10.778701 32.000290 -0.339621 1.914346 0.063299 -0.014510 -255308.000000 0 0 1
29.215685 -9.574324 -11.840901 32.945878 -0.316683 1.938426 0.053101 -0.018361 91226.600000 0 0 1
30.352195 -10.355524 -12.081401 34.270291 -0.328795 1.931073 0.045682 -0.018162 -266042.000000 0 0 1
30.989155 -10.101424 -13.460801 35.264141 -0.315106 1.962446 0.037407 -0.011163 -178430.000000 0 0 1
30.242315 -10.522824 -14.566801 35.178390 -0.334848 1.997732 0.023291 -0.009167 756089.000000 0 0 1
31.027665 -10.110224 -15.693801 36.210883 -0.314996 2.019059 0.025289 -0.009729 427044.000000 0 0 1
30.428055 -10.845424 -16.891501 36.452881 -0.342390 2.052601 0.015418 0.002677 1174490.000000 0 0 1
29.165635 -10.417424 -17.456301 35.551082 -0.343058 2.084057 0.001743 -0.000345 1118890.000000 0 0 1
29.324485 -9.245024 -18.213301 35.736819 -0.305403 2.105575 0.005177 0.003067 414317.000000 0 0 1
27.995515 -8.716824 -18.875601 34.871481 -0.301851 2.142767 -0.004062 0.001654 768173.000000 0 0 1
27.595515 -9.492824 -19.981801 35.368044 -0.331319 2.171190 -0.006704 0.007021 634438.000000 0 0 1
26.223115 -9.334424 -20.342801 34.476264 -0.341976 2.201920 0.028870 0.007665 532289.000000 0 0 1
25.940415 -9.698324 -21.804801 35.247865 -0.357779 2.237773 0.047120 -0.007909 -77317.300000 0 0 1
25.857615 -11.085224 -21.973101 35.697558 -0.405002 2.233861 0.029501 -0.005676 70062.800000 0 0 1
25.118115 -11.402624 -23.141601 36.006572 -0.426142 2.268820 0.045189 -0.013617 -910524.000000 0 0 1
25.243715 -12.825024 -23.770701 36.969888 -0.470065 2.269172 0.033134 -0.002870 -125415.000000 0 0 1
26.445015 -13.137124 -24.420201 38.317999 -0.461061 2.261791 0.033197 0.004968 -416548.000000 0 0 1
27.524115 -13.221524 -23.520001 38.543171 -0.447814 2.227141 0.007649 0.007809 -1088440.000000 0 0 1
28.860105 -13.736324 -24.041801 39.995005 -0.444233 2.215698 0.006589 0.013392 -237524.000000 0 0 1
29.388455 -13.090724 -25.152571 40.837485 -0.419053 2.234348 0.020845 -0.003840 553964.000000 0 0 1
30.712935 -13.564224 -25.427051 42.116594 -0.415884 2.218968 0.004151 -0.000519 819929.000000 0 0 1
31.336755 -12.959024 -26.774271 43.206366 -0.392125 2.239136 0.020450 -0.010922 240117.000000 0 0 1
30.985625 -13.540624 -28.001121 43.903533 -0.411988 2.262418 0.030919 -0.013147 318977.000000 0 0 1
31.990655 -13.201224 -28.946461 45.117313 -0.391371 2.267355 0.021387 -0.014501 126772.000000 0 0 1
32.034595 -13.978524 -30.284121 46.246539 -0.411451 2.284768 0.031863 -0.021671 154094.000000 0 0 1
32.634885 -15.285524 -30.158701 46.991810 -0.438033 2.267622 0.047993 -0.028479 75143.900000 0 0 1
32.823055 -15.970224 -31.418521 48.161442 -0.452834 2.281488 0.018879 -0.022792 86109.400000 0 0 1
31.648995 -16.823124 -31.973061 48.030751 -0.488570 2.299200 0.023150 -0.018321 324732.000000 0 0 1
30.626735 -16.028224 -32.543251 47.475931 -0.482146 2.326043 0.035097 -0.030394 -203347.000000 0 0 1
29.454955 -16.794224 -32.742241 47.134856 -0.518194 2.338730 0.031949 -0.025680 321617.000000 0 0 1
28.430695 -16.049724 -33.659051 46.891681 -0.513923 2.371440 0.035698 -0.021803 -11750.400000 0 0 1
27.946415 -14.742224 -33.259671 45.875277 -0.485419 2.381834 0.047903 -0.025776 49706.200000 0 0 1
28.884515 -13.700824 -33.200011 46.089788 -0.442902 2.375079 0.058298 -0.028408 -1310580.000000 0 0 1
28.239775 -12.358524 -32.905321 45.088559 -0.412518 2.388816 0.065908 -0.031317 62057.600000 0 0 1
27.238115 -11.959424 -33.827651 45.047228 -0.413727 2.420277 0.067604 -0.026709 -53160.500000 0 0 1
26.731015 -10.735524 -33.515051 44.193408 -0.381896 2.431608 0.072878 -0.033891 -64296.200000 0 0 1
20.650445 -29.264168 9.294899 37.003075 -0.956284 1.316884 0.055064 -0.020411 87642.500000 0 0 1
21.392345 -28.996368 8.139199 36.941417 -0.935175 1.348646 0.054269 -0.023540 -764089.000000 0 0 1
22.590845 -29.657068 8.018599 38.133789 -0.919827 1.358940 0.065513 -0.022501 -479501.000000 0 0 1
23.283145 -29.462668 6.620999 38.131237 -0.902023 1.396275 0.058097 -0.016804 52220.800000 0 0 1
23.648145 -28.097968 6.437199 37.284958 -0.871181 1.397278 0.049038 -0.003768 242580.000000 0 0 1
24.318745 -28.001468 5.172999 37.446541 -0.855670 1.432210 0.037948 0.000533 -70410.400000 0 0 1
24.622645 -26.606068 4.663699 36.550069 -0.824096 1.442850 0.016659 0.002218 352962.000000 0 0 1
25.532345 -25.868368 5.485199 36.758135 -0.791935 1.421013 0.023841 -0.002502 368313.000000 0 0 1
25.306845 -24.549568 5.228799 35.643485 -0.770210 1.423568 0.024761 0.000985 126183.000000 0 0 1
26.077345 -23.591068 6.210299 35.709021 -0.735382 1.395993 0.022092 -0.003391 -88470.900000 0 0 1
27.375645 -23.375668 5.713099 36.448419 -0.706746 1.413403 0.020940 0.004888 -511401.000000 0 0 1
28.115645 -22.421068 6.434599 36.532148 -0.673189 1.393737 0.030842 -0.006654 87120.500000 0 0 1
27.609345 -20.943868 6.468899 35.252917 -0.648969 1.386251 0.025303 -0.004315 -331858.000000 0 0 1
27.789245 -20.220968 5.278699 34.770596 -0.629046 1.418392 0.033216 0.013799 676.431000 0 0 1
27.361845 -18.886268 5.355799 33.675603 -0.604146 1.411077 0.036613 0.006398 -275552.000000 0 0 1
27.628645 -18.092068 4.000199 33.266598 -0.579763 1.450258 0.056385 0.008745 596320.000000 0 0 1
29.015745 -17.940768 3.687199 34.312972 -0.553775 1.463131 0.077940 0.007744 514654.000000 0 0 1
29.316045 -17.282368 2.476799 34.121038 -0.532677 1.498144 0.083984 0.003205 518771.000000 0 0 1
30.363945 -16.102068 2.626499 34.469468 -0.487595 1.494525 0.088266 -0.008659 490403.000000 0 0 1
29.919445 -15.019068 3.399899 33.649738 -0.465233 1.469586 0.092430 -0.018825 179650.000000 0 0 1
30.982145 -14.152368 3.787399 34.271376 -0.428487 1.460058 0.088082 -0.025848 459703.000000 0 0 1
30.517045 -13.100368 4.841599 33.561149 -0.405491 1.426029 0.088693 -0.028534 82785.300000 0 0 1
30.233745 -13.673368 6.065599 33.731762 -0.424728 1.389994 0.077275 -0.029202 -58298.400000 0 0 1
29.957945 -12.569468 6.903399 33.213354 -0.397263 1.361420 0.071228 -0.026466 -585922.000000 0 0 1
29.647545 -12.900068 8.376699 33.399966 -0.410406 1.317290 0.077140 -0.019607 111315.000000 0 0 1
28.321845 -13.413068 8.548299 32.482467 -0.442301 1.304493 0.060400 -0.013600 485659.000000 0 0 1
27.818245 -13.374868 9.899199 32.415058 -0.448166 1.260450 0.075090 -0.009369 103849.000000 0 0 1
28.280345 -14.459668 10.861099 33.568190 -0.472645 1.241314 0.067946 -0.006263 -1412090.000000 0 0 1
29.583545 -14.364868 11.256399 34.759776 -0.452037 1.241017 0.059540 -0.000656 -1163950.000000 0 0 1
30.071645 -15.486468 11.948299 35.873337 -0.475564 1.231240 0.061194 -0.003250 100898.000000 0 0 1
30.869845 -15.366368 13.281599 36.952313 -0.461869 1.203144 0.074106 -0.000939 301837.000000 0 0 1
32.165745 -14.869968 12.985999 37.741055 -0.433029 1.219536 0.070168 -0.004294 -534069.000000 0 0 1
33.036545 -15.151468 14.014999 38.953825 -0.430005 1.202759 0.069403 -0.005292 -1086360.000000 0 0 1
34.471045 -14.971568 13.563099 39.954454 -0.409741 1.224449 0.076059 -0.010238 -717421.000000 0 0 1
34.991245 -13.620668 13.515699 39.907191 -0.371213 1.225285 0.081143 -0.013321 212384.000000 0 0 1
36.366045 -13.646768 13.195199 41.022393 -0.359000 1.243316 0.091324 -0.019269 40632.000000 0 0 1
-36.271426 -12.231068 13.404599 40.557350 0.325235 1.233953 0.091818 -0.025018 -467982.000000 0 0 1
-35.251626 -11.945768 12.509499 39.266602 0.326727 1.246567 0.098740 -0.023658 -591328.000000 0 0 1
-34.526726 -10.795868 12.889199 38.402825 0.303050 1.228521 0.101682 -0.029470 188970.000000 0 0 1
-33.271426 -10.551468 11.978099 36.902522 0.307100 1.240221 0.113234 -0.025946 487712.000000 0 0 1
-32.265726 -11.533168 12.190099 36.368799 0.343290 1.229000 0.094754 -0.023105 108821.000000 0 0 1
-32.430326 -12.801468 11.538899 36.725329 0.375962 1.251188 0.078001 -0.022624 -565375.000000 0 0 1
-31.379426 -13.888568 11.853199 36.305082 0.416684 1.238210 0.059064 -0.023678 -263102.000000 0 0 1
-30.097626 -13.712268 11.327499 34.960057 0.427495 1.240828 0.074227 -0.025016 -665265.000000 0 0 1
-29.332126 -14.834868 11.718399 34.896530 0.468241 1.228338 0.057864 -0.014765 741670.000000 0 0 1
-27.873926 -14.810468 11.117999 33.465140 0.488402 1.232133 0.065209 -0.008423 722984.000000 0 0 1
-27.819826 -14.771068 9.748699 32.972174 0.488104 1.270645 0.064455 -0.008798 312019.000000 0 0 1
-26.499426 -15.019968 9.282699 31.843170 0.515653 1.274988 0.066050 -0.008297 282838.000000 0 0 1
-26.302826 -14.898768 7.736799 31.203685 0.515372 1.320238 0.081147 -0.008028 90352.300000 0 0 1
-26.803726 -15.976668 6.912299 31.960499 0.537518 1.352797 0.078286 0.001014 329304.000000 0 0 1
-26.776426 -15.763068 5.494199 31.553724 0.532063 1.395782 0.081285 0.000507 -371351.000000 0 0 1
-27.131026 -17.001168 4.701399 32.361017 0.559772 1.425001 0.068926 0.001925 204709.000000 0 0 1
-28.539026 -17.087268 4.566299 33.575315 0.539488 1.434372 0.046966 -0.007548 -49765.400000 0 0 1
-28.948626 -18.135468 3.746399 34.365006 0.559656 1.461561 0.045649 -0.003044 -185230.000000 0 0 1
-30.461526 -18.263268 4.033999 35.745274 0.540090 1.457701 0.065582 -0.015165 -55458.700000 0 0 1
-31.221026 -17.364668 3.250799 35.872717 0.507579 1.480051 0.074974 -0.017239 -511622.000000 0 0 1
-32.590426 -17.538968 3.477399 37.173156 0.493710 1.477113 0.083919 -0.019109 -618914.000000 0 0 1
-33.517926 -16.529468 2.862399 37.481569 0.458155 1.494354 0.072570 -0.026764 -229041.000000 0 0 1
-33.778826 -16.872568 1.526899 37.789205 0.463249 1.530380 0.072100 -0.020421 -727332.000000 0 0 1
-34.930926 -16.189068 1.141499 38.516990 0.433990 1.541156 0.089101 -0.023853 -581169.000000 0 0 1
-35.577826 -16.852168 -0.120301 39.367394 0.442363 1.573852 0.096125 -0.022430 46315.300000 0 0 1
-34.748426 -16.810968 -1.310401 38.623553 0.450596 1.604730 0.095015 -0.022452 429249.000000 0 0 1
-35.041226 -17.788868 -2.247901 39.362220 0.469753 1.627936 0.088076 -0.021612 -270987.000000 0 0 1
-33.804326 -18.110168 -3.091201 38.474227 0.491825 1.651228 0.064124 -0.022897 -16741.100000 0 0 1
-34.093426 -19.273368 -3.871301 39.354941 0.514522 1.669325 0.072749 -0.030387 -572527.000000 0 0 1
-32.978826 -19.732068 -4.512801 38.695256 0.539187 1.687686 0.060841 -0.023292 -1101230.000000 0 0 1
-33.378826 -20.855568 -5.455601 39.734925 0.558466 1.708531 0.079099 -0.032640 -462353.000000 0 0 1
-33.722826 -22.050168 -4.886201 40.587114 0.579087 1.691477 0.098740 -0.035883 -99836.600000 0 0 1
-34.217026 -22.849168 -5.926601 41.569387 0.588767 1.713855 0.109323 -0.030496 -237377.000000 0 0 1
-34.873426 -24.096568 -5.409901 42.732510 0.604641 1.697736 0.108442 -0.028315 -531228.000000 0 0 1
-33.980026 -25.033168 -4.903501 42.489363 0.634936 1.686459 0.116214 -0.023843 -459462.000000 0 0 1
-34.597026 -26.268868 -4.699501 43.693168 0.649415 1.678562 0.101866 -0.010300 33854.700000 0 0 1
-33.559526 -27.219468 -4.091201 43.403676 0.681461 1.665196 0.078706 -0.008493 -940396.000000 0 0 1
-32.751526 -27.772968 -5.090301 43.242472 0.703326 1.688785 0.071655 -0.010824 92651.500000 0 0 1
-31.966526 -28.910468 -4.761501 43.362954 0.735240 1.680824 0.067779 -0.007614 192805.000000 0 0 1
-30.953526 -28.832168 -3.584401 42.453063 0.749930 1.655329 0.073224 -0.017303 -744573.000000 0 0 1
-31.505926 -28.557068 -2.333101 42.586064 0.736341 1.625609 0.066029 -0.014203 225039.000000 0 0 1
-30.469526 -28.288468 -1.382401 41.599765 0.748296 1.604033 0.083675 -0.018275 342378.000000 0 0 1
-31.042926 -28.171168 0.029799 41.919910 0.736938 1.570085 0.084952 -0.010097 86508.500000 0 0 1
-31.472926 -29.339568 0.658299 43.032414 0.750332 1.555498 0.076273 -0.010362 -98636.900000 0 0 1
-32.448226 -29.149968 1.634399 43.649504 0.731905 1.533344 0.088990 -0.008440 -131894.000000 0 0 1
-33.061626 -30.439168 2.306199 44.999251 0.744124 1.519524 0.062744 -0.001879 -621163.000000 0 0 1
-33.994626 -30.124468 3.314299 45.542318 0.725112 1.497958 0.058535 -0.001953 -2744.280000 0 0 1
-34.605826 -31.398268 3.676499 46.871431 0.736840 1.492278 0.038745 0.006055 622432.000000 0 0 1
-35.857726 -31.866468 2.841599 48.055415 0.726532 1.511630 0.024416 0.004046 30326.400000 0 0 1
-36.418026 -33.007268 3.495499 49.274444 0.736309 1.499797 0.037249 0.006116 -14221.800000 0 0 1
35.830545 -33.523868 2.661599 49.140225 -0.752151 1.516606 0.034123 0.003957 -1075130.000000 0 0 1
34.796445 33.813076 3.337199 48.633873 0.771066 1.502124 0.030335 0.006540 -194684.000000 0 0 1
33.829745 -33.823968 4.184199 48.021036 -0.785313 1.483553 0.029543 0.003803 710784.000000 0 0 1
33.068645 -32.690468 3.706399 46.646965 -0.779647 1.491256 0.039725 0.003084 -69869.400000 0 0 1
32.125245 -32.943768 2.476999 46.081002 -0.797977 1.517017 0.045060 -0.004299 -515507.000000 0 0 1
32.870545 -33.230368 1.291899 46.758946 -0.790842 1.543164 0.047834 -0.005774 -137626.000000 0 0 1
32.128645 -32.890668 0.116899 45.978903 -0.797118 1.568254 0.054907 -0.008795 -553322.000000 0 0 1
32.546345 -33.710768 -1.170401 46.872703 -0.802971 1.595769 0.060318 -0.015168 852540.000000 0 0 1
33.806045 -33.518068 -1.822801 47.640656 -0.781121 1.609067 0.045323 -0.013823 762565.000000 0 0 1
34.959245 -33.593868 -0.968401 48.493655 -0.765484 1.590767 0.050964 -0.000489 -306929.000000 0 0 1
36.267545 -33.428268 -1.758101 49.354582 -0.744683 1.606426 0.030116 0.003317 -356044.000000 0 0 1
-36.583926 33.674476 -2.501301 49.785645 -0.744011 1.621059 0.039575 -0.011665 35131.400000 0 0 1
-35.842226 34.036176 -3.620801 49.560434 -0.759558 1.643920 0.043336 -0.008503 -684950.000000 0 0 1
-35.054126 32.869976 -4.247801 48.241796 -0.753254 1.658963 0.037105 -0.012480 187748.000000 0 0 1
-33.797326 32.579976 -3.652901 47.085643 -0.767060 1.648454 0.057817 -0.011370 259228.000000 0 0 1
-33.097526 31.663476 -4.479901 46.022728 -0.763258 1.668292 0.060473 -0.020904 433747.000000 0 0 1
-31.762826 31.142176 -3.873301 44.651033 -0.775532 1.657652 0.072322 -0.024081 964617.000000 0 0 1
-30.638526 32.060076 -3.830901 44.511162 -0.808067 1.656969 0.060083 -0.028735 2175790.000000 0 0 1
-29.327026 31.484376 -3.533401 43.172043 -0.820859 1.652733 0.055407 -0.035274 1824590.000000 0 0 1
-29.070326 31.065976 -2.059401 42.596008 -0.818571 1.619162 0.053004 -0.031879 -276947.000000 0 0 1
-30.056126 30.214376 -1.519701 42.644914 -0.788024 1.606440 0.055839 -0.025109 -66076.800000 0 0 1
-29.746826 29.996776 -0.112201 42.245625 -0.789582 1.573452 0.058856 -0.017479 -31076.600000 0 0 1
-30.977026 29.524176 0.685999 42.798641 -0.761389 1.554767 0.051314 -0.015058 98104.800000 0 0 1
-31.392426 28.215676 0.346999 42.210534 -0.732155 1.562576 0.050950 -0.025725 98433.300000 0 0 1
-32.609826 28.204676 -0.375201 43.116647 -0.713089 1.579498 0.062669 -0.023017 34006.900000 0 0 1
-33.099026 26.823476 -0.868801 42.612195 -0.681051 1.591186 0.078711 -0.018393 164711.000000 0 0 1
-33.436426 25.933676 0.170999 42.315238 -0.659692 1.566755 0.082303 -0.020675 -150731.000000 0 0 1
-34.028626 24.780076 -0.346301 42.096549 -0.629411 1.579023 0.087691 -0.008670 -399483.000000 0 0 1
-34.175126 23.566576 0.605599 41.517340 -0.603700 1.556209 0.089862 -0.010188 614623.000000 0 0 1
-32.953426 23.006276 1.127499 40.205575 -0.609480 1.542749 0.098861 -0.018842 614598.000000 0 0 1
-32.448426 23.770776 2.201099 40.283930 -0.632253 1.516129 0.087128 -0.020404 -1125330.000000 0 0 1
-31.026226 23.399276 2.643299 38.950479 -0.646169 1.502881 0.075486 -0.031977 127892.000000 0 0 1
-30.007426 24.042976 1.872299 38.496958 -0.675493 1.522142 0.084145 -0.035047 375990.000000 0 0 1
-29.652626 25.336876 2.440299 39.079286 -0.707076 1.508311 0.054030 -0.034934 -520235.000000 0 0 1
-29.035826 26.287976 1.413599 39.193560 -0.735770 1.534721 0.044823 -0.025298 275316.000000 0 0 1
-27.704226 26.037776 0.973999 38.032073 -0.754400 1.545184 0.041534 -0.024544 -44304.400000 0 0 1
-27.243926 26.995976 0.106499 38.353951 -0.780827 1.568020 0.036583 -0.026684 593208.000000 0 0 1
-25.889026 26.703776 -0.609601 37.198185 -0.800889 1.587185 0.032620 -0.023119 89256.700000 0 0 1
-26.187126 25.739176 -1.573401 36.752501 -0.776772 1.613620 0.050562 -0.022410 -114667.000000 0 0 1
-25.143026 25.143476 -2.330201 35.634197 -0.785407 1.636235 0.041053 -0.015161 -2910.690000 0 0 1
-24.277526 24.063776 -1.677501 34.223933 -0.780977 1.619831 0.041154 -0.014836 -318821.000000 0 0 1
-24.895026 22.880276 -1.316301 33.837878 -0.743252 1.609706 0.038807 -0.014694 -570880.000000 0 0 1
-24.017626 22.046376 -0.587301 32.607269 -0.742631 1.588809 0.030890 -0.023979 -614292.000000 0 0 1
-24.562926 20.617576 -0.288801 32.070316 -0.698295 1.579802 0.048043 -0.024528 658514.000000 0 0 1
-25.659026 20.423376 0.656599 32.801388 -0.672268 1.550778 0.035332 -0.023073 1255410.000000 0 0 1
-26.898726 21.055776 0.357599 34.161602 -0.664152 1.560328 0.047426 -0.023276 189234.000000 0 0 1
-27.704626 20.355676 -0.804301 34.388177 -0.633662 1.594187 0.050997 -0.024735 -426759.000000 0 0 1
-28.104026 19.021776 -0.497901 33.939831 -0.595009 1.585467 0.057474 -0.019244 57321.600000 0 0 1
-28.964026 18.492976 -1.461301 34.395354 -0.568235 1.613295 0.078112 -0.015042 -142298.000000 0 0 1
-29.114426 16.943776 -1.221401 33.708058 -0.527058 1.607039 0.085073 -0.010994 63256.400000 0 0 1
-29.808526 16.554676 -0.037901 34.097023 -0.506955 1.571908 0.096279 -0.017425 349129.000000 0 0 1
-29.970726 15.158176 0.112599 33.586119 -0.468250 1.567444 0.103717 -0.023539 615059.000000 0 0 1
-28.709426 14.352176 0.639899 32.103357 -0.463577 1.550863 0.117582 -0.027938 367517.000000 0 0 1
-28.382126 14.465676 2.025999 31.920300 -0.471358 1.507283 0.130291 -0.030457 -313731.000000 0 0 1
-27.090026 14.108676 2.398499 30.637837 -0.480154 1.492431 0.129317 -0.029293 -555205.000000 0 0 1
-26.740526 12.594076 2.392099 29.654487 -0.440158 1.490043 0.149224 -0.031276 -421006.000000 0 0 1
-26.699726 12.074376 1.053899 29.321948 -0.424706 1.534846 0.146226 -0.035102 299376.000000 0 0 1
-26.101326 10.790776 0.925699 28.259104 -0.392020 1.538033 0.162105 -0.035454 -36768.800000 0 0 1
-26.243826 10.214776 -0.522001 28.166514 -0.371184 1.589330 0.160132 -0.034833 442215.000000 0 0 1
-27.575826 9.921576 -0.960501 29.322115 -0.345372 1.603559 0.159728 -0.034483 732826.000000 0 0 1
-27.598326 9.366576 -2.218301 29.228773 -0.327191 1.646764 0.165891 -0.033972 -414783.000000 0 0 1
-28.974226 8.803776 -2.544501 30.388924 -0.294984 1.654626 0.166691 -0.034337 -475907.000000 0 0 1
-28.950226 8.381776 -3.905501 30.391161 -0.281818 1.699660 0.172260 -0.026502 397731.000000 0 0 1
-30.251826 8.079276 -4.373001 31.615990 -0.260976 1.709557 0.158567 -0.024545 20045.500000 0 0 1
-11.398555 18.270076 -19.771401 29.234074 -1.012994 2.313543 0.091680 -0.019678 318665.000000 0 0 1
-11.708855 17.241476 -20.637601 29.330468 -0.974229 2.351280 0.070613 -0.025115 -503741.000000 0 0 1
-10.699655 17.158076 -21.587401 29.578676 -1.013209 2.388869 0.066012 -0.026808 -450995.000000 0 0 1
-10.841655 16.048976 -22.592801 29.758122 -0.976679 2.432902 0.054726 -0.019377 -372412.000000 0 0 1
-10.405155 14.795076 -22.144301 28.592510 -0.957869 2.456688 0.059990 -0.028627 -180077.000000 0 0 1
-10.393155 13.827676 -23.185701 28.927479 -0.926259 2.500615 0.050030 -0.027402 163066.000000 0 0 1
-9.601955 12.487076 -22.931301 27.820302 -0.915276 2.539699 0.032599 -0.022191 797735.000000 0 0 1
-8.179955 12.523976 -23.019601 27.452936 -0.992214 2.565342 0.033473 -0.023444 355479.000000 0 0 1
-7.618755 11.226576 -22.801001 26.532378 -0.974553 2.604823 0.024598 -0.013770 -998103.000000 0 0 1
-6.145855 11.238276 -22.555501 25.938794 -1.070361 2.625120 0.032725 -0.011969 -755067.000000 0 0 1
-5.345555 11.249076 -23.765401 26.831157 -1.127185 2.658880 0.033549 -0.016846 111081.000000 0 0 1
-3.981455 11.047076 -23.471901 26.245381 -1.224880 2.677717 0.049598 -0.017103 182721.000000 0 0 1
-3.062855 10.796976 -24.717701 27.146280 -1.294381 2.715378 0.068889 -0.028038 41873.700000 0 0 1
-3.256555 9.551776 -25.442621 27.370944 -1.242218 2.763983 0.062758 -0.029256 -40677.200000 0 0 1
-2.649855 9.501276 -26.715651 28.478448 -1.298813 2.787902 0.061203 -0.027069 -272920.000000 0 0 1
-2.407255 8.084076 -27.257601 28.532858 -1.281380 2.841488 0.065989 -0.003990 171513.000000 0 0 1
-1.332655 7.375076 -26.643641 27.677632 -1.392028 2.867391 0.069651 -0.014655 191614.000000 0 0 1
-1.521555 6.968376 -25.282541 26.269379 -1.355819 2.866625 0.077430 -0.022835 169978.000000 0 0 1
-0.432555 6.030376 -24.667701 25.397796 -1.499190 2.901238 0.007806 -0.014278 730865.000000 0 0 1
0.919645 6.442576 -24.501701 25.351250 1.429009 2.881978 0.040992 0.003580 897017.000000 0 0 1
1.626345 5.680376 -23.493301 24.224923 1.291947 2.895201 0.032274 0.014233 284826.000000 0 1 0
1.670745 6.279876 -22.033501 22.971796 1.310772 2.854794 0.028363 0.007786 -116457.000000 0 1 0
2.400045 7.485476 -22.030901 23.391306 1.260525 2.798865 0.018184 -0.005433 161759.000000 0 1 0
2.799345 7.890076 -20.740901 22.366820 1.229858 2.757948 0.046702 -0.006237 23771.600000 0 1 0
3.079745 9.398276 -20.795101 23.027129 1.254131 2.697660 0.030114 -0.012995 -266926.000000 0 1 0
3.642845 9.887376 -19.628601 22.278072 1.217795 2.648922 0.034460 -0.022057 -117724.000000 0 1 0
3.621945 11.314876 -19.635401 22.949812 1.260998 2.597467 0.041927 -0.016305 -255924.000000 0 1 0
4.684645 11.962276 -18.748801 22.727945 1.197536 2.540862 0.030139 -0.009119 -5636.120000 0 1 0
6.018145 11.592876 -19.016301 23.070166 1.091967 2.539728 0.038608 -0.003468 -269583.000000 0 1 0
6.672245 11.077576 -17.867601 22.056353 1.028673 2.515100 0.034076 -0.017363 -79062.400000 0 1 0
7.796145 10.121376 -18.306401 22.323675 0.914451 2.532285 0.049078 -0.029176 -450787.000000 0 1 0
7.442645 8.773476 -18.667001 21.927694 0.867283 2.589250 0.040470 -0.020893 152528.000000 0 1 0
6.920645 8.599676 -19.993401 22.838254 0.893162 2.637131 0.036537 -0.011202 63498.700000 0 1 0
6.633545 7.080776 -20.355701 22.549853 0.817997 2.696795 0.043430 -0.013695 -79925.100000 0 1 0
7.809045 6.299676 -20.438201 22.768117 0.678822 2.685244 0.047552 -0.014355 202327.000000 0 1 0
7.552945 4.928376 -20.558501 22.449673 0.578138 2.728191 0.047124 -0.007629 -252784.000000 0 1 0
7.640245 4.466576 -22.018901 23.730901 0.529028 2.759423 0.058777 -0.017983 -263102.000000 0 1 0
6.666345 5.063576 -22.849901 24.335117 0.649600 2.790415 0.063068 -0.016141 -105924.000000 0 1 0
6.862145 4.780876 -24.192401 25.597228 0.608510 2.808752 0.068670 -0.014868 -226354.000000 0 0 1
5.728845 5.398476 -25.040131 26.248264 0.755717 2.837012 0.053152 -0.016871 98355.400000 0 0 1
5.752745 6.812876 -25.131601 26.666585 0.869566 2.800644 0.051655 -0.023447 230777.000000 0 0 1
5.164545 7.427576 -23.984301 25.633730 0.963218 2.780904 0.055650 -0.028547 -1008410.000000 0 0 1
5.070645 8.978576 -24.156201 26.264964 1.056700 2.738142 0.055190 -0.033769 396252.000000 0 0 1
4.045445 9.347276 -25.096121 27.084174 1.162343 2.756057 0.060535 -0.031970 305369.000000 0 0 1
2.778545 9.369976 -24.480901 26.359653 1.282520 2.761759 0.052596 -0.028959 -1211310.000000 0 0 1
1.629645 9.783776 -25.365511 27.235770 1.405746 2.768847 0.059965 -0.020600 -560686.000000 0 0 1
1.598845 11.183376 -25.585621 27.968701 1.428792 2.725796 0.079535 -0.042436 -42744.400000 0 0 1
0.466345 11.525076 -26.346811 28.761073 1.530355 2.728934 0.100074 -0.042983 -450337.000000 0 0 1
0.315645 13.057176 -26.435711 29.486205 1.546627 2.682703 0.094036 -0.044465 -480553.000000 0 0 1
-0.247155 13.656076 -25.301761 28.752889 -1.552700 2.646601 0.085695 -0.042918 -21549.600000 0 0 1
-0.440855 15.042376 -25.492171 29.602673 -1.541497 2.608313 0.081438 -0.046693 -167974.000000 0 0 1
-1.050655 15.576276 -24.210801 28.807762 -1.503446 2.568866 0.089823 -0.035017 566606.000000 0 0 1
-2.344255 15.030176 -23.892701 28.324246 -1.416073 2.574642 0.081245 -0.035805 234226.000000 0 0 1
-2.555455 15.212876 -22.525201 27.301037 -1.404370 2.541118 0.074686 -0.039744 149734.000000 0 0 1
-3.886555 14.606876 -21.982301 26.677476 -1.310744 2.539235 0.064418 -0.027155 1857800.000000 0 0 1
-5.191555 15.066176 -22.446101 27.527611 -1.238955 2.524222 0.072312 -0.029492 1144470.000000 0 0 1
-5.415355 14.718776 -23.857101 28.550477 -1.218246 2.560041 0.074873 -0.028622 -679537.000000 0 0 1
-6.850455 15.032476 -24.318901 29.399201 -1.143204 2.544895 0.043479 -0.023690 -113666.000000 0 0 1
-7.184355 16.365976 -24.543101 30.361554 -1.157143 2.512159 0.047002 -0.018876 1042830.000000 0 0 1
-8.525455 16.442376 -25.098661 31.192594 -1.092454 2.505857 0.046353 -0.016942 1096290.000000 0 0 1
-9.176455 17.768176 -25.594221 32.480449 -1.094072 2.478331 0.055934 -0.018807 71209.600000 0 0 1
-9.644055 18.600776 -24.606701 32.318515 -1.092477 2.436237 0.063256 -0.018358 -611913.000000 0 0 1
-10.755755 19.322076 -25.026811 33.397158 -1.062857 2.417906 0.069691 -0.013089 288536.000000 0 0 1
-11.558655 20.140776 -23.951601 33.360644 -1.049794 2.371663 0.071214 -0.014193 599415.000000 0 0 1
-10.831055 21.359776 -23.678701 33.678371 -1.101503 2.350521 0.075324 -0.013853 385993.000000 0 0 1
-11.496955 22.546076 -24.040901 34.906596 -1.099235 2.330520 0.069821 -0.014673 -153626.000000 0 0 1
-11.099855 23.115976 -25.427641 36.112603 -1.123129 2.351981 0.065930 -0.009692 -49664.700000 0 0 1
-11.571355 22.328276 -26.521551 36.549157 -1.092665 2.382761 0.056329 -0.013044 150829.000000 0 0 1
-11.373155 23.014176 -27.748101 37.801562 -1.111815 2.395058 0.072185 -0.011806 -256698.000000 0 0 1
-11.950955 22.131776 -28.854941 38.278564 -1.075670 2.424645 0.061943 -0.016069 -192904.000000 0 0 1
-11.089055 21.192276 -29.465401 37.951147 -1.088715 2.459735 0.054913 -0.018557 -141626.000000 0 0 1
-10.878155 20.038876 -28.693561 36.649847 -1.073457 2.470127 0.051696 -0.017908 -162880.000000 0 0 1
-9.977755 18.990276 -29.363161 36.364563 -1.087025 2.510641 0.042180 -0.027050 -67669.200000 0 0 1
-8.618155 19.426976 -29.370381 36.253266 -1.153262 2.515195 0.042830 -0.026467 458751.000000 0 0 1
-7.656755 18.546976 -29.941731 36.043356 -1.179278 2.551186 0.044000 -0.024106 520043.000000 0 0 1
-7.265555 17.300376 -29.070861 34.600669 -1.173198 2.568415 0.053935 -0.033220 -469626.000000 0 0 1
-8.329555 16.357576 -28.988851 34.311883 -1.099802 2.577106 0.026437 -0.034344 103390.000000 0 0 1
-7.973455 15.174176 -28.370781 33.147139 -1.086987 2.598093 0.018263 -0.027185 289441.000000 0 0 1
-9.250155 14.303876 -28.229791 32.971008 -0.996752 2.598666 0.024395 -0.018165 -2024.390000 0 0 1
-10.261455 14.760876 -27.417541 32.785706 -0.963313 2.561232 0.036363 -0.027403 -884238.000000 0 0 1
-11.411855 13.956476 -27.544641 32.919917 -0.885371 2.562056 0.064784 -0.027367 282307.000000 0 0 1
-12.445355 14.316576 -26.427381 32.530873 -0.855206 2.519016 0.061727 -0.022856 50479.200000 0 0 1
-12.918955 15.635076 -26.670801 33.506517 -0.880235 2.491435 0.055775 -0.022586 -163553.000000 0 0 1
-13.724855 15.980476 -25.515741 33.087767 -0.861186 2.451447 0.049089 -0.021305 557344.000000 0 0 1
-14.713055 17.128976 -25.834961 34.312112 -0.861125 2.423315 0.031911 -0.020547 178207.000000 0 0 1
-14.058255 18.346476 -26.101621 34.864342 -0.916967 2.416838 0.038617 -0.016601 24103.800000 0 0 1
-15.040955 19.284876 -26.468411 36.037669 -0.908410 2.395675 0.033453 -0.011206 57598.600000 0 0 1
-14.523255 20.729276 -26.541991 36.675675 -0.959657 2.379937 0.030041 -0.008226 164469.000000 0 0 1
-15.546855 21.644676 -26.967691 37.913759 -0.947909 2.362129 0.014186 -0.008187 468877.000000 0 0 1
-15.172855 23.009176 -27.043261 38.613155 -0.987823 2.346704 0.025314 -0.007111 -250321.000000 0 0 1
-14.984855 23.895976 -25.746071 38.189315 -1.010698 2.310636 0.004985 -0.005248 -76886.900000 0 0 1
-14.457255 25.129076 -26.070531 38.989169 -1.048722 2.303203 0.032949 -0.015585 -92861.400000 0 0 1
-14.276755 25.839076 -24.866401 38.598206 -1.066016 2.270822 0.050291 -0.023764 19946.500000 0 0 1
-13.773655 27.275076 -25.209261 39.612501 -1.103164 2.260614 0.061104 -0.028272 650161.000000 0 0 1
-14.807855 28.229976 -25.556941 40.857819 -1.087707 2.246580 0.057163 -0.028852 429146.000000 0 0 1
-15.426255 28.881676 -24.409501 40.840474 -1.080227 2.211400 0.054534 -0.027778 546725.000000 0 0 1
-16.862355 29.259176 -24.867001 41.938123 -1.047978 2.205508 0.049836 -0.027467 567587.000000 0 0 1
-17.807955 28.193676 -24.893901 41.613856 -1.007444 2.212064 0.044845 -0.023468 -501601.000000 0 0 1
-18.979655 28.556676 -25.566241 42.770828 -0.984204 2.211487 0.033176 -0.020816 -463581.000000 0 0 1
-20.097855 27.533476 -25.335791 42.472561 -0.940256 2.209956 0.026242 -0.011209 -537728.000000 0 0 1
-20.640455 27.716576 -24.086701 42.123701 -0.930698 2.179505 0.040715 -0.017865 -704257.000000 0 0 1
-21.629055 26.779476 -23.812901 41.857026 -0.891394 2.175977 0.052026 -0.030980 -228162.000000 0 0 1
-22.415155 27.018876 -22.475601 41.684668 -0.878259 2.140261 0.054824 -0.026118 446880.000000 0 0 1
-23.173955 28.220876 -22.288501 42.781157 -0.883283 2.118805 0.049722 -0.015444 233732.000000 0 0 1
-23.602655 28.226776 -20.901301 42.316671 -0.874381 2.087395 0.033293 -0.015717 -688855.000000 0 0 1
-24.971055 28.870476 -20.749601 43.446564 -0.857696 2.068705 0.019636 -0.010188 -1441370.000000 0 0 1
-25.947405 27.933176 -20.979901 43.516508 -0.822237 2.073862 0.010196 -0.010595 -859341.000000 0 0 1
-27.196715 28.590376 -21.088801 44.741574 -0.810375 2.061614 0.017668 -0.010698 -7424.310000 0 0 1
-28.395435 27.661076 -21.322501 45.012053 -0.772299 2.064291 0.004201 -0.005220 -251534.000000 0 0 1
-28.382035 27.026476 -22.585401 45.233513 -0.760938 2.093595 0.001397 0.000025 -435306.000000 0 0 1
-29.706795 26.609176 -22.765001 45.921533 -0.730449 2.089480 0.003766 0.007355 -351485.000000 0 0 1
-30.000965 26.289576 -24.208801 46.661181 -0.719561 2.116268 0.001414 0.013998 5518.550000 0 0 1
-29.471955 25.040176 -24.595001 45.831438 -0.704278 2.137247 0.020993 0.010574 -253394.000000 0 0 1
-29.417835 24.906376 -26.032611 46.512724 -0.702541 2.164806 0.038199 0.014164 81321.200000 0 0 1
-29.613005 23.462176 -26.570391 46.188629 -0.670024 2.183716 0.044566 0.008686 -551439.000000 0 0 1
-28.596415 22.611576 -26.206861 44.898084 -0.669053 2.194070 0.058604 -0.010884 -595666.000000 0 0 1
-28.785825 21.358176 -26.803281 44.757249 -0.638341 2.212872 0.068323 -0.014575 65797.300000 0 0 1
-27.744505 20.265976 -26.439241 43.353210 -0.630871 2.226676 0.084612 -0.015560 -3082.710000 0 0 1
-27.700925 19.837776 -25.059181 42.294695 -0.621477 2.204943 0.075495 -0.010694 433749.000000 0 0 1
-26.785435 18.780176 -24.849201 41.080864 -0.611487 2.220418 0.069355 -0.014952 438544.000000 0 0 1
-27.570475 17.399376 -24.967201 41.063738 -0.562965 2.224349 0.061763 -0.005465 276801.000000 0 0 1
-28.162075 17.080876 -26.208481 42.092081 -0.545200 2.242916 0.064885 -0.009882 913463.000000 0 0 1
-29.286035 16.221976 -25.923551 42.342117 -0.505844 2.229687 0.037338 -0.008930 867710.000000 0 0 1
-30.079875 15.621776 -27.142611 43.423037 -0.479002 2.246023 0.032491 -0.014281 1166840.000000 0 0 1
-31.319325 16.197976 -27.601461 44.778513 -0.477303 2.234959 0.021604 -0.003214 732355.000000 0 0 1
-31.875385 15.433976 -28.630731 45.540823 -0.450926 2.250655 0.026800 0.006585 -142805.000000 0 0 1
-33.157775 15.974076 -29.275011 47.028028 -0.448949 2.242731 0.029069 -0.002239 76883.300000 0 0 1
-34.285820 15.907476 -28.420861 47.289646 -0.434408 2.215542 0.009758 0.004345 325688.000000 0 0 1
-35.427656 16.514576 -29.012731 48.678421 -0.436202 2.209317 0.003918 0.004287 701611.000000 0 0 1
36.496235 16.410676 -28.263001 48.990639 0.422566 2.185732 0.006051 0.011326 292226.000000 0 0 1
36.251265 17.348076 -27.238971 48.549681 0.446342 2.166454 0.005006 0.005457 278286.000000 0 0 1
35.054765 16.943976 -26.582411 47.144029 0.450245 2.169843 0.006906 0.003409 129146.000000 0 0 1
34.724915 17.928976 -25.477351 46.651509 0.476614 2.148523 0.013051 0.005036 -205844.000000 0 0 1
34.277005 19.149876 -26.020361 47.102973 0.509483 2.156054 0.014761 -0.010430 212019.000000 0 0 1
33.853685 20.095876 -25.033361 46.653889 0.535708 2.137171 0.024776 -0.006284 -920832.000000 0 0 1
33.202905 21.335376 -25.656601 47.073266 0.571138 2.147228 0.035808 -0.022152 284166.000000 0 0 1
31.897705 21.210876 -26.206911 46.413005 0.586824 2.170800 0.039609 -0.024297 745366.000000 0 0 1
30.852735 21.152876 -25.207811 45.108416 0.601001 2.163767 0.053055 -0.018715 434602.000000 0 0 1
29.426335 21.006476 -25.816851 44.426243 0.619972 2.190897 0.030556 -0.022869 384570.000000 0 0 1
29.200795 19.773876 -26.442521 44.078334 0.595238 2.214170 0.041103 -0.029910 -296336.000000 0 0 1
28.058515 19.822476 -27.261051 43.856308 0.615055 2.241579 0.060583 -0.034213 -212932.000000 0 0 1
27.306915 18.494976 -27.472571 42.924048 0.595328 2.265330 0.084525 -0.030017 359300.000000 0 0 1
28.096615 17.499176 -28.185161 43.474639 0.557031 2.276163 0.071928 -0.039411 927465.000000 0 0 1
29.135975 16.858176 -27.431031 43.423089 0.524538 2.254560 0.069092 -0.028657 21688.300000 0 0 1
29.762045 15.694576 -28.186341 43.892697 0.485276 2.268115 0.070509 -0.023254 -24993.800000 0 0 1
28.929475 14.577976 -28.534681 43.170128 0.466774 2.292923 0.080874 -0.014453 276370.000000 0 0 1
28.242305 13.839876 -27.525831 41.795231 0.455648 2.289737 0.090893 -0.016302 11588.600000 0 0 1
29.121985 13.145476 -26.425491 41.463238 0.424012 2.261816 0.083907 -0.014245 97068.300000 0 0 1
29.605845 13.984976 -25.418161 41.450797 0.441302 2.230918 0.086676 -0.017610 -22160.800000 0 0 1
30.454455 13.283676 -24.532501 41.301011 0.411303 2.206809 0.080284 -0.012806 78536.800000 0 0 1
-15.142355 -31.242368 -23.270501 41.795845 1.119485 2.161284 0.084627 -0.015612 -111009.000000 0 0 1
-14.526755 -30.190668 -23.948301 41.182814 1.122328 2.191382 0.075832 -0.031984 -42226.200000 0 0 1
-14.907155 -29.977268 -25.270121 41.945666 1.109325 2.217362 0.065242 -0.021147 -385227.000000 0 0 1
-14.102355 -28.842168 -25.924391 41.265253 1.116028 2.250082 0.066202 -0.020211 -342103.000000 0 0 1
-14.398755 -27.508468 -25.568281 40.221598 1.088581 2.259692 0.066722 -0.014156 -9943.280000 0 0 1
-13.525555 -26.596468 -26.207191 39.713091 1.100334 2.291499 0.046497 -0.006272 -51533.100000 0 0 1
-13.867455 -25.044768 -25.856741 38.576130 1.065112 2.305380 0.029816 -0.006655 -33971.600000 0 0 1
-13.487155 -24.531268 -24.549101 37.233652 1.068111 2.290718 0.030061 -0.018052 122533.000000 0 0 1
-13.879055 -23.222668 -24.393001 36.427174 1.032106 2.304517 0.030493 -0.010982 -312424.000000 0 0 1
-13.719655 -22.697168 -22.945501 35.069736 1.027100 2.284029 0.027414 -0.014287 320890.000000 0 0 1
-12.340255 -22.493568 -22.678101 34.242353 1.069019 2.294657 0.026858 -0.024468 109803.000000 0 0 1
-12.093255 -21.868368 -21.416301 32.910945 1.065651 2.279348 0.015797 -0.023589 278971.000000 0 0 1
-10.602055 -21.524468 -21.197901 32.016516 1.113120 2.294404 0.028689 -0.027058 262255.000000 0 0 1
-10.150655 -20.519668 -22.169601 31.868225 1.111414 2.340141 0.047530 -0.026234 -666218.000000 0 0 1
-8.775155 -20.359268 -22.100601 31.303989 1.163842 2.354630 0.072491 -0.020864 -834115.000000 0 0 1
-8.201555 -19.282368 -23.065401 31.162284 1.168638 2.404120 0.098745 -0.021611 -84679.700000 0 0 1
-8.684655 -17.996068 -22.724001 30.259906 1.121176 2.420312 0.071232 -0.022551 -53532.900000 0 0 1
-8.707855 -17.008468 -23.794801 30.517328 1.097617 2.465006 0.075004 -0.016400 1131630.000000 0 0 1
-7.324355 -16.711368 -24.543201 30.582425 1.157727 2.502314 0.098323 -0.029256 1187280.000000 0 0 1
-7.122855 -17.512968 -25.746241 31.942261 1.184511 2.508200 0.089165 -0.022590 71149.600000 0 0 1
-6.052055 -17.051368 -26.550821 32.129778 1.229736 2.543412 0.080956 -0.022932 119916.000000 0 0 1
-6.008755 -17.729768 -27.932351 33.625378 1.244037 2.551147 0.086283 -0.018630 -116507.000000 0 0 1
-7.003155 -17.170868 -28.751631 34.213143 1.183540 2.568758 0.095547 -0.017864 -136891.000000 0 0 1
-7.070555 -18.026168 -29.850971 35.581118 1.196999 2.566157 0.113254 -0.026281 21639.500000 0 0 1
-7.319655 -17.152868 -31.100141 36.263163 1.167461 2.601427 0.111274 -0.027213 -875162.000000 0 0 1
-6.323655 -16.301468 -31.477821 36.008050 1.200747 2.634558 0.099967 -0.026437 -999154.000000 0 0 1
-6.319455 -14.938068 -30.912611 34.909467 1.170584 2.658382 0.089979 -0.025891 -367853.000000 0 0 1
-7.129655 -13.955668 -31.725201 35.384757 1.098484 2.682778 0.086828 -0.021384 79097.500000 0 0 1
-6.574855 -13.769868 -33.049041 36.401609 1.125325 2.709045 0.083790 -0.027252 203527.000000 0 0 1
-7.387355 -12.955168 -33.904441 37.039445 1.052558 2.727198 0.083149 -0.024386 -283916.000000 0 0 1
-7.501055 -11.427868 -33.567711 36.244354 0.989947 2.754870 0.062959 -0.022954 147821.000000 0 0 1
-6.369455 -10.586368 -33.724971 35.916776 1.029153 2.790436 0.059980 -0.021008 -222712.000000 0 0 1
-6.039655 -10.327568 33.186207 35.276911 1.041622 0.346007 0.047247 -0.022155 -26185.500000 0 0 1
-4.847655 -9.352268 33.137878 34.771880 1.092585 0.307782 0.042309 -0.021557 -12157.100000 0 0 1
-4.838755 -8.751868 31.844792 33.378129 1.065743 0.304284 0.037453 -0.014092 -289108.000000 0 0 1
-3.766255 -7.852668 31.709242 32.883508 1.123590 0.268046 0.038529 -0.016824 -1189970.000000 0 0 1
-3.922355 -6.948368 30.461322 31.488995 1.056889 0.256184 0.034295 -0.013973 69691.600000 0 0 1
-4.955955 -5.999268 30.527622 31.503784 0.880346 0.249587 0.025461 -0.012645 932145.000000 0 0 1
-6.287155 -6.573768 30.589442 31.913268 0.807680 0.289040 0.024707 -0.013309 -145119.000000 0 0 1
-7.413455 -5.532568 30.557542 31.926979 0.641121 0.293949 0.010752 -0.009162 69704.800000 0 0 1
-8.691455 -6.128868 30.361902 32.170631 0.614181 0.336921 0.011420 -0.002595 1597.470000 0 0 1
-9.671455 -5.192068 29.953112 31.901152 0.492687 0.351274 0.014110 -0.011623 -90773.800000 0 0 1
-10.800855 -5.934668 29.240982 31.731905 0.502431 0.398869 0.022239 -0.011525 -535967.000000 0 0 1
-10.568855 -5.999268 27.863032 30.398034 0.516283 0.411289 0.010808 -0.001954 -98494.800000 0 0 1
-11.467755 -6.738368 27.110632 30.197705 0.531246 0.456113 0.021023 -0.004718 -366398.000000 0 0 1
-11.161255 -6.482268 25.607892 28.676777 0.526170 0.466865 0.010755 -0.001975 1134530.000000 0 0 1
-9.990355 -7.193068 25.106232 27.961944 0.624024 0.455886 0.016746 0.000485 827488.000000 0 0 1
-9.514755 -6.828168 23.818972 26.542379 0.622467 0.456969 0.020096 -0.005073 104966.000000 0 0 1
-10.409555 -6.962068 22.517792 25.765872 0.589489 0.507548 0.031645 -0.012539 983774.000000 0 0 1
-11.572655 -6.103568 22.506492 26.033096 0.485337 0.526574 0.010495 -0.005190 430403.000000 0 0 1
-12.185655 -6.185268 21.255192 25.269169 0.469698 0.571388 0.014264 -0.007640 -462677.000000 0 0 1
-13.293455 -5.166968 21.050492 25.427086 0.370714 0.595485 0.007906 -0.004273 -182890.000000 0 0 1
-12.897355 -3.893468 20.601492 24.615490 0.293182 0.579143 0.001092 -0.006020 233289.000000 0 1 0
-14.044555 -3.050768 20.687392 25.189778 0.213898 0.607178 0.014281 -0.000960 522276.000000 0 0 1
-13.807655 -1.613768 20.116592 24.452666 0.116347 0.604696 0.008689 -0.002085 -621852.000000 0 1 0
-12.898655 -0.870768 20.814392 24.502499 0.067406 0.555797 0.005458 -0.003990 -683887.000000 0 1 0
-13.040255 0.524232 20.682392 24.455764 -0.040179 0.562909 0.018266 -0.010313 -350059.000000 0 1 0
-12.645555 1.185232 19.339892 23.137551 -0.093454 0.581088 0.032435 -0.020136 403135.000000 0 1 0
-13.446655 0.986232 18.147892 22.608210 -0.073213 0.638967 0.033844 -0.017063 -283579.000000 0 1 0
-14.742355 1.492232 18.105292 23.395841 -0.100877 0.685871 0.025699 -0.015350 -279307.000000 0 1 0
-15.689455 0.695232 17.169192 23.268509 -0.044283 0.740884 0.040948 -0.015256 -31702.100000 0 1 0
-16.049155 -0.537768 17.731792 23.922396 0.033495 0.735908 0.021704 -0.014054 686918.000000 0 1 0
-16.967455 -1.242768 16.866792 23.956788 0.073114 0.789711 0.033451 -0.007324 247991.000000 0 1 0
-16.999155 -2.791768 17.203592 24.346023 0.162777 0.786074 0.028651 -0.002817 47423.200000 0 1 0
-17.487255 -3.061768 18.532692 25.663967 0.173329 0.763921 0.033672 0.000691 135804.000000 0 0 1
-17.224355 -4.400768 18.852292 25.912431 0.250145 0.756069 0.035131 -0.001785 -73615.400000 0 0 1
-17.872455 -4.859568 20.203392 27.408340 0.265484 0.741989 0.038897 0.004386 328123.000000 0 0 1
-17.095955 -4.458968 21.361592 27.721322 0.255136 0.691040 0.042661 0.007240 601298.000000 0 0 1
-17.856655 -4.303668 22.571592 29.100833 0.236502 0.683078 0.043764 0.001608 -143915.000000 0 0 1
-18.272255 -5.567268 23.333972 30.155332 0.295749 0.685990 0.059780 0.002973 575724.000000 0 0 1
-17.195955 -6.347968 23.874762 30.099864 0.353636 0.654775 0.027659 -0.000972 280474.000000 0 0 1
-16.346855 -6.996868 22.991492 29.065177 0.404430 0.658302 0.033113 -0.001231 -79869.100000 0 0 1
-15.230355 -7.856468 23.684872 29.234585 0.476241 0.626361 0.040614 0.004983 331827.000000 0 0 1
-15.678255 -9.003868 24.371782 30.345693 0.521301 0.638253 0.046592 -0.002184 268974.000000 0 0 1
-14.933755 -9.190068 25.596362 31.026571 0.551658 0.600626 0.054158 0.002675 659430.000000 0 0 1
-15.723055 -10.109268 26.598402 32.509795 0.571409 0.612583 0.050431 -0.011623 207989.000000 0 0 1
-15.924555 -11.467068 26.248122 32.772687 0.624080 0.641975 0.058906 -0.017531 604936.000000 0 0 1
-14.866455 -12.262768 26.832722 33.036070 0.689718 0.622840 0.060633 -0.014127 636545.000000 0 0 1
-14.979455 -13.768368 26.543512 33.444133 0.743295 0.653983 0.051697 -0.018632 -195971.000000 0 0 1
-15.850055 -14.425868 27.417352 34.800016 0.738393 0.663479 0.050057 -0.021421 -243100.000000 0 0 1
-15.965755 -15.847768 27.257552 35.341636 0.781689 0.689980 0.063747 -0.009649 -770581.000000 0 0 1
-14.861155 -16.644268 27.879422 35.709211 0.841935 0.674956 0.067269 -0.017068 -553389.000000 0 0 1
-13.635755 -16.561768 27.177892 34.624612 0.881992 0.668213 0.063080 -0.018112 17723.400000 0 0 1
-12.681855 -17.352768 27.853272 35.181711 0.939680 0.657214 0.071120 -0.016803 -137341.000000 0 0 1
-11.413555 -17.720168 27.075852 34.312903 0.998580 0.661476 0.072184 -0.023029 -915388.000000 0 0 1
-10.353855 -18.163368 27.819592 34.799999 1.052697 0.644478 0.083918 -0.026938 -666158.000000 0 0 1
-9.450755 -18.931268 27.023832 34.321963 1.107778 0.664277 0.079204 -0.027093 -152701.000000 0 0 1
-8.496255 -19.617268 28.005102 35.232219 1.162084 0.652000 0.087271 -0.030397 -378976.000000 0 0 1
-9.014655 -20.717768 28.722212 36.543883 1.160388 0.666541 0.088092 -0.029853 -326080.000000 0 0 1
-8.121255 -21.117268 29.712412 37.345966 1.203654 0.650801 0.096806 -0.032877 -354784.000000 0 0 1
-8.494955 -22.427268 30.414132 38.731977 1.208718 0.667703 0.080774 -0.032217 -15499.400000 0 0 1
-8.371555 -23.542468 29.545742 38.694723 1.229147 0.701988 0.080376 -0.031658 9622.850000 0 0 1
-8.720355 -24.710068 30.282702 40.045900 1.231534 0.713311 0.071191 -0.035821 -3213.450000 0 0 1
-8.835755 -25.979568 29.399382 40.216069 1.242965 0.750958 0.067742 -0.029766 643571.000000 0 0 1
-9.980255 -25.977868 28.507212 39.838627 1.203999 0.773361 0.067688 -0.026254 933694.000000 0 0 1
-9.817655 -27.041668 27.576082 39.850702 1.222537 0.806561 0.047112 -0.020809 442740.000000 0 0 1
-11.030155 -27.164968 26.575172 39.570691 1.185091 0.834447 0.046942 -0.019111 476146.000000 0 0 1
-11.093555 -26.167768 25.521732 38.199186 1.169824 0.839114 0.060586 -0.020475 79888.300000 0 0 1
-11.803455 -24.999268 25.863742 37.857867 1.129674 0.818688 0.062347 -0.023159 -314795.000000 0 0 1
-12.009155 -24.067968 24.680942 36.505284 1.107974 0.828350 0.074788 -0.032032 407814.000000 0 0 1
-13.189055 -24.492368 23.985762 36.730696 1.076828 0.859235 0.076446 -0.026357 596997.000000 0 0 1
-13.049955 -24.251168 22.617392 35.636595 1.077122 0.883218 0.087679 -0.031643 -385559.000000 0 0 1
-14.370155 -24.120168 21.869092 35.588496 1.033490 0.909046 0.104927 -0.032615 -339570.000000 0 0 1
-14.983055 -25.366168 21.530592 36.489736 1.037265 0.939682 0.105284 -0.038573 621317.000000 0 0 1
-16.122155 -25.188368 20.678692 36.359126 1.001438 0.965830 0.117002 -0.041983 523205.000000 0 0 1
-16.779655 -26.495668 20.266492 37.340433 1.006252 0.997089 0.118637 -0.034068 469810.000000 0 0 1
-15.871055 -27.113768 19.345092 36.895520 1.041218 1.018879 0.114018 -0.038844 322308.000000 0 0 1
-16.346855 -28.379468 18.918892 37.822458 1.048203 1.046964 0.116693 -0.034397 266011.000000 0 0 1
-15.413755 -29.247368 18.028692 37.656687 1.085772 1.071549 0.119561 -0.035400 101860.000000 0 0 1
-15.309155 -28.694068 16.728692 36.572789 1.080686 1.095718 0.111579 -0.037559 -164940.000000 0 0 1
-14.230055 -29.149568 15.954292 36.148737 1.116654 1.113692 0.100061 -0.038816 49660.100000 0 0 1
-14.270955 -28.462868 14.610792 35.032417 1.106039 1.140583 0.094622 -0.030694 -33397.400000 0 0 1
-13.983855 -27.044368 14.591292 33.761692 1.093585 1.123882 0.104750 -0.036748 -36536.800000 0 0 1
-14.266855 -26.422268 13.312892 32.846803 1.075697 1.153487 0.094003 -0.036640 506468.000000 0 0 1
-13.408355 -26.861768 12.054092 32.351811 1.107820 1.188994 0.083575 -0.029659 622404.000000 0 0 1
-13.921655 -26.292168 10.840592 31.664002 1.083830 1.221365 0.071986 -0.014645 -54003.100000 0 0 1
-12.986555 -26.488268 9.828392 31.094634 1.114958 1.249202 0.074191 -0.014815 -32543.700000 0 0 1
-13.445455 -25.760168 8.549092 30.289495 1.089745 1.284662 0.078825 -0.010867 516642.000000 0 0 1
-14.666055 -26.267868 8.019392 31.135265 1.061583 1.310294 0.071346 -0.017941 174654.000000 0 0 1
-14.765055 -25.610668 6.732192 30.318898 1.047821 1.346884 0.079221 -0.019812 -253147.000000 0 0 1
-15.725355 -26.145568 5.706092 31.039282 1.029308 1.385910 0.080198 -0.014843 -311845.000000 0 0 1
-15.183755 -27.251368 5.026892 31.598309 1.062462 1.411030 0.081961 -0.019269 284844.000000 0 0 1
-15.970055 -27.543468 3.851192 32.070500 1.045353 1.450421 0.092936 -0.008268 -149358.000000 0 0 1
-15.369755 -28.615168 2.969892 32.617135 1.077896 1.479617 0.083565 -0.005333 722075.000000 0 0 1
-14.178555 -28.253468 2.223092 31.689620 1.105682 1.500587 0.075360 -0.000618 717896.000000 0 0 1
-13.759255 -29.422968 1.507892 32.516179 1.133373 1.524406 0.066831 -0.010407 44513.900000 0 0 1
-12.457755 -29.333968 0.675992 31.876862 1.169191 1.549588 0.044859 -0.008191 70696.000000 0 0 1
-12.430955 -28.591268 -0.529808 31.181243 1.160670 1.587788 0.055814 -0.007588 -202522.000000 0 0 1
-12.538855 -27.216868 -0.364508 29.968544 1.139079 1.582960 0.057032 -0.013613 -461703.000000 0 0 1
-12.164555 -26.399568 -1.593808 29.111060 1.139009 1.625573 0.062284 -0.018487 466195.000000 0 0 1
-10.772355 -26.549268 -1.881108 28.713165 1.185343 1.636357 0.065293 -0.024343 144321.000000 0 0 1
-10.510055 -25.939168 -3.163308 28.165728 1.185832 1.683344 0.083189 -0.031638 -153154.000000 0 0 1
-9.091055 -26.312268 -3.581908 28.068003 1.238130 1.698761 0.074396 -0.033917 -284200.000000 0 0 1
-8.686855 -25.619568 -4.748508 27.465834 1.243891 1.744557 0.078688 -0.041725 -898359.000000 0 0 1
-7.330855 -25.828368 -4.996108 27.309469 1.294240 1.754777 0.083017 -0.034502 -413809.000000 0 0 1
-6.699155 -24.795268 -5.923508 26.358527 1.306918 1.797461 0.063605 -0.030711 -145472.000000 0 0 1
-7.136855 -24.728268 -7.257408 26.741202 1.289820 1.845638 0.079646 -0.024676 53577.400000 0 0 1
-6.442855 -23.664468 -7.931308 25.776405 1.304981 1.883567 0.078310 -0.020450 -102024.000000 0 0 1
-6.578655 -23.652068 -9.497708 26.323098 1.299511 1.939935 0.077434 -0.022562 -234949.000000 0 0 1
-5.721755 -24.564368 -10.160908 27.191740 1.341948 1.953766 0.063489 -0.022648 -62517.200000 0 0 1
-5.870455 -24.751068 -11.545708 27.935300 1.337920 1.996873 0.047784 -0.014378 -177964.000000 0 0 1
-7.227455 -25.343368 -11.981208 28.949469 1.292989 1.997493 0.048732 -0.019806 18401.700000 0 0 1
-7.474955 -25.268268 -13.393408 29.559156 1.283175 2.041042 0.048512 -0.009184 -214151.000000 0 0 1
-8.457955 -26.179368 -13.798808 30.778295 1.258305 2.035692 0.066442 -0.014001 -712426.000000 0 0 1
-8.801655 -25.957968 -15.276908 31.379438 1.243889 2.079270 0.067255 -0.019046 612902.000000 0 0 1
-7.785555 -26.603368 -16.050508 32.030811 1.286093 2.095661 0.053504 -0.026707 1462510.000000 0 0 1
-6.504655 -25.947068 -16.167508 31.256186 1.325169 2.114440 0.065168 -0.023834 522597.000000 0 0 1
-5.420255 -26.788268 -16.867508 32.117025 1.371155 2.123734 0.062033 -0.022220 -387872.000000 0 0 1
-5.660455 -26.830268 -18.248208 32.937837 1.362873 2.157981 0.089893 -0.025891 -178245.000000 0 0 1
-4.721055 -27.575468 -18.948208 33.789486 1.401235 2.166115 0.085398 -0.030614 -247615.000000 0 0 1
-25.418025 14.715376 -5.085101 29.807324 -0.524786 1.742234 0.086788 -0.030396 -23067.800000 0 0 1
-25.360695 13.349276 -4.601301 29.026540 -0.484526 1.729988 0.095020 -0.026705 271553.000000 0 0 1
-24.110655 12.763476 -4.892001 27.715730 -0.486867 1.748232 0.106214 -0.028541 -302098.000000 0 0 1
-24.042355 11.252176 -4.475101 26.919748 -0.437734 1.737810 0.123425 -0.032197 116242.000000 0 0 1
-24.630455 10.374976 -5.439701 27.274344 -0.398669 1.771587 0.121571 -0.024426 580004.000000 0 0 1
-26.049165 10.288976 -5.497401 28.541960 -0.376174 1.764615 0.126328 -0.025001 191344.000000 0 0 1
-26.543395 9.725576 -6.848801 29.086848 -0.351212 1.808489 0.142382 -0.022190 -112362.000000 0 0 1
-26.359275 10.626876 -7.902801 29.499088 -0.383223 1.842009 0.159904 -0.017756 48863.700000 0 0 1
-26.572565 9.958076 -9.127901 29.809111 -0.358552 1.882007 0.151461 -0.024031 -243130.000000 0 0 1
-27.048095 10.904876 -10.238801 30.908718 -0.383233 1.908434 0.113278 -0.021781 397764.000000 0 0 1
-25.973185 11.613776 -10.863301 30.454843 -0.420477 1.935532 0.109632 -0.025355 841566.000000 0 0 1
-26.506395 12.446976 -11.871001 31.598052 -0.439020 1.955935 0.100945 -0.026876 145565.000000 0 0 1
-25.453335 13.439276 -12.425101 31.350751 -0.485793 1.978307 0.075928 -0.020570 83126.200000 0 0 1
-25.208665 14.478876 -11.504501 31.264488 -0.521354 1.947625 0.070622 -0.019848 -259358.000000 0 0 1
-24.217355 15.370376 -11.874601 31.044080 -0.565533 1.963305 0.047119 -0.017559 -421757.000000 0 0 1
-24.376855 16.751176 -11.172101 31.617224 -0.602067 1.931951 0.041199 -0.017150 -280275.000000 0 0 1
-23.831755 16.875676 -9.866401 30.823479 -0.616153 1.896625 0.046449 -0.014378 2886.250000 0 0 1
-23.496055 18.224176 -9.591601 31.243944 -0.659702 1.882826 0.007797 -0.005941 -239799.000000 0 0 1
-22.389755 18.293376 -8.507701 30.138509 -0.685047 1.856973 0.015256 -0.003892 -629762.000000 0 0 1
-22.623555 17.812576 -7.213501 29.684133 -0.666978 1.816263 0.030570 -0.009687 -149070.000000 0 0 1
-23.434655 18.716076 -6.494801 30.686431 -0.673917 1.784060 0.027258 -0.008872 -42042.100000 0 0 1
-23.869555 18.146876 -5.122701 30.418857 -0.650030 1.740008 0.036145 -0.006381 -129129.000000 0 0 1
-22.764355 18.154876 -4.262501 29.427612 -0.673223 1.716155 0.045026 -0.024590 -156958.000000 0 0 1
-23.082055 17.894376 -2.934701 29.353066 -0.659467 1.670943 0.046666 -0.017290 -426781.000000 0 0 1
-21.864255 17.590076 -2.062501 28.137348 -0.677487 1.644163 0.053293 -0.031718 -738618.000000 0 0 1
-21.106855 18.701476 -1.690201 28.250687 -0.725048 1.630661 0.046610 -0.031111 118482.000000 0 0 1
-20.146555 18.277076 -0.717101 27.211201 -0.736782 1.597153 0.086681 -0.041662 -10831.900000 0 0 1
-19.567355 19.591476 -0.163401 27.689963 -0.786014 1.576697 0.070485 -0.037308 -139067.000000 0 0 1
-20.520555 20.309276 0.595999 28.877588 -0.780224 1.550156 0.057876 -0.027131 323967.000000 0 0 1
-20.039755 21.593776 0.865099 29.472553 -0.822707 1.541439 0.060953 -0.028472 628765.000000 0 0 1
-21.047955 22.479276 1.714699 30.842738 -0.818270 1.515173 0.042518 -0.023143 454176.000000 0 0 1
-20.876155 22.191776 3.079999 30.623115 -0.815936 1.470048 0.051993 -0.019449 1286620.000000 0 0 1
-22.134655 22.216576 3.801399 31.590661 -0.787245 1.450171 0.046628 -0.025353 959739.000000 0 0 1
-21.881155 21.746976 5.275999 31.297797 -0.782323 1.401413 0.047151 -0.019468 177276.000000 0 0 1
-20.978355 22.643176 5.991199 31.443589 -0.823545 1.379086 0.035972 -0.011881 474743.000000 0 0 1
-20.437455 22.075776 7.146099 30.920805 -0.823916 1.337578 0.025530 -0.005167 -460287.000000 0 0 1
-21.319655 21.886876 8.416199 31.692199 -0.798526 1.302011 0.028198 -0.018511 -896605.000000 0 0 1
-22.387555 21.027376 8.162999 31.780304 -0.754079 1.311027 0.040573 -0.014695 100182.000000 0 0 1
-22.944055 20.300476 9.280299 32.010357 -0.724343 1.276658 0.052925 -0.018593 91193.000000 0 0 1
-23.424655 21.076276 10.524499 33.221815 -0.732676 1.248448 0.052152 -0.019544 -347915.000000 0 0 1
-24.595755 21.814476 10.179099 34.415645 -0.725542 1.270535 0.062216 -0.018614 648093.000000 0 0 1
-25.045255 22.656176 11.270299 35.603185 -0.735356 1.248703 0.063438 -0.012159 528618.000000 0 0 1
-26.325105 23.474376 10.919299 36.922738 -0.728216 1.270573 0.077361 -0.015695 470931.000000 0 0 1
-27.106185 23.894276 12.049799 38.090411 -0.722503 1.248920 0.076765 -0.017697 245019.000000 0 0 1
-27.339135 25.294876 11.966299 39.120984 -0.746579 1.259934 0.073626 -0.016128 196007.000000 0 0 1
-27.783115 25.902476 13.340099 40.259136 -0.750382 1.233056 0.084487 -0.019129 1133720.000000 0 0 1
-26.738955 25.716476 14.357299 39.779906 -0.765908 1.201544 0.056139 -0.019830 933183.000000 0 0 1
-27.066505 26.402876 15.550199 40.884181 -0.772987 1.180624 0.071273 -0.022666 11638.000000 0 0 1
-25.976155 26.513676 16.648599 40.680604 -0.795638 1.149163 0.053372 -0.032584 -175033.000000 0 0 1
-25.718625 25.293676 17.318199 40.014220 -0.777068 1.123199 0.065247 -0.034107 -58630.900000 0 0 1
-24.559255 25.524376 18.082299 39.769591 -0.804666 1.098787 0.054736 -0.034173 -307477.000000 0 0 1
-24.106855 24.163176 18.696399 38.917283 -0.786565 1.069670 0.072093 -0.035769 -883850.000000 0 0 1
-22.980555 24.279076 19.495599 38.699585 -0.812868 1.042842 0.070963 -0.045370 -170643.000000 0 0 1
-22.482655 22.930276 19.679799 37.663800 -0.795255 1.021002 0.079512 -0.051563 -1002520.000000 0 0 1
-21.016755 22.936976 20.032399 37.001431 -0.829058 0.998701 0.071892 -0.046875 -1320900.000000 0 0 1
-20.156955 22.941176 18.902899 35.915456 -0.849910 1.016534 0.073484 -0.050457 977915.000000 0 0 1
-18.773255 22.759876 19.251599 35.228840 -0.881092 0.992650 0.061443 -0.047675 814984.000000 0 0 1
-18.317255 21.246676 19.286499 34.042799 -0.859306 0.968499 0.050146 -0.028717 -691567.000000 0 0 1
-18.825555 20.473276 20.365599 34.471933 -0.827302 0.938761 0.071149 -0.030952 121144.000000 0 0 1
-18.170855 20.716976 21.597499 35.011784 -0.850778 0.906045 0.059768 -0.020855 -49255.300000 0 0 1
-19.026055 20.509976 22.892199 36.148343 -0.822914 0.885006 0.042356 -0.020023 -187554.000000 0 0 1
-20.150855 21.325576 22.985199 37.271390 -0.813713 0.906255 0.066157 -0.030535 -164933.000000 0 0 1
-21.022155 20.985476 24.055799 38.223065 -0.784525 0.890076 0.060816 -0.020374 82870.900000 0 0 1
-22.234455 21.926076 24.107699 39.450031 -0.778415 0.913354 0.071719 -0.027038 -907308.000000 0 0 1
-21.877455 23.247376 24.446699 40.208266 -0.815747 0.917255 0.084314 -0.034891 -211713.000000 0 0 1
-22.897655 24.109276 24.849999 41.510026 -0.811168 0.928981 0.089194 -0.036803 -678019.000000 0 0 1
-23.826955 24.566276 23.727599 41.644023 -0.800674 0.964568 0.071667 -0.035482 -512213.000000 0 0 1
-24.725655 23.557876 23.333899 41.361847 -0.761217 0.971404 0.066819 -0.038441 -195188.000000 0 0 1
-25.534845 24.039076 22.275799 41.546561 -0.755235 1.004909 0.055585 -0.036628 -237260.000000 0 0 1
-26.595475 23.102276 21.718499 41.385114 -0.715225 1.018328 0.068077 -0.036254 -668716.000000 0 0 1
-27.893525 23.382776 22.139099 42.602144 -0.697655 1.024331 0.077168 -0.044983 -799486.000000 0 0 1
-28.797175 22.366876 21.817999 42.492111 -0.660374 1.031584 0.093947 -0.040399 -563068.000000 0 0 1
-30.229425 22.727476 22.193299 43.850871 -0.644673 1.040130 0.120278 -0.031625 -1505010.000000 0 0 1
-30.656335 23.823276 21.447899 44.355065 -0.660626 1.066090 0.113765 -0.042715 748042.000000 0 0 1
-32.081395 23.990976 21.482499 45.456360 -0.642102 1.078562 0.107635 -0.036995 1128050.000000 0 0 1
-32.978545 23.012876 20.665599 45.213316 -0.609257 1.096099 0.116111 -0.042594 -838965.000000 0 0 1
-32.838615 21.656976 21.109099 44.642954 -0.583023 1.078282 0.105622 -0.038543 46142.000000 0 0 1
-33.666555 20.789076 20.392499 44.513780 -0.553187 1.094921 0.128220 -0.039005 1004810.000000 0 0 1
-35.188634 20.749476 20.857599 45.867420 -0.532785 1.098720 0.123698 -0.038359 868610.000000 0 0 1
-35.904011 19.996476 19.915399 45.668153 -0.508158 1.119548 0.129837 -0.026971 -1856700.000000 0 0 1
36.025475 20.154176 20.007499 45.872930 0.510064 1.119480 0.115193 -0.031568 -1437710.000000 0 0 1
35.347205 19.384476 18.836599 44.497194 0.501615 1.133688 0.133707 -0.030506 -166135.000000 0 0 1
35.350215 17.989176 19.043199 43.998768 0.470730 1.123186 0.154631 -0.034365 307812.000000 0 0 1
34.820725 17.293776 17.902499 42.802536 0.460965 1.139270 0.166408 -0.050026 57903.800000 0 0 1
35.164145 15.789076 17.869399 42.486791 0.422031 1.136704 0.172099 -0.061503 -255285.000000 0 0 1
34.261695 15.129976 17.052699 41.153061 0.415847 1.143543 0.194126 -0.052527 -18770.900000 0 0 1
34.713875 13.799676 16.837399 40.975385 0.378372 1.147339 0.157693 -0.040235 16485.900000 0 0 1
33.735935 12.993476 15.981799 39.526720 0.367642 1.154551 0.149585 -0.050334 -215645.000000 0 0 1
33.923625 13.273976 14.615999 39.250964 0.372975 1.189232 0.150686 -0.053067 384713.000000 0 0 1
33.134475 12.458076 13.737899 37.971397 0.359634 1.200603 0.154576 -0.049145 -88804.300000 0 0 1
33.331955 12.809876 12.246699 37.750414 0.366910 1.240406 0.170118 -0.054935 234123.000000 0 0 1
34.687105 12.596076 11.873899 38.766556 0.348327 1.259501 0.153315 -0.048763 329804.000000 0 0 1
34.788515 12.744776 10.512499 38.512111 0.351166 1.294322 0.130419 -0.038379 -183580.000000 0 0 1
36.128125 12.720176 9.744699 39.522189 0.338531 1.321664 0.111812 -0.029183 -579041.000000 0 0 1
-36.491575 11.529976 9.876099 39.523572 -0.306036 1.318241 0.110031 -0.027911 -483888.000000 0 0 1
-35.140649 11.481476 9.489899 38.167364 -0.315795 1.319521 0.112032 -0.023843 -99017.700000 0 0 1
-34.852696 11.250176 7.960199 37.478550 -0.312234 1.356773 0.115345 -0.034969 -395037.000000 0 0 1
-35.088205 12.342776 7.112999 37.869790 -0.338246 1.381846 0.111182 -0.035383 97031.600000 0 0 1
-34.640074 12.096776 5.784099 37.144617 -0.335974 1.414442 0.125251 -0.043387 56058.300000 0 0 1
-35.659340 12.771376 4.827699 38.183809 -0.343916 1.444024 0.135656 -0.040044 -1458170.000000 0 0 1
36.403455 12.135976 4.818699 38.674453 0.321787 1.445875 0.135555 -0.042595 -1338170.000000 0 0 1
35.342195 13.035676 4.587999 37.947982 0.353361 1.449598 0.115199 -0.039119 -6208.380000 0 0 1
34.869665 13.691076 5.878799 37.919644 0.374142 1.415135 0.126754 -0.035014 -1378820.000000 0 0 1
34.056115 14.851276 5.668299 37.583361 0.411220 1.419399 0.124524 -0.030093 161007.000000 0 0 1
33.565255 15.383776 6.865599 37.555604 0.429755 1.386951 0.118448 -0.032387 -170604.000000 0 0 1
32.252805 14.805876 7.398399 36.251810 0.430360 1.365269 0.125087 -0.046098 -516422.000000 0 0 1
32.439055 13.472176 7.838799 35.989423 0.393632 1.351228 0.146615 -0.043113 55609.000000 0 0 1
31.220415 12.758676 7.942899 34.649499 0.387953 1.339504 0.144888 -0.038318 -67712.000000 0 0 1
31.171085 11.541976 7.020999 33.972756 0.354625 1.362631 0.148773 -0.034138 -211762.000000 0 0 1
30.744255 11.891476 5.673299 33.448509 0.369064 1.400359 0.156171 -0.043502 267615.000000 0 0 1
30.667005 10.791676 4.760999 32.857154 0.338365 1.425385 0.156924 -0.040983 -308692.000000 0 0 1
30.195025 11.229176 3.352199 32.389368 0.356040 1.467114 0.125389 -0.046663 -234533.000000 0 0 1
28.799905 11.240276 3.277999 31.088963 0.372107 1.465161 0.090487 -0.046266 -286218.000000 0 0 1
28.209515 11.620276 2.059799 30.578593 0.390746 1.503384 0.106397 -0.043264 450410.000000 0 0 1
26.719915 11.191776 1.912299 29.032165 0.396654 1.504880 0.138450 -0.032385 393002.000000 0 0 1
26.460515 9.799476 1.715499 28.268914 0.354682 1.510074 0.092765 -0.027117 -190789.000000 0 0 1
25.124915 9.482876 2.010799 26.930087 0.360899 1.496059 0.098816 -0.024173 -695826.000000 0 0 1
24.869315 7.969176 2.159599 26.204093 0.310104 1.488288 0.097835 -0.019240 9423.470000 0 0 1
25.422815 7.425576 3.353599 26.696542 0.284178 1.444844 0.109785 -0.015760 1234030.000000 0 0 1
26.756215 6.901876 3.203099 27.817095 0.252451 1.455392 0.140230 -0.022172 694614.000000 0 0 1
27.388615 6.270476 4.477099 28.451705 0.225066 1.412782 0.133349 -0.036316 -228061.000000 0 0 1
28.797695 6.145576 4.481999 29.785293 0.210251 1.419746 0.167616 -0.040515 404649.000000 0 0 1
29.197815 5.817676 5.792099 30.329955 0.196675 1.378647 0.155140 -0.019501 -831115.000000 0 0 1
30.698105 5.845176 5.988499 31.818263 0.188156 1.381458 0.160914 -0.027122 -858566.000000 0 0 1
31.279505 7.068876 6.255999 32.672832 0.222257 1.378133 0.160245 -0.035707 -1151010.000000 0 0 1
32.641595 7.016176 6.467199 34.007721 0.211724 1.379463 0.142479 -0.021582 -644882.000000 0 0 1
33.114785 8.282776 7.202899 34.886604 0.245095 1.362835 0.121283 -0.026913 -159970.000000 0 0 1
32.525355 8.304876 8.472199 34.621494 0.249994 1.323577 0.147430 -0.032986 81130.200000 0 0 1
33.205865 9.086976 9.414399 35.690804 0.267116 1.303861 0.132185 -0.029585 -280038.000000 0 0 1
32.594285 8.920676 10.779399 35.470570 0.267146 1.262016 0.138579 -0.031441 -982167.000000 0 0 1
31.312845 9.390876 10.975899 34.484100 0.291370 1.246873 0.130052 -0.032839 -821854.000000 0 0 1
30.926145 9.294776 12.313299 34.560623 0.291959 1.206511 0.106448 -0.036993 -214674.000000 0 0 1
29.634725 10.095776 12.614099 33.752883 0.328342 1.187781 0.084976 -0.040074 -169801.000000 0 0 1
29.688945 11.514876 12.383899 34.167042 0.369989 1.199899 0.105753 -0.045950 49555.000000 0 0 1
29.573745 11.935976 11.026399 33.743968 0.383606 1.237916 0.105397 -0.045812 175884.000000 0 0 1
28.190315 11.991076 10.278299 32.312895 0.402177 1.247086 0.073592 -0.038444 438307.000000 0 0 1
28.179715 12.852776 9.167799 32.300754 0.427915 1.283014 0.060334 -0.031379 99848.000000 0 0 1
26.912115 12.888376 8.528799 31.034055 0.446631 1.292393 0.056193 -0.021797 13059.900000 0 0 1
26.710715 14.011176 7.524799 31.086942 0.483096 1.326311 0.052735 -0.030158 -98744.700000 0 0 1
26.436515 15.172776 8.213899 31.568506 0.521032 1.307574 0.054084 -0.024328 78964.900000 0 0 1
26.778715 16.322976 7.460199 32.236527 0.547412 1.337259 0.046980 -0.021271 -855287.000000 0 0 1
26.401715 17.717076 8.017199 32.790560 0.591036 1.323795 0.063825 -0.025273 -48048.700000 0 0 1
25.075715 18.203776 8.031299 32.010478 0.627932 1.317191 0.063596 -0.024343 -223353.000000 0 0 1
24.199115 17.437476 8.819799 31.103884 0.624407 1.283292 0.075299 -0.025767 -577984.000000 0 0 1
22.860515 18.217476 8.995099 30.584169 0.672846 1.272273 0.082443 -0.029103 -368483.000000 0 0 1
22.211015 18.339876 7.770599 29.833915 0.690223 1.307296 0.095096 -0.032855 -613836.000000 0 0 1
21.152815 19.237576 7.887899 29.660493 0.738015 1.301618 0.137240 -0.034200 -399041.000000 0 0 1
20.617615 19.700476 6.548799 29.258872 0.762655 1.345061 0.126273 -0.032331 356764.000000 0 0 1
21.584315 20.488276 5.848199 30.329088 0.759353 1.376756 0.074974 -0.020167 327216.000000 0 0 1
21.164615 20.554376 4.527999 29.848385 0.770772 1.418508 0.095989 -0.033436 -99434.700000 0 0 1
18.361845 17.222476 32.695895 41.264907 0.753390 0.656159 0.063136 -0.010496 -87626.800000 0 0 1
17.698045 18.019776 31.750802 40.571499 0.794406 0.671983 0.075334 -0.015495 293997.000000 0 0 1
16.764945 17.239076 30.990902 39.226077 0.799341 0.659892 0.078433 -0.017889 349016.000000 0 0 1
16.096945 17.948276 29.824262 38.350213 0.839723 0.679827 0.085827 -0.022764 548228.000000 0 0 1
17.018245 18.153876 28.722162 38.001927 0.817675 0.713909 0.088882 -0.016681 704780.000000 0 0 1
16.315645 18.636476 27.557902 37.053427 0.851701 0.732157 0.080175 -0.026058 38054.500000 0 0 1
17.264445 18.923776 26.381482 36.771632 0.831219 0.770674 0.078897 -0.018545 -32184.200000 0 0 1
18.225745 19.917576 26.670672 37.950130 0.829724 0.791496 0.074054 -0.025950 -36359.100000 0 0 1
19.257245 19.959276 25.717902 37.823599 0.803298 0.823111 0.069795 -0.024222 -299641.000000 0 0 1
20.194845 21.143876 25.993542 39.122365 0.808352 0.844084 0.090395 -0.027883 -428069.000000 0 0 1
19.625445 22.390576 25.687052 39.323283 0.851115 0.858957 0.085419 -0.032015 449327.000000 0 0 1
20.320645 23.469276 26.332682 40.708054 0.857178 0.867328 0.089731 -0.037285 -237030.000000 0 0 1
19.567045 24.757176 26.144002 40.979212 0.901962 0.878921 0.097172 -0.042935 -240192.000000 0 0 1
19.591445 25.302476 24.850502 40.516508 0.911930 0.910510 0.097714 -0.039558 667891.000000 0 0 1
18.596245 26.338776 24.797052 40.674872 0.956028 0.915189 0.090703 -0.035587 381907.000000 0 0 1
18.642645 27.129176 23.483612 40.435386 0.968726 0.951124 0.082912 -0.035881 -643507.000000 0 0 1
19.837845 27.794376 23.240352 41.305949 0.950911 0.973221 0.096034 -0.037010 -508642.000000 0 0 1
19.648945 29.110376 22.768392 41.855641 0.977060 0.995630 0.083355 -0.024073 -768069.000000 0 0 1
20.974545 29.813376 22.661592 42.922217 0.957707 1.014589 0.095975 -0.020576 -893803.000000 0 0 1
21.610845 29.569976 21.465892 42.452286 0.939673 1.040664 0.090213 -0.024226 -478611.000000 0 0 1
22.828045 30.266576 21.307992 43.488111 0.924592 1.058738 0.102462 -0.039478 264711.000000 0 0 1
23.135945 30.433176 19.761492 43.034483 0.920786 1.093700 0.093145 -0.036478 -36166.900000 0 0 1
22.187645 31.267376 19.166892 42.863856 0.953650 1.107212 0.068073 -0.027536 -63587.500000 0 0 1
22.322945 31.021976 17.795592 42.158747 0.947047 1.135026 0.072860 -0.011384 -113122.000000 0 0 1
22.017045 32.249876 16.965492 42.575024 0.971775 1.160932 0.088387 -0.023882 -90124.800000 0 0 1
23.047345 33.207376 17.149792 43.909285 0.964080 1.169542 0.082199 -0.028411 334573.000000 0 0 1
23.190845 -34.049668 16.122292 44.239388 -0.972876 1.197772 0.082001 -0.030110 -27971.700000 0 0 1
24.218945 33.787276 15.002492 44.195159 0.948880 1.224454 0.068636 -0.027162 92609.400000 0 0 1
23.847145 32.683776 14.210092 42.881724 0.940458 1.233032 0.083732 -0.029419 189500.000000 0 0 1
22.693545 32.877876 13.404792 42.138346 0.966652 1.247057 0.069898 -0.032973 8203.870000 0 0 1
22.392145 31.637676 12.479992 40.719785 0.954876 1.259299 0.072597 -0.042079 -354519.000000 0 0 1
23.282345 31.374576 11.416992 40.703554 0.932385 1.286490 0.082345 -0.053805 88136.600000 0 0 1
22.776845 30.246676 10.720692 39.351992 0.925355 1.294878 0.071495 -0.049425 -363360.000000 0 0 1
23.831245 29.619476 9.779492 39.254045 0.893269 1.319011 0.067388 -0.040451 292000.000000 0 0 1
24.913245 28.921576 10.347292 39.549890 0.859717 1.306090 0.070934 -0.032768 798329.000000 0 0 1
26.045045 29.741576 10.700792 40.956229 0.851563 1.306455 0.070333 -0.039669 695180.000000 0 0 1
27.356945 29.044776 11.167692 41.433305 0.815314 1.297887 0.075647 -0.041725 611920.000000 0 0 1
27.246845 28.274076 12.329192 41.156080 0.803898 1.266553 0.076195 -0.031684 193241.000000 0 0 1
28.550545 28.330776 12.888292 42.235939 0.781535 1.260701 0.056699 -0.010339 466332.000000 0 0 1
28.619945 27.393876 14.096992 42.050575 0.763513 1.228937 0.039196 -0.019012 152757.000000 0 0 1
29.798445 27.548476 14.866292 43.218890 0.746184 1.219648 0.038295 -0.032564 174730.000000 0 0 1
30.141445 26.455876 15.721992 43.076689 0.720371 1.197188 0.044638 -0.027388 528095.000000 0 0 1
31.434545 26.580976 16.589092 44.383295 0.701933 1.187727 0.056631 -0.042488 654863.000000 0 0 1
32.696745 26.485176 15.952992 45.000440 0.680824 1.208409 0.072403 -0.032137 -94375.400000 0 0 1
33.719745 26.605676 16.902392 46.158142 0.668012 1.195891 0.067835 -0.033407 -205251.000000 0 0 1
35.123045 26.623076 16.279592 46.983418 0.648598 1.216963 0.087216 -0.039011 -147250.000000 0 0 1
35.410645 27.877776 15.595692 47.689724 0.666931 1.237643 0.083762 -0.030856 -705705.000000 0 0 1
-36.495426 28.128576 15.678392 48.671808 -0.656645 1.242823 0.102229 -0.031393 -150553.000000 0 0 1
-36.146526 29.162476 14.577892 48.677883 -0.678864 1.266652 0.071414 -0.025837 171988.000000 0 0 1
36.526445 30.368876 15.005292 49.815746 0.693609 1.264829 0.061713 -0.022981 44955.200000 0 0 1
36.213845 31.288076 13.958092 49.851927 0.712555 1.287012 0.048084 0.005135 107690.000000 0 0 1
35.461145 32.550576 14.392892 50.241299 0.742629 1.280250 0.020588 0.000975 -916078.000000 0 0 1
35.233845 33.492576 13.363992 50.415997 0.760067 1.302515 -0.012437 0.007319 -194153.000000 0 0 1
34.182645 -33.863068 13.622692 50.007382 -0.780702 1.294896 -0.021515 0.011823 537006.000000 0 0 1
32.768145 33.780976 13.331292 48.914507 0.800616 1.294762 0.011991 0.002817 -70179.700000 0 0 1
32.455145 32.686576 14.175392 48.194299 0.788951 1.272251 0.014466 -0.014158 -386062.000000 0 0 1
31.384145 31.894576 13.705292 46.798115 0.793464 1.273580 0.038541 -0.012759 -257885.000000 0 0 1
30.878445 30.830876 14.752892 46.061579 0.784627 1.244765 0.062480 -0.017501 22425.100000 0 0 1
30.015545 31.405776 15.719192 46.199012 0.808029 1.223614 0.065766 -0.024929 60350.100000 0 0 1
29.515345 30.451976 16.613092 45.546386 0.801016 1.197431 0.069767 -0.024661 -487493.000000 0 0 1
28.378645 30.922876 17.503892 45.474806 0.828275 1.175682 0.066953 -0.028910 -375033.000000 0 0 1
28.013545 30.025376 18.548992 45.059372 0.820048 1.146525 0.050466 -0.018864 167531.000000 0 0 1
28.840645 30.091776 19.735092 46.116934 0.806625 1.128589 0.052570 -0.025242 256897.000000 0 0 1
28.631145 28.919176 20.682192 45.648814 0.790403 1.100588 0.058957 -0.027386 -348717.000000 0 0 1
27.450245 28.984676 21.420292 45.304043 0.812581 1.078317 0.064426 -0.037559 -479281.000000 0 0 1
27.406145 28.008376 22.418992 45.146175 0.796265 1.051134 0.055006 -0.032223 -226326.000000 0 0 1
26.154345 27.966476 23.305602 44.825491 0.818869 1.024041 0.065326 -0.030892 -1130810.000000 0 0 1
25.029845 27.446376 22.663192 43.513411 0.831416 1.022971 0.081391 -0.031549 -470825.000000 0 0 1
23.917645 27.410076 23.530802 43.325104 0.853335 0.996646 0.094265 -0.034936 -98383.400000 0 0 1
23.769245 26.227176 24.535852 43.067967 0.834521 0.964655 0.099389 -0.039558 -609053.000000 0 0 1
24.869045 26.230476 25.404112 44.180043 0.812035 0.958176 0.079787 -0.038890 -10698.000000 0 0 1
24.670145 25.159276 26.346312 43.996970 0.795214 0.928768 0.090829 -0.043721 333233.000000 0 0 1
26.020345 24.838176 27.085812 45.029263 0.762158 0.925399 0.084548 -0.042047 616655.000000 0 0 1
26.513145 25.927076 27.866162 46.386238 0.774223 0.926367 0.112339 -0.044562 -45768.600000 0 0 1
27.304345 26.809876 27.154542 46.921912 0.776261 0.953641 0.077956 -0.023164 -1170260.000000 0 0 1
27.649445 28.089276 27.975052 48.333247 0.793289 0.953546 0.044574 -0.023639 -312069.000000 0 0 1
28.452645 27.820476 29.094542 49.295276 0.774165 0.939478 0.049506 -0.018040 -79026.900000 0 0 1
28.589345 29.065376 29.795672 50.496820 0.793655 0.939675 0.048653 -0.017750 -544421.000000 0 0 1
30.035245 29.395176 30.106412 51.697083 0.774629 0.949165 0.029550 -0.010053 -520610.000000 0 0 1
30.847645 29.390876 28.970872 51.523899 0.761220 0.973656 0.008620 -0.008386 -429701.000000 0 0 1
32.224245 29.623376 29.121112 52.573620 0.743370 0.983742 0.027997 -0.011612 272329.000000 0 0 1
32.960645 30.042476 27.809752 52.557937 0.739113 1.013227 0.021852 -0.008150 -172048.000000 0 0 1
32.733045 31.442376 27.575812 53.108386 0.765289 1.024839 0.021860 -0.010172 148236.000000 0 0 1
33.087145 31.882376 26.302932 52.944209 0.766857 1.050883 0.029363 -0.014989 -192074.000000 0 0 1
32.806745 33.372976 25.988232 53.529676 0.793954 1.063870 0.023852 -0.018976 133244.000000 0 0 1
33.519645 -33.939968 26.811902 54.720801 -0.791629 1.058734 0.049395 -0.016883 551070.000000 0 0 1
33.015945 -32.653168 26.543152 53.486642 -0.779874 1.051514 0.054559 -0.016358 -325589.000000 0 0 1
33.872245 -31.591468 27.225332 53.726795 -0.750572 1.039401 0.056274 -0.019077 -196657.000000 0 0 1
33.835045 -31.400468 28.636232 54.321574 -0.748096 1.015540 0.060331 -0.028107 206331.000000 0 0 1
34.927245 -30.606368 29.044952 54.774733 -0.719560 1.011887 0.066212 -0.034262 -74715.600000 0 0 1
34.930545 -30.347768 30.587872 55.468440 -0.715309 0.986699 0.064022 -0.036907 -320419.000000 0 0 1
35.201245 -31.380868 31.502412 56.712331 -0.728083 0.981859 0.065728 -0.032920 294856.000000 0 0 1
34.136645 -32.310268 31.578672 56.625758 -0.757919 0.979216 0.059544 -0.034326 -222368.000000 0 0 1
34.248345 -33.351468 32.684909 57.910040 -0.772131 0.971080 0.068296 -0.030226 -759166.000000 0 0 1
33.870245 -32.818068 33.953582 58.112518 -0.769622 0.946812 0.050744 -0.034549 314176.000000 0 0 1
33.988045 -33.692568 -33.156421 58.221341 -0.781032 2.176681 0.056813 -0.036071 -80795.600000 0 0 1
32.969045 33.385876 -33.150351 57.450156 0.791680 2.185881 0.058323 -0.036140 -95138.800000 0 0 1
33.185745 32.454876 34.049493 57.567183 0.774264 0.937911 0.068103 -0.037461 -47763.000000 0 0 1
32.342545 31.337676 -34.039525 56.451567 0.769620 2.218036 0.079011 -0.028998 -117204.000000 0 0 1
32.624645 30.250376 33.144492 55.479816 0.747654 0.930522 0.056546 -0.019951 -499117.000000 0 0 1
33.839645 29.579476 33.234761 55.898267 0.718324 0.934081 0.062337 -0.020364 -553981.000000 0 0 1
34.038045 28.737376 32.168862 54.947802 0.701159 0.945369 0.046514 -0.013644 -145979.000000 0 0 1
35.459145 28.159576 32.007022 55.450538 0.671158 0.955479 0.049074 -0.011917 -38723.300000 0 0 1
35.745745 27.055776 32.842429 55.573361 0.647899 0.938530 0.045864 -0.004571 802530.000000 0 0 1
-36.207326 26.540576 32.629035 55.497987 -0.632543 0.942297 0.025074 0.000390 794452.000000 0 0 1
-35.921726 25.265976 33.446296 55.203212 -0.612979 0.919930 0.007427 0.001953 21631.600000 0 0 1
-36.629226 24.123976 33.020059 54.899824 -0.582397 0.925469 0.014818 0.001107 23064.100000 0 0 1
-36.542026 23.036476 33.916031 54.920816 -0.562481 0.905180 0.007070 -0.006670 72169.800000 0 0 1
36.172945 21.765876 33.269737 53.750448 0.541681 0.903370 0.008669 -0.013499 -739190.000000 0 0 1
-36.263426 21.326676 32.290059 53.033113 -0.531627 0.916166 0.021549 -0.011351 -441353.000000 0 0 1
36.471945 20.243576 31.595182 52.328392 0.506708 0.922554 0.020581 -0.007734 -626864.000000 0 0 1
-35.835226 19.493876 30.732082 51.074803 -0.498215 0.925159 0.020171 -0.014658 -664231.000000 0 0 1
-35.433326 20.239276 29.622882 50.424835 -0.518969 0.942872 0.022701 -0.010890 321319.000000 0 0 1
-34.392026 19.608376 28.865622 48.995142 -0.518177 0.940786 0.049199 -0.014449 334461.000000 0 0 1
-34.923226 18.701176 27.723342 48.352346 -0.491638 0.960194 0.065649 -0.009438 -83581.700000 0 0 1
-35.701326 17.607476 28.218702 48.794498 -0.458183 0.954132 0.060781 -0.006511 434238.000000 0 0 1
-36.077826 16.673676 27.240332 48.183573 -0.432919 0.969945 0.072260 -0.014575 -183946.000000 0 0 1
-36.597626 15.349076 27.918462 48.522375 -0.397119 0.957736 0.039807 -0.023704 45696.400000 0 0 1
-35.587126 14.477976 28.398892 47.776065 -0.386382 0.934256 0.045989 -0.020359 120245.000000 0 0 1
-36.131226 13.251576 28.782322 48.057172 -0.351529 0.928647 0.048574 -0.020889 35051.500000 0 0 1
-35.072726 12.233576 29.289782 47.303782 -0.335611 0.903092 0.063779 -0.015466 -253557.000000 0 0 1
-34.562926 12.547976 30.573132 47.820121 -0.348251 0.877162 0.062834 -0.004067 -171591.000000 0 0 1
-33.561226 11.707176 31.032212 47.184871 -0.335632 0.853071 0.059332 -0.005591 -508482.000000 0 0 1
-32.135826 12.172676 30.712322 46.088307 -0.362088 0.841453 0.063495 0.001488 -1472970.000000 0 0 1
-31.728326 12.082176 29.391332 44.905635 -0.363847 0.857258 0.067632 -0.007094 287632.000000 0 0 1
-30.440226 12.622276 29.141942 43.990703 -0.393078 0.846703 0.088930 -0.007278 441257.000000 0 0 1
-29.228426 11.750076 29.538302 43.184215 -0.382237 0.817555 0.081117 -0.004799 -586821.000000 0 0 1
-29.063226 10.530476 28.805942 42.253335 -0.347617 0.820653 0.066556 -0.012646 -119687.000000 0 0 1
-27.884426 9.862476 29.194682 41.558863 -0.339959 0.791906 0.075772 -0.011459 -231026.000000 0 0 1
-27.414526 8.582676 28.467102 40.442483 -0.303404 0.789936 0.066026 -0.013044 114540.000000 0 0 1
-28.212226 7.412476 28.566752 40.828101 -0.256933 0.795842 0.071137 -0.020522 -167514.000000 0 0 1
-29.425526 7.463876 27.854262 41.199890 -0.248414 0.828372 0.078179 -0.014801 -353573.000000 0 0 1
-30.088526 6.077376 27.936602 41.505513 -0.199302 0.832428 0.068650 -0.011962 -583522.000000 0 0 1
-30.452126 5.783876 29.265872 42.629525 -0.187698 0.814109 0.069949 -0.009770 132955.000000 0 0 1
-31.172226 4.585376 29.424802 43.110930 -0.146051 0.819568 0.071600 -0.014385 282225.000000 0 0 1
-31.886126 4.316176 30.848812 44.575818 -0.134544 0.806468 0.061610 -0.015014 -38328.800000 0 0 1
-33.037926 5.075376 31.015812 45.598734 -0.152431 0.822774 0.058847 -0.012970 -660773.000000 0 0 1
-33.902126 4.533176 31.987442 46.830548 -0.132925 0.818871 0.086501 -0.023604 -52995.200000 0 0 1
-35.354726 4.995576 31.808922 47.819660 -0.140369 0.843055 0.074270 -0.025281 -200975.000000 0 0 1
-35.618626 6.335076 32.245249 48.462106 -0.176018 0.842807 0.068209 -0.026795 96771.300000 0 0 1
36.255345 6.501476 32.295888 48.987178 0.177439 0.850946 0.079409 -0.019039 342555.000000 0 0 1
35.761545 7.870176 32.905104 49.229804 0.216621 0.838743 0.065066 -0.015252 -239343.000000 0 0 1
36.072145 7.960376 -33.967771 50.183430 0.217198 2.314302 0.068743 -0.016778 214752.000000 0 0 1
35.840245 9.291176 -33.624171 50.014338 0.253655 2.308095 0.063774 -0.006795 -168251.000000 0 0 1
35.751845 9.549076 -32.064651 48.964488 0.261001 2.284787 0.057324 -0.004847 348811.000000 0 0 1
34.556745 9.021276 -31.482861 47.610110 0.255358 2.293299 0.056932 0.000394 565712.000000 0 0 1
34.634545 9.179376 -30.046411 46.761089 0.259079 2.268620 0.048343 0.006233 -725011.000000 0 0 1
33.510045 8.556276 -29.298121 45.326734 0.249993 2.273622 0.056016 0.000974 -954406.000000 0 0 1
33.651145 7.197376 -29.185391 45.121933 0.210707 2.274193 0.056244 -0.004821 -939944.000000 0 0 1
32.481745 6.525576 -29.001791 44.031248 0.198261 2.289838 0.062414 0.002016 -1434910.000000 0 0 1
35.700705 5.909376 -19.312401 41.017434 0.164038 2.061032 0.067221 -0.022271 -402592.000000 0 0 1
35.033205 7.093976 -18.805301 40.389223 0.199791 2.055111 0.053672 -0.010733 589752.000000 0 0 1
35.716975 8.329876 -19.051901 41.328732 0.229123 2.049901 0.027679 -0.007934 -713340.000000 0 0 1
-36.119645 8.464976 -18.460101 41.437422 -0.230205 2.032522 0.037951 -0.010815 -62948.500000 0 0 1
-35.131586 7.762976 -19.128301 40.747810 -0.217474 2.059443 0.048222 -0.020619 -495207.000000 0 0 1
-34.832947 8.312876 -20.416601 41.222272 -0.234268 2.088954 0.036041 -0.015002 -1073590.000000 0 0 1
-33.881725 7.312176 -21.136501 40.597918 -0.212555 2.118385 0.034484 -0.006487 -232198.000000 0 0 1
-34.463900 6.236976 -21.800701 41.254465 -0.179034 2.127564 0.042080 -0.004349 35557.800000 0 0 1
-35.206669 6.486476 -23.001501 42.551768 -0.182197 2.141891 0.039331 0.001912 344335.000000 0 0 1
-35.067126 5.287876 -24.011901 42.827986 -0.149665 2.165978 0.065209 -0.003826 42841.200000 0 0 1
-33.836615 5.369876 -24.683001 42.225616 -0.157388 2.195122 0.060767 -0.003997 -187675.000000 0 0 1
-33.835165 4.249176 -25.556451 42.614623 -0.124931 2.213936 0.072174 -0.013141 107730.000000 0 0 1
-32.492735 4.079576 -26.298741 42.000531 -0.124900 2.247405 0.085446 -0.009470 108877.000000 0 0 1
-31.361235 3.988476 -25.462851 40.593002 -0.126499 2.248842 0.079129 -0.008948 -658131.000000 0 0 1
-30.216505 3.647176 -26.170331 40.140071 -0.120120 2.280983 0.088155 -0.004428 -138468.000000 0 0 1
-28.889425 3.918676 -25.416871 38.677801 -0.134821 2.287819 0.062403 -0.007094 77605.300000 0 0 1
-28.507665 5.280576 -25.538581 38.636648 -0.183158 2.292939 0.038315 0.000982 -607914.000000 0 0 1
-27.360865 5.530076 -24.809101 37.345551 -0.199430 2.297369 0.033948 -0.001337 -620732.000000 0 0 1
-26.889335 7.018876 -24.849401 37.279937 -0.255331 2.300384 0.027782 -0.002095 494994.000000 0 0 1
-27.735025 7.918376 -24.074801 37.570312 -0.278102 2.266327 0.029655 0.000052 375587.000000 0 0 1
-27.442015 9.310076 -24.239601 37.779624 -0.327078 2.267385 0.017391 -0.005782 -810269.000000 0 0 1
-26.104505 9.819776 -23.738001 36.624663 -0.359798 2.275939 0.068519 -0.002490 -572349.000000 0 0 1
-26.060055 9.949676 -22.335301 35.734972 -0.364717 2.245962 0.044648 -0.000080 100345.000000 0 0 1
-24.756855 10.367576 -21.998301 34.703224 -0.396587 2.257379 0.092662 -0.011503 -467945.000000 0 0 1
-24.588355 10.774376 -20.508901 33.782975 -0.412990 2.223175 0.109713 -0.027787 -916765.000000 0 0 1
-25.122745 12.012276 -19.986401 34.276863 -0.446010 2.193320 0.090719 -0.025594 881218.000000 0 0 1
-26.528135 12.224076 -20.103501 35.458719 -0.431796 2.173601 0.083565 -0.005186 137512.000000 0 0 1
-27.366235 11.318576 -19.177301 35.281580 -0.392172 2.145457 0.066219 -0.008750 -983943.000000 0 0 1
-27.211155 11.486576 -17.789801 34.479928 -0.399435 2.112909 0.082400 -0.021383 324590.000000 0 0 1
-28.129565 10.700876 -17.048801 34.589635 -0.363509 2.086202 0.058440 -0.022870 -384190.000000 0 0 1
-27.751555 10.740476 -15.514401 33.558953 -0.369269 2.051387 0.081913 -0.029404 194264.000000 0 0 1
-26.729185 9.862776 -15.119401 32.253992 -0.353490 2.058683 0.104967 -0.033671 1457010.000000 0 0 1
-25.369845 10.231176 -15.472001 31.427517 -0.383332 2.085535 0.101035 -0.030268 1300390.000000 0 0 1
-24.402155 8.960576 -15.485101 30.257982 -0.351919 2.108039 0.092411 -0.027618 512758.000000 0 0 1
-23.020555 9.213076 -15.633601 29.312732 -0.380688 2.133338 0.098822 -0.025759 146849.000000 0 0 1
-22.284155 8.028076 -15.572701 28.346827 -0.345785 2.152398 0.098373 -0.028384 982338.000000 0 0 1
-20.718655 8.200976 -15.520401 27.155138 -0.376903 2.179185 0.125824 -0.035067 1151820.000000 0 0 1
-20.034555 8.673876 -16.679301 27.473963 -0.408582 2.223196 0.138461 -0.046328 -900130.000000 0 0 1
-18.672355 8.632276 -16.503601 26.373128 -0.433037 2.246919 0.149907 -0.043241 -1363810.000000 0 0 1
-17.823155 9.299676 -17.612801 26.727507 -0.480915 2.290254 0.117790 -0.039282 -102325.000000 0 0 1
-17.576055 8.510676 -18.791201 27.100896 -0.450944 2.336965 0.148804 -0.051122 597998.000000 0 0 1
-16.637855 7.429276 -18.626201 26.056626 -0.419963 2.367185 0.139788 -0.044150 -467007.000000 0 0 1
-16.328555 6.574276 -19.910901 26.576057 -0.382767 2.417657 0.112357 -0.044723 720130.000000 0 0 1
-17.367355 5.725476 -20.484901 27.459739 -0.318449 2.412828 0.110921 -0.033962 940190.000000 0 0 1
-18.517155 6.456476 -20.928701 28.680684 -0.335494 2.388700 0.105045 -0.034567 -528854.000000 0 0 1
-19.448955 5.553676 -21.712101 29.673566 -0.278149 2.391607 0.087951 -0.013240 -733983.000000 0 0 1
-19.988655 4.655776 -20.816201 29.232462 -0.228841 2.363270 0.098158 -0.019596 -173430.000000 0 0 1
-20.854055 3.768876 -21.479101 30.173628 -0.178796 2.362925 0.053785 0.004367 -519951.000000 0 0 1
-21.562455 2.815076 -20.486101 29.875483 -0.129820 2.326383 0.072285 -0.005274 -286385.000000 0 0 1
-22.386155 1.871276 -21.101401 30.820622 -0.083397 2.324922 0.077798 -0.001904 251630.000000 0 0 1
-23.021455 1.083376 -20.110101 30.587208 -0.047025 2.288249 0.083968 -0.007042 -343075.000000 0 0 1
-23.634255 -0.257224 -20.601401 31.353818 0.010883 2.287711 0.086611 0.004655 -488690.000000 0 0 1
-22.759855 -1.316324 -20.635801 30.750285 0.057771 2.306457 0.078888 -0.003424 -377901.000000 0 0 1
-23.382855 -2.578424 -20.828501 31.420259 0.109826 2.295482 0.082013 -0.009421 -321759.000000 0 0 1
-23.794755 -2.866124 -22.342701 32.765856 0.119874 2.321139 0.080161 -0.011957 759696.000000 0 0 1
-22.760955 -2.884824 -23.369401 32.749232 0.126072 2.365400 0.051913 -0.006506 429701.000000 0 0 1
-21.842155 -3.947124 -23.253701 32.146449 0.178782 2.379464 0.046587 -0.017230 420203.000000 0 0 1
-20.713955 -3.811824 -24.322801 32.174471 0.181986 2.427925 0.048677 -0.013686 471489.000000 0 0 1
-21.407455 -3.923424 -25.546451 33.560297 0.181262 2.435974 0.044782 -0.021142 722491.000000 0 0 1
-20.544255 -3.732324 -26.645211 33.852089 0.179712 2.476901 0.047506 -0.028800 207704.000000 0 0 1
-21.414555 -3.767224 -27.934301 35.399157 0.174137 2.480177 0.039016 -0.031109 209187.000000 0 0 1
-22.157755 -4.940124 -28.133261 36.150399 0.219365 2.462636 0.050179 -0.033081 264926.000000 0 0 1
-22.821955 -4.880624 -29.411961 37.546313 0.210683 2.470836 0.019517 -0.037755 -59066.200000 0 0 1
-22.590955 -6.219424 -30.141031 38.177405 0.268651 2.480789 0.049910 -0.033983 -475906.000000 0 0 1
-21.333155 -6.225924 -30.728821 37.922633 0.283956 2.515465 0.035546 -0.027247 -724933.000000 0 0 1
-20.779055 -7.494124 -30.942981 38.018405 0.346138 2.521621 0.043537 -0.024410 384684.000000 0 0 1
-19.312355 -7.295124 -31.468021 37.635386 0.361174 2.560983 0.057729 -0.022513 346241.000000 0 0 1
-19.117955 -6.866224 -32.821121 38.598798 0.344803 2.587379 0.059896 -0.033386 262992.000000 0 0 1
-19.098855 -7.955924 -33.732311 39.571856 0.394705 2.591415 0.061051 -0.030827 -324538.000000 0 0 1
-19.108455 -7.527224 33.016103 38.882582 0.375255 0.556473 0.053677 -0.024680 328524.000000 0 0 1
-17.837755 -7.054124 32.574222 37.802462 0.376587 0.532194 0.064945 -0.024336 472207.000000 0 0 1
-17.475855 -5.670624 32.751359 37.552803 0.313765 0.511234 0.051369 -0.030415 -108557.000000 0 0 1
-16.086155 -5.320624 32.189172 36.376039 0.319431 0.484516 0.041626 -0.028269 -54365.700000 0 0 1
-16.080055 -5.478024 30.766482 35.144748 0.328341 0.504488 0.033736 -0.018702 -7864.030000 0 0 1
-14.915255 -4.928124 30.198932 34.040075 0.319116 0.479646 0.034009 -0.013792 -145454.000000 0 0 1
-14.953155 -4.904124 28.677272 32.711362 0.316912 0.501887 0.027495 0.001163 11865.300000 0 0 1
-15.914355 -3.974124 28.242822 32.660639 0.244715 0.526172 0.024210 -0.007679 -266722.000000 0 0 1
-16.440455 -4.149124 26.939542 31.831474 0.247211 0.561762 0.040426 -0.004642 322049.000000 0 0 1
-15.494255 -4.035424 25.678232 30.261001 0.254786 0.557541 0.044279 -0.004079 214801.000000 0 0 1
-15.273355 -2.659724 25.332972 29.700319 0.172412 0.549180 0.036347 0.010157 -154333.000000 0 0 1
-14.412755 -2.451024 24.242612 28.309703 0.168448 0.542664 0.027274 0.013931 -187097.000000 0 0 1
-14.004055 -0.979524 24.308622 28.071019 0.069832 0.523712 0.027685 0.007356 -518096.000000 0 0 1
-14.986755 -0.141124 23.776562 28.106007 0.009416 0.562433 0.031375 0.000776 -101122.000000 0 0 1
-14.745255 1.234976 24.111692 28.289952 -0.083559 0.550418 0.021551 0.011471 -574285.000000 0 0 1
-15.740955 2.183276 23.455042 28.331667 -0.137821 0.595490 0.014121 0.007190 -353037.000000 0 0 1
-15.363855 2.732476 22.161992 27.104766 -0.176011 0.613493 0.022804 0.005571 492048.000000 0 0 1
-16.339055 3.653976 21.714892 27.419934 -0.220014 0.656820 0.029019 0.003367 201747.000000 0 0 1
-15.687855 4.703576 20.713492 26.406082 -0.291294 0.669034 0.025325 0.007197 717698.000000 0 0 1
-14.701355 5.602176 21.217092 26.413618 -0.364078 0.638042 0.048107 0.000306 507214.000000 0 0 1
-13.425155 5.412376 20.631492 25.202918 -0.383221 0.611801 0.043876 0.001982 121186.000000 0 0 1
-12.441355 6.519976 21.050192 25.306284 -0.482707 0.588423 0.043315 0.002119 -210496.000000 0 0 1
-12.808255 7.823076 20.589592 25.479074 -0.548311 0.629880 0.050651 -0.006480 -177594.000000 0 0 1
-11.834255 8.784876 20.846292 25.530208 -0.638572 0.615414 0.053177 -0.005501 -442091.000000 0 0 1
-12.374555 10.206576 20.792092 26.260520 -0.689683 0.657107 0.057238 0.000320 -245399.000000 0 0 1
-12.438655 10.772576 19.509792 25.522549 -0.713742 0.700665 0.045113 0.002577 327247.000000 0 0 1
-12.934855 12.102876 19.666192 26.467890 -0.752181 0.733224 0.030061 0.002855 -510830.000000 0 0 1
-13.352155 12.792176 18.364392 26.060904 -0.763983 0.788835 0.029429 0.006958 -172590.000000 0 0 1
-12.393155 13.294676 17.436392 25.186633 -0.820479 0.806142 0.029272 0.007498 59823.700000 0 0 1
-11.956555 14.642576 17.698292 25.895826 -0.886039 0.818329 0.031715 -0.002521 -462077.000000 0 0 1
-12.946455 15.859876 17.559892 26.972137 -0.886194 0.861845 0.029279 0.010471 147938.000000 0 0 1
-13.298555 16.358376 16.314592 26.657343 -0.888208 0.912195 0.026731 0.001438 200054.000000 0 0 1
-13.789455 15.442476 15.331092 25.761629 -0.841886 0.933390 0.035711 0.002362 -512488.000000 0 0 1
-14.257155 16.043876 14.037092 25.645904 -0.844296 0.991611 0.027617 -0.003971 693952.000000 0 0 1
-15.597055 16.565676 14.099792 26.767404 -0.815505 1.016021 0.032138 -0.001468 691313.000000 0 0 1
-15.905355 17.394876 12.956792 26.896849 -0.830098 1.068178 0.031712 -0.001741 -30593.000000 0 0 1
-17.204455 18.147476 13.233592 28.292263 -0.812067 1.084057 0.043944 -0.010502 -817923.000000 0 0 1
-18.390055 17.447376 13.301892 28.627703 -0.759100 1.087556 0.051709 -0.007866 -906643.000000 0 0 1
-19.462255 18.312476 13.542692 29.958816 -0.754970 1.101741 0.051437 -0.009353 -199329.000000 0 0 1
-20.859855 17.678876 13.477592 30.484778 -0.703045 1.112848 0.061371 -0.005533 39365.600000 0 0 1
-21.299855 17.295576 12.168392 30.014839 -0.682018 1.153366 0.068871 -0.007467 416919.000000 0 0 1
-22.613655 16.758476 12.305892 30.719032 -0.637766 1.158630 0.077817 -0.014314 657822.000000 0 0 1
-23.318255 16.215776 11.020092 30.465306 -0.607640 1.200678 0.085037 -0.014450 75193.000000 0 0 1
-22.614155 15.083276 10.567692 29.164728 -0.588222 1.200014 0.080829 -0.012138 -24570.900000 0 0 1
-23.265655 14.485376 9.502592 29.007173 -0.556877 1.237040 0.082678 -0.015508 -360631.000000 0 0 1
-22.574655 13.271376 8.918792 27.663863 -0.531466 1.242534 0.108488 -0.012937 -811080.000000 0 0 1
-22.554055 12.030076 9.671592 27.330346 -0.490000 1.209083 0.097875 -0.017021 1298700.000000 0 0 1
-23.790555 11.309576 9.998792 28.175750 -0.443759 1.208019 0.107496 -0.016539 1790770.000000 0 0 1
-24.773155 10.888976 8.829392 28.464666 -0.414128 1.255406 0.123671 -0.020009 184602.000000 0 0 1
-25.228925 11.960976 8.099492 29.071728 -0.442712 1.288456 0.130880 -0.021991 225546.000000 0 0 1
-26.211785 11.531376 7.138792 29.512585 -0.414449 1.326483 0.150820 -0.028331 174782.000000 0 0 1
-26.587415 12.705676 6.177092 30.107828 -0.445798 1.364163 0.121006 -0.029049 230188.000000 0 0 1
-25.647815 13.034176 5.164892 29.229716 -0.470185 1.393164 0.127112 -0.030108 1029340.000000 0 0 1
-24.394755 13.720876 5.356892 28.496716 -0.512353 1.381688 0.114994 -0.026927 698762.000000 0 0 1
-24.381655 15.213876 5.796092 29.317603 -0.557872 1.371785 0.099301 -0.026251 -120374.000000 0 0 1
-23.126755 15.600876 6.349892 28.610405 -0.593462 1.346989 0.087217 -0.030054 515290.000000 0 0 1
-23.186855 17.002776 6.783092 29.542089 -0.632723 1.339122 0.078379 -0.031751 -175562.000000 0 0 1
-21.792255 17.635576 6.924192 28.876641 -0.680361 1.328652 0.073767 -0.026674 -41205.300000 0 0 1
-21.291455 17.979776 5.623892 28.429326 -0.701269 1.371663 0.082935 -0.036221 177732.000000 0 0 1
-19.919655 18.282676 5.670292 27.626095 -0.742574 1.364076 0.084384 -0.029322 -350498.000000 0 0 1
-19.352655 19.271376 4.644192 27.703425 -0.783294 1.402361 0.067792 -0.016012 426786.000000 0 0 1
-17.927655 19.433376 4.774192 26.867264 -0.825678 1.392152 0.047592 -0.012198 1091040.000000 0 0 1
-17.353955 20.402476 3.911092 27.068754 -0.865965 1.425801 0.049425 -0.019014 -13093.300000 0 0 1
-17.595155 21.869976 4.279992 28.393726 -0.893296 1.419482 0.045446 -0.018790 -571607.000000 0 0 1
-16.986255 22.261876 5.458692 28.529306 -0.919014 1.378273 0.052664 -0.017084 -160340.000000 0 0 1
-17.417755 23.525976 5.889392 29.858578 -0.933492 1.372252 0.037072 -0.010380 -574365.000000 0 0 1
-16.595955 24.006976 7.103492 30.036981 -0.965935 1.332043 0.019868 0.000411 -175495.000000 0 0 1
-16.977355 23.334776 8.290692 30.024622 -0.941815 1.291031 0.020232 -0.004691 543535.000000 0 0 1
-16.128655 23.524776 9.449092 30.047196 -0.969798 1.250893 0.029130 -0.007265 478010.000000 0 0 1
-16.744855 22.763276 10.652492 30.199876 -0.936570 1.210306 0.016895 -0.007532 565258.000000 0 0 1
-17.979055 23.332276 11.056492 31.462479 -0.914262 1.211711 0.018118 -0.007139 -211204.000000 0 0 1
-18.825555 22.378976 11.702492 31.498705 -0.871424 1.190147 0.024992 -0.011661 815209.000000 0 0 1
-20.183655 23.032376 12.192792 32.962622 -0.851221 1.191898 0.035102 -0.017949 459588.000000 0 0 1
-20.916955 23.521576 11.104492 33.378036 -0.843943 1.231643 0.038841 -0.011439 -366405.000000 0 0 1
-20.526355 24.767176 10.607592 33.871305 -0.878756 1.252264 0.009110 -0.001873 -1146120.000000 0 0 1
-21.659755 25.516176 9.924092 34.909996 -0.866962 1.282545 0.018345 0.004720 273317.000000 0 0 1
-22.681755 25.974176 10.842292 36.147962 -0.852963 1.266164 0.038226 -0.010947 604031.000000 0 0 1
-23.174555 27.177176 10.342592 37.183708 -0.864725 1.288930 0.033348 -0.001941 -102476.000000 0 0 1
-24.209255 27.882876 11.272292 38.608385 -0.855803 1.274516 0.031843 -0.011388 17282.800000 0 0 1
-23.640755 28.479176 12.416192 39.039859 -0.877965 1.247136 0.040219 -0.014082 1114860.000000 0 0 1
-24.618355 29.302076 13.118792 40.457111 -0.872044 1.240563 0.040017 -0.015501 718696.000000 0 0 1
9.512845 -32.605568 28.189272 44.139011 -1.286921 0.878057 0.076912 -0.033573 -641214.000000 0 0 1
10.805545 -32.574168 27.690272 44.097476 -1.250497 0.891902 0.065059 -0.038678 -318153.000000 0 0 1
10.799045 -32.286668 26.300622 43.020588 -1.248020 0.913031 0.079654 -0.034979 -238210.000000 0 0 1
12.190245 -32.618268 25.748602 43.307551 -1.213144 0.934088 0.043212 -0.027023 -145825.000000 0 0 1
12.680145 -33.953768 25.917402 44.557335 -1.213382 0.950023 0.060707 -0.034474 -579319.000000 0 0 1
14.071345 -33.946868 25.870842 44.940995 -1.177844 0.957382 0.074409 -0.031016 -541771.000000 0 0 1
14.733145 32.940076 25.696412 44.299207 1.150214 0.951988 0.095881 -0.023435 -190601.000000 0 0 1
14.700345 32.666776 24.338732 43.308109 1.147935 0.974006 0.087102 -0.032895 -60346.500000 0 0 1
15.632545 31.675876 24.095712 42.759103 1.112350 0.972153 0.087016 -0.030310 -509470.000000 0 0 1
15.413745 31.144176 22.644292 41.476586 1.111224 0.993269 0.090343 -0.037218 39401.300000 0 0 1
14.288445 30.293176 22.494192 40.346311 1.130067 0.979391 0.092243 -0.032307 -207708.000000 0 0 1
14.473645 28.910576 22.615392 39.455846 1.106641 0.960412 0.089902 -0.029005 -386340.000000 0 0 1
14.411145 28.364576 24.068442 39.893861 1.100715 0.923149 0.093525 -0.039625 61105.000000 0 0 1
15.474345 28.787276 24.906812 41.091506 1.077569 0.919610 0.085271 -0.032575 143694.000000 0 0 1
15.186145 28.437276 26.227262 41.559198 1.080303 0.887849 0.082050 -0.034926 -592129.000000 0 0 1
16.054245 29.001776 27.327292 42.960711 1.065223 0.881364 0.088035 -0.036893 -424111.000000 0 0 1
15.856545 30.344676 27.669472 44.020780 1.089274 0.891103 0.091293 -0.043802 162327.000000 0 0 1
16.525345 30.721976 28.863932 45.277515 1.077291 0.879561 0.104702 -0.044523 109154.000000 0 0 1
16.235645 32.184676 29.113312 46.336103 1.103593 0.891421 0.108405 -0.039297 -105735.000000 0 0 1
17.129445 33.003676 28.436262 46.811126 1.092052 0.917927 0.101495 -0.037926 -227554.000000 0 0 1
16.841945 -33.877868 28.722112 47.500745 -1.109442 0.921449 0.110967 -0.029148 111835.000000 0 0 1
17.664845 -32.871268 27.897122 46.592021 -1.077682 0.928853 0.099389 -0.032611 -494963.000000 0 0 1
17.315645 -32.987368 26.527182 45.734991 -1.087414 0.952044 0.109153 -0.029633 16661.600000 0 0 1
17.677245 -31.856168 25.716472 44.594140 -1.064193 0.956139 0.097866 -0.029220 1208410.000000 0 0 1
19.170145 -31.310068 25.514032 44.707724 -1.021405 0.963456 0.092701 -0.021563 1132260.000000 0 0 1
19.721045 -31.012968 26.748132 45.455322 -1.004400 0.941657 0.087193 -0.023112 -206022.000000 0 0 1
20.951845 -30.303568 26.628772 45.457425 -0.965866 0.944935 0.092231 -0.021823 341030.000000 0 0 1
21.272345 -29.633268 27.947252 45.953151 -0.948188 0.917045 0.100863 -0.023542 56404.000000 0 0 1
20.100345 -28.950968 28.357982 45.236683 -0.963913 0.893254 0.088983 -0.025313 406286.000000 0 0 1
20.385045 -28.289868 29.598552 45.737741 -0.946393 0.866974 0.108661 -0.017464 294939.000000 0 0 1
19.122545 -27.727868 30.295312 45.302453 -0.967050 0.838291 0.086956 -0.024113 189659.000000 0 0 1
18.424045 -26.704868 29.567712 43.895842 -0.966872 0.831744 0.110163 -0.032923 -117780.000000 0 0 1
17.159645 -26.472168 30.115542 43.613930 -0.995677 0.808612 0.093395 -0.031267 -587716.000000 0 0 1
16.178045 -25.740668 29.215132 42.164381 -1.009683 0.805312 0.091992 -0.025414 -1019360.000000 0 0 1
15.648145 -26.511568 28.119892 41.694796 -1.037585 0.830615 0.088036 -0.029851 455659.000000 0 0 1
14.956545 -25.741468 27.131642 40.279615 -1.044443 0.831751 0.083358 -0.051986 -389146.000000 0 0 1
13.562645 -25.206868 27.599522 39.762610 -1.077171 0.803617 0.062258 -0.036780 -608756.000000 0 0 1
12.534945 -26.124868 27.634852 40.041461 -1.123432 0.809092 0.051206 -0.026764 -279860.000000 0 0 1
12.085545 -26.616668 26.384242 39.378111 -1.144572 0.836556 0.048912 -0.025111 -849425.000000 0 0 1
11.123045 -27.822568 26.384132 39.924176 -1.190475 0.848838 0.056506 -0.031974 -81327.000000 0 0 1
9.796545 -27.600268 26.837042 39.723719 -1.229724 0.829028 0.057659 -0.044234 356940.000000 0 0 1
9.098545 -28.878868 26.808692 40.441049 -1.265582 0.846100 0.063760 -0.036884 450747.000000 0 0 1
7.576745 -28.683368 27.068142 40.160017 -1.312544 0.831176 0.043803 -0.031840 1200330.000000 0 0 1
6.586745 -28.448168 26.009752 39.104867 -1.343271 0.843131 0.054274 -0.038169 1054520.000000 0 0 1
6.846245 -27.282868 25.230852 37.786530 -1.324937 0.839654 0.080955 -0.039611 -651527.000000 0 0 1
5.661545 -26.906068 24.298552 36.693449 -1.363403 0.847040 0.083111 -0.035344 -166624.000000 0 0 1
5.242545 -27.866268 23.270182 36.681256 -1.384838 0.883579 0.065380 -0.032118 262165.000000 0 0 1
4.427145 -28.923668 23.750712 37.686529 -1.418912 0.888963 0.078208 -0.033885 -964990.000000 0 0 1
2.973745 -28.580868 24.012762 37.447589 -1.467123 0.874688 0.067020 -0.038748 -1517790.000000 0 0 1
2.264645 -28.268368 22.820392 36.400543 -1.490855 0.893197 0.062430 -0.031015 842422.000000 0 0 1
0.897645 -27.855268 23.009492 36.140814 -1.538582 0.880634 0.060555 -0.027742 926563.000000 0 0 1
0.658745 -26.447968 23.598202 35.451433 -1.545894 0.842434 0.059091 -0.029850 -621813.000000 0 0 1
1.102945 -26.291668 24.948402 36.261426 -1.528871 0.812046 0.053196 -0.034224 20623.300000 0 0 1
1.218245 -24.974968 25.396532 35.640103 -1.522056 0.777623 0.056846 -0.036075 -846620.000000 0 0 1
2.440545 -24.680768 26.239992 36.105868 -1.472232 0.757216 0.054199 -0.029888 -44764.700000 0 0 1
3.649945 -24.476368 25.453552 35.500676 -1.422766 0.771325 0.059757 -0.032435 1286780.000000 0 0 1
4.663145 -23.847968 26.265952 35.782268 -1.377696 0.746531 0.059976 -0.028374 283016.000000 0 0 1
4.510545 -22.347468 26.485882 34.946477 -1.371635 0.710711 0.049506 -0.028384 -752165.000000 0 0 1
4.584845 -21.566468 25.291802 33.553071 -1.361324 0.716993 0.047483 -0.023863 380353.000000 0 0 1
3.890245 -20.348668 25.513282 32.865329 -1.381896 0.682025 0.054436 -0.029019 -172432.000000 0 0 1
4.016345 -19.386268 24.360422 31.390899 -1.366512 0.682443 0.062539 -0.024495 873473.000000 0 0 1
5.408445 -19.057468 24.189552 31.266160 -1.294271 0.686190 0.064630 -0.009270 855818.000000 0 0 1
5.435745 -18.046368 23.202792 29.892947 -1.278230 0.682186 0.059135 -0.001750 278473.000000 0 0 1
6.896045 -17.703968 22.849092 29.716442 -1.199357 0.693671 0.061533 -0.004095 -835011.000000 0 0 1
7.593945 -18.709468 22.190392 30.002094 -1.185225 0.738279 0.046165 0.005201 310968.000000 0 0 1
8.984545 -18.538868 21.913592 30.076854 -1.119518 0.754540 0.040937 0.009443 1225100.000000 0 0 1
9.921145 -18.483868 23.183092 31.265608 -1.078186 0.735510 0.039455 0.007468 -397710.000000 0 0 1
9.755345 -17.388768 24.078642 31.262069 -1.059536 0.691612 0.046372 0.006289 340696.000000 0 0 1
10.828845 -17.390368 25.037202 32.350429 -1.013858 0.685761 0.050810 0.005565 474423.000000 0 0 1
10.779645 -16.349968 26.133182 32.656781 -0.987906 0.643105 0.062996 0.003647 -356296.000000 0 0 1
11.116045 -15.071268 25.751632 31.841107 -0.935301 0.628765 0.073655 0.002260 46621.600000 0 0 1
11.054345 -14.186468 26.862312 32.327051 -0.908857 0.589975 0.067525 -0.003640 -71544.900000 0 0 1
11.453145 -12.740468 26.464032 31.525212 -0.838557 0.574515 0.074787 -0.003927 539671.000000 0 0 1
10.418545 -12.055568 25.693972 30.233474 -0.858110 0.555092 0.081430 -0.003684 661734.000000 0 0 1
10.574845 -10.660868 25.558592 29.643263 -0.789449 0.531188 0.087283 0.001630 -385870.000000 0 0 1
9.445145 -9.884868 24.892002 28.399527 -0.808142 0.502267 0.099283 0.000719 -456168.000000 0 0 1
8.189345 -9.924768 25.507942 28.569590 -0.880912 0.467194 0.085899 0.000699 134822.000000 0 0 1
7.243645 -9.293868 24.600942 27.277330 -0.908743 0.446689 0.087643 0.002839 1025130.000000 0 0 1
5.782745 -9.191668 25.144702 27.389467 -1.009233 0.407681 0.079506 -0.008698 -331289.000000 0 0 1
5.556345 -8.046768 25.983492 27.762660 -0.966470 0.359948 0.087949 -0.006095 902551.000000 0 0 1
4.270945 -8.027268 26.637422 28.146585 -1.081835 0.328950 0.077403 -0.009882 1785650.000000 0 0 1
2.942645 -8.150068 25.814122 27.229610 -1.224305 0.323852 0.063568 -0.008125 15460.900000 0 0 1
2.840945 -6.976668 25.007782 26.117695 -1.184093 0.292578 0.070989 -0.010060 252549.000000 0 0 1
1.543745 -6.822168 24.432932 25.414431 -1.348260 0.278822 0.057867 -0.012972 526218.000000 0 0 1
1.439445 -5.564668 23.542292 24.233799 -1.317669 0.239464 0.041611 -0.019196 -129279.000000 0 1 0
1.377545 -4.356368 24.296692 24.722557 -1.264531 0.185879 0.059047 -0.017063 -110292.000000 0 1 0
1.847145 -3.224768 23.560412 23.851710 -1.050618 0.156447 0.050547 -0.019049 -1306690.000000 0 1 0
1.004345 -2.587768 22.421492 22.592666 -1.200580 0.123176 0.045493 -0.027645 474580.000000 0 1 0
-0.122955 -1.810768 22.851392 22.923353 1.502998 0.079257 0.046746 -0.031083 67762.800000 0 1 0
-1.159055 -2.572768 23.392682 23.562260 1.147519 0.120047 0.054884 -0.026578 -1459310.000000 0 1 0
-2.190555 -1.648768 24.055202 24.210942 0.645208 0.113486 0.049329 -0.029068 -251261.000000 0 1 0
-1.621855 -0.849768 25.066002 25.132787 0.482622 0.072917 0.066869 -0.029269 -222238.000000 0 0 1
-2.476455 0.172232 25.481482 25.602117 -0.069436 0.097115 0.057653 -0.026557 -440903.000000 0 0 1
-1.979855 1.019232 26.738602 26.831166 -0.475418 0.083089 0.087313 -0.030903 -124523.000000 0 0 1
-1.963855 0.323232 27.949272 28.020046 -0.163128 0.071090 0.091860 -0.033815 280598.000000 0 0 1
-1.093355 -0.808768 28.111632 28.144509 0.636884 0.048340 0.098827 -0.034823 -81208.000000 0 0 1
0.222245 -0.519768 28.884892 28.890423 -1.166739 0.019568 0.125125 -0.035168 -313408.000000 0 0 1
1.161245 0.329232 28.287312 28.313052 0.276267 0.042644 0.110405 -0.033846 172991.000000 0 0 1
1.914645 -0.156768 27.157352 27.225213 -0.081696 0.070620 0.098615 -0.031369 -325316.000000 0 0 1
3.026845 -1.141768 27.446052 27.636049 -0.360710 0.117327 0.096331 -0.029960 -883636.000000 0 0 1
2.492245 -2.369768 27.927702 28.138650 -0.760213 0.122524 0.110183 -0.027810 363588.000000 0 0 1
3.469945 -3.322168 28.422172 28.825287 -0.763644 0.167436 0.104234 -0.013764 712010.000000 0 0 1
4.127645 -4.230368 27.294662 27.927263 -0.797688 0.213250 0.091092 -0.015031 382950.000000 0 0 1
5.171445 -3.598568 26.588562 27.324808 -0.607938 0.232663 0.085558 -0.012929 -422454.000000 0 0 1
5.689845 -4.416868 25.640162 26.632705 -0.660104 0.273867 0.073752 -0.012455 -1527060.000000 0 0 1
6.922345 -3.933068 24.917452 26.158503 -0.516686 0.309268 0.068929 -0.010913 -890324.000000 0 0 1
8.073545 -4.002768 25.756512 27.287400 -0.460272 0.336556 0.069430 -0.007769 394222.000000 0 0 1
8.725345 -5.297868 25.939332 27.875580 -0.545683 0.374913 0.064001 -0.005008 -170943.000000 0 0 1
9.472845 -5.818968 24.707262 27.093246 -0.550853 0.422823 0.064155 -0.014641 -224474.000000 0 0 1
8.597845 -6.006268 23.599712 25.825270 -0.609771 0.418197 0.068967 -0.011730 238203.000000 0 0 1
9.374645 -6.159368 22.394692 25.046836 -0.581297 0.464351 0.076593 -0.018652 531916.000000 0 0 1
9.594345 -4.810568 21.748392 24.252537 -0.464764 0.458433 0.080181 -0.016872 564321.000000 0 1 0
8.330345 -4.179268 21.535092 23.465317 -0.465000 0.408440 0.052973 -0.009907 194126.000000 0 1 0
8.299845 -3.212768 20.493992 22.343075 -0.369326 0.409698 0.037173 -0.018225 -145839.000000 0 1 0
6.949745 -2.515768 20.232292 21.540048 -0.347320 0.350249 0.031618 -0.013500 -55511.500000 0 1 0
6.495045 -1.735768 21.294892 22.330941 -0.261142 0.305805 0.035010 -0.014986 299766.000000 0 1 0
5.278445 -1.035768 21.036092 21.712944 -0.193764 0.250344 0.027622 -0.017014 346085.000000 0 1 0
4.595745 -0.532768 22.326992 22.801300 -0.115411 0.204325 0.031047 -0.022157 417420.000000 0 1 0
3.461845 0.338232 22.200992 22.471823 0.097394 0.155411 0.039617 -0.026114 489637.000000 0 1 0
2.809745 0.539232 23.429082 23.603121 0.189610 0.121512 0.052441 -0.029138 -1425210.000000 0 1 0
1.376945 0.930232 23.403932 23.462850 0.594146 0.070883 0.057691 -0.037013 -1399870.000000 0 1 0
1.153245 2.283232 23.031192 23.172806 1.103083 0.110611 0.052233 -0.028721 6444.400000 0 1 0
-0.233655 2.520232 23.127992 23.266073 -1.478349 0.109002 0.040875 -0.021335 78651.000000 0 1 0
-0.704355 3.918232 22.588792 22.936917 -1.392932 0.174448 0.037023 -0.015445 -115150.000000 0 1 0
-0.758255 4.922232 23.561322 24.081927 -1.417951 0.208310 0.046353 -0.018356 -89650.200000 0 1 0
-1.540355 6.015232 23.144792 23.963245 -1.320107 0.262110 0.038479 -0.017455 -198580.000000 0 1 0
-1.408955 7.357232 23.874472 25.022079 -1.381581 0.304035 0.048925 -0.017722 -94876.700000 0 0 1
-0.232255 8.103232 23.701302 25.049312 -1.542142 0.329557 0.034214 -0.015148 -177984.000000 0 0 1
-0.342455 9.381232 24.370522 26.116032 -1.534308 0.367681 0.038855 -0.011113 -458009.000000 0 0 1
0.463345 10.495232 23.615222 25.846533 1.526677 0.418571 0.032646 -0.018113 -484375.000000 0 0 1
1.846045 10.466232 23.649902 25.928127 1.396211 0.422338 0.026786 -0.014134 -801385.000000 0 0 1
2.409445 10.773232 24.971642 27.302946 1.350766 0.416245 0.047690 -0.020915 -899557.000000 0 0 1
3.724745 11.562232 24.995482 27.790881 1.259147 0.452371 0.040344 -0.019655 -190127.000000 0 0 1
4.923045 11.032232 24.506902 27.322788 1.151072 0.457997 0.046868 -0.018187 -68439.100000 0 0 1
4.874645 10.577232 23.154792 25.918804 1.138946 0.466031 0.034725 -0.018710 -1121390.000000 0 0 1
6.214245 10.117232 22.521592 25.459720 1.019984 0.485167 0.044728 -0.018828 148619.000000 0 0 1
7.049945 11.202232 22.162892 25.814444 1.009087 0.538369 0.042095 -0.016298 461373.000000 0 0 1
8.235345 10.672232 21.545792 25.415322 0.913576 0.559071 0.047043 -0.021176 355738.000000 0 0 1
9.072045 11.811232 20.968792 25.719592 0.915820 0.617576 0.043844 -0.026794 -706955.000000 0 0 1
8.568545 12.170232 19.671192 24.667596 0.957352 0.647738 0.041691 -0.027421 189014.000000 0 1 0
9.261045 13.124232 18.905792 24.808091 0.956292 0.704274 0.053803 -0.027396 214497.000000 0 1 0
10.730745 12.813232 18.502992 24.933682 0.873620 0.734616 0.053394 -0.029433 -35869.800000 0 1 0
11.692745 12.836232 19.500992 26.110875 0.831982 0.727479 0.058869 -0.028035 372719.000000 0 0 1
12.978045 12.456232 18.973192 26.145160 0.764885 0.758765 0.060218 -0.028275 1159270.000000 0 0 1
14.095545 12.323232 20.065292 27.443804 0.718413 0.750803 0.067631 -0.018119 345082.000000 0 0 1
14.722445 13.500232 20.537792 28.649739 0.742119 0.771511 0.070477 -0.018278 91886.200000 0 0 1
15.912945 13.137232 21.212992 29.593913 0.690138 0.771591 0.072586 -0.017400 151445.000000 0 0 1
16.672745 14.378232 21.677792 30.897259 0.711637 0.793143 0.073200 -0.014286 -39171.200000 0 0 1
15.948445 15.017232 22.736392 31.572356 0.755335 0.766798 0.078375 -0.012199 921835.000000 0 0 1
16.723445 16.093232 23.323972 32.904003 0.766196 0.782931 0.076464 -0.008816 314774.000000 0 0 1
-21.785955 13.097076 -24.809001 35.519682 -0.541280 2.344037 0.090706 -0.006862 87474.400000 0 0 1
-21.247955 12.866476 -26.095951 36.028051 -0.544483 2.380848 0.084054 -0.013122 363811.000000 0 0 1
-22.131155 13.412176 -27.077141 37.454587 -0.544843 2.378834 0.070603 -0.019095 447190.000000 0 0 1
-21.484855 13.483676 -28.482931 38.140345 -0.560459 2.414023 0.077417 -0.017114 423877.000000 0 0 1
-20.292755 14.247376 -28.600001 37.851601 -0.612128 2.427339 0.072874 -0.016657 -67757.900000 0 0 1
-20.027955 14.752276 -29.885121 38.882761 -0.634860 2.447439 0.082006 -0.023502 379881.000000 0 0 1
-18.541055 15.206276 -29.986641 38.395315 -0.686902 2.467058 0.074812 -0.021973 596602.000000 0 0 1
-17.611955 14.161776 -30.202511 37.721725 -0.677236 2.499203 0.072126 -0.020280 -366522.000000 0 0 1
-16.261455 14.507976 -30.037381 37.110114 -0.728472 2.513947 0.058850 -0.021100 -221085.000000 0 0 1
-15.638555 13.881776 -28.824081 35.610333 -0.725957 2.513978 0.073872 -0.013200 -718735.000000 0 0 1
-16.145655 14.299576 -27.614241 35.038641 -0.724836 2.478526 0.078550 -0.019939 -337360.000000 0 0 1
-17.040255 13.364276 -27.055091 34.654756 -0.665080 2.466587 0.097525 -0.015200 -316394.000000 0 0 1
-17.697555 13.823976 -25.742451 34.161083 -0.663124 2.424258 0.092602 -0.021180 -265619.000000 0 0 1
-16.827555 14.262376 -24.736001 33.142899 -0.703076 2.413348 0.121036 -0.030079 239521.000000 0 0 1
-17.609355 14.714276 -23.636901 32.943928 -0.696071 2.370987 0.111680 -0.032419 317810.000000 0 0 1
-16.679855 15.126776 -22.466301 31.808358 -0.736608 2.355057 0.104590 -0.028526 319126.000000 0 0 1
-15.946555 16.303876 -22.818301 32.261182 -0.796477 2.356466 0.074364 -0.030403 307298.000000 0 0 1
-15.407955 17.079976 -21.720301 31.637038 -0.836819 2.327525 0.068877 -0.027187 -331121.000000 0 0 1
-15.229155 18.609276 -22.128201 32.678581 -0.884958 2.314675 0.065619 -0.022519 205885.000000 0 0 1
-16.357855 19.477276 -22.122801 33.709970 -0.872229 2.286659 0.047818 -0.020749 792195.000000 0 0 1
-17.329255 19.167976 -23.149401 34.693071 -0.835735 2.301324 0.036856 -0.017989 345240.000000 0 0 1
-18.614855 20.008076 -23.156101 35.819561 -0.821455 2.273739 0.023762 -0.015252 -160290.000000 0 0 1
-18.331855 21.312776 -23.550901 36.673373 -0.860448 2.268135 0.015227 -0.011519 164601.000000 0 0 1
-19.510455 22.099176 -23.638301 37.786251 -0.847533 2.246670 0.048123 -0.025673 43937.800000 0 0 1
-19.324355 23.627976 -23.818401 38.717286 -0.885260 2.233420 0.038772 -0.023766 -102436.000000 0 0 1
-18.699855 24.203476 -22.698601 38.088310 -0.912981 2.209240 0.043700 -0.024158 96280.000000 0 0 1
-17.883955 25.343576 -23.027401 38.631515 -0.956282 2.209404 0.030587 -0.010045 347935.000000 0 0 1
-16.766555 25.578276 -21.942101 37.640688 -0.990565 2.193133 0.037556 -0.020382 171415.000000 0 0 1
-15.674355 24.702176 -21.834801 36.505362 -1.005371 2.211957 0.049438 -0.031525 165358.000000 0 0 1
-16.035855 23.297476 -21.655501 35.621367 -0.967960 2.224254 0.051474 -0.018762 -1204210.000000 0 0 1
-14.749755 22.513376 -21.466701 34.427121 -0.990806 2.244059 0.082930 -0.020620 -381714.000000 0 0 1
-14.089755 22.733076 -20.270201 33.558829 -1.015952 2.219332 0.097169 -0.026788 -712990.000000 0 0 1
-13.052555 21.820276 -20.100301 32.411661 -1.031713 2.239738 0.087345 -0.025066 -500960.000000 0 0 1
-12.371955 22.030576 -18.702701 31.435690 -1.059105 2.208001 0.074654 -0.024828 304032.000000 0 0 1
-13.177155 21.750076 -17.537301 30.891102 -1.026091 2.174522 0.086691 -0.021721 378270.000000 0 0 1
-14.067255 22.813576 -17.250801 31.873768 -1.018247 2.142687 0.085874 -0.029158 51332.400000 0 0 1
-14.737655 22.886776 -15.848401 31.498807 -0.998695 2.098028 0.100866 -0.027635 228318.000000 0 0 1
-13.777055 23.240476 -14.878401 30.843051 -1.035685 2.074178 0.100520 -0.040131 -128925.000000 0 0 1
-14.320055 23.253576 -13.606601 30.511185 -1.018824 2.033037 0.096530 -0.025257 -176562.000000 0 0 1
-13.358055 23.589876 -12.432101 29.824102 -1.055554 2.000771 0.113042 -0.024359 -100001.000000 0 0 1
-13.062155 24.935976 -12.320001 30.727923 -1.088269 1.983337 0.093833 -0.025393 -44359.500000 0 0 1
-12.143455 25.170776 -11.294001 30.142760 -1.121293 1.954852 0.065012 -0.025375 -282673.000000 0 0 1
-11.646255 26.638576 -11.313201 31.196755 -1.158642 1.941896 0.080689 -0.026004 -170178.000000 0 0 1
-10.918655 26.832976 -12.484001 31.544824 -1.184346 1.977685 0.088031 -0.030255 -137789.000000 0 0 1
-10.741455 28.195676 -12.786701 32.770028 -1.206810 1.971640 0.067848 -0.016693 -678767.000000 0 0 1
-10.114755 28.528176 -14.194501 33.431258 -1.230071 2.009303 0.106094 -0.036057 1270020.000000 0 0 1
-8.692955 28.610276 -14.427501 33.200424 -1.275820 2.020343 0.077621 -0.037272 827335.000000 0 0 1
-8.125055 27.317676 -14.196101 31.840246 -1.281700 2.032924 0.081140 -0.036588 -493541.000000 0 0 1
-6.688355 27.180576 -14.752301 31.640926 -1.329519 2.055833 0.077796 -0.040165 1187990.000000 0 0 1
-5.708255 28.114376 -14.201701 32.010790 -1.370482 2.030468 0.072489 -0.037565 185158.000000 0 0 1
-4.462655 28.030776 -14.846301 32.032052 -1.412916 2.052718 0.083392 -0.039077 535806.000000 0 0 1
-3.377555 28.914376 -14.104101 32.347716 -1.454511 2.021963 0.073929 -0.030501 148224.000000 0 0 1
-3.453555 30.300176 -14.412401 33.730476 -1.457308 2.012280 0.062730 -0.022180 4620.670000 0 0 1
-4.395755 30.921476 -13.568501 34.052380 -1.429584 1.980633 0.049477 -0.016200 -74908.800000 0 0 1
-4.555755 32.413976 -13.783801 35.516390 -1.431162 1.969362 0.055169 -0.026272 -64025.200000 0 0 1
-3.493455 33.229976 -13.321801 35.970904 -1.466051 1.950181 0.032931 -0.026089 -56647.200000 0 0 1
-3.658355 -33.610168 -13.555601 36.425009 1.462376 1.952122 0.046525 -0.025513 -24033.600000 0 0 1
-2.757955 -32.695968 -12.733701 35.196303 1.486644 1.940985 0.043485 -0.027423 -70772.900000 0 0 1
-3.134555 -32.638368 -11.357501 34.699875 1.475051 1.904248 0.045417 -0.027978 -75284.300000 0 0 1
-2.369455 -31.678168 -10.705701 33.522122 1.496138 1.895853 0.038218 -0.026072 -302359.000000 0 0 1
-2.625955 -31.779768 -9.184101 33.184288 1.488354 1.851218 0.038206 -0.021581 -468149.000000 0 0 1
-1.855655 -30.901268 -8.470401 32.094852 1.510817 1.837878 0.045756 -0.030050 -497945.000000 0 0 1
-2.036655 -31.093068 -7.021601 31.941035 1.505388 1.792437 0.040382 -0.037220 252352.000000 0 0 1
-0.858255 -30.474368 -6.227501 31.116000 1.542641 1.772295 0.055138 -0.036105 77983.500000 0 0 1
-0.902655 -30.828468 -4.902201 31.228845 1.541525 1.728425 0.066808 -0.035120 -307483.000000 0 0 1
0.077445 -30.150968 -4.165101 30.437394 -1.568228 1.708069 0.073241 -0.031681 -466771.000000 0 0 1
0.059645 -30.479068 -2.630201 30.592402 -1.568839 1.656878 0.070826 -0.022417 -398629.000000 0 0 1
0.224345 -31.840868 -2.198601 31.917472 -1.563751 1.639735 0.067179 -0.023591 348755.000000 0 0 1
1.458045 -32.478568 -2.512301 32.608203 -1.525934 1.647918 0.054798 -0.027068 977342.000000 0 0 1
2.827445 -31.956068 -1.963501 32.140940 -1.482547 1.631925 0.060991 -0.028737 -440155.000000 0 0 1
3.051545 -32.406768 -0.630501 32.556229 -1.476909 1.590164 0.049751 -0.015018 1084110.000000 0 0 1
4.332045 -32.169968 0.011199 32.460338 -1.436940 1.570451 0.056570 -0.015167 972118.000000 0 0 1
4.656845 -30.704468 0.266099 31.056744 -1.420277 1.562228 0.051176 -0.022003 -513219.000000 0 0 1
4.857545 -29.974068 -0.902501 30.378528 -1.410135 1.600509 0.058974 -0.031282 84563.200000 0 0 1
4.596445 -28.610568 -0.632201 28.984333 -1.411502 1.592610 0.067953 -0.021577 -436604.000000 0 0 1
4.060445 -27.804968 -1.820301 28.158781 -1.425788 1.635486 0.064739 -0.021400 376952.000000 0 0 1
2.791945 -28.330068 -2.260301 28.556902 -1.472563 1.650030 0.068914 -0.020291 712892.000000 0 0 1
2.128445 -27.441368 -3.168201 27.705531 -1.493388 1.685400 0.065042 -0.018286 -121898.000000 0 0 1
2.604945 -27.277668 -4.651401 27.793748 -1.475588 1.738942 0.053666 -0.023187 -295818.000000 0 0 1
2.342645 -28.376668 -5.444101 28.988989 -1.488428 1.759717 0.047181 -0.027787 -22086.200000 0 0 1
2.872745 -28.174468 -6.746701 29.113077 -1.469185 1.804664 0.050832 -0.031898 -222659.000000 0 0 1
2.117645 -28.968968 -7.804301 30.076446 -1.497826 1.833282 0.035070 -0.029614 -139929.000000 0 0 1
0.899945 -28.313968 -8.151301 29.477693 -1.539023 1.850972 0.045265 -0.028629 -119028.000000 0 0 1
0.708645 -28.115868 -9.531801 29.696118 -1.545597 1.897558 0.027936 -0.026840 25006.300000 0 0 1
-0.697155 -27.529368 -9.792601 29.227507 1.545478 1.912452 0.046420 -0.026781 -656473.000000 0 0 1
-0.779855 -26.232968 -9.230301 27.820410 1.541077 1.908988 0.042511 -0.022275 -256498.000000 0 0 1
-2.035355 -25.579868 -9.268501 27.283281 1.491395 1.917409 0.062024 -0.026945 559793.000000 0 0 1
-3.158055 -26.272768 -8.435301 27.773836 1.451168 1.879385 0.075353 -0.028172 -503309.000000 0 0 1
-2.998555 -26.331768 -7.010801 27.413585 1.457409 1.829411 0.081006 -0.033946 -170140.000000 0 0 1
-1.864055 -27.014368 -6.490101 27.845506 1.501903 1.806035 0.071680 -0.037493 358578.000000 0 0 1
-1.432155 -26.803068 -5.046001 27.311493 1.517415 1.756621 0.082240 -0.030293 222816.000000 0 0 1
-2.505455 -27.166668 -4.195101 27.602609 1.478831 1.723370 0.087632 -0.034974 370565.000000 0 0 1
-2.188755 -26.746968 -2.868201 26.989211 1.489146 1.677270 0.081509 -0.032126 -66005.600000 0 0 1
-3.356855 -26.952568 -1.882501 27.225966 1.446888 1.639995 0.079654 -0.026927 -341726.000000 0 0 1
-4.350955 -25.978668 -2.015001 26.417461 1.404855 1.647146 0.074672 -0.025497 -413132.000000 0 0 1
-5.273655 -26.109868 -0.947501 26.653975 1.371498 1.606352 0.085040 -0.028235 -40687.200000 0 0 1
-6.434755 -25.085068 -1.091201 25.920213 1.319693 1.612907 0.067911 -0.026204 -126012.000000 0 0 1
-5.973655 -23.793968 -0.850801 24.547125 1.324823 1.605463 0.054084 -0.026220 111004.000000 0 1 0
-6.599255 -23.247868 0.310199 24.168363 1.294207 1.557961 0.062574 -0.019394 -218442.000000 0 1 0
-6.065255 -21.912868 0.640499 22.745798 1.300767 1.542634 0.039646 -0.017158 820929.000000 0 1 0
-4.734255 -21.857168 1.191799 22.395744 1.357492 1.517556 0.028915 -0.021980 696871.000000 0 1 0
-4.436955 -20.548568 1.558599 21.079835 1.358136 1.496791 0.005015 -0.006783 396538.000000 0 1 0
-3.286855 -20.370568 2.608899 20.798313 1.410822 1.445027 0.008426 0.000581 393361.000000 0 1 0
-3.640955 -20.650268 3.962799 21.339960 1.396275 1.384014 0.002942 0.020564 -680862.000000 0 1 0
-2.718755 -20.224668 4.901699 20.987031 1.437170 1.335061 0.018743 0.004620 -465591.000000 0 1 0
-1.769855 -21.323568 5.431599 22.075534 1.487986 1.322198 0.017208 -0.005762 147173.000000 0 1 0
-0.882555 -21.737768 4.405199 22.197190 1.530219 1.371012 0.041368 -0.008320 -218135.000000 0 1 0
-0.314255 -22.987568 4.691399 23.463509 1.557127 1.369495 0.042850 -0.008442 -844548.000000 0 1 0
0.695445 -23.359268 3.528299 23.634465 -1.541033 1.420950 0.050566 -0.018540 1114070.000000 0 1 0
1.855045 -22.498068 3.512899 22.846109 -1.488529 1.416420 0.032169 -0.020435 533523.000000 0 1 0
2.787845 -22.797068 4.547299 23.412738 -1.449111 1.375331 0.054080 -0.024337 -191000.000000 0 1 0
3.983145 -21.777168 4.561199 22.603429 -1.389891 1.367609 0.065073 -0.026728 554083.000000 0 1 0
4.874645 -21.689368 3.483399 22.501664 -1.349722 1.415365 0.051062 -0.017293 -612333.000000 0 1 0
6.087845 -21.108068 3.865899 22.305998 -1.290003 1.396605 0.063017 -0.009513 256517.000000 0 1 0
6.887645 -20.611068 2.582599 21.884368 -1.248291 1.452510 0.068659 -0.007506 87023.900000 0 1 0
7.428345 -21.703068 1.869099 23.015147 -1.241023 1.489495 0.063356 -0.008124 -149863.000000 0 1 0
7.035645 -21.656668 0.531799 22.777058 -1.256680 1.547446 0.058519 -0.015165 -33943.100000 0 1 0
7.935045 -22.543568 -0.332801 23.901635 -1.232352 1.584721 0.064684 -0.009974 -240905.000000 0 1 0
9.236445 -22.081168 -0.536501 23.941130 -1.174618 1.593207 0.060364 -0.002194 -659120.000000 0 1 0
9.949445 -22.915268 -1.411101 25.021834 -1.161172 1.627221 0.057970 -0.001413 16243.500000 0 0 1
11.315745 -22.408868 -1.902901 25.175871 -1.103183 1.646453 0.053365 0.005750 1364.500000 0 0 1
11.294445 -21.355968 -2.846801 24.325832 -1.084324 1.688093 0.051251 0.012223 -1162520.000000 0 1 0
12.558845 -21.013568 -3.301401 24.702102 -1.032104 1.704846 0.048179 0.002273 -847893.000000 0 1 0
12.748345 -19.769168 -4.220401 23.898788 -0.998043 1.748322 0.039977 -0.006797 -570869.000000 0 1 0
12.641945 -18.534768 -3.562301 22.716654 -0.972208 1.728261 0.053210 -0.005770 164135.000000 0 1 0
12.774845 -17.463868 -4.479601 22.096383 -0.939240 1.774941 0.047574 -0.009707 -843977.000000 0 1 0
13.226945 -16.115468 -3.801401 21.192240 -0.883524 1.751150 0.064374 -0.006945 -405722.000000 0 1 0
14.523445 -16.031168 -3.310701 21.883545 -0.834703 1.722667 0.053866 -0.005486 -132165.000000 0 1 0
15.520945 -15.937668 -4.352301 22.668293 -0.798644 1.763995 0.050906 -0.003268 -503084.000000 0 1 0
16.873245 -15.499068 -3.788601 23.222424 -0.742974 1.734673 0.050551 -0.006401 -542942.000000 0 1 0
17.559845 -16.572268 -3.190301 24.355004 -0.756472 1.702165 0.055570 -0.003970 1624220.000000 0 1 0
18.952945 -16.205868 -2.959501 25.111808 -0.707423 1.688924 0.044005 0.003453 1121650.000000 0 0 1
19.800445 -17.299468 -2.333501 26.396485 -0.718088 1.659314 0.029438 -0.002398 435683.000000 0 0 1
21.183045 -16.925368 -2.261501 27.208525 -0.674134 1.654010 0.022709 0.000310 616304.000000 0 0 1
21.915145 -17.823968 -1.440001 28.284996 -0.682809 1.621729 0.025854 0.005361 656350.000000 0 0 1
23.440645 -17.838168 -1.825901 29.512675 -0.650500 1.632704 0.038460 0.000442 584893.000000 0 0 1
24.065945 -16.654768 -1.405001 29.300597 -0.605368 1.618766 0.047081 -0.005731 -5821.960000 0 0 1
25.294045 -16.914768 -0.758401 30.438023 -0.589426 1.595715 0.080106 -0.008977 242847.000000 0 0 1
25.989445 -15.654368 -0.117701 30.340144 -0.542135 1.574676 0.073000 -0.014485 2947.880000 0 0 1
25.248045 -15.046768 0.884499 29.404954 -0.537442 1.540712 0.036372 -0.016671 -188883.000000 0 0 1
25.985345 -13.968268 1.403899 29.535091 -0.493230 1.523245 0.030510 -0.019476 80024.600000 0 0 1
25.281645 -13.221768 2.572499 28.646020 -0.481861 1.480872 0.040565 -0.027751 -30389.600000 0 0 1
25.207345 -13.855068 3.846599 29.020156 -0.502570 1.437856 0.072575 -0.022594 752126.000000 0 0 1
26.489445 -13.950568 4.491799 30.273508 -0.484737 1.421873 0.076773 -0.012750 756785.000000 0 0 1
26.375345 -14.463568 5.918499 30.657499 -0.501594 1.376524 0.079846 -0.004927 -70484.000000 0 0 1
25.868345 -15.724468 5.945299 30.850879 -0.546183 1.376872 0.062941 -0.011872 -971027.000000 0 0 1
24.785345 -15.793968 6.809899 30.168484 -0.567346 1.343105 0.048731 -0.004343 -330476.000000 0 0 1
23.850145 -17.010768 6.545599 30.017336 -0.619554 1.350970 0.049011 -0.015480 -159444.000000 0 0 1
24.568145 -18.220168 6.667999 31.305438 -0.638115 1.356154 0.063210 -0.009913 -93688.400000 0 0 1
23.778845 -19.411368 6.548499 31.386581 -0.684619 1.360612 0.043194 0.004133 61566.700000 0 0 1
1.498245 23.167176 -3.075701 23.418427 1.506215 1.702514 0.028982 -0.023793 -168565.000000 0 1 0
2.258245 24.212376 -2.519101 24.447591 1.477797 1.674020 0.036632 -0.028684 -368547.000000 0 1 0
3.034345 24.714176 -3.581601 25.156026 1.448630 1.713657 0.048492 -0.026030 -292226.000000 0 0 1
4.064845 25.782476 -3.148401 26.290140 1.414424 1.690840 0.032473 -0.020673 -539217.000000 0 0 1
5.043445 25.144476 -2.394101 25.756800 1.372844 1.663881 0.037714 -0.024144 -924253.000000 0 0 1
5.897345 26.085676 -1.826001 26.806258 1.348458 1.638968 0.027842 -0.022972 -198736.000000 0 0 1
7.084045 25.524276 -1.013401 26.508477 1.300069 1.609035 0.033924 -0.034244 415308.000000 0 0 1
8.101245 24.973176 -1.819501 26.317300 1.257109 1.639989 0.060526 -0.033741 482254.000000 0 0 1
9.205245 24.272176 -1.204701 25.987042 1.208304 1.617171 0.049940 -0.030393 1461980.000000 0 0 1
10.364145 24.010776 -2.237901 26.247687 1.163310 1.656161 0.067530 -0.026186 -523124.000000 0 0 1
11.146445 25.163376 -2.496001 27.634557 1.153810 1.661241 0.070526 -0.020754 1544.400000 0 0 1
12.071745 24.958276 -3.564901 27.952658 1.120292 1.698678 0.086335 -0.021954 1241160.000000 0 0 1
13.297945 23.990876 -3.340201 27.632489 1.064664 1.691972 0.072700 -0.020311 -188095.000000 0 0 1
12.916845 22.648676 -3.252301 26.275176 1.052491 1.694893 0.080038 -0.024172 -301844.000000 0 0 1
13.014045 21.884776 -4.502101 25.856870 1.034311 1.745805 0.103330 -0.030969 180536.000000 0 0 1
11.922045 20.743876 -4.524001 24.349746 1.049168 1.757675 0.089558 -0.035431 302658.000000 0 1 0
10.626545 21.291976 -4.656401 24.247758 1.107880 1.764031 0.086194 -0.025238 -783926.000000 0 1 0
9.782445 20.194976 -4.798101 22.946788 1.119706 1.781448 0.049667 -0.020095 294227.000000 0 1 0
8.273845 20.615576 -4.704001 22.706522 1.189136 1.779473 0.048878 -0.017355 629884.000000 0 1 0
7.841145 21.035776 -3.416401 22.708131 1.213997 1.721818 0.050432 -0.020981 -580460.000000 0 1 0
6.451145 21.186476 -3.431001 22.411065 1.275222 1.724495 0.045382 -0.026146 -362051.000000 0 1 0
5.871245 22.034976 -2.292701 22.918730 1.310395 1.671000 0.041167 -0.027426 40573.000000 0 1 0
5.768045 21.354876 -1.104301 22.147699 1.306987 1.620678 0.042456 -0.023030 155352.000000 0 1 0
4.852245 22.038676 -0.261201 22.568025 1.354084 1.582371 0.039260 -0.019373 263701.000000 0 1 0
4.373945 21.104376 0.865599 21.570242 1.366437 1.530656 0.022731 -0.016902 -170060.000000 0 1 0
3.459445 21.720076 1.732999 22.062021 1.412849 1.492164 0.017086 -0.013387 -44220.500000 0 1 0
3.238645 20.942176 2.870099 21.384598 1.417365 1.436177 0.022715 -0.013382 -203484.000000 0 1 0
2.245645 21.566876 3.845399 22.021811 1.467045 1.395279 0.018906 -0.007284 -846424.000000 0 1 0
0.972345 21.780876 3.342699 22.057327 1.526184 1.418664 0.014851 -0.004611 -974285.000000 0 1 0
0.128945 22.127476 4.424999 22.565958 1.564969 1.373426 0.018599 -0.017030 -95179.300000 0 1 0
-1.283355 22.441876 3.897099 22.813860 -1.513673 1.399133 0.018201 -0.009127 81808.000000 0 1 0
-2.189555 22.860376 4.935599 23.489383 -1.475308 1.359098 0.035288 -0.019827 -506404.000000 0 1 0
-3.467255 22.785476 4.374899 23.459317 -1.419785 1.383209 0.052975 -0.019946 -614078.000000 0 1 0
-4.596355 22.930476 5.396099 24.001065 -1.372971 1.344030 0.061431 -0.032293 -270182.000000 0 1 0
-4.908055 24.207976 5.831799 25.379618 -1.370762 1.338942 0.092551 -0.024655 240732.000000 0 0 1
-6.110655 24.200576 6.607799 25.819973 -1.323466 1.311999 0.103844 -0.026451 594284.000000 0 0 1
-6.505055 25.603576 7.183499 27.376295 -1.321992 1.305289 0.113217 -0.024851 363311.000000 0 0 1
-5.505555 26.183576 8.035499 27.936715 -1.363548 1.279043 0.101227 -0.029355 38440.000000 0 0 1
-5.790855 27.441676 8.521599 29.312067 -1.362823 1.275817 0.111697 -0.026067 -233248.000000 0 0 1
-6.007255 28.700476 7.650899 30.304137 -1.364466 1.315564 0.124166 -0.025541 -625494.000000 0 0 1
-7.202955 28.651876 6.973099 30.355176 -1.324505 1.339009 0.120822 -0.030407 -1201600.000000 0 0 1
-7.359055 29.850776 6.189599 31.361372 -1.329088 1.372128 0.127786 -0.031737 77077.900000 0 0 1
-8.770555 30.127876 5.520899 31.860507 -1.287514 1.396634 0.107958 -0.030550 1064550.000000 0 0 1
-9.751355 30.719276 6.336099 32.846750 -1.263422 1.376681 0.111631 -0.021906 -476093.000000 0 0 1
-10.300255 29.725676 7.164099 32.265080 -1.237234 1.346891 0.093578 -0.016774 -934497.000000 0 0 1
-11.378355 30.258176 8.116499 33.330193 -1.211112 1.324805 0.069576 -0.014780 174870.000000 0 0 1
-10.801755 30.591976 9.384999 33.773142 -1.231370 1.289206 0.080616 -0.012198 76913.300000 0 0 1
-11.814955 31.094876 10.203799 34.793707 -1.207680 1.273155 0.078372 -0.009879 75853.000000 0 0 1
-11.224555 31.575876 11.575999 35.454624 -1.229249 1.238196 0.074649 -0.018240 -99971.000000 0 0 1
-10.553155 32.780476 11.450799 36.291177 -1.259340 1.249786 0.062806 -0.020153 -263938.000000 0 0 1
-9.703955 32.992276 12.542999 36.605790 -1.284735 1.221059 0.057417 -0.022984 -74459.000000 0 0 1
-9.258155 -33.784368 12.556499 37.212399 1.303326 1.226613 0.048823 -0.023487 121707.000000 0 0 1
-10.284555 -32.994268 13.091299 36.956405 1.268634 1.208699 0.046291 -0.013672 -204053.000000 0 0 1
-9.869455 -31.667768 13.113999 35.668342 1.268680 1.194299 0.043894 -0.015654 961778.000000 0 0 1
-10.851255 -30.655968 13.916999 35.372602 1.230590 1.166426 0.053729 -0.017416 825266.000000 0 0 1
-10.919255 -30.803768 15.354499 36.109042 1.230138 1.131585 0.051618 -0.019827 -708823.000000 0 0 1
-9.765355 -30.419868 15.999799 35.731276 1.260169 1.106514 0.054791 -0.023360 -543533.000000 0 0 1
-9.884655 -30.712068 17.498599 36.703385 1.259417 1.073834 0.048477 -0.029421 151734.000000 0 0 1
-10.607955 -29.692168 18.183199 36.397559 1.227665 1.047692 0.072075 -0.031543 63826.400000 0 0 1
-11.249655 -30.259568 19.280199 37.602158 1.214859 1.032421 0.066958 -0.030605 -63806.800000 0 0 1
-11.469855 -29.213468 20.368499 37.414703 1.196666 0.995125 0.068052 -0.042288 -134411.000000 0 0 1
-10.310555 -29.052768 21.142499 37.381494 1.229771 0.969651 0.045322 -0.032091 2888.780000 0 0 1
-10.551855 -28.245168 22.249199 37.472096 1.213270 0.935080 0.037244 -0.029082 -364885.000000 0 0 1
-9.485455 -28.329968 23.319299 37.899217 1.247708 0.908033 0.055628 -0.028560 -510152.000000 0 0 1
-9.464055 -29.517268 24.118099 39.274930 1.260524 0.909572 0.029744 -0.010350 -110309.000000 0 0 1
-8.417355 -29.597768 25.055199 39.681768 1.293720 0.887435 0.047468 -0.021249 -251895.000000 0 0 1
-8.385755 -30.804268 25.972599 41.155798 1.305010 0.887852 0.045965 -0.019536 -304926.000000 0 0 1
-8.273155 -32.035968 25.227499 41.607392 1.318072 0.919368 0.062601 -0.015498 311768.000000 0 0 1
-8.438755 -33.096268 26.164799 43.025251 1.321140 0.917098 0.073257 -0.017387 -442284.000000 0 0 1
-8.222355 33.765176 25.561799 43.140466 -1.331930 0.936607 0.071599 -0.017455 36879.900000 0 0 1
-6.849755 33.479876 25.309299 42.525073 -1.368988 0.933329 0.059109 -0.013454 323375.000000 0 0 1
-6.558555 32.282876 24.564299 41.092621 -1.370365 0.930069 0.050828 -0.010192 97804.500000 0 0 1
-7.330855 31.962276 23.221499 40.181669 -1.345336 0.954628 0.052233 -0.011525 571085.000000 0 0 1
-8.596955 31.342776 23.415799 40.057170 -1.303092 0.946459 0.054765 -0.016469 584621.000000 0 0 1
-9.292855 30.953076 22.250599 39.236963 -1.279134 0.967837 0.045933 -0.014630 -178187.000000 0 0 1
-10.189755 29.741876 22.340299 38.568112 -1.240723 0.952997 0.043445 -0.019638 -420954.000000 0 0 1
-9.480055 28.565776 22.490899 37.572803 -1.250366 0.929050 0.041443 -0.017794 -259850.000000 0 0 1
-10.281155 27.477176 22.920499 37.229647 -1.212753 0.907584 0.022285 -0.014810 -222898.000000 0 0 1
-9.655655 26.063876 22.732399 35.907092 -1.216011 0.885259 0.014437 -0.017535 -740894.000000 0 0 1
-8.503355 25.927476 23.482099 35.999306 -1.253883 0.860190 0.017455 -0.022822 -656764.000000 0 0 1
-8.002455 24.623176 23.336699 34.856013 -1.256567 0.837238 0.024277 -0.019636 -709677.000000 0 0 1
-6.625055 24.365676 23.929099 34.787632 -1.305313 0.812257 0.019951 -0.017045 -345194.000000 0 0 1
-5.655755 25.139876 23.226899 34.691350 -1.349509 0.837221 0.006854 -0.019581 115914.000000 0 0 1
-4.395855 25.004676 23.869799 34.847162 -1.396773 0.816213 0.035205 -0.015642 178301.000000 0 0 1
-3.157855 25.441476 23.083399 34.497595 -1.447306 0.837758 0.023001 -0.003099 -211641.000000 0 0 1
-2.814155 24.579576 21.986799 33.098253 -1.456801 0.844254 0.018516 -0.008700 199011.000000 0 0 1
-1.880055 25.274776 21.168399 33.021963 -1.496548 0.874944 0.020338 0.000931 224384.000000 0 0 1
-1.525255 24.512876 19.842699 31.574360 -1.508654 0.891246 0.011731 -0.000234 -116208.000000 0 0 1
-0.609555 23.475276 20.079999 30.897678 -1.544836 0.863361 0.022580 -0.008290 -6368.020000 0 0 1
-0.343055 22.608776 18.965299 29.511981 -1.555624 0.872870 0.008626 -0.004466 -140652.000000 0 0 1
0.788245 21.559076 19.165599 28.857153 1.534251 0.844434 0.012292 -0.003322 300399.000000 0 0 1
2.068145 22.122276 19.282399 29.419096 1.477580 0.856034 0.019352 -0.011671 -611245.000000 0 0 1
3.096145 21.206076 19.415199 28.917706 1.425818 0.834707 0.033500 -0.007056 193045.000000 0 0 1
4.528845 21.755376 19.163599 29.343660 1.365556 0.859159 0.030901 -0.016264 610453.000000 0 0 1
5.490345 20.731376 18.885799 28.576341 1.311907 0.848793 0.047690 -0.017887 457402.000000 0 0 1
6.778645 21.322976 18.814699 29.233752 1.262996 0.871610 0.080345 -0.023489 -30012.400000 0 0 1
7.957745 20.461976 18.362199 28.621470 1.199892 0.874275 0.081979 -0.017606 -238355.000000 0 0 1
8.378845 19.594176 19.433799 28.841105 1.166709 0.831426 0.077030 -0.016631 -325750.000000 0 0 1
9.423745 18.769876 19.011599 28.329421 1.105496 0.835118 0.078186 -0.019334 -400610.000000 0 0 1
9.968145 17.957376 20.193799 28.803138 1.064046 0.793861 0.092261 -0.016984 139901.000000 0 0 1
9.052645 16.982776 20.764899 28.311589 1.081061 0.747425 0.075896 -0.014905 485357.000000 0 0 1
9.663645 16.206876 21.767799 28.807741 1.033125 0.714191 0.075535 -0.019948 -351527.000000 0 0 1
8.680145 15.266576 22.411099 28.472278 1.053806 0.664671 0.059684 -0.018154 -176389.000000 0 0 1
7.692345 15.884476 23.268199 29.204415 1.119813 0.648922 0.055080 -0.006480 701737.000000 0 0 1
6.590145 14.985076 23.450799 28.599344 1.156473 0.609426 0.050420 -0.006378 366565.000000 0 0 1
6.807845 13.753276 24.340499 28.774281 1.111158 0.562524 0.054396 -0.011032 -755164.000000 0 0 1
7.162945 14.118676 25.654199 30.146023 1.101295 0.552914 0.069298 -0.018433 -140682.000000 0 0 1
7.615245 13.008276 26.408999 30.407934 1.041170 0.518648 0.077673 -0.032772 -1017140.000000 0 0 1
8.453645 13.389076 27.630699 31.846303 1.007620 0.520387 0.049807 -0.022911 -903528.000000 0 0 1
9.733745 13.821276 27.326899 32.133049 0.957218 0.553995 0.071263 -0.019853 -620813.000000 0 0 1
9.921345 14.993976 26.570199 32.081582 0.986248 0.594895 0.064337 -0.009202 -775898.000000 0 0 1
11.352145 15.049076 25.955599 32.078638 0.924522 0.628136 0.081157 -0.015710 374347.000000 0 0 1
11.461145 14.079276 24.913199 30.826147 0.887551 0.629734 0.072090 -0.022238 812873.000000 0 0 1
12.828245 13.750076 24.609099 30.971539 0.820068 0.652495 0.088902 -0.026799 426856.000000 0 0 1
12.886845 12.675176 23.520899 29.664179 0.777118 0.655233 0.067166 -0.026900 5526.080000 0 0 1
12.513945 11.340676 23.883899 29.251502 0.736254 0.615471 0.061109 -0.019844 196080.000000 0 0 1
11.125345 11.201076 24.119299 28.826689 0.788790 0.579566 0.071716 -0.018260 -286464.000000 0 0 1
10.783845 9.918576 24.901799 28.892370 0.743627 0.531828 0.060909 -0.017678 -163292.000000 0 0 1
10.885245 8.801076 24.120999 27.888530 0.679922 0.525830 0.061514 -0.016503 215396.000000 0 0 1
10.664045 7.578676 24.799899 28.039136 0.617855 0.485430 0.059297 -0.012187 -59084.900000 0 0 1
10.867445 6.376476 23.871299 26.992586 0.530620 0.485664 0.059930 -0.013078 -685058.000000 0 0 1
12.190745 6.223876 23.470899 27.170462 0.472045 0.527956 0.069371 -0.009913 -415437.000000 0 0 1
12.392145 5.102076 22.510699 26.197862 0.390568 0.536981 0.081082 -0.017141 -8394.460000 0 0 1
12.083145 3.689476 23.029299 26.267151 0.296349 0.501768 0.070306 -0.021242 -434465.000000 0 0 1
13.127245 3.178076 23.788799 27.355652 0.237528 0.516381 0.068285 -0.016322 -570.730000 0 0 1
12.667445 1.936576 24.249199 27.426960 0.151704 0.486152 0.065551 -0.019980 446613.000000 0 0 1
13.683645 1.280776 25.295199 28.787664 0.093327 0.497702 0.052342 -0.010880 497185.000000 0 0 1
14.801945 0.691876 24.699099 28.803155 0.046708 0.540379 0.078789 -0.012630 -150771.000000 0 0 1
15.995245 1.464276 24.679199 29.445794 0.091290 0.576963 0.066806 -0.017893 -22134.700000 0 0 1
16.971345 0.756776 23.706599 29.165083 0.044562 0.621782 0.072429 -0.027980 -347122.000000 0 0 1
17.430445 -0.510824 24.173799 29.806944 -0.029298 0.624916 0.069892 -0.024631 -50368.300000 0 0 1
18.408245 -1.004424 23.297899 29.709669 -0.054510 0.669413 0.072823 -0.017054 -40332.100000 0 0 1
18.776445 -2.495224 23.625799 30.281337 -0.132117 0.675795 0.055673 -0.010630 -55460.800000 0 0 1
17.845645 -3.413524 23.053399 29.352655 -0.188998 0.667464 0.046579 -0.002392 441453.000000 0 0 1
18.160345 -4.729624 23.463899 30.045333 -0.254777 0.674611 0.038033 -0.000405 88753.600000 0 0 1
17.267845 -5.824924 22.840699 29.219954 -0.325341 0.673439 0.042936 0.000114 -33864.900000 0 0 1
17.328645 -5.803424 21.447299 28.177088 -0.323163 0.705695 0.059909 0.000551 165727.000000 0 0 1
16.544045 -6.706724 20.679399 27.318915 -0.385141 0.712144 0.074109 0.000384 -297475.000000 0 0 1
17.003945 -8.170024 20.601499 27.933943 -0.447909 0.741424 0.067274 -0.002083 -255978.000000 0 0 1
16.726845 -8.947324 21.759899 28.867545 -0.491183 0.716994 0.051516 -0.002113 -504.960000 0 0 1
17.350545 -10.199724 21.626499 29.542871 -0.531447 0.749488 0.042410 -0.004941 -536077.000000 0 0 1
17.331945 -11.083324 22.962599 30.830461 -0.568940 0.730558 0.041737 0.011133 234238.000000 0 0 1
16.028845 -11.526824 23.302599 30.541818 -0.623450 0.702896 0.063282 -0.000766 164000.000000 0 0 1
16.079045 -12.493424 24.350799 31.742443 -0.660559 0.696430 0.059607 0.004939 -548680.000000 0 0 1
14.790745 -13.275024 24.436599 31.498250 -0.731445 0.682801 0.077042 0.008196 -619095.000000 0 0 1
14.784245 -14.150324 23.322299 31.027974 -0.763493 0.720230 0.072189 -0.005030 -32962.600000 0 0 1
13.702545 -15.038224 23.393999 31.003017 -0.831838 0.715795 0.077070 -0.012958 -439939.000000 0 0 1
13.536845 -16.080724 22.267299 30.621372 -0.871079 0.756589 0.072037 -0.018111 307688.000000 0 0 1
14.619645 -17.018324 22.249599 31.597500 -0.861070 0.789561 0.071410 -0.015640 401441.000000 0 0 1
14.517245 -17.906224 21.146099 31.281636 -0.889542 0.828488 0.062306 0.003176 -59187.700000 0 0 1
-24.364755 -32.303168 26.642212 48.445262 0.924579 0.988498 0.025310 -0.014665 -715242.000000 0 0 1
-24.075055 -33.615968 26.248612 48.975823 0.949294 1.005163 0.041254 -0.010575 1085150.000000 0 0 1
-25.207215 33.764276 26.503712 49.778276 -0.929497 1.009321 0.046786 -0.022701 621245.000000 0 0 1
-25.605065 33.429276 27.973672 50.553558 -0.917167 0.984419 0.042448 -0.018764 49373.700000 0 0 1
-26.432045 -33.777568 28.490972 51.490898 0.906797 0.984451 0.086028 -0.025620 -30548.800000 0 0 1
-26.411345 -33.759268 29.908682 52.266400 0.906915 0.961567 0.055583 -0.024112 -541397.000000 0 0 1
-27.532725 -33.043268 30.680842 52.832022 0.876118 0.951178 0.046834 -0.028297 -279553.000000 0 0 1
-27.682415 -31.672568 30.473962 51.943527 0.852522 0.943850 0.038389 -0.019368 512600.000000 0 0 1
-28.635045 -31.096068 31.383452 52.648384 0.826577 0.932167 0.031091 -0.008444 275871.000000 0 0 1
-29.010035 -29.619868 31.083922 51.818230 0.795799 0.927464 0.025692 -0.013120 -62008.100000 0 0 1
-29.657895 -29.400368 29.835812 51.323952 0.781038 0.950442 0.018703 0.000961 104830.000000 0 0 1
-30.186205 -28.152268 29.782292 50.899333 0.750548 0.945767 0.037542 0.000546 -283236.000000 0 0 1
-30.726805 -27.728168 28.363742 50.174592 0.734145 0.969998 0.030496 -0.005853 525679.000000 0 0 1
-29.780605 -27.460268 27.291662 48.844504 0.744884 0.977924 0.031764 0.005935 425127.000000 0 0 1
-29.138075 -26.214068 27.371562 47.805933 0.732622 0.961177 0.023023 0.009049 45397.000000 0 0 1
-28.231945 -25.943468 26.120232 46.393672 0.743181 0.972770 0.008552 0.017288 419376.000000 0 0 1
-28.914545 -25.831568 24.849872 46.052546 0.729143 1.000837 0.008550 0.012113 175641.000000 0 0 1
-27.961965 -25.727068 23.834342 44.853421 0.743795 1.010564 0.023123 0.013459 73642.900000 0 0 1
-28.586305 -26.204868 22.480592 44.824647 0.741962 1.045438 0.019239 0.012895 574756.000000 0 0 1
-29.439405 -25.224368 21.853592 44.503110 0.708442 1.057493 0.015520 0.002539 523591.000000 0 0 1
-29.913235 -25.535768 20.552192 44.376454 0.706616 1.089270 0.015814 0.009416 314508.000000 0 0 1
-30.690315 -24.379968 19.804092 43.914466 0.671309 1.102945 0.012630 0.003708 -77605.300000 0 0 1
-31.928035 -24.076568 20.371492 44.878483 0.646113 1.099630 0.011587 0.001795 -358098.000000 0 0 1
-32.587315 -23.020768 19.719792 44.505719 0.615031 1.111760 0.011033 0.001433 250951.000000 0 0 1
-34.098960 -22.917768 20.076592 45.727811 0.591752 1.116260 0.031250 0.000051 165450.000000 0 0 1
-34.875140 -23.982468 19.552492 46.623322 0.602400 1.138043 0.025066 0.000482 -207006.000000 0 0 1
-36.225295 -23.592168 19.627592 47.477413 0.577262 1.144601 0.042463 -0.006050 -120682.000000 0 0 1
36.061475 -24.514868 18.883592 47.518404 -0.597045 1.162120 0.054595 -0.019981 68431.800000 0 0 1
36.003295 -25.749668 19.553192 48.390184 -0.620857 1.154831 0.041604 -0.013028 116843.000000 0 0 1
34.967075 -26.582668 19.051192 47.877787 -0.650010 1.161556 0.042643 -0.008170 33663.800000 0 0 1
34.748085 -27.687268 20.103192 48.766305 -0.672787 1.145890 0.039590 -0.013617 1027070.000000 0 0 1
33.562445 -27.621168 20.967392 48.259695 -0.688596 1.121347 0.051096 -0.015823 961099.000000 0 0 1
33.383745 -26.459568 21.763992 47.835703 -0.670205 1.098454 0.065582 -0.025249 -601992.000000 0 0 1
32.146865 -26.471668 22.641792 47.400642 -0.688883 1.072797 0.071012 -0.026792 -1336960.000000 0 0 1
30.964745 -26.785568 21.996292 46.477080 -0.713158 1.077795 0.077430 -0.021048 -1375260.000000 0 0 1
29.919625 -26.040868 22.513992 45.609106 -0.716196 1.054538 0.088092 -0.022942 -886729.000000 0 0 1
29.406595 -24.966668 21.506592 44.165777 -0.703922 1.062200 0.076095 -0.012921 -430643.000000 0 0 1
30.294445 -23.991568 20.976792 43.970155 -0.669811 1.073480 0.081760 -0.016431 214541.000000 0 0 1
30.934385 -23.168868 21.979792 44.461712 -0.642840 1.053706 0.094188 -0.020896 31011.400000 0 0 1
31.846295 -22.098668 21.402792 44.278856 -0.606631 1.066303 0.076423 -0.012704 -229963.000000 0 0 1
31.143075 -20.922668 21.141992 43.065450 -0.591565 1.057643 0.072768 -0.017320 71565.900000 0 0 1
31.920615 -19.912068 20.473492 42.831997 -0.557736 1.072425 0.064980 -0.012068 226987.000000 0 0 1
31.215745 -18.498868 20.563892 41.707367 -0.534970 1.055202 0.055902 -0.005524 413997.000000 0 0 1
31.032145 -17.921968 21.904592 42.000025 -0.523733 1.022144 0.065786 -0.007241 -110475.000000 0 0 1
30.106115 -18.585068 22.725392 42.050283 -0.553057 0.999844 0.079585 -0.012441 -322718.000000 0 0 1
30.175635 -18.122068 24.238642 42.737455 -0.540826 0.967752 0.071791 -0.008556 67762.500000 0 0 1
29.862385 -16.748268 24.409402 42.048608 -0.511134 0.951448 0.061199 -0.011256 81916.300000 0 0 1
29.883635 -16.344668 25.755292 42.702633 -0.500494 0.923375 0.061090 -0.013054 -172579.000000 0 0 1
29.379305 -14.935868 26.092072 42.035936 -0.470330 0.901150 0.052796 -0.014291 39194.000000 0 0 1
27.980415 -14.769168 25.929892 40.907105 -0.485670 0.884246 0.052719 -0.012628 506353.000000 0 0 1
27.405815 -13.638968 26.664172 40.596529 -0.461779 0.854217 0.047045 -0.011251 229094.000000 0 0 1
27.783915 -12.233568 26.196882 40.098413 -0.414768 0.858842 0.059811 -0.014792 -535357.000000 0 0 1
27.266315 -11.945268 24.905432 38.812651 -0.412911 0.874105 0.062509 -0.014034 246609.000000 0 0 1
28.090815 -11.097168 24.112702 38.647942 -0.376229 0.897065 0.069535 -0.013795 -86027.300000 0 0 1
29.230045 -11.823268 23.378152 39.252047 -0.384371 0.932796 0.071191 -0.017972 90299.800000 0 0 1
28.696795 -12.836468 22.489992 38.653340 -0.420618 0.949809 0.071468 -0.017536 427808.000000 0 0 1
29.614505 -13.912068 22.479892 39.697734 -0.439174 0.968815 0.058299 -0.020538 106598.000000 0 0 1
29.213205 -15.014068 21.504692 39.259207 -0.474744 0.991110 0.058022 -0.007307 -229483.000000 0 0 1
29.344685 -14.584668 20.183492 38.486315 -0.461255 1.018747 0.050010 -0.003833 -57072.600000 0 0 1
28.750585 -15.556368 19.338592 37.981283 -0.495969 1.036587 0.054099 -0.009979 -315272.000000 0 0 1
29.151895 -15.555168 17.842692 37.552069 -0.490157 1.075667 0.065210 -0.012522 10928.900000 0 0 1
28.523885 -16.614768 17.112292 37.181892 -0.527442 1.092540 0.070690 -0.018952 -586390.000000 0 0 1
27.234515 -16.403568 16.658792 35.893052 -0.542115 1.088152 0.067336 -0.019807 -1151640.000000 0 0 1
27.209115 -15.741068 15.226792 34.928102 -0.524477 1.119706 0.073690 -0.019261 -157324.000000 0 0 1
27.440615 -16.546968 14.055892 34.990822 -0.542630 1.157421 0.070801 -0.018282 703098.000000 0 0 1
26.265115 -17.292168 13.722692 34.310168 -0.582237 1.159323 0.064636 -0.027513 467666.000000 0 0 1
26.408815 -17.804168 12.246392 34.123130 -0.593183 1.203720 0.062299 -0.016079 35959.800000 0 0 1
25.916715 -16.804668 11.316392 32.895801 -0.575257 1.219615 0.075505 -0.019341 -105693.000000 0 0 1
26.009515 -17.259868 9.951192 32.763152 -0.585875 1.262190 0.058469 -0.022112 237290.000000 0 0 1
27.369715 -17.465768 9.216892 33.750636 -0.567994 1.294195 0.061340 -0.015373 348637.000000 0 0 1
28.055515 -18.582168 9.730292 35.029808 -0.584998 1.289323 0.052848 -0.011755 -948360.000000 0 0 1
29.426865 -18.596768 9.461392 36.073510 -0.563593 1.305411 0.047382 0.001518 -305590.000000 0 0 1
30.110375 -19.557568 10.453092 37.395190 -0.576044 1.287491 0.056895 -0.010802 -251504.000000 0 0 1
30.130285 -19.012668 11.741092 37.512249 -0.562913 1.252453 0.063573 -0.024271 116504.000000 0 0 1
30.443315 -20.088168 12.657792 38.607637 -0.583272 1.236762 0.054571 -0.022641 -75322.800000 0 0 1
30.174555 -19.689768 14.125192 38.700281 -0.578151 1.197175 0.073958 -0.018903 85996.900000 0 0 1
29.989905 -20.723768 15.048392 39.437584 -0.604677 1.179297 0.071646 -0.024720 -43081.000000 0 0 1
29.774865 -20.101068 16.309192 39.453583 -0.593820 1.144637 0.084761 -0.028500 22329.800000 0 0 1
29.594835 -21.085068 17.452592 40.311627 -0.619038 1.123042 0.079828 -0.019709 352837.000000 0 0 1
28.375895 -21.819168 17.373992 39.788479 -0.655509 1.118915 0.052541 -0.010973 260089.000000 0 0 1
28.156015 -22.666668 18.486992 40.599358 -0.677805 1.098029 0.062940 -0.012702 926532.000000 0 0 1
26.740615 -23.350668 18.424692 39.997293 -0.717826 1.092071 0.051977 -0.007332 654002.000000 0 0 1
25.626315 -22.593768 18.787992 38.989422 -0.722591 1.068004 0.050580 -0.005566 378682.000000 0 0 1
24.395915 -23.299968 18.587792 38.516947 -0.762424 1.067190 0.039930 -0.007429 707925.000000 0 0 1
23.143115 -22.728368 19.280392 37.734811 -0.776357 1.034513 0.025840 -0.007024 -195641.000000 0 0 1
22.528315 -21.599368 18.718192 36.392697 -0.764350 1.030559 0.030735 -0.008772 116027.000000 0 0 1
21.384915 -21.075868 19.360492 35.725837 -0.778120 0.998078 0.038348 -0.010494 197085.000000 0 0 1
21.623015 -20.396068 20.721592 36.234496 -0.756207 0.962007 0.037324 -0.008387 -277279.000000 0 0 1
21.988115 -21.270568 21.768192 37.546883 -0.768812 0.952362 0.041084 -0.009874 4585.000000 0 0 1
22.464515 -20.744768 22.980192 38.250347 -0.745619 0.926315 0.046713 -0.009869 102183.000000 0 0 1
22.805315 -21.826268 24.057682 39.689298 -0.763465 0.919585 0.045782 -0.004551 -51780.100000 0 0 1
21.722015 -22.464768 24.710892 39.838924 -0.802206 0.901709 0.048016 -0.002753 -6784.740000 0 0 1
22.098915 -23.407068 25.694932 41.188377 -0.814137 0.897151 0.049905 -0.003329 331779.000000 0 0 1
20.834515 -24.076668 26.339222 41.322119 -0.857463 0.879661 0.069329 -0.020958 546274.000000 0 0 1
20.176515 -25.092768 25.592582 41.130512 -0.893574 0.899210 0.069148 -0.018954 49331.300000 0 0 1
19.316815 -25.800468 26.447062 41.692332 -0.928128 0.883643 0.086149 -0.029202 -393236.000000 0 0 1
18.520315 -26.915068 25.801812 41.631195 -0.968100 0.902345 0.092357 -0.020800 -702938.000000 0 0 1
17.558215 -26.503268 24.904232 40.384835 -0.985689 0.906287 0.088569 -0.029418 -245273.000000 0 0 1
17.081715 -27.578368 24.106862 40.416484 -1.016243 0.931711 0.088583 -0.034360 -234646.000000 0 0 1
16.176515 -26.950568 23.027792 38.965266 -1.030208 0.938520 0.077826 -0.038174 186934.000000 0 0 1
14.843615 -26.671668 23.449392 38.491359 -1.062953 0.915730 0.069484 -0.035812 57320.600000 0 0 1
14.280715 -25.856768 22.512792 37.139427 -1.066188 0.919561 0.049057 -0.026265 -581494.000000 0 0 1
12.829815 -25.455368 22.741892 36.466060 -1.103944 0.897399 0.052361 -0.029286 -811968.000000 0 0 1
11.834215 -26.378968 22.517292 36.645969 -1.149088 0.909102 0.053064 -0.033499 -661900.000000 0 0 1
10.581315 -25.716568 22.574092 35.817534 -1.180451 0.888918 0.049335 -0.023799 -345408.000000 0 0 1
9.388015 -26.623768 22.590692 36.156593 -1.231791 0.895919 0.053115 -0.023419 -830140.000000 0 0 1
9.266315 -27.317368 21.395492 35.914764 -1.243766 0.932622 0.057542 -0.024251 670245.000000 0 0 1
8.006215 -27.987468 21.205592 36.014927 -1.292173 0.941223 0.055786 -0.024348 737767.000000 0 0 1
7.908315 -28.742668 19.827892 35.802621 -1.302298 0.983862 0.067375 -0.019865 106745.000000 0 0 1
8.466315 -30.069368 19.959992 37.070833 -1.296342 1.002225 0.065327 -0.023730 143887.000000 0 0 1
8.492315 -30.792368 18.750192 37.038615 -1.301693 1.039985 0.052263 -0.022082 -40120.200000 0 0 1
9.007415 -32.249768 18.959592 38.479178 -1.298435 1.055580 0.049384 -0.025574 -520243.000000 0 0 1
8.208415 -32.988968 19.819292 39.350405 -1.326926 1.042964 0.075222 -0.026318 114713.000000 0 0 1
8.708315 33.905076 19.887592 40.260468 1.319387 1.054143 0.080074 -0.030109 116008.000000 0 0 1
7.942815 32.964076 20.848692 39.804354 1.334350 1.019515 0.096254 -0.034099 -212305.000000 0 0 1
6.961915 32.163776 20.240092 38.634675 1.357633 1.019392 0.090916 -0.031770 -128199.000000 0 0 1
7.037415 30.923276 20.926692 37.996061 1.347031 0.987522 0.088867 -0.039993 -462383.000000 0 0 1
5.908215 29.968676 20.593792 36.839284 1.376146 0.977596 0.070151 -0.025521 463613.000000 0 0 1
4.653115 30.244076 21.234492 37.245930 1.418141 0.964150 0.076957 -0.024491 699972.000000 0 0 1
3.628715 29.328076 20.894292 36.192196 1.447694 0.955360 0.076278 -0.020149 587078.000000 0 0 1
2.337615 29.392376 21.761892 36.646366 1.491432 0.934980 0.052628 -0.010932 316434.000000 0 0 1
2.359315 28.695976 23.039992 36.876370 1.488763 0.895934 0.051770 -0.016988 -315550.000000 0 0 1
1.044215 28.497776 23.473262 36.935182 1.534171 0.882107 0.032286 -0.007265 -267060.000000 0 0 1
0.965115 27.958976 24.939962 37.478494 1.536291 0.842703 0.041289 -0.018051 -550538.000000 0 0 1
1.106415 28.983476 25.943832 38.914630 1.532641 0.841043 0.044662 -0.023166 271129.000000 0 0 1
1.028215 28.465676 27.255292 39.423380 1.534691 0.807443 0.039198 -0.020055 522795.000000 0 0 1
2.270015 27.582676 27.688492 39.148558 1.488683 0.785171 0.027191 -0.021643 247240.000000 0 0 1
2.423915 26.341976 26.945772 37.760425 1.479038 0.776175 0.028787 -0.020124 620371.000000 0 0 1
3.513415 25.588676 27.511702 37.736165 1.434346 0.753858 0.009520 -0.014295 487658.000000 0 0 1
3.980515 24.351476 26.731532 36.378753 1.408768 0.745407 0.016033 -0.012259 283696.000000 0 0 1
2.904415 23.408276 26.617762 35.565268 1.447351 0.725120 0.027258 -0.008544 469687.000000 0 0 1
3.430315 22.094276 26.485422 34.661242 1.416768 0.701117 0.025661 -0.004567 304677.000000 0 0 1
2.278315 21.082276 26.234642 33.732915 1.463146 0.679771 0.024864 0.005700 4976.960000 0 0 1
2.545115 19.661776 26.414212 33.026862 1.442067 0.643868 0.025698 0.009357 -305420.000000 0 0 1
3.328915 19.201176 25.359242 31.982151 1.399132 0.655212 0.033647 0.011240 -251034.000000 0 0 1
4.145515 17.896776 25.646422 31.547089 1.343176 0.621584 0.039464 0.004578 756544.000000 0 0 1
5.294915 17.977076 26.507762 32.463408 1.284359 0.615400 0.028553 0.003087 -256214.000000 0 0 1
6.476515 18.039676 25.800012 32.140563 1.226113 0.638947 0.048682 0.004560 -1478030.000000 0 0 1
7.681515 18.072276 26.752462 33.185947 1.168888 0.633200 0.046649 -0.007551 -476476.000000 0 0 1
7.920815 19.233776 27.564622 34.532388 1.180144 0.646453 0.035829 -0.003686 202754.000000 0 0 1
8.416815 20.314376 26.780392 34.651206 1.178000 0.687467 0.032521 -0.001273 -429092.000000 0 0 1
8.945215 21.508476 27.562642 36.087819 1.176665 0.701669 0.023611 -0.001365 450761.000000 0 0 1
10.133715 21.252376 28.334512 36.840199 1.125858 0.693334 0.038485 -0.012262 681042.000000 0 0 1
10.433815 22.265476 29.288962 38.242113 1.132575 0.698384 0.048618 -0.034737 1512480.000000 0 0 1
11.789015 22.030876 30.119622 39.134793 1.079454 0.692522 0.059905 -0.033322 1414590.000000 0 0 1
13.038215 22.170876 29.494122 39.133694 1.039189 0.717159 0.062038 -0.035895 280409.000000 0 0 1
14.117115 21.997376 30.430012 40.114375 1.000233 0.709663 0.061399 -0.032614 23194.500000 0 0 1
15.471015 21.885676 29.774112 40.060365 0.955454 0.732909 0.054464 -0.032976 -641142.000000 0 0 1
15.905115 23.060976 29.157162 40.434161 0.967018 0.765404 0.049453 -0.033224 632907.000000 0 0 1
17.212615 22.948676 28.559502 40.479143 0.927264 0.787617 0.074060 -0.030124 821469.000000 0 0 1
-8.629355 16.982276 4.423299 19.555793 -1.100659 1.342633 0.023233 -0.011317 72593.800000 0 1 0
-8.533355 18.379376 4.654599 20.791463 -1.136123 1.345012 0.029604 -0.015775 -527114.000000 0 1 0
-7.269555 18.647076 5.167299 20.670290 -1.199071 1.318130 0.029438 -0.007975 -538262.000000 0 1 0
-7.126855 20.144176 5.605199 22.090680 -1.230747 1.314256 0.039469 -0.008809 -83548.200000 0 1 0
-7.243555 21.206976 4.648599 22.886992 -1.241656 1.366262 0.046893 -0.016223 1373730.000000 0 1 0
-8.591855 21.404376 4.120499 23.429593 -1.189078 1.394010 0.041945 -0.021568 1502460.000000 0 1 0
-8.621955 22.494676 3.056999 24.283612 -1.204779 1.444574 0.066355 -0.031890 -17502.900000 0 1 0
-7.902255 22.111676 1.891099 23.557337 -1.227563 1.490433 0.038778 -0.034749 -994172.000000 0 1 0
-8.558255 21.293576 0.996999 22.970723 -1.188638 1.527380 0.053751 -0.036666 -1933150.000000 0 1 0
-7.734255 21.031976 -0.324001 22.411330 -1.218408 1.585254 0.033811 -0.024776 713287.000000 0 1 0
-6.548355 20.279376 -0.083401 21.310585 -1.258459 1.574710 0.027200 -0.021484 390835.000000 0 1 0
-5.568955 21.059076 0.624499 21.791924 -1.312270 1.542135 0.030648 -0.032251 -1216610.000000 0 1 0
-4.163255 21.051476 -0.047201 21.459254 -1.375550 1.572996 0.024213 -0.019898 -2713.550000 0 1 0
-4.195855 21.570476 -1.361001 22.016879 -1.378677 1.632652 0.024718 -0.014243 509750.000000 0 1 0
-2.864955 21.611276 -1.867801 21.880217 -1.438997 1.656265 0.024700 -0.008669 606178.000000 0 1 0
-2.996755 21.839376 -3.390601 22.303253 -1.434430 1.723411 0.026933 -0.002336 -178053.000000 0 1 0
-1.764055 22.300976 -3.858501 22.700957 -1.491859 1.741596 0.039330 -0.003347 -249718.000000 0 1 0
-1.727855 22.397476 -5.312201 23.083585 -1.493804 1.803007 0.049331 -0.018536 -496873.000000 0 1 0
-0.502455 23.005976 -5.976901 23.775003 -1.548960 1.824917 0.053927 -0.021857 -134955.000000 0 1 0
0.618645 22.120676 -6.033001 22.936960 1.542837 1.836953 0.048878 -0.013971 18391.300000 0 1 0
1.660945 22.683276 -6.792401 23.736606 1.497703 1.861010 0.064051 -0.017211 240863.000000 0 1 0
2.956345 21.808976 -6.675401 22.998530 1.436061 1.865288 0.054138 -0.006170 240749.000000 0 1 0
3.003545 20.644576 -7.503201 22.170202 1.426322 1.916051 0.060108 -0.019853 -653871.000000 0 1 0
4.230945 20.004876 -7.440901 21.759204 1.362372 1.919804 0.059359 -0.011421 -418175.000000 0 1 0
4.357845 18.846776 -8.442701 21.106184 1.343565 1.982325 0.046668 -0.015319 -39120.100000 0 1 0
4.618645 19.161776 -9.810501 22.017073 1.334274 2.032625 0.055418 -0.024200 -181161.000000 0 1 0
3.401745 19.161776 -10.538101 22.131360 1.395099 2.067081 0.056052 -0.026638 -41330.000000 0 1 0
3.516745 19.486976 -12.085001 23.198211 1.392252 2.118754 0.065779 -0.031973 -60404.800000 0 1 0
3.637945 20.815176 -12.366501 24.483394 1.397770 2.100291 0.096933 -0.033434 65393.100000 0 1 0
3.916145 20.933676 -13.777301 25.364720 1.385860 2.145002 0.107956 -0.034516 112130.000000 0 0 1
4.339945 22.330676 -14.270601 26.854130 1.378840 2.131063 0.103030 -0.036970 -747658.000000 0 0 1
3.355745 23.310176 -14.294101 27.548987 1.427818 2.116315 0.125913 -0.038370 -716720.000000 0 0 1
3.664245 24.528076 -14.965101 28.965626 1.422503 2.113730 0.107914 -0.039640 -788608.000000 0 0 1
2.444845 25.362276 -15.308101 29.724742 1.474696 2.111798 0.110351 -0.029937 -293446.000000 0 0 1
1.677645 25.691576 -14.149201 29.378078 1.505589 2.073304 0.124457 -0.038731 44056.600000 0 0 1
1.498345 27.094176 -14.162301 30.608989 1.515551 2.051817 0.093631 -0.028479 -23340.600000 0 0 1
0.424945 27.487976 -13.102901 30.454153 1.555338 2.015566 0.096457 -0.028732 1518570.000000 0 0 1
-0.986255 27.244676 -13.325301 30.344831 -1.534612 2.025426 0.092571 -0.039404 1108430.000000 0 0 1
-1.469155 25.923276 -13.321201 29.182684 -1.514184 2.044827 0.088320 -0.043631 -413784.000000 0 0 1
-1.391555 25.101176 -12.010501 27.861400 -1.515415 2.016486 0.102111 -0.038407 -421701.000000 0 0 1
-2.366755 25.437376 -11.036301 27.829150 -1.478021 1.978578 0.084450 -0.029081 107393.000000 0 0 1
-2.562055 24.315776 -10.175501 26.483239 -1.465818 1.965164 0.112998 -0.022087 717413.000000 0 0 1
-3.760555 24.483176 -9.159001 26.409373 -1.418390 1.924963 0.073823 -0.015228 722145.000000 0 0 1
-3.371155 24.883676 -7.843501 26.307462 -1.436140 1.873548 0.080705 -0.015583 25330.900000 0 0 1
-3.146055 26.276876 -7.681701 27.556858 -1.451636 1.853297 0.082992 -0.021977 -56427.000000 0 0 1
-2.738455 26.796176 -6.318301 27.666860 -1.468954 1.801200 0.062706 -0.017541 643074.000000 0 0 1
-1.434355 26.377076 -5.888101 27.064317 -1.516471 1.790110 0.066499 -0.019881 479123.000000 0 0 1
-1.147355 26.487076 -4.495901 26.890421 -1.527506 1.738779 0.066609 -0.028374 -614252.000000 0 0 1
-1.989555 25.734176 -3.485401 26.045233 -1.493638 1.705020 0.055948 -0.024254 -982878.000000 0 0 1
-3.263255 26.264176 -3.343201 26.676446 -1.447182 1.696451 0.047053 -0.019845 -601615.000000 0 0 1
-4.019755 25.711876 -2.284901 26.124314 -1.415713 1.658371 0.042690 -0.018873 994736.000000 0 0 1
-5.248655 24.807576 -2.709601 25.501101 -1.362296 1.677252 0.046444 -0.021679 1327080.000000 0 0 1
-6.407355 25.481776 -3.237201 26.473659 -1.324455 1.693383 0.037513 -0.017909 933174.000000 0 0 1
-7.439755 24.594876 -3.676101 25.957111 -1.277055 1.712896 0.020356 -0.012673 -277183.000000 0 0 1
-8.761055 25.236576 -3.977901 27.008602 -1.236656 1.718617 0.027087 -0.010964 -642965.000000 0 0 1
-9.413055 25.585876 -2.747601 27.400584 -1.218264 1.671240 0.032603 -0.019950 -506716.000000 0 0 1
-10.639155 26.257476 -2.923001 28.481408 -1.185827 1.673606 0.040657 -0.019993 255589.000000 0 0 1
-11.479655 26.250076 -1.591201 28.694615 -1.158538 1.626278 0.042730 -0.019134 301452.000000 0 0 1
-12.071755 24.987476 -1.247601 27.778729 -1.120750 1.615724 0.054881 -0.017666 536780.000000 0 0 1
-11.121555 24.049576 -0.717401 26.506335 -1.137643 1.597865 0.059124 -0.022147 398420.000000 0 0 1
-11.761855 22.702376 -0.231201 25.569368 -1.092782 1.579839 0.064150 -0.026234 133886.000000 0 0 1
-12.409455 22.843176 1.042099 26.017134 -1.073154 1.530731 0.066352 -0.026835 110434.000000 0 0 1
-13.257955 21.745476 1.298599 25.501480 -1.023284 1.519852 0.067297 -0.028739 -606678.000000 0 0 1
-14.204955 21.894976 2.456999 26.214645 -0.995281 1.476932 0.068487 -0.027330 -586323.000000 0 0 1
-13.675255 21.803376 3.795799 26.015532 -1.010611 1.424369 0.057217 -0.027195 -23788.500000 0 0 1
-13.460055 23.073676 4.344499 27.063671 -1.042709 1.409570 0.066660 -0.022136 76650.400000 0 0 1
-13.200055 23.097976 5.895799 27.249191 -1.051611 1.352706 0.069085 -0.016996 -311696.000000 0 0 1
-11.888555 22.735176 6.240299 26.403926 -1.088986 1.332199 0.071375 -0.017257 -205224.000000 0 0 1
-11.778155 22.389476 7.632399 26.424744 -1.086521 1.277786 0.064310 -0.014885 287542.000000 0 0 1
-10.337655 21.971376 8.036899 25.577338 -1.131021 1.251162 0.064359 -0.022590 -97904.200000 0 0 1
-9.455355 23.010076 8.342199 26.238514 -1.180910 1.247243 0.077986 -0.023109 62612.400000 0 0 1
-8.274855 22.576976 8.994999 25.673003 -1.219483 1.212832 0.078381 -0.022194 152559.000000 0 0 1
-8.516855 22.414676 10.524699 26.186329 -1.207677 1.157188 0.057758 -0.020877 -256553.000000 0 0 1
-9.294455 21.295476 10.872099 25.653201 -1.159266 1.133148 0.060718 -0.020820 86807.200000 0 0 1
-8.887655 20.918676 12.218199 25.804376 -1.169038 1.077544 0.044767 -0.020330 426107.000000 0 0 1
-9.837655 19.824476 12.866299 25.599433 -1.110163 1.044192 0.041161 -0.019270 240839.000000 0 0 1
-10.060655 18.712676 12.003199 24.402005 -1.077493 1.056533 0.057545 -0.020946 8157.430000 0 1 0
-10.719855 17.609676 12.606799 24.165003 -1.023969 1.021958 0.042370 -0.014809 -19763.800000 0 1 0
-10.964755 16.430576 11.588999 22.901847 -0.982329 1.040222 0.033481 -0.018228 -159930.000000 0 1 0
-11.597455 15.326676 12.186199 22.757667 -0.923031 1.005724 0.028604 -0.017898 33875.800000 0 1 0
-11.768955 14.262076 11.261299 21.650219 -0.880882 1.023773 0.018498 -0.010060 47209.800000 0 1 0
-11.875055 12.944376 12.000899 21.274289 -0.828456 0.971449 0.014514 -0.008805 -554753.000000 0 1 0
-12.961455 12.840676 12.842499 22.311703 -0.780717 0.957465 0.021221 -0.009425 -575457.000000 0 1 0
-12.874155 11.623876 13.558699 22.015828 -0.734407 0.907317 0.015161 0.005231 672024.000000 0 1 0
-13.850755 11.622076 14.817999 23.377108 -0.698128 0.884252 0.023422 0.000195 870571.000000 0 1 0
-15.231755 11.681676 14.533899 24.077005 -0.654248 0.922735 0.038434 -0.013571 241481.000000 0 1 0
-16.088855 11.808176 15.651799 25.362632 -0.633140 0.905718 0.043608 -0.011991 626111.000000 0 0 1
-16.995155 13.119576 15.652599 26.569954 -0.657408 0.940841 0.059455 -0.008188 396258.000000 0 0 1
-18.182255 12.920676 14.918099 26.834455 -0.617818 0.981314 0.048999 -0.008073 255368.000000 0 0 1
-18.955255 14.121576 14.725199 27.848736 -0.640290 1.013662 0.070730 -0.008903 -2727.520000 0 0 1
-20.164255 13.905776 13.818599 28.123326 -0.603729 1.057149 0.079610 -0.012369 -640436.000000 0 0 1
-21.108955 13.092676 14.465799 28.744834 -0.555171 1.043442 0.074855 -0.006292 -279690.000000 0 0 1
-22.244955 13.047776 13.630399 29.169681 -0.530471 1.084585 0.061403 -0.006237 101780.000000 0 0 1
-23.431855 12.195076 14.152099 29.967543 -0.479872 1.078957 0.061359 -0.005686 313227.000000 0 0 1
-24.045655 12.634776 15.357599 31.203957 -0.483799 1.056217 0.071818 -0.013337 885638.000000 0 0 1
-25.132585 11.789876 15.781199 31.932652 -0.438629 1.053879 0.058042 -0.009158 1022200.000000 0 0 1
-26.010565 12.280076 17.018299 33.421135 -0.441095 1.036532 0.055077 -0.010564 -49700.400000 0 0 1
-27.006345 13.211276 16.692499 34.387789 -0.454964 1.063954 0.066719 -0.010025 -259874.000000 0 0 1
-27.635765 13.509376 17.909699 35.594889 -0.454677 1.043552 0.070552 0.003299 245157.000000 0 0 1
-28.846535 14.483476 17.710799 36.818013 -0.465316 1.068960 0.077047 -0.002656 350326.000000 0 0 1
-28.403155 15.741676 17.310599 36.799408 -0.506080 1.081047 0.077642 0.004806 171729.000000 0 0 1
-29.493445 16.682076 17.230599 38.013794 -0.514756 1.100363 0.088058 0.003975 345591.000000 0 0 1
-29.037775 18.188476 16.937499 38.221616 -0.559586 1.111699 0.097576 -0.009835 -103654.000000 0 0 1
-28.272125 18.768476 17.963099 38.395855 -0.586051 1.083952 0.084400 -0.017600 140074.000000 0 0 1
-28.991955 19.033676 19.158599 39.621537 -0.580942 1.066102 0.100087 -0.017696 -224503.000000 0 0 1
-27.997465 19.334676 20.330899 39.636261 -0.604380 1.032194 0.094723 -0.032068 532646.000000 0 0 1
-27.487415 18.198176 21.034099 39.104539 -0.584803 1.002859 0.102545 -0.027199 771069.000000 0 0 1
-26.550905 17.366476 20.298399 37.663909 -0.579240 1.001624 0.096114 -0.016072 44037.200000 0 0 1
-26.318805 15.951076 20.910099 37.206835 -0.544872 0.973999 0.095389 -0.010540 -34878.100000 0 0 1
-27.497025 15.183276 20.965999 37.764949 -0.504515 0.982228 0.097162 -0.010917 -101340.000000 0 0 1
-27.262565 13.805476 21.295199 37.246800 -0.468746 0.962181 0.076521 0.000690 -761171.000000 0 0 1
-28.441615 12.988076 21.781099 38.105536 -0.428376 0.962343 0.083309 -0.011266 18605.900000 0 0 1
-29.300335 12.529276 20.687099 37.992742 -0.404084 0.995002 0.075784 -0.010740 512747.000000 0 0 1
-30.153145 11.481076 21.021299 38.508730 -0.363810 0.993353 0.105405 -0.010124 -756584.000000 0 0 1
-31.112165 11.103576 19.888899 38.559364 -0.342798 1.028856 0.116207 -0.016833 -863894.000000 0 0 1
-30.584435 10.563976 18.720599 37.382698 -0.332574 1.046294 0.130722 -0.022644 128426.000000 0 0 1
-30.024185 9.268176 18.822199 36.628213 -0.299410 1.031105 0.129677 -0.024971 308359.000000 0 0 1
-29.090515 8.909576 17.586899 35.141680 -0.297200 1.046670 0.132303 -0.031867 578385.000000 0 0 1
-29.808055 8.631476 16.361499 35.081636 -0.281859 1.085598 0.138867 -0.029778 415773.000000 0 0 1
-30.389835 9.697776 15.694999 35.551680 -0.308898 1.113560 0.133241 -0.030858 -296028.000000 0 0 1
-29.413245 10.676576 15.002999 34.701848 -0.348196 1.123710 0.121667 -0.016828 -132308.000000 0 0 1
-29.058005 10.359876 13.662299 33.739489 -0.342475 1.153889 0.110680 -0.023532 413179.000000 0 0 1
-28.147015 11.358376 13.188299 33.093782 -0.383552 1.160901 0.083709 -0.014344 67967.500000 0 0 1
-27.749895 11.303076 11.706299 32.169141 -0.386800 1.198346 0.096610 -0.013705 -331975.000000 0 0 1
-26.995485 10.204676 11.293599 30.990918 -0.361411 1.197790 0.114241 -0.012478 635353.000000 0 0 1
-27.832225 9.063476 11.012099 31.273722 -0.314817 1.210961 0.123713 -0.009383 161839.000000 0 0 1
-27.082945 7.856876 10.436199 30.068766 -0.282354 1.216343 0.140061 -0.016490 -158402.000000 0 0 1
-26.767785 8.157676 9.079399 29.419339 -0.295815 1.257054 0.140785 -0.013942 146512.000000 0 0 1
-26.223155 7.088876 8.357499 28.421010 -0.264018 1.272324 0.155168 -0.025838 -83111.900000 0 0 1
-25.478025 7.435476 7.047699 27.460629 -0.283953 1.311245 0.153316 -0.023222 -493634.000000 0 0 1
-26.293975 8.044776 6.158399 28.178315 -0.296911 1.350467 0.167262 -0.026936 -671159.000000 0 0 1
-25.636925 8.060376 4.948699 27.326017 -0.304619 1.388693 0.164000 -0.034054 180471.000000 0 0 1
-26.563095 8.517276 3.768599 28.148612 -0.310286 1.436511 0.160610 -0.032493 43675.600000 0 0 1
-27.484235 7.651776 3.167199 28.704774 -0.271530 1.460234 0.182495 -0.035448 459177.000000 0 0 1
-26.840605 6.639876 2.369699 27.751064 -0.242513 1.485301 0.187337 -0.030410 483103.000000 0 0 1
-25.867135 7.023876 1.177299 26.829640 -0.265144 1.526902 0.189792 -0.024542 -183609.000000 0 0 1
-24.775555 7.714076 1.638399 26.000374 -0.301844 1.507740 0.168233 -0.023896 -927871.000000 0 0 1
-23.618955 7.514676 0.841099 24.799856 -0.308036 1.536874 0.153633 -0.015720 97017.700000 0 1 0
-22.419255 8.311476 1.404599 23.951546 -0.355021 1.512119 0.115929 -0.016963 -262697.000000 0 1 0
-22.630355 9.723676 1.379199 24.669517 -0.405823 1.514860 0.106418 -0.024084 1170290.000000 0 1 0
-21.520855 10.500876 1.899499 24.021318 -0.453953 1.491638 0.103781 -0.020850 880814.000000 0 1 0
-21.961755 11.969076 2.318899 25.118813 -0.498994 1.478347 0.108011 -0.022961 5500.880000 0 0 1
-20.801755 12.645976 2.720699 24.495631 -0.546229 1.459498 0.095133 -0.023779 335683.000000 0 1 0
-21.056755 13.983476 3.113799 25.468025 -0.586213 1.448227 0.081952 -0.029393 176372.000000 0 0 1
-19.801955 14.532276 3.853899 24.862764 -0.633105 1.415162 0.050312 -0.022758 344631.000000 0 1 0
-19.484155 13.760376 4.991899 24.370050 -0.614898 1.364499 0.056587 -0.022960 491124.000000 0 1 0
-18.405955 14.329776 5.740199 24.022314 -0.661518 1.329509 0.054008 -0.026090 345378.000000 0 1 0
-17.858755 13.457976 6.915199 23.406671 -0.645787 1.270883 0.025095 -0.021536 -4901.700000 0 1 0
-17.266455 12.242376 6.580299 22.165437 -0.616758 1.269381 0.044090 -0.020338 -62078.600000 0 1 0
-16.576755 11.710576 7.690299 21.704081 -0.615039 1.208604 0.024072 -0.007968 -74901.600000 0 1 0
10.907445 -32.152068 -14.252101 36.821871 -1.243734 1.968232 0.051563 -0.015808 391930.000000 0 0 1
11.989745 -32.418568 -13.336301 37.048272 -1.216555 1.939033 0.028374 -0.014928 505657.000000 0 0 1
12.887545 -31.339168 -13.352001 36.421260 -1.180648 1.946147 0.022169 -0.024747 -506111.000000 0 0 1
14.226545 -31.641268 -12.673401 36.934801 -1.148259 1.921042 0.046833 -0.014830 -209933.000000 0 0 1
15.063445 -32.491368 -13.453601 38.256970 -1.136679 1.930144 0.040132 -0.018351 150808.000000 0 0 1
16.426045 -32.181068 -13.211901 38.470643 -1.098843 1.921361 0.043501 -0.019643 133844.000000 0 0 1
17.402245 -33.198268 -13.785101 39.937352 -1.087983 1.923214 0.038750 -0.021924 -95153.000000 0 0 1
17.467045 33.907676 -12.941201 40.277821 1.095114 1.897897 0.036441 -0.018495 -132993.000000 0 0 1
18.169545 32.900476 -13.676601 39.995289 1.066221 1.919793 0.025739 0.001302 -53961.200000 0 0 1
18.205145 31.604476 -12.870101 38.676992 1.048188 1.910024 0.016901 -0.003007 -147726.000000 0 0 1
19.016745 31.757576 -11.724301 38.828333 1.031253 1.877536 0.018864 -0.005771 92663.500000 0 0 1
18.687045 30.711576 -10.830901 37.546171 1.024173 1.863424 0.012314 -0.007068 482846.000000 0 0 1
19.788345 30.664876 -9.702401 37.763075 0.997725 1.830639 0.013673 -0.004209 78957.600000 0 0 1
20.969145 30.088376 -10.170501 38.058567 0.962142 1.841317 0.031388 -0.006786 -322857.000000 0 0 1
21.801145 29.891676 -9.023301 38.081783 0.940650 1.810017 0.028255 -0.006523 -368655.000000 0 0 1
23.074345 29.081076 -9.164001 38.237590 0.900063 1.812811 0.038961 0.008436 258536.000000 0 0 1
24.063345 29.738976 -10.015801 39.544501 0.890500 1.826865 0.055310 -0.001120 862439.000000 0 0 1
25.277245 28.980976 -9.943701 39.720439 0.853554 1.823830 0.051310 0.008139 476460.000000 0 0 1
26.409245 29.579676 -10.805001 41.099313 0.841964 1.836823 0.050159 0.003429 63874.000000 0 0 1
27.276045 30.537676 -10.213001 42.199972 0.841755 1.815238 0.071158 -0.021241 -213169.000000 0 0 1
28.230645 30.893776 -11.146801 43.308728 0.830411 1.831106 0.078587 -0.017283 -472700.000000 0 0 1
28.693645 32.387376 -11.162601 44.686363 0.845797 1.823269 0.082840 -0.024447 -127518.000000 0 0 1
27.769745 33.382776 -11.568101 44.937617 0.876929 1.831154 0.092935 -0.021684 -325520.000000 0 0 1
28.242745 -33.579068 -11.313001 45.312144 -0.871503 1.823134 0.092921 -0.022634 -464706.000000 0 0 1
27.415145 -32.380268 -11.727501 44.018248 -0.868243 1.840477 0.089930 -0.021764 72017.900000 0 0 1
26.180545 -32.285768 -11.026301 43.004314 -0.889444 1.830092 0.088333 -0.017321 732302.000000 0 0 1
25.158545 -31.405468 -11.529701 41.859166 -0.895392 1.849844 0.089344 -0.021328 905944.000000 0 0 1
25.424245 -29.923768 -11.038501 40.788143 -0.866515 1.844844 0.073868 -0.024989 50613.800000 0 0 1
26.477045 -29.287768 -11.748801 41.192737 -0.835759 1.860027 0.072453 -0.017996 -122122.000000 0 0 1
26.805045 -28.023868 -11.189201 40.361440 -0.807624 1.851701 0.057360 -0.010693 -38091.800000 0 0 1
27.855145 -27.345468 -12.092301 40.864501 -0.776165 1.871207 0.079454 -0.010984 1617070.000000 0 0 1
29.156045 -28.020068 -12.225801 42.245347 -0.765533 1.864396 0.066202 -0.004686 1511110.000000 0 0 1
29.149645 -28.951268 -13.288101 43.179293 -0.781984 1.883616 0.081756 -0.013446 77925.800000 0 0 1
30.572745 -29.498768 -13.627101 44.615781 -0.767522 1.881189 0.093071 -0.009196 504664.000000 0 0 1
30.955745 -30.515768 -12.717701 45.290287 -0.778241 1.855428 0.091520 -0.015955 -456104.000000 0 0 1
32.081045 -31.161768 -13.216401 46.636064 -0.770864 1.858128 0.084686 -0.028581 -390676.000000 0 0 1
32.552045 -32.325368 -12.256801 47.484673 -0.781904 1.831873 0.060683 -0.025575 768208.000000 0 0 1
33.820445 -32.914168 -12.592201 48.843919 -0.771819 1.831546 0.045987 -0.032172 540791.000000 0 0 1
34.309345 -33.864868 -11.636301 49.591974 -0.778879 1.807645 0.044747 -0.023274 46980.000000 0 0 1
33.460145 33.151276 -11.167401 48.407636 0.780761 1.803588 0.053006 -0.021704 663882.000000 0 0 1
32.379145 33.433976 -10.262901 47.660958 0.801424 1.787828 0.055878 -0.031305 270281.000000 0 0 1
32.156445 32.406576 -9.323901 46.595689 0.789272 1.772259 0.073494 -0.027500 31155.200000 0 0 1
31.378945 32.843776 -8.027401 46.127985 0.808203 1.745711 0.064051 -0.031344 53409.700000 0 0 1
30.219145 33.544376 -8.371901 45.918521 0.837500 1.754143 0.058733 -0.031591 -900148.000000 0 0 1
29.468345 33.962476 -7.291301 45.552126 0.856131 1.731553 0.052512 -0.030856 122240.000000 0 0 1
28.419845 -33.218368 -7.574901 44.368082 -0.863091 1.742365 0.048700 -0.030042 -36886.300000 0 0 1
29.091845 -31.954568 -7.606001 43.878025 -0.832258 1.745021 0.025681 -0.030733 218278.000000 0 0 1
28.356545 -30.848568 -8.099601 42.677058 -0.827465 1.761743 0.034017 -0.017739 -40481.100000 0 0 1
27.218245 -30.326068 -7.201401 41.380713 -0.839353 1.745715 0.029263 -0.020133 233806.000000 0 0 1
26.598645 -29.135868 -7.715701 40.198492 -0.830890 1.763935 0.026904 -0.020348 -158815.000000 0 0 1
25.586545 -28.689768 -6.851001 39.047538 -0.842511 1.747162 0.024996 -0.023725 -318428.000000 0 0 1
24.660945 -27.671668 -7.549201 37.826893 -0.842865 1.771718 0.077075 -0.033338 -377533.000000 0 0 1
23.732745 -28.398768 -8.347601 37.939631 -0.874665 1.792635 0.107335 -0.035258 144311.000000 0 0 1
22.946945 -27.476068 -9.097401 36.935881 -0.874980 1.819660 0.133357 -0.037870 383559.000000 0 0 1
21.632245 -28.143568 -9.635801 36.781287 -0.915473 1.835865 0.113305 -0.027730 261461.000000 0 0 1
21.796245 -29.184168 -10.647501 37.949456 -0.929313 1.855185 0.118545 -0.029704 214965.000000 0 0 1
20.541745 -29.656568 -11.119901 37.750861 -0.965017 1.869792 0.104529 -0.025934 688376.000000 0 0 1
20.003745 -30.904468 -10.349901 38.240769 -0.996338 1.844866 0.095673 -0.033247 33102.000000 0 0 1
20.879545 -31.956568 -10.647601 39.630153 -0.992054 1.842813 0.086430 -0.021986 -252207.000000 0 0 1
20.464445 -33.209668 -10.200101 40.320188 -1.018536 1.826553 0.082101 -0.027436 -679255.000000 0 0 1
21.504845 33.959376 -10.294401 41.493039 1.006285 1.821514 0.059979 -0.014160 -81454.500000 0 0 1
22.636745 -34.072068 -9.470101 41.988222 -0.984380 1.798296 0.048335 -0.007031 991991.000000 0 0 1
23.796245 33.423376 -9.887601 42.203649 0.952086 1.807277 0.059621 -0.015099 1247170.000000 0 0 1
25.184545 33.701976 -9.259201 43.079198 0.929043 1.787421 0.066269 -0.017843 166561.000000 0 0 1
25.394945 33.311476 -7.890801 42.624200 0.919439 1.756995 0.060947 -0.029155 128533.000000 0 0 1
25.610245 31.931776 -7.532201 41.620392 0.894819 1.752773 0.056384 -0.014067 -373848.000000 0 0 1
25.688645 31.772576 -6.001501 41.296744 0.890884 1.716639 0.049364 -0.019653 -719851.000000 0 0 1
26.819945 32.199676 -5.288101 42.238520 0.876299 1.696322 0.059809 -0.037908 86516.800000 0 0 1
27.848045 31.231076 -5.141201 42.158340 0.842598 1.693050 0.074687 -0.034344 179867.000000 0 0 1
27.445145 30.077376 -4.138001 40.926857 0.831126 1.672077 0.068380 -0.020752 -647559.000000 0 0 1
27.314545 30.568276 -2.844201 41.092497 0.841551 1.640066 0.073595 -0.027062 -65673.800000 0 0 1
27.080945 29.515076 -1.942401 40.103494 0.828381 1.619250 0.058834 -0.019433 -85709.000000 0 0 1
25.687445 28.858276 -1.887301 38.680833 0.843464 1.619607 0.044456 -0.007794 -151767.000000 0 0 1
24.688545 29.608876 -1.215001 38.570533 0.875769 1.602302 0.033529 -0.004343 -48990.600000 0 0 1
23.462745 28.909376 -1.273401 37.254181 0.889024 1.604984 0.029688 0.000209 -420065.000000 0 0 1
22.241445 29.505476 -0.636401 36.954837 0.924863 1.588018 0.037274 -0.005010 -411484.000000 0 0 1
22.201145 29.316476 0.795599 36.782871 0.922644 1.549165 0.052702 -0.021100 -82404.300000 0 0 1
21.088245 30.062976 1.243399 36.742926 0.959085 1.536949 0.038406 -0.021409 -185797.000000 0 0 1
20.512145 29.359276 2.547099 35.905472 0.960970 1.499798 0.046328 -0.026709 -354824.000000 0 0 1
19.761645 28.259576 2.076799 34.546191 0.960547 1.510643 0.060985 -0.022003 73243.000000 0 0 1
19.461445 27.435176 3.175699 33.786414 0.953815 1.476664 0.090668 -0.017640 485972.000000 0 0 1
18.621445 26.102876 2.799799 32.186289 0.951142 1.483699 0.101988 -0.009496 354848.000000 0 0 1
19.333245 25.121676 2.131399 31.771305 0.914879 1.503660 0.099975 -0.015640 -168510.000000 0 0 1
20.180545 24.394476 3.003399 31.801969 0.879654 1.476215 0.084029 -0.005123 458970.000000 0 0 1
21.274745 23.505876 2.287099 31.786346 0.835181 1.498782 0.071417 -0.003350 76357.300000 0 0 1
20.744445 22.493076 1.496799 30.635125 0.825819 1.521918 0.080986 -0.006404 186460.000000 0 0 1
21.726145 21.624976 0.951099 30.668706 0.783064 1.539779 0.054284 -0.006960 44058.900000 0 0 1
21.093245 20.617276 -0.023401 29.495722 0.773987 1.571590 0.095701 -0.015074 -524549.000000 0 0 1
20.976245 21.197276 -1.325701 29.851044 0.790639 1.615221 0.067994 -0.003302 349250.000000 0 0 1
21.175945 20.215476 -2.370901 29.371879 0.762198 1.651604 0.117626 -0.019936 -64017.300000 0 0 1
21.237845 20.912876 -3.768501 30.043236 0.777689 1.696564 0.088959 -0.011400 -588395.000000 0 0 1
22.400345 21.675376 -3.923501 31.416417 0.768951 1.696010 0.074347 -0.002362 -149270.000000 0 0 1
22.498745 22.452476 -5.063801 32.186166 0.784369 1.728781 0.054593 -0.004422 -136144.000000 0 0 1
23.728745 23.399976 -5.083001 33.711261 0.778422 1.722154 0.053128 0.003807 -108769.000000 0 0 1
23.657245 24.628176 -4.374001 34.428828 0.805504 1.698185 0.024829 0.005660 -124306.000000 0 0 1
23.780345 24.567076 -2.942601 34.317706 0.801669 1.656648 0.038239 0.004289 -340590.000000 0 0 1
22.511745 24.255976 -2.120801 33.160652 0.822677 1.634795 0.036199 -0.005269 -1074610.000000 0 0 1
21.624245 25.376676 -2.081001 33.405302 0.865067 1.633132 0.052050 -0.011192 739593.000000 0 0 1
20.437045 25.187676 -1.322701 32.462923 0.889148 1.611553 0.069107 -0.009825 439522.000000 0 0 1
19.464645 24.049676 -1.755401 30.989365 0.890379 1.627472 0.090367 -0.021615 -1140830.000000 0 0 1
18.775345 24.417376 -2.944601 30.941760 0.915287 1.666106 0.075100 -0.017921 -14285.700000 0 0 1
18.100545 23.328576 -3.547801 29.739521 0.910927 1.690377 0.076399 -0.019738 -22220.800000 0 0 1
17.434045 23.672276 -4.868601 29.799763 0.936007 1.734909 0.071641 -0.014986 -197051.000000 0 0 1
16.824045 22.540076 -5.483001 28.656008 0.929599 1.763322 0.080403 -0.024330 303472.000000 0 0 1
16.197645 22.921176 -6.712001 28.858187 0.955610 1.805532 0.081124 -0.023169 -146658.000000 0 0 1
15.383445 21.778676 -7.320501 27.650513 0.955819 1.838742 0.097756 -0.025152 -1086300.000000 0 0 1
16.088545 20.698876 -7.796101 27.350758 0.910072 1.859846 0.088851 -0.022107 -524029.000000 0 0 1
15.468045 19.941876 -8.772701 26.718891 0.911076 1.905335 0.094618 -0.027737 -350853.000000 0 0 1
16.201845 18.577376 -9.078601 26.268606 0.853595 1.923681 0.074568 -0.026752 435046.000000 0 0 1
17.547745 18.784376 -9.500301 27.404960 0.819422 1.924808 0.091548 -0.024742 475454.000000 0 0 1
18.071345 17.583876 -10.001301 27.125490 0.771727 1.948412 0.091088 -0.027358 483952.000000 0 0 1
19.553245 17.693876 -10.498801 28.383577 0.735520 1.949687 0.085008 -0.028147 323431.000000 0 0 1
19.759445 18.339676 -11.769501 29.415991 0.748150 1.982428 0.086861 -0.025715 -30941.400000 0 0 1
21.144545 18.517976 -11.932701 30.535169 0.719272 1.972281 0.081267 -0.017190 -135665.000000 0 0 1
21.498845 18.848976 -13.407201 31.579064 0.719817 2.009272 0.075026 -0.024250 -155691.000000 0 0 1
21.409645 17.683176 -14.225501 31.199880 0.690362 2.044233 0.069807 -0.022483 318943.000000 0 0 1
21.681545 18.161976 -15.528901 32.265981 0.697292 2.072908 0.056922 -0.020649 130506.000000 0 0 1
21.485645 17.045576 -16.666001 32.092681 0.670671 2.116838 0.060489 -0.018777 112029.000000 0 0 1
22.530145 16.078576 -16.559701 32.254484 0.619827 2.109947 0.063570 -0.017324 454074.000000 0 0 1
22.767045 15.305876 -17.735501 32.667356 0.591880 2.144697 0.080849 -0.029351 -189575.000000 0 0 1
23.565045 15.936376 -18.901501 34.154739 0.594623 2.157247 0.087867 -0.025631 -1320540.000000 0 0 1
24.934845 15.886876 -18.850601 35.064005 0.567278 2.138391 0.106154 -0.020579 -989691.000000 0 0 1
25.560645 16.551276 -19.916901 36.386457 0.574637 2.150016 0.126869 -0.026831 213115.000000 0 0 1
27.085745 16.728776 -19.691301 37.433098 0.553277 2.124734 0.108500 -0.022138 276536.000000 0 0 1
27.377245 17.786176 -18.756001 37.651682 0.576143 2.092255 0.090155 -0.017411 805359.000000 0 0 1
28.751845 17.895576 -18.359701 38.522706 0.556738 2.067573 0.074857 -0.021147 372467.000000 0 0 1
28.853345 18.806876 -17.131301 38.466811 0.577646 2.032365 0.059181 -0.008935 -288683.000000 0 0 1
28.141145 18.390476 -16.011901 37.235932 0.578838 2.015303 0.057045 -0.016467 -136520.000000 0 0 1
26.827245 18.920076 -16.076001 36.552813 0.614245 2.026175 0.060440 -0.001820 -377884.000000 0 0 1
25.981645 18.443476 -14.890101 35.169913 0.617317 2.007965 0.061169 -0.001956 -62319.100000 0 0 1
26.435745 19.018476 -13.657701 35.314074 0.623643 1.967901 0.059491 -0.010792 466800.000000 0 0 1
25.496145 18.720076 -12.637701 34.061799 0.633333 1.950906 0.067130 -0.020367 89612.800000 0 0 1
25.954645 19.079976 -11.197701 34.103923 0.633915 1.905343 0.063887 -0.019235 -156340.000000 0 0 1
26.143845 20.462176 -11.128601 35.014954 0.664088 1.894230 0.053655 -0.004193 18641.000000 0 0 1
26.651545 20.981876 -9.903401 35.335836 0.666928 1.854867 0.051097 -0.002232 259094.000000 0 0 1
25.752945 20.937476 -8.607101 34.288107 0.682625 1.824533 0.059824 -0.007655 -348827.000000 0 0 1
25.702845 19.713876 -7.915901 33.345684 0.654288 1.810474 0.075582 -0.016905 -229129.000000 0 0 1
24.917945 19.717476 -6.764501 32.487556 0.669411 1.780549 0.085593 -0.019138 -312660.000000 0 0 1
23.457045 19.290876 -7.053301 31.178838 0.688246 1.798992 0.107826 -0.024211 -120515.000000 0 0 1
22.750745 20.367376 -7.695201 31.490356 0.730179 1.817663 0.082266 -0.016171 -708539.000000 0 0 1
21.416645 20.069876 -7.919501 30.400512 0.752947 1.834342 0.073339 -0.021079 -570331.000000 0 0 1
20.556945 21.370676 -8.054701 30.727382 0.804804 1.836030 0.075492 -0.018226 -193600.000000 0 0 1
20.885545 22.134676 -9.235701 31.803271 0.814426 1.865442 0.086700 -0.019788 -11555.100000 0 0 1
20.363945 21.775576 -10.514901 31.613749 0.818885 1.909861 0.092793 -0.019580 -580630.000000 0 0 1
18.882145 22.100376 -10.665201 30.963019 0.863764 1.922449 0.077618 -0.022534 -792343.000000 0 0 1
18.597345 23.435576 -10.399301 31.673852 0.900000 1.905326 0.079561 -0.022422 194672.000000 0 0 1
17.231245 23.706776 -10.685001 31.194491 0.942277 1.920403 0.077352 -0.017467 503082.000000 0 0 1
16.692245 25.075976 -10.146501 31.786587 0.983486 1.895689 0.074195 -0.016725 151358.000000 0 0 1
17.223745 26.136076 -10.915101 33.149529 0.988118 1.906325 0.082769 -0.018935 78185.500000 0 0 1
16.974745 27.421376 -10.402001 33.886213 1.016499 1.882802 0.074903 -0.023477 -254886.000000 0 0 1
20.783445 28.906376 33.741807 49.051398 0.947438 0.812223 0.045832 -0.015801 475672.000000 0 0 1
19.430045 29.321576 33.635793 48.668758 0.985577 0.807763 0.071027 -0.028239 316743.000000 0 0 1
18.544545 28.179976 33.622765 47.628789 0.988765 0.787056 0.060373 -0.030046 1522280.000000 0 0 1
17.014345 28.547576 33.764319 47.375957 1.033323 0.777472 0.095801 -0.038297 1190210.000000 0 0 1
16.423745 29.074976 32.570783 46.647074 1.056604 0.797862 0.094382 -0.040311 403410.000000 0 0 1
15.146445 29.667376 32.815708 46.759370 1.098751 0.792876 0.127394 -0.042185 771290.000000 0 0 1
14.088145 29.708776 31.706912 45.677297 1.127994 0.803557 0.117743 -0.047814 130259.000000 0 0 1
13.669145 28.435176 31.296702 44.439715 1.122697 0.789429 0.111723 -0.052818 -180548.000000 0 0 1
12.425445 28.524676 30.637762 43.666020 1.159979 0.793102 0.101068 -0.026721 -199284.000000 0 0 1
11.631445 27.211076 30.716162 42.652266 1.166850 0.766773 0.078725 -0.030571 -232922.000000 0 0 1
11.867045 26.214976 29.709142 41.360426 1.145714 0.769442 0.077969 -0.033042 319271.000000 0 0 1
13.211745 25.817476 29.508592 41.374500 1.097804 0.776733 0.072171 -0.030413 -156258.000000 0 0 1
13.475045 25.126876 28.096122 40.029099 1.078548 0.792745 0.068504 -0.024107 -320635.000000 0 0 1
13.092845 25.874176 26.979252 39.607772 1.102345 0.821450 0.071989 -0.027825 185946.000000 0 0 1
13.129545 25.072376 25.818722 38.309469 1.088396 0.831252 0.085057 -0.026550 411842.000000 0 0 1
11.994745 23.997976 25.574412 37.065176 1.107290 0.809328 0.076356 -0.025461 187136.000000 0 0 1
11.890245 23.687076 24.181222 35.877388 1.105573 0.831191 0.098359 -0.030924 371796.000000 0 0 1
10.957545 22.613376 23.960392 34.720786 1.119577 0.809186 0.095713 -0.031079 354676.000000 0 0 1
10.980445 22.130876 22.449792 33.381717 1.110226 0.833191 0.116420 -0.035341 -57440.800000 0 0 1
10.400845 23.147076 21.683492 33.378714 1.148494 0.863711 0.112530 -0.039716 -145867.000000 0 0 1
10.355245 22.746776 20.332292 32.218768 1.143593 0.887865 0.118332 -0.027784 -357656.000000 0 0 1
9.962845 23.881376 19.351392 32.311836 1.175567 0.928676 0.103222 -0.032778 -624638.000000 0 0 1
8.628245 24.256776 19.331692 32.195529 1.229049 0.926737 0.109847 -0.035749 -893710.000000 0 0 1
8.276445 25.233276 20.255992 33.399446 1.253856 0.919174 0.109158 -0.043298 26631.800000 0 0 1
6.888445 25.766676 19.780992 33.206323 1.309566 0.932660 0.097599 -0.041036 209130.000000 0 0 1
6.905045 26.618776 18.686092 33.247690 1.316986 0.973962 0.092204 -0.038013 241544.000000 0 0 1
5.588345 26.949176 18.247292 33.021983 1.366328 0.985340 0.072330 -0.034039 166605.000000 0 0 1
5.514245 28.072476 17.146692 33.353858 1.376837 1.030857 0.069298 -0.029660 74197.800000 0 0 1
6.182145 27.777176 15.943992 32.619033 1.351804 1.060089 0.066422 -0.023895 -567954.000000 0 0 1
7.299145 28.558676 15.681592 33.388439 1.320569 1.081878 0.061022 -0.020772 -433293.000000 0 0 1
8.092045 28.080076 14.402092 32.579014 1.290221 1.112895 0.057844 -0.021017 -95622.700000 0 0 1
7.310445 28.104876 13.217292 31.906480 1.316322 1.143677 0.052693 -0.025156 -51869.200000 0 0 1
7.173645 26.829176 12.703092 30.539064 1.309526 1.141796 0.033267 -0.023883 84583.700000 0 0 1
6.345145 26.846076 11.379292 29.840592 1.338703 1.179555 0.025408 -0.023252 34383.400000 0 0 1
6.924645 27.637776 10.307692 30.299272 1.325300 1.223671 0.014173 -0.017039 268793.000000 0 0 1
6.867145 29.053376 10.517692 31.652459 1.338693 1.232069 0.016522 -0.017980 -373608.000000 0 0 1
7.155545 29.723676 9.201792 31.927601 1.334556 1.278441 0.010919 -0.013906 -699272.000000 0 0 1
6.267445 29.699876 8.141192 31.426780 1.362822 1.308755 0.017892 -0.011693 -714967.000000 0 0 1
6.378845 28.548676 7.374092 30.167761 1.350970 1.323858 0.019615 -0.006117 -321419.000000 0 0 1
5.007545 28.000976 6.962692 29.284966 1.393832 1.330741 0.016953 -0.008842 -112780.000000 0 0 1
4.342045 29.051576 6.230592 30.027782 1.422435 1.361784 0.004116 -0.006409 -752862.000000 0 0 1
2.986845 28.738676 6.087192 29.527727 1.467237 1.363156 0.038322 -0.008443 -196047.000000 0 0 1
2.209045 29.739676 5.214292 30.274033 1.496653 1.397697 0.057900 -0.010169 -233054.000000 0 0 1
2.703345 29.670576 3.872192 30.044052 1.479935 1.441553 0.027197 -0.017497 450847.000000 0 0 1
1.875745 30.319476 2.887692 30.514387 1.509009 1.476021 0.021544 -0.019104 1089380.000000 0 0 1
0.496745 29.686676 2.506892 29.796477 1.554065 1.486563 0.071876 -0.024638 634712.000000 0 0 1
0.706545 28.726476 1.499792 28.774277 1.546206 1.518650 0.075043 -0.031276 -206768.000000 0 0 1
-0.438655 27.910476 1.415692 27.949799 -1.555081 1.520123 0.066944 -0.030035 -60699.400000 0 0 1
-1.000355 27.887576 0.000792 27.905512 -1.534941 1.570768 0.060594 -0.035485 -255742.000000 0 0 1
-1.600255 29.107976 -0.329108 29.153789 -1.515875 1.582085 0.067564 -0.035132 -275000.000000 0 0 1
-1.525555 29.396976 -1.708108 29.486050 -1.518948 1.628758 0.061584 -0.037194 -1307160.000000 0 0 1
-2.328955 30.637076 -2.191608 30.803533 -1.494925 1.642004 0.082083 -0.035713 326464.000000 0 0 1
-3.639055 30.294476 -2.630808 30.625466 -1.451246 1.656805 0.069614 -0.029379 166366.000000 0 0 1
-3.723555 29.369876 -3.688608 29.833879 -1.444688 1.694752 0.047311 -0.023977 -214112.000000 0 0 1
-5.176655 29.160776 -4.291208 29.925960 -1.395105 1.714687 0.054543 -0.010407 803010.000000 0 0 1
-5.616955 30.272776 -5.011408 31.194637 -1.387338 1.732145 0.058315 -0.013770 -248206.000000 0 0 1
-6.579355 29.854176 -5.942308 31.142749 -1.353881 1.762782 0.040525 -0.014631 -300788.000000 0 0 1
-7.208055 30.961576 -6.825908 32.514125 -1.342064 1.782307 0.044839 -0.011983 -563002.000000 0 0 1
-8.209455 31.624576 -6.132608 33.243313 -1.316811 1.756335 0.036505 -0.008999 -561741.000000 0 0 1
-8.506655 32.773976 -6.860008 34.547886 -1.316845 1.770690 0.035555 -0.019507 -211013.000000 0 0 1
-9.526355 33.712176 -6.180108 35.573249 -1.295398 1.745411 0.038058 -0.019602 106603.000000 0 0 1
-10.856955 33.267376 -6.352608 35.566100 -1.255340 1.750374 0.037199 -0.016336 -476590.000000 0 0 1
-11.758655 -34.037268 -5.865008 36.485612 1.238168 1.732245 0.042048 -0.021527 -223871.000000 0 0 1
-13.241655 33.824276 -5.879608 36.796642 -1.197653 1.731271 0.059747 -0.022472 -2849.920000 0 0 1
-13.765155 33.957176 -7.184108 37.338730 -1.185671 1.764407 0.054420 -0.022633 318544.000000 0 0 1
-15.134055 33.647076 -7.419108 37.632546 -1.148119 1.769242 0.062435 -0.031097 -442729.000000 0 0 1
-15.446155 33.549576 -8.944908 38.002226 -1.139329 1.808404 0.086052 -0.030472 491447.000000 0 0 1
-16.791755 33.295476 -9.329608 38.439477 -1.103694 1.815954 0.104450 -0.037228 489417.000000 0 0 1
-17.749355 -33.972068 -8.969708 39.364917 1.089335 1.800676 0.090337 -0.038185 -644078.000000 0 0 1
-19.203455 33.804276 -9.221508 39.956702 -1.054180 1.803683 0.089195 -0.036251 382303.000000 0 0 1
-19.799755 32.916076 -8.238508 39.285766 -1.029258 1.782072 0.083616 -0.032256 434959.000000 0 0 1
-20.126055 33.582676 -6.974508 39.768053 -1.030893 1.747088 0.067577 -0.027916 -486324.000000 0 0 1
-20.462255 32.592176 -5.876608 38.929274 -1.010167 1.722332 0.077457 -0.035674 -764162.000000 0 0 1
-20.227655 33.120976 -4.621208 39.083407 -1.022531 1.689313 0.063305 -0.033508 525064.000000 0 0 1
-21.375455 33.314276 -3.782708 39.762545 -1.000327 1.666073 0.060075 -0.033402 187410.000000 0 0 1
-22.340455 -33.806468 -4.096608 40.727821 0.986843 1.671552 0.075109 -0.037712 -490168.000000 0 0 1
-22.971555 -33.932268 -5.330208 41.321935 0.975686 1.700149 0.086343 -0.040037 -343480.000000 0 0 1
-23.918155 -32.932468 -5.560108 41.079683 0.942650 1.706562 0.084745 -0.040807 -165903.000000 0 0 1
-24.402555 -32.848768 -6.983708 41.512630 0.931870 1.739831 0.099162 -0.037735 332664.000000 0 0 1
-23.378755 -32.279768 -7.824908 40.617469 0.943977 1.764657 0.109720 -0.027974 523304.000000 0 0 1
-23.526855 -32.450568 -9.252708 41.135932 0.943484 1.797668 0.100611 -0.017581 729955.000000 0 0 1
-24.780955 -31.718468 -9.888108 41.447939 0.907576 1.811686 0.079154 -0.013541 1152840.000000 0 0 1
-26.029175 -32.409468 -9.707508 42.686383 0.894147 1.800218 0.072896 -0.007667 586452.000000 0 0 1
-27.279045 -31.880468 -10.037808 43.142417 0.863022 1.805615 0.039005 -0.002806 326115.000000 0 0 1
-27.638545 -30.406968 -9.620608 42.202239 0.833056 1.800783 0.036890 0.009050 -804468.000000 0 0 1
-26.936535 -29.307668 -10.168108 41.084142 0.827531 1.820890 0.044932 0.008299 -217243.000000 0 0 1
-27.133855 -29.105968 -11.559308 41.436953 0.820450 1.853509 0.028013 0.009508 -87767.800000 0 0 1
-25.984155 -28.330968 -12.243308 40.344996 0.828579 1.879124 0.041732 0.009326 -552759.000000 0 0 1
-24.839155 -29.090268 -12.406208 40.213696 0.864063 1.884419 0.046899 0.002519 -390986.000000 0 0 1
-23.965255 -28.593368 -13.428608 39.651503 0.873228 1.916295 0.043278 0.000406 713100.000000 0 0 1
-22.657755 -29.474068 -13.542408 39.566291 0.915412 1.920130 0.060013 -0.016444 518514.000000 0 0 1
-22.642055 -30.673568 -14.318308 40.725230 0.934915 1.930058 0.064142 -0.020148 49094.800000 0 0 1
-23.515755 -31.677168 -13.799308 41.795390 0.932205 1.907273 0.049945 -0.018645 114057.000000 0 0 1
-23.676555 -32.883068 -14.726608 43.113205 0.946758 1.919394 0.056428 -0.025009 -165400.000000 0 0 1
-24.185155 -33.961168 -14.012408 43.984432 0.951968 1.895024 0.049270 -0.030159 -262064.000000 0 0 1
-24.216855 33.078076 -14.720808 43.558207 -0.938842 1.915542 0.056510 -0.029023 -103174.000000 0 0 1
-24.556255 31.830576 -13.806608 42.506678 -0.913697 1.901608 0.047268 -0.030472 -185604.000000 0 0 1
-23.757355 31.571076 -12.663808 41.491166 -0.925695 1.880963 0.050206 -0.030468 66993.500000 0 0 1
-23.740455 32.593976 -11.691908 41.984250 -0.941283 1.853011 0.080755 -0.029267 89992.600000 0 0 1
-23.013355 32.308376 -10.332508 40.990321 -0.951861 1.825617 0.085685 -0.030272 148990.000000 0 0 1
-23.677855 31.385276 -9.523108 40.452021 -0.924469 1.808444 0.080761 -0.020917 -264334.000000 0 0 1
-22.918355 31.034176 -8.446208 39.493158 -0.934704 1.786326 0.070176 -0.027820 -379760.000000 0 0 1
-23.629955 29.900976 -7.669208 38.874927 -0.902014 1.769378 0.065327 -0.017722 168335.000000 0 0 1
-23.772655 28.704876 -8.449508 38.216531 -0.879110 1.793734 0.066353 -0.003580 -97041.300000 0 0 1
-24.323155 27.623176 -7.763308 37.615485 -0.848840 1.778676 0.054255 -0.000284 -660337.000000 0 0 1
-23.471855 26.761176 -6.840008 36.247404 -0.850786 1.760638 0.056092 -0.001948 -571920.000000 0 0 1
-22.999755 27.399376 -5.689708 36.222746 -0.872473 1.728525 0.058445 -0.003305 -512805.000000 0 0 1
-22.009755 26.569076 -5.182108 34.888385 -0.878978 1.719882 0.054110 -0.012436 -1289570.000000 0 0 1
-20.831155 27.417476 -4.745608 34.758824 -0.921068 1.707754 0.044007 -0.017170 -525979.000000 0 0 1
-19.951355 27.532176 -5.870208 34.504154 -0.943714 1.741758 0.046979 -0.016423 477543.000000 0 0 1
-18.695855 28.176876 -5.639508 34.282290 -0.984977 1.736050 0.048817 -0.019372 224430.000000 0 0 1
-17.724055 27.882176 -6.762908 33.723802 -1.004556 1.772704 0.061628 -0.018044 -854907.000000 0 0 1
-18.038455 28.346076 -8.057308 34.551500 -1.004066 1.806160 0.065497 -0.021825 -35157.000000 0 0 1
-18.171355 29.765676 -8.139408 35.811222 -1.022706 1.800087 0.076176 -0.026186 -258377.000000 0 0 1
-18.189055 30.241876 -9.607208 36.574735 -1.029309 1.836588 0.086700 -0.027965 536726.000000 0 0 1
-16.942155 30.215076 -10.329808 36.148201 -1.059761 1.860599 0.079517 -0.028276 462027.000000 0 0 1
-17.115555 30.810776 -11.602408 37.106092 -1.063736 1.888812 0.097320 -0.031486 -560329.000000 0 0 1
-15.785955 31.196676 -12.222408 37.038038 -1.102349 1.907096 0.090211 -0.027320 -516516.000000 0 0 1
-15.858855 31.939876 -13.433708 38.106738 -1.109935 1.931068 0.094505 -0.025470 -235216.000000 0 0 1
-16.100255 31.154376 -14.608108 37.989607 -1.093807 1.965494 0.097148 -0.027821 -129307.000000 0 0 1
-15.358555 31.723576 -15.800508 38.625465 -1.119920 1.992231 0.111164 -0.037042 -258974.000000 0 0 1
-13.964455 31.700576 -15.685008 38.025676 -1.155861 1.995976 0.111787 -0.039020 -196446.000000 0 0 1
-13.284755 32.231176 -16.841708 38.716619 -1.179842 2.020834 0.101825 -0.043219 79402.700000 0 0 1
-11.767455 32.023876 -16.922608 38.083807 -1.218653 2.031247 0.113822 -0.044026 -294427.000000 0 0 1
-11.483455 30.657376 -17.070508 36.920817 -1.212399 2.051445 0.117312 -0.052095 -303067.000000 0 0 1
-10.179855 30.292876 -17.438908 36.406089 -1.246605 2.070324 0.108517 -0.045078 -78629.800000 0 0 1
-9.789455 30.365876 -18.947108 37.106776 -1.258933 2.106691 0.102267 -0.045025 326088.000000 0 0 1
-10.689855 29.617876 -19.794008 37.192665 -1.224421 2.131996 0.094885 -0.048722 781285.000000 0 0 1
-10.162855 29.602976 -21.147408 37.773439 -1.240098 2.164999 0.075087 -0.053956 -66056.300000 0 0 1
-11.292555 29.172776 -22.144308 38.326793 -1.201467 2.186798 0.077810 -0.045174 1468090.000000 0 0 1
-12.312255 30.164476 -22.449808 39.566162 -1.183266 2.174140 0.085932 -0.047244 1039260.000000 0 0 1
-13.259855 30.449976 -21.424908 39.522797 -1.160096 2.143718 0.087624 -0.043368 -126310.000000 0 0 1
-14.178955 31.683976 -21.637108 40.903320 -1.150013 2.128197 0.104217 -0.050638 255813.000000 0 0 1
-14.989455 31.669176 -22.778808 41.791083 -1.128725 2.147262 0.074870 -0.040777 143434.000000 0 0 1
-15.732855 32.905976 -22.915308 43.074788 -1.124809 2.131744 0.073161 -0.038680 621956.000000 0 0 1
-16.194255 33.166276 -24.347208 44.215861 -1.116573 2.153932 0.060748 -0.032254 409296.000000 0 0 1
-15.069455 33.542976 -25.138108 44.543734 -1.148559 2.170438 0.071522 -0.028618 265708.000000 0 0 1
-15.282555 33.590376 -26.553108 45.463584 -1.143818 2.194508 0.076376 -0.021526 -111394.000000 0 0 1
-15.921555 -33.428068 -27.168408 45.924438 1.126294 2.203825 0.061709 -0.011749 83869.900000 0 0 1
-17.249155 -33.128668 -26.801908 45.971559 1.090749 2.193226 0.057652 -0.013615 -88511.200000 0 0 1
-17.775755 -32.041968 -27.599508 45.873718 1.064302 2.216350 0.037059 -0.001956 480715.000000 0 0 1
-19.270655 -31.886768 -27.206208 46.133522 1.027187 2.201518 0.046503 -0.010761 487889.000000 0 0 1
-20.158055 -32.897468 -27.639008 47.460566 1.021052 2.192422 0.048383 -0.013365 -140692.000000 0 0 1
-21.488355 -32.618268 -27.243708 47.622688 0.988272 2.179829 0.048387 -0.007428 618079.000000 0 0 1
-22.540655 -33.752668 -27.327308 48.929597 0.981997 2.163376 0.042852 -0.003494 152272.000000 0 0 1
-22.543555 33.499776 -26.339708 48.210239 -0.978459 2.148798 0.058831 -0.012742 59142.800000 0 0 1
-23.678755 32.637676 -26.453808 48.225567 -0.943158 2.151417 0.047422 -0.010266 617893.000000 0 0 1
-23.424155 31.477476 -27.422508 47.869787 -0.931046 2.180783 0.053685 -0.008489 374616.000000 0 0 1
-22.586655 30.383876 -27.013708 46.508896 -0.931548 2.190543 0.056529 -0.035706 -195534.000000 0 0 1
-23.166555 29.533776 -26.036408 45.681810 -0.905635 2.177243 0.051460 -0.029338 -29827.600000 0 0 1
31.907935 9.840176 -26.116091 42.390985 0.299139 2.234548 0.048888 -0.004654 -171822.000000 0 0 1
31.389515 8.553676 -26.137171 41.732706 0.266041 2.247594 0.046929 -0.001572 525994.000000 0 0 1
29.974405 8.540076 -26.342621 40.808474 0.277558 2.272498 0.054733 -0.007646 700358.000000 0 0 1
29.416075 7.114776 -26.174091 40.012605 0.237310 2.283850 0.044848 0.001289 -121514.000000 0 0 1
29.599845 6.635576 -24.816101 39.192098 0.220530 2.256466 0.041506 0.005141 50967.500000 0 0 1
28.853355 5.496276 -24.461701 38.224337 0.188235 2.265231 0.038990 0.001661 -122603.000000 0 0 1
28.867195 5.333676 -22.895701 37.228701 0.182706 2.233184 0.039444 -0.003258 -153440.000000 0 0 1
30.150405 5.137976 -22.341601 37.876020 0.168790 2.201683 0.058118 -0.011788 31100.700000 0 0 1
30.122595 4.811776 -20.977801 37.021508 0.158402 2.173216 0.061982 -0.014507 825522.000000 0 0 1
31.535245 4.618176 -20.265401 37.768846 0.145411 2.137156 0.061812 -0.015816 1104620.000000 0 0 1
32.098025 3.300376 -20.370501 38.159311 0.102462 2.133917 0.083666 -0.014716 797445.000000 0 0 1
33.211555 3.226176 -19.462701 38.629164 0.096836 2.098828 0.088769 -0.019757 307069.000000 0 0 1
33.747915 1.750176 -19.282801 38.907728 0.051814 2.089326 0.093919 -0.019057 -240173.000000 0 0 1
32.816965 0.957476 -18.626101 37.746544 0.029168 2.086850 0.090589 -0.015225 -412868.000000 0 0 1
33.155475 -0.405424 -18.768701 38.101365 -0.012227 2.085870 0.091414 -0.014407 -326868.000000 0 0 1
32.135455 -1.507024 -18.465201 37.093426 -0.046862 2.091860 0.076524 -0.013591 -224338.000000 0 0 1
31.922725 -1.665424 -17.027501 36.218363 -0.052123 2.060239 0.083799 -0.013726 578700.000000 0 0 1
30.560565 -1.570524 -16.606001 34.816289 -0.051345 2.067990 0.067489 -0.017166 336231.000000 0 0 1
30.237285 -1.679824 -15.115401 33.846574 -0.055498 2.033742 0.068262 -0.019372 -410084.000000 0 0 1
30.409625 -2.977924 -14.686301 33.901339 -0.097616 2.018844 0.054390 -0.013994 347926.000000 0 0 1
29.516075 -3.322724 -13.656701 32.691660 -0.112101 2.001756 0.054343 -0.023058 -283620.000000 0 0 1
29.584225 -4.780824 -13.144701 32.724086 -0.160215 1.984150 0.051614 -0.021805 -26068.700000 0 0 1
28.921885 -5.646524 -14.068201 32.653835 -0.192808 2.016207 0.037999 -0.015712 713575.000000 0 0 1
28.506095 -6.843924 -13.425901 32.244249 -0.235627 2.000258 0.033466 -0.015147 -101549.000000 0 0 1
27.858515 -7.865424 -14.392601 32.328141 -0.275172 2.032198 0.033432 -0.007749 -820466.000000 0 0 1
26.737515 -7.437524 -15.061401 31.576214 -0.271309 2.068018 0.053962 -0.010741 -500818.000000 0 0 1
25.942915 -8.489624 -15.566601 31.423361 -0.316259 2.089072 0.048475 -0.004761 327993.000000 0 0 1
24.551515 -8.011324 -16.050701 30.406960 -0.315413 2.126879 0.047437 -0.010900 16869.800000 0 0 1
24.650215 -7.167224 -17.162801 30.879831 -0.282956 2.160113 0.039483 -0.009640 1018190.000000 0 0 1
23.363715 -6.732924 -17.684501 30.065545 -0.280577 2.199625 0.082224 -0.018416 1262890.000000 0 0 1
22.938015 -7.296924 -19.062601 30.704729 -0.307992 2.240605 0.064582 -0.011428 -16480.700000 0 0 1
23.762715 -6.805624 -20.095501 31.856119 -0.278933 2.253407 0.060155 -0.016519 494200.000000 0 0 1
23.179615 -7.001324 -21.412101 32.323229 -0.293333 2.294864 0.073890 -0.027224 407121.000000 0 0 1
23.936615 -6.032724 -22.391801 33.327887 -0.246887 2.307519 0.066568 -0.028136 201765.000000 0 0 1
23.816415 -6.463724 -23.696701 34.213082 -0.265014 2.335913 0.069075 -0.030105 145822.000000 0 0 1
23.850715 -5.396524 -24.630601 34.708005 -0.222516 2.359800 0.061398 -0.022479 -157760.000000 0 0 1
23.681215 -5.805424 -26.154511 35.756976 -0.240408 2.391245 0.066427 -0.027101 512018.000000 0 0 1
22.392915 -6.343724 -26.462811 35.241536 -0.276058 2.420218 0.079328 -0.033029 227722.000000 0 0 1
22.315715 -6.407324 -27.903071 36.299123 -0.279600 2.447600 0.067235 -0.034970 454160.000000 0 0 1
20.926715 -6.958024 -28.331451 35.902822 -0.320996 2.480163 0.062537 -0.039994 296658.000000 0 0 1
20.792715 -8.269624 -27.932021 35.789963 -0.378537 2.466170 0.064112 -0.034325 1007390.000000 0 0 1
19.553815 -8.792624 -28.469041 35.639139 -0.422573 2.496117 0.050349 -0.038132 748241.000000 0 0 1
19.655715 -10.321824 -28.512771 36.136758 -0.483550 2.480015 0.067798 -0.024481 34686.700000 0 0 1
18.795615 -10.950324 -27.573231 35.120760 -0.527527 2.473650 0.072136 -0.028598 258692.000000 0 0 1
19.132015 -12.259624 -27.219521 35.457506 -0.569874 2.445987 0.074985 -0.027791 -384055.000000 0 0 1
19.148515 -13.351224 -28.291111 36.678437 -0.608875 2.451722 0.064553 -0.013710 -262402.000000 0 0 1
17.924315 -13.609024 -28.924051 36.648156 -0.649394 2.480361 0.064142 -0.018012 41593.000000 0 0 1
18.077015 -14.744824 -29.815081 37.856669 -0.684221 2.477665 0.049404 -0.016463 -131291.000000 0 0 1
16.797015 -15.074324 -30.605581 38.027313 -0.731399 2.506188 0.050236 -0.017519 -213866.000000 0 0 1
15.743215 -15.692324 -29.919741 37.273164 -0.783779 2.502631 0.067382 -0.022777 335419.000000 0 0 1
14.716915 -16.093124 -30.811001 37.747768 -0.830036 2.525658 0.065806 -0.028371 -209716.000000 0 0 1
13.473915 -16.727524 -30.169141 37.034221 -0.892715 2.522885 0.085260 -0.034360 -259569.000000 0 0 1
13.595415 -18.039224 -29.682611 37.300219 -0.924958 2.491084 0.079417 -0.033081 68263.700000 0 0 1
12.652515 -18.367124 -28.666891 36.321179 -0.967581 2.480401 0.083000 -0.031852 128390.000000 0 0 1
12.974915 -19.703724 -27.983631 36.601486 -0.988468 2.441138 0.069024 -0.030559 -590712.000000 0 0 1
14.064815 -19.637424 -27.147111 36.337489 -0.949264 2.414459 0.071233 -0.024035 -1051330.000000 0 0 1
14.178815 -20.681824 -26.227691 36.285926 -0.969821 2.378651 0.058521 -0.018288 -233929.000000 0 0 1
15.154915 -20.474224 -25.053901 35.729025 -0.933600 2.347903 0.049689 -0.010034 526864.000000 0 0 1
16.512615 -20.623424 -25.493241 36.713722 -0.895645 2.338353 0.047049 -0.010057 833656.000000 0 0 1
17.438015 -20.524924 -24.430901 36.362423 -0.866533 2.307530 0.038920 -0.000251 539641.000000 0 0 1
18.896015 -21.034924 -24.693601 37.540662 -0.838912 2.288668 0.016963 0.005439 559619.000000 0 0 1
19.215615 -22.428124 -24.780201 38.552807 -0.862388 2.268892 0.021600 -0.004916 255907.000000 0 0 1
18.815715 -23.176624 -23.678501 38.103260 -0.888877 2.241363 0.021676 -0.013870 -530264.000000 0 0 1
19.120915 -24.698824 -23.811201 39.276132 -0.912009 2.222135 0.028455 -0.018129 146414.000000 0 0 1
20.509515 -24.948224 -23.635001 40.020836 -0.882734 2.202558 0.023392 -0.014749 406181.000000 0 0 1
20.741715 -26.268324 -23.223701 40.737990 -0.902423 2.177393 0.021596 -0.029654 -93723.200000 0 0 1
20.980915 -26.407984 -21.733701 40.123985 -0.899423 2.143211 0.043971 -0.026541 -141291.000000 0 0 1
19.814915 -26.515784 -20.925501 39.161132 -0.929033 2.134527 0.038667 -0.018882 319634.000000 0 0 1
20.159615 -26.827214 -19.609601 38.867029 -0.926361 2.099634 0.046317 -0.021087 -154887.000000 0 0 1
18.981015 -27.382774 -18.785701 38.249154 -0.964667 2.084195 0.042140 -0.015864 -409780.000000 0 0 1
18.633715 -28.680524 -19.292801 39.268307 -0.994633 2.084386 0.037710 -0.016747 207946.000000 0 0 1
17.406215 -29.200824 -18.835101 38.864193 -1.033259 2.076747 0.022362 -0.000302 203615.000000 0 0 1
16.109715 -28.620384 -19.436001 38.162906 -1.058122 2.105156 0.047594 -0.012861 -453456.000000 0 0 1
15.518015 -27.556224 -18.705901 36.743231 -1.057921 2.104933 0.046422 -0.012569 818737.000000 0 0 1
14.262815 -27.166984 -19.305901 36.251768 -1.087345 2.132408 0.044949 -0.003848 1267950.000000 0 0 1
13.262815 -26.222944 -18.562201 34.757738 -1.102542 2.134174 0.041908 -0.011321 540697.000000 0 0 1
12.359115 -26.967224 -17.708401 34.548030 -1.141060 2.108976 0.046257 -0.009417 373174.000000 0 0 1
11.482815 -26.072824 -17.024901 33.188770 -1.155943 2.109439 0.057517 -0.021306 -158956.000000 0 0 1
10.020315 -26.324814 -17.414001 33.115706 -1.207089 2.124514 0.068283 -0.018785 -999745.000000 0 0 1
9.435815 -27.388814 -16.679701 33.427446 -1.239018 2.093220 0.066098 0.000472 217300.000000 0 0 1
8.025115 -27.448104 -16.810801 33.172336 -1.286350 2.102232 0.059207 0.003574 644633.000000 0 0 1
7.371715 -27.925214 -18.137101 34.104460 -1.312703 2.131533 0.069339 -0.001779 -384879.000000 0 0 1
7.537615 -27.082604 -19.241201 34.066213 -1.299347 2.171009 0.083042 -0.009297 -121168.000000 0 0 1
6.996415 -27.756554 -20.362001 35.128154 -1.323876 2.189094 0.078900 -0.004417 -160176.000000 0 0 1
6.968815 -26.868574 -21.637201 35.194504 -1.317021 2.232915 0.081596 -0.010509 -618614.000000 0 0 1
5.771215 -26.133264 -21.766601 34.496947 -1.353447 2.253602 0.108920 -0.023794 70254.500000 0 0 1
5.686815 -25.263484 -22.861601 34.543252 -1.349387 2.294047 0.098892 -0.026038 917825.000000 0 0 1
4.221415 -24.666824 -22.917001 33.933191 -1.401301 2.312244 0.066558 -0.015935 1397770.000000 0 0 1
3.177615 -25.596194 -23.145501 34.655109 -1.447284 2.302155 0.058862 -0.010026 546006.000000 0 0 1
2.025715 -25.053224 -23.800701 34.615617 -1.490115 2.328935 0.072243 -0.018391 416226.000000 0 0 1
1.057815 -26.108124 -24.290801 35.676268 -1.530302 2.319742 0.059570 -0.023677 -110819.000000 0 0 1
1.591715 -26.796974 -25.405751 36.960297 -1.511467 2.328671 0.040615 -0.015956 63817.500000 0 0 1
0.615015 -27.635294 -25.944931 37.910779 -1.548545 2.324533 0.045774 -0.022032 -180522.000000 0 0 1
1.254815 -28.614824 -26.956551 39.332408 -1.526972 2.325884 0.036212 -0.009678 15585.200000 0 0 1
1.800815 -27.869794 -28.031041 39.569023 -1.506271 2.358037 0.034747 -0.015265 25600.100000 0 0 1
2.334915 -28.702104 -29.059791 40.911295 -1.489625 2.360738 0.042277 -0.016895 -146985.000000 0 0 1
3.810715 -29.124544 -29.090011 41.339924 -1.440693 2.351358 0.051148 -0.013779 -468784.000000 0 0 1
4.187715 -29.848254 -27.962911 41.114226 -1.431406 2.318733 0.044807 -0.027414 -72553.000000 0 0 1
5.199915 -30.722374 -28.438231 42.185736 -1.403130 2.310568 0.065578 -0.031920 325780.000000 0 0 1
5.832515 -31.779334 -27.451981 42.397589 -1.389285 2.275081 0.090603 -0.041291 91423.500000 0 0 1
4.944115 -32.853304 -27.389441 43.057698 -1.421427 2.260243 0.083579 -0.052387 210351.000000 0 0 1
5.429015 -33.945114 -26.657021 43.501054 -1.412204 2.230383 0.099355 -0.054616 656457.000000 0 0 1
4.233915 33.295500 -26.411611 42.709362 1.444313 2.237506 0.106807 -0.050086 641472.000000 0 0 1
3.650415 32.623724 -27.521701 42.837798 1.459365 2.268504 0.088002 -0.051786 625014.000000 0 0 1
2.348715 32.232073 -27.071591 42.157966 1.498056 2.268091 0.073341 -0.057288 754384.000000 0 0 1
1.242315 32.477906 -28.161311 43.004851 1.532564 2.284768 0.059502 -0.041796 -261773.000000 0 0 1
1.144815 31.511260 -29.164571 42.951628 1.534482 2.317209 0.070628 -0.038493 89010.200000 0 0 1
0.242715 31.951120 -30.160641 43.938563 1.563200 2.327361 0.059281 -0.036832 21791.800000 0 0 1
-0.091985 30.791640 -31.125271 43.782600 -1.567809 2.361581 0.051605 -0.039530 280133.000000 0 0 1
1.002915 30.476400 -32.006911 44.207004 1.537900 2.380414 0.066222 -0.039478 545856.000000 0 0 1
0.628015 29.594180 -33.042261 44.362157 1.549579 2.411076 0.075585 -0.037702 -171029.000000 0 0 1
1.777815 29.287390 -34.055216 44.951859 1.510168 2.430414 0.065358 -0.031476 427792.000000 0 0 1
2.035115 30.322890 33.226122 45.028819 1.503782 0.740864 0.061707 -0.033581 307327.000000 0 0 1
3.065315 30.100540 32.252908 44.223170 1.469310 0.753467 0.051398 -0.029352 131034.000000 0 0 1
2.666915 29.180620 31.057672 42.698946 1.479656 0.756324 0.055253 -0.028482 -157162.000000 0 0 1
2.390915 27.831570 31.322052 41.968842 1.485100 0.728285 0.060632 -0.032381 55982.100000 0 0 1
3.566115 27.089360 31.593252 41.769417 1.439906 0.713046 0.049317 -0.025172 -42932.900000 0 0 1
3.286515 25.602040 31.921112 41.051468 1.443125 0.679976 0.049679 -0.018476 -309910.000000 0 0 1
2.769815 24.929070 30.815032 39.732815 1.460142 0.683201 0.046235 -0.005226 9821.090000 0 0 1
3.005315 23.519380 30.757422 38.835707 1.443705 0.656738 0.046851 -0.011676 -222111.000000 0 0 1
2.016415 22.756820 29.853082 37.591825 1.482420 0.653209 0.036046 -0.005048 -104995.000000 0 0 1
0.752215 22.492120 30.422872 37.841940 1.537365 0.636896 0.041228 -0.007836 -343492.000000 0 0 1
0.090415 21.661820 29.524882 36.619138 1.566622 0.632978 0.048682 -0.010763 231731.000000 0 0 1
-1.315785 21.130120 29.957492 36.683301 -1.508606 0.615210 0.040256 -0.005430 841681.000000 0 0 1
-2.276385 22.177220 30.167922 37.511525 -1.468509 0.636416 0.041902 -0.010274 22988.000000 0 0 1
-3.568785 21.663420 30.217452 37.351498 -1.407525 0.628343 0.025542 -0.009993 -839736.000000 0 0 1
-4.672685 22.641320 30.561722 38.320780 -1.367275 0.647617 0.012527 -0.014493 -511674.000000 0 0 1
-4.689485 23.057420 31.893462 39.633683 -1.370150 0.635616 0.022068 -0.015444 -287735.000000 0 0 1
-5.591485 24.106300 32.076902 40.513036 -1.342876 0.657099 0.004836 -0.015573 -274190.000000 0 0 1
-5.573385 24.734970 33.491620 42.006785 -1.349173 0.648003 0.032209 -0.012087 -271777.000000 0 0 1
-6.657585 25.557560 33.764689 42.866847 -1.315966 0.663787 0.032699 -0.006958 -545891.000000 0 0 1
-6.531385 25.968500 -33.127051 42.596051 -1.324395 2.461799 0.045204 -0.007772 -80266.000000 0 0 1
-7.862485 26.515920 -32.612111 42.760525 -1.282536 2.438225 0.058584 -0.001409 -368920.000000 0 0 1
-8.286885 27.761380 -33.146081 44.023055 -1.280713 2.423293 0.046864 -0.002983 295360.000000 0 0 1
-9.550985 28.249120 -32.689341 44.247341 -1.244763 2.402064 0.047270 -0.005213 611119.000000 0 0 1
-9.753685 28.584660 -31.163631 43.398031 -1.241964 2.371848 0.056692 -0.009167 -545787.000000 0 0 1
-9.062485 29.733000 -30.824631 43.775996 -1.274946 2.352014 0.068952 -0.013414 -130291.000000 0 0 1
-9.171885 30.016000 -29.447251 43.037476 -1.274240 2.324335 0.086346 -0.020412 -140924.000000 0 0 1
-8.464985 31.281390 -28.957041 43.459080 -1.306518 2.300040 0.064586 -0.026416 -145171.000000 0 0 1
-7.065985 31.302060 -29.028821 43.271464 -1.348782 2.306156 0.038456 -0.027079 -299927.000000 0 0 1
-6.452585 32.576953 -28.804351 43.961169 -1.375255 2.285274 0.038537 -0.021008 63890.800000 0 0 1
-4.921085 32.458665 -28.756321 43.642961 -1.420331 2.290151 0.046909 -0.028183 42358.100000 0 0 1
-4.119185 33.604279 -28.366241 44.168529 -1.448826 2.268197 0.050991 -0.030219 380402.000000 0 0 1
-3.899385 -33.644624 -29.313181 44.793175 1.455412 2.284201 0.052427 -0.034279 -302914.000000 0 0 1
-2.859385 -33.963294 -30.401131 45.671766 1.486804 2.299153 0.044334 -0.036182 -274186.000000 0 0 1
-3.372185 33.426615 -31.473721 46.035914 -1.470253 2.323586 0.040244 -0.027230 1335110.000000 0 0 1
-4.418385 33.973849 -32.359921 47.126522 -1.441470 2.327682 0.052559 -0.026883 788742.000000 0 0 1
-4.030585 -33.145274 -33.305681 47.160610 1.449787 2.354939 0.030290 -0.035038 -184518.000000 0 0 1
-3.517785 -31.976764 -32.655641 45.839711 1.461226 2.363691 0.040228 -0.035094 392412.000000 0 0 1
-2.859185 -31.142004 -33.587511 45.892486 1.479242 2.391864 0.027504 -0.037044 33382.500000 0 0 1
31.806015 17.529876 12.520392 38.414572 0.503725 1.238803 0.154016 -0.034664 -400277.000000 0 0 1
33.217825 17.541276 12.632292 39.631996 0.485849 1.246397 0.145337 -0.055321 227954.000000 0 0 1
33.720455 16.806976 13.724092 40.098557 0.462383 1.221476 0.134615 -0.028424 101154.000000 0 0 1
35.198975 17.125476 14.174992 41.631481 0.452816 1.223361 0.145823 -0.044507 1272310.000000 0 0 1
36.238805 16.561276 13.368992 42.026858 0.428663 1.247065 0.136449 -0.017224 284196.000000 0 0 1
36.240845 15.120176 13.407592 41.494362 0.395257 1.241774 0.156526 -0.024053 -941160.000000 0 0 1
-35.709624 14.563076 12.820292 40.640132 -0.387229 1.249856 0.145385 -0.026310 993005.000000 0 0 1
-34.794571 13.803476 13.630792 39.837126 -0.377670 1.221578 0.128840 -0.027001 495581.000000 0 0 1
-35.399240 12.521576 13.922592 40.046656 -0.339989 1.215723 0.125469 -0.032163 91755.000000 0 0 1
-34.637970 11.700876 14.950692 39.499654 -0.325770 1.182619 0.132182 -0.033799 -45192.700000 0 0 1
-34.939657 12.187676 16.213092 40.400290 -0.335624 1.157848 0.140020 -0.028729 362019.000000 0 0 1
-34.233442 11.447676 17.230492 39.998346 -0.322711 1.125439 0.136553 -0.029587 246185.000000 0 0 1
-34.332135 12.121076 18.662792 40.913516 -0.339392 1.097130 0.131455 -0.027102 -723805.000000 0 0 1
-35.597052 12.103476 19.242692 42.236542 -0.327751 1.097758 0.140979 -0.044770 -426503.000000 0 0 1
-35.601061 13.046176 20.266892 42.992850 -0.351258 1.079917 0.144973 -0.041275 625571.000000 0 0 1
36.324745 13.130376 21.074492 44.000319 0.346858 1.071324 0.139458 -0.050757 522152.000000 0 0 1
35.970965 11.891676 21.609692 43.615377 0.319280 1.052432 0.118392 -0.042636 234635.000000 0 0 1
34.989215 11.994676 22.634092 43.363804 0.330256 1.021651 0.126473 -0.052312 -53799.600000 0 0 1
34.507295 10.544976 23.027992 42.804653 0.296574 1.002759 0.125136 -0.050812 273818.000000 0 0 1
35.482055 9.660876 23.630932 43.711894 0.265831 0.999639 0.104109 -0.040313 524380.000000 0 0 1
35.813165 9.992676 24.960852 44.782591 0.272102 0.979571 0.098466 -0.031421 -930690.000000 0 0 1
-35.958608 10.149676 25.135142 45.031242 -0.275103 0.978616 0.081373 -0.028640 -747557.000000 0 0 1
-35.383038 11.266576 24.580772 44.532118 -0.308267 0.986061 0.069490 -0.025700 153938.000000 0 0 1
-34.239593 11.078376 23.759392 43.122951 -0.312924 0.987272 0.086354 -0.031847 -16854.600000 0 0 1
-33.513025 12.361576 23.401642 42.703258 -0.353376 0.990818 0.099735 -0.031577 78167.700000 0 0 1
-32.823565 12.999276 24.513512 42.979994 -0.377083 0.963868 0.102203 -0.032327 44787.900000 0 0 1
-33.669375 13.673676 25.380922 44.325923 -0.385768 0.961125 0.088345 -0.032372 -777554.000000 0 0 1
-32.976915 14.390676 26.492532 44.681347 -0.411475 0.936114 0.099937 -0.032119 -571577.000000 0 0 1
-32.213535 15.535076 26.187072 44.326213 -0.449350 0.938770 0.128718 -0.026317 35665.500000 0 0 1
-31.964115 16.241176 27.389732 45.118487 -0.470112 0.918438 0.131860 -0.018220 -150011.000000 0 0 1
-31.131295 17.491576 27.044982 44.794462 -0.511907 0.922590 0.113152 -0.014262 -134843.000000 0 0 1
-31.808635 18.409276 26.190342 45.128979 -0.524649 0.951645 0.086102 -0.026323 442628.000000 0 0 1
-31.016245 19.566276 25.951312 44.925686 -0.562788 0.954950 0.101667 -0.036008 -215850.000000 0 0 1
-31.748645 20.675976 25.219212 45.513527 -0.577246 0.983510 0.102959 -0.025935 -45714.600000 0 0 1
-32.747745 21.263776 26.052712 46.939395 -0.575897 0.982399 0.085149 -0.028239 626123.000000 0 0 1
-33.743535 22.042576 25.424062 47.653796 -0.578648 1.008044 0.078760 -0.019890 -40626.800000 0 0 1
-33.419615 23.552876 25.395922 48.130671 -0.613915 1.014970 0.085664 -0.022658 -167904.000000 0 0 1
-34.311195 24.306476 24.584962 48.708144 -0.616350 1.041715 0.086897 -0.023219 107820.000000 0 0 1
-34.088423 25.702776 24.521782 49.233841 -0.646058 1.049427 0.084136 -0.017804 227407.000000 0 0 1
-35.158264 26.346076 23.591942 49.867815 -0.643089 1.078002 0.091346 -0.016054 269108.000000 0 0 1
-35.036177 26.063776 22.204292 48.988618 -0.639592 1.100384 0.096924 -0.029320 -393244.000000 0 0 1
-35.993528 26.730976 21.451392 49.701523 -0.638787 1.124526 0.101623 -0.027248 -277126.000000 0 0 1
-35.771598 26.571176 19.887792 48.797120 -0.638878 1.151015 0.132416 -0.049563 225385.000000 0 0 1
-36.126715 25.261376 19.486592 48.197551 -0.610218 1.154576 0.117612 -0.050261 295268.000000 0 0 1
-35.375109 24.978976 18.313892 47.018574 -0.614820 1.170704 0.121212 -0.045623 -40304.500000 0 0 1
-35.707197 23.632276 17.684692 46.327495 -0.584650 1.179127 0.129751 -0.041572 483334.000000 0 0 1
36.272675 23.537676 17.103992 46.500276 0.575608 1.194127 0.121749 -0.042537 132221.000000 0 0 1
36.305505 22.477476 16.170492 45.659735 0.554360 1.208789 0.125568 -0.040412 327904.000000 0 0 1
35.051795 22.348976 15.257092 44.281869 0.567608 1.219042 0.105234 -0.025785 1059850.000000 0 0 1
33.876375 21.755276 15.811592 43.253986 0.570870 1.196570 0.107709 -0.036479 482173.000000 0 0 1
32.806075 21.547676 14.902392 41.983594 0.581154 1.207928 0.102848 -0.028051 -411044.000000 0 0 1
31.665255 20.726676 15.534192 40.909591 0.579571 1.181303 0.077035 -0.029204 216093.000000 0 0 1
30.944205 21.329976 16.610092 41.090228 0.603512 1.154654 0.063679 -0.021443 357114.000000 0 0 1
30.135975 22.451676 16.261192 40.947297 0.640301 1.162414 0.047844 -0.006269 -358677.000000 0 0 1
29.456415 23.023076 17.535992 41.294714 0.663419 1.132216 0.033107 -0.006298 472308.000000 0 0 1
30.255695 23.964476 18.282492 42.707759 0.669884 1.128425 0.005898 -0.005064 7877.670000 0 0 1
29.615725 24.223276 19.478992 42.933546 0.685572 1.099882 0.014453 0.002984 45104.400000 0 0 1
30.536605 24.912476 20.500292 44.422716 0.684315 1.091131 0.013853 -0.008689 29257.700000 0 0 1
30.990855 26.186976 20.167592 45.309189 0.701579 1.109499 0.035162 -0.022064 754924.000000 0 0 1
32.029695 26.584276 21.099392 46.667006 0.692761 1.101648 0.045532 -0.025231 475110.000000 0 0 1
32.910855 27.785976 20.627792 47.756577 0.701164 1.124158 0.067558 -0.032433 644605.000000 0 0 1
34.007915 28.092576 21.508792 49.075037 0.690430 1.117108 0.068838 -0.024393 729205.000000 0 0 1
33.598505 28.705076 22.671492 49.667268 0.707017 1.096775 0.038317 -0.012953 -423523.000000 0 0 1
34.709745 28.627676 23.747282 50.874784 0.689665 1.085151 0.042754 -0.012169 -1095650.000000 0 0 1
35.861705 29.295776 23.554142 51.952882 0.684967 1.100248 0.066740 -0.015673 -1388490.000000 0 0 1
36.472315 29.478576 24.833212 53.065098 0.679748 1.083797 0.068488 -0.008281 -184407.000000 0 0 1
-35.595754 30.397976 24.812412 52.978774 -0.706799 1.083378 0.087141 -0.022412 -137341.000000 0 0 1
-34.330244 29.913276 24.433952 51.675795 -0.716753 1.078295 0.090451 -0.019440 -174372.000000 0 0 1
-33.349535 30.888976 24.658722 51.714340 -0.747113 1.073757 0.098996 -0.018624 481841.000000 0 0 1
-31.858155 30.535676 24.371572 50.411736 -0.764206 1.066204 0.119391 -0.024605 294232.000000 0 0 1
-31.479155 30.398576 23.020792 49.446613 -0.767937 1.086519 0.086763 -0.017161 -6660.830000 0 0 1
-31.980895 29.396776 22.153492 48.761925 -0.743321 1.099188 0.099880 -0.020054 -419336.000000 0 0 1
-31.477045 28.009776 22.535192 47.782704 -0.727178 1.079671 0.086894 -0.014140 -699334.000000 0 0 1
-30.088475 27.857376 22.530992 46.786701 -0.746914 1.068353 0.057373 -0.016292 -362133.000000 0 0 1
-29.716935 26.550476 23.043392 46.032836 -0.729182 1.046521 0.067025 -0.027822 30081.500000 0 0 1
-29.441475 26.577876 24.619552 46.683041 -0.734325 1.015286 0.082924 -0.019967 -688519.000000 0 0 1
-30.601935 26.773376 25.326802 47.903434 -0.718769 1.013722 0.083227 -0.018718 -510250.000000 0 0 1
-30.208805 26.903876 26.660162 48.447443 -0.727596 0.988084 0.094288 -0.032843 113849.000000 0 0 1
-31.424005 27.178976 27.573402 49.864390 -0.713087 0.984874 0.097053 -0.035417 16234.500000 0 0 1
-32.158055 26.014176 27.812932 49.844128 -0.680173 0.978825 0.078783 -0.028632 -27867.800000 0 0 1
-33.350825 26.271276 28.536462 51.154542 -0.667211 0.979006 0.070641 -0.022308 148247.000000 0 0 1
-33.898335 24.985676 29.144222 51.212956 -0.635179 0.965411 0.058225 -0.015619 12788.600000 0 0 1
-33.220335 24.545676 30.322182 51.239786 -0.636343 0.937543 0.057141 -0.011937 -41617.300000 0 0 1
-33.628105 23.231076 30.559102 51.033235 -0.604540 0.928785 0.035371 -0.021802 -133541.000000 0 0 1
-32.765835 22.492276 31.587572 50.766890 -0.601577 0.899236 0.051874 -0.029047 -1061790.000000 0 0 1
-31.582795 22.018976 31.014172 49.438721 -0.608833 0.892682 0.064235 -0.022582 -434783.000000 0 0 1
-30.945275 21.024276 31.830072 49.120095 -0.596768 0.865834 0.068192 -0.023940 75984.800000 0 0 1
-30.241655 21.506276 33.150968 49.760067 -0.618168 0.841673 0.068405 -0.025037 -608030.000000 0 0 1
-31.035995 22.098076 -34.049887 51.097483 -0.618744 2.300128 0.089451 -0.026532 -5842.090000 0 0 1
-30.783175 21.525376 -32.763141 49.843446 -0.610228 2.288055 0.071029 -0.009728 -222068.000000 0 0 1
-29.547535 22.138776 -32.082021 48.912558 -0.643027 2.286178 0.094984 -0.012365 -118944.000000 0 0 1
-29.762965 23.478276 -31.607511 49.356847 -0.667900 2.265799 0.069958 -0.009587 -67032.200000 0 0 1
-28.999615 23.762076 -30.461401 48.306427 -0.686454 2.253106 0.100663 -0.010700 -48017.800000 0 0 1
-29.317145 25.174876 -29.880841 48.848071 -0.709528 2.229016 0.067909 -0.001577 6408.310000 0 0 1
-28.979695 26.377576 -30.645481 49.746807 -0.738427 2.234488 0.090079 -0.005294 371411.000000 0 0 1
-29.956005 26.723676 -31.629301 51.107043 -0.728432 2.238117 0.047941 0.006322 211774.000000 0 0 1
-29.708065 28.152176 -32.210351 52.082827 -0.758514 2.237558 0.079172 0.004843 132597.000000 0 0 1
-29.916315 29.182676 -31.283791 52.204311 -0.772985 2.213369 0.059909 -0.008319 52671.800000 0 0 1
-29.092255 30.290076 -31.626001 52.574252 -0.805567 2.216235 0.075882 -0.025603 7616.540000 0 0 1
-29.351285 31.670176 -30.937861 53.119199 -0.823381 2.192503 0.062707 -0.019217 84493.600000 0 0 1
-28.598815 31.834476 -29.731431 52.108388 -0.838888 2.177995 0.055655 -0.020824 260647.000000 0 0 1
-28.952775 33.008076 -29.024801 52.633026 -0.850754 2.154905 0.040784 -0.020935 -475357.000000 0 0 1
-28.321875 33.106076 -27.617051 51.583354 -0.863124 2.135762 0.021598 -0.013653 153017.000000 0 0 1
-26.945495 33.441376 -27.619471 51.060949 -0.892557 2.142317 0.049630 -0.010608 192650.000000 0 0 1
-26.532715 -33.435668 -27.698551 50.883579 0.900004 2.146412 0.044055 0.012218 -379579.000000 0 0 1
-26.977505 -32.512368 -26.549721 49.897170 0.878170 2.131862 0.036630 0.021415 507397.000000 0 0 1
-28.326565 -32.035168 -26.522831 50.320044 0.846761 2.125961 0.037202 0.001690 361118.000000 0 0 1
-28.502615 -31.086768 -25.544991 49.308547 0.828737 2.115382 0.023891 0.009566 114728.000000 0 0 1
-29.994075 -30.779268 -25.275031 49.858150 0.798317 2.102426 0.006720 0.006368 172331.000000 0 0 1
-30.562595 -30.100068 -26.385221 50.361356 0.777774 2.122241 0.013532 -0.000671 -793336.000000 0 0 1
-31.943465 -30.061768 -26.331081 51.160734 0.755060 2.111423 0.012356 -0.004652 -913100.000000 0 0 1
-32.583825 -29.131868 -27.367841 51.569081 0.729523 2.130226 0.026492 -0.010615 206606.000000 0 0 1
-33.991045 -29.063468 -27.195601 52.341924 0.707409 2.117151 0.032526 -0.012756 134647.000000 0 0 1
-34.603957 -28.286268 -28.185421 52.839046 0.685278 2.133435 0.042352 -0.021929 -877502.000000 0 0 1
-36.084915 -28.552568 -28.326081 54.034592 0.669389 2.122597 0.039552 -0.021061 -632351.000000 0 0 1
36.383495 -27.906068 -27.355181 53.393008 -0.654291 2.108700 0.035572 -0.011871 29804.300000 0 0 1
35.025865 -28.232768 -27.614131 52.786747 -0.678422 2.121311 0.038983 -0.017145 144348.000000 0 0 1
33.982065 -27.578968 -26.700161 51.266742 -0.681759 2.118594 0.041713 -0.006554 -111304.000000 0 0 1
33.947505 -28.146368 -25.370321 50.875380 -0.692243 2.092867 0.037267 -0.005621 399631.000000 0 0 1
32.835265 -27.544268 -24.715701 49.474308 -0.697992 2.093894 0.038505 0.000891 366275.000000 0 0 1
32.573475 -28.243468 -23.366001 49.037687 -0.714321 2.067455 0.026762 0.003516 104565.000000 0 0 1
32.153735 -29.628568 -23.416101 49.598674 -0.744549 2.062481 0.039966 -0.005799 28351.900000 0 0 1
31.697815 -30.083568 -22.121201 48.980813 -0.759276 2.039388 0.047167 -0.010738 -216018.000000 0 0 1
32.700175 -30.230168 -20.964801 49.220802 -0.746168 2.010790 0.034333 -0.005696 -880837.000000 0 0 1
33.782635 -31.080368 -21.306201 50.608398 -0.743761 2.005345 0.021777 -0.005594 -2571.930000 0 0 1
34.877715 -30.904068 -20.450701 50.889563 -0.725065 1.984348 0.006746 -0.002190 276247.000000 0 0 1
35.805565 -29.675568 -20.615301 50.869131 -0.692055 1.988061 0.004234 -0.005644 -707999.000000 0 0 1
35.224715 -28.543168 -19.995901 49.551277 -0.681000 1.986178 0.006613 0.003698 2803.320000 0 0 1
35.761785 -27.345068 -20.470301 49.453930 -0.652808 1.997560 -0.008685 0.009722 -173185.000000 0 0 1
34.771315 -26.210468 -20.234801 48.015416 -0.645926 2.005810 0.003833 0.012174 -115016.000000 0 0 1
33.622485 -26.140768 -21.035901 47.500741 -0.660857 2.029576 0.024392 0.006230 -379233.000000 0 0 1
32.714525 -25.253868 -20.431801 46.102673 -0.657400 2.029940 0.045533 0.001203 -1111910.000000 0 0 1
31.498205 -25.039868 -21.278001 45.517966 -0.671661 2.057216 0.051238 -0.004605 -960117.000000 0 0 1
30.649395 -26.160968 -21.217001 45.540562 -0.706555 2.055439 0.066290 -0.007197 -439000.000000 0 0 1
29.469135 -26.001468 -21.964701 45.021710 -0.722966 2.080443 0.074208 -0.013206 346784.000000 0 0 1
28.779375 -27.393268 -22.258001 45.541873 -0.760727 2.081438 0.072611 -0.015071 274507.000000 0 0 1
28.389995 -28.129568 -21.116101 45.201262 -0.780790 2.056869 0.073400 -0.013362 -312037.000000 0 0 1
27.654915 -29.240668 -21.460801 45.611150 -0.813262 2.060672 0.066211 -0.014344 -524424.000000 0 0 1
26.953015 -30.061668 -20.358501 45.217668 -0.839868 2.037823 0.075103 -0.009296 -650525.000000 0 0 1
27.669115 -30.733068 -19.375201 45.667273 -0.837813 2.008951 0.094814 -0.013521 -685441.000000 0 0 1
28.454665 -31.800068 -19.803201 47.043374 -0.840862 2.005296 0.091241 -0.006801 -118390.000000 0 0 1
29.424175 -32.282068 -18.691101 47.510749 -0.831680 1.975132 0.080370 -0.011595 -177649.000000 0 0 1
28.856675 -32.962268 -17.593601 47.209677 -0.851714 1.952680 0.094422 -0.017081 153748.000000 0 0 1
28.113015 -32.094868 -16.706701 45.820694 -0.851437 1.944011 0.078599 -0.023114 -73366.000000 0 0 1
27.492215 -32.846368 -15.563001 45.573158 -0.873902 1.919303 0.088179 -0.022533 -661940.000000 0 0 1
26.340615 -33.543268 -15.935601 45.529355 -0.905100 1.928375 0.106514 -0.022308 -362531.000000 0 0 1
25.797415 34.039776 -14.806901 45.204616 0.922283 1.904509 0.099839 -0.013616 -706722.000000 0 0 1
24.278415 33.941176 -14.877101 44.303194 0.949870 1.913253 0.093723 -0.007582 -610289.000000 0 0 1
23.667815 -33.137768 -14.365401 43.181499 -0.950587 1.909935 0.090932 -0.005569 -346420.000000 0 0 1
22.299215 -33.417168 -14.233701 42.621126 -0.982357 1.911297 0.073424 -0.005031 -380629.000000 0 0 1
-0.208355 -7.067024 -28.793161 29.648480 1.541322 2.900809 0.062858 -0.014012 76328.900000 0 0 1
0.155645 -8.431124 -28.927271 30.131297 -1.552338 2.857944 0.053503 -0.007063 -81087.300000 0 0 1
-0.099055 -8.892824 -30.266631 31.546174 1.559658 2.855802 0.048312 -0.011755 -172983.000000 0 0 1
-0.040755 -10.440224 -30.343731 32.089593 1.566893 2.810212 0.042948 -0.010044 -276846.000000 0 0 1
1.192345 -11.004424 -29.985341 31.963099 -1.462866 2.787968 0.016272 -0.011559 -200427.000000 0 0 1
1.103145 -12.371524 -29.675011 32.169517 -1.481863 2.745194 0.026003 -0.015156 -471253.000000 0 0 1
2.451945 -12.827624 -29.126871 31.920755 -1.381929 2.720088 0.036105 -0.015267 -1084600.000000 0 0 1
3.347245 -12.983824 -30.200631 33.043333 -1.318489 2.723760 0.055488 -0.020021 306973.000000 0 0 1
4.712145 -13.122824 -29.794561 32.895724 -1.226055 2.703889 0.058164 -0.019037 900338.000000 0 0 1
5.183345 -14.432324 -29.098381 32.891865 -1.225995 2.656578 0.063340 -0.024074 -527504.000000 0 0 1
4.618245 -14.604324 -27.797211 31.737980 -1.264522 2.637958 0.056212 -0.028360 -196119.000000 0 0 1
5.371645 -15.462224 -27.005081 31.578621 -1.236436 2.596675 0.082518 -0.030881 -277547.000000 0 0 1
5.116945 -16.991024 -27.262331 32.528644 -1.278280 2.564591 0.062913 -0.031207 90816.200000 0 0 1
5.581845 -17.493124 -28.563201 33.956190 -1.261921 2.570254 0.063912 -0.043037 280448.000000 0 0 1
5.308045 -18.891324 -28.723561 34.786498 -1.296881 2.542256 0.060365 -0.039997 -174636.000000 0 0 1
5.643845 -19.411424 -30.153121 36.302439 -1.287848 2.550996 0.064141 -0.039071 -377061.000000 0 0 1
7.018745 -19.501124 -30.439191 36.825276 -1.225316 2.543808 0.062317 -0.036571 -48308.100000 0 0 1
7.116745 -19.968024 -31.797411 38.215774 -1.228425 2.553588 0.057975 -0.038475 -810601.000000 0 0 1
8.548745 -20.165224 -32.252361 38.986306 -1.169828 2.545034 0.055491 -0.028709 -677771.000000 0 0 1
9.083845 -18.931024 -32.649421 38.818611 -1.123407 2.570067 0.061482 -0.026188 496282.000000 0 0 1
10.227845 -19.023124 -33.517871 39.873998 -1.077482 2.569177 0.043931 -0.020400 521700.000000 0 0 1
10.579445 -17.620924 -34.058558 39.779479 -1.030089 2.598635 0.055841 -0.014090 -109613.000000 0 0 1
9.628445 -17.224224 33.211527 38.631417 -1.061065 0.536109 0.056902 -0.016332 -17108.100000 0 0 1
9.850545 -15.898524 32.768408 37.730158 -1.016098 0.518641 0.054512 -0.016293 948665.000000 0 0 1
8.745445 -15.381124 31.709902 36.312252 -1.053798 0.508951 0.060788 -0.022815 1004190.000000 0 0 1
8.896145 -16.033624 30.433532 35.530527 -1.064242 0.542257 0.053940 -0.016298 713769.000000 0 0 1
7.864845 -15.554424 29.535402 34.294837 -1.102652 0.533131 0.048060 -0.017044 224582.000000 0 0 1
7.770945 -16.285624 28.208602 33.486331 -1.125582 0.569090 0.045595 -0.002045 -644688.000000 0 0 1
7.372245 -17.624624 28.389442 34.218968 -1.174621 0.592333 0.043185 -0.008939 168122.000000 0 0 1
7.445345 -18.393424 27.178552 33.651521 -1.186174 0.630645 0.043398 -0.011417 -24879.800000 0 0 1
7.007945 -19.878924 27.425792 34.589839 -1.231868 0.655266 0.045418 -0.017234 29068.600000 0 0 1
7.883545 -20.502824 28.365852 35.876700 -1.203714 0.658929 0.040184 -0.020071 883865.000000 0 0 1
7.204345 -21.651624 28.890782 36.815386 -1.249581 0.668508 0.026781 -0.023814 -19208.000000 0 0 1
7.608745 -22.024524 30.341532 38.256780 -1.238166 0.654911 0.027809 -0.024956 -330154.000000 0 0 1
7.360645 -21.156224 31.464252 38.623361 -1.235977 0.618683 0.036065 -0.021128 130728.000000 0 0 1
7.630045 -19.746224 31.329082 37.810611 -1.202064 0.594231 0.041501 -0.025082 -422880.000000 0 0 1
7.058045 -18.762224 32.361306 38.066930 -1.210988 0.554591 0.048475 -0.020554 -705512.000000 0 0 1
5.710245 -18.880224 32.709740 38.196817 -1.277097 0.542642 0.051138 -0.030356 -612259.000000 0 0 1
5.345245 -17.990324 33.717033 38.588362 -1.281986 0.507912 0.062316 -0.029805 852163.000000 0 0 1
3.903845 -18.194424 -33.915631 38.685231 -1.359438 2.639770 0.060509 -0.034399 746157.000000 0 0 1
3.649845 -19.242324 -33.010941 38.383729 -1.383345 2.606114 0.051017 -0.029227 254306.000000 0 0 1
2.616845 -18.997024 -32.052721 37.351194 -1.433908 2.602441 0.050935 -0.041872 -1279.000000 0 0 1
2.051545 -20.209024 -31.278771 37.295777 -1.469627 2.565629 0.073097 -0.036295 -978117.000000 0 0 1
1.188745 -21.063024 -32.008871 38.335778 -1.514419 2.558858 0.063539 -0.029489 491725.000000 0 0 1
0.290145 -21.800824 -31.173121 38.041078 -1.557488 2.531264 0.070234 -0.025949 1057960.000000 0 0 1
-0.690555 -21.006724 -30.199241 36.793389 1.537935 2.533570 0.071437 -0.030503 130068.000000 0 0 1
-1.731855 -20.271024 -30.875431 36.975748 1.485568 2.558963 0.079655 -0.035180 466861.000000 0 0 1
-2.467755 -19.353624 -30.091921 35.863300 1.443972 2.566373 0.082599 -0.014577 219816.000000 0 0 1
-1.795555 -17.989724 -29.851781 34.899613 1.471316 2.597044 0.050768 -0.008577 4051.620000 0 0 1
-2.756155 -17.016024 -29.506311 34.172560 1.410217 2.612867 0.064376 -0.013037 -54156.000000 0 0 1
-2.101155 -15.757624 -29.511221 33.520587 1.438236 2.647482 0.059882 -0.018125 -111985.000000 0 0 1
-2.909755 -14.595524 -28.959041 32.559516 1.374017 2.666868 0.052933 -0.014293 -60854.000000 0 0 1
-3.120855 -14.513924 -27.598201 31.337748 1.358996 2.648070 0.055965 -0.016712 620583.000000 0 0 1
-4.207055 -13.564724 -27.423981 30.883261 1.270057 2.663749 0.057639 -0.018572 766289.000000 0 0 1
-4.377155 -13.180024 -25.931531 29.416268 1.250151 2.649904 0.063736 -0.022689 -409853.000000 0 0 1
-4.854555 -14.200924 -25.087381 29.233707 1.241402 2.602483 0.064296 -0.014444 173972.000000 0 0 1
-4.996855 -13.884524 -23.714101 27.930398 1.225341 2.584967 0.067334 -0.019840 126613.000000 0 0 1
-6.129555 -12.870824 -23.321801 27.333788 1.126340 2.592929 0.054743 -0.021216 1240900.000000 0 0 1
-7.457455 -13.430224 -23.489901 28.067063 1.063913 2.562429 0.046469 -0.020893 1377540.000000 0 0 1
-8.490755 -12.436624 -23.325001 27.763613 0.971761 2.568316 0.048552 -0.021766 879730.000000 0 0 1
-9.928155 -13.012724 -23.337901 28.505383 0.919054 2.529973 0.053494 -0.025496 216726.000000 0 0 1
-10.316155 -13.879824 -22.311201 28.228749 0.931630 2.482212 0.057476 -0.035050 -87355.600000 0 0 1
-11.535455 -14.580824 -22.499301 29.187081 0.901482 2.450994 0.042815 -0.026820 394783.000000 0 0 1
-11.976055 -15.435224 -21.248701 28.864846 0.910930 2.398153 0.047372 -0.027950 89265.800000 0 0 1
-11.201155 -16.626324 -21.113001 29.114590 0.977940 2.382076 0.066781 -0.032190 -147500.000000 0 0 1
-11.908755 -17.864224 -21.208901 30.178907 0.982822 2.350083 0.045151 -0.025110 71385.800000 0 0 1
-12.348355 -18.271824 -22.646701 31.610354 0.976488 2.369472 0.029018 -0.014747 456448.000000 0 0 1
-13.575855 -17.695924 -23.083601 32.098321 0.916394 2.373379 0.028554 -0.017944 84115.500000 0 0 1
-14.122755 -18.451724 -24.146801 33.510988 0.917518 2.375411 0.007201 -0.007195 619923.000000 0 0 1
-15.316355 -17.786824 -24.955701 34.260018 0.859889 2.386810 0.017246 -0.008591 719048.000000 0 0 1
-16.519755 -17.878424 -24.231201 34.346637 0.824876 2.353910 0.029349 -0.008020 -207773.000000 0 0 1
-17.626655 -17.309624 -24.884301 35.064947 0.776324 2.359816 0.036098 -0.005571 324089.000000 0 0 1
-18.282655 -15.988124 -24.350301 34.392045 0.718545 2.357489 0.046638 -0.007274 7533.320000 0 0 1
-18.986255 -16.104424 -23.134001 33.985473 0.703457 2.319518 0.050971 -0.006596 542722.000000 0 0 1
-19.819655 -14.965724 -22.887401 33.773137 0.646754 2.315400 0.064127 -0.017045 533294.000000 0 0 1
-20.470455 -14.845124 -21.483701 33.180818 0.627438 2.275061 0.059923 -0.022702 39099.100000 0 0 1
-19.509055 -14.493524 -20.511201 31.802120 0.638950 2.271772 0.063711 -0.019580 248170.000000 0 0 1
-19.978155 -14.376324 -19.165601 31.194962 0.623761 2.232398 0.065867 -0.025759 -221113.000000 0 0 1
-20.817655 -13.132924 -18.880001 31.021007 0.562799 2.225116 0.062805 -0.033442 -380764.000000 0 0 1
-22.074555 -13.039524 -19.493501 32.207325 0.533556 2.220877 0.064536 -0.036230 -114165.000000 0 0 1
-22.756155 -11.990724 -18.811701 31.866913 0.484953 2.202253 0.067927 -0.036695 965218.000000 0 0 1
-24.277655 -11.716124 -19.112801 33.044989 0.449622 2.187547 0.079902 -0.031652 945088.000000 0 0 1
-24.567155 -11.044624 -20.328401 33.745707 0.422495 2.217300 0.069402 -0.038428 470545.000000 0 0 1
-25.960765 -10.740024 -20.313901 34.669353 0.392262 2.196827 0.065963 -0.037214 254248.000000 0 0 1
-26.301395 -9.837824 -21.486001 35.358088 0.357930 2.223918 0.072870 -0.028580 -270082.000000 0 0 1
-26.264405 -10.344924 -22.764301 36.263616 0.375216 2.249449 0.050623 -0.029325 281253.000000 0 0 1
-26.727505 -9.315524 -23.606801 36.856744 0.335371 2.265947 0.040256 -0.028244 -524387.000000 0 0 1
-26.716365 -9.546324 -25.108601 37.885859 0.343182 2.295273 0.029000 -0.018480 -469347.000000 0 0 1
-25.505545 -9.556524 -25.804171 37.519531 0.358494 2.329186 0.020842 -0.029380 -510085.000000 0 0 1
-24.900755 -10.847324 -25.813291 37.470496 0.410833 2.330762 0.021283 -0.014299 -139125.000000 0 0 1
-23.790355 -10.918024 -26.896431 37.531350 0.430252 2.369768 0.035115 -0.013162 -122934.000000 0 0 1
-24.280855 -10.967024 -28.204781 38.798779 0.424245 2.384667 0.036124 -0.003667 -472507.000000 0 0 1
-23.240855 -10.934124 -29.123331 38.831184 0.439746 2.418856 0.047876 0.000379 -357422.000000 0 0 1
-23.630455 -11.322024 -30.526211 40.229793 0.446811 2.432259 0.049443 -0.002540 365152.000000 0 0 1
-24.650355 -10.444224 -31.024411 40.978481 0.400764 2.429644 0.036460 -0.009131 200687.000000 0 0 1
-24.188955 -9.469824 -31.948511 41.176334 0.373152 2.458929 0.042826 -0.014236 -228144.000000 0 0 1
-25.247125 -8.481924 -32.547441 42.055871 0.324109 2.455788 0.032605 -0.012234 -109676.000000 0 0 1
-26.202355 -9.071224 -33.443591 43.443346 0.333284 2.449357 0.046582 -0.012804 1984500.000000 0 0 1
-27.450105 -9.612624 -32.923521 43.930275 0.336840 2.418026 0.048148 -0.013711 1026380.000000 0 0 1
-28.357805 -8.656024 -32.143401 43.729739 0.296260 2.396532 0.031094 -0.006631 -1019280.000000 0 0 1
-29.736185 -8.809724 -32.370951 44.830017 0.288025 2.377604 0.033628 -0.003442 82559.700000 0 0 1
-30.590355 -8.393124 -31.323591 44.580060 0.267782 2.349893 0.039066 -0.005356 312606.000000 0 0 1
-32.051025 -8.859824 -31.495841 45.801230 0.269694 2.329062 0.042096 -0.009507 52082.800000 0 0 1
-32.136285 -10.256424 -31.401561 46.086800 0.308935 2.320411 0.035959 -0.007362 1213570.000000 0 0 1
-33.511855 -10.645024 -31.182861 46.997147 0.307569 2.296291 0.028206 -0.004182 951394.000000 0 0 1
-33.483355 -12.176524 -30.968271 47.206320 0.348791 2.286329 0.024157 -0.002913 -755282.000000 0 0 1
-34.742092 -12.799024 -31.024491 48.304731 0.352973 2.268247 0.019407 -0.002198 -160656.000000 0 0 1
-34.566664 -14.211324 -31.005871 48.561096 0.390063 2.263334 0.020266 -0.004390 -414033.000000 0 0 1
-35.819143 -15.006324 -30.701091 49.505129 0.396733 2.239743 0.010038 -0.008826 -491257.000000 0 0 1
-36.149675 -14.838124 -29.353671 48.873377 0.389494 2.215056 0.028614 -0.006250 -605800.000000 0 0 1
36.342935 -15.859924 -28.907761 49.071425 -0.411484 2.200736 0.025417 -0.009067 -449283.000000 0 0 1
36.453505 -15.804124 -27.357151 48.239424 -0.409083 2.173791 0.051336 -0.009989 185303.000000 0 0 1
-35.517339 -16.022624 -26.854041 47.321722 0.423786 2.174236 0.038711 -0.018044 187287.000000 0 0 1
-35.484692 -16.200724 -25.472811 46.588528 0.428292 2.149288 0.063588 -0.025290 1087330.000000 0 0 1
-34.128682 -15.651524 -24.824901 45.011253 0.429985 2.154990 0.078041 -0.028058 1438290.000000 0 0 1
-32.994045 -16.428224 -25.185171 44.640636 0.461978 2.170231 0.065731 -0.024399 -107307.000000 0 0 1
-31.828125 -15.874024 -24.633301 43.264463 0.462641 2.176530 0.069625 -0.018781 620156.000000 0 0 1
-30.493805 -16.696824 -24.737201 42.668316 0.500959 2.189225 0.051785 -0.014883 599146.000000 0 0 1
-30.449115 -17.859824 -23.942301 42.653906 0.530469 2.166771 0.059521 -0.017641 -182714.000000 0 0 1
-31.266285 -18.895924 -24.387901 43.925007 0.543615 2.159420 0.048632 -0.018013 -425303.000000 0 0 1
-31.124685 -20.275524 -23.679201 44.051645 0.577379 2.138305 0.041947 -0.020113 -502893.000000 0 0 1
-29.898525 -20.914424 -23.867301 43.600264 0.610399 2.150065 0.043320 -0.016481 -330524.000000 0 0 1
-29.877745 -22.154824 -23.106901 43.788637 0.638049 2.126677 0.043617 -0.006302 -774429.000000 0 0 1
-28.580315 -22.960624 -23.268001 43.421476 0.676794 2.136327 0.046260 -0.010813 806464.000000 0 0 1
-27.384215 -22.355124 -22.700201 42.011260 0.684632 2.141633 0.055835 -0.019017 820860.000000 0 0 1
-27.285765 -22.054324 -21.299601 41.043626 0.679765 2.116419 0.061388 -0.022553 -603371.000000 0 0 1
-27.267215 -23.274024 -20.381801 41.238320 0.706553 2.087762 0.058722 -0.017013 -39320.600000 0 0 1
-27.186475 -22.911624 -18.974401 40.299812 0.700275 2.061029 0.054854 -0.015929 -33504.200000 0 0 1
-27.136785 -23.962224 -18.042901 40.449222 0.723352 2.033158 0.048086 0.005841 66165.300000 0 0 1
-27.111635 -23.409624 -16.628301 39.491159 0.712253 2.005414 0.041650 0.009564 607386.000000 0 0 1
-28.310545 -22.727224 -16.223101 39.764339 0.676436 1.991038 0.031968 0.003403 322988.000000 0 0 1
-28.110015 -21.668224 -15.302801 38.650493 0.656704 1.977874 0.040689 -0.004167 341696.000000 0 0 1
-29.453965 -21.092324 -14.758501 39.118225 0.621457 1.957653 0.042284 -0.000750 518618.000000 0 0 1
-30.161655 -20.327724 -15.717901 39.623153 0.593034 1.978699 0.038494 0.000341 -441547.000000 0 0 1
-31.327025 -19.769324 -15.195701 40.038956 0.562947 1.960077 0.038957 0.001465 -522888.000000 0 0 1
-32.242065 -19.131724 -16.252601 40.862216 0.535536 1.979850 0.045642 -0.014299 -371197.000000 0 0 1
-32.997535 -20.095824 -16.957901 42.193007 0.547018 1.984401 0.028601 -0.006172 -219244.000000 0 0 1
-33.740015 -19.510124 -17.986601 42.924951 0.524272 2.003167 0.025873 -0.008030 -73130.800000 0 0 1
-34.428269 -20.547524 -18.952101 44.347363 0.538079 2.012362 0.015414 -0.002646 539059.000000 0 0 1
-35.490276 -21.383424 -18.455101 45.358586 0.542267 1.989823 0.011251 0.004172 455570.000000 0 0 1
-35.174947 -22.268924 -17.392901 45.118676 0.564396 1.966538 0.007989 0.004262 -228586.000000 0 0 1
-36.104495 -23.513024 -17.456801 46.488028 0.577253 1.955745 0.016048 0.010706 -252977.000000 0 0 1
35.858835 -23.346524 -17.033901 46.055076 -0.577125 1.949654 0.024132 0.001959 -428978.000000 0 0 1
35.124355 -24.553024 -16.958101 46.088485 -0.610076 1.947596 0.026421 -0.002087 570015.000000 0 0 1
33.713135 -24.414324 -16.328201 44.712916 -0.626769 1.944621 0.040095 -0.005748 -4984.270000 0 0 1
32.648425 -24.076024 -17.142101 44.038917 -0.635410 1.970612 0.044725 -0.001831 145876.000000 0 0 1
31.402405 -24.365924 -16.486501 43.030385 -0.659888 1.963986 0.069066 -0.009169 358200.000000 0 0 1
30.150815 -24.298624 -17.340401 42.428578 -0.678330 1.991821 0.079694 -0.015779 -377147.000000 0 0 1
29.826735 -22.946124 -17.589201 41.539604 -0.655748 2.008027 0.048468 -0.009038 853111.000000 0 0 1
28.550685 -22.904024 -18.264101 40.906152 -0.676095 2.033633 0.061571 -0.014757 817664.000000 0 0 1
34.796365 29.424576 -18.047201 49.013204 0.701947 1.947880 0.039406 -0.009932 38216.900000 0 0 1
34.035485 29.412076 -19.248301 48.928331 0.712657 1.975121 0.036717 -0.016425 388127.000000 0 0 1
34.828965 29.100776 -20.394001 49.757686 0.696035 1.993104 0.036440 -0.007789 174931.000000 0 0 1
33.979925 29.322976 -21.670701 49.840661 0.711964 2.020612 0.041574 -0.004420 -341238.000000 0 0 1
32.968015 28.355176 -21.927501 48.700322 0.710318 2.037846 0.032103 -0.003821 399557.000000 0 0 1
32.327435 28.619676 -23.178301 49.003904 0.724637 2.063476 0.046907 -0.003163 -193208.000000 0 0 1
31.142895 29.590076 -23.100701 48.775967 0.759836 2.064179 0.056153 0.000961 -1156300.000000 0 0 1
31.460185 30.948876 -22.839501 49.691237 0.777205 2.048373 0.059169 -0.009394 -415062.000000 0 0 1
30.362275 31.812776 -22.894401 49.578968 0.808723 2.050793 0.065194 0.001178 -686817.000000 0 0 1
30.719205 33.274176 -22.535801 50.583621 0.825303 2.032547 0.059452 -0.000587 -38364.100000 0 0 1
31.073145 33.406276 -21.201401 50.309234 0.821567 2.005809 0.059661 -0.005425 223325.000000 0 0 1
32.485715 33.317376 -21.053801 51.074767 0.798036 1.995681 0.056882 -0.011803 98295.800000 0 0 1
32.973005 33.124976 -19.563901 50.667833 0.787697 1.967219 0.049119 -0.018395 -183396.000000 0 0 1
32.817275 -33.837868 -18.923601 50.794463 -0.800709 1.952554 0.057228 -0.017255 201145.000000 0 0 1
32.822895 -33.855668 -17.510101 50.300619 -0.800886 1.926350 0.050510 -0.034054 -690691.000000 0 0 1
32.812745 -32.431268 -16.923001 49.141137 -0.779551 1.922370 0.054286 -0.020727 554439.000000 0 0 1
34.033525 -31.685368 -17.001001 49.510377 -0.749683 1.921312 0.044941 -0.020919 1750490.000000 0 0 1
35.139565 -32.209568 -16.179901 50.339194 -0.741921 1.898022 0.044175 -0.024932 1318970.000000 0 0 1
36.507635 -31.454668 -16.227101 50.848032 -0.711185 1.895607 0.021508 -0.009878 -100847.000000 0 0 1
-36.147915 -31.693068 -17.448701 51.142737 0.719826 1.918965 0.015211 -0.008664 280145.000000 0 0 1
-34.913236 -30.922168 -17.447201 49.794772 0.724850 1.928775 0.003242 -0.001215 783618.000000 0 0 1
-33.918495 -31.522968 -18.457001 49.847996 0.748809 1.950091 0.016698 -0.006930 -1038780.000000 0 0 1
-33.314125 -32.682968 -17.919901 49.991301 0.775835 1.937414 0.026060 -0.015792 166446.000000 0 0 1
-32.608435 -33.579768 -18.769901 50.430349 0.800072 1.952169 0.057916 -0.010425 180951.000000 0 0 1
-31.267345 -32.983668 -19.273701 49.366434 0.812105 1.971885 0.040834 -0.006462 -1357380.000000 0 0 1
-31.395625 -31.990468 -20.298401 49.204679 0.794782 1.996026 0.031818 -0.005344 60927.500000 0 0 1
-30.234115 -31.369768 -20.837701 48.294657 0.803831 2.016918 0.043887 -0.005461 419528.000000 0 0 1
-29.203855 -32.334968 -21.499201 48.586325 0.836235 2.029175 0.041490 0.006370 -276654.000000 0 0 1
-29.798855 -32.913468 -22.598501 49.819277 0.835022 2.041608 0.035543 0.010555 -503313.000000 0 0 1
-29.041195 -33.988068 -23.055701 50.300548 0.863723 2.046944 0.030306 0.004039 -416786.000000 0 0 1
-29.621755 33.402876 -24.196501 50.780618 -0.845321 2.067455 0.026628 -0.004758 -180902.000000 0 0 1
-30.852445 32.827776 -23.811901 50.956284 -0.816408 2.057031 0.015723 -0.014907 -207826.000000 0 0 1
-31.514115 32.003176 -24.743301 51.279369 -0.793098 2.074325 0.019715 -0.009949 506149.000000 0 0 1
-32.452625 32.729276 -25.771631 52.806774 -0.789642 2.080635 0.036337 -0.020302 -693136.000000 0 0 1
-31.745835 33.535976 -26.687381 53.335505 -0.812813 2.094820 0.033243 -0.024795 -444908.000000 0 0 1
-32.522735 -33.804568 -27.412191 54.331440 0.804722 2.099641 0.033864 -0.024381 -79193.400000 0 0 1
-31.706125 -32.983568 -28.453261 53.877474 0.805143 2.127170 0.024112 -0.021248 49908.200000 0 0 1
-31.525285 -33.498768 -29.771371 54.793664 0.815739 2.145202 0.029100 -0.022760 750496.000000 0 0 1
-32.795035 -33.576568 -30.441181 55.942522 0.797173 2.146173 0.035728 -0.018872 640270.000000 0 0 1
-32.762165 33.728076 -31.656341 56.683918 -0.799924 2.163338 0.047334 -0.020873 -251913.000000 0 0 1
-31.884285 34.099576 -32.667691 56.978652 -0.818959 2.181363 0.054729 -0.030555 -256388.000000 0 0 1
-32.148605 33.375576 -33.816781 57.367557 -0.804121 2.201206 0.052667 -0.038978 -307587.000000 0 0 1
-31.126925 33.693976 33.300979 56.684431 -0.824980 0.942855 0.070863 -0.043777 329592.000000 0 0 1
-29.795675 33.244876 33.440638 55.778852 -0.840058 0.927893 0.071515 -0.039052 -240509.000000 0 0 1
-29.649515 31.930476 32.908697 54.604317 -0.822422 0.923946 0.079524 -0.039217 144341.000000 0 0 1
-28.185345 31.413276 32.841289 53.476704 -0.839506 0.909522 0.076824 -0.033101 639570.000000 0 0 1
-27.572185 31.072376 34.093930 53.741176 -0.845012 0.883552 0.077598 -0.035141 -113284.000000 0 0 1
-26.265345 30.555076 33.992388 52.715875 -0.860752 0.870005 0.085985 -0.032929 -214420.000000 0 0 1
-25.868755 29.068776 34.032066 51.694949 -0.843581 0.852205 0.105916 -0.038995 -268974.000000 0 0 1
-25.860795 28.455876 -32.953611 50.640479 -0.833139 2.279350 0.106240 -0.031752 79160.100000 0 0 1
-25.480405 27.132476 -33.097881 49.808554 -0.816788 2.297623 0.090972 -0.021257 -293973.000000 0 0 1
-25.434545 26.287176 -31.732871 48.424238 -0.801882 2.285389 0.108576 -0.016623 -134736.000000 0 0 1
-24.404655 26.483976 -30.798951 47.387378 -0.826236 2.278302 0.087965 -0.019022 -340634.000000 0 0 1
-24.313755 27.776976 -30.195161 47.691371 -0.851785 2.256395 0.062511 -0.022060 326560.000000 0 0 1
-22.937455 28.043476 -29.517251 46.731483 -0.885221 2.254457 0.094718 -0.021824 -780579.000000 0 0 1
-21.890755 28.340976 -30.330571 46.929305 -0.913109 2.273527 0.099409 -0.017113 -1651760.000000 0 0 1
-20.659555 28.356476 -29.699461 45.966999 -0.941155 2.273265 0.052228 -0.010495 -434730.000000 0 0 1
-20.288555 29.631876 -28.848181 46.063990 -0.970422 2.247547 0.033949 -0.012936 -1219570.000000 0 0 1
-19.847955 30.711576 -29.544661 47.010948 -0.997048 2.250373 0.032817 -0.006563 -123988.000000 0 0 1
-19.600555 31.868576 -28.774581 47.199200 -1.019389 2.226404 0.046882 -0.011727 113764.000000 0 0 1
-19.108855 33.133876 -29.574821 48.349479 -1.047673 2.228990 0.039805 -0.007297 190452.000000 0 0 1
-17.819355 32.961776 -30.119651 48.074957 -1.075193 2.247869 0.032910 -0.002589 -291097.000000 0 0 1
-17.510755 33.965976 -31.065341 49.248041 -1.094796 2.253372 0.042123 -0.000610 -292328.000000 0 0 1
-16.016555 34.012776 -31.392061 48.978164 -1.130700 2.266518 0.020071 0.014653 -528853.000000 0 0 1
-15.240455 -33.714668 -30.325061 47.838893 1.146245 2.257381 0.032429 -0.000004 1181900.000000 0 0 1
-13.803055 -33.732468 -30.512171 47.533108 1.182391 2.267788 0.057708 0.005322 1582470.000000 0 0 1
-13.109055 33.132776 -30.367491 46.816800 -1.194044 2.276599 0.062306 -0.003760 -560236.000000 0 0 1
-13.118555 32.696576 -29.027811 45.648400 -1.189238 2.259970 0.071669 -0.015378 -123974.000000 0 0 1
-12.896155 31.291876 -29.074251 44.618431 -1.179882 2.280514 0.066886 -0.011392 -31256.200000 0 0 1
-12.834455 30.714476 -27.668151 43.285435 -1.174986 2.264257 0.055138 -0.022509 424854.000000 0 0 1
-11.568855 30.927476 -27.047511 42.683897 -1.212847 2.257085 0.070885 -0.022889 70087.500000 0 0 1
-11.497655 30.595376 -25.657711 41.552272 -1.211327 2.236332 0.050305 -0.023928 -809066.000000 0 0 1
-10.168755 31.072376 -25.148671 41.247446 -1.254521 2.226482 0.059841 -0.027791 -566267.000000 0 0 1
-9.104555 30.384576 -25.780061 40.874527 -1.279666 2.253267 0.072356 -0.025000 -743925.000000 0 0 1
-7.873555 30.771776 -25.220801 40.558401 -1.320301 2.241885 0.078827 -0.030072 274359.000000 0 0 1
-6.685255 30.006576 -25.895021 40.195017 -1.351584 2.270818 0.065941 -0.032503 30242.900000 0 0 1
-6.506755 28.693076 -25.424581 38.884956 -1.347797 2.283446 0.069175 -0.039175 -521007.000000 0 0 1
-5.391655 28.113276 -26.025071 38.687602 -1.381314 2.308645 0.065471 -0.043294 -835.703000 0 0 1
-4.765055 27.000976 -25.108301 37.177752 -1.396118 2.312247 0.085617 -0.031984 573829.000000 0 0 1
-5.746155 25.946376 -25.046231 36.517755 -1.352851 2.326587 0.091049 -0.028341 786068.000000 0 0 1
-5.342955 24.922176 -24.196201 35.144248 -1.359608 2.330191 0.093398 -0.039311 -446768.000000 0 0 1
-6.279855 23.729376 -24.319001 34.553346 -1.312083 2.351543 0.091168 -0.034845 -124092.000000 0 0 1
-6.148355 23.036676 -25.550311 34.947234 -1.309982 2.390745 0.093969 -0.027336 862216.000000 0 0 1
-7.108855 21.935576 -25.556461 34.421476 -1.257398 2.407527 0.088363 -0.033094 479144.000000 0 0 1
-6.977455 21.050576 -26.850141 34.824442 -1.250731 2.451229 0.072500 -0.027352 244050.000000 0 0 1
-5.805655 20.253876 -26.932591 34.194877 -1.291637 2.477734 0.087873 -0.037146 -273822.000000 0 0 1
-5.587055 19.319676 -25.945261 32.827148 -1.289286 2.482193 0.079012 -0.031726 -405086.000000 0 0 1
-4.455655 18.307876 -26.187801 32.261930 -1.332064 2.517895 0.080735 -0.041168 101492.000000 0 0 1
-4.610255 17.617076 -27.419641 32.915840 -1.314844 2.555345 0.073913 -0.047947 -500992.000000 0 0 1
-3.583755 16.671676 -27.487171 32.347066 -1.359058 2.586322 0.079535 -0.050259 -266700.000000 0 0 1
-3.223655 16.384676 -28.969401 33.437640 -1.376529 2.618685 0.080792 -0.039275 -111164.000000 0 0 1
-2.418255 17.339776 -29.601231 34.391114 -1.432227 2.607485 0.083514 -0.043772 -49453.000000 0 0 1
-2.396955 17.124076 -30.956701 35.458380 -1.431724 2.632205 0.081826 -0.049049 -264910.000000 0 0 1
-1.468455 18.183876 -31.605931 36.493076 -1.490215 2.618104 0.080056 -0.028223 491332.000000 0 0 1
-0.108955 18.032876 -31.133761 35.979266 -1.564754 2.616595 0.083370 -0.033505 820084.000000 0 0 1
0.786545 18.945376 -31.740171 36.972752 1.529304 2.603084 0.086324 -0.012229 180907.000000 0 0 1
0.665545 20.458176 -31.374531 37.461195 1.538276 2.563526 0.086625 -0.026477 -622479.000000 0 0 1
1.255045 20.805976 -30.147271 36.651354 1.510548 2.536662 0.096541 -0.041364 -114672.000000 0 0 1
0.774445 22.033576 -29.671741 36.966072 1.535662 2.502563 0.094477 -0.041860 98585.600000 0 0 1
1.492045 22.470976 -28.358921 36.213249 1.504495 2.470446 0.094696 -0.049487 1284680.000000 0 0 1
2.742545 23.163076 -28.589511 36.897287 1.452943 2.457259 0.075597 -0.045608 327795.000000 0 0 1
3.811445 22.631876 -27.870441 36.103884 1.403951 2.452701 0.088240 -0.042935 -220154.000000 0 0 1
4.833945 23.683676 -27.418271 36.551951 1.369457 2.419037 0.090020 -0.043970 -181038.000000 0 0 1
5.447345 24.299176 -28.558461 37.890754 1.350264 2.424478 0.078413 -0.044832 -166386.000000 0 0 1
5.882145 25.567176 -28.235891 38.542777 1.344665 2.392909 0.087157 -0.045736 -102830.000000 0 0 1
6.723545 26.341376 -29.299201 39.968955 1.320886 2.393590 0.103473 -0.040608 371689.000000 0 0 1
8.089745 25.968276 -29.348341 40.014003 1.268801 2.394183 0.096354 -0.041752 17271.100000 0 0 1
8.843845 26.931976 -30.065661 41.321773 1.253513 2.385611 0.097976 -0.036418 136284.000000 0 0 1
10.331345 26.823976 -29.648321 41.295101 1.203154 2.371667 0.087195 -0.027813 175776.000000 0 0 1
11.150045 27.821476 -30.227091 42.568005 1.189625 2.360422 0.091377 -0.021892 -489343.000000 0 0 1
12.329445 28.098876 -29.544741 42.596406 1.157305 2.337267 0.084007 -0.020913 -584405.000000 0 0 1
13.312445 28.928676 -30.361751 43.999153 1.139508 2.332359 0.084051 -0.030710 -319189.000000 0 0 1
12.953545 30.293176 -30.467941 44.875007 1.166720 2.317130 0.099718 -0.028292 92446.600000 0 0 1
13.805145 30.881576 -31.397591 46.152600 1.150411 2.318968 0.133754 -0.042332 -77061.300000 0 0 1
13.499945 32.420276 -31.441481 47.136924 1.176229 2.301004 0.136895 -0.050283 342818.000000 0 0 1
12.236745 32.748976 -31.992791 47.389577 1.213207 2.311899 0.118977 -0.046244 153089.000000 0 0 1
11.979745 34.099376 -31.831201 48.161262 1.232947 2.292853 0.105957 -0.042886 -664625.000000 0 0 1
10.618545 -33.665268 -32.289761 47.840698 -1.265258 2.311684 0.074773 -0.031213 -727359.000000 0 0 1
10.426845 -33.604668 -33.692871 48.715525 -1.269936 2.334533 0.079272 -0.012019 440048.000000 0 0 1
9.082445 -33.320868 -34.070365 48.513512 -1.304686 2.349400 0.092658 -0.022785 274538.000000 0 0 1
8.881945 -32.777368 32.751629 47.179593 -1.306173 0.803502 0.090063 -0.020267 -14227.800000 0 0 1
9.109745 -31.376068 32.622690 46.170174 -1.288225 0.786150 0.075926 -0.026585 93820.300000 0 0 1
9.285945 -30.884668 31.311462 44.949962 -1.278729 0.800170 0.095235 -0.026698 -472324.000000 0 0 1
8.887545 -29.407068 31.116532 43.726452 -1.277300 0.778998 0.083037 -0.039027 1455900.000000 0 0 1
7.481345 -29.059768 31.067132 43.192676 -1.318821 0.768048 0.072090 -0.023135 1386680.000000 0 0 1
6.627145 -29.265968 32.188342 44.005741 -1.348107 0.750339 0.061054 -0.012621 732557.000000 0 0 1
5.116545 -28.950468 31.866312 43.356320 -1.395868 0.745149 0.060803 -0.019684 952112.000000 0 0 1
4.426845 -29.950068 31.089792 43.395607 -1.424051 0.772129 0.077364 -0.027737 191036.000000 0 0 1
4.721845 -30.019768 29.726242 42.510372 -1.414783 0.796420 0.085178 -0.035551 -555668.000000 0 0 1
3.953245 -29.063468 28.783612 41.095129 -1.435605 0.794819 0.051201 -0.033539 428875.000000 0 0 1
2.590645 -29.464568 28.590632 41.137531 -1.483098 0.802375 0.074153 -0.038178 592992.000000 0 0 1
2.030945 -28.670868 27.544052 39.809775 -1.500078 0.806691 0.083168 -0.046058 -176322.000000 0 0 1
0.557145 -29.013468 27.226672 39.791750 -1.551596 0.817250 0.064460 -0.043766 36206.700000 0 0 1
0.364045 -30.225768 26.584482 40.254990 -1.558753 0.849442 0.079392 -0.048790 19674.600000 0 0 1
0.206845 -31.312168 27.490932 41.668285 -1.564191 0.850301 0.105762 -0.055940 -860450.000000 0 0 1
0.673345 -32.680568 26.984932 42.387020 -1.550195 0.880673 0.101411 -0.058827 699675.000000 0 0 1
2.095445 -32.890768 26.957332 42.578060 -1.507173 0.885210 0.102712 -0.051593 870683.000000 0 0 1
2.758945 -32.272168 25.869792 41.452994 -1.485514 0.896849 0.094608 -0.051741 -321577.000000 0 0 1
4.297745 -32.293068 26.091082 41.737961 -1.438488 0.895516 0.110858 -0.035772 74462.700000 0 0 1
4.899645 -31.968268 24.891512 40.811322 -1.418714 0.914841 0.113921 -0.054624 745419.000000 0 0 1
6.333845 -31.887268 25.044502 41.038305 -1.374716 0.914393 0.087216 -0.050663 935074.000000 0 0 1
7.162745 -31.850868 23.750652 40.371725 -1.349592 0.941842 0.084710 -0.049284 770197.000000 0 0 1
8.583745 -31.824768 23.974872 40.758938 -1.307346 0.941951 0.077452 -0.037105 802459.000000 0 0 1
9.312745 -31.784368 22.782492 40.199691 -1.285776 0.968261 0.060127 -0.032711 71579.300000 0 0 1
10.314145 -30.606968 22.672992 39.461787 -1.245761 0.958735 0.052561 -0.023556 13579.800000 0 0 1
11.562445 -30.787668 23.314342 40.312891 -1.211540 0.954110 0.057565 -0.032468 81178.700000 0 0 1
12.320445 -29.584068 23.189092 39.556850 -1.176185 0.944409 0.046445 -0.024441 382239.000000 0 0 1
13.597045 -29.576268 24.069802 40.484449 -1.139882 0.934097 0.091834 -0.028932 -74951.300000 0 0 1
13.295145 -29.634568 25.442932 41.259075 -1.149077 0.906300 0.071754 -0.027689 220399.000000 0 0 1
14.465845 -29.603968 26.258912 42.132956 -1.116274 0.897918 0.079844 -0.034982 109427.000000 0 0 1
-10.820855 -14.106524 25.851982 31.375307 0.916452 0.602433 0.069333 -0.027454 -191757.000000 0 0 1
-9.423455 -14.020924 25.853942 30.883881 0.979042 0.578774 0.062562 -0.021990 -755638.000000 0 0 1
-8.857255 -14.889624 26.790692 31.904436 1.034164 0.574035 0.066941 -0.031951 -730984.000000 0 0 1
-7.332555 -14.843524 26.729662 31.441555 1.111968 0.554549 0.079267 -0.020308 -399759.000000 0 0 1
-6.718355 -15.569624 25.638292 30.738762 1.163430 0.584351 0.073693 -0.019867 163486.000000 0 0 1
-6.906255 -15.065924 24.311512 29.423257 1.140977 0.598346 0.073317 -0.018393 -745684.000000 0 0 1
-6.154955 -15.950424 23.310172 28.907847 1.202521 0.632823 0.074132 -0.023956 243781.000000 0 0 1
-6.764855 -17.223524 22.962692 29.490647 1.196540 0.678296 0.077435 -0.025429 45266.300000 0 0 1
-6.913055 -18.136724 24.036422 30.894670 1.206633 0.679301 0.076172 -0.026531 25184.500000 0 0 1
-7.728855 -19.425324 23.680442 31.588633 1.192123 0.723262 0.069030 -0.028530 -276213.000000 0 0 1
-9.105155 -19.247424 23.493682 31.706786 1.128933 0.736287 0.061166 -0.029192 -467600.000000 0 0 1
-9.615355 -20.624924 23.344362 32.600641 1.134552 0.772640 0.052221 -0.024584 -160679.000000 0 0 1
-11.134455 -20.671524 23.507412 33.224786 1.076719 0.784805 0.065660 -0.031468 -273702.000000 0 0 1
-11.692855 -20.392224 24.784002 34.158636 1.050167 0.758954 0.067326 -0.031576 -1010180.000000 0 0 1
-13.067755 -20.490324 24.856402 34.762916 1.003079 0.774134 0.074088 -0.026121 -897674.000000 0 0 1
-13.554955 -20.469924 26.279982 35.963760 0.985900 0.751398 0.071911 -0.022696 -654898.000000 0 0 1
-13.257355 -21.625024 26.961062 37.017536 1.020832 0.754912 0.074267 -0.019048 402090.000000 0 0 1
-12.369055 -21.435224 28.090322 37.436994 1.047428 0.722226 0.072354 -0.020998 606923.000000 0 0 1
-11.931555 -22.803524 28.713862 38.559675 1.088736 0.730770 0.079219 -0.027462 185259.000000 0 0 1
-13.010255 -23.449624 29.378552 39.777518 1.064262 0.739847 0.072379 -0.027201 -13019.500000 0 0 1
-12.739855 -24.765724 29.794622 40.784366 1.095683 0.751684 0.065908 -0.031541 20487.900000 0 0 1
-13.718255 -25.357544 30.855552 42.228671 1.074895 0.751482 0.064195 -0.024312 307782.000000 0 0 1
-13.650855 -24.606724 32.025182 42.631549 1.064305 0.720905 0.063029 -0.024880 -239965.000000 0 0 1
-14.653055 -25.074114 32.905107 43.888145 1.041934 0.723113 0.060238 -0.027693 -285736.000000 0 0 1
-14.514655 -24.669524 -33.828721 44.313012 1.038977 2.439363 0.054483 -0.027448 -75157.000000 0 0 1
-14.770155 -23.291124 -33.502141 43.393864 1.005642 2.452853 0.057786 -0.029216 -609107.000000 0 0 1
-16.121155 -22.952524 -33.605581 43.772652 0.958482 2.446087 0.049295 -0.031292 -919987.000000 0 0 1
-16.339055 -21.457324 -33.474801 42.987717 0.919996 2.463397 0.048909 -0.026947 -79532.400000 0 0 1
-16.249055 -20.934924 -32.166891 41.677473 0.910756 2.452472 0.044500 -0.028576 46000.800000 0 0 1
-16.327555 -19.539224 -32.210721 41.059723 0.874704 2.472661 0.042833 -0.030994 -211333.000000 0 0 1
-16.493655 -18.938024 -30.813771 39.751452 0.854277 2.457766 0.045340 -0.018129 787643.000000 0 0 1
-17.704955 -19.382224 -30.153411 39.979548 0.830592 2.425263 0.043719 -0.017669 843079.000000 0 0 1
-17.683755 -19.184724 -28.725641 38.806330 0.826087 2.404210 0.039399 -0.014807 -206570.000000 0 0 1
-16.791855 -20.102424 -27.886431 38.258684 0.874890 2.387498 0.031247 -0.008816 -247451.000000 0 0 1
-15.415355 -19.900124 -28.103401 37.728627 0.911714 2.411155 0.021580 -0.004784 -345985.000000 0 0 1
-14.747155 -21.034324 -27.585091 37.694278 0.959333 2.391772 0.007644 0.003453 310574.000000 0 0 1
-13.194955 -21.000724 -27.583661 37.094415 1.009821 2.409245 0.025340 -0.005024 142194.000000 0 0 1
-12.756355 -20.054024 -26.579901 35.656411 1.004255 2.411999 0.025075 -0.007920 224287.000000 0 0 1
-11.356655 -20.006924 -26.352281 34.981328 1.054514 2.423899 0.013149 -0.006051 434965.000000 0 0 1
-10.769555 -21.151224 -25.459741 34.807413 1.099840 2.391236 0.034898 -0.014169 -442803.000000 0 0 1
-10.697355 -22.447224 -26.045761 36.009623 1.126079 2.379366 0.041937 -0.018613 134437.000000 0 0 1
-10.184155 -23.382124 -25.114961 35.793882 1.160021 2.348514 0.069998 -0.017162 -288370.000000 0 0 1
-10.024355 -24.818124 -25.720181 37.120812 1.186921 2.336269 0.069248 -0.013338 118872.000000 0 0 1
-8.936755 -25.094164 -26.602061 37.646412 1.228672 2.355520 0.067511 -0.009608 408832.000000 0 0 1
-9.166255 -26.333274 -27.239041 38.979827 1.235827 2.344513 0.064689 -0.018422 10450.300000 0 0 1
-9.048055 -27.697334 -26.506661 39.390515 1.255049 2.308945 0.080296 -0.019867 -693624.000000 0 0 1
-9.999155 -27.914544 -25.531381 39.128714 1.226830 2.281672 0.069058 -0.023858 -553401.000000 0 0 1
-9.862255 -29.135844 -24.822401 39.526106 1.244410 2.249777 0.099431 -0.028189 -447405.000000 0 0 1
-10.995655 -29.355684 -23.802801 39.360309 1.212406 2.220237 0.098723 -0.032691 -15839.000000 0 0 1
-10.949755 -28.403354 -22.813701 38.040933 1.202844 2.213941 0.093856 -0.030726 -44692.800000 0 0 1
-11.910255 -27.410314 -23.125501 37.788468 1.160892 2.229349 0.062788 -0.027158 -377072.000000 0 0 1
-11.747355 -26.108974 -22.260501 36.265807 1.147996 2.231681 0.070177 -0.031679 119062.000000 0 0 1
-12.244655 -26.397714 -20.941201 35.851148 1.136482 2.194586 0.051024 -0.031110 298330.000000 0 0 1
-12.209055 -25.332104 -20.112801 34.573129 1.121685 2.191671 0.043216 -0.020690 -132905.000000 0 0 1
-12.614355 -25.728554 -18.660301 34.194843 1.114950 2.148027 0.066390 -0.025201 1069890.000000 0 0 1
-14.002155 -26.113524 -18.538301 34.952040 1.078607 2.129860 0.086896 -0.026268 875568.000000 0 0 1
-14.388455 -26.557794 -17.273101 34.795173 1.074287 2.090269 0.087267 -0.014987 547015.000000 0 0 1
-15.951155 -26.544604 -17.192401 35.420813 1.029701 2.077589 0.087202 -0.023381 -42010.600000 0 0 1
-16.572055 -25.263244 -17.147001 34.740238 0.990232 2.086995 0.076333 -0.016511 1287100.000000 0 0 1
-17.972255 -25.229164 -16.787801 35.232697 0.951823 2.067447 0.093564 -0.019815 1560320.000000 0 0 1
-19.074455 -25.911524 -17.665801 36.705891 0.936226 2.072910 0.087466 -0.016377 -463296.000000 0 0 1
-18.890855 -27.273474 -18.024501 37.756978 0.965023 2.068469 0.084193 -0.024651 -40264.000000 0 0 1
-19.309155 -28.118064 -16.978501 38.101686 0.969041 2.032652 0.076625 -0.029383 -7035.300000 0 0 1
-20.800155 -28.562354 -16.870901 39.154589 0.941370 2.016263 0.072417 -0.020974 487435.000000 0 0 1
-21.199655 -29.538154 -17.835301 40.497233 0.948287 2.026849 0.063003 -0.018529 -447883.000000 0 0 1
-22.461355 -30.055374 -17.545101 41.420629 0.929005 2.008194 0.057096 -0.010765 -346698.000000 0 0 1
-23.057255 -31.105134 -18.551701 42.934042 0.932907 2.017614 0.040566 -0.010447 -97895.500000 0 0 1
-22.487355 -32.387174 -18.620701 43.604365 0.963887 2.012010 0.040730 -0.020635 -212636.000000 0 0 1
-22.910655 -33.206644 -19.672701 44.884234 0.966853 2.024501 0.036908 -0.006773 -63445.200000 0 0 1
-22.265155 33.665533 -19.493701 44.823093 -0.986474 2.020727 0.033437 -0.012725 -142823.000000 0 0 1
-22.929155 32.780684 -18.635001 44.131425 -0.960425 2.006735 0.033659 -0.015389 -358466.000000 0 0 1
-22.100655 31.733700 -18.281501 42.774759 -0.962463 2.012400 0.030060 -0.021040 -179978.000000 0 0 1
-22.946255 30.434320 -18.055801 42.175709 -0.924766 2.013196 0.037834 -0.025232 -121334.000000 0 0 1
-23.756655 30.497750 -16.948201 42.210579 -0.909014 1.983967 0.024719 -0.028746 -710720.000000 0 0 1
-24.619355 29.418710 -16.756401 41.861082 -0.873980 1.982625 0.037247 -0.021512 -322886.000000 0 0 1
-23.974855 28.061440 -16.420401 40.396382 -0.863771 1.989397 0.042479 -0.021837 -475412.000000 0 0 1
-23.420555 27.508800 -17.572901 40.175408 -0.865499 2.023507 0.039283 -0.022678 -213556.000000 0 0 1
-22.763955 26.306740 -17.306801 38.855728 -0.857471 2.032431 0.036879 -0.019085 -248789.000000 0 0 1
-21.803955 25.805780 -18.390501 38.465066 -0.869256 2.069297 0.059943 -0.017909 -670531.000000 0 0 1
-21.401055 24.474490 -18.054301 37.188219 -0.852293 2.077714 0.067516 -0.023517 -109772.000000 0 0 1
-20.823655 23.824210 -19.118001 36.969117 -0.852502 2.114296 0.061768 -0.023475 286645.000000 0 0 1
-19.319955 24.153330 -19.376001 36.497582 -0.896124 2.130440 0.055138 -0.023204 -46423.900000 0 0 1
-18.396755 23.690510 -18.400601 35.188962 -0.910522 2.121056 0.073088 -0.022134 378941.000000 0 0 1
-17.199755 24.455410 -18.329701 35.069597 -0.957852 2.120772 0.086470 -0.032427 37172.600000 0 0 1
-17.153155 25.753270 -17.436801 35.517654 -0.983216 2.083957 0.087000 -0.032036 -225943.000000 0 0 1
-17.868255 26.812660 -18.046501 36.930604 -0.982971 2.081349 0.075559 -0.029616 -3307.920000 0 0 1
-17.475755 28.019270 -17.468001 37.357899 -1.013129 2.057353 0.082053 -0.039016 -339440.000000 0 0 1
-18.524255 29.142250 -17.666501 38.788195 -1.004576 2.043686 0.078431 -0.033716 25147.700000 0 0 1
-18.582955 29.777790 -18.934601 39.881852 -1.012877 2.065496 0.054163 -0.035426 49483.800000 0 0 1
-19.180855 28.959580 -19.910501 40.037365 -0.985801 2.091278 0.045258 -0.027650 -367942.000000 0 0 1
-19.236155 29.582200 -21.343701 41.239421 -0.994238 2.114788 0.052773 -0.030488 -631968.000000 0 0 1
-20.258355 30.484210 -21.444301 42.421057 -0.984259 2.100770 0.051109 -0.027588 -725222.000000 0 0 1
-20.566155 30.621950 -22.820001 43.375374 -0.979376 2.124810 0.045736 -0.025107 -28489.900000 0 0 1
-20.995255 32.020610 -23.261201 44.801827 -0.990439 2.116713 0.044627 -0.022797 289953.000000 0 0 1
-20.012155 33.069966 -23.191501 45.077209 -1.026602 2.111202 0.034623 -0.020035 287722.000000 0 0 1
-20.414855 -34.014314 -23.936701 46.332554 1.030241 2.113704 0.024661 -0.011622 102983.000000 0 0 1
-19.512755 -32.754344 -23.681601 44.882211 1.033522 2.126615 0.041743 -0.007914 246999.000000 0 0 1
-19.606455 -32.068844 -22.446401 43.779730 1.022047 2.109137 0.039077 -0.011230 7863.810000 0 0 1
-19.095555 -32.867044 -21.377601 43.610602 1.044469 2.083107 0.042634 -0.021722 -269902.000000 0 0 1
-18.878655 -31.929744 -20.221701 42.247241 1.036831 2.069914 0.066079 -0.032406 -40558.600000 0 0 1
-17.934155 -30.939564 -20.587601 41.264268 1.045474 2.093149 0.068048 -0.034722 118453.000000 0 0 1
-17.571955 -30.142774 -19.476001 39.958416 1.043002 2.079914 0.064603 -0.034443 -695926.000000 0 0 1
-16.469655 -29.161944 -19.787001 38.899793 1.056688 2.104431 0.076426 -0.040994 -174061.000000 0 0 1
-15.221455 -29.780604 -20.019501 38.978936 1.098293 2.110169 0.081558 -0.045183 -917762.000000 0 0 1
-14.190655 -28.917814 -20.252201 38.049524 1.114597 2.132063 0.069141 -0.045025 -1453220.000000 0 0 1
-12.871355 -29.651994 -20.491601 38.272944 1.161260 2.135786 0.105739 -0.047728 -479083.000000 0 0 1
-12.306555 -30.309144 -19.388401 38.026380 1.185099 2.105827 0.098307 -0.039339 197658.000000 0 0 1
-11.585855 -29.531644 -18.448801 36.697524 1.196928 2.097546 0.066419 -0.035106 -287353.000000 0 0 1
-10.756555 -30.311704 -17.392601 36.565085 1.229794 2.066512 0.071317 -0.020947 269780.000000 0 0 1
-11.540155 -30.864064 -16.309101 36.766185 1.212988 2.030396 0.094340 -0.032859 202010.000000 0 0 1
-12.231655 -32.035284 -16.622801 38.107615 1.206061 2.022175 0.103793 -0.033887 -248233.000000 0 0 1
-13.113855 -32.482244 -15.433701 38.278826 1.187084 1.985798 0.098170 -0.043514 -830712.000000 0 0 1
-12.405655 -32.848494 -14.272601 37.902915 1.209693 1.956873 0.100430 -0.031485 -4087.780000 0 0 1
-13.292955 -33.423284 -13.309001 38.352941 1.192261 1.925182 0.100121 -0.027828 -34421.800000 0 0 1
-12.697855 -33.733234 -11.929201 37.966728 1.210782 1.890412 0.082192 -0.023287 -135116.000000 0 0 1
-12.388055 -32.556474 -11.203301 36.591008 1.207204 1.881970 0.059359 -0.017709 -104941.000000 0 0 1
-11.986255 -33.087134 -9.967501 36.575672 1.223239 1.846805 0.061264 -0.021763 -631541.000000 0 0 1
-10.660055 -32.473444 -9.524201 35.480582 1.253610 1.842564 0.066211 -0.023084 -86801.200000 0 0 1
-9.565955 -32.841204 -10.352401 35.738276 1.287359 1.864681 0.051144 -0.021733 -962869.000000 0 0 1
-8.395355 -32.371454 -9.825301 34.855840 1.317042 1.856553 0.046278 -0.026253 -110218.000000 0 0 1
-7.023955 -32.903724 -10.367901 35.206311 1.360483 1.869718 0.056549 -0.029338 877977.000000 0 0 1
-6.619955 34.121524 -9.812401 36.116277 -1.379166 1.845944 0.042420 -0.013323 500401.000000 0 0 1
-5.384655 33.553785 -10.285601 35.505558 -1.411675 1.864699 0.051943 -0.008133 603905.000000 0 0 1
-4.763155 32.532945 -9.386101 34.193261 -1.425419 1.848868 0.049109 -0.014324 -164888.000000 0 0 1
-4.202855 33.091937 -8.216001 34.354664 -1.444467 1.812289 0.057847 -0.019660 -64054.900000 0 0 1
-3.613455 32.077690 -7.409001 33.119912 -1.458622 1.796408 0.061959 -0.024674 144970.000000 0 0 1
-3.005055 32.610363 -6.050901 33.302846 -1.478906 1.753504 0.066509 -0.025778 -248827.000000 0 0 1
-2.020755 33.600329 -6.203001 34.227808 -1.510728 1.753030 0.060404 -0.025672 -48357.500000 0 0 1
-1.457355 34.099372 -4.983201 34.492367 -1.528084 1.715776 0.062029 -0.029971 644723.000000 0 0 1
-0.373155 33.261071 -4.225001 33.530415 -1.559578 1.697137 0.062122 -0.030263 21906.700000 0 0 1
0.973645 33.402526 -4.623301 33.735021 1.541656 1.708277 0.062738 -0.028360 -109962.000000 0 0 1
1.770345 32.613159 -3.748601 32.875588 1.516566 1.685069 0.053100 -0.031325 784640.000000 0 0 1
3.283445 32.558278 -4.161701 32.987001 1.470288 1.697295 0.059383 -0.030206 745162.000000 0 0 1
3.942045 33.809347 -3.925301 34.263971 1.454724 1.685609 0.056075 -0.029635 1021040.000000 0 0 1
5.376445 33.646597 -4.112501 34.320728 1.412344 1.690911 0.066744 -0.027107 1409690.000000 0 0 1
6.046145 -33.284574 -3.697501 34.030725 -1.391106 1.679663 0.071617 -0.026539 -213111.000000 0 0 1
5.882045 -32.169674 -4.592301 33.023864 -1.389950 1.710309 0.062035 -0.030658 -120225.000000 0 0 1
5.892345 -30.917024 -3.970001 31.722910 -1.382469 1.696272 0.065610 -0.030123 -536.150000 0 0 1
5.764945 -29.685694 -4.807701 30.620075 -1.378984 1.728460 0.050816 -0.026616 462380.000000 0 0 1
6.814945 -29.735904 -5.810201 31.055207 -1.345505 1.758998 0.054351 -0.023861 685478.000000 0 0 1
7.055945 -28.574784 -6.635901 30.171838 -1.328710 1.792546 0.042781 -0.018044 260657.000000 0 0 1
7.511645 -27.245044 -5.910001 28.872917 -1.301773 1.776943 0.052041 -0.017097 -263933.000000 0 0 1
6.536645 -26.680884 -5.107901 27.940793 -1.330535 1.754642 0.056965 -0.022930 -460973.000000 0 0 1
7.161745 -25.693194 -4.338801 27.023249 -1.298956 1.732052 0.055832 -0.022661 383717.000000 0 0 1
6.186245 -25.169474 -3.239301 26.120205 -1.329790 1.695132 0.055715 -0.020220 -24897.400000 0 0 1
5.027445 -24.560524 -3.694301 25.340528 -1.368889 1.717104 0.054595 -0.020374 -671893.000000 0 0 1
4.262045 -24.000524 -2.636101 24.518140 -1.395047 1.678521 0.050848 -0.019420 -66460.700000 0 1 0
3.018445 -23.301924 -3.206801 23.714431 -1.441977 1.706438 0.059894 -0.021957 -58056.400000 0 1 0
2.056845 -24.220424 -3.668101 24.582809 -1.486078 1.720570 0.062906 -0.023822 -18853.500000 0 1 0
0.775345 -23.613224 -3.802101 23.929928 -1.537973 1.730357 0.058892 -0.025287 675455.000000 0 1 0
-14.958255 22.853976 18.188192 32.815605 -0.991254 0.983329 0.020283 -0.026223 -334889.000000 0 0 1
-15.456555 22.653376 19.466392 33.630655 -0.972044 0.953505 0.020321 -0.020713 78636.800000 0 0 1
-15.025355 23.623676 20.425792 34.656202 -1.004305 0.940501 0.024766 -0.021320 -1003810.000000 0 0 1
-15.102155 23.016176 21.837292 35.138110 -0.990107 0.900178 0.031988 -0.020976 -21944.100000 0 0 1
-14.155955 21.968776 22.244692 34.319740 -0.998391 0.865630 0.026797 -0.018456 986125.000000 0 0 1
-12.777655 22.250076 22.067592 33.842473 -1.049507 0.860487 0.012652 -0.022937 -285467.000000 0 0 1
-12.195655 23.294976 22.978192 34.919726 -1.088501 0.852598 0.024821 -0.002434 -1190240.000000 0 0 1
-12.066655 22.909076 24.332822 35.531904 -1.086002 0.816445 0.021387 -0.002315 73896.900000 0 0 1
-11.781355 23.996476 25.175872 36.721325 -1.114405 0.815379 0.045160 -0.001278 -109144.000000 0 0 1
-11.531155 23.413076 26.547772 37.227999 -1.113159 0.776868 0.048490 -0.005015 726604.000000 0 0 1
-10.154555 23.036676 26.679262 36.682236 -1.155620 0.756406 0.021160 -0.007784 328551.000000 0 0 1
-9.917655 22.362776 27.892212 37.100258 -1.153370 0.719999 0.014815 -0.009243 -154521.000000 0 0 1
-8.409855 22.080176 28.132392 36.738145 -1.206882 0.698583 0.002930 -0.012679 913168.000000 0 0 1
-7.522955 23.157976 28.471422 37.463430 -1.256697 0.707515 0.007227 -0.013426 328193.000000 0 0 1
-7.314055 24.093476 27.427722 37.232659 -1.276068 0.742682 0.007415 -0.007103 -1046990.000000 0 0 1
-6.281055 25.168876 27.727022 37.969879 -1.326235 0.752127 0.009334 -0.018300 -973340.000000 0 0 1
-4.968155 24.760876 27.849292 37.594769 -1.372780 0.736572 0.008309 -0.023302 -1022030.000000 0 0 1
-4.108055 25.836376 28.232952 38.490181 -1.413114 0.747324 0.021364 -0.018113 -1825750.000000 0 0 1
-2.744655 25.332376 28.235932 38.033278 -1.462872 0.734150 0.015923 -0.020580 -2002450.000000 0 0 1
-2.073555 25.194276 26.939262 36.942862 -1.488679 0.753623 0.017080 -0.022018 13220.800000 0 0 1
-0.735155 24.830176 27.167282 36.812217 -1.541198 0.740700 0.033310 -0.013528 -219133.000000 0 0 1
0.002545 24.571376 25.860782 35.672575 1.570693 0.759837 0.030872 -0.020787 -402945.000000 0 0 1
-0.378055 23.329276 25.291092 34.409844 -1.554593 0.745136 0.026818 -0.014684 68197.100000 0 0 1
0.178245 23.279876 23.979882 33.421836 1.563140 0.770602 0.024538 -0.001011 -27858.000000 0 0 1
-0.329855 22.065576 23.211692 32.027818 -1.555849 0.760146 0.009177 -0.006663 -237449.000000 0 0 1
0.145445 20.852376 23.603942 31.495854 1.563821 0.723595 0.025447 -0.007080 -438329.000000 0 0 1
-0.122055 19.833876 22.696092 30.141502 -1.564643 0.718210 0.018092 -0.001164 -462700.000000 0 0 1
0.710445 18.561676 22.762492 29.379782 1.532540 0.684450 0.027328 0.004322 -250201.000000 0 0 1
2.032245 18.818276 22.324292 29.268269 1.463220 0.703246 0.030027 -0.003233 -255281.000000 0 0 1
2.681545 17.588276 22.075492 28.352522 1.419499 0.678352 0.018671 0.001855 355254.000000 0 0 1
4.068945 17.858176 21.406292 28.172684 1.346773 0.707753 0.036023 -0.001111 507855.000000 0 0 1
5.040245 18.410176 22.282392 29.340137 1.303569 0.708328 0.036044 0.005331 -317163.000000 0 0 1
6.195945 18.783576 21.546692 29.248460 1.252175 0.742652 0.055857 -0.015474 -211757.000000 0 0 1
7.229945 19.352176 22.562392 30.591508 1.213255 0.741379 0.067496 -0.017354 -501838.000000 0 0 1
6.955645 20.444576 23.402782 31.844181 1.242861 0.745254 0.046895 -0.010669 -157228.000000 0 0 1
6.650545 21.651576 22.666892 32.043853 1.272782 0.785024 0.061488 -0.023466 320547.000000 0 0 1
5.309545 22.294776 23.120092 32.554369 1.336999 0.781015 0.045009 -0.017026 161885.000000 0 0 1
5.187945 23.588876 22.607292 33.082314 1.354311 0.818435 0.045521 -0.022930 682835.000000 0 0 1
4.042245 24.347176 23.038792 33.762563 1.406272 0.819787 0.031381 -0.021198 297532.000000 0 0 1
3.921845 25.696576 22.266192 34.226864 1.419344 0.862492 0.036904 -0.022953 -49461.100000 0 0 1
3.863545 25.635676 20.848992 33.268534 1.421212 0.893501 0.038196 -0.017424 -750921.000000 0 0 1
2.747945 24.968276 20.395792 32.356674 1.461180 0.888802 0.033419 -0.014718 -1016870.000000 0 0 1
2.353745 25.289976 18.952292 31.690888 1.477993 0.929748 0.036659 -0.016974 -462945.000000 0 0 1
1.836345 26.587576 18.897792 32.671056 1.501838 0.953998 0.043656 -0.011390 -25987.500000 0 0 1
1.086545 26.962176 17.786092 32.318487 1.530519 0.988027 0.048321 -0.013684 -4962.900000 0 0 1
-0.026355 27.954276 18.231092 33.373867 -1.569854 0.992894 0.026051 0.000205 13373.100000 0 0 1
0.421545 29.253576 18.640092 34.690092 1.556387 1.003526 0.033404 0.002098 581670.000000 0 0 1
-0.665755 30.187876 18.718392 35.526459 -1.548746 1.015864 0.015257 0.010572 416027.000000 0 0 1
-0.219055 31.557076 19.275292 36.978831 -1.563855 1.022479 0.012810 0.018492 171293.000000 0 0 1
0.264145 31.594476 20.629092 37.733806 1.562436 0.992378 0.016141 0.017025 147921.000000 0 0 1
0.505545 32.901276 21.109392 39.094194 1.555432 1.000404 0.018467 0.009631 -325966.000000 0 0 1
1.008345 32.855376 22.556492 39.865873 1.540116 0.969382 0.027848 -0.012506 -592912.000000 0 0 1
0.115045 32.452376 23.555832 40.100464 1.567251 0.942929 0.028628 -0.005029 -61683.400000 0 0 1
0.682645 32.601576 24.829342 40.985668 1.549860 0.920018 0.045357 -0.018809 -582415.000000 0 0 1
-0.337455 32.235176 25.877202 41.338239 -1.560328 0.894400 0.050909 -0.021791 -609747.000000 0 0 1
-1.413255 33.155976 25.932302 42.116509 -1.528198 0.907487 0.048385 -0.020449 181079.000000 0 0 1
-2.354355 33.011076 26.984022 42.701424 -1.499597 0.886764 0.042597 -0.020002 63936.800000 0 0 1
-1.956955 33.445876 28.462432 43.960964 -1.512352 0.866565 0.063256 -0.035675 -628371.000000 0 0 1
-0.898255 32.597376 28.851242 43.540670 -1.543247 0.846475 0.066969 -0.033279 -259410.000000 0 0 1
-0.576855 32.801376 30.192332 44.585199 -1.553212 0.826869 0.061815 -0.039988 -1307520.000000 0 0 1
0.711045 32.137776 30.633762 44.404613 1.548675 0.809476 0.063825 -0.032357 -109059.000000 0 0 1
1.941945 32.554476 30.019122 44.325080 1.511215 0.826779 0.069037 -0.036417 778745.000000 0 0 1
2.117345 32.115076 28.631922 43.077236 1.504962 0.843751 0.057296 -0.033095 -1518080.000000 0 0 1
3.564045 32.050576 28.150382 42.806376 1.460051 0.853140 0.048110 -0.023613 -606922.000000 0 0 1
4.166145 30.972276 28.787002 42.489177 1.437087 0.826419 0.049490 -0.027513 262389.000000 0 0 1
5.567645 30.941476 28.498272 42.432595 1.392760 0.834413 0.064396 -0.037381 791774.000000 0 0 1
6.331645 29.617576 28.904712 41.866131 1.360187 0.808743 0.065210 -0.019561 322033.000000 0 0 1
6.515545 29.650776 30.324402 42.909092 1.354491 0.785955 0.073437 -0.034003 127519.000000 0 0 1
7.178945 28.434976 30.708682 42.463022 1.323495 0.762391 0.060566 -0.034916 88248.600000 0 0 1
7.402045 28.458976 32.244931 43.639880 1.316339 0.739380 0.083265 -0.029124 974892.000000 0 0 1
6.190845 28.594276 33.067298 44.152071 1.357581 0.724334 0.078944 -0.033329 1063920.000000 0 0 1
6.386545 28.455276 -33.795811 44.639081 1.350014 2.429644 0.092394 -0.028180 15384.200000 0 0 1
6.375445 27.025676 -33.272331 43.336838 1.339129 2.446136 0.083865 -0.026157 291039.000000 0 0 1
7.592745 26.382676 -33.617691 43.403278 1.290576 2.456788 0.078535 -0.031607 155565.000000 0 0 1
7.674045 25.035676 -33.133921 42.231893 1.273365 2.472800 0.081315 -0.031474 515791.000000 0 0 1
9.069245 24.357076 -33.348941 42.280850 1.214355 2.479566 0.075838 -0.033718 94468.400000 0 0 1
9.370445 24.169676 33.526330 42.379161 1.200943 0.658184 0.047372 -0.022774 -426111.000000 0 0 1
10.600545 23.537676 33.360884 42.182251 1.147639 0.658559 0.065284 -0.035138 -647781.000000 0 0 1
10.663345 22.047176 33.625846 41.599067 1.120306 0.629483 0.055260 -0.036525 -940403.000000 0 0 1
10.078845 21.209476 32.614808 40.188937 1.127181 0.624019 0.038727 -0.026326 357164.000000 0 0 1
9.660045 19.966676 33.140491 39.878275 1.120186 0.589819 0.028239 -0.019680 -422732.000000 0 0 1
8.275345 19.869976 33.764180 40.041443 1.176169 0.567531 0.045502 -0.027802 -586557.000000 0 0 1
8.396445 20.339376 -33.116301 39.760281 1.179290 2.555122 0.062468 -0.033513 -1196090.000000 0 0 1
7.222945 20.921376 -32.782311 39.554454 1.238366 2.547737 0.064837 -0.030199 -1540090.000000 0 0 1
7.105945 21.328976 -31.318401 38.552068 1.249203 2.518995 0.078912 -0.042967 -290758.000000 0 0 1
7.987545 22.324076 -30.899911 38.948296 1.227190 2.487101 0.093867 -0.036499 -146544.000000 0 0 1
7.807345 22.581376 -29.524661 37.981295 1.237919 2.461234 0.076589 -0.029362 -565088.000000 0 0 1
9.097145 23.081876 -28.842561 38.045031 1.195365 2.431216 0.081837 -0.035207 -228197.000000 0 0 1
9.949845 22.017676 -28.537371 37.391965 1.146361 2.439040 0.083387 -0.030993 -136527.000000 0 0 1
11.276645 22.291176 -28.988831 38.267631 1.102456 2.430315 0.091849 -0.040493 469444.000000 0 0 1
12.099045 20.963776 -28.968211 37.749491 1.047355 2.445542 0.088533 -0.051309 -862.470000 0 0 1
11.891345 20.102876 -30.108491 38.105786 1.036632 2.481816 0.072675 -0.041852 1033820.000000 0 0 1
10.582145 19.502476 -30.297921 37.553860 1.073648 2.509488 0.071765 -0.039737 853537.000000 0 0 1
10.490145 18.468576 -31.456141 37.955504 1.054239 2.547691 0.067275 -0.032408 -575441.000000 0 0 1
11.207345 17.302276 -31.174991 37.374502 0.996013 2.557340 0.070343 -0.026288 123099.000000 0 0 1
11.207745 16.458376 -32.346671 37.984192 0.972953 2.589793 0.061462 -0.013498 378357.000000 0 0 1
12.389245 16.626576 -33.383591 39.298862 0.930408 2.585795 0.061282 -0.006693 226705.000000 0 0 1
12.248645 17.757476 34.025473 40.287592 0.966967 0.565045 0.067476 -0.011344 748685.000000 0 0 1
13.153445 17.866776 32.874111 39.660332 0.936189 0.593673 0.071446 -0.016815 660821.000000 0 0 1
12.702745 17.057776 31.618152 38.105577 0.930703 0.592134 0.079881 -0.024616 -641596.000000 0 0 1
12.837045 17.903276 30.513462 37.634935 0.948737 0.625322 0.067628 -0.019477 435386.000000 0 0 1
12.059445 17.514976 29.347512 36.241979 0.967815 0.627044 0.056383 -0.017858 1427030.000000 0 0 1
10.506445 17.799776 29.440032 35.971279 1.037572 0.612120 0.032509 -0.017950 492875.000000 0 0 1
9.888045 16.992776 30.411542 36.213116 1.043794 0.573893 0.045926 -0.017497 -801352.000000 0 0 1
8.616845 17.527076 30.628452 36.325617 1.113867 0.567655 0.041503 -0.018981 -118579.000000 0 0 1
7.680445 16.592576 31.482432 36.406680 1.137280 0.526157 0.034654 -0.012464 242737.000000 0 0 1
8.005245 16.562076 32.863850 37.661903 1.120559 0.510292 0.039695 -0.011926 530486.000000 0 0 1
7.147045 15.644876 33.565231 37.715608 1.142277 0.473548 0.056028 -0.019816 123510.000000 0 0 1
7.364945 15.818476 -33.142241 37.454970 1.135053 2.656980 0.062965 -0.024956 -568431.000000 0 0 1
6.645145 16.867476 -32.645431 37.341584 1.195506 2.634660 0.062616 -0.024310 -281409.000000 0 0 1
6.817845 16.975776 -31.276721 36.233869 1.188892 2.612351 0.074045 -0.034550 209785.000000 0 0 1
5.627545 17.805776 -30.693861 35.928095 1.264679 2.595025 0.070906 -0.036844 -264358.000000 0 0 1
5.711545 17.871776 -29.277281 34.773285 1.261470 2.571679 0.069635 -0.044890 -344344.000000 0 0 1
4.947245 18.833476 -28.631831 34.625956 1.313916 2.544350 0.076033 -0.037715 689483.000000 0 0 1
3.394945 18.594076 -28.714891 34.377468 1.390203 2.559442 0.087622 -0.046720 -434606.000000 0 0 1
2.884945 17.640776 -27.820741 33.068316 1.408693 2.570500 0.100580 -0.044283 690911.000000 0 0 1
1.470045 17.418476 -27.906631 32.929385 1.486600 2.581995 0.099476 -0.046479 1300200.000000 0 0 1
0.464645 18.572876 -27.576761 33.251246 1.545784 2.548731 0.098381 -0.049541 -408542.000000 0 0 1
0.412545 18.972476 -26.220671 32.367401 1.549055 2.515111 0.110800 -0.047235 254207.000000 0 0 1
-0.332655 20.201576 -26.090201 32.998681 -1.554331 2.482656 0.124668 -0.042385 -138422.000000 0 0 1
-0.766755 20.531176 -24.620801 32.067132 -1.533468 2.446180 0.096431 -0.038074 946278.000000 0 0 1
-1.934055 19.750376 -24.220701 31.312303 -1.473183 2.455173 0.096375 -0.040567 1082250.000000 0 0 1
-2.292155 20.002176 -22.859701 30.461565 -1.456699 2.419530 0.113323 -0.041789 345061.000000 0 0 1
-3.299355 18.993476 -22.195801 29.398835 -1.398803 2.426434 0.103954 -0.041034 347779.000000 0 0 1
-4.628055 19.247476 -22.605501 30.048177 -1.334826 2.422356 0.091956 -0.027284 -421037.000000 0 0 1
-5.430655 18.185676 -22.108901 29.137851 -1.280604 2.432218 0.075040 -0.033484 -121737.000000 0 0 1
-6.937655 18.522076 -22.107801 29.664006 -1.212410 2.411741 0.090507 -0.023770 136455.000000 0 0 1
-7.428555 19.540776 -21.221601 29.788953 -1.207512 2.363706 0.051057 -0.016608 22492.900000 0 0 1
-7.326255 20.849276 -21.671401 30.951833 -1.232883 2.346425 0.064646 -0.020177 -72449.300000 0 0 1
-7.903855 21.910876 -20.724201 31.177716 -1.224597 2.297905 0.065017 -0.029257 314341.000000 0 0 1
-7.169955 21.958876 -19.485101 30.220352 -1.255193 2.271515 0.072792 -0.030632 406948.000000 0 0 1
-7.702955 22.900976 -18.572401 30.474979 -1.246325 2.226139 0.082323 -0.028111 -239753.000000 0 0 1
-6.982055 22.804976 -17.237701 29.427103 -1.273694 2.196634 0.084006 -0.034836 332703.000000 0 0 1
-5.634055 23.261776 -17.335501 29.552875 -1.333170 2.197642 0.079411 -0.039748 -84267.600000 0 0 1
-5.185455 23.698176 -16.121101 29.127005 -1.355379 2.157328 0.093252 -0.038117 147681.000000 0 0 1
-3.654755 23.956776 -16.062101 29.073621 -1.419407 2.156113 0.102950 -0.038937 342118.000000 0 0 1
-3.236655 25.153576 -16.682901 30.356178 -1.442824 2.152648 0.082760 -0.037568 -110072.000000 0 0 1
-1.933255 25.144776 -17.233701 30.545011 -1.494062 2.170268 0.089648 -0.041877 185042.000000 0 0 1
-1.364855 26.553476 -17.148801 31.639079 -1.519441 2.143627 0.082290 -0.057895 -348455.000000 0 0 1
-2.070755 27.353076 -18.046901 32.835491 -1.495236 2.152700 0.075680 -0.056772 -227360.000000 0 0 1
-1.506155 28.604076 -18.306801 33.994127 -1.518190 2.139486 0.077642 -0.048337 -628444.000000 0 0 1
-2.392155 29.609876 -19.094901 35.314054 -1.490182 2.142085 0.095026 -0.041013 516652.000000 0 0 1
-3.438555 30.276876 -18.419901 35.606259 -1.457711 2.114515 0.066151 -0.033342 -10927.700000 0 0 1
-4.615655 29.595376 -18.071401 34.982369 -1.416084 2.113655 0.040990 -0.034176 -688857.000000 0 0 1
-5.605855 30.478876 -17.355601 35.519071 -1.388903 2.081313 0.078781 -0.026306 -567411.000000 0 0 1
-6.029855 31.512176 -18.184501 36.878890 -1.381732 2.086431 0.114645 -0.031682 -87059.000000 0 0 1
-5.963655 32.798476 -17.539801 37.668951 -1.390934 2.055143 0.106162 -0.051573 34337.600000 0 0 1
-6.803155 33.885376 -18.250001 39.084066 -1.372661 2.056626 0.097515 -0.032575 56347.600000 0 0 1
-8.197355 33.696076 -18.245601 39.185765 -1.332159 2.055129 0.109182 -0.047103 -366422.000000 0 0 1
-8.864755 -33.366668 -18.461601 39.150340 1.311118 2.061851 0.136299 -0.048916 -157045.000000 0 0 1
29.844345 -20.620724 -26.183781 44.738010 -0.604621 2.196008 0.058407 0.003040 -102646.000000 0 0 1
29.313745 -21.834424 -25.836171 44.760981 -0.640199 2.186096 0.066970 -0.011358 -223085.000000 0 0 1
27.903645 -21.781324 -26.006131 43.924461 -0.662793 2.204415 0.057329 -0.010424 575783.000000 0 0 1
27.153545 -23.097924 -25.613371 43.896171 -0.704866 2.193827 0.058032 -0.009091 211419.000000 0 0 1
27.553745 -24.358924 -26.249831 45.184285 -0.723933 2.190692 0.063611 0.000087 507194.000000 0 0 1
28.814545 -24.832324 -25.736931 45.927246 -0.711304 2.165647 0.063245 0.003088 963309.000000 0 0 1
29.285945 -26.178164 -26.371201 47.311764 -0.729424 2.162038 0.056965 -0.005411 135054.000000 0 0 1
28.583345 -27.213684 -25.729751 47.112761 -0.760856 2.148535 0.060781 -0.010039 -220329.000000 0 0 1
28.989145 -28.535454 -26.103091 48.332329 -0.777511 2.141323 0.046753 -0.003190 149826.000000 0 0 1
27.985545 -29.231384 -27.029731 48.664883 -0.807169 2.159671 0.053297 0.003297 -281657.000000 0 0 1
27.677845 -28.628504 -28.330191 48.869766 -0.802280 2.189167 0.033437 -0.000548 883054.000000 0 0 1
28.731045 -28.570214 -29.346071 50.029211 -0.782591 2.197624 0.025215 -0.004636 514737.000000 0 0 1
29.014545 -29.934064 -30.074191 51.403783 -0.800996 2.195748 0.037586 -0.003354 -120145.000000 0 0 1
29.569345 -30.989684 -29.228251 51.855543 -0.808848 2.169591 0.040603 -0.003817 651963.000000 0 0 1
30.900145 -30.862384 -28.718201 52.268927 -0.784787 2.152480 0.040073 -0.004898 611682.000000 0 0 1
32.100545 -30.807654 -29.681801 53.484258 -0.764849 2.159115 0.039300 -0.005657 -339440.000000 0 0 1
32.238245 -29.547524 -30.249841 53.173428 -0.741876 2.175952 0.054608 -0.015456 -1125760.000000 0 0 1
33.454345 -29.377234 -30.863761 54.173672 -0.720599 2.176960 0.047441 -0.014404 -836117.000000 0 0 1
33.645745 -27.915134 -31.427331 53.842065 -0.692577 2.194068 0.040502 -0.000027 78645.900000 0 0 1
33.531745 -26.796424 -30.593371 52.710346 -0.674214 2.190023 0.042192 -0.000502 811699.000000 0 0 1
32.189445 -26.542404 -30.124111 51.459903 -0.689543 2.196157 0.055053 0.003757 820602.000000 0 0 1
32.070245 -25.171854 -29.467911 50.303883 -0.665464 2.196661 0.057710 -0.001049 59741.300000 0 0 1
32.819945 -25.035324 -28.240471 50.014402 -0.651648 2.170802 0.059780 -0.002107 306691.000000 0 0 1
32.656145 -23.741624 -27.706221 48.966552 -0.628630 2.172223 0.051486 0.004252 214217.000000 0 0 1
33.613045 -23.277224 -26.557321 48.754048 -0.605678 2.146852 0.047431 0.004418 106305.000000 0 0 1
33.306545 -23.964924 -25.327351 48.219479 -0.623711 2.123807 0.047333 -0.003516 -87058.400000 0 0 1
32.385745 -23.381324 -24.457201 46.836710 -0.625315 2.120202 0.052493 0.002164 -264281.000000 0 0 1
32.771045 -22.046724 -23.744101 46.084506 -0.592202 2.112072 0.059619 0.005360 -403132.000000 0 0 1
33.133445 -21.024124 -24.567301 46.296773 -0.565422 2.130162 0.064132 -0.005050 16410.700000 0 0 1
33.340945 -19.790224 -23.857001 45.523928 -0.535679 2.122400 0.046941 -0.010050 122900.000000 0 0 1
33.406345 -18.556924 -24.825701 45.570371 -0.507049 2.146920 0.032895 -0.017793 204083.000000 0 0 1
32.166345 -18.371224 -25.476981 44.958338 -0.518922 2.173267 0.037530 -0.008097 131347.000000 0 0 1
32.183245 -17.214324 -26.249741 44.957125 -0.491164 2.194301 0.039668 -0.002551 -891015.000000 0 0 1
31.099545 -17.153124 -27.246531 44.763655 -0.504037 2.225186 0.028745 0.002723 -740525.000000 0 0 1
29.818845 -16.754424 -26.803891 43.454836 -0.511914 2.235495 0.029848 0.001851 -402377.000000 0 0 1
28.908145 -16.650524 -27.824861 43.441267 -0.522571 2.265967 0.019611 -0.007229 -671203.000000 0 0 1
27.505045 -16.326824 -27.298481 42.051156 -0.535696 2.277293 0.012433 -0.001644 -598094.000000 0 0 1
26.814645 -17.293524 -26.633421 41.562366 -0.572802 2.266344 0.036065 0.008606 -326345.000000 0 0 1
26.777045 -17.115124 -25.245011 40.586305 -0.568725 2.242101 0.030908 0.010602 -214397.000000 0 0 1
26.063045 -18.233624 -24.496701 40.147674 -0.610455 2.227065 0.031979 0.011707 -277044.000000 0 0 1
25.974545 -17.878024 -23.134701 39.109016 -0.602824 2.203769 0.025652 0.020098 -77673.400000 0 0 1
25.408145 -18.894224 -22.360601 38.762894 -0.639411 2.185671 0.042473 0.018536 -111869.000000 0 0 1
25.158245 -18.427224 -20.898801 37.540108 -0.632176 2.161211 0.036455 0.008526 342049.000000 0 0 1
24.320445 -17.245424 -20.691901 36.291093 -0.616802 2.177503 0.019408 -0.000583 683192.000000 0 0 1
24.812845 -15.969624 -21.168901 36.315679 -0.571865 2.193106 0.025398 0.003242 83890.900000 0 0 1
26.119945 -15.327424 -20.638901 36.648952 -0.530664 2.168991 0.015732 0.006431 176301.000000 0 0 1
25.976345 -14.592224 -19.402101 35.554817 -0.511820 2.148015 0.017936 -0.006455 438055.000000 0 0 1
26.987845 -13.598424 -19.362601 35.891102 -0.466741 2.140618 0.006483 -0.002141 -162385.000000 0 0 1
26.935145 -12.660424 -18.166901 34.868677 -0.439388 2.118829 0.016436 0.004144 -324632.000000 0 0 1
27.145145 -13.318024 -16.912801 34.644934 -0.456118 2.080794 0.014522 0.005341 503326.000000 0 0 1
26.743245 -12.448424 -15.831601 33.478411 -0.435652 2.063364 0.011990 0.005423 -39052.000000 0 0 1
27.604445 -12.599524 -14.581101 33.665440 -0.428189 2.018745 0.020457 -0.004332 -224128.000000 0 0 1
27.178245 -13.793324 -13.916401 33.504910 -0.469640 1.999128 0.052332 -0.015311 594910.000000 0 0 1
27.790145 -13.966724 -12.637001 33.571644 -0.465708 1.956724 0.068355 -0.017069 -137510.000000 0 0 1
27.316145 -15.211424 -11.826501 33.427912 -0.508099 1.932418 0.072236 -0.027717 -402426.000000 0 0 1
26.029445 -15.056324 -11.293101 32.121006 -0.524411 1.930055 0.075719 -0.033940 -194300.000000 0 0 1
25.458045 -16.346324 -11.173401 32.251500 -0.570794 1.924576 0.060848 -0.033704 683094.000000 0 0 1
23.910645 -16.334124 -10.899101 30.940474 -0.599315 1.930781 0.064626 -0.037169 725579.000000 0 0 1
23.600245 -15.924424 -9.554501 30.030773 -0.593583 1.894581 0.060391 -0.020989 -112773.000000 0 0 1
22.269045 -16.102524 -9.164501 28.968771 -0.626055 1.892684 0.066370 -0.020564 -353512.000000 0 0 1
21.860545 -15.671724 -7.704001 27.979242 -0.621975 1.849747 0.057997 -0.017476 -153191.000000 0 0 1
21.957545 -14.257324 -7.465501 27.223864 -0.575892 1.848581 0.071871 -0.009420 376325.000000 0 0 1
21.686445 -13.815124 -6.163901 26.441505 -0.567210 1.806076 0.056576 0.003074 -76329.800000 0 0 1
22.480045 -14.492724 -4.978201 27.206138 -0.572635 1.754814 0.051369 -0.001185 -39590.700000 0 0 1
23.856245 -14.193024 -5.004401 28.206495 -0.536690 1.749161 0.070748 -0.003628 333266.000000 0 0 1
24.575545 -14.828724 -3.936601 28.971456 -0.542911 1.707097 0.060805 -0.015942 1398150.000000 0 0 1
26.150145 -14.691224 -4.068001 30.268973 -0.511860 1.705599 0.089261 -0.021061 1230320.000000 0 0 1
26.761945 -13.495024 -3.588301 30.185978 -0.467051 1.689951 0.083310 -0.017852 -219141.000000 0 0 1
28.113045 -13.512424 -3.942601 31.439990 -0.448045 1.696528 0.101953 -0.034790 -508901.000000 0 0 1
28.900745 -12.253524 -3.509001 31.586626 -0.401012 1.682117 0.107779 -0.028219 -751248.000000 0 0 1
29.321845 -12.383924 -2.155801 31.902658 -0.399619 1.638422 0.114251 -0.032556 399208.000000 0 0 1
30.069445 -11.331524 -1.588101 32.172923 -0.360387 1.620178 0.113380 -0.030720 1394210.000000 0 0 1
31.545945 -11.121424 -2.162301 33.518774 -0.338942 1.635351 0.106531 -0.022413 685389.000000 0 0 1
31.628445 -10.485224 -3.449301 33.499196 -0.320111 1.673946 0.097202 -0.021225 603109.000000 0 0 1
32.877545 -10.918024 -3.985901 34.871530 -0.320623 1.685349 0.103627 -0.020987 354704.000000 0 0 1
32.893845 -10.661724 -5.525801 35.017308 -0.313440 1.729261 0.099623 -0.027092 186056.000000 0 0 1
31.921145 -11.524824 -6.135201 34.487994 -0.346476 1.749642 0.077484 -0.034785 507415.000000 0 0 1
31.855945 -11.431624 -7.556901 34.678379 -0.344540 1.790473 0.065510 -0.029552 -180906.000000 0 0 1
30.567945 -12.093724 -8.088901 33.853917 -0.376737 1.812066 0.092876 -0.030357 99183.100000 0 0 1
30.552845 -13.490724 -7.779301 34.292761 -0.415808 1.799638 0.078883 -0.028164 1511020.000000 0 0 1
29.192745 -14.019324 -7.886501 33.330987 -0.447709 1.809673 0.078524 -0.030469 1509180.000000 0 0 1
29.129545 -15.507924 -7.873501 33.926657 -0.489213 1.805006 0.089271 -0.037927 -32337.000000 0 0 1
29.341845 -16.000924 -9.189401 34.661484 -0.499249 1.839123 0.090144 -0.036712 191533.000000 0 0 1
29.452745 -17.431724 -9.292701 35.463833 -0.534408 1.835925 0.085293 -0.040853 -138547.000000 0 0 1
29.807245 -18.055324 -10.669401 36.445887 -0.544627 1.867894 0.077357 -0.039119 1499870.000000 0 0 1
31.189345 -17.618024 -10.918001 37.448267 -0.514190 1.866642 0.079791 -0.033204 1746740.000000 0 0 1
31.629845 -17.774824 -12.307701 38.312804 -0.511982 1.897838 0.073296 -0.022216 41192.100000 0 0 1
30.853545 -17.009624 -13.409001 37.697080 -0.503842 1.934464 0.056010 -0.020228 -373033.000000 0 0 1
31.456945 -15.857224 -13.889301 37.866920 -0.466917 1.946355 0.048807 -0.015756 -3745.380000 0 0 1
30.720745 -15.299724 -14.972901 37.443737 -0.462067 1.982179 0.042482 -0.013590 -1015670.000000 0 0 1
31.349845 -14.036024 -15.583401 37.718233 -0.420958 1.996710 0.029145 -0.007032 85370.200000 0 0 1
32.395245 -14.270124 -16.510201 39.059891 -0.414926 2.007207 0.018238 -0.002750 359568.000000 0 0 1
33.618545 -14.562924 -15.862801 39.923849 -0.408780 1.979398 0.032113 -0.014307 -1120240.000000 0 0 1
34.572945 -15.361724 -16.736401 41.368807 -0.418127 1.987300 0.036208 -0.013259 -116662.000000 0 0 1
35.869045 -15.602024 -16.194401 42.335212 -0.410286 1.963327 0.045093 -0.013824 459818.000000 0 0 1
-36.597826 -16.085224 -17.279501 43.551308 0.414099 1.978783 0.044439 -0.023715 966995.000000 0 0 1
-35.076126 -16.018724 -16.847501 42.080547 0.428399 1.982709 0.060149 -0.022037 770482.000000 0 0 1
-34.622826 -17.011424 -15.925801 41.734395 0.456692 1.962322 0.042850 -0.013958 181337.000000 0 0 1
-34.981926 -16.867624 -14.540201 41.468896 0.449291 1.929039 0.040613 -0.014898 -476802.000000 0 0 1
-34.360826 -17.855124 -13.515301 41.013841 0.479233 1.906602 0.035474 -0.014629 184637.000000 0 0 1
-32.982026 -17.566824 -13.255401 39.649880 0.489400 1.911671 0.061377 -0.011638 576627.000000 0 0 1
-32.618926 -18.122324 -12.019501 39.203078 0.507115 1.882411 0.078022 -0.004730 -639023.000000 0 0 1
-31.186126 -17.735624 -11.691301 37.733451 0.517089 1.885820 0.088769 -0.013236 -736167.000000 0 0 1
-30.902026 -16.365824 -11.485301 36.806080 0.487049 1.888145 0.081386 -0.024861 -552881.000000 0 0 1
-29.609326 -16.120824 -11.048201 35.477540 0.498573 1.887477 0.108130 -0.018233 -509263.000000 0 0 1
-29.610626 -15.983724 -9.463601 34.954661 0.494976 1.844957 0.100543 -0.021063 -51620.700000 0 0 1
-29.674126 -17.191424 -8.815501 35.409206 0.525090 1.822403 0.080341 -0.018868 -41242.900000 0 0 1
-30.060826 -17.143024 -7.478901 35.404385 0.518278 1.783642 0.101275 -0.020190 -82829.500000 0 0 1
-30.100526 -18.553424 -6.777401 36.002838 0.552378 1.760173 0.079336 -0.026569 684634.000000 0 0 1
-31.187726 -19.417724 -7.189401 37.435407 0.556877 1.764045 0.070874 -0.026841 558529.000000 0 0 1
-31.030226 -20.014724 -8.459501 37.881753 0.572857 1.796009 0.069231 -0.023169 247740.000000 0 0 1
-32.363026 -20.714724 -8.850701 39.430954 0.569366 1.797186 0.064502 -0.033052 -66044.000000 0 0 1
-33.483126 -19.886724 -8.910601 39.949972 0.535946 1.795732 0.057371 -0.036110 -775426.000000 0 0 1
-34.567826 -20.639724 -9.357801 41.334020 0.538269 1.799171 0.043077 -0.029006 -301706.000000 0 0 1
-35.832826 -19.808124 -9.666001 42.068810 0.504985 1.802634 0.045237 -0.035881 34089.900000 0 0 1
-36.008326 -19.473624 -11.057901 42.403994 0.495759 1.834621 0.040431 -0.033629 1023480.000000 0 0 1
35.897245 -19.577124 -11.492501 42.472974 -0.499278 1.844796 0.080862 -0.038358 784471.000000 0 0 1
35.478845 -19.185324 -12.926701 42.354748 -0.495717 1.880946 0.063845 -0.028941 -527207.000000 0 0 1
35.771345 -20.120724 -13.913701 43.336171 -0.512375 1.897649 0.059393 -0.023952 171272.000000 0 0 1
35.102745 -19.785724 -15.109901 43.034715 -0.513264 1.929552 0.049680 -0.018012 -86517.300000 0 0 1
33.728545 -20.411224 -15.359701 42.310202 -0.544206 1.942310 0.069264 -0.023032 -1204000.000000 0 0 1
32.712845 -19.948024 -14.509501 40.970471 -0.547588 1.932796 0.081007 -0.023810 500566.000000 0 0 1
31.579345 -20.862224 -14.466201 40.518617 -0.583811 1.935878 0.084128 -0.020589 1180910.000000 0 0 1
30.618245 -20.632024 -15.680901 40.112940 -0.592957 1.972426 0.070886 -0.015572 -755163.000000 0 0 1
29.711945 -19.541124 -15.512901 38.798264 -0.581759 1.982133 0.055397 -0.012690 253019.000000 0 0 1
29.048945 -19.368224 -16.751101 38.724265 -0.588056 2.018142 0.038843 -0.012261 -67360.900000 0 0 1
28.323545 -17.996124 -16.823501 37.538165 -0.566027 2.035514 0.029806 -0.016211 56957.400000 0 0 1
27.181245 -17.919524 -15.990901 36.271729 -0.582858 2.027357 0.040736 -0.021341 -3937.920000 0 0 1
26.724745 -16.578024 -15.989501 35.280405 -0.555230 2.041162 0.022784 -0.006694 -197992.000000 0 0 1
25.293945 -16.410724 -15.407201 33.859671 -0.575532 2.043203 0.029561 -0.012442 527908.000000 0 0 1
24.198545 -16.860624 -16.186401 33.642975 -0.608549 2.072731 0.037665 -0.013547 369182.000000 0 0 1
23.692445 -15.875124 -17.010401 33.207006 -0.590341 2.108603 0.031191 -0.009822 -559429.000000 0 0 1
22.618345 -16.385124 -18.011101 33.233440 -0.626926 2.143561 0.022793 -0.016564 44892.900000 0 0 1
21.358845 -16.637624 -17.444601 32.207528 -0.661778 2.143173 0.030693 -0.010474 -185388.000000 0 0 1
20.474745 -17.266124 -18.355001 32.469066 -0.700585 2.171602 0.026218 -0.013184 -37113.100000 0 0 1
19.106245 -17.742424 -17.856601 31.602221 -0.748404 2.171281 0.038719 -0.012568 145566.000000 0 0 1
18.231645 -16.590224 -17.802601 30.406595 -0.738295 2.196274 0.048352 -0.015524 1009750.000000 0 0 1
16.875145 -17.019524 -17.620001 29.747254 -0.789658 2.204736 0.052083 -0.017672 603715.000000 0 0 1
15.826145 -15.906124 -17.464301 28.433667 -0.787919 2.232183 0.061640 -0.012517 -179876.000000 0 0 1
15.235745 -15.327024 -18.608901 28.519060 -0.788385 2.281685 0.070476 -0.006805 -403980.000000 0 0 1
14.141545 -14.579524 -18.213401 27.281382 -0.800646 2.301794 0.081707 -0.013231 -681975.000000 0 0 1
13.313545 -14.192424 -19.434301 27.502135 -0.817340 2.355544 0.072082 -0.004968 -248173.000000 0 0 1
13.847545 -13.126124 -20.207201 27.791736 -0.758659 2.384876 0.076754 -0.010745 -7746.950000 0 0 1
12.937945 -12.675124 -21.201701 27.884786 -0.775137 2.434621 0.085014 -0.009762 110060.000000 0 0 1
13.181745 -11.288724 -21.739501 27.817253 -0.708193 2.467881 0.076924 -0.013504 -454403.000000 0 0 1
14.210945 -11.065924 -22.663001 28.948527 -0.661611 2.470065 0.074071 -0.013965 -423992.000000 0 0 1
14.143045 -9.695924 -23.126101 28.789811 -0.600970 2.503568 0.055202 -0.020494 -646278.000000 0 0 1
15.506545 -9.180824 -23.531301 29.638869 -0.534562 2.488048 0.043601 -0.013983 -540272.000000 0 0 1
16.045345 -9.861124 -24.644001 31.016474 -0.551070 2.489055 0.065855 -0.012446 -304984.000000 0 0 1
17.287745 -9.298424 -24.978201 31.768496 -0.493477 2.475524 0.060286 -0.023013 -432330.000000 0 0 1
22.387345 5.004076 -7.422201 24.110642 0.219908 1.883717 0.124410 0.021377 -249234.000000 0 1 0
22.721645 6.352876 -7.168201 24.657966 0.272634 1.865760 0.122268 0.008608 644917.000000 0 1 0
21.900745 6.786776 -6.102601 23.726455 0.300503 1.830927 0.098848 0.006114 -76259.100000 0 1 0
22.005545 8.307776 -5.955701 24.263831 0.360988 1.818786 0.103642 0.001656 -223008.000000 0 1 0
21.183445 8.853376 -6.999101 24.002250 0.395874 1.866697 0.132721 0.000707 832652.000000 0 1 0
21.036145 10.273876 -7.005301 24.436574 0.454318 1.861548 0.133975 0.006043 -180501.000000 0 1 0
20.156345 10.823076 -5.851201 23.614694 0.492774 1.821182 0.121331 -0.001959 -476129.000000 0 1 0
20.774045 10.956476 -4.566101 23.926023 0.485336 1.762817 0.109952 -0.000793 393262.000000 0 1 0
20.122645 11.922576 -3.778101 23.692672 0.534883 1.730943 0.121940 -0.018928 -270283.000000 0 1 0
21.014745 12.329176 -2.614701 24.504382 0.530577 1.677703 0.108193 -0.028222 -541844.000000 0 1 0
22.200645 12.978276 -3.064101 25.897741 0.529012 1.689390 0.100090 -0.034198 686476.000000 0 0 1
23.090945 13.244876 -1.992601 26.694361 0.520779 1.645511 0.098345 -0.035382 -83561.600000 0 0 1
24.022645 12.100376 -1.595601 26.945361 0.466609 1.630047 0.084215 -0.032610 -396143.000000 0 0 1
25.255445 11.942776 -2.323201 28.033278 0.441717 1.653764 0.076840 -0.023774 990406.000000 0 0 1
25.951545 10.828676 -1.835001 28.179960 0.395301 1.635960 0.082393 -0.026593 -448371.000000 0 0 1
27.362345 10.636476 -2.404901 29.455323 0.370750 1.652533 0.081152 -0.028798 -84338.500000 0 0 1
28.290245 11.587676 -1.956801 30.633989 0.388755 1.634717 0.076363 -0.034274 773581.000000 0 0 1
29.669445 11.279176 -2.139901 31.813125 0.363288 1.638112 0.078834 -0.029733 1010610.000000 0 0 1
30.745945 12.296676 -1.653001 33.154996 0.380459 1.620674 0.071165 -0.027458 -107814.000000 0 0 1
30.954745 12.346376 -0.244001 33.326997 0.379517 1.578118 0.101798 -0.039655 38358.400000 0 0 1
31.795545 13.384176 0.136799 34.497993 0.398431 1.566831 0.107012 -0.038761 -632091.000000 0 0 1
33.303345 13.072576 0.141899 35.777439 0.374051 1.566830 0.121069 -0.041658 -366634.000000 0 0 1
34.035945 14.223176 0.550099 36.892369 0.395830 1.555885 0.118195 -0.041642 743546.000000 0 0 1
34.946245 14.802276 -0.418401 37.954215 0.400661 1.581820 0.111844 -0.025111 457145.000000 0 0 1
34.273245 15.863676 -1.334901 37.790124 0.433496 1.606128 0.060967 -0.000600 214492.000000 0 0 1
33.163345 15.407276 -2.083301 36.626926 0.434918 1.627706 0.070230 -0.003233 -79816.800000 0 0 1
32.699845 16.259876 -3.060501 36.647375 0.461442 1.654406 0.040060 0.010274 -39674.600000 0 0 1
31.345045 15.768776 -3.617301 35.273942 0.466101 1.673526 0.059238 -0.011235 -524286.000000 0 0 1
31.460245 14.728676 -4.551801 35.034266 0.437859 1.701089 0.034582 -0.007158 446767.000000 0 0 1
30.316845 14.564876 -5.380001 34.061578 0.447863 1.729410 0.046897 -0.014719 1060120.000000 0 0 1
28.976845 13.993676 -4.765801 32.529884 0.449895 1.717831 0.060355 -0.023957 276173.000000 0 0 1
27.952645 13.811576 -5.699101 31.695264 0.458921 1.751589 0.068474 -0.032548 364645.000000 0 0 1
26.784345 13.250576 -5.107201 30.316042 0.459409 1.740069 0.063435 -0.014350 -85258.900000 0 0 1
25.679245 12.937776 -6.109701 29.396226 0.466701 1.780162 0.061782 -0.015164 -664050.000000 0 0 1
25.969845 11.939276 -7.068501 29.443893 0.430921 1.813231 0.059504 -0.005411 434677.000000 0 0 1
24.905545 11.628676 -7.963401 28.616918 0.436828 1.852795 0.079462 -0.009621 -2062.990000 0 0 1
24.497945 12.628376 -9.065101 29.013811 0.475960 1.888558 0.102093 -0.010867 -246933.000000 0 0 1
23.496645 13.500376 -8.587101 28.426938 0.521508 1.877666 0.099053 -0.021783 238542.000000 0 0 1
23.278345 14.560476 -9.486601 29.049688 0.558955 1.903463 0.109685 -0.028014 -422115.000000 0 0 1
22.299045 15.665976 -8.965001 28.688699 0.612429 1.888612 0.103703 -0.024863 -29947.800000 0 0 1
20.949245 15.338076 -8.836301 27.426404 0.631982 1.898830 0.102511 -0.029434 -107287.000000 0 0 1
20.542245 14.323976 -7.884401 26.254978 0.608907 1.875805 0.098088 -0.028863 276630.000000 0 0 1
18.998345 14.039776 -7.961501 24.928657 0.636424 1.895862 0.084512 -0.029958 338352.000000 0 1 0
18.117445 14.985076 -7.472801 24.670571 0.691053 1.878534 0.110684 -0.044105 -80922.500000 0 1 0
16.806245 14.514876 -7.759601 23.523242 0.712371 1.906962 0.124450 -0.048100 152161.000000 0 1 0
15.736945 14.890776 -6.721801 22.684119 0.757778 1.871636 0.087692 -0.027779 -238734.000000 0 1 0
15.740545 14.110576 -5.545701 21.854700 0.730849 1.827355 0.040054 -0.030459 -267901.000000 0 1 0
16.611245 14.646776 -4.631901 22.625561 0.722634 1.776974 0.118423 -0.026729 -589122.000000 0 1 0
16.233945 14.260376 -3.239901 21.849399 0.720769 1.719628 0.077667 0.004854 -330446.000000 0 1 0
16.716945 13.007876 -2.895501 21.378611 0.661260 1.706653 0.053394 -0.013642 497705.000000 0 1 0
16.195845 12.450476 -1.678301 20.497230 0.655390 1.652768 0.028334 -0.012229 71495.200000 0 1 0
16.437545 13.253276 -0.329101 21.117540 0.678559 1.586381 0.037738 -0.014696 -398071.000000 0 1 0
15.472245 14.265976 -0.167101 21.046053 0.744857 1.578736 0.042684 -0.019039 469898.000000 0 1 0
15.597545 14.955976 1.061599 21.635425 0.764403 1.521709 0.040765 -0.019567 -230133.000000 0 1 0
14.356545 15.825176 1.410599 21.413462 0.834019 1.504874 0.042094 -0.015674 -146631.000000 0 1 0
14.320845 17.005276 0.609199 22.240439 0.870882 1.543401 0.049824 -0.015734 403250.000000 0 1 0
13.496645 17.958976 1.251999 22.500039 0.926319 1.515123 0.042726 -0.023166 -109991.000000 0 1 0
13.800845 19.307176 0.665099 23.741793 0.950204 1.542779 0.049551 -0.013401 -135532.000000 0 1 0
13.416845 19.433176 -0.700501 23.625215 0.966536 1.600451 0.052732 -0.015918 488727.000000 0 1 0
12.746445 20.687276 -0.946001 24.317281 1.018587 1.609709 0.060990 -0.025680 1155330.000000 0 1 0
11.182345 20.779776 -0.875101 23.613762 1.077107 1.607864 0.051263 -0.024675 787480.000000 0 1 0
10.629745 20.496276 0.379999 23.091843 1.092365 1.554340 0.037936 -0.031957 1226230.000000 0 1 0
9.176045 20.508476 0.374799 22.470823 1.150084 1.554116 0.032451 -0.024481 1797550.000000 0 1 0
8.410945 20.322976 1.704699 22.060674 1.178396 1.493446 0.027954 -0.028895 172242.000000 0 1 0
8.294745 21.543576 2.448599 23.214739 1.203269 1.465124 0.033794 -0.020372 -69004.100000 0 1 0
7.169045 21.494276 3.289499 22.895849 1.248866 1.426625 0.021867 -0.020166 -116750.000000 0 1 0
6.732745 22.840776 3.864299 24.123924 1.284146 1.409918 0.010391 -0.009819 313164.000000 0 1 0
7.625745 23.272676 4.895999 24.974792 1.254152 1.373481 0.013554 -0.006442 500846.000000 0 1 0
7.327045 24.622276 5.265099 26.223336 1.281563 1.368643 0.006673 -0.002552 -92039.400000 0 0 1
7.912945 24.947776 6.641599 27.002168 1.263653 1.322281 0.007230 -0.001861 113110.000000 0 0 1
7.221045 24.288476 7.725899 26.490811 1.281815 1.274851 0.009047 -0.010338 431283.000000 0 0 1
7.881345 24.463376 8.975699 27.223805 1.259127 1.234810 0.008847 -0.018241 -121390.000000 0 0 1
7.377645 23.436476 10.039099 26.542072 1.265824 1.182909 0.015687 -0.017657 -40500.200000 0 0 1
6.130045 23.757276 10.599299 26.726967 1.318276 1.163011 0.022575 -0.019443 -269622.000000 0 0 1
5.664745 22.626376 11.296699 25.916359 1.325479 1.119769 0.022715 -0.021214 -160995.000000 0 0 1
4.368145 22.937676 12.089099 26.293801 1.382614 1.093060 0.026416 -0.025496 447737.000000 0 0 1
3.301545 23.176276 11.160299 25.934384 1.429295 1.125940 0.021069 -0.016908 255645.000000 0 0 1
2.162245 23.682076 11.819399 26.555870 1.479746 1.109536 0.025751 -0.020179 -173941.000000 0 0 1
0.903745 23.961876 11.014199 26.387513 1.533098 1.140212 0.042322 -0.013465 -678017.000000 0 0 1
1.193545 24.941876 10.014299 26.903679 1.522980 1.189388 0.050731 -0.020499 181148.000000 0 0 1
0.272045 25.063676 8.937499 26.610914 1.559943 1.228280 0.043354 -0.017443 657041.000000 0 0 1
-1.142955 25.632476 9.258899 27.277416 -1.526236 1.224481 0.057003 -0.025815 583399.000000 0 0 1
-2.030555 24.888876 10.086799 26.931818 -1.489392 1.186905 0.052361 -0.026782 231577.000000 0 0 1
-3.278855 25.552276 10.183199 27.701394 -1.443174 1.194363 0.067997 -0.030477 -176684.000000 0 0 1
-4.436855 24.643776 10.689799 27.226333 -1.392665 1.167310 0.073881 -0.031146 116185.000000 0 0 1
-4.655155 24.585376 12.032299 27.764859 -1.383665 1.122574 0.050362 -0.026248 -96952.500000 0 0 1
-5.566155 25.575076 12.444299 28.981497 -1.356498 1.126982 0.064607 -0.025057 -315621.000000 0 0 1
-5.920855 25.428476 13.955199 29.604248 -1.342029 1.079928 0.025913 -0.018992 -310347.000000 0 0 1
-6.799855 24.382376 14.307299 29.076401 -1.298823 1.056343 0.046779 -0.027676 -64076.300000 0 0 1
-7.174355 24.600676 15.638899 30.020656 -1.287034 1.022847 0.014370 -0.005629 261900.000000 0 0 1
-8.450255 23.828076 16.112299 29.979830 -1.229999 1.003400 0.018156 -0.016853 989385.000000 0 0 1
-9.658155 24.345876 15.543399 30.456508 -1.193133 1.035208 0.016093 -0.007245 -59409.100000 0 0 1
-10.685455 23.402076 15.513799 30.041872 -1.142465 1.028148 0.023534 -0.011593 -101865.000000 0 0 1
-12.074255 23.984876 15.208499 30.860337 -1.104423 1.055472 0.025782 -0.012688 -84729.200000 0 0 1
-12.557155 24.947676 16.149899 32.262795 -1.104481 1.046535 0.035262 -0.020575 -14894.300000 0 0 1
-13.857055 25.377376 15.821899 32.960001 -1.070999 1.070104 0.034052 -0.021008 -172844.000000 0 0 1
-14.482955 26.488176 16.678499 34.489880 -1.070436 1.066060 0.049935 -0.026367 127799.000000 0 0 1
-15.718955 26.075776 17.240099 34.989322 -1.028307 1.055578 0.041254 -0.032759 101561.000000 0 0 1
-16.106755 26.893476 18.293499 36.295161 -1.031179 1.042549 0.060698 -0.027226 -125502.000000 0 0 1
-17.507555 26.554876 18.852999 36.974471 -0.987913 1.035737 0.050739 -0.033962 91934.800000 0 0 1
-18.557955 27.057976 18.072199 37.458459 -0.969624 1.067336 0.050190 -0.035554 1141060.000000 0 0 1
-19.874055 26.646476 18.546999 38.065784 -0.929962 1.061875 0.059211 -0.030214 1786120.000000 0 0 1
-21.069455 27.032176 17.622099 38.538278 -0.908730 1.095882 0.049707 -0.034154 -7757.190000 0 0 1
-21.569255 28.356576 17.643799 39.757161 -0.920518 1.110974 0.041983 -0.029502 429067.000000 0 0 1
-22.465455 28.404076 16.519199 39.804173 -0.901614 1.142841 0.033182 -0.022783 310790.000000 0 0 1
-23.580355 29.510576 16.577099 41.251757 -0.896636 1.157258 0.019446 -0.023407 -570538.000000 0 0 1
-24.679155 29.145176 17.335599 41.940732 -0.868183 1.144682 0.019579 -0.025142 -380669.000000 0 0 1
-25.569905 30.280076 17.207999 43.206693 -0.869535 1.161165 0.012815 -0.015782 50944.100000 0 0 1
-26.941765 30.017576 17.849199 44.107908 -0.839346 1.154177 0.020370 -0.007854 -543613.000000 0 0 1
-27.829415 29.209776 17.104099 43.820516 -0.809594 1.169815 0.047529 -0.002745 -201859.000000 0 0 1
-29.064695 29.057776 17.766599 44.774579 -0.785279 1.162767 0.085456 -0.013647 -170056.000000 0 0 1
-29.158775 27.960676 18.828799 44.570812 -0.764426 1.134653 0.072418 -0.020053 -733433.000000 0 0 1
-29.167185 26.615676 18.382899 43.555136 -0.739690 1.135079 0.086650 -0.028219 148333.000000 0 0 1
-28.960875 25.659076 19.339699 43.256727 -0.725021 1.107286 0.097020 -0.025553 -139962.000000 0 0 1
-29.133325 24.283276 18.697899 42.285217 -0.694850 1.112763 0.098355 -0.041939 -772103.000000 0 0 1
-30.415765 24.068276 18.217599 42.851857 -0.669419 1.131691 0.114287 -0.035476 -524955.000000 0 0 1
-30.375165 23.424976 16.970299 41.944859 -0.656924 1.154270 0.115763 -0.031845 -201275.000000 0 0 1
-30.866765 21.982376 17.050399 41.553558 -0.618847 1.147988 0.112298 -0.032410 206567.000000 0 0 1
-32.261985 21.748376 16.955599 42.441959 -0.593143 1.159824 0.128123 -0.030541 261866.000000 0 0 1
-32.691985 20.430876 16.982499 42.125905 -0.558564 1.155854 0.122855 -0.030003 257077.000000 0 0 1
-34.101106 20.114076 16.424599 42.862909 -0.532913 1.177550 0.138940 -0.031768 137830.000000 0 0 1
-34.085472 20.169676 14.983499 42.345490 -0.534323 1.209124 0.121446 -0.037844 -100140.000000 0 0 1
-35.198696 19.550676 14.393499 42.759209 -0.507008 1.227474 0.136901 -0.036716 -217969.000000 0 0 1
-35.363045 19.877276 12.875599 42.560923 -0.512079 1.263459 0.139699 -0.029650 147354.000000 0 0 1
-35.733177 21.302676 12.709099 43.499255 -0.537591 1.274303 0.129637 -0.034571 21932.100000 0 0 1
-35.831369 21.831276 11.390899 43.476939 -0.547214 1.305704 0.094437 -0.032285 -216983.000000 0 0 1
-34.678453 21.660776 10.392399 42.187514 -0.558324 1.321896 0.098843 -0.031727 -316433.000000 0 0 1
-34.674178 20.355776 9.766499 41.376814 -0.530849 1.332510 0.117204 -0.029907 262885.000000 0 0 1
-33.389375 20.108876 9.216599 40.052004 -0.542075 1.338600 0.132522 -0.021256 487435.000000 0 0 1
-32.494745 19.038576 9.889599 38.938156 -0.529985 1.314001 0.100295 -0.027492 -13519.800000 0 0 1
-32.034285 19.324876 11.186999 39.048626 -0.542810 1.280236 0.102241 -0.029291 55673.700000 0 0 1
-31.391605 18.180576 11.699899 38.116320 -0.524951 1.258807 0.079090 -0.027293 365367.000000 0 0 1
-30.683735 18.363476 13.117899 38.089213 -0.539298 1.219197 0.080320 -0.019806 -289652.000000 0 0 1
-29.657195 19.263276 13.254999 37.766626 -0.576046 1.212188 0.070129 -0.014374 -705896.000000 0 0 1
-30.023585 20.667376 13.207299 38.768400 -0.602879 1.223165 0.084600 -0.012884 123486.000000 0 0 1
-28.800965 21.609176 13.370899 38.408763 -0.643689 1.215230 0.085078 -0.017609 289679.000000 0 0 1
-28.250625 21.454276 14.669199 38.387097 -0.649507 1.178687 0.093886 -0.020602 63226.800000 0 0 1
-27.152265 22.317076 14.932299 38.187314 -0.687967 1.169048 0.077086 -0.026541 -48281.500000 0 0 1
-26.591665 22.077176 16.330099 38.225522 -0.692904 1.129398 0.076534 -0.031034 -254409.000000 0 0 1
-25.628925 21.026776 16.382599 36.977786 -0.687076 1.111811 0.075132 -0.029269 239139.000000 0 0 1
-25.260855 20.704876 17.736699 37.167098 -0.686604 1.073313 0.076473 -0.027352 -141385.000000 0 0 1
-24.107355 19.710376 17.917099 35.926118 -0.685386 1.048674 0.087248 -0.025037 -125680.000000 0 0 1
-23.644155 19.687076 19.248899 36.292522 -0.694329 1.011745 0.087429 -0.027282 59681.000000 0 0 1
-22.573855 18.789676 19.412899 35.206413 -0.694166 0.986752 0.080798 -0.020862 -347440.000000 0 0 1
-22.056955 18.519176 20.816899 35.536073 -0.698429 0.944934 0.080853 -0.031798 -58296.000000 0 0 1
-22.913055 17.821576 21.705299 36.245506 -0.661052 0.928743 0.103004 -0.020988 116660.000000 0 0 1
-23.637955 18.662376 22.600799 37.654128 -0.668311 0.927019 0.082348 -0.025934 323811.000000 0 0 1
-24.455855 17.703076 23.562999 38.297555 -0.626573 0.908079 0.104087 -0.030568 -182449.000000 0 0 1
-23.593455 16.886976 24.296299 37.843510 -0.621217 0.873666 0.095310 -0.015931 42626.500000 0 0 1
-24.191455 15.665376 24.667199 37.935488 -0.574657 0.862895 0.114096 -0.015377 -148045.000000 0 0 1
20.816645 24.714876 33.673986 46.670067 0.870806 0.764783 0.085487 -0.033913 167011.000000 0 0 1
21.581045 23.866476 32.808776 45.953955 0.835643 0.775675 0.086917 -0.042441 164665.000000 0 0 1
21.516345 22.524876 33.249765 45.561717 0.808294 0.752805 0.087583 -0.043035 -38086.800000 0 0 1
20.367045 21.683476 32.651757 44.171562 0.816694 0.738910 0.080082 -0.040028 -101253.000000 0 0 1
20.514045 21.374876 31.278692 43.082107 0.805946 0.758272 0.102315 -0.036241 661898.000000 0 0 1
19.459645 20.462776 30.931052 41.882370 0.810520 0.739921 0.084221 -0.030467 442272.000000 0 0 1
19.897945 19.778376 29.599472 40.782853 0.782385 0.758625 0.084292 -0.019392 785229.000000 0 0 1
21.096645 18.988276 29.738522 41.109643 0.732849 0.762089 0.067662 -0.015740 484727.000000 0 0 1
21.310545 18.349376 28.504022 40.041456 0.710872 0.778649 0.059269 -0.013743 -12361.400000 0 0 1
22.481045 17.345576 28.532612 40.253898 0.657160 0.782978 0.049530 -0.012298 22546.200000 0 0 1
23.772145 17.909476 28.644292 41.308106 0.645661 0.804557 0.069366 -0.015943 -362489.000000 0 0 1
24.677045 16.907976 28.998832 41.662554 0.600704 0.800928 0.050693 -0.007784 -1026270.000000 0 0 1
26.092445 17.322176 29.314832 42.897935 0.586069 0.818438 0.055851 -0.017259 -895942.000000 0 0 1
26.803445 17.485376 28.124302 42.604453 0.578029 0.849810 0.039362 -0.006113 -681750.000000 0 0 1
28.179745 17.487676 28.356042 43.634641 0.555412 0.863407 0.053310 -0.008197 -41149.600000 0 0 1
29.126645 17.323476 27.120312 43.404787 0.536561 0.895891 0.031528 0.000139 248288.000000 0 0 1
29.173345 18.427476 26.270472 43.368117 0.563370 0.920081 0.040598 -0.002917 341027.000000 0 0 1
30.201745 18.099976 25.340242 43.380668 0.539906 0.946980 0.029211 -0.002115 -22201.100000 0 0 1
30.715545 19.358876 24.636472 43.876720 0.562375 0.974607 0.043449 -0.013523 142456.000000 0 0 1
29.789445 19.853276 23.654192 42.907859 0.587855 0.986900 0.042777 -0.018351 691508.000000 0 0 1
30.270145 21.022376 22.985892 43.434700 0.607020 1.013132 0.026081 -0.019508 64712.600000 0 0 1
31.012045 20.776776 21.664692 43.159938 0.590278 1.044929 0.027496 -0.011241 -415840.000000 0 0 1
30.083945 20.250876 20.774192 41.793645 0.592475 1.050582 0.049452 -0.013187 32233.600000 0 0 1
30.554645 19.729176 19.489692 41.263480 0.573347 1.078872 0.055982 -0.017104 -642569.000000 0 0 1
31.491745 18.563476 19.512992 41.437778 0.532642 1.080487 0.087607 -0.036214 -834839.000000 0 0 1
30.874045 17.397976 19.889392 40.638456 0.513160 1.059368 0.081930 -0.029823 153904.000000 0 0 1
31.767745 16.296476 19.830792 40.841462 0.473984 1.063798 0.093077 -0.022885 -467852.000000 0 0 1
31.092545 14.889976 19.968592 39.839709 0.446619 1.045784 0.092847 -0.027750 16306.300000 0 0 1
30.750745 14.418776 21.265192 40.071409 0.438453 1.011391 0.079593 -0.036161 -63936.100000 0 0 1
29.666045 15.042776 21.871392 39.808505 0.469288 0.989132 0.072002 -0.021149 -405267.000000 0 0 1
29.017345 14.247276 23.107892 39.736203 0.456415 0.950185 0.050650 -0.016115 409835.000000 0 0 1
28.449345 12.993476 22.749892 38.674969 0.428431 0.941924 0.051645 -0.017954 372984.000000 0 0 1
27.826645 12.381776 23.885062 38.705642 0.418656 0.905751 0.039410 -0.010175 -48247.800000 0 0 1
27.301545 10.979876 23.724022 37.798958 0.382376 0.892282 0.046477 -0.008407 -319624.000000 0 0 1
26.056445 10.926476 23.058592 36.469506 0.397066 0.886316 0.034409 0.000318 145093.000000 0 0 1
25.784545 9.614176 22.522092 35.560086 0.356898 0.884918 0.031251 0.000354 -214534.000000 0 0 1
24.485345 9.623376 21.706192 34.107187 0.374480 0.880960 0.027011 -0.003075 -968299.000000 0 0 1
23.332445 9.745376 22.441192 33.808023 0.395650 0.844931 0.023806 -0.006054 -1008150.000000 0 0 1
22.232545 9.319176 21.720892 32.448886 0.396921 0.837412 0.017985 0.005791 -825151.000000 0 0 1
20.815145 9.390176 22.263892 31.892421 0.423787 0.798065 0.028001 -0.001654 -297160.000000 0 0 1
20.495945 8.363676 23.194692 32.062884 0.387440 0.762064 0.044219 -0.002692 235890.000000 0 0 1
19.106345 8.306476 23.461832 31.376863 0.410100 0.726140 0.041529 -0.002366 177755.000000 0 0 1
18.775045 7.719076 24.825312 32.068404 0.390068 0.685447 0.042498 -0.006708 -300997.000000 0 0 1
19.027645 6.325376 24.868332 31.945196 0.320938 0.678574 0.055927 -0.011054 154669.000000 0 0 1
18.812245 5.718076 26.071732 32.654742 0.295081 0.646154 0.063776 -0.025919 -553744.000000 0 0 1
19.055445 4.202376 25.998842 32.507072 0.217060 0.643850 0.064859 -0.030738 -70684.400000 0 0 1
20.375945 3.940676 25.573632 32.935068 0.191040 0.681726 0.076227 -0.025189 7293.340000 0 0 1
20.749745 2.601776 25.684132 33.120926 0.124737 0.683344 0.068502 -0.024732 -998028.000000 0 0 1
22.167645 2.340576 25.261792 33.690368 0.105195 0.723003 0.060756 -0.019609 -843042.000000 0 0 1
23.101045 2.892376 26.151492 35.013206 0.124557 0.727403 0.063599 -0.024163 -142205.000000 0 0 1
24.458745 2.589876 25.912282 35.726517 0.105494 0.759333 0.060912 -0.025076 636957.000000 0 0 1
25.356445 2.982776 27.141412 37.262615 0.117096 0.754839 0.048263 -0.023568 -429384.000000 0 0 1
25.605845 1.914376 28.035492 38.017271 0.074624 0.741523 0.046852 -0.023693 192956.000000 0 0 1
26.431945 2.180576 29.160672 39.417603 0.082311 0.738041 0.050020 -0.015317 1489060.000000 0 0 1
27.967545 2.404376 28.825472 40.235213 0.085759 0.772133 0.073790 -0.022110 305316.000000 0 0 1
28.305745 3.715376 28.261492 40.171272 0.130513 0.790451 0.070842 -0.013510 1287420.000000 0 0 1
29.676245 3.923276 27.832442 40.874398 0.131440 0.821770 0.065532 -0.009024 1218710.000000 0 0 1
30.184345 2.998676 26.680982 40.397543 0.099021 0.849364 0.066729 -0.007864 -220296.000000 0 0 1
29.474145 3.165776 25.441302 39.064142 0.106998 0.861540 0.052593 0.000538 211611.000000 0 0 1
29.736745 2.052176 24.546312 38.613558 0.068902 0.881892 0.054917 0.010783 -95075.200000 0 0 1
29.263245 2.312576 23.111292 37.360638 0.078863 0.903837 0.049874 0.003361 7316.220000 0 0 1
29.936645 3.379876 22.512692 37.609142 0.112425 0.929049 0.052208 -0.001108 -492651.000000 0 0 1
31.251645 3.112076 22.084692 38.393801 0.099254 0.957929 0.042542 0.001306 -37098.400000 0 0 1
31.956345 4.378376 21.529492 38.780113 0.136163 0.982231 0.058664 -0.011623 -357862.000000 0 0 1
31.365045 4.843276 20.304092 37.675980 0.153206 1.001650 0.053880 -0.008466 227675.000000 0 0 1
31.988145 6.058076 19.863992 38.138168 0.187168 1.022958 0.084935 -0.017409 1203470.000000 0 0 1
33.518945 5.918676 19.416192 39.185953 0.174775 1.052399 0.073007 -0.027285 1039830.000000 0 0 1
34.419145 5.806976 20.496992 40.478700 0.167140 1.039832 0.080825 -0.030924 -64873.300000 0 0 1
34.746045 6.995576 21.152492 41.275339 0.198678 1.032734 0.100553 -0.032539 -373731.000000 0 0 1
35.774745 6.981676 22.323692 42.742524 0.192734 1.021270 0.094731 -0.031936 229351.000000 0 0 1
35.290545 6.130476 23.391522 42.780470 0.171998 0.992282 0.083790 -0.020422 643096.000000 0 0 1
36.264445 5.954476 24.412212 44.119404 0.162744 0.984450 0.096617 -0.017013 239311.000000 0 0 1
35.676645 5.071376 25.524672 44.159378 0.141202 0.954505 0.076996 -0.009498 65096.600000 0 0 1
35.361245 3.751176 25.188892 43.577164 0.105686 0.954484 0.072833 -0.002406 121927.000000 0 0 1
34.600245 3.148876 26.240962 43.539412 0.090757 0.923923 0.091232 0.007314 96259.200000 0 0 1
34.344845 1.621876 26.117492 43.177798 0.047188 0.921178 0.070350 0.013917 -255985.000000 0 0 1
33.453545 1.253776 25.110402 41.847866 0.037461 0.927245 0.066579 0.009737 -317067.000000 0 0 1
33.521145 -0.128724 24.853502 41.729849 -0.003840 0.932808 0.066583 0.005958 -132143.000000 0 0 1
32.623645 -0.740024 23.770232 40.371695 -0.022680 0.941242 0.078641 0.014273 17262.600000 0 0 1
31.305845 -1.082724 24.149072 39.552571 -0.034572 0.914033 0.070638 0.010467 -341871.000000 0 0 1
30.747345 -1.766424 23.052792 38.470127 -0.057387 0.928246 0.062704 0.003555 915788.000000 0 0 1
29.232345 -2.161524 23.250652 37.413834 -0.073809 0.900210 0.064412 0.012630 1438970.000000 0 0 1
28.361045 -1.032524 23.152792 36.626039 -0.036390 0.886484 0.041490 0.009972 -604620.000000 0 0 1
27.013545 -1.370624 23.050192 35.537607 -0.050695 0.865034 0.041849 0.011120 -432723.000000 0 0 1
26.116345 -0.130624 23.204592 34.936136 -0.005002 0.844373 0.056163 -0.005367 -157877.000000 0 0 1
26.158745 0.748876 22.149692 34.284830 0.028620 0.868399 0.044244 -0.007689 680742.000000 0 0 1
25.080545 1.702076 22.261592 33.578405 0.067761 0.846013 0.054258 -0.007511 611941.000000 0 0 1
25.221145 2.878976 21.249192 33.104725 0.113657 0.873852 0.042189 -0.008497 -187259.000000 0 0 1
24.972945 2.519676 19.869292 32.012271 0.100556 0.901190 0.051435 -0.011654 64231.600000 0 0 1
24.316145 3.568876 19.260792 31.224828 0.145729 0.906072 0.051778 -0.012227 -453891.000000 0 0 1
24.014245 3.393276 17.761292 30.060967 0.140373 0.938694 0.055073 -0.018456 -780498.000000 0 0 1
25.080845 3.339176 16.886992 30.419884 0.132358 0.982277 0.053312 -0.021336 -725270.000000 0 0 1
24.816345 3.758076 15.592892 29.548475 0.150294 1.014899 0.053401 -0.018900 -515547.000000 0 0 1
24.324645 2.706076 14.552792 28.474461 0.110793 1.034353 0.064795 -0.018077 769184.000000 0 0 1
22.929945 2.393576 14.656392 27.318883 0.104010 1.004520 0.074118 -0.016921 772916.000000 0 0 1
22.605745 1.307576 13.779492 26.506675 0.057778 1.024121 0.074021 -0.017102 -579634.000000 0 0 1
21.160245 0.794376 13.966092 25.366094 0.037523 0.987736 0.103315 -0.025030 120404.000000 0 0 1
20.150345 1.560376 13.288892 24.188134 0.077282 0.989154 0.119635 -0.028771 836102.000000 0 1 0
20.118345 1.318276 11.849092 23.385607 0.065433 1.039463 0.124960 -0.022540 -968296.000000 0 1 0
19.666145 -0.099824 11.356492 22.709846 -0.005076 1.047118 0.111118 -0.015914 -515281.000000 0 1 0
20.518145 -1.211924 11.495492 23.550145 -0.058997 1.060852 0.100161 -0.021353 268948.000000 0 1 0
21.627645 -1.185124 10.605092 24.116955 -0.054742 1.115492 0.093184 -0.017843 -63689.900000 0 1 0
22.750745 -2.158924 10.994392 25.360086 -0.094611 1.122388 0.100256 -0.023965 -195273.000000 0 0 1
23.275645 -1.907524 12.273492 26.382435 -0.081771 1.086919 0.080484 -0.026333 -131800.000000 0 0 1
24.253545 -2.847224 12.647592 27.500958 -0.116859 1.092918 0.052561 -0.015082 -138389.000000 0 0 1
24.616145 -2.591124 14.132492 28.502558 -0.104875 1.052003 0.075521 -0.015672 317522.000000 0 0 1
25.532845 -1.479824 14.226992 29.266420 -0.057893 1.063152 0.051429 -0.009950 277146.000000 0 0 1
25.749845 -1.265624 15.592992 30.129681 -0.049111 1.026835 0.039641 -0.018669 -473995.000000 0 0 1
26.856845 -0.302224 15.953492 31.239324 -0.011253 1.034814 0.058638 -0.014945 -837818.000000 0 0 1
28.112545 -0.806924 15.636692 32.178757 -0.028695 1.063367 0.051840 -0.012072 265807.000000 0 0 1
29.173845 0.229576 15.681892 33.122313 0.007869 1.077588 0.040991 -0.009707 866539.000000 0 0 1
30.480045 -0.517224 15.991292 34.424149 -0.016968 1.087685 0.046503 -0.010761 -425580.000000 0 0 1
31.056245 -1.108024 14.832692 34.434384 -0.035663 1.125470 0.068884 -0.012139 30904.700000 0 0 1
32.385245 -1.522924 15.055192 35.746079 -0.046991 1.136061 0.058947 -0.011245 -15939.600000 0 0 1
32.882045 -2.314724 13.830792 35.747414 -0.070279 1.173525 0.061877 -0.018088 -149916.000000 0 0 1
33.027245 -1.524824 12.653292 35.400985 -0.046136 1.205284 0.076424 -0.014586 338370.000000 0 0 1
33.842545 -2.139724 11.659292 35.858546 -0.063142 1.239629 0.075358 -0.018991 172337.000000 0 0 1
33.835845 -1.461824 10.276492 35.392197 -0.043177 1.276193 0.116958 -0.017541 404.647000 0 0 1
34.483345 -0.187124 10.183492 35.956078 -0.005426 1.283646 0.095710 -0.013962 806632.000000 0 0 1
33.497145 0.811576 9.881192 34.933584 0.024223 1.284025 0.103350 -0.017775 46285.800000 0 0 1
34.107345 2.134576 9.427192 35.450519 0.062503 1.301633 0.112783 -0.022599 -154095.000000 0 0 1
34.520045 2.089476 8.082392 35.515130 0.060456 1.341209 0.104799 -0.021666 121178.000000 0 0 1
34.796345 3.379476 7.601192 35.776872 0.096818 1.356704 0.107346 -0.018104 125663.000000 0 0 1
35.380845 3.405976 6.135992 36.070143 0.095970 1.399852 0.103534 -0.017282 76347.900000 0 0 1
35.837745 4.662576 5.689292 36.584855 0.129376 1.414653 0.108550 -0.002044 180909.000000 0 0 1
36.264145 4.716776 4.355892 36.828114 0.129341 1.452243 0.100627 -0.018023 -349226.000000 0 0 1
-36.619926 6.210476 3.920592 37.349164 -0.167994 1.465631 0.095650 -0.028811 169734.000000 0 0 1
35.590645 7.145676 3.944892 36.514611 0.198140 1.462549 0.112536 -0.030314 258851.000000 0 0 1
36.016245 8.416176 3.478392 37.149712 0.229558 1.477027 0.099052 -0.035294 -962388.000000 0 0 1
34.848245 9.373676 3.584992 36.264557 0.262766 1.471778 0.133610 -0.043725 -17643.800000 0 0 1
33.803145 9.365376 2.636992 35.175511 0.270277 1.495759 0.156536 -0.048643 639271.000000 0 0 1
32.968545 8.167076 2.674692 34.070222 0.242835 1.492210 0.162244 -0.038382 249548.000000 0 0 1
31.740745 8.238876 1.672092 32.835192 0.253963 1.519851 0.175345 -0.047106 711143.000000 0 0 1
32.057845 8.142576 0.293792 33.077081 0.248736 1.561914 0.174157 -0.048452 315346.000000 0 0 1
30.858845 7.865476 -0.432608 31.848409 0.249572 1.584380 0.172783 -0.035916 128679.000000 0 0 1
30.966045 7.565076 -1.971508 31.937645 0.239609 1.632566 0.134549 -0.034128 -296254.000000 0 0 1
29.870945 6.909376 -2.592008 30.768999 0.227310 1.655137 0.141902 -0.030656 739618.000000 0 0 1
30.228945 6.727376 -3.936908 31.217718 0.218979 1.697244 0.121455 -0.033761 197732.000000 0 0 1
29.087945 6.038176 -4.760708 30.087081 0.204677 1.729695 0.126629 -0.022818 165060.000000 0 0 1
29.151945 4.648976 -4.677608 29.888608 0.158142 1.727944 0.137854 -0.021398 797714.000000 0 0 1
28.064645 4.144676 -5.436608 28.885279 0.146623 1.760139 0.127777 -0.019472 -107520.000000 0 0 1
27.988145 2.637176 -5.384108 28.623060 0.093947 1.760028 0.151227 -0.010371 -545833.000000 0 0 1
27.553645 2.225876 -4.121608 27.948981 0.080608 1.718805 0.154792 -0.014698 576005.000000 0 0 1
27.434845 0.853476 -3.964108 27.732892 0.031099 1.714226 0.140025 -0.018470 -159339.000000 0 0 1
27.305845 0.333176 -2.493908 27.421520 0.012201 1.661869 0.149378 -0.018930 236704.000000 0 0 1
28.549345 0.449676 -1.800208 28.609579 0.015750 1.633761 0.150601 -0.017268 759121.000000 0 0 1
28.522245 0.194876 -0.442808 28.526347 0.006832 1.586320 0.161929 -0.016658 -991298.000000 0 0 1
29.816745 0.635876 0.188092 29.824117 0.021323 1.564490 0.171069 -0.015988 -838015.000000 0 0 1
30.924945 -0.131024 -0.202108 30.925883 -0.004237 1.577332 0.128391 -0.017515 -1223230.000000 0 0 1
32.076745 0.341276 0.323192 32.080188 0.010639 1.560722 0.099695 -0.022826 -1398690.000000 0 0 1
-3.484855 -21.587024 -8.572601 23.486875 1.410744 1.944424 0.039571 0.010463 13264.700000 0 1 0
-3.689655 -22.081624 -7.250101 23.532438 1.405234 1.883981 0.044430 -0.003883 -232524.000000 0 1 0
-2.677255 -22.980824 -6.829601 24.123213 1.454820 1.857835 0.053384 -0.011608 87100.000000 0 1 0
-3.006555 -23.589624 -5.456101 24.398335 1.444027 1.796329 0.054176 -0.011192 -259522.000000 0 1 0
-3.065755 -22.653324 -4.396601 23.278789 1.436280 1.760805 0.051417 -0.016895 -18616.300000 0 1 0
-3.518155 -23.276924 -3.255001 23.765261 1.420788 1.708193 0.043342 -0.028454 -412576.000000 0 1 0
-3.082855 -22.491924 -1.988001 22.789093 1.434580 1.658142 0.037536 -0.034190 1144020.000000 0 1 0
-1.660255 -22.395324 -1.748701 22.524763 1.496798 1.648509 0.055793 -0.032423 734837.000000 0 1 0
-1.296355 -22.467124 -0.368301 22.507506 1.513160 1.587161 0.045980 -0.024423 1711900.000000 0 1 0
0.289745 -22.364024 -0.208601 22.366873 -1.557841 1.580123 0.048300 -0.026825 1368870.000000 0 1 0
0.861545 -21.247824 -0.780101 21.279587 -1.530271 1.607464 0.035937 -0.024247 -1205510.000000 0 1 0
2.116545 -21.074824 -0.207301 21.181854 -1.470702 1.580583 0.028784 -0.023660 -344139.000000 0 1 0
3.039745 -19.989824 -0.829101 20.236613 -1.419888 1.611778 0.031526 -0.023836 583851.000000 0 1 0
3.745945 -20.481524 -1.961801 20.913478 -1.389902 1.664740 0.034954 -0.015141 204621.000000 0 1 0
4.785045 -19.590924 -2.368201 20.305401 -1.331239 1.687691 0.036454 -0.009431 930327.000000 0 1 0
5.798945 -20.153224 -3.456801 21.253933 -1.290622 1.734165 0.033934 -0.002753 -49173.700000 0 1 0
6.704245 -21.158824 -3.039601 22.402721 -1.263950 1.706896 0.049141 -0.006552 438056.000000 0 1 0
7.621545 -21.677424 -4.013901 23.326166 -1.232707 1.743734 0.040597 -0.008388 730870.000000 0 1 0
8.812345 -20.755024 -4.368201 22.967577 -1.169274 1.762152 0.047063 -0.011618 -1081990.000000 0 1 0
8.510245 -19.732624 -5.294101 22.132063 -1.163620 1.812343 0.035400 -0.001016 531747.000000 0 1 0
9.669945 -19.202824 -5.969901 22.313583 -1.104298 1.841641 0.050347 -0.004657 27259.400000 0 1 0
9.275645 -18.105124 -6.942501 21.494916 -1.097340 1.899676 0.038563 0.001627 590897.000000 0 1 0
10.223445 -17.883024 -8.035801 22.110980 -1.051457 1.942744 0.044394 0.007112 1046240.000000 0 1 0
9.880645 -16.668024 -8.779901 21.272913 -1.035695 1.996242 0.039660 0.006587 183988.000000 0 1 0
10.553645 -16.632024 -10.185201 22.175255 -1.005368 2.048009 0.043895 0.007499 145878.000000 0 1 0
9.811445 -17.286124 -11.229701 22.829383 -1.054548 2.085063 0.044279 0.002770 222841.000000 0 1 0
8.859845 -16.512024 -11.919501 22.208518 -1.078323 2.137328 0.028225 -0.011976 -64318.300000 0 1 0
8.127945 -17.263224 -13.095501 23.142483 -1.130761 2.172277 0.043918 -0.015982 -225006.000000 0 1 0
7.125645 -18.149324 -12.721401 23.281040 -1.196675 2.148889 0.034949 -0.007391 -297651.000000 0 1 0
6.682845 -18.864524 -13.832501 24.328353 -1.230336 2.175569 0.040286 -0.008481 171943.000000 0 1 0
5.497345 -19.801524 -13.409701 24.538566 -1.299994 2.148945 0.035189 -0.004550 130930.000000 0 1 0
5.808045 -20.932224 -12.584501 25.105000 -1.300136 2.095868 0.039941 -0.016947 -340227.000000 0 0 1
4.706545 -21.786524 -12.548401 25.578635 -1.358036 2.083553 0.053871 -0.006548 -115453.000000 0 0 1
5.153245 -23.272924 -12.491501 26.911382 -1.352886 2.053496 0.036693 -0.010134 -7276.630000 0 0 1
5.600745 -23.757024 -13.741801 28.010741 -1.339273 2.083564 0.060175 -0.015733 -21504.600000 0 0 1
5.223845 -25.101984 -13.938501 29.183556 -1.365620 2.068734 0.044649 -0.005310 -519671.000000 0 0 1
3.864145 -25.412174 -14.545501 29.534417 -1.419893 2.085749 0.052677 -0.014459 -696464.000000 0 0 1
2.839645 -25.102554 -13.651101 28.715054 -1.458153 2.066214 0.046809 -0.010927 574990.000000 0 0 1
1.500345 -25.466074 -14.079501 29.137678 -1.511949 2.075109 0.040809 -0.017074 1325260.000000 0 0 1
0.849445 -26.547434 -13.249601 29.682313 -1.538810 2.033513 0.039124 -0.023480 -632762.000000 0 0 1
1.293145 -27.798144 -13.701301 31.018296 -1.524311 2.028308 0.040154 -0.021969 248298.000000 0 0 1
0.682145 -28.937154 -13.080701 31.763642 -1.547227 1.995240 0.032665 -0.020053 181566.000000 0 0 1
-0.789455 -29.319234 -13.325101 32.214888 1.543877 1.997236 0.029328 -0.023274 139238.000000 0 0 1
-1.788655 -28.421494 -12.879401 31.254753 1.507946 1.995530 0.029408 -0.024223 511141.000000 0 0 1
-3.078155 -28.938064 -13.265601 31.982225 1.464824 1.998498 0.040461 -0.024707 639459.000000 0 0 1
-4.245155 -28.066274 -12.727801 31.108423 1.420680 1.992311 0.041753 -0.022905 173271.000000 0 0 1
-4.511355 -28.115064 -11.279301 30.627304 1.411692 1.947950 0.056233 -0.032101 114124.000000 0 0 1
-5.152955 -29.340424 -10.915401 31.726320 1.396943 1.922022 0.044787 -0.024735 -599189.000000 0 0 1
-5.821955 -29.387614 -9.505901 31.430704 1.375220 1.878048 0.053697 -0.023036 -349868.000000 0 0 1
-7.159355 -28.999854 -9.545201 31.358551 1.328760 1.880093 0.057603 -0.022109 -885945.000000 0 0 1
-7.254955 -27.624534 -9.176801 29.999382 1.313969 1.881680 0.057818 -0.020237 -1000110.000000 0 0 1
-8.690555 -27.271634 -8.815101 29.949520 1.262304 1.869553 0.056782 -0.015067 -206086.000000 0 0 1
-9.691955 -27.353394 -9.819201 30.635908 1.230275 1.897067 0.056820 -0.015870 190878.000000 0 0 1
-10.157455 -28.674754 -10.043301 32.035657 1.230358 1.889677 0.071505 -0.024134 -607824.000000 0 0 1
-11.330055 -28.859574 -11.035401 32.909349 1.196692 1.912749 0.063831 -0.024360 44899.800000 0 0 1
-11.018755 -28.395854 -12.364701 32.872835 1.200642 1.956420 0.072335 -0.024233 2239.180000 0 0 1
-11.922155 -29.025514 -13.229701 34.053535 1.181059 1.969796 0.076532 -0.021070 -134350.000000 0 0 1
-12.151155 -28.225454 -14.587401 34.016453 1.164273 2.013998 0.075730 -0.021361 27275.600000 0 0 1
-13.112055 -27.169954 -14.593701 33.512811 1.121170 2.021353 0.067480 -0.029746 204840.000000 0 0 1
-12.816955 -26.044814 -13.821201 32.150152 1.113479 2.015173 0.074643 -0.024968 174491.000000 0 0 1
-13.759255 -24.824524 -14.083901 31.684860 1.064688 2.031412 0.102224 -0.018968 105676.000000 0 0 1
-13.258355 -24.037724 -15.076201 31.319131 1.066753 2.073017 0.093519 -0.019643 40413.500000 0 0 1
-14.303555 -23.281024 -15.669301 31.498012 1.019865 2.091476 0.115931 -0.020676 -17287.000000 0 0 1
-13.924955 -22.382024 -16.868801 31.295620 1.014250 2.140063 0.107032 -0.018509 -108238.000000 0 0 1
-13.403355 -21.139324 -16.409401 29.929741 1.005717 2.151083 0.094745 -0.019843 252165.000000 0 0 1
-13.108455 -20.423624 -17.564601 29.957824 1.000187 2.197294 0.065152 -0.019813 -200670.000000 0 0 1
-13.299955 -18.909424 -17.428201 28.951637 0.957825 2.216770 0.079056 -0.025930 707327.000000 0 0 1
-12.060855 -18.195324 -17.295601 27.850886 0.985437 2.240823 0.075109 -0.024555 915076.000000 0 0 1
-12.313255 -16.794024 -17.371701 27.118840 0.938139 2.266046 0.086627 -0.027898 344008.000000 0 0 1
-10.965555 -16.039024 -17.438101 26.107107 0.971108 2.302240 0.089603 -0.034231 356721.000000 0 0 1
-10.273755 -15.755624 -16.220801 24.837555 0.992968 2.282435 0.105180 -0.039161 74744.900000 0 1 0
-8.942455 -15.450324 -16.547201 24.341115 1.046120 2.318292 0.078695 -0.032282 -712581.000000 0 1 0
-8.027555 -14.838424 -15.475501 22.893484 1.074891 2.313088 0.068763 -0.029279 -141316.000000 0 1 0
-7.567155 -15.843724 -14.566901 22.814031 1.125219 2.263352 0.055556 -0.018755 811972.000000 0 1 0
-6.361455 -16.567224 -14.938801 23.197172 1.204178 2.270502 0.043647 -0.013576 398020.000000 0 1 0
-5.988955 -17.543224 -13.840501 23.134212 1.241819 2.212136 0.036593 -0.004770 -589812.000000 0 1 0
-5.753155 -16.929324 -12.602501 21.875188 1.243207 2.184757 0.030279 -0.002894 190767.000000 0 1 0
-5.535055 -17.757724 -11.465701 21.850306 1.268642 2.123204 0.026610 0.000120 276659.000000 0 1 0
-4.360155 -18.797424 -11.523701 22.475537 1.342872 2.109149 0.029883 -0.000387 1189360.000000 0 1 0
-3.062855 -18.165724 -11.676101 21.810684 1.403761 2.135705 0.014309 0.004209 781168.000000 0 1 0
-2.072655 -19.198024 -11.677801 22.566148 1.463251 2.114714 0.017960 0.010223 675105.000000 0 1 0
-0.647655 -18.727424 -12.061401 22.284821 1.536227 2.142706 0.013841 0.013979 -254233.000000 0 1 0
-0.422555 -18.345724 -13.423901 22.736430 1.547767 2.202368 0.015722 0.005829 213893.000000 0 1 0
0.873245 -17.866424 -13.809701 22.598219 -1.521959 2.228242 0.017407 0.009902 791784.000000 0 1 0
1.883645 -19.014224 -14.093501 23.742696 -1.472053 2.206313 0.022458 0.007760 -306447.000000 0 1 0
1.546145 -19.881024 -15.197401 25.072030 -1.493183 2.222007 0.023281 0.007326 293961.000000 0 0 1
0.877545 -21.108024 -14.837201 25.815911 -1.529246 2.183072 0.028319 0.000936 -928226.000000 0 0 1
0.896745 -22.199524 -15.926701 27.336474 -1.530424 2.192742 0.038432 -0.001855 891969.000000 0 0 1
2.138945 -22.832824 -16.317701 28.145698 -1.477390 2.189228 0.069294 -0.008294 699606.000000 0 0 1
3.174745 -21.929624 -16.658501 27.721707 -1.427025 2.215447 0.069764 -0.016211 -776399.000000 0 0 1
4.504045 -22.677424 -16.879001 28.626083 -1.374734 2.201406 0.072059 -0.022240 -183539.000000 0 0 1
4.683645 -23.264524 -18.107401 29.850504 -1.372131 2.222577 0.093680 -0.027563 596938.000000 0 0 1
6.002945 -23.815124 -18.195901 30.566097 -1.323876 2.208431 0.107133 -0.030157 549327.000000 0 0 1
6.613545 -23.627024 -19.580101 31.390374 -1.297867 2.244342 0.125435 -0.025917 -209645.000000 0 0 1
6.779445 -22.254724 -19.870701 30.595398 -1.275098 2.277680 0.131345 -0.041366 79987.200000 0 0 1
7.241845 -22.066224 -21.210101 31.452042 -1.253685 2.310898 0.133174 -0.040146 161423.000000 0 0 1
7.397045 -20.608024 -21.701601 30.828013 -1.226179 2.351750 0.127682 -0.041743 -310493.000000 0 0 1
6.112945 -20.083124 -21.766701 30.240523 -1.275324 2.374290 0.112807 -0.039786 -290989.000000 0 0 1
6.213145 -18.686024 -22.055401 29.567066 -1.249794 2.412749 0.108196 -0.032197 544107.000000 0 0 1
4.792645 -18.063624 -22.242201 29.051324 -1.311451 2.442797 0.095327 -0.028328 -251252.000000 0 0 1
4.242745 -18.442224 -23.513101 30.182485 -1.344675 2.463916 0.090208 -0.033975 644775.000000 0 0 1
3.093145 -17.776324 -24.044501 30.061658 -1.398518 2.497824 0.075953 -0.018175 1015700.000000 0 0 1
1.863545 -17.469924 -23.161301 29.070894 -1.464527 2.492641 0.053806 -0.004880 -488669.000000 0 0 1
2.099845 -16.404924 -22.324401 27.783264 -1.443488 2.503981 0.062042 -0.013028 -621442.000000 0 0 1
0.931445 -15.811424 -21.836701 26.976105 -1.511955 2.514068 0.042006 -0.009650 -246589.000000 0 0 1
1.221745 -15.016324 -20.556301 25.486156 -1.489614 2.509118 0.032307 -0.012304 60203.100000 0 0 1
2.175845 -14.001724 -20.796001 25.164583 -1.416631 2.543480 0.034639 -0.005474 -204235.000000 0 0 1
2.286845 -13.244524 -19.589601 23.757095 -1.399819 2.540254 0.034032 -0.011673 869079.000000 0 1 0
3.580845 -12.322724 -19.526701 23.365873 -1.287996 2.560190 0.043132 -0.012007 -149558.000000 0 1 0
4.721545 -13.096724 -19.305001 23.801265 -1.224786 2.516812 0.041990 -0.008324 -723253.000000 0 1 0
5.922645 -12.367924 -19.442801 23.792137 -1.124194 2.527323 0.050623 -0.001032 134287.000000 0 1 0
6.323745 -11.278924 -18.340801 22.440785 -1.059799 2.527502 0.042210 -0.002139 -672226.000000 0 1 0
5.478445 -10.148024 -18.256801 21.594132 -1.075777 2.578207 0.022772 0.002156 -224103.000000 0 1 0
5.607345 -9.053324 -19.157601 21.918455 -1.016257 2.634252 0.031853 -0.002656 -306402.000000 0 1 0
5.066745 -9.037124 -20.613801 23.070984 -1.059806 2.675864 0.050803 -0.012655 -329371.000000 0 1 0
3.681445 -9.257624 -20.675201 22.950394 -1.192303 2.692554 0.041774 -0.013544 -372626.000000 0 1 0
3.218045 -9.406024 -22.010201 24.151150 -1.241153 2.717353 0.043758 -0.019303 319426.000000 0 1 0
1.683545 -9.215424 -22.068701 23.974693 -1.390101 2.740154 0.053498 -0.023893 266852.000000 0 1 0
1.242245 -7.881724 -21.800601 23.214886 -1.414472 2.790736 0.048623 -0.022257 1482980.000000 0 1 0
-0.219155 -7.808724 -21.734801 23.096012 1.542738 2.796556 0.039476 -0.023821 2104880.000000 0 1 0
-0.884555 -6.938224 -22.862801 23.908765 1.443990 2.844706 0.058147 -0.020193 249339.000000 0 1 0
-0.503355 -7.355124 -24.195501 25.293744 1.502467 2.845831 0.065056 -0.019700 -133736.000000 0 0 1
-1.143255 -6.645524 -25.270521 26.154718 1.400430 2.880830 0.070522 -0.026587 64449.900000 0 0 1
-0.747955 -5.172824 -25.591551 26.119821 1.427198 2.940131 0.078217 -0.027269 136522.000000 0 0 1
-1.403155 -4.595724 -26.738811 27.167141 1.274468 2.963783 0.074370 -0.025272 -38568.500000 0 0 1
-0.915255 -3.316524 -27.088141 27.305758 1.301530 3.015258 0.053946 -0.024264 -627095.000000 0 0 1
-1.271155 -2.013024 -26.300471 26.408008 1.007561 3.051316 0.058715 -0.022097 -47841.700000 0 0 1
-2.625255 -1.755624 -26.026011 26.216930 0.589439 3.020836 0.051172 -0.024367 -235819.000000 0 0 1
-3.419055 -1.345624 -27.115751 27.363563 0.374947 3.006908 0.068166 -0.020998 -1075830.000000 0 0 1
-4.906255 -1.314424 -26.864841 27.340789 0.261761 2.954731 0.057115 -0.023708 -848975.000000 0 0 1
-5.397955 -0.205024 -26.146131 26.698317 0.037963 2.937857 0.057853 -0.020660 -54947.100000 0 0 1
-6.800055 -0.399424 -26.055511 26.931208 0.058671 2.885883 0.077060 -0.033221 -218203.000000 0 0 1
-7.545955 0.745576 -25.373301 26.482102 -0.098485 2.851195 0.079188 -0.026020 -915406.000000 0 0 1
-7.749655 1.900076 -26.150961 27.341182 -0.240439 2.845445 0.084325 -0.025597 373364.000000 0 0 1
-8.690755 1.918376 -27.226601 28.644322 -0.217254 2.825657 0.093119 -0.033255 406276.000000 0 0 1
-10.128855 1.361976 -26.992771 28.862751 -0.133663 2.779652 0.094499 -0.030189 -763264.000000 0 0 1
-11.066755 2.180476 -27.626461 29.840391 -0.194538 2.753963 0.095842 -0.034371 315841.000000 0 0 1
-12.356755 1.593276 -27.412811 30.111296 -0.128232 2.715005 0.056413 -0.018194 716554.000000 0 0 1
-13.522155 2.196476 -28.247511 31.394189 -0.161029 2.690036 0.034415 -0.008500 331016.000000 0 0 1
-14.779255 1.557976 -28.045321 31.739466 -0.105029 2.654314 0.028258 -0.004986 1379230.000000 0 0 1
-15.934655 2.167076 -28.667131 32.869650 -0.135168 2.630368 0.023232 -0.006859 968819.000000 0 0 1
-16.575555 3.397876 -28.007471 32.721752 -0.202192 2.598140 0.023827 0.001242 -391048.000000 0 0 1
-15.767655 4.580276 -28.028661 32.483900 -0.282705 2.611673 0.040408 -0.006531 235523.000000 0 0 1
-15.534655 5.305576 -29.223381 33.518363 -0.329111 2.629787 0.022494 -0.002954 -67686.000000 0 0 1
-16.798855 5.811676 -29.970801 34.845746 -0.333068 2.606261 0.026957 0.000002 301130.000000 0 0 1
-17.551655 6.797976 -29.252021 34.784391 -0.369521 2.569837 0.035291 0.002107 324014.000000 0 0 1
-18.467655 7.435076 -30.130771 36.113682 -0.382746 2.557715 0.035886 0.002449 294749.000000 0 0 1
-19.273855 8.493576 -29.306791 36.090308 -0.415075 2.518436 0.048047 -0.003964 314758.000000 0 0 1
-18.311455 9.416076 -28.810501 35.412101 -0.474957 2.521076 0.045416 -0.007016 819295.000000 0 0 1
-18.933755 10.565376 -28.220841 35.588343 -0.508978 2.486481 0.069047 -0.004534 51514.100000 0 0 1
-8.923955 25.201576 30.868572 40.836566 -1.230471 0.713761 0.027339 -0.001166 -711215.000000 0 0 1
-9.446455 26.452676 31.090762 41.900061 -1.227804 0.734715 0.026254 0.005678 -341559.000000 0 0 1
-8.655855 27.246376 31.915772 42.847466 -1.263192 0.730457 0.026120 -0.003905 1153270.000000 0 0 1
-7.295655 27.840876 31.322762 42.537706 -1.314511 0.743132 0.028925 -0.003400 1254750.000000 0 0 1
-7.577155 28.795376 30.346382 42.514584 -1.313491 0.775905 0.041318 -0.002581 703605.000000 0 0 1
-6.361055 29.033476 29.616002 41.958472 -1.355111 0.787187 0.036256 -0.000465 709023.000000 0 0 1
-6.391355 30.332276 28.800342 42.312600 -1.363123 0.822138 0.050775 -0.005983 -228141.000000 0 0 1
-6.446855 31.537676 29.570272 43.710273 -1.369157 0.827788 0.055581 -0.013445 279905.000000 0 0 1
-6.375455 32.704576 28.808872 44.047552 -1.378270 0.857883 0.053265 -0.016987 -311945.000000 0 0 1
-6.822855 33.927176 29.584382 45.528456 -1.372340 0.863475 0.055015 -0.021595 -601242.000000 0 0 1
-5.994155 -33.934868 30.641532 46.112998 1.395963 0.843988 0.068222 -0.028427 -132018.000000 0 0 1
-6.726455 -33.518668 31.782222 46.678217 1.372749 0.821834 0.066465 -0.031944 139527.000000 0 0 1
-7.558755 33.784776 32.630632 47.574195 -1.350689 0.814971 0.047345 -0.028758 -160759.000000 0 0 1
-6.811455 33.064176 33.552355 47.596178 -1.367631 0.788461 0.064018 -0.019785 -175476.000000 0 0 1
-7.059055 31.677776 33.393630 46.566579 -1.351539 0.771141 0.059574 -0.012100 -305531.000000 0 0 1
-6.721155 30.767476 -33.623251 46.068802 -1.355725 2.388897 0.056721 -0.014907 -770878.000000 0 0 1
-5.374155 30.749776 -33.291611 45.637284 -1.397773 2.388362 0.040645 -0.014609 -941191.000000 0 0 1
-5.256655 30.368376 -31.963141 44.401724 -1.399398 2.374401 0.055360 -0.011976 506039.000000 0 0 1
-3.797955 30.067976 -31.474531 43.693864 -1.445149 2.375092 0.038849 -0.019795 743911.000000 0 0 1
-3.129355 28.863476 -31.810281 43.067239 -1.462799 2.401816 0.038071 -0.012962 177047.000000 0 0 1
-2.800655 28.619376 -33.170871 43.900103 -1.473248 2.427364 0.042634 -0.017320 -680044.000000 0 0 1
-2.418255 27.116676 -33.345351 43.047352 -1.481852 2.456911 0.045042 -0.020116 24.318800 0 0 1
-1.169755 26.855176 -32.688421 42.321409 -1.527266 2.453384 0.059205 -0.023187 659862.000000 0 0 1
-0.713555 25.517076 -32.890301 41.634148 -1.542840 2.481579 0.072118 -0.017634 284793.000000 0 0 1
-0.139955 25.182576 33.916675 42.243610 -1.565239 0.638681 0.065226 -0.017980 -496678.000000 0 0 1
-1.180755 24.954276 32.992849 41.384033 -1.523515 0.648093 0.057204 -0.009722 121350.000000 0 0 1
-0.807955 24.957076 31.598372 40.273633 -1.538434 0.668758 0.070442 -0.014277 -20500.800000 0 0 1
-0.384255 26.294476 30.976832 40.633868 -1.556184 0.703875 0.040361 -0.011035 -273810.000000 0 0 1
-1.477555 27.180476 30.939722 41.209560 -1.516489 0.721539 0.031179 -0.011460 -106557.000000 0 0 1
-1.149855 28.420776 30.400072 41.632044 -1.530360 0.752169 0.030514 -0.010210 -426605.000000 0 0 1
-2.280755 29.447176 30.403782 42.387828 -1.493498 0.770911 0.037889 -0.015364 -318009.000000 0 0 1
-2.466455 30.002976 31.684382 43.705401 -1.488774 0.759829 0.038370 -0.020088 -445840.000000 0 0 1
-3.403855 31.015276 31.790812 44.544240 -1.461486 0.776043 0.043878 -0.019466 -460095.000000 0 0 1
-3.087555 31.954176 33.014339 46.049419 -1.474471 0.771404 0.047101 -0.019416 119779.000000 0 0 1
-1.764555 32.451276 32.947517 46.278914 -1.516474 0.778548 0.063318 -0.031004 -343424.000000 0 0 1
-1.252455 32.751176 -34.031723 47.247925 -1.532573 2.375002 0.061407 -0.029415 -563235.000000 0 0 1
0.204845 33.221476 -34.075857 47.590677 1.564630 2.368880 0.068595 -0.038670 -168970.000000 0 0 1
0.279645 -33.771768 33.512311 47.578204 -1.562516 0.789271 0.073118 -0.037009 -526521.000000 0 0 1
1.607145 -33.555868 33.178875 47.216702 -1.522938 0.791620 0.080928 -0.042312 -723355.000000 0 0 1
1.747645 -32.105568 32.588384 45.780176 -1.516416 0.778675 0.077017 -0.044442 -235551.000000 0 0 1
1.638545 -31.057268 33.519230 45.725020 -1.518086 0.747985 0.071997 -0.033033 184650.000000 0 0 1
1.402845 -29.851868 32.895748 44.443585 -1.523837 0.737475 0.055999 -0.023901 -191513.000000 0 0 1
1.252645 -28.691468 33.943421 44.462628 -1.527165 0.702213 0.048940 -0.018266 302502.000000 0 0 1
-0.108555 -28.452668 -33.946591 44.293760 1.566981 2.444009 0.038078 -0.017711 273408.000000 0 0 1
-0.352855 -27.683368 -32.787411 42.912792 1.558051 2.440360 0.042402 -0.020795 1054230.000000 0 0 1
-1.914155 -27.639768 -32.542931 42.739480 1.501653 2.436306 0.059417 -0.020122 1020260.000000 0 0 1
-2.274855 -27.202068 -31.267351 41.506321 1.487362 2.423885 0.066821 -0.022523 -540093.000000 0 0 1
-3.503555 -26.550368 -31.262261 41.164620 1.439596 2.433256 0.083259 -0.031347 -511494.000000 0 0 1
-3.923355 -26.011968 -29.876821 39.807532 1.421096 2.419663 0.083840 -0.032828 -250057.000000 0 0 1
-4.369455 -26.994768 -28.943931 39.819101 1.410325 2.384572 0.080330 -0.022922 -73367.500000 0 0 1
-4.586255 -26.535368 -27.572521 38.540932 1.399652 2.368005 0.076912 -0.021098 81572.200000 0 0 1
-3.383155 -26.072268 -26.692621 37.466050 1.441757 2.363777 0.080014 -0.023984 248619.000000 0 0 1
-2.723155 -24.997868 -27.393001 37.184479 1.462289 2.398942 0.091572 -0.023966 -175684.000000 0 0 1
-1.522355 -24.649768 -26.778321 36.428109 1.509115 2.396611 0.088060 -0.028109 -1682000.000000 0 0 1
-0.634855 -23.551368 -27.360761 36.106526 1.543847 2.430699 0.077202 -0.021183 -19157.900000 0 0 1
0.107145 -23.866568 -28.516861 37.186502 -1.566307 2.444732 0.065678 -0.035020 -265320.000000 0 0 1
1.153145 -24.765568 -28.178521 37.532548 -1.524268 2.420032 0.074393 -0.030592 -1117120.000000 0 0 1
2.088545 -24.852768 -29.402641 38.555640 -1.486957 2.438124 0.045814 -0.029109 140440.000000 0 0 1
3.165445 -23.911068 -29.501991 38.106780 -1.439178 2.456235 0.038642 -0.033370 512725.000000 0 0 1
3.876945 -24.265168 -30.692031 39.317043 -1.412361 2.466468 0.048134 -0.028878 -883786.000000 0 0 1
4.962245 -23.258268 -31.031071 39.096013 -1.360594 2.487688 0.055454 -0.031974 -790737.000000 0 0 1
6.190345 -23.309668 -30.363591 38.776393 -1.311218 2.470340 0.050907 -0.031329 606210.000000 0 0 1
7.135845 -24.380568 -30.607931 39.776599 -1.286063 2.448848 0.046465 -0.019246 617257.000000 0 0 1
7.759545 -24.413268 -32.079401 41.052481 -1.263053 2.467741 0.041545 -0.014954 -234378.000000 0 0 1
6.883145 -25.153868 -32.927521 42.003766 -1.303693 2.471748 0.029322 -0.020030 255518.000000 0 0 1
7.056445 -24.935668 33.906098 42.675572 -1.295021 0.652599 0.037010 -0.016469 71234.000000 0 0 1
6.433445 -23.581568 33.448239 41.427820 -1.304461 0.631088 0.022611 -0.009046 -253479.000000 0 0 1
5.029945 -23.577068 33.534077 41.300276 -1.360607 0.623298 0.035073 -0.013693 -262084.000000 0 0 1
4.567745 -22.264568 33.141218 40.186013 -1.368447 0.601133 0.043000 -0.023018 -415828.000000 0 0 1
3.180745 -21.881068 33.647988 40.262704 -1.426442 0.581370 0.028606 -0.028893 83156.200000 0 0 1
2.083745 -22.706268 33.277233 40.339693 -1.479283 0.600726 0.032879 -0.024373 153221.000000 0 0 1
1.883545 -23.866368 34.066407 41.637379 -1.492039 0.612577 0.035031 -0.015875 -368176.000000 0 0 1
0.515045 -24.500368 33.746174 41.705366 -1.549778 0.628081 0.042361 -0.018692 175132.000000 0 0 1
0.464245 -25.249068 32.536693 41.186980 -1.552412 0.660028 0.036644 -0.019078 615.883000 0 0 1
-0.852155 -25.726968 32.302677 41.304551 1.537685 0.672830 0.036463 -0.023046 210862.000000 0 0 1
-1.015955 -26.790168 31.121922 41.076992 1.532892 0.711094 0.032648 -0.030203 -129269.000000 0 0 1
-2.379955 -27.038868 30.882222 41.115401 1.483003 0.721053 0.042706 -0.026821 7382.250000 0 0 1
-2.516155 -28.102568 29.952182 41.148737 1.481500 0.755541 0.051807 -0.037859 120270.000000 0 0 1
-3.834055 -28.026268 29.155482 40.622823 1.434838 0.770286 0.057352 -0.034325 102685.000000 0 0 1
-5.025755 -28.390868 29.805832 41.469111 1.395591 0.768797 0.055648 -0.032553 147204.000000 0 0 1
-6.059055 -28.745468 28.896922 41.207356 1.363054 0.793638 0.053984 -0.027254 1012250.000000 0 0 1
-7.359155 -29.215868 29.682922 42.294207 1.324041 0.792847 0.039598 -0.020951 719848.000000 0 0 1
-8.484855 -29.653368 28.910692 42.274615 1.292108 0.817731 0.052135 -0.018812 455150.000000 0 0 1
-9.629055 -29.871768 29.710212 43.217333 1.258966 0.812810 0.046430 -0.017232 -7007.750000 0 0 1
-9.604355 -31.089668 30.717782 44.748108 1.271172 0.814187 0.033557 -0.009893 -844078.000000 0 0 1
-9.549455 -32.385068 30.108762 45.238504 1.284051 0.842558 0.044344 -0.012433 37631.100000 0 0 1
-10.720355 -32.817968 29.440862 45.373003 1.255063 0.864707 0.033107 -0.008113 -63651.500000 0 0 1
-10.630455 33.954076 28.910992 45.844643 -1.267380 0.888432 0.047738 -0.005270 -530803.000000 0 0 1
-10.530455 32.969676 29.973542 45.785404 -1.261639 0.857073 0.042857 0.001441 177824.000000 0 0 1
-10.152855 31.723176 29.519902 44.506909 -1.261052 0.845622 0.049349 -0.005370 -221994.000000 0 0 1
-10.639855 30.674776 30.523022 44.562353 -1.236921 0.816260 0.035964 0.007756 1444140.000000 0 0 1
-12.093355 30.599676 30.530742 44.885584 -1.194424 0.822774 0.034282 0.015498 1444280.000000 0 0 1
-12.649555 29.497776 31.286912 44.821880 -1.165685 0.798157 0.033200 0.004239 245258.000000 0 0 1
-12.580755 29.558476 32.823405 45.927713 -1.168398 0.774636 0.042932 -0.009099 -538455.000000 0 0 1
-13.596355 30.372576 33.327275 47.096300 -1.149896 0.784642 0.045974 0.003018 -192500.000000 0 0 1
-13.781855 30.085976 -33.529811 47.110017 -1.141241 2.362760 0.049697 -0.000727 -275014.000000 0 0 1
-15.086655 30.529776 -32.864661 47.326107 -1.111830 2.338424 0.034220 0.005286 -231190.000000 0 0 1
-15.184255 29.899376 -31.627171 46.095686 -1.100892 2.326938 0.021819 0.002842 296349.000000 0 0 1
-16.395255 30.202576 -30.925161 46.231652 -1.073465 2.303548 0.031129 0.001361 472461.000000 0 0 1
-16.569155 29.428376 -29.608631 44.913665 -1.058002 2.290596 0.044597 -0.003517 -80984.600000 0 0 1
-16.923455 28.016676 -29.660651 44.171164 -1.027405 2.307019 0.037812 -0.005894 168672.000000 0 0 1
-16.757855 27.514176 -28.358441 42.919189 -1.023740 2.292601 0.031455 -0.003504 -192689.000000 0 0 1
-17.383055 26.110576 -28.169711 42.159998 -0.983430 2.302532 0.010412 -0.009632 568770.000000 0 0 1
-18.810855 26.135676 -28.296091 42.867128 -0.946945 2.291733 0.016167 -0.006341 334122.000000 0 0 1
-19.242855 24.829176 -28.042561 42.108915 -0.911480 2.299567 0.011698 -0.008058 -173126.000000 0 0 1
-20.756155 24.574376 -28.130581 42.732278 -0.869430 2.289352 0.042965 -0.004787 -96448.100000 0 0 1
-21.547055 25.059276 -27.057351 42.712331 -0.860615 2.256837 0.041609 -0.010028 883299.000000 0 0 1
-22.801555 24.352776 -27.012541 42.926053 -0.818283 2.251424 0.068085 -0.016129 515144.000000 0 0 1
-23.582355 24.425576 -25.723511 42.596189 -0.802961 2.219172 0.090996 -0.027435 -548672.000000 0 0 1
-24.082755 25.691476 -25.441881 43.443301 -0.817707 2.196459 0.058491 -0.010020 -36440.400000 0 0 1
-25.455785 25.777876 -25.093671 44.070265 -0.791685 2.176574 0.063110 -0.008047 439486.000000 0 0 1
-25.904815 25.336976 -23.693901 43.294605 -0.774317 2.149897 0.057927 -0.013935 -930845.000000 0 0 1
-25.821365 23.911576 -23.538101 42.338500 -0.747016 2.160302 0.037252 -0.016617 -741505.000000 0 0 1
-27.015665 23.301076 -23.185401 42.548198 -0.711708 2.147091 0.029570 -0.007098 -971920.000000 0 0 1
-27.610945 23.649376 -21.801801 42.390752 -0.708268 2.110994 0.021413 -0.008640 -479381.000000 0 0 1
-26.913995 23.214676 -20.631101 41.096553 -0.711735 2.096724 0.012390 -0.016126 812433.000000 0 0 1
-25.683365 23.906676 -20.363501 40.568912 -0.749586 2.096646 0.034836 -0.009212 536484.000000 0 0 1
-24.864955 23.364176 -19.165001 39.133720 -0.754291 2.082578 0.043054 -0.009169 445286.000000 0 0 1
-25.623695 23.494176 -17.957201 39.128138 -0.742070 2.047590 0.028718 -0.008927 966137.000000 0 0 1
-24.694755 23.248076 -16.904701 37.895553 -0.755232 2.033184 0.044822 -0.014763 378819.000000 0 0 1
-25.336205 23.562776 -15.558601 37.936761 -0.749147 1.993381 0.042877 -0.011498 -566071.000000 0 0 1
-25.521285 24.881276 -15.229801 38.760299 -0.772701 1.974604 0.052971 -0.018160 -173761.000000 0 0 1
-26.196655 24.969276 -13.999701 38.803623 -0.761415 1.939904 0.022455 -0.016232 -153250.000000 0 0 1
-26.083775 26.309576 -13.302201 39.363761 -0.789708 1.915513 0.021107 -0.015309 275770.000000 0 0 1
-24.764455 26.741476 -12.998101 38.695419 -0.823764 1.913365 0.053906 -0.017573 108397.000000 0 0 1
-24.752055 27.857476 -12.102101 39.181170 -0.844357 1.884807 0.052867 -0.015846 -354271.000000 0 0 1
-23.335055 28.302276 -11.754401 38.518951 -0.881297 1.880902 0.064514 -0.016589 -389160.000000 0 0 1
-22.560355 27.322976 -11.093401 37.129210 -0.880585 1.874209 0.068350 -0.018906 -167374.000000 0 0 1
-21.335555 27.863876 -10.689201 36.685972 -0.917319 1.866455 0.065914 -0.017400 25281.800000 0 0 1
-20.357755 26.866976 -9.964101 35.150476 -0.922370 1.858207 0.075570 -0.016548 341304.000000 0 0 1
-19.849555 25.922176 -10.873701 34.412228 -0.917300 1.892290 0.068525 -0.013210 49601.800000 0 0 1
-19.171355 24.832376 -10.294401 33.017609 -0.913344 1.887868 0.068004 -0.008536 -527782.000000 0 0 1
-18.558855 23.879076 -11.247401 32.266785 -0.910112 1.926847 0.065454 -0.012375 -346881.000000 0 0 1
-18.110855 22.632176 -10.699501 30.898185 -0.895918 1.924402 0.038314 -0.008694 277259.000000 0 0 1
-17.578555 21.727076 -11.634101 30.272492 -0.890554 1.965259 0.070476 -0.008294 182284.000000 0 0 1
-17.276955 20.274076 -11.110301 28.861222 -0.865044 1.965956 0.057691 -0.004625 41575.700000 0 0 1
-18.473955 19.596076 -10.815601 29.021896 -0.814865 1.952681 0.036790 0.002953 41383.100000 0 0 1
-18.073555 18.385776 -10.357401 27.784275 -0.793961 1.952799 0.066178 -0.012655 84766.500000 0 0 1
-19.251755 17.357276 -10.315401 27.898255 -0.733695 1.949537 0.056825 -0.004547 639308.000000 0 0 1
-19.909255 16.941476 -11.528201 28.570815 -0.705036 1.986130 0.043987 -0.000931 465860.000000 0 0 1
-20.553555 17.909776 -12.328001 29.919698 -0.716771 1.995484 0.040353 0.006354 -653900.000000 0 0 1
-21.209355 17.313776 -13.612101 30.576018 -0.684618 2.032181 0.050304 0.002108 -75862.400000 0 0 1
-20.317755 16.934476 -14.636701 30.229467 -0.694826 2.076230 0.070713 -0.001716 79178.200000 0 0 1
-20.996755 16.492976 -15.803001 31.026067 -0.665837 2.105221 0.079185 -0.004068 335596.000000 0 0 1
-19.977055 16.104376 -16.912401 30.732117 -0.678476 2.153540 0.099690 -0.020401 146070.000000 0 0 1
-19.606755 17.208076 -17.717101 31.534718 -0.720335 2.167391 0.075059 -0.016689 1197130.000000 0 0 1
-18.526355 16.923676 -18.660801 31.270788 -0.740219 2.210239 0.079482 -0.014930 513999.000000 0 0 1
-17.718755 18.113676 -19.187701 31.784075 -0.796419 2.218917 0.059572 -0.012132 -246599.000000 0 0 1
-16.668955 18.373676 -18.258501 30.802904 -0.834007 2.205269 0.068785 -0.012473 171978.000000 0 0 1
-16.161255 19.646976 -18.442401 31.421522 -0.882437 2.198065 0.072273 -0.012228 -203236.000000 0 0 1
34.026495 30.113176 2.568799 45.510488 0.724461 1.514322 0.067505 -0.011898 714004.000000 0 0 1
35.151015 30.122676 1.655499 46.321811 0.708515 1.535050 0.088740 -0.016793 761235.000000 0 0 1
34.924255 30.900676 0.523599 46.635068 0.724349 1.559569 0.082990 -0.012832 477748.000000 0 0 1
36.182055 30.876276 -0.424801 47.567489 0.706441 1.579727 0.063914 -0.010293 1347830.000000 0 0 1
-35.938136 31.424376 0.231199 47.739863 -0.718491 1.565953 0.039383 0.001255 584082.000000 0 0 1
-34.788916 31.381376 -0.591301 46.855193 -0.733947 1.583416 0.051813 -0.001038 14046.500000 0 0 1
-33.787825 32.515076 -0.311301 46.892902 -0.766205 1.577435 0.031543 0.001859 -221023.000000 0 0 1
-33.124995 32.295576 0.909999 46.271997 -0.772721 1.551129 0.038985 0.007213 3550.150000 0 0 1
-32.797935 33.486876 1.570199 46.899264 -0.795791 1.537310 0.015568 0.005231 -49459.400000 0 0 1
-32.079395 33.338976 2.935499 46.359380 -0.804650 1.507433 0.036492 0.000457 -191877.000000 0 0 1
-31.805285 -33.658568 3.446599 46.436563 0.813701 1.496506 0.040424 0.000299 67252.000000 0 0 1
-31.300295 -33.842368 4.745799 46.341525 0.824402 1.468207 0.056832 -0.009374 -498765.000000 0 0 1
-31.199315 -32.508068 5.585099 45.402259 0.805938 1.447470 0.065979 -0.007181 -489337.000000 0 0 1
-32.344345 -31.852668 6.026799 45.793792 0.777739 1.438806 0.063034 -0.003640 -361621.000000 0 0 1
-32.944915 -32.486068 7.144299 46.816162 0.778386 1.417594 0.046353 -0.015514 -1310230.000000 0 0 1
-34.066095 -31.808868 7.963399 47.283387 0.751146 1.401571 0.055180 -0.011493 1182610.000000 0 0 1
-35.313317 -31.535768 7.293999 47.903418 0.728950 1.417937 0.032375 -0.009451 615521.000000 0 0 1
-35.963915 -32.674268 6.781199 49.061142 0.737507 1.432133 0.025174 -0.009392 -734640.000000 0 0 1
35.761395 -32.483168 6.744499 48.780343 -0.737399 1.432089 0.021460 -0.000437 627159.000000 0 0 1
35.173625 -32.444068 8.017699 48.518913 -0.745053 1.404786 0.012665 0.000897 -161640.000000 0 0 1
33.796555 -32.165768 8.021099 47.341121 -0.760680 1.400543 -0.002088 0.010388 -165305.000000 0 0 1
33.138185 -32.092268 9.381299 47.075065 -0.769365 1.370169 -0.006847 -0.000061 129373.000000 0 0 1
31.736615 -32.363968 9.387899 46.290083 -0.795185 1.366574 -0.003974 -0.000229 646613.000000 0 0 1
30.971175 -32.293468 10.546599 45.970779 -0.806296 1.339315 0.002346 0.000432 -41538.100000 0 0 1
30.955415 -31.031768 11.359999 45.279774 -0.786630 1.317202 0.000133 -0.002304 -660133.000000 0 0 1
30.268945 -29.866568 10.929899 43.905394 -0.778707 1.319209 0.010805 -0.010228 -63876.000000 0 0 1
30.843725 -29.201268 9.823199 43.595237 -0.758051 1.343517 0.014894 -0.009248 -680709.000000 0 0 1
30.226395 -27.917368 9.345799 42.194293 -0.745707 1.347450 0.018519 -0.015379 -465964.000000 0 0 1
30.664585 -27.483368 8.073299 41.962250 -0.730744 1.377195 0.024244 -0.019096 32038.300000 0 0 1
29.923955 -26.324768 7.706799 40.593488 -0.721498 1.379784 0.019462 -0.015577 15076.000000 0 0 1
30.075025 -25.870168 6.249499 40.160042 -0.710379 1.414546 0.013921 -0.005594 -2260.860000 0 0 1
31.368015 -25.440368 5.903099 40.816801 -0.681430 1.425663 0.026492 -0.006372 -542880.000000 0 0 1
31.483475 -25.142668 4.530799 40.544927 -0.673886 1.458815 0.029020 -0.003293 -581053.000000 0 0 1
32.830025 -24.604068 4.072199 41.228067 -0.643141 1.471863 0.043776 -0.007752 -524683.000000 0 0 1
33.746795 -25.661068 3.940299 42.577723 -0.650124 1.478120 0.039093 -0.008045 -1052940.000000 0 0 1
34.957305 -25.179468 3.452999 43.219694 -0.624215 1.490817 0.056697 -0.014718 -445727.000000 0 0 1
36.097125 -26.212968 3.582299 44.754385 -0.628080 1.490667 0.061858 -0.019274 -276943.000000 0 0 1
36.169385 -26.799768 4.909499 45.283056 -0.637685 1.462165 0.037276 -0.011339 42098.300000 0 0 1
-36.494705 -28.084968 4.763299 46.295982 0.655904 1.467726 0.039682 -0.013402 -951081.000000 0 0 1
36.001965 -29.188468 5.503999 46.673356 -0.681259 1.452595 0.026045 -0.008231 620205.000000 0 0 1
34.715125 -29.523668 4.999399 45.845184 -0.704758 1.461529 0.011189 -0.004790 49850.500000 0 0 1
33.655455 -28.639668 5.246799 44.502237 -0.705055 1.452622 0.007367 -0.008195 -1156000.000000 0 0 1
32.504415 -29.325168 6.042899 44.192976 -0.734024 1.433628 0.017785 -0.005037 705061.000000 0 0 1
31.557825 -30.169368 5.358299 43.986344 -0.762909 1.448676 -0.003610 -0.005790 369889.000000 0 0 1
30.816565 -29.579768 4.322799 42.933785 -0.764923 1.469940 0.018753 -0.004243 -413885.000000 0 0 1
29.460955 -30.325468 4.125099 42.480564 -0.799857 1.473538 0.023492 -0.005171 502480.000000 0 0 1
29.564315 -31.515368 3.354199 43.341871 -0.817330 1.493330 0.030087 0.002000 514958.000000 0 0 1
28.196315 -31.925568 3.220799 42.715894 -0.847347 1.495324 0.051631 -0.005623 637002.000000 0 0 1
27.970115 -33.366268 2.709099 43.623095 -0.873149 1.508654 0.052107 -0.011088 -301455.000000 0 0 1
28.518305 -33.586468 1.425899 44.083758 -0.866824 1.538445 0.057962 -0.018985 315114.000000 0 0 1
28.311205 33.345576 1.032699 43.755208 0.866869 1.547192 0.062830 -0.019213 -153423.000000 0 0 1
28.062615 33.255376 -0.470001 43.516104 0.869882 1.581597 0.066214 -0.029684 42442.300000 0 0 1
29.203655 33.585976 -1.235901 44.524136 0.855079 1.598558 0.056991 -0.025879 527900.000000 0 0 1
28.796525 33.564476 -2.615301 44.301848 0.861707 1.629864 0.074110 -0.029962 189365.000000 0 0 1
29.810975 -34.008668 -3.569901 45.365493 -0.851078 1.649570 0.054194 -0.018280 -18186.200000 0 0 1
29.929305 -32.647168 -3.348801 44.416386 -0.828804 1.646264 0.038006 -0.030656 233991.000000 0 0 1
30.704125 -32.029868 -4.375101 44.584720 -0.806528 1.669085 0.045999 -0.033199 142263.000000 0 0 1
30.905485 -30.505468 -4.408601 43.648234 -0.778884 1.671972 0.033074 -0.015663 278096.000000 0 0 1
29.639925 -29.901568 -4.676101 42.361478 -0.789792 1.681407 0.020858 -0.026085 430721.000000 0 0 1
29.583345 -28.458968 -4.615401 41.308463 -0.766029 1.682760 0.014596 -0.021014 -64196.100000 0 0 1
30.552315 -27.605168 -5.499601 41.541965 -0.734766 1.703573 0.050055 -0.023606 -171242.000000 0 0 1
31.873225 -27.636568 -5.011701 42.482932 -0.714325 1.689041 0.064461 -0.031787 -608611.000000 0 0 1
32.891805 -27.365068 -5.920701 43.194588 -0.693934 1.708300 0.071419 -0.036416 51095.000000 0 0 1
33.265495 -28.269968 -7.095801 44.228211 -0.704395 1.731929 0.083911 -0.002910 -626477.000000 0 0 1
32.134095 -28.342668 -7.934701 43.575984 -0.722788 1.753907 0.077581 -0.007000 -199212.000000 0 0 1
32.228925 -29.138268 -9.101801 44.391272 -0.735077 1.777297 0.060897 -0.008018 57800.300000 0 0 1
32.315295 -30.648068 -8.796801 45.397864 -0.758925 1.765801 0.054601 -0.004708 107815.000000 0 0 1
33.607985 -31.033268 -8.385201 46.506687 -0.745588 1.752089 0.067971 -0.012450 -446278.000000 0 0 1
33.552515 -32.348068 -8.034601 47.294012 -0.767123 1.741511 0.068302 -0.025250 -39458.600000 0 0 1
34.878345 -32.915068 -7.534501 48.545539 -0.756447 1.726631 0.066022 -0.021120 -173703.000000 0 0 1
34.731805 34.053976 -6.898401 49.127991 0.775544 1.711679 0.061141 -0.020179 89352.900000 0 0 1
34.159345 -34.054768 -5.571701 48.555452 -0.783865 1.685799 0.061292 -0.025640 68178.900000 0 0 1
34.008345 32.859676 -4.860601 47.538945 0.768222 1.673220 0.048027 -0.017528 57585.500000 0 0 1
32.944925 32.063976 -5.362101 46.284109 0.771848 1.686909 0.076557 -0.029868 145470.000000 0 0 1
32.827635 30.788176 -4.714801 45.252566 0.753350 1.675174 0.080940 -0.022617 428025.000000 0 0 1
31.646325 29.949276 -5.304501 43.892901 0.757854 1.691943 0.094217 -0.033607 180138.000000 0 0 1
31.797625 29.404376 -6.600801 43.809552 0.746314 1.722043 0.076847 -0.020267 -983921.000000 0 0 1
30.615605 28.975776 -7.178501 42.760283 0.757887 1.739473 0.067323 -0.018343 -630108.000000 0 0 1
30.697935 28.745076 -8.723201 42.950400 0.752557 1.775319 0.059846 -0.009785 -222873.000000 0 0 1
31.358615 27.514676 -9.031801 42.684817 0.720199 1.784001 0.050468 -0.003574 191020.000000 0 0 1
31.768325 27.317676 -10.421601 43.175128 0.710215 1.814584 0.042115 0.001705 494528.000000 0 0 1
32.943405 28.228976 -10.884401 44.728215 0.708482 1.816610 0.042022 -0.005065 -1535120.000000 0 0 1
34.167265 27.874576 -10.393701 45.303676 0.684317 1.802281 0.041939 -0.008993 -843333.000000 0 0 1
35.262375 28.582376 -10.945901 46.692613 0.681149 1.807423 0.038412 -0.005564 187105.000000 0 0 1
35.539915 30.010276 -10.396001 47.663184 0.701240 1.790678 0.034152 -0.013491 -774384.000000 0 0 1
36.137395 29.988676 -9.137801 47.840688 0.692680 1.762982 0.051902 -0.011524 -67803.300000 0 0 1
35.994325 31.241676 -8.513701 48.416081 0.714829 1.747560 0.044726 -0.015594 -597130.000000 0 0 1
-36.407325 31.318276 -7.217601 48.563582 -0.710397 1.719971 0.038082 -0.007397 1277560.000000 0 0 1
-35.008358 31.551576 -7.451201 47.713808 -0.733510 1.727603 0.036202 -0.007733 697735.000000 0 0 1
-34.254483 30.472676 -7.933601 46.528439 -0.727038 1.742144 0.043165 -0.003278 -159506.000000 0 0 1
-32.793745 30.824576 -8.373401 45.778795 -0.754455 1.754742 0.055081 -0.000154 415291.000000 0 0 1
-32.097815 31.521276 -7.375901 45.587987 -0.776336 1.733306 0.051770 -0.007843 -277383.000000 0 0 1
-30.751095 31.803376 -7.660601 44.897321 -0.802218 1.742260 0.049355 -0.009462 -253846.000000 0 0 1
-30.405035 33.001276 -8.674401 45.703344 -0.826321 1.761753 0.035264 -0.009448 -607697.000000 0 0 1
-30.471015 -33.901668 -8.115101 46.299684 0.838641 1.746980 0.036609 -0.010830 441844.000000 0 0 1
-29.695645 -33.620768 -6.896101 45.384398 0.847311 1.723336 0.051257 -0.031090 219821.000000 0 0 1
-29.956165 -32.333868 -6.135001 44.502686 0.823551 1.709094 0.043973 -0.021697 4366.030000 0 0 1
-31.061605 -32.350368 -5.263301 45.156084 0.805719 1.687620 0.038786 -0.026692 85087.600000 0 0 1
-30.679715 -32.866368 -3.989301 45.137098 0.819795 1.659294 0.050755 -0.030880 -114716.000000 0 0 1
-31.894265 -33.047568 -3.075901 46.030936 0.803155 1.637669 0.047077 -0.028101 -416859.000000 0 0 1
-32.575905 -31.846468 -2.829301 45.644190 0.774076 1.632822 0.024414 -0.016394 267475.000000 0 0 1
-33.489625 -31.955668 -1.736701 46.322088 0.761964 1.608297 0.043790 -0.011379 243017.000000 0 0 1
-34.146165 -30.573268 -1.419101 45.855198 0.730248 1.601749 0.068645 -0.010669 84233.800000 0 0 1
-35.148748 -30.555268 -0.426601 46.575110 0.715600 1.579956 0.065271 -0.007808 -364479.000000 0 0 1
-35.902690 -29.400868 -0.622501 46.409069 0.686162 1.584210 0.086717 -0.008650 -865578.000000 0 0 1
36.326725 -29.274368 0.466599 46.656589 -0.678306 1.560795 0.077524 -0.006210 -1145600.000000 0 0 1
35.238625 -30.176268 0.397399 46.395320 -0.708164 1.562231 0.035795 -0.005820 433220.000000 0 0 1
34.253945 -29.986968 1.413899 45.547229 -0.719074 1.539749 0.035303 -0.003363 573566.000000 0 0 1
33.373125 -28.682668 1.238799 44.022671 -0.709957 1.542653 0.024455 -0.000320 -650952.000000 0 0 1
32.410065 -28.757968 0.192899 43.329785 -0.725763 1.566344 0.022825 -0.003954 149663.000000 0 0 1
31.801925 -27.451368 0.063899 42.011238 -0.712107 1.569275 0.024161 -0.004853 -147241.000000 0 0 1
30.393715 -27.608468 -0.551101 41.064694 -0.737415 1.584217 0.013899 -0.001014 739337.000000 0 0 1
29.305325 -28.215668 0.184799 40.681201 -0.766457 1.566254 0.011622 0.007999 1110940.000000 0 0 1
29.385325 -29.644468 0.156999 41.741064 -0.789788 1.567035 0.013600 0.000405 -710799.000000 0 0 1
28.965365 -30.369168 -1.102401 41.982068 -0.809053 1.597058 0.024849 -0.002956 -352672.000000 0 0 1
27.594115 -30.099168 -1.303701 40.854556 -0.828791 1.602713 0.027936 -0.000033 -69741.600000 0 0 1
27.180015 -30.570668 -2.549301 40.985581 -0.844043 1.633036 0.023486 -0.010893 76547.100000 0 0 1
25.672915 -30.725268 -2.860801 40.141311 -0.874743 1.642125 0.019772 -0.010176 525967.000000 0 0 1
24.950115 -29.518468 -3.206701 38.783129 -0.869074 1.653574 0.028691 0.005103 499777.000000 0 0 1
23.592015 -29.866968 -3.454601 38.217185 -0.902242 1.661314 0.033919 0.000194 598520.000000 0 0 1
22.614715 -28.644068 -3.468701 36.659785 -0.902486 1.665557 0.029582 0.001827 146962.000000 0 0 1
22.662915 -27.818868 -4.639501 36.180410 -0.887180 1.699383 0.034012 -0.001831 254719.000000 0 0 1
21.896915 -26.612668 -4.563301 34.763957 -0.882306 1.702442 0.038159 -0.004783 -13382.800000 0 0 1
21.632915 -26.021468 -5.957801 34.359790 -0.877230 1.745072 0.055998 -0.026271 -291827.000000 0 0 1
20.401415 -26.489268 -6.441301 34.049808 -0.914507 1.761116 0.051714 -0.025392 -362247.000000 0 0 1
19.862215 -25.739768 -7.543301 33.375809 -0.913580 1.798777 0.079194 -0.030129 871841.000000 0 0 1
18.302815 -25.933568 -7.616601 32.642849 -0.956217 1.806299 0.070170 -0.028708 544454.000000 0 0 1
17.661615 -25.225368 -6.619201 31.497074 -0.959968 1.782528 0.059227 -0.018772 214979.000000 0 0 1
16.255015 -25.455168 -6.790701 30.956497 -1.002495 1.791958 0.057443 -0.020151 923713.000000 0 0 1
15.387315 -24.612268 -5.771201 29.594593 -1.012061 1.767063 0.035348 -0.001467 45203.400000 0 0 1
15.478115 -25.051268 -4.417401 29.776694 -1.017350 1.719697 0.027768 0.003602 -53756.800000 0 0 1
14.745615 -24.281268 -3.552301 28.629215 -1.025038 1.695197 0.025407 0.005749 -292987.000000 0 0 1
15.014015 -24.857468 -2.126301 29.117615 -1.027438 1.643886 0.042116 0.003171 -44453.300000 0 0 1
14.428415 -26.091068 -2.031401 29.883935 -1.065651 1.638825 0.048988 0.000288 129391.000000 0 0 1
15.097915 -26.863468 -1.071601 30.834093 -1.058768 1.605557 0.051638 -0.000938 -390977.000000 0 0 1
14.721515 -28.369968 -1.125001 31.981928 -1.092134 1.605980 0.049784 -0.002529 530622.000000 0 0 1
13.403515 -28.560068 -0.594401 31.554477 -1.132001 1.589635 0.065255 -0.011510 812774.000000 0 0 1
12.718515 -29.763968 -1.000601 32.382952 -1.166969 1.601700 0.065348 -0.014960 344960.000000 0 0 1
13.388315 -31.087268 -0.524701 33.851743 -1.164134 1.586297 0.053347 -0.013158 -598694.000000 0 0 1
14.507215 -31.474268 -1.247701 34.679181 -1.138896 1.606782 0.037446 -0.005666 -704984.000000 0 0 1
14.927315 -32.822568 -0.981701 36.070894 -1.143968 1.598016 0.036915 -0.010045 -289087.000000 0 0 1
16.258615 -32.999468 -1.755201 36.829176 -1.113011 1.618472 0.021469 -0.004636 373480.000000 0 0 1
17.257315 -32.140768 -1.189401 36.500117 -1.078044 1.603388 0.020356 0.012010 249551.000000 0 0 1
18.326015 -31.855068 -2.061801 36.808140 -1.048741 1.626840 0.011522 0.011898 319079.000000 0 0 1
19.362915 -30.822368 -1.528701 36.431823 -1.009892 1.612769 0.012654 0.012341 220912.000000 0 0 1
18.707215 -29.602268 -1.422101 35.046776 -1.007213 1.611385 0.020517 0.007162 436208.000000 0 0 1
19.459615 -28.684568 -0.624701 34.668015 -0.974714 1.588817 0.014836 0.012169 130407.000000 0 0 1
18.882615 -27.218268 -0.643101 33.133078 -0.964279 1.590207 0.017380 0.015077 -183791.000000 0 0 1
19.211915 -26.459668 -1.799401 32.748275 -0.942779 1.625770 0.019051 0.006681 82190.600000 0 0 1
18.464715 -26.792368 -2.929101 32.670419 -0.967370 1.660573 0.032744 0.005975 -394324.000000 0 0 1
32.508035 -28.952368 14.304299 45.821664 -0.727610 1.253317 -0.014703 -0.000479 969171.000000 0 0 1
33.459755 -29.361768 15.325999 47.080302 -0.720258 1.239225 -0.003534 0.007969 643394.000000 0 0 1
32.683775 -30.010268 16.276799 47.262877 -0.742780 1.219209 -0.004262 0.017971 -264515.000000 0 0 1
33.457715 -30.398468 17.537399 48.487585 -0.737526 1.200718 0.000612 0.015819 -213370.000000 0 0 1
32.694015 -31.005368 18.558199 48.730260 -0.758895 1.180097 0.011506 0.001741 573050.000000 0 0 1
33.537705 -31.340668 19.692599 49.948109 -0.751547 1.165533 0.010724 -0.004743 585349.000000 0 0 1
34.297835 -32.692368 19.740599 51.330533 -0.761437 1.176046 -0.001454 0.001464 -123070.000000 0 0 1
35.365395 -32.741968 18.835299 51.744721 -0.746898 1.198233 -0.005476 0.017380 -441904.000000 0 0 1
36.035345 -33.958968 18.940699 53.014221 -0.755742 1.205447 0.016084 0.009605 -867131.000000 0 0 1
-36.245265 34.080876 17.844299 52.854937 -0.754631 1.226421 0.020531 0.012416 -86237.700000 0 0 1
-35.257318 -33.114368 17.921099 51.582998 0.754066 1.215975 0.044896 0.009694 435093.000000 0 0 1
-34.314951 -33.202268 16.875099 50.642625 0.768920 1.231080 0.052018 0.015138 84643.300000 0 0 1
-33.107435 -32.266168 17.063099 49.278364 0.772530 1.217215 0.041682 0.006425 136755.000000 0 0 1
-32.011785 -32.304468 16.178399 48.270836 0.789949 1.229022 0.060955 -0.003869 -124800.000000 0 0 1
-32.023845 -31.207768 15.290199 47.257186 0.772493 1.241314 0.063563 -0.000226 -45568.600000 0 0 1
-30.759495 -31.081568 14.401299 46.039199 0.790606 1.252651 0.057824 -0.009157 19057.400000 0 0 1
-29.600595 -30.726868 15.109699 45.261890 0.804065 1.230434 0.049125 -0.011212 -371952.000000 0 0 1
-28.529545 -30.639268 14.169899 44.198255 0.821039 1.244435 0.046349 -0.006094 49759.900000 0 0 1
-27.263155 -30.128468 14.863699 43.265850 0.835282 1.220109 0.057419 -0.013413 622364.000000 0 0 1
-26.053975 -30.440068 14.172799 42.500301 0.862881 1.230809 0.061402 -0.009091 739860.000000 0 0 1
-24.853955 -29.886968 14.708299 41.560606 0.877083 1.209059 0.063690 -0.011396 1356770.000000 0 0 1
-23.586755 -29.880568 13.768899 40.481674 0.902572 1.223745 0.082431 -0.007041 970361.000000 0 0 1
-23.057755 -31.133768 13.436799 41.006331 0.933337 1.236953 0.088417 -0.008092 720249.000000 0 0 1
-21.818655 -31.147768 12.702499 40.094771 0.959743 1.248430 0.099926 -0.017001 1045770.000000 0 0 1
-21.453255 -32.582468 12.141999 40.856915 0.988518 1.269055 0.095484 -0.014572 404086.000000 0 0 1
-22.261755 -33.019968 11.032799 41.323440 0.977603 1.300532 0.070888 -0.010763 294320.000000 0 0 1
-22.170855 33.856976 10.906399 41.914093 -0.991027 1.307558 0.079324 -0.010764 -101113.000000 0 0 1
-23.193055 33.313876 9.926199 41.788295 -0.962627 1.330968 0.062305 0.000912 -222264.000000 0 0 1
-22.824055 33.594576 8.558399 41.506376 -0.974032 1.363112 0.061918 -0.008933 -91217.500000 0 0 1
-23.878955 33.484176 7.642399 41.830621 -0.951305 1.387066 0.054556 -0.005962 -754391.000000 0 0 1
-23.438755 33.850476 6.198399 41.637125 -0.965176 1.421374 0.048289 -0.010410 -156848.000000 0 0 1
-22.655855 32.877576 5.483099 40.302446 -0.967425 1.434324 0.044730 -0.016130 514226.000000 0 0 1
-21.285855 32.677876 5.791999 39.426875 -0.993449 1.423358 0.043903 -0.019858 263618.000000 0 0 1
-20.295255 33.830276 5.455799 39.826508 -1.030440 1.433375 0.061485 -0.022809 -562387.000000 0 0 1
-20.366555 -33.247668 6.282699 39.492737 1.021185 1.411033 0.073964 -0.017575 -102855.000000 0 0 1
-19.941355 -33.449768 7.615699 39.680518 1.033206 1.377673 0.074136 -0.018273 -302739.000000 0 0 1
-19.894155 -32.153968 8.469299 38.747698 1.016729 1.350442 0.081043 -0.020844 252512.000000 0 0 1
-18.778555 -31.315968 8.100199 37.402369 1.030636 1.352497 0.084944 -0.030021 392045.000000 0 0 1
-18.733655 -30.042068 8.694399 36.456388 1.013218 1.329988 0.086078 -0.025716 150914.000000 0 0 1
-18.143455 -29.974268 10.117999 36.469379 1.026488 1.289670 0.092377 -0.020645 405981.000000 0 0 1
-16.787255 -30.383068 10.211999 36.183251 1.066020 1.284679 0.087207 -0.029762 -77669.100000 0 0 1
-16.298355 -30.211068 11.528399 36.211172 1.076063 1.246791 0.103472 -0.027571 -549499.000000 0 0 1
-14.938355 -30.870368 11.635999 36.215060 1.120107 1.243691 0.095254 -0.027583 -702346.000000 0 0 1
-14.009655 -30.383668 10.700299 35.127398 1.138757 1.261263 0.085331 -0.025346 -304732.000000 0 0 1
-12.887355 -31.248668 10.604999 35.426391 1.179635 1.266782 0.078942 -0.017840 -213830.000000 0 0 1
-11.771855 -30.671968 9.746899 34.268765 1.204334 1.282390 0.072192 -0.011240 -205098.000000 0 0 1
-10.914755 -29.803768 10.494599 33.429524 1.219745 1.251465 0.070623 -0.011413 -154283.000000 0 0 1
-9.944555 -29.118868 9.723199 32.269850 1.241700 1.264731 0.076794 -0.013092 469771.000000 0 0 1
-9.043355 -28.322768 10.735599 31.610355 1.261732 1.224280 0.077497 -0.004161 90045.000000 0 0 1
-9.698955 -27.324768 11.458999 31.177257 1.229718 1.194430 0.076368 -0.017829 -617100.000000 0 0 1
-9.097355 -27.037868 12.692499 31.223512 1.246228 1.152171 0.073994 -0.017846 39308.900000 0 0 1
-9.575755 -25.695768 13.338599 30.494029 1.214080 1.118072 0.078192 -0.031402 392794.000000 0 0 1
-8.998255 -24.448168 12.840099 29.043926 1.218129 1.112866 0.069710 -0.029211 95133.100000 0 0 1
-9.561155 -24.008568 11.603699 28.327952 1.191809 1.148759 0.067932 -0.023767 237302.000000 0 0 1
-8.896155 -22.710068 11.028799 26.767950 1.197442 1.146132 0.064432 -0.029491 -654395.000000 0 0 1
-7.650055 -22.923568 10.466099 26.335386 1.248698 1.162097 0.047768 -0.030854 -880448.000000 0 0 1
-7.101655 -21.703268 9.992999 24.926399 1.254561 1.158297 0.050973 -0.018241 -705891.000000 0 1 0
-5.929255 -21.896068 9.087599 24.437232 1.306348 1.189768 0.037417 -0.016014 -68828.800000 0 1 0
-4.825355 -22.535568 9.748799 25.023488 1.359860 1.170614 0.020935 -0.025843 108615.000000 0 0 1
-3.671955 -22.562368 8.937899 24.544444 1.409464 1.198075 0.022784 -0.015748 88619.500000 0 1 0
-2.540455 -23.429168 9.511699 25.413623 1.462787 1.187181 0.037723 -0.018328 -184325.000000 0 0 1
-1.910155 -22.815368 10.600999 25.230356 1.487269 1.137165 0.036353 -0.015201 -505256.000000 0 0 1
-0.876955 -23.697468 11.014099 26.146690 1.533807 1.135981 0.047644 -0.026179 -36791.000000 0 0 1
0.057545 -23.100868 12.063399 26.061063 -1.568305 1.089544 0.051267 -0.018113 -462972.000000 0 0 1
-0.584155 -22.905568 13.298199 26.492421 1.545299 1.044930 0.048941 -0.024222 138787.000000 0 0 1
0.331345 -22.475168 14.359099 26.672583 -1.556055 1.002322 0.067611 -0.026961 204338.000000 0 0 1
0.942945 -21.140768 14.231799 25.502261 -1.526223 0.978750 0.049655 -0.026724 -697502.000000 0 0 1
2.010245 -21.082168 13.335199 25.026514 -1.475731 1.008840 0.061260 -0.024698 -555663.000000 0 0 1
2.498345 -19.738368 13.322299 23.944280 -1.444893 0.980764 0.050564 -0.016131 1068540.000000 0 1 0
4.015745 -19.660468 12.880999 23.844923 -1.369313 1.000123 0.062699 -0.009849 1129210.000000 0 1 0
4.295745 -19.986368 11.544999 23.477549 -1.359084 1.056702 0.063251 -0.007865 -1232150.000000 0 1 0
5.627645 -20.293668 11.329999 23.913850 -1.300283 1.077214 0.090844 -0.007649 -509891.000000 0 1 0
5.901445 -20.939968 9.911999 23.907259 -1.296094 1.143291 0.096285 -0.021412 -230459.000000 0 1 0
5.917945 -20.114168 8.744099 22.716978 -1.284653 1.175681 0.088193 -0.023841 -375942.000000 0 1 0
6.114045 -20.919468 7.561899 23.069200 -1.286450 1.236831 0.085114 -0.031351 -80650.300000 0 1 0
7.545145 -21.498168 7.384999 23.950754 -1.233260 1.257348 0.081390 -0.016972 -112014.000000 0 1 0
8.513745 -20.688568 6.740499 23.365252 -1.180399 1.278153 0.078239 -0.028281 41159.600000 0 1 0
9.037845 -19.546868 7.380799 22.764860 -1.137705 1.240610 0.076713 -0.024665 58811.500000 0 1 0
9.977245 -19.834168 8.600299 23.809762 -1.104725 1.201232 0.058983 -0.015424 -88759.300000 0 1 0
9.319245 -19.952268 9.813699 24.109127 -1.133832 1.151571 0.083190 -0.017378 -650111.000000 0 1 0
10.207645 -19.736468 10.877299 24.739438 -1.093486 1.115560 0.071814 -0.006696 295997.000000 0 1 0
9.457545 -19.872068 12.222399 25.174020 -1.126596 1.063843 0.076751 -0.008561 233050.000000 0 0 1
9.206145 -21.148068 12.622799 26.293135 -1.160218 1.070051 0.063824 -0.014217 63530.000000 0 0 1
8.395345 -21.184968 13.802899 26.642160 -1.193494 1.026186 0.074615 -0.022943 316536.000000 0 0 1
8.583745 -22.472268 14.585899 28.132400 -1.205929 1.025732 0.064406 -0.006356 143277.000000 0 0 1
8.195145 -23.640068 13.830799 28.588533 -1.237097 1.065818 0.072410 -0.010189 -169168.000000 0 0 1
8.357045 -24.864168 14.603399 30.022097 -1.246551 1.062807 0.076366 -0.012697 276548.000000 0 0 1
8.233945 -26.225868 13.961999 30.830689 -1.266579 1.100825 0.082480 -0.021684 515121.000000 0 0 1
9.443045 -26.506568 13.258699 31.105664 -1.228562 1.130456 0.062598 -0.012305 264033.000000 0 0 1
9.297145 -27.500868 12.260299 31.512689 -1.244791 1.171186 0.060714 -0.020401 -355988.000000 0 0 1
10.624345 -28.029768 11.710099 32.181843 -1.208490 1.198374 0.033757 -0.014686 -186790.000000 0 0 1
11.431445 -28.674068 12.680499 33.371772 -1.191438 1.181025 0.023288 -0.017224 -390831.000000 0 0 1
12.403045 -29.452468 12.077899 34.163709 -1.172216 1.209454 0.035344 -0.012433 -556498.000000 0 0 1
13.265845 -30.270868 13.039699 35.529450 -1.157767 1.195003 0.029029 -0.025703 -451932.000000 0 0 1
14.103645 -29.543368 13.934599 35.579438 -1.125402 1.168375 0.032930 -0.019618 -116330.000000 0 0 1
15.035245 -30.353068 14.598099 36.884574 -1.110880 1.163882 0.048950 -0.025238 148855.000000 0 0 1
16.407045 -30.153868 13.907299 37.038626 -1.072486 1.185881 0.059057 -0.018351 -257013.000000 0 0 1
17.122545 -28.902368 14.110899 36.436875 -1.035964 1.173128 0.049999 -0.022933 1579560.000000 0 0 1
18.463745 -29.055468 13.571899 37.004412 -1.004707 1.195268 0.061651 -0.021040 742444.000000 0 0 1
19.269245 -27.783868 13.538699 36.421744 -0.964419 1.189935 0.047103 -0.022409 -522487.000000 0 0 1
20.505145 -28.040168 12.921299 37.063080 -0.939386 1.214687 0.046875 -0.022881 39810.000000 0 0 1
21.318845 -26.856368 12.939499 36.649533 -0.899841 1.209956 0.035364 -0.027289 331968.000000 0 0 1
22.662045 -26.932968 12.166299 37.242071 -0.871302 1.238006 0.040644 -0.022193 400431.000000 0 0 1
23.586545 -27.808168 12.822899 38.652891 -0.867355 1.232644 0.046956 -0.030353 249256.000000 0 0 1
24.714745 -27.967868 11.978599 39.198304 -0.847069 1.260239 0.034267 -0.032467 463800.000000 0 0 1
25.937145 -28.754468 12.559899 40.710023 -0.836866 1.257158 0.034079 -0.027601 394904.000000 0 0 1
26.917145 -28.078368 13.304599 41.108877 -0.806510 1.241219 0.021004 -0.021782 753538.000000 0 0 1
28.166445 -28.054968 12.556799 41.690563 -0.783415 1.264856 0.006465 -0.015533 815548.000000 0 0 1
29.230745 -27.247068 13.367899 42.137155 -0.750289 1.247971 0.027875 -0.016975 -166891.000000 0 0 1
28.956945 -25.875268 13.606499 41.148158 -0.729255 1.233782 0.044176 -0.019816 -227576.000000 0 0 1
28.234045 -25.605368 14.760199 40.873703 -0.736613 1.201331 0.053748 -0.026656 -736284.000000 0 0 1
29.095745 -25.286968 16.026699 41.747433 -0.715476 1.176784 0.051121 -0.021321 99657.600000 0 0 1
29.749145 -26.451268 16.555499 43.113405 -0.726785 1.176673 0.060337 -0.022624 399595.000000 0 0 1
30.412745 -26.314968 17.803599 43.981595 -0.713288 1.154040 0.082413 -0.010910 212345.000000 0 0 1
30.674345 -27.656268 18.491699 45.251823 -0.733703 1.149833 0.057591 -0.000448 422397.000000 0 0 1
29.447445 -28.136268 19.036399 44.957603 -0.762632 1.133568 0.036680 -0.006720 446934.000000 0 0 1
29.663145 -28.882568 20.167799 46.052633 -0.772066 1.117502 0.058846 -0.015608 -718741.000000 0 0 1
28.562645 -29.859568 20.428399 46.094880 -0.807594 1.111652 0.041413 -0.003376 -194756.000000 0 0 1
27.290345 -29.239368 20.684199 45.028209 -0.819862 1.093521 0.032872 0.002913 575126.000000 0 0 1
26.266245 -30.092568 21.172899 45.208073 -0.853186 1.083382 0.036020 0.001935 263177.000000 0 0 1
25.513245 -30.970968 20.155899 44.904195 -0.881723 1.105302 0.049589 -0.007102 -835954.000000 0 0 1
26.153845 -32.132768 19.648999 45.854351 -0.887619 1.127954 0.061648 -0.008771 -355811.000000 0 0 1
25.591545 -32.535768 18.450499 45.320241 -0.904300 1.151504 0.066764 -0.005288 -327572.000000 0 0 1
25.979145 -31.719068 17.158199 44.445686 -0.884554 1.174452 0.058488 -0.005343 612362.000000 0 0 1
27.393645 -31.670068 16.932099 45.167476 -0.857676 1.186536 0.048819 -0.015617 463660.000000 0 0 1
27.635645 -30.544868 16.157799 44.246946 -0.835360 1.196977 0.044294 -0.027547 529470.000000 0 0 1
29.142845 -30.530268 15.700499 45.032303 -0.808644 1.214666 0.038516 -0.013999 453794.000000 0 0 1
29.573345 -31.439068 14.707299 45.599368 -0.815968 1.242392 0.079185 -0.015387 55966.400000 0 0 1
29.585145 -32.777868 15.090799 46.662636 -0.836549 1.241474 0.083279 -0.021297 -503054.000000 0 0 1
28.523245 -33.660168 14.368299 46.400759 -0.867820 1.255965 0.077907 -0.022517 206437.000000 0 0 1
28.719545 -33.720568 12.964899 46.151680 -0.865321 1.286044 0.077298 -0.021611 169015.000000 0 0 1
27.933745 33.450876 12.535099 45.347369 0.875035 1.290725 0.068604 -0.034635 -341199.000000 0 0 1
28.349245 32.891276 11.192599 44.841833 0.859430 1.318527 0.070348 -0.034184 -714347.000000 0 0 1
29.655845 32.409976 11.274799 45.354126 0.829743 1.319567 0.045972 -0.023688 -523616.000000 0 0 1
30.053845 31.869176 10.030599 44.938746 0.814706 1.345694 0.048934 -0.025950 23563.400000 0 0 1
31.537045 31.427076 9.986299 45.628637 0.783652 1.350150 0.030582 -0.015996 106317.000000 0 0 1
31.898445 30.436076 10.940299 45.426376 0.761942 1.327569 0.022325 -0.009687 370352.000000 0 0 1
33.251745 29.996776 10.872899 46.083674 0.733980 1.332612 0.043146 -0.012521 439931.000000 0 0 1
33.622345 29.072376 12.009499 46.042298 0.712952 1.306908 0.045918 -0.010416 -226315.000000 0 0 1
33.074445 27.807276 11.803899 44.793923 0.699098 1.304131 0.043983 -0.019806 114199.000000 0 0 1
33.236045 27.042676 12.967499 44.767142 0.683012 1.276919 0.057097 -0.027178 -197777.000000 0 0 1
33.038045 25.548576 12.649599 43.637765 0.658252 1.276698 0.053110 -0.026841 17962.000000 0 0 1
33.998745 24.895976 11.821499 43.766107 0.632052 1.297293 0.061190 -0.017439 -81168.000000 0 0 1
34.027045 23.521076 11.861999 43.032404 0.604827 1.291528 0.073824 -0.022666 7970.330000 0 0 1
32.801545 22.854676 11.155199 41.505614 0.608546 1.298687 0.075436 -0.021615 321628.000000 0 0 1
31.606645 22.979676 11.879299 40.843154 0.628652 1.275679 0.075671 -0.029512 -760294.000000 0 0 1
30.619645 22.138476 11.369699 39.458140 0.626006 1.278506 0.068985 -0.020313 -478347.000000 0 0 1
29.377645 22.139076 12.270099 38.778087 0.645803 1.248845 0.048296 -0.014220 -276392.000000 0 0 1
28.706145 23.391976 12.355699 39.037041 0.683747 1.248746 0.038976 -0.010544 182621.000000 0 0 1
27.684745 23.285076 13.343699 38.557673 0.699293 1.217416 0.064302 -0.010880 -141670.000000 0 0 1
24.266845 9.161276 25.777102 36.568671 0.360980 0.788520 0.022617 -0.013906 -458122.000000 0 0 1
24.021345 7.833576 26.262662 36.443344 0.315235 0.766066 0.023372 -0.023936 88207.500000 0 0 1
22.618745 7.714876 26.360092 35.580632 0.328709 0.736454 0.031117 -0.022081 -27381.500000 0 0 1
22.052045 6.561576 27.253512 35.666523 0.289207 0.701120 0.039786 -0.028523 -371812.000000 0 0 1
22.439045 6.639476 28.595152 36.949642 0.287681 0.685828 0.059647 -0.033982 -897615.000000 0 0 1
23.723445 6.196376 28.814252 37.834614 0.255484 0.705042 0.052503 -0.031089 -1107090.000000 0 0 1
23.922745 5.985176 30.328522 39.088864 0.245155 0.682677 0.050664 -0.036171 -317160.000000 0 0 1
23.994645 7.238776 31.095282 39.938195 0.293000 0.678388 0.064009 -0.026393 130219.000000 0 0 1
24.093845 6.949076 32.456554 41.015008 0.280797 0.657809 0.061398 -0.013703 -91122.000000 0 0 1
24.209145 8.214376 33.308597 41.988347 0.327119 0.654616 0.078636 -0.010795 -168584.000000 0 0 1
25.368345 8.983576 33.092911 42.654405 0.340345 0.682754 0.057344 -0.013156 -175099.000000 0 0 1
25.683845 9.907376 -34.088666 43.816129 0.368156 2.462262 0.071570 -0.003938 -220133.000000 0 0 1
26.800845 10.918076 33.837873 44.525176 0.386851 0.707527 0.052146 -0.001762 -499686.000000 0 0 1
26.494045 12.158976 33.326224 44.276543 0.430257 0.718668 0.038961 -0.002665 172404.000000 0 0 1
26.152645 13.086576 -33.874121 44.751261 0.463961 2.429418 0.044623 -0.009014 -420946.000000 0 0 1
25.656445 14.428876 33.812897 44.830320 0.512304 0.716298 0.043825 -0.013493 -123542.000000 0 0 1
26.626845 15.163176 33.041152 45.062495 0.517668 0.747737 0.043951 -0.013973 512150.000000 0 0 1
26.293645 16.527276 32.908623 45.249133 0.561159 0.756451 0.049156 -0.020174 -85522.400000 0 0 1
26.940445 17.517476 33.932221 46.733769 0.576537 0.758200 0.045678 -0.031877 -61297.200000 0 0 1
26.387745 17.428176 -33.019671 45.720379 0.583697 2.377787 0.047815 -0.041748 530426.000000 0 0 1
27.401545 17.017676 -32.128451 45.526732 0.555752 2.354214 0.039706 -0.033151 221354.000000 0 0 1
26.662245 16.445376 -30.899301 44.001051 0.552684 2.349335 0.045300 -0.026361 454556.000000 0 0 1
25.918245 15.265376 -31.142861 43.297401 0.532279 2.373559 0.047639 -0.022306 -3989.830000 0 0 1
24.967245 15.037876 -30.145151 41.931267 0.542112 2.373041 0.064820 -0.013999 -72962.900000 0 0 1
24.233945 13.669276 -30.258931 41.106400 0.513570 2.398105 0.056780 -0.005640 196807.000000 0 0 1
23.126745 13.739676 -31.173151 41.175118 0.536072 2.429639 0.062950 -0.012080 551739.000000 0 0 1
22.563045 12.507276 -31.515791 40.727976 0.506158 2.455634 0.049926 0.001643 300602.000000 0 0 1
21.690845 11.686476 -30.472601 39.187318 0.494184 2.461658 0.062509 -0.001078 -206385.000000 0 0 1
20.460445 12.313076 -30.228071 38.522434 0.541741 2.472988 0.068468 0.005052 -367684.000000 0 0 1
19.758645 11.611776 -29.243321 37.153859 0.531312 2.476869 0.064181 0.012961 -473184.000000 0 0 1
18.403845 12.257476 -28.926041 36.409656 0.587560 2.488915 0.062178 0.004535 -687525.000000 0 0 1
17.439245 12.086676 -29.900131 36.663781 0.606062 2.524427 0.051681 0.006573 -11383.600000 0 0 1
16.309445 12.902476 -29.614331 36.186745 0.669293 2.529374 0.048259 -0.000979 57949.600000 0 0 1
15.217245 13.131376 -30.693251 36.688871 0.711951 2.561811 0.048753 -0.004051 388200.000000 0 0 1
14.634145 11.878676 -31.086091 36.353902 0.681840 2.596533 0.039090 0.000341 -614513.000000 0 0 1
13.409445 11.640876 -30.470581 35.267259 0.714914 2.613939 0.041724 -0.002517 -865021.000000 0 0 1
12.383345 11.160976 -31.513121 35.650967 0.733527 2.655007 0.042809 -0.001655 -180062.000000 0 0 1
12.090845 12.267576 -32.358971 36.657673 0.792654 2.652446 0.057366 -0.003126 -129271.000000 0 0 1
10.980245 11.958076 -33.159811 36.920651 0.828001 2.686311 0.067090 -0.001858 -89466.200000 0 0 1
10.477545 12.950976 33.995023 37.857209 0.890582 0.455639 0.073064 -0.004573 201340.000000 0 0 1
11.336645 12.976276 32.879310 37.120780 0.852735 0.482713 0.062084 -0.000984 282884.000000 0 0 1
10.626345 13.469276 31.797982 36.131043 0.902841 0.494779 0.067669 -0.014818 -459493.000000 0 0 1
11.541245 13.501476 30.587782 35.370929 0.863514 0.526101 0.063455 -0.012719 -200244.000000 0 0 1
11.892345 12.203376 30.102822 34.590897 0.798306 0.515081 0.046568 -0.013205 54384.100000 0 0 1
12.363745 12.319676 28.746122 33.629988 0.783613 0.545676 0.048414 -0.012723 -289188.000000 0 0 1
12.850045 10.953976 28.128192 32.807140 0.705913 0.540639 0.050893 -0.008625 -96734.900000 0 0 1
11.888545 9.928576 28.284222 32.247656 0.695802 0.501018 0.057225 -0.022930 -11586.000000 0 0 1
12.357245 8.648276 27.964452 31.772704 0.610628 0.494638 0.044159 -0.029675 -975143.000000 0 0 1
11.594245 7.513076 28.599152 31.761365 0.574968 0.450020 0.036774 -0.024422 51324.600000 0 0 1
10.259345 7.454376 28.098202 30.827436 0.628352 0.423959 0.037516 -0.031570 -54085.200000 0 0 1
9.506545 6.337976 28.525512 30.728637 0.588023 0.380972 0.035121 -0.037675 -149172.000000 0 0 1
9.772245 4.980076 27.750442 29.839319 0.471309 0.376395 0.035828 -0.022724 -30702.100000 0 0 1
10.949145 4.311976 28.157802 30.517843 0.375166 0.395856 0.023989 -0.020338 -597.286000 0 0 1
11.204345 3.213276 27.342332 29.723149 0.279292 0.402970 0.016379 -0.021523 -230832.000000 0 0 1
11.717645 2.004276 28.194432 30.598142 0.169408 0.399019 0.014208 -0.017900 -386458.000000 0 0 1
10.819045 1.556876 29.156732 31.138250 0.142920 0.358672 0.008589 -0.001464 -203508.000000 0 0 1
11.232545 0.352576 29.742302 31.794636 0.031379 0.361265 0.026755 0.002367 156437.000000 0 0 1
10.296245 0.056776 30.931462 32.600172 0.005514 0.321341 0.043599 0.005639 274345.000000 0 0 1
10.450345 0.920976 32.052152 33.725337 0.087902 0.316316 0.026143 -0.004186 -309256.000000 0 0 1
9.182245 0.955776 32.665215 33.944711 0.103716 0.275437 0.039663 -0.002156 84156.400000 0 0 1
8.956445 2.144876 33.662254 34.899366 0.235052 0.267056 0.035891 -0.011785 -310358.000000 0 0 1
8.912045 3.435776 33.052453 34.404850 0.367962 0.281313 0.020127 -0.014576 -40476.400000 0 0 1
10.107245 3.887376 32.439744 34.199489 0.367172 0.322189 0.022136 -0.013236 -105131.000000 0 0 1
10.042245 5.309876 31.811012 33.778424 0.486385 0.342984 0.023429 -0.016422 6064.080000 0 0 1
10.164045 6.372476 32.717183 34.847242 0.560009 0.351450 0.027694 -0.017630 -138374.000000 0 0 1
10.541645 7.503876 32.001782 34.518813 0.618623 0.384243 0.033910 -0.025970 -518473.000000 0 0 1
10.502645 8.817276 32.816428 35.566386 0.698384 0.395819 0.058899 -0.027596 -456229.000000 0 0 1
9.268645 9.377676 33.175173 35.699309 0.791245 0.378298 0.062054 -0.023947 -376479.000000 0 0 1
8.661845 8.638676 -34.002361 36.136060 0.784059 2.796233 0.056340 -0.022816 -1175210.000000 0 0 1
7.280545 8.966376 -33.499671 35.434873 0.888791 2.809576 0.063605 -0.015136 -780185.000000 0 0 1
6.879945 8.030376 -32.510901 34.187414 0.862402 2.827125 0.070719 -0.017912 -139128.000000 0 0 1
5.559245 8.303576 -32.100831 33.620201 0.980835 2.839809 0.075673 -0.021371 -118737.000000 0 0 1
5.115645 7.550976 -30.886751 32.205255 0.975344 2.854458 0.070941 -0.018648 -295989.000000 0 0 1
5.441445 8.212576 -29.664041 31.257176 0.985632 2.820945 0.069026 -0.024366 250620.000000 0 0 1
5.188845 7.457476 -28.453241 29.868462 0.962901 2.832527 0.062718 -0.021293 1476200.000000 0 0 1
3.662645 7.458076 -27.978431 29.186135 1.114296 2.852913 0.057567 -0.016990 1513700.000000 0 0 1
2.786245 6.665176 -28.758341 29.651811 1.174844 2.895484 0.062915 -0.014259 -689804.000000 0 0 1
1.459945 6.920776 -28.447051 29.313193 1.362893 2.897894 0.068451 -0.005135 -839885.000000 0 0 1
0.497245 6.307076 -29.464251 30.135835 1.492120 2.930081 0.080808 -0.012642 -331949.000000 0 0 1
0.433845 7.105476 -30.635131 31.451348 1.509814 2.913274 0.073370 -0.015971 261638.000000 0 0 1
-0.433155 6.545376 -31.615161 32.288512 -1.504715 2.937010 0.105637 -0.018899 -449981.000000 0 0 1
-0.408655 7.276476 -32.999431 33.794623 -1.514694 2.924231 0.104448 -0.025972 411043.000000 0 0 1
0.826345 7.522876 -33.691591 34.531143 1.461391 2.920631 0.070343 -0.020593 347578.000000 0 0 1
1.549145 6.400276 -34.105347 34.735257 1.333320 2.950859 0.081123 -0.017611 -169354.000000 0 0 1
1.360145 6.117276 32.597374 33.194274 1.352011 0.189927 0.106660 -0.024055 1279520.000000 0 0 1
0.077545 5.521776 32.230375 32.700047 1.556754 0.169691 0.116954 -0.023501 898613.000000 0 0 1
-0.186555 5.560376 30.838802 31.336628 -1.537258 0.178486 0.130866 -0.035091 270363.000000 0 0 1
0.739445 4.611976 30.020642 30.381837 1.411818 0.154351 0.141450 -0.038089 217346.000000 0 0 1
0.608845 4.859276 28.621922 29.037866 1.446151 0.169461 0.126371 -0.035889 117783.000000 0 0 1
1.201345 3.819176 27.833432 28.119909 1.266040 0.142864 0.117624 -0.035497 83352.300000 0 0 1
1.405345 4.179176 26.349202 26.715556 1.246402 0.165799 0.098587 -0.030887 258415.000000 0 0 1
2.309245 5.271376 26.181912 26.806949 1.157906 0.216367 0.095019 -0.025520 290549.000000 0 0 1
2.138345 5.824776 24.888052 25.649867 1.218959 0.244331 0.063395 -0.024712 -684152.000000 0 0 1
2.884045 7.141176 24.737382 25.908535 1.186966 0.301821 0.057140 -0.022739 -1368.700000 0 0 1
4.290445 7.128076 24.855152 26.210608 1.028975 0.323005 0.054547 -0.017356 97268.600000 0 0 1
4.972245 6.706176 23.666452 25.095756 0.932795 0.339125 0.047268 -0.021546 18001.000000 0 0 1
6.524545 6.691776 23.826802 25.594258 0.798051 0.373809 0.057354 -0.017973 709542.000000 0 0 1
7.227045 5.834476 24.745492 26.431244 0.679183 0.359078 0.057961 -0.017102 382514.000000 0 0 1
7.010245 4.415476 24.637292 25.993001 0.562087 0.324396 0.064483 -0.014222 -836586.000000 0 0 1
7.310845 3.665476 23.301322 24.694853 0.464747 0.337547 0.056190 -0.011108 12108.300000 0 1 0
6.367745 3.886276 22.274192 23.490231 0.547963 0.323174 0.053295 -0.011036 28151.000000 0 1 0
5.145445 3.206776 22.522992 23.324755 0.557323 0.262955 0.046997 -0.009483 611237.000000 0 1 0
3.939245 3.512276 21.530592 22.167998 0.728161 0.240384 0.033410 -0.007565 824281.000000 0 1 0
3.537145 4.868676 21.508392 22.334420 0.942499 0.272818 0.025327 -0.017600 -106483.000000 0 1 0
2.438145 5.012676 20.645292 21.384563 1.118091 0.263710 0.018409 -0.012992 -251251.000000 0 1 0
1.669445 6.326376 20.766192 21.772570 1.312791 0.305231 0.010823 -0.014306 -411463.000000 0 1 0
2.406045 7.397576 20.302392 21.741672 1.256340 0.365904 0.001046 -0.005608 -265607.000000 0 1 0
1.722545 8.623476 20.478892 22.287138 1.373641 0.405600 0.009258 -0.004209 245018.000000 0 1 0
2.618545 9.778776 20.018992 22.433040 1.309156 0.468185 0.002792 -0.012659 -291818.000000 0 1 0
2.730645 9.908976 18.613292 21.262617 1.301898 0.504534 -0.000473 -0.012077 -236053.000000 0 1 0
3.540245 10.951776 18.134792 21.478953 1.258141 0.565529 -0.005676 -0.019051 -139060.000000 0 1 0
5.056945 10.689476 18.144292 21.657630 1.128918 0.577595 0.003114 -0.019613 -534522.000000 0 1 0
5.469945 9.807976 17.158392 20.506758 1.062058 0.579532 0.009071 -0.017656 -508269.000000 0 1 0
6.788045 9.418576 17.427292 20.940335 0.946307 0.587668 0.011864 -0.011894 -413446.000000 0 1 0
6.894945 7.931976 17.810992 20.680617 0.855227 0.533090 0.026367 -0.013549 -403013.000000 0 1 0
6.539745 7.696076 19.151592 21.651358 0.866447 0.485280 0.037640 -0.017597 -75312.400000 0 1 0
6.641045 6.365776 19.631592 21.680083 0.764238 0.438210 0.033892 -0.024265 1281120.000000 0 1 0
8.122245 5.906676 20.021592 22.399192 0.628763 0.464929 0.053511 -0.016626 1252680.000000 0 1 0
9.066745 5.925076 18.972192 21.846200 0.578829 0.518742 0.051178 -0.017706 -37075.100000 0 1 0
10.351845 5.520376 19.411592 22.681383 0.489912 0.543627 0.056317 -0.009051 169929.000000 0 1 0
10.653245 4.001076 19.254492 22.365949 0.359273 0.533791 0.070496 -0.011540 -635316.000000 0 1 0
10.043245 3.213976 20.227692 22.811311 0.309715 0.480553 0.060550 -0.016342 -41189.500000 0 1 0
10.130745 1.774976 20.029892 22.516196 0.173446 0.474378 0.058387 -0.031215 -164522.000000 0 1 0
9.222645 0.895076 20.895992 22.858277 0.096749 0.417380 0.059182 -0.028010 -150611.000000 0 1 0
9.478245 1.034076 22.282892 24.237032 0.108670 0.404311 0.053188 -0.020136 -3716.960000 0 1 0
8.695245 0.073876 22.905592 24.500589 0.008496 0.362820 0.055396 -0.030769 -582938.000000 0 1 0
8.917145 -0.012424 24.470732 26.044814 -0.001393 0.349446 0.056909 -0.012854 825586.000000 0 0 1
10.244445 -0.453424 24.828842 26.863090 -0.044232 0.391668 0.052197 -0.018359 961427.000000 0 0 1
10.429345 -1.841924 24.720972 26.894058 -0.174807 0.404757 0.054194 -0.017825 94200.000000 0 0 1
11.875245 -2.195724 25.176912 27.923458 -0.182834 0.447249 0.051026 -0.014355 483671.000000 0 0 1
12.101345 -3.550624 24.992482 27.994171 -0.285398 0.467330 0.050703 -0.003754 -1916070.000000 0 0 1
13.353145 -3.898524 25.323852 28.892948 -0.284060 0.502312 0.042881 -0.000203 -1797000.000000 0 0 1
13.695245 -5.422024 25.340412 29.310315 -0.376972 0.526530 0.043336 -0.000706 -58714.300000 0 0 1
13.503545 -6.072724 24.109732 28.293159 -0.422615 0.550735 0.062622 -0.006338 250294.000000 0 0 1
13.465545 -7.479424 24.325112 28.791904 -0.507017 0.564494 0.067309 -0.009481 73673.300000 0 0 1
13.408645 -8.327024 23.042492 27.930047 -0.555731 0.600581 0.092940 -0.011312 367015.000000 0 0 1
12.734645 -9.576224 23.182592 28.130194 -0.644768 0.602153 0.089552 -0.005691 -137027.000000 0 0 1
12.664845 -10.244224 21.945592 27.330412 -0.680127 0.638529 0.081536 -0.013216 218284.000000 0 0 1
12.111645 -11.686724 21.979292 27.683221 -0.767545 0.653506 0.098833 -0.008015 1533020.000000 0 0 1
10.660845 -11.690724 22.015692 27.111203 -0.831442 0.623137 0.112889 -0.006265 584180.000000 0 0 1
10.189545 -12.995524 22.126092 27.609317 -0.905838 0.641165 0.099324 -0.004993 -934913.000000 0 0 1
8.723245 -12.910824 22.504092 27.371856 -0.976598 0.605598 0.085467 -0.004118 -592836.000000 0 0 1
7.994745 -12.164224 21.515292 25.976760 -0.989352 0.594816 0.076322 -0.013183 138044.000000 0 0 1
6.593445 -12.297024 21.756392 25.846294 -1.078624 0.570260 0.051103 -0.008504 517187.000000 0 0 1
5.860745 -11.162024 21.043092 24.530610 -1.087301 0.539764 0.048152 -0.008744 -73692.900000 0 1 0
6.145945 -9.878024 21.563292 24.501501 -1.014225 0.494765 0.058373 -0.008030 -829397.000000 0 1 0
5.236845 -8.950924 21.125692 23.533772 -1.041433 0.456330 0.042658 -0.004400 -501399.000000 0 1 0
5.449145 -7.567424 21.763792 23.677452 -0.946721 0.404808 0.051848 -0.012591 82031.300000 0 1 0
4.657245 -6.536724 21.198592 22.667134 -0.951748 0.361937 0.026847 -0.014549 -187893.000000 0 1 0
4.954545 -5.255424 21.733992 22.902694 -0.814859 0.320840 0.037329 -0.024909 186238.000000 0 1 0
-8.295555 -15.637124 -20.257001 26.901338 1.083044 2.423422 0.069329 -0.025840 -156861.000000 0 0 1
-7.516055 -15.008824 -19.293001 25.572950 1.106528 2.425582 0.072246 -0.029577 258448.000000 0 0 1
-6.527755 -14.053824 -19.712301 25.073818 1.135964 2.475384 0.052761 -0.032990 819763.000000 0 0 1
-5.659855 -13.470124 -18.553601 23.615976 1.173017 2.474523 0.050364 -0.032682 175930.000000 0 1 0
-4.758655 -14.385424 -17.971401 23.506520 1.251330 2.441106 0.047420 -0.025009 -415651.000000 0 1 0
-4.191655 -13.757524 -16.886801 22.181152 1.275051 2.436132 0.035534 -0.020707 -303566.000000 0 1 0
-3.126555 -14.651224 -16.213001 22.074762 1.360551 2.395665 0.021269 -0.013533 -1256110.000000 0 1 0
-1.944555 -14.607124 -16.885901 22.411671 1.438451 2.424078 0.016510 -0.018782 -1594970.000000 0 1 0
-1.068455 -15.562924 -16.385501 22.623679 1.502250 2.380762 0.016348 -0.002563 -1543040.000000 0 1 0
0.298545 -15.736524 -16.928101 23.114669 -1.551827 2.392568 0.012502 -0.001865 -1149860.000000 0 1 0
0.494045 -16.605724 -18.051601 24.532722 -1.541054 2.397669 0.031701 -0.003585 -119790.000000 0 1 0
0.358045 -18.006424 -17.869601 25.370891 -1.550915 2.352282 0.028917 0.004152 -200306.000000 0 0 1
0.165045 -18.673824 -19.254701 26.823170 -1.561958 2.371489 0.053415 -0.011879 714773.000000 0 0 1
-1.170855 -18.404124 -19.690901 26.978033 1.507263 2.388952 0.055475 -0.010796 403070.000000 0 0 1
-1.407555 -18.731824 -21.018301 28.189207 1.495795 2.412254 0.086927 -0.014526 1141750.000000 0 0 1
-2.780755 -18.217224 -21.676601 28.451272 1.419321 2.437015 0.070216 -0.007841 1508020.000000 0 0 1
-2.728555 -16.822124 -21.874201 27.729218 1.409996 2.479732 0.061241 -0.010769 -142402.000000 0 0 1
-3.242655 -16.133124 -20.768401 26.497528 1.372446 2.471536 0.055479 -0.007941 -289897.000000 0 0 1
-2.503755 -14.799524 -20.465401 25.379664 1.403205 2.508785 0.058331 -0.015580 -266022.000000 0 0 1
-2.575655 -13.897924 -21.522801 25.749121 1.387549 2.560504 0.058978 -0.023854 20030.500000 0 0 1
-1.962555 -12.687024 -21.093401 24.692990 1.417323 2.594857 0.043949 -0.017138 86433.200000 0 1 0
-1.947355 -11.704424 -22.250401 25.216385 1.405929 2.651690 0.055719 -0.016988 1197860.000000 0 0 1
-3.263555 -11.240524 -22.654601 25.499630 1.288227 2.664707 0.065808 -0.016921 1058890.000000 0 0 1
-3.205355 -10.406424 -23.773301 26.148381 1.272001 2.712081 0.058564 -0.020940 -427503.000000 0 0 1
-4.155655 -9.251624 -23.598601 25.685716 1.148624 2.735684 0.057111 -0.017876 -722183.000000 0 0 1
-5.508455 -9.595424 -23.453601 25.932347 1.049660 2.700803 0.053608 -0.028385 15233.700000 0 0 1
-6.265655 -8.410524 -23.352101 25.599140 0.930517 2.719472 0.061619 -0.030480 -729734.000000 0 0 1
-7.768955 -8.567924 -23.041801 25.781594 0.834265 2.676390 0.039289 -0.035384 170594.000000 0 0 1
-8.620055 -8.853424 -24.146901 27.124920 0.798753 2.668604 0.039451 -0.021728 90441.300000 0 0 1
-8.832355 -7.764324 -25.068741 27.690016 0.721135 2.702964 0.035466 -0.025148 -856865.000000 0 0 1
-9.617455 -8.170924 -26.288561 29.160725 0.704258 2.694033 0.037292 -0.032751 -111764.000000 0 0 1
-10.223755 -7.031624 -26.883251 29.608750 0.602473 2.709161 0.052407 -0.041018 180010.000000 0 0 1
-10.844455 -7.434324 -28.121721 31.043559 0.600956 2.704248 0.067217 -0.038612 235767.000000 0 0 1
-11.663155 -6.381524 -28.933441 31.841750 0.500654 2.710869 0.078343 -0.040337 84799.300000 0 0 1
-10.912255 -5.421024 -29.643491 32.049983 0.461071 2.751607 0.047282 -0.030218 -262195.000000 0 0 1
-11.516955 -5.029524 -30.855871 33.316980 0.411744 2.754818 0.068832 -0.026867 -188577.000000 0 0 1
-10.676355 -4.015524 -31.641591 33.634793 0.359747 2.795602 0.044643 -0.021819 -640080.000000 0 0 1
-9.605655 -4.586524 -32.309851 34.018102 0.445471 2.823341 0.038376 -0.019989 -619501.000000 0 0 1
-9.287855 -3.726724 -33.379281 34.847226 0.381581 2.850305 0.039366 -0.023279 -64602.900000 0 0 1
-8.032955 -4.160124 34.028161 35.210094 0.477851 0.259837 0.031079 -0.017954 247134.000000 0 0 1
-6.802055 -4.123424 -33.538231 34.468588 0.544968 2.908725 0.024659 -0.019507 91244.500000 0 0 1
-5.717255 -4.676224 33.934031 34.728555 0.685569 0.214317 0.023999 -0.015226 301434.000000 0 0 1
-4.374755 -4.015824 -33.989901 34.504764 0.742646 2.968626 0.044076 -0.015519 -558527.000000 0 0 1
-4.245855 -2.642624 33.891283 34.258281 0.556728 0.146505 0.067490 -0.027158 -704326.000000 0 0 1
-2.968355 -2.110224 34.035147 34.229452 0.618008 0.106601 0.076586 -0.027384 -433488.000000 0 0 1
-2.946355 -0.701224 -33.594761 33.731005 0.233650 3.051683 0.082357 -0.030173 -32571.300000 0 0 1
-3.137355 -0.718224 -32.176561 32.337129 0.225049 3.041898 0.081090 -0.027129 -89796.800000 0 0 1
-3.565655 0.505576 -31.748261 31.951864 -0.140852 3.028642 0.092765 -0.032146 -1067450.000000 0 0 1
-4.010955 0.527576 -30.275491 30.544582 -0.130783 3.008756 0.112278 -0.034298 380656.000000 0 0 1
-5.110955 -0.361624 -30.132351 30.564869 0.070637 2.973163 0.091894 -0.033270 -214446.000000 0 0 1
-6.346255 0.256676 -30.360501 31.017751 -0.040423 2.935366 0.084883 -0.034612 -1181880.000000 0 0 1
-7.551355 -0.684024 -30.396921 31.328321 0.090336 2.897139 0.068490 -0.033725 -209673.000000 0 0 1
-7.977055 -1.109224 -29.125731 30.218736 0.138166 2.871815 0.062058 -0.027326 -44034.200000 0 0 1
-8.992455 -2.083124 -29.141171 30.568145 0.227637 2.834837 0.045033 -0.024096 -55803.100000 0 0 1
-9.417455 -2.673324 -27.784371 29.458554 0.276593 2.802835 0.039517 -0.022540 215659.000000 0 0 1
-10.191555 -1.725224 -27.011061 28.921300 0.167690 2.776107 0.044513 -0.021869 543869.000000 0 0 1
-10.596455 -2.406124 -25.804321 27.998880 0.223283 2.743030 0.039454 -0.025250 -146780.000000 0 0 1
-11.383055 -1.472124 -24.865901 27.387116 0.128612 2.709142 0.043403 -0.024864 -258606.000000 0 0 1
-10.687555 -0.427524 -24.248601 26.502854 0.039981 2.726163 0.057068 -0.026888 -411260.000000 0 0 1
-11.431955 0.225876 -23.269101 25.926660 -0.019756 2.684857 0.064011 -0.027218 -367672.000000 0 0 1
-10.770155 1.511376 -22.840701 25.297789 -0.139420 2.697203 0.071129 -0.031997 20020.900000 0 0 1
-10.693455 2.477276 -23.869601 26.272509 -0.227647 2.710570 0.063926 -0.031601 -407479.000000 0 0 1
-9.863755 3.530976 -23.575601 25.798652 -0.343762 2.723416 0.067296 -0.022117 -630187.000000 0 0 1
-9.993955 4.707276 -24.604901 26.971073 -0.440190 2.719589 0.084577 -0.027788 474485.000000 0 0 1
-11.258455 5.379276 -24.569901 27.556659 -0.445729 2.671693 0.082507 -0.030011 360271.000000 0 0 1
-12.160955 4.946176 -25.567631 28.741212 -0.386291 2.667223 0.066446 -0.028586 -1124430.000000 0 0 1
-13.484255 5.619076 -25.404581 29.305152 -0.394831 2.619742 0.052747 -0.019784 -1004890.000000 0 0 1
-13.432455 6.936976 -25.846761 29.943406 -0.476708 2.612345 0.056025 -0.017943 -674588.000000 0 0 1
-14.698155 7.303176 -26.263551 30.970087 -0.461146 2.583052 0.058361 -0.018097 -850445.000000 0 0 1
-14.804155 8.820476 -26.560301 31.660913 -0.537334 2.566053 0.072272 -0.013511 -168754.000000 0 0 1
-14.506255 9.504876 -25.350481 30.715159 -0.580040 2.541602 0.104464 -0.024530 255372.000000 0 0 1
-14.755955 10.870976 -25.454901 31.366676 -0.634946 2.517557 0.090491 -0.019799 -126175.000000 0 0 1
-14.156255 11.723976 -24.308701 30.475632 -0.691691 2.494175 0.094350 -0.025138 29209.000000 0 0 1
-14.823555 11.390676 -23.120501 29.732859 -0.655184 2.461648 0.112025 -0.029022 138854.000000 0 0 1
-14.422155 12.265476 -22.059801 29.070179 -0.704761 2.432336 0.104726 -0.029392 53033.500000 0 0 1
-15.208555 12.024876 -20.727101 28.381517 -0.669023 2.389561 0.117254 -0.036248 680145.000000 0 0 1
-16.599455 12.314676 -20.859701 29.365291 -0.638279 2.360795 0.101881 -0.030391 331681.000000 0 0 1
-17.168355 12.591776 -19.575501 28.922405 -0.632811 2.314242 0.103859 -0.027611 16943.800000 0 0 1
-18.703255 12.699676 -19.702301 29.987901 -0.596499 2.287640 0.109922 -0.027748 -89897.300000 0 0 1
-19.082955 13.722576 -20.638701 31.279774 -0.623431 2.291362 0.107691 -0.024976 480563.000000 0 0 1
-20.504055 13.851176 -20.556601 32.169010 -0.594116 2.264018 0.080948 -0.018828 551675.000000 0 0 1
-20.976255 15.242576 -21.025001 33.382482 -0.628394 2.252120 0.076042 -0.021306 -305282.000000 0 0 1
-20.959755 15.411976 -22.463001 34.371889 -0.634035 2.283033 0.086318 -0.022655 243295.000000 0 0 1
-21.374255 16.692676 -22.891601 35.489853 -0.663030 2.271843 0.061362 -0.014036 -107451.000000 0 0 1
-21.237655 16.758176 -24.436901 36.455954 -0.668046 2.305427 0.065710 -0.016029 672200.000000 0 0 1
-20.021255 17.237276 -25.041711 36.401396 -0.710816 2.329433 0.079063 -0.019662 671558.000000 0 0 1
-19.890555 16.681376 -26.301121 36.954722 -0.697873 2.362729 0.072596 -0.022318 559579.000000 0 0 1
-18.766755 17.359576 -27.195101 37.324516 -0.746466 2.387090 0.046460 -0.013652 671768.000000 0 0 1
-19.184355 18.616776 -27.685851 38.485454 -0.770384 2.373713 0.022516 -0.022426 439266.000000 0 0 1
-18.976255 19.691776 -26.753781 38.257406 -0.803900 2.345228 0.024264 -0.031559 -891970.000000 0 0 1
-19.788855 20.967976 -27.218141 39.649490 -0.814321 2.327418 0.050400 -0.016419 1298960.000000 0 0 1
-20.961155 21.233776 -26.408601 39.845420 -0.791859 2.295317 0.058288 -0.005003 1469670.000000 0 0 1
-22.055255 20.298376 -26.552831 40.043866 -0.743941 2.295740 0.093590 -0.023717 -353193.000000 0 0 1
-23.179255 20.675076 -25.576361 40.235394 -0.728358 2.259670 0.083048 -0.005835 -203816.000000 0 0 1
-22.923255 20.449476 -24.189101 39.099480 -0.728425 2.237826 0.041148 -0.001380 71887.600000 0 0 1
-23.950855 21.087276 -23.466501 39.610521 -0.721902 2.204869 0.047306 -0.015772 -401261.000000 0 0 1
-23.829255 20.881976 -21.942401 38.540360 -0.719575 2.176494 0.055297 -0.005625 417959.000000 0 0 1
-22.711855 21.454376 -21.215101 37.765052 -0.756934 2.167315 0.057396 -0.010191 318314.000000 0 0 1
-21.597555 20.640176 -21.114901 36.582924 -0.762736 2.186066 0.045415 -0.003506 -841854.000000 0 0 1
-21.703455 19.755676 -19.833601 35.421723 -0.738452 2.165095 0.064503 -0.013798 -757945.000000 0 0 1
-22.598955 18.661276 -19.973401 35.466784 -0.690251 2.168999 0.087326 -0.023638 477110.000000 0 0 1
-23.119855 18.127876 -18.739001 34.846776 -0.664960 2.138567 0.061451 -0.008821 31814.600000 0 0 1
-24.094055 19.056176 -17.956301 35.582160 -0.669172 2.099765 0.041486 -0.007171 -1443340.000000 0 0 1
-25.319855 18.981376 -18.576601 36.694384 -0.643286 2.101629 0.035256 -0.008564 -883949.000000 0 0 1
-26.216405 19.970376 -18.131801 37.614865 -0.650980 2.073776 0.029365 -0.016523 -69758.200000 0 0 1
-27.675205 19.922876 -18.688501 38.885705 -0.623945 2.072136 0.006618 0.002134 411113.000000 0 0 1
-28.430665 18.786976 -18.374201 38.715171 -0.583930 2.065305 0.007067 -0.003228 144705.000000 0 0 1
-28.995475 18.846976 -17.085601 38.572839 -0.576373 2.029676 0.002758 -0.000078 -880896.000000 0 0 1
-29.814665 17.578676 -16.751901 38.451922 -0.532736 2.021566 0.004417 -0.001237 -123083.000000 0 0 1
-29.066465 16.384976 -16.655001 37.292304 -0.513306 2.033766 0.016863 -0.008838 92205.800000 0 0 1
-29.916515 15.328776 -16.270501 37.345662 -0.473507 2.021582 0.022422 -0.007620 -87647.300000 0 0 1
-29.241935 14.216776 -15.482001 36.012496 -0.452529 2.015185 0.045657 -0.011934 -146408.000000 0 0 1
-28.621585 14.700776 -14.247201 35.189355 -0.474489 1.987636 0.043042 -0.009154 152680.000000 0 0 1
-29.510315 14.980276 -13.176401 35.621411 -0.469732 1.949699 0.021940 -0.004894 -57547.300000 0 0 1
-28.839665 15.697676 -11.977801 34.951553 -0.498463 1.920583 0.031204 -0.012600 -12190.700000 0 0 1
-28.477235 17.076976 -12.103901 35.342333 -0.540178 1.920347 0.032552 -0.006220 -371797.000000 0 0 1
-29.501535 18.022476 -11.996501 36.593255 -0.548395 1.904806 0.010552 -0.000691 -551641.000000 0 0 1
-29.048045 19.449976 -12.360201 37.079173 -0.590016 1.910647 0.041391 -0.010138 106969.000000 0 0 1
-28.346595 20.066276 -11.279401 36.515884 -0.616002 1.884822 0.008415 -0.018329 147546.000000 0 0 1
-27.587145 21.142976 -11.812801 36.709921 -0.653919 1.898413 -0.001832 -0.021199 47324.700000 0 0 1
-26.567735 21.882976 -10.955201 36.120986 -0.689007 1.878942 0.020376 -0.014247 -252135.000000 0 0 1
-27.124185 22.857176 -10.177001 36.901806 -0.700233 1.850204 0.027467 -0.015487 -238341.000000 0 0 1
-26.306235 24.008476 -10.059901 37.008466 -0.739762 1.846087 0.036301 -0.014788 45079.800000 0 0 1
-26.877785 25.084576 -9.122801 37.879768 -0.750902 1.814023 0.056567 0.006471 -8203.490000 0 0 1
-26.613805 24.744976 -7.745001 37.156339 -0.749026 1.780780 0.046276 0.004813 550359.000000 0 0 1
-27.603475 25.294476 -6.872601 38.065667 -0.741776 1.752338 0.059693 -0.005260 382620.000000 0 0 1
-27.452275 24.618676 -5.504401 37.282772 -0.731034 1.718977 0.072710 -0.002443 63576.700000 0 0 1
-27.634695 23.226776 -5.657301 36.539904 -0.698949 1.726247 0.079248 -0.008195 88557.800000 0 0 1
-27.578095 22.485276 -4.455701 35.860734 -0.684019 1.695368 0.072421 -0.002404 -86774.500000 0 0 1
-27.615365 20.932376 -4.681901 34.967027 -0.648600 1.705094 0.075089 -0.003968 -90549.700000 0 0 1
-26.622565 20.366776 -5.502401 33.968264 -0.653044 1.733500 0.063206 -0.013224 -182619.000000 0 0 1
-26.709815 20.596376 -6.902001 34.427643 -0.656879 1.772643 0.044993 -0.009423 42949.500000 0 0 1
-27.702375 19.683776 -7.738901 34.853454 -0.617768 1.794704 0.046805 -0.014360 421353.000000 0 0 1
-27.404525 18.286876 -7.557401 33.801363 -0.588437 1.796285 0.039265 -0.011609 248684.000000 0 0 1
-27.310155 17.635176 -8.802401 33.679761 -0.573373 1.835223 0.015265 -0.009587 -142652.000000 0 0 1
-26.964655 16.128176 -8.732801 32.610926 -0.539038 1.841892 0.043966 -0.009520 -39979.100000 0 0 1
-27.974835 15.344976 -8.135601 32.927917 -0.501712 1.820455 0.045820 -0.008591 211090.000000 0 0 1
-27.595925 13.951176 -8.178301 31.985231 -0.468079 1.829358 0.060595 -0.014410 412988.000000 0 0 1
-28.518515 13.161676 -7.195501 32.222829 -0.432387 1.796000 0.063134 -0.014655 704634.000000 0 0 1
-29.832065 13.010876 -7.718401 33.448599 -0.411266 1.803649 0.071627 -0.011867 274352.000000 0 0 1
-30.751825 12.320876 -6.889001 33.836919 -0.381071 1.775824 0.088054 -0.013602 238228.000000 0 0 1
-31.300795 10.987976 -7.473601 34.004854 -0.337605 1.792386 0.078246 -0.008483 -400759.000000 0 0 1
-30.395485 9.930876 -7.573701 32.861357 -0.315789 1.803361 0.093762 0.000581 -431412.000000 0 0 1
-30.930595 8.778576 -8.133801 33.165100 -0.276543 1.818576 0.082546 -0.000058 -411424.000000 0 0 1
-29.859685 7.749876 -8.506801 32.000423 -0.253940 1.839865 0.132067 -0.006425 -136207.000000 0 0 1
-29.213625 7.830076 -9.765301 31.782182 -0.261873 1.883106 0.121335 -0.017185 340575.000000 0 0 1
-28.260405 6.805276 -9.895801 30.706501 -0.236307 1.898923 0.146694 -0.032363 -218349.000000 0 0 1
-27.504775 6.620876 -11.230701 30.438090 -0.236223 1.948695 0.115156 -0.030015 -20242.600000 0 0 1
-26.657915 7.742076 -11.444301 30.025926 -0.282648 1.961833 0.131969 -0.030858 470488.000000 0 0 1
-25.711515 7.418276 -12.450501 29.514875 -0.280891 2.006268 0.120403 -0.021048 -22912.700000 0 0 1
-31.137655 25.161376 33.573306 52.247634 -0.679642 0.872935 0.021002 0.012642 -123476.000000 0 0 1
-31.124185 26.515376 33.113561 52.614523 -0.705609 0.890065 0.004521 0.008761 -35544.500000 0 0 1
-32.175135 26.913776 32.272003 52.925163 -0.696591 0.915030 0.033628 -0.004735 -332445.000000 0 0 1
-32.221565 28.454476 31.986422 53.581878 -0.723392 0.931086 0.051536 -0.018006 -208754.000000 0 0 1
-33.322295 28.849976 31.215492 54.010216 -0.713588 0.954575 0.090003 -0.018873 -132130.000000 0 0 1
-33.430205 30.272476 31.242892 54.864558 -0.735869 0.964954 0.113824 -0.026190 -33652.500000 0 0 1
-32.893935 30.921876 29.930592 54.166537 -0.754506 0.985356 0.120951 -0.036466 -51912.500000 0 0 1
-31.489655 30.816276 29.921852 53.259351 -0.774591 0.974219 0.104506 -0.038000 -45764.300000 0 0 1
-31.001695 31.640476 28.804882 52.838869 -0.795595 0.994233 0.106587 -0.026599 6653.240000 0 0 1
-29.554615 31.409276 28.363292 51.618739 -0.815811 0.989059 0.109338 -0.025829 -566893.000000 0 0 1
-29.372515 30.157776 27.705602 50.396791 -0.798588 0.988732 0.123614 -0.026024 825463.000000 0 0 1
-28.098435 29.903776 27.073842 49.160460 -0.816513 0.987565 0.083435 -0.013199 668729.000000 0 0 1
-27.895785 30.552976 25.688082 48.698427 -0.830829 1.015149 0.080569 -0.005172 -192374.000000 0 0 1
-27.965845 31.981976 25.892782 49.753105 -0.852292 1.023447 0.064100 -0.017407 -46782.200000 0 0 1
-28.668535 32.604976 24.858252 50.029012 -0.849554 1.050800 0.070402 -0.022003 -251941.000000 0 0 1
-29.008565 34.036076 25.270812 51.366967 -0.864975 1.056450 0.082236 -0.010865 -320718.000000 0 0 1
-29.810695 -34.122068 26.386902 52.433402 0.852732 1.043445 0.096643 -0.029327 -263110.000000 0 0 1
-29.974515 -32.786368 26.709592 51.834542 0.830171 1.029455 0.082494 -0.028518 529.731000 0 0 1
-30.391875 -32.541668 28.171132 52.690027 0.819545 1.006694 0.095475 -0.029483 629262.000000 0 0 1
-31.768465 -32.862968 28.397832 53.811215 0.802331 1.014870 0.097188 -0.036845 510163.000000 0 0 1
-32.075295 -32.799968 29.784282 54.697037 0.796568 0.994965 0.082277 -0.038302 71692.100000 0 0 1
-33.476405 -33.352368 30.106832 56.030987 0.783542 1.003535 0.098362 -0.045874 63770.000000 0 0 1
-33.797875 -33.427468 31.501402 57.026575 0.779888 0.985557 0.086330 -0.048498 -583777.000000 0 0 1
-35.167174 -33.472368 31.757122 58.014174 0.760712 0.991539 0.072231 -0.048152 -559071.000000 0 0 1
-35.522034 -34.063068 33.136538 59.330748 0.764435 0.978214 0.066932 -0.032626 -428746.000000 0 0 1
-35.334972 32.803576 33.207091 58.543537 -0.748265 0.967669 0.042844 -0.024228 159545.000000 0 0 1
-36.124745 32.224676 -33.988621 59.149416 -0.728399 2.182940 0.051823 -0.024420 196924.000000 0 0 1
-35.587107 30.859376 -33.618711 57.870209 -0.714367 2.190671 0.031658 -0.019397 243280.000000 0 0 1
-34.493995 30.887676 -32.726871 56.700374 -0.730296 2.186079 0.029938 -0.016723 -339740.000000 0 0 1
-34.107088 29.586076 -32.341481 55.539183 -0.714536 2.192374 0.015257 -0.009104 318925.000000 0 0 1
-33.343695 29.601976 -30.980091 54.294061 -0.726024 2.178030 0.011085 -0.002083 -292760.000000 0 0 1
-34.080700 29.850876 -29.845731 54.252526 -0.719333 2.153312 0.017854 -0.006799 -806161.000000 0 0 1
-34.037885 31.214476 -29.483351 54.792236 -0.742156 2.138970 0.020162 -0.002351 507762.000000 0 0 1
-35.054115 31.499976 -28.308151 54.976276 -0.732047 2.111706 0.023789 0.000472 332321.000000 0 0 1
-34.778397 30.959276 -27.025261 53.836590 -0.727367 2.096691 0.002830 -0.009016 524797.000000 0 0 1
-35.862018 31.108976 -26.057401 54.155710 -0.714545 2.072770 0.032963 -0.012447 630890.000000 0 0 1
-35.500969 30.660276 -24.611301 52.972517 -0.712363 2.053985 0.035876 -0.010713 -261686.000000 0 0 1
-34.832235 31.651176 -23.861801 52.768050 -0.737587 2.040029 0.048635 -0.017919 -191012.000000 0 0 1
-34.888997 31.465476 -22.434401 52.063622 -0.733849 2.016290 0.032372 -0.018254 527172.000000 0 0 1
-36.326245 31.366076 -21.804101 52.714758 -0.712254 1.997228 0.029215 -0.018763 318345.000000 0 0 1
36.155135 32.567576 -21.783301 53.313723 0.733242 1.991702 0.041812 -0.032019 4823.210000 0 0 1
36.554765 33.746476 -21.066301 54.026517 0.745473 1.971347 0.041888 -0.033905 -430299.000000 0 0 1
-36.560015 33.706676 -19.489501 53.409881 -0.744813 1.944326 0.044396 -0.029274 -343677.000000 0 0 1
-35.613513 32.717276 -19.247901 52.050208 -0.743038 1.949585 0.038070 -0.031764 -367059.000000 0 0 1
-35.509523 32.566976 -17.830401 51.375650 -0.742201 1.925230 0.043543 -0.018916 -194717.000000 0 0 1
-34.310126 31.640876 -17.593601 49.878499 -0.744947 1.931282 0.051118 -0.017680 -148279.000000 0 0 1
-34.106085 31.246576 -16.249101 49.026594 -0.741671 1.908620 0.037994 -0.005206 -186707.000000 0 0 1
-32.929275 30.475576 -16.123201 47.676572 -0.746719 1.915777 0.040003 -0.007079 61270.900000 0 0 1
-32.577545 30.095476 -14.636901 46.704101 -0.745815 1.889564 0.037126 -0.002968 31853.200000 0 0 1
-33.476535 29.170176 -14.054201 46.573578 -0.716766 1.877338 0.028646 0.004224 -3157.850000 0 0 1
-33.051585 28.887776 -12.703601 45.697838 -0.718275 1.852499 0.036638 0.002973 -310835.000000 0 0 1
-33.978115 28.041876 -11.870601 45.626421 -0.689974 1.833994 0.040598 -0.001704 -446019.000000 0 0 1
-33.498595 27.927176 -10.506901 44.860651 -0.694944 1.807204 0.047982 0.005757 66255.800000 0 0 1
-34.146030 26.918876 -9.822301 44.576394 -0.667594 1.792967 0.058404 -0.001217 64936.900000 0 0 1
-33.243225 26.227276 -8.735101 43.235218 -0.667967 1.774233 0.068868 -0.004064 307415.000000 0 0 1
-32.974435 27.182776 -7.738401 43.429248 -0.689419 1.749937 0.062609 -0.006226 10627.300000 0 0 1
-31.800515 26.886176 -7.024501 42.231302 -0.701855 1.737907 0.063757 -0.013494 -252234.000000 0 0 1
-31.520935 27.659876 -5.712301 42.323380 -0.720249 1.706177 0.070674 -0.020531 190553.000000 0 0 1
-30.389165 27.078076 -5.064301 41.016713 -0.727845 1.694581 0.082409 -0.012923 661799.000000 0 0 1
-30.174955 27.657976 -3.773101 41.106300 -0.741904 1.662715 0.090209 -0.014807 351285.000000 0 0 1
-29.405685 26.635876 -2.809501 39.775087 -0.736014 1.641490 0.086718 -0.012418 232299.000000 0 0 1
-30.234415 25.589976 -2.432901 39.684830 -0.702392 1.632140 0.076984 -0.000845 -14191.500000 0 0 1
-29.461735 24.569476 -1.874601 38.407905 -0.695099 1.619623 0.069871 -0.010507 217196.000000 0 0 1
-30.366895 23.389976 -1.446201 38.357930 -0.656333 1.608508 0.077050 -0.018162 174785.000000 0 0 1
-30.622825 22.396276 -2.418401 38.015777 -0.631464 1.634455 0.059539 -0.007239 -293533.000000 0 0 1
-31.663525 21.565576 -2.028901 38.363646 -0.597919 1.623707 0.066011 -0.012581 -27353.300000 0 0 1
-32.293115 20.687376 -3.185001 38.483205 -0.569748 1.653655 0.083830 -0.006569 -16459.800000 0 0 1
-31.420985 19.650476 -3.515701 37.226062 -0.558882 1.665379 0.075349 -0.005329 -205288.000000 0 0 1
-31.777995 18.920676 -4.644801 37.274752 -0.537032 1.695731 0.071527 -0.005164 256172.000000 0 0 1
-30.605305 18.032176 -5.192701 35.899976 -0.532429 1.715949 0.064332 -0.008900 373255.000000 0 0 1
-30.381305 16.959776 -4.246001 35.052621 -0.509140 1.692227 0.096732 -0.013906 485408.000000 0 0 1
-29.705935 15.837176 -4.894401 34.017847 -0.489800 1.715175 0.089571 -0.013381 341765.000000 0 0 1
-29.320545 14.595976 -4.004801 32.996596 -0.461892 1.692466 0.109674 -0.013601 51500.200000 0 0 1
-30.489915 13.916976 -3.609901 33.709769 -0.428201 1.678090 0.126580 -0.017349 405770.000000 0 0 1
-30.126185 12.665376 -3.073301 32.824442 -0.397977 1.664562 0.123783 -0.022784 -294350.000000 0 0 1
-31.276025 11.939576 -2.397001 33.563207 -0.364674 1.642275 0.128386 -0.028376 -846513.000000 0 0 1
-32.345825 11.521376 -3.180401 34.483467 -0.342182 1.663157 0.128457 -0.008162 -58193.400000 0 0 1
-32.863405 10.381576 -2.490201 34.554039 -0.305980 1.642926 0.120092 -0.009646 -325850.000000 0 0 1
-33.977725 9.623876 -3.229601 35.461742 -0.276011 1.661996 0.088647 -0.002602 -213507.000000 0 0 1
-33.528095 8.856276 -4.265501 34.939395 -0.258247 1.693184 0.087395 -0.020292 317025.000000 0 0 1
-34.619834 8.360176 -5.036901 35.969374 -0.236949 1.711291 0.091193 -0.010823 328551.000000 0 0 1
-34.170994 7.613976 -6.348901 35.580023 -0.219238 1.750197 0.084814 -0.017993 -195543.000000 0 0 1
-33.460755 6.441976 -6.089101 34.615002 -0.190196 1.747626 0.091362 -0.016167 214951.000000 0 0 1
-33.073585 5.752976 -7.275601 34.349573 -0.172222 1.784223 0.096005 -0.010778 -215734.000000 0 0 1
-32.101945 4.598476 -6.957001 33.167465 -0.142278 1.782119 0.122898 -0.016438 616547.000000 0 0 1
-30.764595 4.994776 -6.626101 31.863982 -0.160950 1.780275 0.130160 -0.019149 1137180.000000 0 0 1
-29.900055 3.858976 -6.441901 30.828608 -0.128353 1.781306 0.132038 -0.022411 196706.000000 0 0 1
-28.447675 4.210076 -6.068901 29.390926 -0.146927 1.778782 0.168799 -0.016546 44332.000000 0 0 1
-27.651915 4.712176 -7.142201 28.945536 -0.168789 1.820118 0.160888 -0.023476 252132.000000 0 0 1
-26.292045 4.530476 -6.808401 27.534545 -0.170638 1.820656 0.187703 -0.032432 -322577.000000 0 0 1
-25.323395 4.824476 -7.929801 26.970941 -0.188259 1.869219 0.169486 -0.032916 -532345.000000 0 0 1
-25.423715 3.900576 -9.002101 27.251011 -0.152236 1.907460 0.173240 -0.050439 573827.000000 0 0 1
-24.358455 4.017176 -9.920701 26.606247 -0.163448 1.952898 0.165078 -0.049645 3766.830000 0 0 1
-24.781555 3.331476 -11.283501 27.432492 -0.133633 1.994697 0.153423 -0.052428 -176767.000000 0 0 1
-25.706125 4.033676 -12.047801 28.674465 -0.155646 2.004416 0.153124 -0.031479 -86613.600000 0 0 1
-26.094365 3.256476 -13.181001 29.415291 -0.124154 2.035436 0.145193 -0.032791 238382.000000 0 0 1
-27.053055 4.020976 -14.129101 30.784210 -0.147553 2.047635 0.114541 -0.024141 485297.000000 0 0 1
-26.335375 5.155576 -14.791501 30.641809 -0.193321 2.074557 0.094322 -0.023416 1040070.000000 0 0 1
-27.097535 5.968776 -15.688001 31.875007 -0.216808 2.085380 0.106553 -0.026269 -121142.000000 0 0 1
-27.824085 5.298576 -16.868001 32.966409 -0.188178 2.107926 0.058522 -0.002585 -947491.000000 0 0 1
-29.100545 4.869476 -16.565201 33.837249 -0.165797 2.082376 0.070012 -0.011665 -826223.000000 0 0 1
-29.729825 4.461276 -17.786801 34.930442 -0.148949 2.105059 0.072287 -0.000220 1043140.000000 0 0 1
-31.236055 4.005776 -17.624101 36.088036 -0.127546 2.081010 0.071258 -0.003243 975122.000000 0 0 1
-31.422485 2.848476 -16.862101 35.774528 -0.090404 2.061610 0.080614 -0.012834 134655.000000 0 0 1
-31.180185 1.655976 -17.497501 35.792580 -0.053060 2.081577 0.099971 -0.015777 -246872.000000 0 0 1
-31.184225 0.515976 -16.462701 35.266736 -0.016545 2.056471 0.097865 -0.012344 -232961.000000 0 0 1
-30.847695 -0.739724 -17.009901 35.234418 0.023975 2.074604 0.096183 -0.010970 403321.000000 0 0 1
-31.071325 -1.766424 -16.060101 35.021056 0.056789 2.047198 0.101444 -0.021718 -17193.000000 0 0 1
-30.751775 -3.168024 -16.687201 35.130766 0.102657 2.065763 0.093689 -0.011557 90430.900000 0 0 1
-31.679255 -3.423224 -17.724901 36.461840 0.107641 2.078443 0.097152 -0.011252 286645.000000 0 0 1
-31.418175 -4.640224 -18.364501 36.686351 0.146632 2.095066 0.094939 -0.005182 -617819.000000 0 0 1
-32.502485 -5.046124 -19.314701 38.143579 0.154024 2.101764 0.102598 -0.003846 -684553.000000 0 0 1
-32.159935 -6.165824 -20.009301 38.375135 0.189425 2.119303 0.096244 -0.002668 536673.000000 0 0 1
-33.132255 -6.311824 -21.067401 39.767083 0.188248 2.129126 0.105025 -0.011954 278102.000000 0 0 1
-32.795115 -7.512924 -21.997501 40.197682 0.225201 2.149851 0.094177 -0.016603 -198269.000000 0 0 1
-31.713545 -7.273124 -22.855101 39.761828 0.225440 2.183156 0.088822 -0.018170 -257592.000000 0 0 1
-31.564105 -8.317224 -23.817201 40.407029 0.257646 2.201152 0.086740 -0.016392 -336435.000000 0 0 1
-30.278585 -8.307424 -24.643101 39.913512 0.267777 2.236245 0.080716 -0.014187 -847451.000000 0 0 1
-30.110795 -7.128124 -25.452251 40.066036 0.232451 2.259138 0.081887 -0.019345 122847.000000 0 0 1
-30.405435 -7.343624 -26.840241 41.216718 0.236985 2.279958 0.069427 -0.022739 -36195.400000 0 0 1
-31.879555 -7.312324 -27.318421 42.615399 0.225473 2.266656 0.078364 -0.012302 -77662.100000 0 0 1
-32.548235 -8.482624 -26.916391 43.079399 0.254946 2.245683 0.062029 -0.014613 -300053.000000 0 0 1
-33.896575 -8.406324 -27.372201 44.372080 0.243095 2.235567 0.062795 -0.007577 266169.000000 0 0 1
-34.755791 -9.471824 -26.752471 44.870650 0.266064 2.209572 0.064559 -0.009137 -744664.000000 0 0 1
-34.255915 -10.753524 -27.169451 45.025383 0.304176 2.218586 0.060570 -0.002141 166786.000000 0 0 1
-35.080819 -11.888724 -26.917391 45.788116 0.326748 2.199218 0.042942 -0.004802 -727637.000000 0 0 1
-36.315055 -12.025624 -27.767941 47.270048 0.319782 2.198678 0.036696 0.006924 -1118180.000000 0 0 1
36.025285 -11.031024 -27.500931 46.645534 -0.297137 2.201326 0.028910 -0.002970 -675242.000000 0 0 1
35.067185 -10.934824 -28.536651 46.514710 -0.302270 2.231278 0.029642 -0.005986 -309882.000000 0 0 1
34.190735 -9.713124 -28.293891 45.430116 -0.276794 2.243113 0.026017 -0.004630 194464.000000 0 0 1
33.065735 -10.011624 -27.461471 44.132843 -0.294005 2.242404 0.014849 -0.005518 393035.000000 0 0 1
32.116505 -8.942324 -27.428281 43.171121 -0.271556 2.259243 -0.002922 -0.000488 1351240.000000 0 0 1
30.866355 -9.214424 -26.485481 41.702736 -0.290104 2.258937 0.004796 0.002087 585913.000000 0 0 1
31.260745 -9.274724 -25.147171 41.178088 -0.288417 2.227732 -0.005491 0.014046 99941.000000 0 0 1
30.242395 -9.619824 -24.207601 39.914301 -0.307970 2.222434 -0.015039 0.015365 -83557.700000 0 0 1
30.711735 -9.653924 -22.715601 39.400602 -0.304560 2.185271 -0.022300 0.014564 65223.600000 0 0 1
31.299715 -10.931824 -22.454501 40.042247 -0.336018 2.166112 -0.031369 0.011009 217849.000000 0 0 1
31.518915 -11.109624 -21.044001 39.493236 -0.338878 2.132762 -0.016161 0.006499 -218818.000000 0 0 1
32.274225 -12.348924 -20.576601 40.218379 -0.365439 2.107868 0.010441 0.005158 -228255.000000 0 0 1
33.656995 -12.322024 -20.821901 41.450900 -0.350950 2.097084 0.028692 0.001560 228969.000000 0 0 1
34.476555 -12.780924 -19.717901 41.722661 -0.355007 2.063029 0.057052 -0.003335 -817921.000000 0 0 1
35.913015 -12.860424 -20.137701 43.135393 -0.343872 2.056520 0.074855 -0.016524 -1649960.000000 0 0 1
36.586495 -11.622524 -20.304801 43.427406 -0.307590 2.057322 0.096587 -0.016660 261384.000000 0 0 1
36.462855 -10.992724 -21.602101 43.783907 -0.292812 2.086768 0.096549 -0.009683 -593987.000000 0 0 1
-36.106945 -11.553224 -22.864801 44.271747 0.309678 2.113514 0.068891 -0.006757 3570.690000 0 0 1
36.578535 -12.719924 -23.416101 45.255933 -0.334663 2.114624 0.065521 -0.004992 782054.000000 0 0 1
35.297525 -12.544424 -24.035001 44.507967 -0.341469 2.141252 0.072668 -0.004899 251769.000000 0 0 1
34.758715 -13.708424 -24.852401 44.874614 -0.375659 2.157740 0.046559 -0.020392 -202517.000000 0 0 1
34.489165 -14.972924 -24.232501 44.731477 -0.409582 2.143293 0.051808 -0.027654 736838.000000 0 0 1
33.682785 -15.026824 -23.041901 43.488673 -0.419629 2.129205 0.015660 -0.014552 -120946.000000 0 0 1
-30.287615 7.748676 -19.542401 36.868511 -0.250464 2.129464 0.030707 -0.002852 95382.100000 0 0 1
-29.059195 7.079576 -19.699801 35.813955 -0.238971 2.153232 0.026276 -0.000983 -29548.900000 0 0 1
-28.089505 7.871876 -20.372101 35.581024 -0.273234 2.180415 0.047680 -0.015688 72263.300000 0 0 1
-26.739135 7.141976 -20.463801 34.420290 -0.261005 2.207474 0.045517 -0.013316 -65644.200000 0 0 1
-25.945975 7.081976 -19.257301 33.078568 -0.266460 2.192190 0.054054 -0.015986 -400221.000000 0 0 1
-24.904955 6.228176 -19.517501 32.248718 -0.245052 2.220836 0.082463 -0.024404 -695196.000000 0 0 1
-23.505855 6.784976 -19.184101 31.090045 -0.281012 2.235784 0.079262 -0.029452 22071.300000 0 0 1
-23.008955 7.851276 -19.963301 31.457717 -0.328838 2.258297 0.084871 -0.019985 566374.000000 0 0 1
-21.681755 8.179876 -19.520201 30.299293 -0.360759 2.270833 0.084802 -0.022278 795816.000000 0 0 1
-21.067555 9.344976 -20.388501 30.771114 -0.417496 2.295062 0.084519 -0.017861 -190290.000000 0 0 1
-20.356855 8.901376 -21.513401 30.926728 -0.412215 2.340086 0.106141 -0.024728 -230609.000000 0 0 1
-19.808555 9.971576 -22.227201 31.398402 -0.466362 2.357329 0.091045 -0.024228 -182181.000000 0 0 1
-18.708255 9.564976 -23.205101 31.304382 -0.472623 2.405762 0.109104 -0.021707 -116410.000000 0 0 1
-19.186955 8.641076 -24.163801 32.042109 -0.423155 2.425119 0.103335 -0.015678 -247863.000000 0 0 1
-18.153755 8.175376 -24.964101 31.931207 -0.423137 2.468358 0.084991 -0.008904 -616774.000000 0 0 1
-18.631155 7.075376 -25.902341 32.681986 -0.362938 2.485787 0.067746 -0.001006 -184039.000000 0 0 1
-19.082055 5.886376 -25.317291 32.244992 -0.299216 2.473741 0.081872 0.000375 206415.000000 0 0 1
-19.765755 5.003776 -26.175921 33.179839 -0.247945 2.479830 0.067364 -0.001878 -469589.000000 0 0 1
-20.025455 3.691276 -25.430291 32.578276 -0.182283 2.466406 0.052325 0.010187 572351.000000 0 0 1
-18.958155 2.725476 -25.293041 31.726610 -0.142784 2.493470 0.045073 0.009963 1491750.000000 0 0 1
-17.825855 3.154076 -24.478701 30.445297 -0.175126 2.504826 0.053246 -0.000813 514576.000000 0 0 1
-17.074255 1.906776 -23.932501 29.460662 -0.111215 2.518975 0.049846 -0.001548 -89891.300000 0 0 1
-17.670755 1.192876 -22.857201 28.915916 -0.067403 2.482374 0.051397 -0.002763 473251.000000 0 0 1
-18.871055 0.452476 -23.115601 29.843801 -0.023973 2.456804 0.048980 0.001526 472088.000000 0 0 1
-19.305355 -0.342524 -21.890401 29.189103 0.017741 2.418785 0.070374 0.000682 -124627.000000 0 0 1
-18.474355 -1.431324 -21.641001 28.490058 0.077322 2.433492 0.072557 -0.005677 208708.000000 0 0 1
-19.041855 -2.191724 -20.547001 28.099380 0.114596 2.390914 0.079343 -0.006222 324658.000000 0 0 1
-18.538955 -3.676524 -20.331101 27.759023 0.195773 2.392657 0.064946 -0.019160 28180.000000 0 0 1
-18.960755 -4.517424 -21.372301 28.925639 0.233891 2.402189 0.067110 -0.022795 314991.000000 0 0 1
-18.780355 -5.867624 -21.004101 28.780254 0.302825 2.388840 0.085407 -0.019365 -231448.000000 0 0 1
-18.978655 -6.903424 -22.117201 29.950245 0.348868 2.401587 0.061332 -0.026926 306124.000000 0 0 1
-17.843355 -6.926524 -22.989901 29.914839 0.370280 2.447308 0.064289 -0.021050 490876.000000 0 0 1
-17.974955 -7.814924 -24.058901 31.032286 0.410115 2.457964 0.082555 -0.033477 -265057.000000 0 0 1
-16.605155 -7.864824 -24.714601 30.796074 0.442336 2.502311 0.069341 -0.034139 -936444.000000 0 0 1
-16.563155 -8.876624 -25.714321 31.849001 0.491974 2.510498 0.075746 -0.058629 386650.000000 0 0 1
-15.292055 -8.952624 -26.365611 31.766994 0.529647 2.549848 0.080146 -0.054993 922833.000000 0 0 1
-14.236755 -9.762024 -25.520851 30.810650 0.601058 2.546886 0.079753 -0.047744 -493914.000000 0 0 1
-13.560355 -9.122124 -24.513201 29.461728 0.592172 2.553563 0.066660 -0.033936 665219.000000 0 0 1
-12.508355 -9.930024 -23.914101 28.756713 0.670993 2.552780 0.038918 -0.026613 1349890.000000 0 0 1
-11.559555 -9.101824 -22.939901 27.252625 0.667002 2.571313 0.040253 -0.023040 90759.300000 0 0 1
-12.115355 -8.719224 -21.708801 26.345374 0.623815 2.539246 0.029584 -0.018735 -3647.690000 0 0 1
-11.164655 -7.977324 -20.990401 25.077563 0.620402 2.562609 0.030299 -0.016163 -600412.000000 0 0 1
-11.723555 -7.583524 -19.601001 24.065553 0.574166 2.522635 0.032175 -0.014609 852136.000000 0 1 0
-12.811255 -6.619624 -19.562401 24.302988 0.476921 2.506367 0.037952 -0.007225 1740020.000000 0 1 0
-14.092555 -7.237924 -19.832401 25.383297 0.474468 2.467569 0.051065 -0.015594 699079.000000 0 0 1
-15.304955 -6.313024 -19.494901 25.576300 0.391220 2.437540 0.053268 -0.009622 216315.000000 0 0 1
-15.618655 -5.993124 -18.133701 24.671665 0.366390 2.396465 0.045434 -0.010707 63286.800000 0 1 0
-14.980755 -4.864424 -17.712901 23.703006 0.313971 2.414763 0.044515 -0.013882 -671926.000000 0 1 0
-15.138755 -4.682924 -16.186101 22.651745 0.299997 2.366796 0.065757 -0.014151 -337120.000000 0 1 0
-16.378155 -4.373324 -15.602201 23.039067 0.260934 2.314755 0.091264 -0.023851 -243711.000000 0 1 0
-16.676855 -2.972424 -15.705701 23.100257 0.176384 2.318413 0.059402 -0.030683 -267606.000000 0 1 0
-17.953055 -2.509424 -14.998201 23.527759 0.138877 2.262004 0.066747 -0.034563 -354085.000000 0 1 0
-17.733255 -2.806224 -13.610201 22.529554 0.156945 2.219438 0.079270 -0.036263 795191.000000 0 1 0
-18.568355 -2.137924 -12.676701 22.584359 0.114633 2.166757 0.077763 -0.044944 -285756.000000 0 1 0
-17.889355 -0.938924 -11.993401 21.558114 0.052437 2.160758 0.059942 -0.040796 -74292.400000 0 1 0
-17.470455 0.060576 -12.943401 21.742864 -0.003467 2.208428 0.073253 -0.043047 768752.000000 0 1 0
-16.652355 1.005176 -12.261901 20.704240 -0.060289 2.204634 0.066283 -0.034710 -472794.000000 0 1 0
-16.163855 2.187376 -13.179001 20.970000 -0.134508 2.250380 0.073388 -0.033067 69240.000000 0 1 0
-15.488155 1.668176 -14.282301 21.134093 -0.107293 2.312838 0.075059 -0.035866 -1135910.000000 0 1 0
-14.141055 1.433676 -14.129001 20.041296 -0.101039 2.353212 0.063676 -0.030307 -1680460.000000 0 1 0
-13.616655 0.479876 -15.234001 20.438160 -0.035227 2.411887 0.058347 -0.028019 -243850.000000 0 1 0
-13.308055 1.119376 -16.401401 21.150965 -0.083915 2.458215 0.062825 -0.031913 241939.000000 0 1 0
-12.758755 0.142376 -17.292501 21.490386 -0.011159 2.505903 0.031531 -0.018783 -95501.600000 0 1 0
-12.154355 0.729276 -18.596501 22.228137 -0.059929 2.561880 0.046622 -0.018058 -320779.000000 0 1 0
-10.906655 1.338976 -18.377401 21.412073 -0.122156 2.602691 0.026221 -0.013088 -404610.000000 0 1 0
-10.566955 2.154276 -19.450801 22.240394 -0.201113 2.635346 0.034517 -0.014847 -991786.000000 0 1 0
-9.205355 2.740776 -19.245801 21.509330 -0.289379 2.678702 0.031005 -0.014398 -1093240.000000 0 1 0
-8.190955 1.729976 -19.436701 21.162937 -0.208147 2.734892 0.030730 -0.007937 619852.000000 0 1 0
-6.838955 2.159776 -19.322001 20.610087 -0.305893 2.786178 0.024579 -0.000365 774454.000000 0 1 0
-6.301655 3.254776 -20.280401 21.484857 -0.476757 2.805163 0.031544 0.002435 -879741.000000 0 1 0
-6.170155 2.772876 -21.587801 22.622838 -0.422356 2.837931 0.029784 0.004866 198366.000000 0 1 0
-5.636455 3.783376 -22.405801 23.411610 -0.591157 2.847405 0.025784 0.001354 -281557.000000 0 1 0
-5.034055 3.227176 -23.725101 24.467056 -0.570071 2.894695 0.043261 -0.008572 88056.400000 0 1 0
-3.851055 2.463876 -23.589201 24.028144 -0.569166 2.950157 0.057280 -0.011906 -169728.000000 0 1 0
-3.426055 1.982476 -24.836301 25.149750 -0.524571 2.983547 0.081772 -0.018160 1025390.000000 0 0 1
-1.988255 1.320776 -24.749701 24.864539 -0.586355 3.045446 0.064650 -0.016441 1468760.000000 0 1 0
-0.921555 2.271976 -24.492301 24.614710 -1.185456 3.041822 0.062512 -0.017215 1840820.000000 0 1 0
0.434145 1.773176 -24.409901 24.478070 1.330680 3.066944 0.059377 -0.017868 1209670.000000 0 1 0
0.866345 0.721276 -23.401201 23.428338 0.694277 3.093457 0.051657 -0.022785 -929610.000000 0 1 0
0.441745 -0.558124 -23.677001 23.687698 -0.901271 3.111539 0.055700 -0.017938 -26632.500000 0 1 0
0.749645 -1.346324 -22.535601 22.588224 -1.062741 3.073320 0.045267 -0.015609 -573354.000000 0 1 0
0.263445 -2.818224 -22.640101 22.816353 -1.477588 3.017216 0.052619 -0.023378 196754.000000 0 1 0
-1.003355 -3.142624 -22.082601 22.327653 1.261753 2.993300 0.047494 -0.016902 -237001.000000 0 1 0
-2.142655 -3.061824 -22.894001 23.197005 0.960207 2.979786 0.062491 -0.021146 -291300.000000 0 1 0
-2.810755 -1.722824 -22.895601 23.131732 0.549880 2.998586 0.060019 -0.014745 -1663190.000000 0 1 0
-3.399055 -1.378324 -21.639401 21.948053 0.385240 2.973688 0.042942 -0.009045 756962.000000 0 1 0
-4.345655 -0.297724 -21.696801 22.129721 0.068404 2.943467 0.029733 -0.005308 253977.000000 0 1 0
-5.674855 -0.532524 -22.394901 23.108855 0.093565 2.892371 0.033089 -0.004582 -1077840.000000 0 1 0
-6.442355 -1.604624 -21.883001 22.867980 0.244107 2.847024 0.040853 0.000882 1133110.000000 0 1 0
-7.836955 -1.217124 -21.776601 23.175841 0.154075 2.792329 0.034330 0.000063 1114650.000000 0 1 0
-8.789455 -2.402024 -21.625701 23.466896 0.266771 2.742826 0.028729 -0.006820 -553692.000000 0 1 0
-8.860955 -3.267124 -22.705201 24.590990 0.353245 2.747418 0.053772 -0.011695 -100349.000000 0 1 0
-9.259255 -4.552724 -22.313001 24.583147 0.456981 2.708458 0.032739 -0.009563 -421521.000000 0 1 0
-10.236255 -5.103524 -23.365801 26.015141 0.462506 2.686367 0.035443 -0.015819 171765.000000 0 0 1
-11.604555 -4.808424 -23.201101 26.383285 0.392821 2.645368 0.032717 -0.021581 651579.000000 0 0 1
-12.526155 -5.537924 -24.045101 27.672009 0.416272 2.623837 0.028930 -0.031721 -468081.000000 0 0 1
-13.976955 -5.483024 -23.693401 28.049886 0.373842 2.576778 0.045475 -0.034668 -1231780.000000 0 0 1
-14.482355 -4.225224 -24.026001 28.369700 0.283871 2.580905 0.055369 -0.032857 28773.000000 0 0 1
-15.884555 -4.110424 -23.835301 28.936763 0.253214 2.538707 0.076740 -0.033722 595313.000000 0 0 1
-16.445955 -2.689424 -24.151301 29.342594 0.162096 2.537609 0.062864 -0.025615 9339.240000 0 0 1
-16.147955 -2.450824 -25.521961 30.300718 0.150623 2.572312 0.050472 -0.026061 115853.000000 0 0 1
-16.479455 -1.148324 -25.932241 30.746906 0.069570 2.574395 0.036266 -0.012828 164266.000000 0 0 1
-17.939755 -0.953024 -26.442441 31.967887 0.053074 2.544825 0.039719 -0.007751 366763.000000 0 0 1
-18.351755 -1.677724 -27.609571 33.194730 0.091167 2.553041 0.051814 -0.019033 -258558.000000 0 0 1
-17.803255 -1.116824 -28.724641 33.812841 0.062649 2.585869 0.039126 -0.017300 -474121.000000 0 0 1
-17.973155 -2.031324 -29.990491 35.022709 0.112542 2.598889 0.038669 -0.015529 -22669.200000 0 0 1
-19.287355 -2.202024 -30.460341 36.120401 0.113677 2.574191 0.032904 -0.019050 -131143.000000 0 0 1
-19.223655 -2.764224 -31.764101 37.231008 0.142814 2.592814 0.043289 -0.025959 -617985.000000 0 0 1
-20.558955 -3.393124 -32.214441 38.366055 0.163569 2.567453 0.015399 -0.015899 127334.000000 0 0 1
-21.589355 -2.470724 -32.514951 39.107887 0.113946 2.552449 0.017544 -0.019133 345306.000000 0 0 1
-22.284355 -1.912224 -31.406681 38.556824 0.085600 2.522759 0.012770 -0.005879 37196.900000 0 0 1
-23.353955 -0.848424 -31.872491 39.521927 0.036313 2.508921 0.016413 -0.006206 -24865.100000 0 0 1
-22.734055 0.324476 -32.205061 39.422183 -0.014272 2.526860 0.018315 -0.011626 -90387.800000 0 0 1
-23.650955 1.129476 -32.918271 40.549426 -0.047720 2.518035 0.016780 -0.003879 -116497.000000 0 0 1
-23.202155 2.480876 -33.564521 40.878746 -0.106520 2.534088 0.032987 -0.000866 -738887.000000 0 0 1
-22.826555 3.566376 -32.690191 40.030229 -0.154985 2.526357 0.026208 0.001243 -162463.000000 0 0 1
-23.796655 4.061876 -31.827791 39.947315 -0.169062 2.492685 0.028012 0.000413 -835609.000000 0 0 1
-24.988455 4.749476 -32.485491 41.258788 -0.187826 2.477310 0.025245 -0.008543 -1012810.000000 0 0 1
-26.058105 3.932476 -32.868061 42.128359 -0.149782 2.465763 0.038080 -0.018214 -435364.000000 0 0 1
-26.850675 4.700976 -33.727831 43.366168 -0.173322 2.461867 0.054060 -0.022879 216007.000000 0 0 1
-28.248965 4.056676 -34.035123 44.416779 -0.142629 2.443808 0.065445 -0.021715 315336.000000 0 0 1
-28.135845 2.766776 33.562105 43.882750 -0.098021 0.700045 0.065492 -0.021883 665343.000000 0 0 1
-29.366685 2.329876 32.987161 44.226500 -0.079172 0.728958 0.072480 -0.021221 290641.000000 0 0 1
-29.359355 0.866376 32.643947 43.912978 -0.029501 0.732690 0.084267 -0.004497 -152305.000000 0 0 1
-29.393315 0.127976 33.797676 44.791364 -0.004354 0.715816 0.088618 -0.003222 236587.000000 0 0 1
-29.329685 -1.215524 33.381107 44.452292 0.041420 0.721308 0.073242 -0.005990 -487346.000000 0 0 1
-29.043395 -2.091324 -33.596401 44.459089 0.071883 2.427473 0.023895 0.000978 1855180.000000 0 0 1
-27.623345 -2.229424 -33.243171 43.279648 0.080533 2.446668 0.037935 -0.005227 2313530.000000 0 0 1
-26.897735 -1.099924 -32.723851 42.373912 0.040870 2.453194 0.039881 0.000043 -461287.000000 0 0 1
-27.094995 -0.693524 -31.229341 41.350834 0.025590 2.426799 0.065995 -0.000614 -530031.000000 0 0 1
-26.495165 -1.568924 -30.294761 40.276890 0.059146 2.422134 0.051367 -0.010217 334782.000000 0 0 1
-26.571525 -1.051124 -28.930381 39.295264 0.039538 2.398280 0.063353 -0.013908 146959.000000 0 0 1
-25.566435 -1.637824 -27.874201 37.858898 0.063974 2.398331 0.058337 -0.010364 254346.000000 0 0 1
-25.820045 -2.994324 -27.499051 37.839642 0.115453 2.384340 0.045147 -0.014036 531059.000000 0 0 1
-24.837555 -3.337824 -26.515231 36.484280 0.133586 2.384386 0.058175 -0.014806 199677.000000 0 0 1
-25.069005 -4.722824 -25.879461 36.338775 0.186210 2.363384 0.050572 -0.022257 1155080.000000 0 0 1
-26.333425 -4.688824 -25.163841 36.724015 0.176209 2.325695 0.058733 -0.020450 870876.000000 0 0 1
-26.570725 -5.888824 -24.452201 36.586771 0.218103 2.302764 0.050820 -0.024180 79346.300000 0 0 1
-27.638965 -5.583824 -23.397201 36.640422 0.199344 2.263425 0.068984 -0.027673 -22939.000000 0 0 1
-27.850905 -6.662124 -22.492001 36.413554 0.234795 2.236588 0.068860 -0.024718 629287.000000 0 0 1
-28.769765 -6.256524 -21.423701 36.411790 0.214135 2.199841 0.077994 -0.018147 682118.000000 0 0 1
-29.154145 -7.317324 -20.326601 36.286060 0.245908 2.165395 0.089043 -0.022746 681236.000000 0 0 1
-28.084765 -7.665724 -19.396301 34.981908 0.266459 2.158518 0.086663 -0.021994 1022680.000000 0 0 1
-28.567065 -8.586324 -18.422801 35.059974 0.291977 2.124058 0.091369 -0.017448 163071.000000 0 0 1
-29.362185 -7.943224 -17.272801 34.979743 0.264202 2.087244 0.079482 -0.013225 39615.100000 0 0 1
-28.503825 -7.214124 -16.434501 33.683890 0.247888 2.080483 0.073587 -0.021226 404639.000000 0 0 1
-29.223335 -6.519324 -15.445001 33.690547 0.219492 2.047032 0.078602 -0.015245 -56872.500000 0 0 1
-28.277295 -5.653924 -14.589901 32.317758 0.197343 2.039188 0.088245 -0.022967 102761.000000 0 0 1
-27.671665 -4.567124 -15.296001 31.946007 0.163572 2.070093 0.087987 -0.018347 237229.000000 0 0 1
-26.903155 -3.856324 -14.368001 30.742324 0.142371 2.057108 0.083401 -0.027322 -255677.000000 0 0 1
-14.112655 21.168176 -5.048001 25.937252 -0.982776 1.766670 0.055828 -0.024774 -127570.000000 0 0 1
-14.198755 20.400176 -6.222801 25.622160 -0.962752 1.816118 0.091468 -0.030777 361700.000000 0 0 1
-15.170955 19.351176 -6.098601 25.334144 -0.905900 1.813911 0.081906 -0.047015 263735.000000 0 0 1
-15.432355 18.518976 -7.415501 25.221018 -0.876062 1.869227 0.114119 -0.055953 78007.700000 0 0 1
-14.293155 17.793876 -7.914001 24.156733 -0.894069 1.904570 0.108798 -0.051287 387308.000000 0 1 0
-14.494955 16.910376 -8.955401 24.005495 -0.862158 1.953097 0.102545 -0.052556 -411867.000000 0 1 0
-15.313255 15.659376 -8.644901 23.546681 -0.796573 1.946728 0.102161 -0.051352 -24558.300000 0 1 0
-16.679055 15.870476 -8.359501 24.493758 -0.760562 1.919086 0.103285 -0.042514 -23645.700000 0 1 0
-17.077155 14.975476 -7.316001 23.862481 -0.719922 1.882405 0.112753 -0.033536 -730283.000000 0 1 0
-18.465055 15.244876 -6.780701 24.886591 -0.690161 1.846749 0.113491 -0.029348 -628994.000000 0 1 0
-19.501155 14.627976 -7.532701 25.514983 -0.643570 1.870489 0.123515 -0.035141 -241673.000000 0 0 1
-20.713455 15.221376 -7.122901 26.673456 -0.633737 1.841117 0.076494 -0.028934 -57157.000000 0 0 1
-21.940055 14.630776 -7.875301 27.521737 -0.588131 1.861001 0.089942 -0.016048 108033.000000 0 0 1
-22.056055 13.198376 -7.616501 26.808167 -0.539243 1.858876 0.125491 -0.028896 -138335.000000 0 0 1
-22.837355 12.613276 -8.608601 27.472669 -0.504614 1.889517 0.123631 -0.027474 -127814.000000 0 0 1
-23.036855 11.069076 -8.320801 26.878558 -0.447922 1.885537 0.120806 -0.028899 447134.000000 0 0 1
-21.835155 10.288476 -8.289101 25.521284 -0.440334 1.901588 0.127227 -0.029416 681236.000000 0 0 1
-22.158055 9.114076 -7.554801 25.122118 -0.390228 1.876247 0.138219 -0.035823 942598.000000 0 0 1
-20.837655 8.330276 -7.198301 23.567285 -0.380308 1.881193 0.107263 -0.018764 514731.000000 0 1 0
-20.491055 7.432376 -8.187201 23.284197 -0.347955 1.930098 0.095557 -0.021492 466838.000000 0 1 0
-19.361355 6.645176 -7.819301 21.912597 -0.330621 1.935680 0.062863 -0.009620 94128.300000 0 1 0
-19.293955 5.348176 -8.662401 21.815061 -0.270405 1.979133 0.051426 -0.017483 -707902.000000 0 1 0
-20.049455 4.244776 -8.246201 22.090691 -0.208634 1.953348 0.063416 -0.027609 352751.000000 0 1 0
-20.160555 3.455576 -9.407101 22.514052 -0.169753 2.001855 0.076336 -0.026886 -412567.000000 0 1 0
-21.002555 2.179976 -9.304901 23.074679 -0.103425 1.985864 0.075819 -0.033744 -442993.000000 0 1 0
-20.415855 1.111776 -8.670101 22.208418 -0.054403 1.971859 0.053594 -0.030600 164069.000000 0 1 0
-21.397355 0.221476 -8.175401 22.907052 -0.010350 1.935738 0.072492 -0.026786 88209.700000 0 1 0
-21.640955 -1.059124 -9.045501 23.479220 0.048902 1.966281 0.076653 -0.043686 214522.000000 0 1 0
-20.564655 -1.957224 -8.808401 22.457153 0.094888 1.973852 0.058004 -0.027909 694786.000000 0 1 0
-20.693555 -3.245224 -9.366801 22.945406 0.155556 1.991301 0.054983 -0.022202 -283284.000000 0 1 0
-21.783555 -4.020024 -8.606201 23.764481 0.182491 1.941365 0.069189 -0.019120 48601.800000 0 1 0
-21.394255 -4.371624 -7.240701 23.005500 0.201562 1.890977 0.055698 -0.016261 554261.000000 0 1 0
-22.372155 -5.142724 -6.536401 23.868085 0.225946 1.848196 0.078670 -0.013404 60546.100000 0 1 0
-22.440955 -6.663024 -6.700401 24.349286 0.288623 1.849572 0.079942 -0.023752 -699263.000000 0 1 0
-21.303155 -7.272124 -6.206401 23.350110 0.328960 1.839827 0.065224 -0.027580 -136865.000000 0 1 0
-21.509455 -8.656324 -6.112201 23.978065 0.382610 1.828549 0.074317 -0.029181 738141.000000 0 1 0
-20.293055 -9.453724 -5.450601 23.041051 0.435965 1.809621 0.071443 -0.031012 445764.000000 0 1 0
-19.238655 -9.643824 -6.344101 22.436061 0.464666 1.857470 0.072027 -0.021251 89417.500000 0 1 0
-18.500155 -10.783724 -5.811901 22.188345 0.527750 1.835823 0.089805 -0.008651 389587.000000 0 1 0
-17.456655 -11.515724 -6.717001 21.965082 0.583147 1.881579 0.066853 -0.006999 8730.340000 0 1 0
-16.448455 -10.676224 -7.193301 20.887245 0.575722 1.922382 0.068120 -0.033624 437428.000000 0 1 0
-16.873255 -10.046824 -8.422101 21.367667 0.537052 1.975941 0.074893 -0.038283 -120139.000000 0 1 0
-16.158155 -10.719024 -9.660101 21.663356 0.585725 2.032997 0.094818 -0.025025 260372.000000 0 1 0
-16.666555 -11.900324 -10.153201 22.857805 0.620076 2.031066 0.142586 -0.027720 584319.000000 0 1 0
-15.585655 -12.598524 -10.815201 22.772879 0.679806 2.065665 0.114745 -0.012924 787073.000000 0 1 0
-15.953955 -13.908124 -11.532601 24.103226 0.716996 2.069705 0.149259 -0.015012 50913.500000 0 1 0
-16.607655 -13.806924 -12.799501 25.105230 0.693572 2.105788 0.125191 -0.016163 246114.000000 0 0 1
-16.870355 -15.073824 -13.283201 26.234948 0.729218 2.101705 0.120904 -0.015428 -240240.000000 0 0 1
-16.968255 -14.943024 -14.831201 27.040343 0.722019 2.151347 0.123665 -0.016230 -165508.000000 0 0 1
-17.146155 -16.193724 -15.397701 28.165875 0.756839 2.149190 0.112338 -0.009823 200382.000000 0 0 1
-17.212255 -16.173824 -16.835301 29.004856 0.754304 2.190054 0.094424 -0.012986 -131562.000000 0 0 1
-17.705855 -17.556524 -17.398001 30.404264 0.781163 2.180010 0.092137 -0.020052 23608.600000 0 0 1
-19.056055 -17.754424 -17.056301 31.133105 0.750053 2.150590 0.061706 -0.012810 -554100.000000 0 0 1
-19.878255 -18.144524 -18.159301 32.467353 0.739833 2.164349 0.069592 -0.013450 627314.000000 0 0 1
-21.379055 -17.989024 -17.754501 33.104249 0.699499 2.136868 0.070622 -0.019414 209584.000000 0 0 1
-21.675055 -16.666724 -17.307801 32.359661 0.655510 2.135135 0.055045 -0.011096 250488.000000 0 0 1
-21.676855 -16.538324 -15.907701 31.566710 0.651737 2.098950 0.047269 -0.012056 -278068.000000 0 0 1
-21.439555 -15.151224 -15.433601 30.453410 0.615205 2.102258 0.049961 -0.015387 -237509.000000 0 0 1
-22.628655 -14.411924 -15.482201 30.975121 0.567102 2.094195 0.070461 -0.013223 235023.000000 0 0 1
-22.463855 -13.110024 -14.983901 30.016909 0.528277 2.093451 0.063424 -0.017375 -170275.000000 0 0 1
-23.836855 -12.484124 -14.658001 30.641573 0.482452 2.069594 0.073713 -0.024398 -355043.000000 0 0 1
-24.409655 -13.039024 -13.520301 30.800097 0.490612 2.025248 0.094242 -0.015283 720185.000000 0 0 1
-25.401775 -12.126924 -12.998401 31.004369 0.445408 2.003409 0.116982 -0.016090 365457.000000 0 0 1
-26.224945 -12.643724 -11.798201 31.413517 0.449246 1.955816 0.114762 -0.019053 918119.000000 0 0 1
-27.284375 -11.765024 -11.282801 31.782928 0.407110 1.933706 0.097093 -0.023163 1338780.000000 0 0 1
-27.883125 -12.413124 -10.156001 32.166732 0.418842 1.892022 0.092315 -0.018388 -415566.000000 0 0 1
-28.813735 -11.535324 -9.379801 32.423382 0.380800 1.864283 0.104677 -0.028674 -713069.000000 0 0 1
-28.127325 -10.517224 -8.726701 31.271612 0.357819 1.853613 0.108220 -0.037728 -160789.000000 0 0 1
-28.929785 -9.696324 -7.929701 31.525091 0.323400 1.825063 0.128042 -0.041716 -317894.000000 0 0 1
-28.127455 -8.498824 -7.384401 30.297081 0.293432 1.817009 0.115669 -0.035520 507649.000000 0 0 1
-27.231675 -8.811124 -6.293501 29.305430 0.312930 1.787238 0.096550 -0.039428 655369.000000 0 0 1
-26.410055 -7.807924 -5.728201 28.129468 0.287454 1.775868 0.091573 -0.033923 -59127.900000 0 0 1
-27.156525 -6.721724 -4.973301 28.414647 0.242641 1.746728 0.119311 -0.037783 -759910.000000 0 0 1
-27.811875 -7.122224 -3.790901 28.958546 0.250698 1.702081 0.115367 -0.040935 418784.000000 0 0 1
-27.102025 -7.198624 -2.507701 28.153659 0.259618 1.659986 0.131864 -0.035098 -80582.900000 0 0 1
-26.568245 -5.840924 -1.977601 27.274511 0.216403 1.643367 0.122886 -0.031870 -91588.200000 0 0 1
-27.535475 -4.960824 -1.431301 28.015367 0.178249 1.621908 0.128774 -0.033893 412315.000000 0 0 1
-26.962465 -3.834324 -0.744501 27.243914 0.141262 1.598127 0.120424 -0.038735 -232418.000000 0 0 1
-27.997105 -2.841924 -0.097901 28.141145 0.101161 1.574275 0.137713 -0.044221 998959.000000 0 0 1
-28.956725 -3.436124 0.838099 29.171927 0.118112 1.542063 0.139227 -0.042935 845998.000000 0 0 1
-28.430455 -3.640524 2.101599 28.739536 0.127357 1.497605 0.133084 -0.038391 -324899.000000 0 0 1
-29.530375 -3.870124 3.155899 29.949635 0.130313 1.465227 0.127833 -0.034473 -180116.000000 0 0 1
-29.882065 -5.238724 3.318499 30.518756 0.173550 1.461845 0.130397 -0.030796 -117389.000000 0 0 1
-30.877515 -5.220924 4.317599 31.612033 0.167501 1.433787 0.138359 -0.032014 91360.400000 0 0 1
-31.821545 -6.443924 4.137099 32.729963 0.199800 1.444056 0.126996 -0.031290 500753.000000 0 0 1
-31.048265 -7.651124 4.399699 32.278349 0.241613 1.434066 0.125576 -0.023518 715307.000000 0 0 1
-31.732395 -8.792824 3.968699 33.166387 0.270311 1.450849 0.134135 -0.030559 -202928.000000 0 0 1
-31.055395 -10.163024 4.331799 32.961934 0.316270 1.438997 0.116988 -0.017622 50435.800000 0 0 1
-31.076775 -10.454624 5.714399 33.282420 0.324519 1.398247 0.109224 -0.017221 509425.000000 0 0 1
-30.027065 -11.332324 6.115299 32.671748 0.360876 1.382512 0.098281 -0.013467 -36773.200000 0 0 1
-29.873575 -11.471624 7.711199 32.916428 0.366643 1.334333 0.094640 -0.019999 -38772.600000 0 0 1
-29.564985 -10.327624 8.465399 32.440887 0.336068 1.306792 0.112120 -0.015914 296778.000000 0 0 1
-29.458835 -10.637824 9.830399 32.827169 0.346536 1.266670 0.124416 -0.023042 -282337.000000 0 0 1
-29.492135 -9.402624 10.731699 32.762246 0.308630 1.237073 0.129668 -0.019419 -748242.000000 0 0 1
-28.310215 -8.686524 10.754799 31.505391 0.297714 1.222429 0.122137 -0.019091 -513035.000000 0 0 1
-28.372195 -7.645324 11.683899 31.621922 0.263213 1.192339 0.150787 -0.015772 -224056.000000 0 0 1
-27.387235 -6.493124 11.486799 30.400129 0.232788 1.183319 0.153160 -0.015899 -363503.000000 0 0 1
-27.693465 -5.637924 10.458599 30.134639 0.200839 1.216359 0.171188 -0.020470 -89586.800000 0 0 1
-26.935855 -4.488224 10.488399 29.252196 0.165109 1.204081 0.151890 -0.023446 -555854.000000 0 0 1
-27.138865 -3.568724 9.215899 28.882289 0.130748 1.246033 0.169975 -0.028425 -67183.300000 0 0 1
-26.651455 -4.182024 8.052199 28.153637 0.155646 1.280737 0.119758 -0.017685 264133.000000 0 0 1
-26.884845 -3.344924 6.861199 27.947441 0.123781 1.322757 0.131057 -0.034789 -466124.000000 0 0 1
-26.181195 -3.808524 5.640499 27.051341 0.144455 1.360744 0.109633 -0.017782 -1238720.000000 0 0 1
-24.811055 -3.613124 5.621599 25.695243 0.144609 1.350233 0.124706 -0.034515 -697589.000000 0 0 1
-24.207955 -4.194424 4.522599 24.981437 0.171563 1.388754 0.129100 -0.026772 -928459.000000 0 1 0
-22.719155 -3.880324 4.542499 23.491514 0.169163 1.376203 0.128461 -0.025859 -633894.000000 0 1 0
-22.328155 -2.530224 4.499299 22.917073 0.112839 1.373183 0.093822 -0.022035 1276440.000000 0 1 0
-20.891155 -2.373824 4.379899 21.476939 0.113143 1.365421 0.073305 -0.018994 985001.000000 0 1 0
-20.415155 -0.907924 4.717799 20.972852 0.044444 1.343907 0.050137 -0.024240 -418582.000000 0 1 0
-20.542155 0.142576 3.761099 20.884117 -0.006941 1.389715 0.053434 -0.018784 1364880.000000 0 1 0
-21.877955 0.680176 3.787899 22.213864 -0.031080 1.399439 0.065752 -0.038212 579884.000000 0 1 0
-22.025055 1.800676 2.695699 22.262351 -0.081574 1.449411 0.092844 -0.024023 -375500.000000 0 1 0
-21.120655 2.875176 2.873399 21.508258 -0.135299 1.436801 0.053970 -0.021393 15478.400000 0 1 0
-21.384855 4.007276 2.033499 21.851897 -0.185240 1.477603 0.072672 -0.013608 -406818.000000 0 1 0
-20.253255 4.542776 1.148099 20.788201 -0.220647 1.515540 0.034314 -0.005737 -849337.000000 0 1 0
-20.576255 5.320676 0.009899 21.253046 -0.253041 1.570331 0.053950 -0.003195 541863.000000 0 1 0
-21.493455 4.791076 -0.964401 22.042076 -0.219323 1.614563 0.089252 -0.012703 177177.000000 0 1 0
-21.018655 3.593076 -1.797401 21.399176 -0.169310 1.654889 0.072895 -0.009862 -402822.000000 0 1 0
-20.752155 2.425076 -1.047301 20.919603 -0.116331 1.620880 0.033572 -0.005407 377070.000000 0 1 0
-20.564955 1.287576 -1.911301 20.693678 -0.062529 1.663290 0.042937 -0.003019 -178552.000000 0 1 0
-19.801155 0.151376 -1.156601 19.835483 -0.007645 1.629139 0.044997 -0.003139 -288044.000000 0 1 0
-20.531655 -0.523424 -0.160601 20.538954 0.025488 1.578616 0.054735 -0.010348 332534.000000 0 1 0
-19.784955 -1.274324 0.763899 19.840663 0.064320 1.532285 0.045070 -0.010491 -486132.000000 0 1 0
-19.184555 -2.609924 0.289699 19.363440 0.135213 1.555835 0.048640 -0.006853 -114844.000000 0 1 0
-18.370755 -3.223524 1.260999 18.694006 0.173702 1.503290 0.041594 -0.005855 366139.000000 0 1 0
-17.722455 -4.448824 0.863799 18.292720 0.245945 1.523558 0.037031 -0.000567 51447.100000 0 1 0
-18.560355 -5.746224 0.581799 19.438219 0.300238 1.540861 0.037124 -0.004810 -65129.700000 0 1 0
-19.223755 -6.135424 1.781099 20.257554 0.308939 1.482760 0.059855 -0.009921 761468.000000 0 1 0
-20.296255 -7.054824 1.628499 21.549026 0.334528 1.495152 0.062578 -0.015369 59436.000000 0 1 0
-20.995655 -7.345924 2.970999 22.441189 0.336566 1.438016 0.077512 -0.015856 397700.000000 0 1 0
-20.156955 -8.079924 3.890499 22.061822 0.381239 1.393524 0.070394 -0.012737 1024320.000000 0 1 0
-20.997755 -8.709524 4.818299 23.237417 0.393186 1.361930 0.075941 -0.013084 -56405.000000 0 1 0
-20.295455 -9.695724 5.731599 23.211286 0.445672 1.321284 0.076330 -0.007873 -463404.000000 0 1 0
-19.704355 -10.780924 5.132799 23.039869 0.500640 1.346132 0.076512 -0.010598 -77295.800000 0 1 0
-18.759955 -11.369624 5.965099 22.732942 0.544862 1.305289 0.076965 -0.016523 -432629.000000 0 1 0
-18.021355 -12.605924 5.528099 22.676826 0.610390 1.324537 0.063009 -0.013159 -608589.000000 0 1 0
-18.909655 -13.666524 5.474199 23.964887 0.625817 1.340336 0.073403 -0.013053 71230.100000 0 1 0
-18.322555 -14.850724 4.904599 24.089731 0.681120 1.365766 0.072296 -0.007063 -453046.000000 0 1 0
-19.239255 -16.029824 5.041099 25.544410 0.694650 1.372146 0.085150 -0.016236 -483546.000000 0 0 1
-18.657555 -17.246324 4.599699 25.820482 0.746113 1.391699 0.092807 -0.018110 -5136.930000 0 0 1
-19.285155 -18.381424 5.110399 27.127664 0.761410 1.381281 0.090544 -0.019025 -387311.000000 0 0 1
-18.369655 -19.596124 4.966199 27.315114 0.817692 1.387968 0.096687 -0.023967 -629121.000000 0 0 1
-18.423555 -20.149924 3.674499 27.549025 0.830124 1.437017 0.101505 -0.019266 545834.000000 0 0 1
-17.637655 -21.379024 3.504199 27.936158 0.880997 1.445029 0.090563 -0.012491 961824.000000 0 0 1
-16.097755 -21.120324 3.486799 26.783644 0.919537 1.440242 0.108265 -0.009440 -85565.100000 0 0 1
-15.392955 -22.316224 3.667399 27.357023 0.966972 1.436335 0.094215 -0.012494 -347300.000000 0 0 1
-14.031455 -22.039324 3.920499 26.419384 1.003859 1.421851 0.080437 -0.013055 -73183.200000 0 0 1
-13.195155 -23.238524 4.307999 27.068431 1.054379 1.410965 0.099901 -0.014204 -303123.000000 0 0 1
-13.162655 -24.125524 3.198899 27.668201 1.071345 1.454921 0.087189 -0.012234 301064.000000 0 0 1
-12.504155 -25.364144 3.508399 28.495658 1.112776 1.447363 0.073767 -0.012958 232766.000000 0 0 1
19.382345 18.773776 -24.535701 36.470955 0.769450 2.308711 0.083332 -0.005052 1041090.000000 0 0 1
18.393245 18.844476 -25.624121 36.742636 0.797515 2.342552 0.067669 -0.008766 1020330.000000 0 0 1
19.036745 19.083976 -26.854731 38.049604 0.786637 2.354323 0.077262 -0.013651 -31999.100000 0 0 1
17.989045 19.227276 -27.962661 38.408388 0.818657 2.386248 0.073828 -0.012791 6072.070000 0 0 1
17.441445 20.513676 -27.970501 38.824784 0.866166 2.375217 0.069119 -0.011553 568802.000000 0 0 1
16.411445 20.588876 -28.984851 39.158127 0.897825 2.404164 0.057612 -0.014700 452645.000000 0 0 1
16.072545 22.011776 -29.408121 40.095917 0.940102 2.394172 0.060597 -0.013563 -370360.000000 0 0 1
15.456345 22.723276 -28.357791 39.489368 0.973484 2.371882 0.062794 -0.014433 313192.000000 0 0 1
15.237045 24.121476 -28.741931 40.498293 1.007408 2.359879 0.060127 -0.006233 -299033.000000 0 0 1
14.452345 24.896476 -27.687731 39.941398 1.044840 2.336728 0.056741 -0.008600 273142.000000 0 0 1
13.074945 24.550476 -27.605411 39.188503 1.081430 2.352411 0.058728 -0.025130 463533.000000 0 0 1
12.411345 25.243976 -26.534951 38.670447 1.113846 2.327023 0.063201 -0.017907 -336957.000000 0 0 1
10.889845 25.195276 -26.429181 38.103704 1.162828 2.337287 0.080386 -0.019530 -16251.900000 0 0 1
10.183445 26.045076 -25.526271 37.863426 1.198079 2.310633 0.076327 -0.021584 134799.000000 0 0 1
10.095845 27.376976 -25.971531 39.063350 1.217498 2.298098 0.081486 -0.026931 -173116.000000 0 0 1
9.556345 28.397676 -24.912701 38.966581 1.246182 2.264430 0.098689 -0.030543 -46994.700000 0 0 1
10.464845 28.610076 -23.855001 38.692512 1.220138 2.235121 0.090092 -0.026297 4285.220000 0 0 1
9.873445 29.306576 -22.764201 38.400120 1.245837 2.205347 0.108556 -0.030947 -73111.200000 0 0 1
10.900745 29.751276 -21.707901 38.408302 1.219590 2.171457 0.083185 -0.034241 -188226.000000 0 0 1
11.860445 30.665976 -22.177101 39.659754 1.201754 2.164198 0.072433 -0.036041 -199838.000000 0 0 1
12.579745 31.125076 -21.059201 39.629664 1.186702 2.131049 0.056065 -0.030142 -174717.000000 0 0 1
13.835445 31.931176 -21.503701 40.907563 1.161925 2.124294 0.057331 -0.021022 517091.000000 0 0 1
14.898145 31.086876 -21.963301 40.874628 1.123892 2.138068 0.048094 -0.018893 -612442.000000 0 0 1
15.885145 31.846376 -22.532001 42.121498 1.108105 2.135220 0.033862 -0.011229 -622288.000000 0 0 1
17.061645 30.954376 -23.023501 42.182398 1.067042 2.148150 -0.003478 0.001793 16358.800000 0 0 1
17.854345 30.377476 -22.034101 41.558035 1.039433 2.129634 0.000943 0.003799 94163.300000 0 0 1
19.121445 30.053576 -22.602501 42.186730 1.004151 2.136219 0.010136 0.011157 262202.000000 0 0 1
20.149845 29.363376 -21.698201 41.701751 0.969376 2.118020 0.019246 0.010325 129738.000000 0 0 1
20.799245 30.208176 -20.712601 42.120712 0.967810 2.084888 0.018477 0.019718 780329.000000 0 0 1
21.807545 29.435376 -20.031201 41.752358 0.933169 2.071180 0.034784 0.016279 541376.000000 0 0 1
22.515445 30.084176 -18.840001 42.035087 0.928310 2.035544 0.044536 0.009620 79970.800000 0 0 1
23.348145 31.189076 -19.207301 43.437481 0.928192 2.028827 0.048968 0.010804 87596.100000 0 0 1
23.738645 31.913176 -18.087201 43.693488 0.931242 1.997592 0.050584 0.011146 31299.400000 0 0 1
25.020045 32.775176 -18.357401 45.135452 0.918784 1.989655 0.069854 0.005614 811734.000000 0 0 1
26.142545 31.909576 -18.599901 45.250525 0.884416 1.994394 0.085015 0.004813 -930378.000000 0 0 1
27.293745 32.618376 -18.322301 46.309974 0.874039 1.977566 0.087173 -0.007920 -433619.000000 0 0 1
28.478145 31.927776 -19.083501 46.846213 0.842444 1.990363 0.076287 -0.009673 270173.000000 0 0 1
28.850245 30.645976 -18.654101 46.037897 0.815571 1.987983 0.052447 0.001208 -697777.000000 0 0 1
30.191145 30.458976 -18.988201 46.902092 0.789814 1.987609 0.029440 0.004127 -574242.000000 0 0 1
30.875445 29.355476 -18.191701 46.324670 0.760168 1.974362 0.034223 0.003690 -234696.000000 0 0 1
31.236645 29.781476 -16.868601 46.338041 0.761555 1.943391 0.034033 0.007645 83239.300000 0 0 1
31.641045 28.703676 -16.058001 45.638976 0.736760 1.930341 0.032334 0.009279 -469120.000000 0 0 1
32.129045 29.177676 -14.692101 45.819975 0.737294 1.897210 0.041931 -0.000135 847917.000000 0 0 1
33.463245 29.725876 -14.715301 47.116415 0.726321 1.888428 0.011636 0.001788 673769.000000 0 0 1
33.427345 31.150376 -14.771701 48.020167 0.750153 1.883481 0.031884 -0.007410 -330344.000000 0 0 1
34.862545 31.675076 -14.953401 49.419750 0.737530 1.878194 0.038964 -0.009945 -76699.700000 0 0 1
35.660145 31.660176 -13.792101 49.641059 0.726051 1.852338 0.030793 -0.009229 -456884.000000 0 0 1
-36.343726 32.110276 -14.205701 50.534525 -0.723633 1.855746 0.035174 -0.021027 -413394.000000 0 0 1
-35.419126 32.324176 -13.001501 49.683054 -0.739743 1.835568 0.032361 -0.006104 -620477.000000 0 0 1
-35.822326 33.268676 -12.085801 50.359810 -0.748454 1.813151 0.046930 -0.012469 -99014.800000 0 0 1
-34.963026 33.402076 -10.968301 49.582411 -0.762570 1.793855 0.040915 -0.004759 -52070.600000 0 0 1
-35.353326 -33.611968 -10.095701 49.815110 0.760154 1.774873 0.052316 -0.004146 -436310.000000 0 0 1
-34.354326 -33.071768 -9.303101 48.585072 0.766379 1.763467 0.053961 -0.007581 -479193.000000 0 0 1
-34.277826 -33.735368 -8.005401 48.755829 0.777423 1.735737 0.046409 -0.010775 158449.000000 0 0 1
-33.971926 -32.868268 -6.740801 47.747808 0.768888 1.712445 0.066180 -0.013072 35232.900000 0 0 1
-35.030126 -31.945768 -6.605001 47.867190 0.739379 1.709224 0.070052 -0.014941 -249684.000000 0 0 1
-34.921126 -31.092068 -5.504601 47.079744 0.727459 1.687985 0.079806 -0.018536 -815302.000000 0 0 1
-36.125526 -30.286968 -5.042601 47.410778 0.697710 1.677358 0.074674 -0.014588 -1026550.000000 0 0 1
36.260245 -31.158368 -4.437601 48.013972 -0.709868 1.663352 0.064720 -0.020316 -677398.000000 0 0 1
34.988045 -30.657568 -4.132601 46.702549 -0.719526 1.659400 0.045313 -0.013128 -170166.000000 0 0 1
34.818045 -29.702468 -2.920301 45.859143 -0.706278 1.634519 0.041506 -0.007394 -744228.000000 0 0 1
35.198545 -28.354468 -3.157501 45.308754 -0.678121 1.640541 0.070420 -0.014434 825221.000000 0 0 1
34.307945 -27.494468 -2.405001 44.031408 -0.675595 1.625444 0.070710 -0.008646 262629.000000 0 0 1
34.679245 -26.017468 -2.616301 43.432749 -0.643649 1.631071 0.098451 -0.017809 -74594.400000 0 0 1
34.743145 -25.562168 -3.944401 43.313610 -0.634317 1.661989 0.085666 -0.025154 251178.000000 0 0 1
34.516345 -24.136868 -3.976501 42.305780 -0.610248 1.664930 0.093821 -0.030197 -292770.000000 0 0 1
34.101245 -23.670268 -5.327201 41.851589 -0.606767 1.698430 0.094269 -0.041213 -132168.000000 0 0 1
35.189145 -23.627468 -6.225601 42.840299 -0.591301 1.716634 0.101197 -0.041057 396296.000000 0 0 1
34.658645 -23.345168 -7.488901 42.453529 -0.592769 1.748127 0.092465 -0.039669 -149151.000000 0 0 1
35.749745 -23.197968 -8.558601 43.467685 -0.575601 1.768987 0.089795 -0.049012 -62373.000000 0 0 1
36.241445 -24.406368 -9.112101 44.633435 -0.592676 1.776396 0.099006 -0.028715 -30791.900000 0 0 1
-35.759026 -24.198768 -9.678101 44.248773 0.594929 1.791299 0.091438 -0.028638 179758.000000 0 0 1
-35.042126 -25.444768 -10.197901 44.490268 0.628042 1.802069 0.096757 -0.030176 -275683.000000 0 0 1
-34.583426 -26.366768 -9.218301 44.454436 0.651397 1.779677 0.087516 -0.025861 -94289.900000 0 0 1
-35.394926 -27.451168 -8.887701 45.665727 0.659665 1.766672 0.076588 -0.020068 -504727.000000 0 0 1
-34.463326 -28.526968 -8.379501 45.516203 0.691433 1.755952 0.070370 -0.010908 -64203.700000 0 0 1
-33.769826 -29.120968 -9.471701 45.586676 0.711613 1.780095 0.059128 -0.006430 -94533.500000 0 0 1
-32.897526 -30.098568 -8.992501 45.486658 0.740997 1.769803 0.060694 -0.014962 -332357.000000 0 0 1
-32.171926 -30.903468 -10.087901 45.736450 0.765291 1.793191 0.043726 -0.008444 -269146.000000 0 0 1
-31.219126 -30.195268 -10.843101 44.765621 0.768728 1.815449 0.034913 0.003837 122162.000000 0 0 1
-30.877826 -30.988368 -11.993001 45.360237 0.787185 1.838372 0.022351 0.008632 4002.030000 0 0 1
-31.059526 -30.173668 -13.330101 45.308233 0.770932 1.869424 0.004051 0.009726 851.110000 0 0 1
-30.065526 -29.164168 -13.475301 44.000776 0.770181 1.882049 0.008631 0.017950 224779.000000 0 0 1
-30.270626 -28.465668 -14.687001 44.071681 0.754678 1.910548 -0.001867 0.019153 -136939.000000 0 0 1
-29.081626 -27.573068 -15.061301 42.811889 0.758777 1.930292 0.009000 0.021143 -358680.000000 0 0 1
-27.969626 -28.297668 -15.484801 42.694696 0.791228 1.941946 0.022100 0.012730 -810836.000000 0 0 1
-26.936226 -27.464568 -15.915001 41.631118 0.795110 1.963065 0.039328 0.017775 647225.000000 0 0 1
-25.680526 -28.304668 -16.431001 41.600738 0.833968 1.976830 0.053819 0.008404 480803.000000 0 0 1
-25.939326 -29.081568 -17.605301 42.761347 0.842446 1.995127 0.041348 0.009218 114595.000000 0 0 1
-26.342326 -28.390568 -18.787201 43.045341 0.822803 2.022447 0.038512 0.013385 -212723.000000 0 0 1
-25.230126 -27.574568 -19.459201 42.137591 0.829767 2.050821 0.053528 0.005563 -18913.500000 0 0 1
-24.934226 -26.339468 -18.788201 40.847028 0.812798 2.048752 0.057157 0.006372 391971.000000 0 0 1
-23.517226 -26.172768 -18.851901 39.918265 0.838790 2.062652 0.063134 -0.007327 677549.000000 0 0 1
-22.981626 -24.986668 -18.014201 38.431759 0.827173 2.058651 0.067152 -0.010827 -53944.600000 0 0 1
-23.389226 -25.117568 -16.659301 38.150759 0.821014 2.022690 0.080378 -0.014017 389965.000000 0 0 1
-22.575826 -24.372668 -15.749601 36.766082 0.823652 2.013488 0.080557 -0.018847 61168.400000 0 0 1
-22.970026 -24.436968 -14.268801 36.447032 0.816332 1.973051 0.065517 -0.011100 19366.700000 0 0 1
-24.304126 -24.020968 -14.020201 36.935937 0.779539 1.960140 0.038503 0.004651 191644.000000 0 0 1
-24.533126 -24.059068 -12.643101 36.613672 0.775643 1.923366 0.032036 0.007641 62121.000000 0 0 1
-26.034126 -23.921468 -12.270101 37.424159 0.743133 1.904840 0.026591 0.015651 61012.500000 0 0 1
-26.760326 -25.172468 -12.444801 38.789705 0.754832 1.897399 0.034864 0.014252 942839.000000 0 0 1
-28.125126 -25.183168 -12.020001 39.619377 0.730266 1.879041 0.026334 0.017191 705314.000000 0 0 1
-29.130526 -24.258968 -12.807601 40.013994 0.694405 1.896608 0.027701 0.011814 -921872.000000 0 0 1
-29.479626 -22.956868 -12.276201 39.329013 0.661640 1.888242 0.032296 0.005316 87426.400000 0 0 1
-30.056226 -22.970268 -10.982901 39.390786 0.652555 1.853360 0.046127 -0.004872 -362910.000000 0 0 1
-31.523026 -23.478668 -10.939601 40.799802 0.640171 1.842246 0.032771 -0.011537 -329316.000000 0 0 1
-32.541026 -22.651768 -11.462601 41.272414 0.608103 1.852227 0.055130 -0.021328 151140.000000 0 0 1
-32.623226 -22.458268 -12.848801 41.638208 0.602907 1.884498 0.046052 -0.005938 -1333130.000000 0 0 1
-34.020326 -22.039668 -13.273801 42.653526 0.574854 1.887252 0.017395 -0.017644 -835243.000000 0 0 1
-34.926526 -23.060468 -13.101401 43.855377 0.583552 1.874170 0.044201 -0.017571 -494751.000000 0 0 1
-36.233226 -22.788068 -13.565201 44.901641 0.561419 1.877701 0.074838 -0.022837 219687.000000 0 0 1
36.043745 -23.914568 -13.111101 45.199105 -0.585798 1.865101 0.070560 -0.005741 33555.100000 0 0 1
36.291145 -25.211668 -13.643701 46.247443 -0.607164 1.870268 0.057005 -0.002028 -314147.000000 0 0 1
35.436745 -26.130768 -13.081301 45.931474 -0.635383 1.859595 0.049917 -0.011345 -291401.000000 0 0 1
35.383345 -27.437368 -13.902701 46.883636 -0.659580 1.871860 0.041658 -0.009006 46142.400000 0 0 1
34.503245 -27.346968 -14.993101 46.509393 -0.670207 1.899025 0.056444 -0.012437 -295610.000000 0 0 1
34.310945 -28.639368 -15.615101 47.342219 -0.695545 1.906925 0.039014 0.003780 347503.000000 0 0 1
33.325645 -28.652768 -16.831601 47.062538 -0.710145 1.936539 0.033111 -0.004801 1126210.000000 0 0 1
31.920945 -28.477568 -16.594901 45.883650 -0.728449 1.940859 0.099843 -0.000113 422602.000000 0 0 1
31.280345 -28.173368 -17.785101 45.700202 -0.733187 1.970526 0.082671 -0.009036 -261290.000000 0 0 1
29.756445 -28.348468 -17.681101 44.740395 -0.761171 1.977075 0.086545 -0.014822 115724.000000 0 0 1
29.157945 -27.468168 -16.720101 43.407923 -0.755566 1.966205 0.086791 -0.017888 425073.000000 0 0 1
27.737445 -27.543768 -16.695301 42.505977 -0.781895 1.974444 0.107697 -0.019525 1058100.000000 0 0 1
26.925045 -26.631368 -15.669501 40.984400 -0.779915 1.963111 0.097101 -0.025677 518715.000000 0 0 1
26.778545 -25.257768 -15.999901 40.137789 -0.756181 1.980813 0.094857 -0.029339 17785.700000 0 0 1
26.306945 -24.500768 -14.907301 38.917484 -0.749864 1.963891 0.088276 -0.021778 -172229.000000 0 0 1
26.176645 -23.024268 -15.294801 38.069208 -0.721414 1.984238 0.069788 -0.021347 -362859.000000 0 0 1
24.963045 -22.646768 -15.873901 37.256012 -0.736785 2.010947 0.079331 -0.022183 -438527.000000 0 0 1
25.001545 -21.277468 -16.114301 36.571554 -0.705101 2.027090 0.068673 -0.027251 -62177.400000 0 0 1
23.621745 -20.652468 -16.356201 35.384129 -0.718433 2.051324 0.056321 -0.020966 215692.000000 0 0 1
22.820745 -20.276468 -15.228701 34.115024 -0.726431 2.033526 0.063200 -0.028470 653112.000000 0 0 1
21.825645 -19.302468 -15.556301 33.029419 -0.724126 2.061201 0.051235 -0.036647 350426.000000 0 0 1
21.404345 -18.381568 -14.402501 31.677437 -0.709568 2.042788 0.044526 -0.017740 179543.000000 0 0 1
20.740245 -18.912168 -13.250501 31.038744 -0.739328 2.011860 0.036694 -0.019654 263818.000000 0 0 1
20.463145 -17.820868 -12.424401 29.844419 -0.716490 2.000175 0.040611 -0.022156 -385225.000000 0 0 1
19.529945 -18.135368 -11.225101 28.919080 -0.748390 1.969426 0.045572 -0.015248 -434837.000000 0 0 1
20.052945 -18.667368 -10.035901 29.177226 -0.749629 1.921931 0.052875 -0.029677 69041.000000 0 0 1
19.014745 -18.849768 -9.097101 28.277756 -0.781041 1.898326 0.037643 -0.025031 125589.000000 0 0 1
19.582345 -19.491868 -7.809101 28.712074 -0.783083 1.846246 0.043897 -0.021309 492209.000000 0 0 1
20.540945 -18.689368 -7.084001 28.660181 -0.738236 1.820557 0.046608 -0.025314 508017.000000 0 0 1
20.962845 -19.377368 -5.936001 29.157492 -0.746116 1.775814 0.037008 -0.015696 170537.000000 0 0 1
22.308445 -18.771868 -5.421301 29.655358 -0.699521 1.754640 0.039415 -0.013233 437407.000000 0 0 1
23.412845 -18.909868 -6.299601 30.747835 -0.679401 1.777137 0.044731 -0.024333 -44818.000000 0 0 1
24.455245 -18.122068 -5.817701 30.988933 -0.637735 1.759652 0.060740 -0.027724 -659495.000000 0 0 1
25.585945 -17.823668 -6.816101 31.918379 -0.608454 1.786001 0.073261 -0.048163 -91243.300000 0 0 1
26.572845 -18.811268 -6.996701 33.300656 -0.616017 1.782481 0.081524 -0.054970 324358.000000 0 0 1
26.221345 -19.864868 -7.864501 33.823398 -0.648337 1.805461 0.082177 -0.056590 -270951.000000 0 0 1
27.352145 -20.935768 -7.760601 35.308259 -0.653295 1.792401 0.085281 -0.061779 12299.800000 0 0 1
28.549745 -20.696668 -8.420801 36.253963 -0.627265 1.805210 0.091831 -0.053894 -621716.000000 0 0 1
29.430545 -21.749968 -8.168801 37.495965 -0.636441 1.790416 0.085630 -0.051608 -370138.000000 0 0 1
-29.971035 29.780876 4.705099 42.512369 -0.782216 1.459893 0.049948 -0.016314 237369.000000 0 0 1
-29.572885 30.538476 3.576099 42.660785 -0.801460 1.486871 0.045084 -0.018040 -299206.000000 0 0 1
-28.692475 31.573776 3.920999 42.843153 -0.833171 1.479148 0.037872 -0.007243 -260149.000000 0 0 1
-28.229385 32.472676 2.810999 43.119307 -0.855188 1.505559 0.041592 -0.007996 -486266.000000 0 0 1
-27.249675 31.850476 1.967199 41.962692 -0.863089 1.523899 0.043398 -0.023467 110315.000000 0 0 1
-26.711685 32.811276 1.085099 42.323415 -0.887516 1.545155 0.048364 -0.031224 -424035.000000 0 0 1
-25.625755 33.725576 1.652899 42.388983 -0.921033 1.531793 0.067487 -0.025345 -125275.000000 0 0 1
-24.349555 33.069176 1.794099 41.105840 -0.936107 1.527137 0.047380 -0.031846 502787.000000 0 0 1
-23.440255 33.929476 2.440999 41.311178 -0.966236 1.511674 0.052035 -0.027082 346433.000000 0 0 1
-21.932655 33.654776 2.217899 40.231883 -0.993230 1.515640 0.052883 -0.038763 192788.000000 0 0 1
-21.473555 33.890776 0.906999 40.131296 -1.006029 1.548194 0.071113 -0.041076 -518677.000000 0 0 1
-20.083155 33.701176 1.019499 39.244640 -1.033383 1.544815 0.064894 -0.041530 -767830.000000 0 0 1
-19.330655 -34.065268 -0.254201 39.168627 1.054647 1.577286 0.064437 -0.038546 -75795.500000 0 0 1
-19.149155 -32.648268 -0.403301 37.851845 1.040341 1.581451 0.057758 -0.021959 473608.000000 0 0 1
-18.389855 -32.038668 0.664699 36.947325 1.049722 1.552805 0.061336 -0.017630 -214551.000000 0 0 1
-18.289355 -30.498568 0.471399 35.565227 1.030613 1.557541 0.060906 -0.019957 -22977.100000 0 0 1
-17.464655 -30.098068 -0.611001 34.803465 1.045019 1.588353 0.076019 -0.012463 179521.000000 0 0 1
-17.546255 -28.686268 -0.733201 33.634961 1.021847 1.592597 0.050511 -0.005264 295104.000000 0 0 1
-16.419155 -28.131068 -1.648301 32.613840 1.042474 1.621358 0.051080 -0.005633 168299.000000 0 0 1
-16.737055 -28.482168 -2.977701 33.169709 1.039520 1.660689 0.035084 -0.007243 -59429.200000 0 0 1
-15.784755 -27.944868 -3.896101 32.330384 1.056621 1.691599 0.034172 -0.007158 30107.100000 0 0 1
-16.076855 -28.051168 -5.421701 32.783047 1.050372 1.736941 0.048451 -0.005826 305612.000000 0 0 1
-17.237155 -27.291268 -5.787801 32.793772 1.007465 1.748217 0.037618 0.004052 139823.000000 0 0 1
-17.511755 -27.126068 -7.138401 33.067233 0.997542 1.788385 0.046584 -0.004126 106728.000000 0 0 1
-18.358655 -25.847668 -7.383301 32.552347 0.953215 1.799601 0.035385 -0.003034 -63984.800000 0 0 1
-17.654255 -24.655068 -7.088301 31.141437 0.949380 1.800425 0.042122 -0.000968 -268960.000000 0 0 1
-18.241855 -23.381968 -7.315501 30.545020 0.908266 1.812646 0.037254 -0.001706 -241522.000000 0 0 1
-17.324255 -22.228268 -6.887601 29.011459 0.908756 1.810495 0.048169 -0.012185 661982.000000 0 0 1
-16.209855 -21.981568 -7.756601 28.392140 0.935389 1.847510 0.074266 -0.011813 -54970.400000 0 0 1
-15.377255 -20.967268 -7.258201 26.995699 0.938008 1.843011 0.125125 -0.031160 658.500000 0 0 1
-14.144455 -20.836168 -8.166601 26.474608 0.974412 1.884380 0.121540 -0.028214 -127499.000000 0 0 1
-14.464555 -20.271668 -9.387901 26.613842 0.951044 1.931299 0.120913 -0.012644 -106995.000000 0 0 1
-13.330855 -20.191868 -10.238701 26.272690 0.987278 1.971112 0.115959 -0.012809 302307.000000 0 0 1
-13.581755 -19.308768 -11.479801 26.250303 0.957793 2.023414 0.130767 -0.014614 769952.000000 0 0 1
-14.694355 -19.789168 -12.270601 27.533668 0.932083 2.032706 0.107799 -0.001008 476475.000000 0 0 1
-14.968755 -19.015368 -13.405801 27.665201 0.903914 2.076671 0.115824 -0.012458 551239.000000 0 0 1
-16.162355 -19.651668 -14.232701 29.154409 0.882520 2.080803 0.115882 -0.011503 1130270.000000 0 0 1
-17.385555 -19.317068 -13.558901 29.312974 0.837976 2.051673 0.114644 -0.011585 423508.000000 0 0 1
-18.474455 -19.544568 -14.443901 30.527396 0.813537 2.063654 0.089209 -0.007115 1212530.000000 0 0 1
-19.952955 -19.444068 -13.904401 31.137190 0.772482 2.033705 0.061212 -0.004427 1017160.000000 0 0 1
-20.943055 -20.088468 -14.642701 32.504874 0.764574 2.038096 0.071462 -0.016007 -1168730.000000 0 0 1
-22.204155 -19.822368 -14.164501 32.963372 0.728785 2.014962 0.055312 -0.010448 -636277.000000 0 0 1
-23.344555 -20.546868 -14.926601 34.495586 0.721743 2.018293 0.057642 -0.016406 -88283.300000 0 0 1
-23.507555 -20.037768 -16.226201 34.891359 0.705884 2.054487 0.061365 -0.024065 587374.000000 0 0 1
-24.545255 -20.646368 -17.010101 36.305449 0.699337 2.058420 0.065054 -0.027579 283448.000000 0 0 1
-24.754155 -20.146668 -18.491801 36.886354 0.683141 2.095918 0.073363 -0.025334 313747.000000 0 0 1
-23.541655 -20.169068 -19.244101 36.487481 0.708394 2.126353 0.064831 -0.027046 571244.000000 0 0 1
-23.782055 -19.738768 -20.570501 37.126145 0.692759 2.158042 0.063776 -0.028597 -254514.000000 0 0 1
-22.629055 -18.962168 -21.223801 36.360524 0.697461 2.194080 0.049984 -0.027496 328402.000000 0 0 1
-21.437855 -19.716268 -21.465301 36.181100 0.743590 2.205916 0.041828 -0.019531 -237997.000000 0 0 1
-20.550055 -18.990568 -22.237601 35.741535 0.745978 2.242318 0.044494 -0.018205 -915706.000000 0 0 1
-19.225755 -19.726668 -22.278501 35.427429 0.798257 2.250868 0.052708 -0.014114 -1052100.000000 0 0 1
-19.315455 -20.819368 -23.189901 36.664757 0.822852 2.255553 0.036210 -0.009151 -89701.700000 0 0 1
-18.062555 -21.416568 -23.421101 36.516753 0.870151 2.267091 0.032926 -0.007857 -415028.000000 0 0 1
-18.038955 -22.780968 -24.142301 37.778659 0.901049 2.264054 0.029881 -0.010050 -241716.000000 0 0 1
-18.090455 -22.640968 -25.507751 38.607297 0.896657 2.292544 0.029999 -0.007442 134957.000000 0 0 1
-18.156655 -23.933768 -26.040811 39.756927 0.921801 2.284980 0.029152 -0.012018 -180471.000000 0 0 1
-17.979555 -23.923568 -27.580621 40.697570 0.926309 2.315423 0.038817 -0.004004 201222.000000 0 0 1
-16.645455 -23.810368 -28.066211 40.394517 0.960685 2.338942 0.023708 -0.004690 311556.000000 0 0 1
-16.570955 -24.012768 -29.439771 41.447674 0.966753 2.360703 0.043457 -0.007970 -809586.000000 0 0 1
-15.163455 -23.940068 -29.981891 41.254952 1.006185 2.384370 0.017822 -0.013460 -1050720.000000 0 0 1
-14.330755 -24.981968 -29.566291 41.275112 1.049982 2.369314 0.030720 -0.012903 -676438.000000 0 0 1
-13.142455 -24.859468 -30.293761 41.333149 1.084477 2.393396 0.052080 -0.015785 -761336.000000 0 0 1
-12.193955 -26.022568 -29.986731 41.533970 1.132590 2.377457 0.060266 -0.013048 -1492500.000000 0 0 1
-12.462455 -27.277568 -30.559361 42.816504 1.142239 2.365603 0.060025 -0.012540 68153.000000 0 0 1
-11.529755 -28.303668 -30.273561 43.017687 1.183962 2.351454 0.059302 -0.013116 1323710.000000 0 0 1
-10.084355 -28.093768 -30.918841 42.975909 1.226168 2.373801 0.070484 -0.010090 207521.000000 0 0 1
-9.386755 -27.081768 -30.344491 41.741124 1.237147 2.384693 0.070778 -0.015802 -993976.000000 0 0 1
-8.329955 -26.702868 -31.182251 41.889904 1.268413 2.410411 0.066968 -0.019777 -373925.000000 0 0 1
-7.638655 -25.362168 -30.768161 40.598871 1.278255 2.430819 0.089243 -0.024747 -62550.500000 0 0 1
-8.369855 -24.150668 -30.942691 40.134267 1.237182 2.451174 0.091684 -0.021074 133319.000000 0 0 1
-9.223355 -23.866068 -29.848801 39.314252 1.202014 2.432935 0.074829 -0.015763 -208198.000000 0 0 1
-9.541855 -22.350168 -29.765961 38.426416 1.167296 2.456914 0.071754 -0.021462 -6942.780000 0 0 1
-10.386355 -21.883368 -30.804641 39.187805 1.127655 2.475233 0.067056 -0.026818 -100445.000000 0 0 1
-10.796755 -20.541868 -30.581361 38.389555 1.086881 2.492457 0.058081 -0.026632 -59097.800000 0 0 1
-11.484455 -20.079068 -31.823531 39.342074 1.051248 2.513063 0.049252 -0.027096 -173167.000000 0 0 1
-11.993855 -18.765668 -31.800591 38.823710 1.002095 2.530641 0.043823 -0.024495 176557.000000 0 0 1
-12.675455 -18.509868 -33.025471 39.924480 0.970348 2.544900 0.054685 -0.026515 -535729.000000 0 0 1
-13.360855 -17.113868 -33.049071 39.542863 0.907933 2.560345 0.065715 -0.023390 -849069.000000 0 0 1
-12.652155 -15.922268 -33.078681 38.830333 0.899344 2.590356 0.071117 -0.021385 -382551.000000 0 0 1
-11.891755 -15.651168 -31.897691 37.467794 0.921053 2.589323 0.062393 -0.020133 126046.000000 0 0 1
-11.531355 -14.108668 -31.768731 36.623475 0.885581 2.620834 0.069624 -0.017982 -269396.000000 0 0 1
-10.628255 -13.545868 -32.674181 36.933081 0.905509 2.656616 0.068446 -0.024051 -314491.000000 0 0 1
-10.963055 -13.579268 -34.056695 38.268049 0.891597 2.668034 0.072835 -0.023628 -643170.000000 0 0 1
-11.477755 -12.242168 33.541372 37.505109 0.817614 0.463899 0.076946 -0.013138 -1292180.000000 0 0 1
-12.692255 -11.971968 34.082444 38.288828 0.756203 0.473142 0.057885 -0.007829 -1633840.000000 0 0 1
-13.506155 -11.242168 33.171069 37.538279 0.694172 0.487173 0.049075 -0.018387 372794.000000 0 0 1
-14.718855 -10.662368 33.934782 38.495457 0.626916 0.491710 0.063144 -0.017991 -66322.200000 0 0 1
-14.383055 -9.585268 -33.483811 37.681763 0.587837 2.665068 0.073004 -0.023306 -154116.000000 0 0 1
-15.390155 -9.149368 -32.573551 37.169935 0.536362 2.639010 0.079450 -0.027634 255979.000000 0 0 1
-14.881955 -8.138968 -31.489821 35.767642 0.500461 2.647501 0.086721 -0.037758 -155474.000000 0 0 1
-14.561655 -6.803668 -31.857861 35.682699 0.437091 2.674341 0.071405 -0.037915 732830.000000 0 0 1
-15.639755 -5.838968 -31.984041 36.078725 0.357316 2.660537 0.072697 -0.035641 606625.000000 0 0 1
-16.060055 -5.125668 -30.648361 34.978849 0.308937 2.638710 0.074589 -0.041566 42926.200000 0 0 1
-16.574755 -6.040368 -29.642611 34.494825 0.349473 2.604764 0.079049 -0.044999 92231.400000 0 0 1
-16.927555 -5.393668 -28.421781 33.517629 0.308462 2.582931 0.083166 -0.046716 370229.000000 0 0 1
-15.743255 -4.722568 -27.626181 32.145896 0.291433 2.604891 0.080219 -0.043068 674911.000000 0 0 1
-15.161755 -3.688568 -28.449801 32.448044 0.238645 2.639922 0.072497 -0.037091 1017370.000000 0 0 1
-13.867255 -3.286768 -27.910941 31.338862 0.232722 2.669498 0.062592 -0.026780 1251980.000000 0 0 1
-13.442355 -1.931768 -28.578481 31.641085 0.142730 2.697982 0.038506 -0.010437 -87468.700000 0 0 1
-13.203255 -2.024768 -29.952851 32.796325 0.152168 2.722108 0.043508 -0.020870 125349.000000 0 0 1
-13.239155 -0.779768 -30.585401 33.336917 0.058831 2.732453 0.042241 -0.021817 -37160.300000 0 0 1
-13.595855 -0.819768 -32.083501 34.854990 0.060223 2.740117 0.038296 -0.024910 -729031.000000 0 0 1
-14.864455 -1.224768 -32.470581 35.732209 0.082210 2.711004 0.027327 -0.020177 -652852.000000 0 0 1
-14.936155 -1.359768 -33.843351 37.017700 0.090788 2.724444 0.021165 -0.018000 -85252.500000 0 0 1
-16.329555 -1.543768 33.753466 37.527777 0.094258 0.452341 0.015413 -0.019242 12784.700000 0 0 1
-16.131655 -1.583768 32.379801 36.210359 0.097864 0.464125 0.024159 -0.020107 521743.000000 0 0 1
-17.388255 -1.726768 31.740512 36.232489 0.098982 0.503242 0.028422 -0.015434 326771.000000 0 0 1
-17.175255 -1.865768 30.159022 34.756828 0.108207 0.520210 0.034619 -0.012323 24058.200000 0 0 1
-16.854755 -0.605768 29.596862 34.064996 0.035925 0.517952 0.027670 -0.003367 57925.700000 0 0 1
-16.861255 -0.552768 28.215312 32.874174 0.032772 0.538884 0.025673 -0.005882 -277760.000000 0 0 1
-16.353955 0.830232 27.778962 32.246114 -0.050723 0.532645 0.025487 -0.003285 69860.900000 0 0 1
-17.096555 1.966232 28.244272 33.074116 -0.114504 0.547230 0.027169 -0.003261 415751.000000 0 0 1
-18.419455 2.141232 27.758472 33.382540 -0.115729 0.588946 0.044621 -0.004508 138103.000000 0 0 1
-18.637355 2.791232 26.381422 32.421003 -0.148661 0.620283 0.051459 -0.016782 -439884.000000 0 0 1
-18.359755 4.176232 26.348112 32.384325 -0.223661 0.620467 0.039834 -0.007871 187456.000000 0 0 1
-18.577855 4.708232 25.098922 31.579424 -0.248207 0.652139 0.049183 -0.004836 -457947.000000 0 0 1
-18.494455 6.261232 25.244942 31.914808 -0.326435 0.658338 0.038815 -0.009676 432969.000000 0 0 1
-17.157155 6.715232 25.381962 31.364093 -0.373067 0.627891 0.028449 -0.010294 229226.000000 0 0 1
-16.525455 6.963232 24.152112 30.081585 -0.398787 0.638674 0.033107 -0.006116 -371747.000000 0 0 1
-15.518155 8.132232 24.107732 29.801495 -0.482699 0.628443 0.046132 -0.018521 -219779.000000 0 0 1
-14.361655 7.790232 24.830112 29.723380 -0.497015 0.581985 0.035008 -0.015113 -520467.000000 0 0 1
-13.248055 8.272232 24.127222 28.741323 -0.558176 0.574506 0.051982 -0.012955 -685017.000000 0 0 1
-11.895755 8.098232 24.823682 28.693301 -0.597701 0.525370 0.043261 0.001332 -154647.000000 0 0 1
-10.835055 8.631232 24.004892 27.715184 -0.672666 0.523394 0.049618 -0.010560 536288.000000 0 0 1
-9.636955 8.785232 24.748912 27.974271 -0.739198 0.484941 0.046813 -0.015170 -30702.900000 0 0 1
-9.455255 10.079232 25.558532 29.055659 -0.817330 0.495691 0.055764 -0.030664 -1006900.000000 0 0 1
-10.356955 10.242232 26.639592 30.361780 -0.779829 0.500369 0.044389 -0.030976 201000.000000 0 0 1
-10.390555 11.480232 27.296812 31.382723 -0.835180 0.515992 0.052090 -0.033505 -448535.000000 0 0 1
-11.034055 12.610232 26.424952 31.289717 -0.851962 0.565119 0.055839 -0.037522 1114810.000000 0 0 1
-12.472855 12.459232 26.311172 31.671475 -0.784852 0.590337 0.056168 -0.039882 1145210.000000 0 0 1
-12.886055 11.706232 25.228092 30.651964 -0.737460 0.604036 0.059494 -0.032537 -905582.000000 0 0 1
-14.409655 11.547232 25.164202 31.212398 -0.675566 0.633054 0.034590 -0.029316 -575856.000000 0 0 1
-15.024555 12.744232 24.700432 31.595317 -0.703464 0.673289 0.049006 -0.032085 5634.390000 0 0 1
-16.393155 12.607232 24.385112 31.973607 -0.655585 0.703375 0.049038 -0.018820 -69590.800000 0 0 1
-16.624155 12.117232 22.927692 30.803716 -0.629855 0.731287 0.043175 -0.008315 -502016.000000 0 0 1
-16.237055 10.788232 22.648892 29.883109 -0.586446 0.710683 0.034811 -0.010161 57857.000000 0 0 1
-16.140855 10.771232 21.250592 28.777323 -0.588460 0.740029 0.037574 0.002090 -234260.000000 0 0 1
-16.467555 9.386232 20.736692 28.094343 -0.518056 0.740533 0.036770 -0.008790 -442249.000000 0 0 1
-17.829255 9.119232 20.857692 28.915153 -0.472786 0.765059 0.042556 -0.002244 -634804.000000 0 0 1
-18.154055 7.745232 20.629392 28.550484 -0.403258 0.763300 0.036941 -0.000901 663016.000000 0 0 1
-19.683655 7.437232 20.764492 29.562186 -0.361256 0.792032 0.048465 0.007954 621773.000000 0 0 1
-20.090555 7.560232 22.112892 30.818298 -0.359917 0.770554 0.043773 0.000486 -55062.100000 0 0 1
-21.500755 7.660232 22.102292 31.772204 -0.342256 0.801474 0.042033 0.000249 -270284.000000 0 0 1
-22.010155 8.154232 23.455192 33.182593 -0.354798 0.785758 0.054080 -0.011449 -578598.000000 0 0 1
-21.802255 9.547232 23.730112 33.609615 -0.412747 0.786890 0.047906 -0.008188 174057.000000 0 0 1
-20.499655 10.092232 23.758472 32.962919 -0.457479 0.765893 0.040690 -0.009546 -194314.000000 0 0 1
-19.644955 9.736232 24.992782 33.246919 -0.460129 0.720111 0.032833 -0.022633 -526518.000000 0 0 1
-20.069455 10.219232 26.216522 34.561854 -0.470975 0.709728 0.038098 -0.012491 -25718.900000 0 0 1
-19.200155 9.720232 27.198942 34.683012 -0.468641 0.669366 0.046099 -0.014039 21312.700000 0 0 1
-32.034905 -14.042724 20.465192 40.524774 0.413129 1.041409 0.070277 -0.018603 192969.000000 0 0 1
-30.914685 -14.904824 20.730892 40.095404 0.449248 1.027408 0.054287 -0.020306 627786.000000 0 0 1
-30.817335 -16.017724 19.833292 39.995438 0.479333 1.051938 0.042469 -0.003888 153534.000000 0 0 1
-30.275275 -15.697324 18.368692 38.735089 0.478327 1.076726 0.039804 -0.000267 -158496.000000 0 0 1
-31.106315 -14.791324 17.671192 38.712493 0.443863 1.096770 0.057262 -0.016991 -192331.000000 0 0 1
-30.613305 -14.537624 16.369292 37.636029 0.443350 1.120828 0.058007 -0.018266 -704299.000000 0 0 1
-31.483225 -13.453424 15.628692 37.635676 0.403834 1.142565 0.065450 -0.014741 448644.000000 0 0 1
-32.808275 -13.797624 15.233092 38.714396 0.398098 1.166389 0.078857 -0.013783 781250.000000 0 0 1
-33.724895 -13.917024 16.316092 39.965823 0.391375 1.150259 0.073322 -0.016765 -855654.000000 0 0 1
-34.327072 -12.626324 16.926392 40.302291 0.352465 1.137367 0.072971 -0.017511 -380420.000000 0 0 1
-35.408797 -13.023224 17.756592 41.697528 0.352440 1.130903 0.058780 -0.020132 -18302.700000 0 0 1
-36.076935 -11.837524 18.156192 42.087047 0.317050 1.124757 0.062788 -0.009138 -118495.000000 0 0 1
36.077895 -12.119724 19.159392 42.609676 -0.324088 1.104424 0.059631 0.003268 -81988.200000 0 0 1
36.602705 -12.469224 20.438492 43.737530 -0.328334 1.084563 0.047332 0.002468 165198.000000 0 0 1
35.678665 -12.133224 21.442492 43.358537 -0.327801 1.053492 0.039010 -0.004626 -961209.000000 0 0 1
36.220885 -12.667024 22.820392 44.645003 -0.336422 1.034271 0.040439 -0.013482 761520.000000 0 0 1
-35.853597 -11.985324 23.191492 44.350577 0.322607 1.020532 0.040046 -0.009226 944190.000000 0 0 1
-34.661275 -12.642224 22.724092 43.331446 0.349742 1.018757 0.037522 -0.016914 431835.000000 0 0 1
-33.371255 -11.784924 22.917792 42.163376 0.339475 0.996139 0.059373 -0.011553 316778.000000 0 0 1
-33.383625 -10.675224 22.057992 41.412339 0.309498 1.009076 0.080063 -0.015070 -401666.000000 0 0 1
-32.086705 -10.203524 21.820992 40.122615 0.307886 0.995769 0.102309 -0.034015 -852789.000000 0 0 1
-32.001405 -8.895424 21.013492 39.303757 0.271125 1.006711 0.125913 -0.013247 50415.800000 0 0 1
-32.321935 -8.956024 19.603392 38.848563 0.270306 1.041866 0.128125 -0.009374 813219.000000 0 0 1
-33.722545 -9.069024 19.305392 39.901822 0.262715 1.065779 0.113088 -0.017512 508299.000000 0 0 1
-34.030715 -8.788624 17.793092 39.394462 0.252733 1.102166 0.113397 -0.017715 932371.000000 0 0 1
-35.460284 -8.819824 17.595792 40.556540 0.243777 1.122026 0.045270 -0.008715 911546.000000 0 0 1
-35.817547 -8.448024 16.327492 40.259816 0.231629 1.153213 0.054961 -0.004214 -133681.000000 0 0 1
35.943495 -8.381824 16.087092 40.261450 -0.229100 1.159753 0.057569 -0.009179 -372402.000000 0 0 1
35.285705 -9.583924 16.129592 39.963687 -0.265211 1.155341 0.055031 0.004681 -1034550.000000 0 0 1
33.914285 -9.347124 16.063792 38.672896 -0.268933 1.142440 0.042580 0.003165 -665502.000000 0 0 1
33.187745 -10.720424 16.095592 38.411222 -0.312443 1.138416 0.041231 0.001936 -182925.000000 0 0 1
33.290615 -11.540124 17.253292 39.231564 -0.333685 1.115442 0.036356 0.000005 -459748.000000 0 0 1
32.368625 -12.562624 17.209692 38.752044 -0.370216 1.110629 0.049215 0.004460 -215052.000000 0 0 1
31.913085 -12.975424 18.624892 39.162395 -0.386171 1.075172 0.040814 0.000997 -424238.000000 0 0 1
32.922075 -13.700724 19.229992 40.513768 -0.394356 1.076226 0.044261 -0.002278 -580030.000000 0 0 1
32.797195 -13.825824 20.634392 41.141069 -0.398949 1.045404 0.045296 0.000069 -625558.000000 0 0 1
33.365525 -15.096724 21.277792 42.354619 -0.424902 1.044456 0.041493 0.001143 -30303.700000 0 0 1
33.458135 -15.008224 22.694592 43.124681 -0.421662 1.016606 0.036903 -0.007993 -200313.000000 0 0 1
33.850735 -16.249424 23.222232 44.149610 -0.447546 1.016918 0.048161 -0.005096 138595.000000 0 0 1
34.205685 -16.084324 24.753682 45.182730 -0.439544 0.990996 0.065271 -0.004668 1423570.000000 0 0 1
35.535075 -15.499624 24.821902 46.033756 -0.411300 1.001297 0.051948 -0.001726 1223110.000000 0 0 1
35.985795 -15.184524 26.146002 47.001709 -0.399292 0.980897 0.052967 -0.006885 687859.000000 0 0 1
-36.086975 -14.184924 26.236562 46.817081 0.374523 0.975921 0.038762 -0.012920 1132130.000000 0 0 1
-34.785884 -14.687724 25.957812 45.821338 0.399524 0.968543 0.021877 -0.006973 850414.000000 0 0 1
-33.716385 -13.775424 26.213342 44.874227 0.387870 0.946962 0.039460 -0.014341 988159.000000 0 0 1
-32.295835 -14.255824 25.819992 43.736958 0.415691 0.939307 0.029469 -0.010689 -337331.000000 0 0 1
-32.069145 -14.273624 24.466462 42.787547 0.418762 0.962083 0.029206 -0.006177 718517.000000 0 0 1
-30.718375 -14.600724 24.099952 41.684618 0.443701 0.954337 0.034629 -0.015624 612035.000000 0 0 1
-30.241565 -16.036024 24.362982 42.015012 0.487565 0.952235 0.039313 -0.015357 -889676.000000 0 0 1
-30.022965 -16.317824 25.712402 42.764207 0.497848 0.925719 0.036753 -0.014723 57650.100000 0 0 1
-30.094775 -17.697124 26.008972 43.535621 0.531584 0.930519 0.035964 -0.017702 -635431.000000 0 0 1
-29.976855 -18.004724 27.519702 44.498493 0.540876 0.904039 0.041915 -0.020346 -266617.000000 0 0 1
-28.827485 -17.455624 28.129392 43.897442 0.544469 0.875259 0.042194 -0.025552 -108427.000000 0 0 1
-28.583145 -17.938124 29.434712 44.779178 0.560450 0.853526 0.047974 -0.030838 -581056.000000 0 0 1
-27.314715 -17.450124 30.089612 44.226522 0.568500 0.822553 0.061018 -0.034041 -627389.000000 0 0 1
-27.363145 -16.115824 30.554162 44.068337 0.532263 0.804688 0.065265 -0.039269 309741.000000 0 0 1
-26.228245 -15.422724 30.011992 42.737582 0.531564 0.792259 0.063043 -0.030100 536121.000000 0 0 1
-25.989715 -13.995224 30.628312 42.537337 0.493964 0.766946 0.073741 -0.019459 95246.500000 0 0 1
-25.410925 -14.025624 31.926782 43.148032 0.504341 0.737821 0.077984 -0.022482 241035.000000 0 0 1
-25.118405 -12.727724 32.449103 42.963630 0.469000 0.714732 0.080487 -0.011478 -135575.000000 0 0 1
-24.496755 -12.665024 33.872000 43.678441 0.477161 0.683313 0.083592 -0.008535 705871.000000 0 0 1
-23.103355 -12.996824 33.930587 43.057719 0.512428 0.663201 0.061722 -0.006352 644834.000000 0 0 1
-22.792455 -14.394824 34.089453 43.460301 0.563303 0.669098 0.064649 -0.014707 -206529.000000 0 0 1
-22.875055 -15.044824 -32.750421 42.687293 0.581766 2.445287 0.065066 -0.013164 -237397.000000 0 0 1
-21.754455 -14.706524 -31.940551 41.348966 0.594452 2.453507 0.048969 -0.009809 213035.000000 0 0 1
-21.585955 -15.472424 -30.805021 40.673071 0.621900 2.430090 0.054064 -0.009863 246732.000000 0 0 1
-20.305355 -15.233424 -29.947721 39.258511 0.643640 2.438481 0.058563 -0.008608 366157.000000 0 0 1
-20.326155 -14.022024 -29.134661 38.191599 0.603882 2.438514 0.058784 -0.011264 69963.200000 0 0 1
-21.008655 -14.183924 -27.913601 37.705655 0.593850 2.404317 0.060081 -0.004779 -122665.000000 0 0 1
-20.730955 -13.059524 -26.878291 36.369853 0.562153 2.402421 0.061915 -0.007113 -665413.000000 0 0 1
-19.427655 -13.056024 -26.392801 35.277096 0.591708 2.416076 0.070362 -0.014477 -599708.000000 0 0 1
-19.110255 -12.043524 -25.476941 34.048830 0.562339 2.416212 0.065670 -0.026066 813753.000000 0 0 1
-17.640155 -11.964924 -24.932801 32.802120 0.595998 2.434259 0.069063 -0.026617 398437.000000 0 0 1
-17.509855 -12.818524 -23.773101 32.188040 0.631930 2.401742 0.079716 -0.024103 1013990.000000 0 0 1
-16.174855 -12.830824 -23.228101 31.077334 0.670616 2.414980 0.082686 -0.027977 922956.000000 0 0 1
-15.102055 -13.696924 -23.914901 31.426108 0.736646 2.435631 0.041887 -0.019956 -299991.000000 0 0 1
-14.321055 -12.939724 -24.837001 31.454820 0.734770 2.480967 0.056920 -0.026449 164328.000000 0 0 1
-13.514555 -13.759724 -25.646711 32.089360 0.794387 2.496806 0.057828 -0.020782 -153274.000000 0 0 1
-12.571755 -13.031024 -26.626581 32.199867 0.803334 2.544397 0.075016 -0.017096 -154537.000000 0 0 1
-13.244555 -12.234024 -27.578051 32.949029 0.745757 2.562558 0.106257 -0.025377 55358.100000 0 0 1
-12.299355 -11.550524 -28.374101 33.011791 0.754011 2.605115 0.106972 -0.032256 -35089.200000 0 0 1
-12.960655 -10.524724 -29.367071 33.781256 0.682047 2.624642 0.085390 -0.030613 -536329.000000 0 0 1
-12.176155 -9.759024 -30.186751 33.981425 0.675647 2.664494 0.082472 -0.026199 -634815.000000 0 0 1
-11.686055 -10.445024 -31.343091 35.043570 0.729380 2.677892 0.091047 -0.021711 -121137.000000 0 0 1
-10.956855 -9.366724 -32.166701 35.248899 0.707317 2.720295 0.073568 -0.021967 -70177.900000 0 0 1
-9.626855 -9.176324 -31.725381 34.400306 0.761442 2.744634 0.057827 -0.022137 -228618.000000 0 0 1
-9.152955 -7.920024 -32.143341 34.346728 0.713308 2.781456 0.045161 -0.016141 -885461.000000 0 0 1
-7.685755 -7.703624 -31.845081 33.653021 0.786559 2.812318 0.057766 -0.015593 -849720.000000 0 0 1
-7.233555 -7.435224 -30.515871 32.230812 0.799145 2.813914 0.050648 -0.010151 19253.400000 0 0 1
-7.625155 -6.244524 -29.831551 31.417487 0.686182 2.822500 0.052970 -0.010761 -204182.000000 0 0 1
-6.936355 -4.934724 -30.411191 31.580137 0.618355 2.868661 0.042101 -0.012389 1029400.000000 0 0 1
-5.565255 -4.776024 -29.992151 30.875745 0.709227 2.901779 0.053189 -0.012289 648938.000000 0 0 1
-5.012455 -3.647124 -30.607251 31.228673 0.629018 2.941766 0.058154 -0.017371 399348.000000 0 0 1
-3.503355 -3.505224 -30.217841 30.621529 0.785665 2.979037 0.051233 -0.014308 -960605.000000 0 0 1
-2.642755 -4.287924 -31.037901 31.443946 1.018459 2.980713 0.041794 -0.016044 -401463.000000 0 0 1
-1.303355 -4.048024 -30.710601 31.003649 1.259304 3.003992 0.064920 -0.019016 -216238.000000 0 0 1
-0.779555 -2.601424 -30.994861 31.113607 1.279647 3.054198 0.071487 -0.020648 -357785.000000 0 0 1
0.571245 -2.365424 -30.487781 30.584740 -1.333836 3.061945 0.076032 -0.023300 1546290.000000 0 0 1
1.018245 -1.048924 -30.867871 30.902468 -0.800238 3.094269 0.063623 -0.017923 243921.000000 0 0 1
1.384145 -0.156524 -29.632701 29.665423 -0.112605 3.094619 0.068611 -0.024047 34994.200000 0 0 1
0.268345 0.483976 -29.050461 29.055732 1.064537 3.122546 0.078004 -0.023508 -126277.000000 0 0 1
0.611745 1.745976 -28.511131 28.571091 1.233788 3.076795 0.097697 -0.026762 723836.000000 0 0 1
-0.690355 2.510076 -28.046311 28.166871 -1.302399 3.049037 0.073929 -0.020374 435660.000000 0 0 1
-1.723755 2.764476 -28.921301 29.104215 -1.013249 3.029420 0.058789 -0.027050 -987805.000000 0 0 1
-2.500755 3.783976 -28.464591 28.823692 -0.986810 2.983577 0.093128 -0.030916 -1363830.000000 0 0 1
-3.722555 4.030976 -29.296031 29.805430 -0.825155 2.956446 0.105161 -0.028985 -956750.000000 0 0 1
-3.429455 4.562876 -30.549011 31.077694 -0.926272 2.956876 0.102759 -0.027265 -83225.000000 0 0 1
-4.591755 4.861176 -31.285141 31.991801 -0.813892 2.931019 0.101728 -0.019054 -207455.000000 0 0 1
-4.251555 5.505076 -32.711811 33.443148 -0.913177 2.932078 0.113244 -0.019308 306633.000000 0 0 1
-3.799055 4.651276 -33.811431 34.340647 -0.885909 2.965806 0.129902 -0.023904 12595.000000 0 0 1
-2.683955 3.815776 -33.734531 34.055577 -0.957803 3.004174 0.127533 -0.027254 -476725.000000 0 0 1
-2.262155 3.029876 33.233521 33.447936 -0.929464 0.113290 0.119303 -0.021190 -205290.000000 0 0 1
-3.157955 2.015976 32.832012 33.045088 -0.568163 0.113622 0.102487 -0.029499 -60836.300000 0 0 1
-3.004255 1.502376 31.543412 31.721751 -0.463714 0.106087 0.098319 -0.021981 -153940.000000 0 0 1
-2.962255 2.548076 30.325182 30.575878 -0.710375 0.128143 0.103745 -0.025417 -369828.000000 0 0 1
-4.166255 3.228376 30.155792 30.612936 -0.659239 0.173034 0.082817 -0.026537 -333786.000000 0 0 1
-3.975755 4.145476 29.152202 29.712665 -0.806294 0.194537 0.075372 -0.033895 603453.000000 0 0 1
-5.211255 5.105276 29.021622 29.924498 -0.775126 0.246271 0.070016 -0.020840 490981.000000 0 0 1
-5.051755 6.026576 27.974992 29.059250 -0.873166 0.274030 0.067457 -0.013139 50515.500000 0 0 1
-6.128455 6.958076 27.868352 29.370356 -0.848708 0.321192 0.049473 -0.010140 12942.200000 0 0 1
-6.259655 7.697076 26.528342 28.322803 -0.888028 0.357877 0.057892 -0.013552 -616281.000000 0 0 1
-5.226655 8.588276 26.284602 28.141725 -1.024092 0.365324 0.055537 -0.014372 -443903.000000 0 0 1
-5.459555 9.277876 25.092532 27.304228 -1.038914 0.405265 0.062432 -0.011318 456937.000000 0 0 1
-4.548955 10.566276 25.096282 27.607292 -1.164263 0.429809 0.051438 -0.014833 -213028.000000 0 0 1
-4.722755 11.336976 23.946852 26.912509 -1.176079 0.473881 0.052565 -0.012986 448097.000000 0 0 1
-4.113255 12.660376 24.011582 27.454691 -1.256662 0.506208 0.036587 -0.002997 473573.000000 0 0 1
-2.547255 12.816476 24.101262 27.415714 -1.374604 0.496817 0.024854 -0.001133 712498.000000 0 0 1
-1.846555 12.297476 25.256292 28.151696 -1.421753 0.457522 0.038268 -0.004301 273523.000000 0 0 1
-2.149655 12.934276 26.511442 29.576563 -1.406103 0.459292 0.062990 -0.010064 -124018.000000 0 0 1
-1.193055 12.406476 27.651172 30.330370 -1.474927 0.423476 0.059043 -0.014816 1060550.000000 0 0 1
0.159545 12.863276 27.568252 30.421996 1.558394 0.436600 0.053785 -0.010816 -71029.000000 0 0 1
0.853645 12.527076 28.708512 31.334246 1.502758 0.412298 0.068376 -0.021543 -356741.000000 0 0 1
2.373045 12.555576 28.491962 31.226042 1.383997 0.421583 0.055575 -0.015388 -242082.000000 0 0 1
2.938045 13.828176 28.467332 31.784266 1.361442 0.460923 0.053373 -0.012018 22065.500000 0 0 1
4.355945 13.740076 28.377442 31.828339 1.263795 0.469979 0.056968 -0.009607 160277.000000 0 0 1
4.965445 15.133876 28.501322 32.649888 1.253762 0.509604 0.049470 -0.008703 -374990.000000 0 0 1
4.773245 15.778076 29.770502 34.029610 1.277026 0.505689 0.053791 -0.003079 44415.200000 0 0 1
3.681145 16.658976 29.873402 34.401925 1.353320 0.518902 0.037222 0.000012 -103326.000000 0 0 1
3.972345 18.105976 29.317002 34.685624 1.354824 0.563819 0.042483 -0.004460 625003.000000 0 0 1
4.809645 19.029776 30.100092 35.934393 1.323238 0.577848 0.064347 -0.004147 756179.000000 0 0 1
5.107745 20.243376 29.386532 36.047907 1.323638 0.617709 0.050388 -0.000203 15966.100000 0 0 1
6.191045 21.123376 30.067072 37.263318 1.285691 0.631943 0.050745 0.002339 -201992.000000 0 0 1
5.858045 21.920976 31.204302 38.581788 1.309664 0.628716 0.047518 -0.020812 212449.000000 0 0 1
6.979645 22.686376 31.638552 39.552308 1.272329 0.643640 0.039918 -0.013341 228371.000000 0 0 1
7.119045 24.055876 30.937722 39.831001 1.283070 0.681348 0.045778 -0.009685 -87246.200000 0 0 1
7.401845 23.967076 29.553962 38.763961 1.271255 0.703770 0.029843 -0.007665 43293.600000 0 0 1
7.392245 25.248076 28.991452 39.148626 1.285972 0.736910 0.033754 -0.011106 44857.300000 0 0 1
7.930245 25.151976 27.523482 38.118929 1.265369 0.764046 0.060349 -0.014849 -138357.000000 0 0 1
7.147945 24.302176 26.708912 36.811070 1.284736 0.758938 0.045800 -0.019526 357910.000000 0 0 1
7.657545 24.281576 25.374302 35.945627 1.265304 0.787092 0.056546 -0.021674 -125407.000000 0 0 1
28.620725 2.217576 6.802499 29.501484 0.077327 1.338121 0.145409 -0.013147 5257.770000 0 0 1
28.766535 3.203976 7.840199 29.987459 0.110921 1.306273 0.132650 -0.018163 -75716.000000 0 0 1
27.573015 3.433876 8.543999 29.069960 0.123900 1.272480 0.106097 -0.006123 -859701.000000 0 0 1
27.739715 4.170476 9.869399 29.737009 0.149226 1.232490 0.082979 -0.010069 -196535.000000 0 0 1
27.815815 5.572276 9.859099 30.032843 0.197711 1.236317 0.094809 -0.015261 1055840.000000 0 0 1
29.120405 6.074576 9.489899 31.224296 0.205653 1.261985 0.112741 -0.028381 782291.000000 0 0 1
29.100125 7.635776 9.307399 31.492063 0.256612 1.270768 0.121953 -0.034679 -112728.000000 0 0 1
28.140315 8.082276 8.388199 30.455909 0.279685 1.291769 0.111259 -0.023390 -193838.000000 0 0 1
28.474845 9.308776 7.843899 30.967674 0.315961 1.314713 0.120917 -0.042352 -292307.000000 0 0 1
27.755115 9.728376 6.547999 30.130782 0.337127 1.351729 0.121695 -0.038086 -611654.000000 0 0 1
26.437315 10.177676 6.693899 29.108847 0.367486 1.338759 0.084959 -0.025972 -158730.000000 0 0 1
25.803715 10.393276 5.446199 28.346305 0.382902 1.377463 0.108353 -0.035780 284047.000000 0 0 1
24.307015 10.789276 5.463199 27.149328 0.417749 1.368185 0.067371 -0.025762 215459.000000 0 0 1
24.087815 12.124476 5.788899 27.581463 0.466320 1.359340 0.049742 -0.026069 -486004.000000 0 0 1
22.757715 12.247576 6.182599 26.573318 0.493717 1.335983 0.050567 -0.015073 -517688.000000 0 0 1
22.489415 13.728776 6.441499 27.124638 0.548072 1.331028 0.049965 -0.004551 -106959.000000 0 0 1
22.469615 14.520776 5.277699 27.268859 0.573728 1.376024 0.052654 -0.021136 243098.000000 0 0 1
22.385515 15.896576 5.626499 28.026236 0.617491 1.368664 0.093233 -0.020198 -60184.800000 0 0 1
21.864915 16.798376 4.472299 27.933160 0.655098 1.409997 0.087705 -0.036972 122166.000000 0 0 1
20.459015 16.740776 4.297699 26.782366 0.685776 1.409632 0.098960 -0.023294 271934.000000 0 0 1
20.095715 17.507976 3.166399 26.840139 0.716690 1.452548 0.094491 -0.031327 -1160540.000000 0 0 1
18.604715 17.439776 2.960799 25.671921 0.753090 1.455207 0.076180 -0.021500 -1303110.000000 0 0 1
17.916515 18.102176 3.980599 25.778585 0.790553 1.415761 0.080488 -0.029602 -591813.000000 0 0 1
16.561815 17.984476 3.683699 24.724578 0.826556 1.421250 0.063706 -0.039495 -737399.000000 0 1 0
15.598615 18.912376 4.441099 24.914215 0.881125 1.391583 0.080566 -0.050389 952702.000000 0 1 0
14.190715 18.641476 4.323499 23.823805 0.920138 1.388307 0.084102 -0.052665 977258.000000 0 1 0
13.403615 19.798676 4.492099 24.327421 0.975677 1.385079 0.069562 -0.046938 -726400.000000 0 1 0
11.936815 19.667176 4.176199 23.382173 1.025289 1.391227 0.051398 -0.036686 -577646.000000 0 1 0
11.226215 18.925176 5.195999 22.609480 1.035400 1.338909 0.038740 -0.042702 -550184.000000 0 1 0
9.864115 19.202176 5.114999 22.185300 1.096251 1.338145 0.033429 -0.024877 -495068.000000 0 1 0
9.148115 18.735476 6.403799 21.810885 1.116570 1.272800 0.023186 -0.022396 -495380.000000 0 1 0
9.413815 19.553776 7.586499 22.989673 1.122113 1.234497 0.039938 -0.021518 -246762.000000 0 1 0
8.715115 19.114176 8.713499 22.742692 1.143005 1.177609 0.033074 -0.011514 -125682.000000 0 1 0
7.411615 19.861376 9.112999 23.074944 1.213633 1.164804 0.027618 -0.018736 143904.000000 0 1 0
6.412915 19.793976 8.156799 22.348609 1.257484 1.197185 0.024411 -0.030031 -650856.000000 0 1 0
6.392415 21.028076 7.486399 23.218293 1.275679 1.242495 0.019533 -0.021371 -378404.000000 0 1 0
5.117215 21.272576 6.626599 22.860888 1.334727 1.276709 0.011151 -0.007514 1022490.000000 0 1 0
3.840415 21.512876 7.234199 23.019259 1.394140 1.251112 0.008270 -0.009432 703987.000000 0 1 0
3.748115 22.721676 7.932699 24.356737 1.407311 1.239057 0.018521 -0.012680 -622820.000000 0 1 0
3.786915 24.046176 7.101699 25.357315 1.414594 1.286934 0.027406 -0.010850 -203601.000000 0 0 1
2.631315 24.187876 6.316899 25.137231 1.462436 1.316777 0.018952 -0.010441 -87219.400000 0 0 1
2.790215 25.272876 5.441299 26.002140 1.460838 1.359975 0.028417 -0.008061 -484956.000000 0 0 1
1.595815 25.488376 4.532799 25.937429 1.508268 1.395135 0.035054 -0.011183 -784769.000000 0 0 1
0.539015 26.154876 5.169299 26.666266 1.550191 1.375710 0.055983 -0.013695 -499432.000000 0 0 1
-0.612785 26.207676 4.371799 26.576878 -1.547419 1.405549 0.062713 -0.018311 1189400.000000 0 0 1
-1.933385 26.682476 5.179299 27.249177 -1.498464 1.379561 0.081880 -0.025092 1581400.000000 0 0 1
-2.884885 27.079676 4.189899 27.553343 -1.464663 1.418139 0.099198 -0.027944 -891233.000000 0 0 1
-4.000285 27.647776 4.755299 28.337514 -1.427106 1.402189 0.092427 -0.027088 -1630010.000000 0 0 1
-4.916985 28.180776 3.717699 28.847083 -1.398055 1.441561 0.099953 -0.030908 -895743.000000 0 0 1
-4.425985 29.133176 2.780199 29.598324 -1.420027 1.476727 0.094099 -0.028404 -241196.000000 0 0 1
-5.295085 29.315276 1.669099 29.836374 -1.392098 1.514825 0.094992 -0.034520 -376920.000000 0 0 1
-4.723685 30.206676 0.555199 30.578828 -1.415674 1.552639 0.091488 -0.035643 -194345.000000 0 0 1
-4.270385 31.503576 0.958899 31.806147 -1.436065 1.540644 0.092286 -0.029557 1691370.000000 0 0 1
-2.949285 31.492376 1.620099 31.671640 -1.477418 1.519621 0.095443 -0.022187 1043090.000000 0 0 1
-2.416885 32.868576 1.866999 33.010155 -1.497397 1.514208 0.090790 -0.023005 -789601.000000 0 0 1
-1.889285 33.397976 0.667299 33.458026 -1.514288 1.550851 0.077758 -0.015286 -6142.770000 0 0 1
-1.047285 -33.738868 0.735199 33.763124 1.539765 1.549019 0.072098 -0.015747 73165.300000 0 0 1
0.338415 -33.877268 1.392999 33.907584 -1.560807 1.529703 0.060269 -0.010948 -640636.000000 0 0 1
0.326115 34.085276 2.785899 34.200492 1.561229 1.489248 0.049167 -0.008151 442486.000000 0 0 1
1.647715 33.960376 3.324699 34.162490 1.522316 1.473322 0.038232 -0.005981 724640.000000 0 0 1
1.577215 34.117076 4.840299 34.494797 1.524600 1.430012 0.039196 -0.005911 5050.550000 0 0 1
0.795415 33.128476 5.430699 33.580070 1.546791 1.408359 0.064541 -0.019845 -36207.600000 0 0 1
0.170715 33.495776 6.694499 34.158637 1.565700 1.373537 0.072947 -0.017598 39905.300000 0 0 1
1.067915 33.649376 7.918099 34.584928 1.539070 1.339801 0.064065 -0.017152 -250420.000000 0 0 1
1.313115 32.340776 8.422899 33.445408 1.530216 1.316215 0.066583 -0.025154 129058.000000 0 0 1
2.484415 32.255576 9.225499 33.640814 1.493925 1.293002 0.066040 -0.024094 -84891.100000 0 0 1
2.934515 30.788676 9.199999 32.267537 1.475772 1.281669 0.058523 -0.023210 94724.200000 0 0 1
2.195615 29.895076 10.019099 31.605674 1.497484 1.248228 0.073472 -0.031706 310037.000000 0 0 1
2.827715 28.642076 9.913499 30.440794 1.472389 1.239081 0.054557 -0.027151 134862.000000 0 0 1
2.610615 27.736876 11.192699 30.023759 1.476952 1.188777 0.050683 -0.030439 -212612.000000 0 0 1
3.108915 28.247476 12.441299 31.022108 1.461178 1.158138 0.038757 -0.022364 80790.300000 0 0 1
2.971715 27.335676 13.572099 30.663858 1.462510 1.112290 0.039801 -0.017997 1369880.000000 0 0 1
1.449415 27.019576 13.982799 30.457790 1.517205 1.093828 0.047576 -0.023128 1802450.000000 0 0 1
0.746615 28.090276 14.636299 31.683470 1.544223 1.090599 0.050448 -0.019816 220583.000000 0 0 1
0.197015 29.087376 13.843599 32.214275 1.564023 1.126597 0.053449 -0.023735 -139049.000000 0 0 1
-0.610085 30.179476 14.660799 33.557593 -1.550584 1.118664 0.038477 -0.017391 1591900.000000 0 0 1
-1.897385 29.765476 15.196499 33.474128 -1.507138 1.099572 0.018860 -0.011052 732792.000000 0 0 1
-2.672085 30.818676 15.559299 34.626906 -1.484309 1.104768 0.024132 -0.005490 -247502.000000 0 0 1
-3.960185 30.466376 16.373499 34.813426 -1.441536 1.081141 0.018273 0.000007 615572.000000 0 0 1
-4.913985 29.778476 15.557099 33.954797 -1.407252 1.094860 0.020197 -0.012635 -1064400.000000 0 0 1
-6.094185 29.722676 16.241799 34.414715 -1.368564 1.079302 0.030529 -0.011172 -1179370.000000 0 0 1
-7.110385 28.765176 15.514299 33.446770 -1.328467 1.088460 0.031546 -0.020179 -193572.000000 0 0 1
-8.332985 28.699376 16.176299 33.981841 -1.288212 1.074664 0.034948 -0.019606 -662110.000000 0 0 1
-9.310085 28.035576 15.415699 33.321389 -1.250173 1.089829 0.035315 -0.015094 102774.000000 0 0 1
-10.483385 27.523576 16.279899 33.652395 -1.206874 1.065843 0.038484 -0.014691 325062.000000 0 0 1
-11.525685 28.425776 16.649999 34.901127 -1.185587 1.073488 0.042533 -0.018575 385173.000000 0 0 1
-11.241585 29.111676 17.836099 35.944253 -1.202283 1.051562 0.040828 -0.018595 -149078.000000 0 0 1
-12.095785 30.334676 18.265499 37.418298 -1.191373 1.060835 0.050706 -0.016712 562313.000000 0 0 1
-13.446685 30.103076 18.672799 37.890394 -1.150700 1.055479 0.064102 -0.012081 627151.000000 0 0 1
-14.027385 31.303076 19.131799 39.276912 -1.149511 1.062030 0.081524 -0.019639 24716.200000 0 0 1
-15.125685 31.025176 20.161999 39.973167 -1.117175 1.042123 0.088152 -0.017863 122945.000000 0 0 1
-14.568485 30.845676 21.457599 40.300435 -1.129551 1.009315 0.068807 -0.012587 -24317.300000 0 0 1
-15.534985 30.472876 22.374699 40.872474 -1.099342 0.991510 0.059815 -0.005120 -317846.000000 0 0 1
-14.866485 30.559976 23.757899 41.465194 -1.118032 0.960683 0.036377 0.005308 -807587.000000 0 0 1
-13.887485 29.565476 23.870699 40.457260 -1.131665 0.939709 0.025233 0.001973 162187.000000 0 0 1
-13.480085 29.210576 25.215899 40.875567 -1.138437 0.906006 0.034085 -0.000709 106084.000000 0 0 1
-12.712385 30.285976 25.963099 41.867978 -1.173385 0.901903 0.027285 0.002239 -580073.000000 0 0 1
-13.678985 31.220176 26.385299 43.104501 -1.157844 0.912053 0.019177 0.004914 532377.000000 0 0 1
-13.100185 32.404776 26.833699 44.065086 -1.186617 0.916053 0.014474 0.004592 387043.000000 0 0 1
-14.249185 33.433576 27.220299 45.406915 -1.167915 0.927952 0.019998 0.000426 713997.000000 0 0 1
-15.063385 33.101076 28.336799 46.103807 -1.143732 0.908879 0.003426 -0.001333 386290.000000 0 0 1
-14.456385 33.154476 29.647599 46.767366 -1.159619 0.884162 0.019686 0.007854 -325567.000000 0 0 1
-15.225285 32.348876 30.702299 47.126322 -1.130896 0.861250 0.012490 0.008522 -478106.000000 0 0 1
-16.494385 32.829276 31.027499 48.088791 -1.105207 0.869495 0.017258 0.010401 -820655.000000 0 0 1
-17.040785 32.080476 32.047099 48.441324 -1.082510 0.847892 0.008215 0.008300 -812545.000000 0 0 1
-18.418485 32.576976 32.408799 49.505860 -1.056219 0.857082 0.024055 0.003034 -818062.000000 0 0 1
-18.516185 33.913476 32.924299 50.763988 -1.071042 0.865084 0.037934 0.004740 654218.000000 0 0 1
-19.913585 -34.083668 33.149999 51.547742 1.042034 0.872266 0.046065 -0.005321 753161.000000 0 0 1
-20.281585 -32.612468 33.384499 50.886545 1.014432 0.855213 0.046743 -0.001587 -185008.000000 0 0 1
-19.927385 -32.183868 -33.599594 50.614570 1.016398 2.296728 0.050050 -0.001517 550310.000000 0 0 1
-20.878685 -32.566868 -32.558794 50.562787 1.000702 2.270418 0.057893 -0.006464 651831.000000 0 0 1
-20.649685 -31.871868 -31.194294 49.145798 0.995901 2.258455 0.067302 -0.011561 -10176.600000 0 0 1
-20.892285 -30.493068 -31.302494 48.437185 0.970107 2.273455 0.066572 -0.009249 -95699.800000 0 0 1
-20.157585 -29.774168 -30.361394 47.060000 0.975663 2.272034 0.053794 -0.004425 -83759.300000 0 0 1
-20.399785 -28.246168 -30.436794 46.264410 0.945317 2.288807 0.064322 -0.014300 -470419.000000 0 0 1
-21.615585 -27.831568 -29.911994 46.222906 0.910452 2.274604 0.062337 -0.004740 -612664.000000 0 0 1
-21.726085 -26.455068 -29.874394 45.435370 0.883235 2.288311 0.059389 -0.014216 788289.000000 0 0 1
-23.108885 -26.056168 -29.231494 45.468942 0.845273 2.269061 0.072169 -0.018105 682095.000000 0 0 1
-23.194485 -26.133668 -27.834294 44.673266 0.844912 2.243450 0.061172 -0.014216 354011.000000 0 0 1
-22.434885 -25.123568 -27.122894 43.245452 0.841872 2.248730 0.064327 -0.021626 60852.400000 0 0 1
-22.486085 -25.271768 -25.594094 42.418674 0.843661 2.218515 0.072654 -0.018555 468211.000000 0 0 1
-23.742985 -24.933468 -25.006494 42.552696 0.809850 2.198959 0.059912 -0.023376 357979.000000 0 0 1
-23.712385 -25.282168 -23.669994 41.973013 0.817427 2.169938 0.067301 -0.015406 578340.000000 0 0 1
-25.129085 -25.244768 -22.981594 42.390127 0.787695 2.143784 0.057711 -0.011782 1153980.000000 0 0 1
-26.121685 -26.188468 -23.388394 43.762944 0.786675 2.134634 0.041072 -0.001964 -62182.300000 0 0 1
-25.788585 -27.579168 -23.127094 44.277806 0.818937 2.120363 0.046871 0.007534 -1223400.000000 0 0 1
-27.063985 -28.449268 -23.116194 45.565102 0.810347 2.102871 0.039443 0.015330 141963.000000 0 0 1
-27.880085 -28.194568 -22.026894 45.358757 0.791006 2.077863 0.035197 0.022704 -159788.000000 0 0 1
-28.810985 -27.113168 -22.249294 45.389732 0.755048 2.083096 0.027420 0.023569 -415542.000000 0 0 1
-29.445285 -26.720268 -20.902194 44.921033 0.736919 2.054781 0.021093 0.023919 -330991.000000 0 0 1
-30.344685 -27.658868 -20.395894 45.845451 0.739127 2.031841 0.019352 0.022266 -43245.200000 0 0 1
-30.862785 -27.284268 -19.134894 45.421217 0.723933 2.005649 0.018446 0.021823 -921758.000000 0 0 1
-31.727485 -28.332268 -18.425394 46.355645 0.728928 1.979564 0.005227 0.020294 -174906.000000 0 0 1
-33.072385 -28.448668 -18.866794 47.529625 0.710383 1.978986 0.003417 0.015340 570213.000000 0 0 1
-33.985385 -27.389868 -18.648894 47.465698 0.678347 1.974571 -0.001369 0.019806 -440737.000000 0 0 1
-34.302685 -26.990668 -17.195594 46.913312 0.666664 1.946084 0.002732 0.015901 -620809.000000 0 0 1
-33.366485 -26.036568 -16.734394 45.511154 0.662626 1.947330 -0.001078 0.021733 388292.000000 0 0 1
-33.763785 -25.498868 -15.482394 45.054300 0.646829 1.921585 0.002361 0.008076 -88141.000000 0 0 1
-33.615385 -26.329068 -14.141994 44.980106 0.664440 1.890627 0.012246 0.012692 -230010.000000 0 0 1
-34.417985 -27.451868 -13.973794 46.189497 0.673277 1.878144 0.025690 0.014411 16299.600000 0 0 1
-34.057085 -28.046968 -12.738794 45.921611 0.688924 1.851886 0.029986 0.006676 -178491.000000 0 0 1
-34.801985 -29.350068 -12.485394 47.206882 0.700618 1.838464 0.041390 -0.001194 -266985.000000 0 0 1
-34.362685 -30.335568 -13.434994 47.765467 0.723234 1.855914 0.033384 -0.004110 334832.000000 0 0 1
-34.874685 -31.635868 -13.191294 48.898691 0.736740 1.843948 0.029178 -0.009813 -365437.000000 0 0 1
-34.302585 -32.724968 -14.124794 49.468178 0.761866 1.860359 0.020584 0.004653 -375511.000000 0 0 1
-32.934585 -33.028968 -13.959194 48.687357 0.786829 1.861588 0.011955 0.006713 -102158.000000 0 0 1
-32.525285 -33.840768 -15.016094 49.280572 0.805217 1.880426 0.037253 -0.007591 -349394.000000 0 0 1
-31.069385 33.947576 -15.040894 48.414596 -0.829638 1.886693 0.025845 -0.004880 -240186.000000 0 0 1
-30.777085 33.066476 -16.109294 47.959672 -0.821242 1.913349 0.037955 -0.007843 247896.000000 0 0 1
-29.363385 32.872376 -16.099694 46.925490 -0.841721 1.921002 0.030585 -0.012324 339247.000000 0 0 1
9.424645 20.109976 -8.977901 23.954911 1.132538 1.954959 0.050788 -0.011365 667391.000000 0 1 0
7.993645 19.979476 -9.091701 23.361012 1.190210 1.970540 0.056331 -0.018357 1029730.000000 0 1 0
7.534445 20.145776 -10.437001 23.907136 1.212906 2.022573 0.069607 -0.017937 -117449.000000 0 1 0
7.599445 18.865576 -11.351501 23.292018 1.187861 2.079855 0.060603 -0.011632 -693191.000000 0 1 0
8.913645 18.552676 -11.694501 23.673112 1.122910 2.087480 0.072165 -0.009652 -573693.000000 0 1 0
8.960745 17.291776 -12.245901 23.005707 1.092688 2.132110 0.060606 -0.022573 86600.900000 0 1 0
10.268645 16.863376 -12.961801 23.618358 1.023835 2.151727 0.069356 -0.015450 143481.000000 0 1 0
10.171345 15.613976 -13.604801 23.072562 0.993420 2.201425 0.079859 -0.032754 515352.000000 0 1 0
11.369745 15.414376 -14.333701 23.923400 0.935274 2.213235 0.093742 -0.033949 103545.000000 0 1 0
11.043845 14.385976 -15.452301 23.826381 0.916075 2.276458 0.079586 -0.028463 -322259.000000 0 1 0
10.898645 13.041176 -14.962301 22.643392 0.874657 2.292654 0.075592 -0.024794 443165.000000 0 1 0
12.037745 12.325876 -14.473801 22.501676 0.797224 2.269508 0.083728 -0.021406 71574.700000 0 1 0
12.986545 11.787476 -15.613001 23.481072 0.737036 2.298181 0.097304 -0.022911 -207363.000000 0 1 0
13.808445 12.761576 -16.177601 24.804148 0.746018 2.281297 0.091482 -0.024446 -187308.000000 0 1 0
14.453845 12.185776 -17.263101 25.601200 0.700464 2.310824 0.084612 -0.026431 -241578.000000 0 0 1
15.154045 13.196476 -18.193901 27.107381 0.716459 2.306594 0.065049 -0.022442 232268.000000 0 0 1
16.239145 13.927576 -17.658701 27.740168 0.708921 2.260846 0.061115 -0.023579 -616791.000000 0 0 1
17.191645 14.164976 -18.617601 29.031264 0.689172 2.266981 0.054679 -0.019288 -256959.000000 0 0 1
18.445445 14.881776 -18.021801 29.773932 0.678873 2.220924 0.047466 -0.008737 41344.700000 0 0 1
18.219645 16.231276 -17.561001 30.063242 0.727746 2.194611 0.052420 -0.014356 193592.000000 0 0 1
17.761945 17.208876 -18.483601 30.875162 0.769584 2.212619 0.054508 -0.003018 -94513.400000 0 0 1
17.619645 18.701376 -17.919701 31.325853 0.815172 2.179790 0.058991 0.000532 -180023.000000 0 0 1
18.823445 19.390976 -17.742701 32.328555 0.800248 2.151754 0.052719 -0.003361 -202937.000000 0 0 1
18.512545 20.700476 -17.308801 32.723365 0.841136 2.128151 0.053588 -0.004196 790527.000000 0 0 1
19.643945 21.804976 -17.538001 34.189516 0.837488 2.109431 0.063070 -0.008521 1899420.000000 0 0 1
20.853045 21.752376 -16.735601 34.468764 0.806503 2.077765 0.050844 -0.007597 855572.000000 0 0 1
20.658245 22.303276 -15.461801 34.106693 0.823670 2.041301 0.062800 -0.010191 -190379.000000 0 0 1
21.988045 22.803976 -14.874801 34.996502 0.803612 2.009799 0.058256 -0.008193 -850337.000000 0 0 1
22.358745 21.850076 -13.883601 34.206632 0.773893 1.988732 0.068323 -0.010216 221256.000000 0 0 1
23.512545 22.262176 -13.148301 34.947419 0.758089 1.956521 0.056761 -0.003199 834287.000000 0 0 1
24.897745 22.129676 -13.843301 36.072943 0.726605 1.964659 0.050468 0.003222 -335828.000000 0 0 1
25.120445 22.943676 -14.967801 37.168321 0.740140 1.985264 0.054341 0.011156 -579138.000000 0 0 1
26.335145 22.709976 -15.608401 38.116992 0.711617 1.992688 0.041319 0.030368 -659928.000000 0 0 1
26.554245 23.412176 -16.953101 39.251313 0.722597 2.017408 0.033020 0.023182 -132462.000000 0 0 1
27.485345 22.697276 -17.761101 39.825460 0.690273 2.033058 0.040440 0.018692 334651.000000 0 0 1
27.395745 23.155576 -19.082501 40.630646 0.701716 2.059699 0.042932 0.014696 -634795.000000 0 0 1
27.830245 22.217176 -20.190001 40.936067 0.673710 2.086570 0.043402 0.004968 365329.000000 0 0 1
29.250745 22.295576 -20.270701 41.995239 0.651278 2.074520 0.037247 0.009363 158923.000000 0 0 1
29.753545 21.415376 -21.254401 42.375008 0.623864 2.096219 0.042903 0.002878 -329674.000000 0 0 1
31.267145 21.545276 -21.407601 43.590350 0.603353 2.084158 0.066542 -0.006645 -788258.000000 0 0 1
31.609345 22.746076 -22.105501 44.779324 0.623759 2.087083 0.048773 0.004674 -75317.700000 0 0 1
32.861345 23.273876 -21.746601 45.765226 0.616238 2.065962 0.051117 0.003266 -134914.000000 0 0 1
33.192045 24.669976 -22.347601 47.007817 0.639167 2.066217 0.038651 0.002668 -216819.000000 0 0 1
33.356245 24.544376 -23.779501 47.754897 0.634368 2.092028 0.036032 -0.005004 82559.300000 0 0 1
32.183845 24.625576 -24.550401 47.380809 0.653129 2.115484 0.035211 -0.007931 -561056.000000 0 0 1
32.493645 25.123376 -26.008911 48.615681 0.658171 2.135292 0.045143 -0.016103 -570123.000000 0 0 1
32.429745 26.528676 -26.141991 49.384843 0.685642 2.128634 0.053210 -0.021718 36485.500000 0 0 1
31.124545 27.080676 -26.163921 48.853363 0.716034 2.135967 0.066214 -0.016347 115830.000000 0 0 1
30.373745 26.869276 -27.516701 49.007053 0.724254 2.166975 0.065487 -0.012017 -516574.000000 0 0 1
30.138545 25.487676 -27.858531 48.312020 0.701983 2.185404 0.051194 -0.021178 -108116.000000 0 0 1
29.813845 25.312376 -29.225701 48.823389 0.703921 2.212549 0.058775 -0.024369 -59555.400000 0 0 1
29.140945 23.904176 -29.456941 47.836343 0.686994 2.234179 0.065222 -0.026958 -571154.000000 0 0 1
27.824845 23.815976 -29.034731 46.737975 0.707924 2.241099 0.072880 -0.025659 -763334.000000 0 0 1
27.226145 22.619976 -29.494361 46.074327 0.693252 2.265486 0.079956 -0.034875 219199.000000 0 0 1
25.790045 22.374776 -28.967441 44.775771 0.714609 2.274367 0.071332 -0.025610 71072.000000 0 0 1
25.719245 22.373476 -27.558211 43.834997 0.715941 2.250652 0.082907 -0.016255 936315.000000 0 0 1
24.344145 22.560976 -27.168231 42.892282 0.747400 2.256743 0.073255 -0.014706 976180.000000 0 0 1
24.065645 22.692976 -25.612511 41.834521 0.756050 2.229679 0.073128 -0.010061 52381.800000 0 0 1
24.508045 21.527976 -24.956901 41.072435 0.720755 2.223871 0.073184 -0.014565 209929.000000 0 0 1
24.957545 21.720976 -23.625601 40.655244 0.716172 2.190901 0.069541 -0.008583 15974.000000 0 0 1
25.311645 20.422776 -22.852901 39.749519 0.678906 2.183306 0.069093 -0.000970 -143334.000000 0 0 1
26.561745 19.934276 -23.262101 40.546603 0.643813 2.181828 0.058753 -0.004401 -168431.000000 0 0 1
26.905445 18.573176 -23.107301 40.035150 0.604195 2.186062 0.093567 -0.009667 584865.000000 0 0 1
28.325445 18.097876 -23.559701 41.047819 0.568551 2.182127 0.097791 -0.018246 1000060.000000 0 0 1
29.419045 18.362676 -22.700301 41.448423 0.558007 2.150380 0.105124 -0.024915 1629620.000000 0 0 1
30.675545 17.771776 -23.168301 42.350859 0.525095 2.149640 0.078156 -0.017057 1453440.000000 0 0 1
31.813045 17.560176 -22.166801 42.565205 0.504362 2.118552 0.066704 -0.009489 -59791.000000 0 0 1
32.394745 18.802276 -21.792701 43.334362 0.525892 2.097743 0.039528 0.001233 -190925.000000 0 0 1
33.624445 18.564076 -21.154901 43.849265 0.504455 2.074241 0.048045 -0.001453 -119556.000000 0 0 1
34.054645 19.751376 -20.264501 44.277372 0.525577 2.046171 0.032946 -0.007386 -443021.000000 0 0 1
33.583545 19.653076 -18.954601 43.282500 0.529466 2.024088 0.055731 -0.010720 151269.000000 0 0 1
33.925645 20.745976 -18.132201 43.704938 0.548842 1.998605 0.030620 -0.000452 151432.000000 0 0 1
33.189745 20.584876 -16.754901 42.497329 0.555153 1.976056 0.047584 -0.011371 342129.000000 0 0 1
33.762845 19.508876 -16.014301 42.154285 0.523952 1.960482 0.051427 -0.019085 470921.000000 0 0 1
33.316745 19.527976 -14.662401 41.307788 0.530159 1.933662 0.062947 -0.020266 -247376.000000 0 0 1
33.850445 18.353676 -13.767901 40.893339 0.496834 1.914183 0.055431 -0.016787 -674637.000000 0 0 1
35.235345 18.518276 -13.595501 42.062973 0.483886 1.899924 0.038573 -0.024139 107991.000000 0 0 1
35.852145 17.428876 -12.804301 41.869943 0.452492 1.881587 0.019793 -0.010737 436583.000000 0 0 1
35.833745 17.640476 -11.292001 41.506059 0.457458 1.846326 0.042977 -0.015537 -72652.200000 0 0 1
-36.475126 18.611076 -10.895801 42.373641 -0.471806 1.830854 0.039190 -0.020719 210582.000000 0 0 1
36.515645 19.001776 -9.544201 42.255788 0.479813 1.798630 0.041808 -0.018867 454163.000000 0 0 1
35.310945 19.971476 -9.375101 41.636705 0.514733 1.797908 0.043425 -0.025438 1993530.000000 0 0 1
33.951445 19.551676 -9.692801 40.359869 0.522489 1.813326 0.066864 -0.032623 2358160.000000 0 0 1
32.878345 20.544276 -9.728201 39.971124 0.558497 1.816646 0.048532 -0.023713 1553530.000000 0 0 1
31.497045 19.903676 -10.044401 38.588990 0.563561 1.834121 0.029420 -0.021784 320202.000000 0 0 1
31.333945 19.538576 -11.441301 38.658446 0.557563 1.871255 0.052199 -0.028454 -670547.000000 0 0 1
30.135845 18.857876 -11.587201 37.390532 0.559147 1.885881 0.058673 -0.027263 -495011.000000 0 0 1
29.840445 18.430676 -13.039501 37.418853 0.553290 1.926739 0.088262 -0.017273 217203.000000 0 0 1
30.725545 17.366476 -13.444401 37.767784 0.514448 1.934754 0.093805 -0.016641 284958.000000 0 0 1
30.289345 16.598476 -14.546401 37.477348 0.501304 1.969407 0.077964 -0.013317 408119.000000 0 0 1
31.532045 15.989176 -15.306501 38.525480 0.469293 1.979378 0.077255 -0.019600 613253.000000 0 0 1
32.354745 15.272376 -14.434601 38.580211 0.441021 1.954271 0.061124 -0.016909 -577842.000000 0 0 1
33.459645 14.686676 -15.031601 39.511964 0.413616 1.961059 0.059120 -0.018020 -348560.000000 0 0 1
34.254645 13.739876 -14.065101 39.496733 0.381463 1.934896 0.034740 -0.024348 -178329.000000 0 0 1
35.052245 14.389476 -13.110801 40.095012 0.389538 1.903917 0.040200 -0.007195 -12792.800000 0 0 1
35.464245 13.407876 -12.174401 39.820847 0.361457 1.881501 0.028880 0.002523 56493.900000 0 0 1
36.589945 13.871976 -11.220801 40.708257 0.362378 1.850051 0.048711 0.009333 -315611.000000 0 0 1
-35.460526 14.174576 -11.785901 39.965923 -0.380272 1.870146 0.028668 0.001429 -756314.000000 0 0 1
-34.482126 14.271476 -10.790901 38.847594 -0.392415 1.852274 0.022568 -0.000088 -622317.000000 0 0 1
-33.086626 14.808076 -11.231201 37.949227 -0.420819 1.871250 0.053658 -0.013558 1045550.000000 0 0 1
-32.088126 13.884676 -11.711701 36.872700 -0.408378 1.894020 0.048766 -0.013545 601335.000000 0 0 1
-31.771326 12.828376 -10.846401 35.939238 -0.383754 1.877375 0.076991 -0.000242 -917291.000000 0 0 1
-30.740126 11.800776 -11.348301 34.828115 -0.366540 1.902694 0.095728 -0.008755 120430.000000 0 0 1
-31.283626 10.956276 -12.383201 35.384303 -0.336874 1.928328 0.073124 -0.007812 314198.000000 0 0 1
-30.796826 9.640576 -12.246201 34.516005 -0.303375 1.933494 0.093533 -0.019250 -140697.000000 0 0 1
-30.587026 8.945276 -13.626801 34.659397 -0.284519 1.974866 0.090607 -0.022666 -587518.000000 0 0 1
-31.795626 8.659976 -14.245501 35.901132 -0.265914 1.978822 0.065271 -0.013138 -463940.000000 0 0 1
-31.691926 7.834476 -15.383801 36.089036 -0.242349 2.011166 0.071337 -0.021056 -121065.000000 0 0 1
-33.026726 7.360776 -16.017301 37.436607 -0.219289 2.012910 0.071890 -0.019753 -86829.600000 0 0 1
-33.697526 6.508376 -15.132201 37.508209 -0.190792 1.986066 0.082614 -0.021511 151126.000000 0 0 1
-34.678126 5.734276 -15.826301 38.547712 -0.163874 1.993869 0.063869 -0.022983 252351.000000 0 0 1
-35.616626 4.962476 -14.860801 38.910328 -0.138439 1.962674 0.054826 -0.020493 -282134.000000 0 0 1
-36.520326 4.153976 -15.526401 39.900612 -0.113257 1.970480 0.070566 -0.018600 -275333.000000 0 0 1
35.628145 3.913176 -14.692601 38.736935 0.109395 1.959827 0.072249 -0.015523 1176400.000000 0 0 1
34.599045 2.817076 -15.189701 37.891382 0.081241 1.983268 0.075514 -0.015263 729906.000000 0 0 1
35.309345 1.590276 -15.254001 38.496277 0.045008 1.978221 0.091953 -0.018370 769052.000000 0 0 1
34.434645 0.436476 -15.175801 37.632967 0.012675 1.985871 0.092983 -0.020301 388726.000000 0 0 1
33.878145 0.121376 -13.779401 36.573424 0.003583 1.957092 0.094738 -0.024450 -520723.000000 0 0 1
34.820745 -0.311424 -12.844501 37.115528 -0.008943 1.924173 0.100901 -0.022676 -147364.000000 0 0 1
34.473245 -0.030324 -11.472801 36.332226 -0.000880 1.892069 0.094870 -0.019727 -331835.000000 0 0 1
34.591045 1.486776 -10.947801 36.312604 0.042955 1.877049 0.088211 -0.024529 -188829.000000 0 0 1
33.631145 2.382076 -11.429801 35.600120 0.070711 1.897646 0.085520 -0.021616 282711.000000 0 0 1
34.008345 3.707276 -11.014701 35.939324 0.108582 1.882290 0.090219 -0.022155 155254.000000 0 0 1
32.937045 4.778276 -11.404801 35.181676 0.144068 1.900929 0.087214 -0.020008 170557.000000 0 0 1
32.918545 5.088476 -12.805301 35.686116 0.153364 1.937812 0.073615 -0.017310 789062.000000 0 0 1
31.784645 5.812476 -13.306401 34.944368 0.180872 1.961445 0.083400 -0.021834 218874.000000 0 0 1
32.039145 6.494176 -14.670001 35.831411 0.199986 1.992612 0.055601 -0.016395 -301820.000000 0 0 1
32.246545 5.608376 -15.754501 36.324893 0.172199 2.019403 0.065063 -0.011012 164657.000000 0 0 1
32.382645 6.254276 -17.042601 37.124142 0.190788 2.047745 0.053831 -0.012710 -632021.000000 0 0 1
31.295145 7.249876 -17.617601 36.637776 0.227646 2.072430 0.057917 -0.015283 771302.000000 0 0 1
30.085045 6.720476 -18.147901 35.771791 0.219774 2.102873 0.052517 -0.020955 565538.000000 0 0 1
29.238645 6.092676 -17.208701 34.469674 0.205438 2.093520 0.053845 -0.015473 -287105.000000 0 0 1
27.773145 5.894676 -17.741701 33.479288 0.209140 2.129315 0.048145 -0.017245 543854.000000 0 0 1
27.656545 4.911576 -18.749201 33.771890 0.175759 2.159366 0.046537 -0.014702 494633.000000 0 0 1
26.450345 5.104376 -19.486001 33.247250 0.190636 2.197025 0.037520 -0.011502 261365.000000 0 0 1
26.069445 3.860176 -20.331701 33.285056 0.147005 2.227912 0.036847 0.003903 -334145.000000 0 0 1
25.335745 2.954076 -19.539201 32.131089 0.116073 2.224473 0.040292 -0.005053 186699.000000 0 0 1
24.951945 1.844176 -20.328601 32.237440 0.073775 2.253109 0.030588 0.000957 -1326380.000000 0 0 1
23.996245 0.958276 -19.633501 31.019549 0.039913 2.256141 0.025668 -0.005795 -872564.000000 0 0 1
22.781145 1.623276 -19.411401 29.973623 0.071135 2.275248 0.033194 -0.007533 30447.700000 0 0 1
21.777245 0.816176 -18.828001 28.799447 0.037461 2.283343 0.040595 -0.013482 616918.000000 0 0 1
20.412645 1.513776 -18.512901 27.598824 0.074023 2.306064 0.043101 -0.015076 -713856.000000 0 0 1
19.567245 1.600676 -19.647201 27.775020 0.081622 2.356566 0.041769 -0.013057 -411849.000000 0 0 1
18.461245 2.403376 -19.508501 26.966190 0.129457 2.379573 0.042437 -0.020829 -793066.000000 0 0 1
17.362445 1.864676 -18.610201 25.520013 0.106987 2.388006 0.067855 -0.032735 -1993240.000000 0 0 1
17.563145 2.105776 -17.205001 24.676110 0.119328 2.342327 0.070911 -0.037562 -402748.000000 0 1 0
16.444845 1.946476 -16.394501 23.302389 0.117816 2.351183 0.057494 -0.026883 -458154.000000 0 1 0
15.564445 3.207076 -16.307701 22.770121 0.203207 2.369122 0.061600 -0.024458 -132188.000000 0 1 0
14.937445 3.602876 -17.486801 23.278664 0.236677 2.420666 0.058344 -0.016387 125136.000000 0 1 0
13.882245 4.506876 -17.239401 22.588174 0.313916 2.439055 0.067924 -0.024139 -49769.500000 0 1 0
-19.752555 -21.807924 -16.927101 33.945187 0.834813 2.092848 0.093232 -0.027501 -10383.400000 0 0 1
-19.701555 -22.506424 -18.164601 34.994901 0.851754 2.116552 0.093556 -0.026824 613131.000000 0 0 1
-20.824955 -22.168624 -18.999001 35.862079 0.816641 2.129137 0.099009 -0.021755 482352.000000 0 0 1
-20.729555 -22.778224 -20.389101 36.936126 0.832451 2.155569 0.075459 -0.019558 -21504.500000 0 0 1
-20.820655 -24.195524 -20.358801 37.860320 0.860228 2.138544 0.059896 -0.014579 156696.000000 0 0 1
-20.266255 -24.775024 -21.530001 38.575431 0.885169 2.162923 0.059499 -0.016484 83218.000000 0 0 1
-20.064755 -26.328914 -21.352401 39.392019 0.919608 2.143670 0.051468 -0.007912 -78352.700000 0 0 1
-21.280955 -27.054444 -21.322501 40.490382 0.904281 2.125400 0.059391 0.001242 1712.980000 0 0 1
-21.072855 -28.409884 -21.106801 41.190822 0.932600 2.108791 0.069977 -0.013797 759588.000000 0 0 1
-22.372855 -29.273934 -21.358601 42.587530 0.918232 2.096154 0.062149 -0.006422 1204180.000000 0 0 1
-23.065555 -29.219694 -22.626001 43.563130 0.902562 2.116926 0.045841 0.005697 200929.000000 0 0 1
-22.346655 -29.795564 -23.681501 44.135724 0.927296 2.137153 0.037674 0.004459 -220748.000000 0 0 1
-22.895055 -29.278704 -25.049841 44.820984 0.907147 2.163839 0.031627 0.012776 222764.000000 0 0 1
-24.225755 -29.599444 -25.406141 45.918257 0.884904 2.157106 0.045045 0.016655 110774.000000 0 0 1
-24.630455 -29.122804 -26.694811 46.555450 0.868778 2.181444 0.044864 0.016614 -115071.000000 0 0 1
-23.967955 -29.585824 -28.033431 47.282736 0.889917 2.205438 0.055170 0.000673 -259892.000000 0 0 1
-24.282655 -30.911794 -28.474611 48.538540 0.904931 2.197699 0.052928 0.004144 38087.500000 0 0 1
-24.165255 -30.932484 -29.872441 49.326878 0.907608 2.221318 0.082331 -0.009260 124040.000000 0 0 1
-24.783255 -32.197624 -30.609001 50.870499 0.914791 2.216430 0.058938 -0.011326 136703.000000 0 0 1
-24.044855 -33.373404 -30.362601 51.125597 0.946458 2.206672 0.061490 -0.023911 -354047.000000 0 0 1
-24.704255 33.716976 -30.734851 51.882230 -0.938463 2.204827 0.063435 -0.022562 -439242.000000 0 0 1
-23.801655 32.496904 -30.824861 50.722181 -0.938636 2.223982 0.082094 -0.023197 -425501.000000 0 0 1
-22.841155 32.570393 -31.832731 50.949698 -0.959208 2.245656 0.088307 -0.033750 -641443.000000 0 0 1
-22.210355 31.303180 -31.809021 49.849803 -0.953707 2.262821 0.083533 -0.025005 -248034.000000 0 0 1
-20.985755 31.343430 -32.736111 49.944625 -0.980805 2.285572 0.074397 -0.022277 -187708.000000 0 0 1
-21.356555 30.970710 -34.045808 50.738589 -0.967103 2.306359 0.073688 -0.017260 115595.000000 0 0 1
-21.124355 29.586420 33.886098 49.697709 -0.950744 0.820515 0.047277 -0.006483 -6361.220000 0 0 1
-21.214355 29.287060 32.329878 48.507750 -0.943908 0.841307 0.036664 -0.004445 -63683.300000 0 0 1
-20.248955 29.983570 31.577402 48.022568 -0.976817 0.853230 0.028206 -0.001006 328352.000000 0 0 1
-20.565155 29.956460 30.165192 47.225564 -0.969187 0.877928 0.041094 0.000131 -47291.900000 0 0 1
-19.892455 31.104680 29.353392 47.168131 -1.001815 0.899101 0.030420 -0.018238 30819.000000 0 0 1
-20.681255 32.295017 29.522712 48.397035 -1.001210 0.914722 0.029868 -0.015626 516726.000000 0 0 1
-20.111255 33.566401 29.158352 48.799338 -1.031003 0.930397 0.022766 -0.023175 139718.000000 0 0 1
-21.209455 -33.575274 29.023442 49.188415 1.007394 0.939680 0.031608 -0.030362 492507.000000 0 0 1
-21.868555 -33.377444 30.282652 50.093178 0.990781 0.921625 0.028425 -0.012946 1014160.000000 0 0 1
-23.010355 -32.471834 30.311642 50.026913 0.954305 0.919891 0.041106 -0.017268 526444.000000 0 0 1
-22.704255 -30.989684 30.267642 48.907810 0.938499 0.903491 0.043843 -0.012574 -470343.000000 0 0 1
-22.244455 -30.745094 28.912742 47.707685 0.944464 0.919724 0.026360 -0.010111 81029.600000 0 0 1
-22.232855 -29.375954 28.528162 46.595091 0.922933 0.911885 0.022284 -0.012373 439663.000000 0 0 1
-23.614455 -28.765944 28.148012 46.662968 0.883431 0.923265 0.023332 -0.002656 165379.000000 0 0 1
-24.661255 -28.521714 29.086142 47.620052 0.857859 0.913731 0.033676 0.001743 1044080.000000 0 0 1
-25.784615 -29.412874 29.046722 48.720382 0.851036 0.932046 0.034361 0.000681 416681.000000 0 0 1
-26.758925 -29.253524 27.842412 48.445935 0.829905 0.958545 0.011812 0.005981 -681034.000000 0 0 1
-26.200305 -29.474474 26.530312 47.529549 0.844139 0.978599 0.020439 0.005783 -402965.000000 0 0 1
-27.171615 -29.593214 25.554332 47.613851 0.828033 1.004276 0.021846 0.010101 -552069.000000 0 0 1
-26.590935 -29.909554 24.173262 46.754741 0.844067 1.027427 0.022807 0.006278 -344321.000000 0 0 1
-25.984425 -28.783034 23.556492 45.371375 0.836454 1.024890 0.002992 0.007022 522767.000000 0 0 1
-25.349445 -29.032774 22.292792 44.524880 0.853025 1.046410 0.028965 -0.001908 575552.000000 0 0 1
-24.090855 -29.917434 22.120692 44.325468 0.892866 1.048292 0.037499 -0.014030 -283060.000000 0 0 1
-24.482455 -31.266404 22.036892 45.415892 0.906490 1.064177 0.031436 -0.023248 172498.000000 0 0 1
-23.374555 -32.121424 21.935292 45.379651 0.941725 1.066293 0.055965 -0.016229 -342177.000000 0 0 1
-22.700355 -32.564854 23.222032 45.989549 0.962032 1.041482 0.039359 -0.009660 -307048.000000 0 0 1
-21.995455 -31.552324 23.887222 45.276358 0.962012 1.015039 0.063321 -0.022493 -106744.000000 0 0 1
-21.313055 -32.114504 25.020112 45.952080 0.984879 0.995024 0.053220 -0.033562 -871783.000000 0 0 1
-20.240955 -31.119034 25.374142 44.965961 0.994114 0.971215 0.049349 -0.021715 -1549200.000000 0 0 1
-19.135655 -31.023184 24.502982 43.920466 1.018102 0.978950 0.053527 -0.022070 145597.000000 0 0 1
-17.975855 -30.517834 25.141072 43.434353 1.038484 0.953504 0.079317 -0.030256 499845.000000 0 0 1
-17.202455 -31.507994 26.086852 44.375691 1.071052 0.942381 0.060450 -0.031642 -501701.000000 0 0 1
-17.859255 -31.620274 27.343702 45.458473 1.056658 0.925407 0.050507 -0.024794 341954.000000 0 0 1
-17.069255 -32.388424 28.233572 46.233149 1.085769 0.913880 0.038870 -0.012061 -5666.500000 0 0 1
-17.281155 -31.977564 29.666862 46.918286 1.075342 0.886266 0.056916 -0.013445 39011.400000 0 0 1
-17.000055 -30.593454 29.862492 46.007931 1.063606 0.864431 0.051015 -0.008644 82663.300000 0 0 1
-17.519455 -30.193434 31.077002 46.737082 1.045033 0.843393 0.062948 -0.008801 -368289.000000 0 0 1
-17.411855 -28.658474 31.367892 45.917594 1.024834 0.818750 0.065528 -0.013345 61740.500000 0 0 1
-18.327655 -27.749014 30.746712 45.290959 0.987089 0.824573 0.069012 -0.014988 253024.000000 0 0 1
-18.488355 -27.715044 29.326962 44.384835 0.982503 0.848988 0.071464 -0.014433 952931.000000 0 0 1
-17.217655 -27.345514 28.402482 43.022387 1.008872 0.849739 0.070744 -0.011234 1074430.000000 0 0 1
-16.886155 -25.969434 28.437602 42.050576 0.994258 0.828107 0.068217 -0.008127 351098.000000 0 0 1
-15.777155 -25.679074 27.590062 40.860066 1.019858 0.829516 0.065005 -0.009258 235660.000000 0 0 1
-15.660355 -24.229824 27.204582 39.653756 0.997009 0.814746 0.068701 -0.010974 1457210.000000 0 0 1
-16.891255 -23.741524 26.555492 39.422945 0.952417 0.831721 0.068386 -0.009798 1536980.000000 0 0 1
-16.550555 -22.800324 25.569522 38.047025 0.942904 0.833822 0.083648 -0.015378 -51596.600000 0 0 1
-17.101555 -21.389524 25.781252 37.611805 0.896342 0.815566 0.079069 -0.010028 -515129.000000 0 0 1
-16.745055 -20.402724 24.791482 36.211677 0.883544 0.816705 0.086385 -0.014475 142939.000000 0 0 1
-17.361455 -19.166724 25.100032 36.038799 0.834779 0.800326 0.076881 -0.007201 -41709.500000 0 0 1
-17.003455 -18.077124 24.105712 34.597474 0.815994 0.799943 0.079339 -0.017362 1356440.000000 0 0 1
-15.602555 -17.688224 24.135042 33.746307 0.847966 0.773900 0.076960 -0.024601 899782.000000 0 0 1
-15.308955 -16.671424 23.250132 32.447945 0.827976 0.771972 0.077632 -0.022669 846135.000000 0 0 1
-13.803755 -16.305324 23.533752 31.784347 0.868291 0.737102 0.074889 -0.024287 1221270.000000 0 0 1
-12.831855 -17.275624 22.984092 31.486063 0.931937 0.752508 0.067621 -0.028861 286965.000000 0 0 1
-11.535955 -16.887024 23.335362 31.028841 0.971486 0.719623 0.063220 -0.021477 -665552.000000 0 0 1
-10.869255 -15.923224 22.305292 29.482466 0.971841 0.712758 0.071894 -0.021499 -370626.000000 0 0 1
-10.519655 -16.501924 21.022092 28.721159 1.003273 0.749635 0.085220 -0.024037 -139523.000000 0 0 1
-9.417555 -17.379124 21.069992 28.890636 1.074202 0.753495 0.067765 -0.023453 -482186.000000 0 0 1
-9.318255 -18.439824 20.012392 28.763741 1.102891 0.801332 0.072101 -0.022420 -499201.000000 0 0 1
-8.877155 -18.059724 18.751392 27.505858 1.113936 0.820680 0.079180 -0.028003 -354197.000000 0 0 1
-8.512455 -19.163024 17.992092 27.629671 1.152766 0.861648 0.078672 -0.028234 -80625.600000 0 0 1
-7.955955 -18.790624 16.640392 26.330351 1.170281 0.886684 0.072659 -0.034656 286100.000000 0 0 1
-6.584455 -18.405424 16.678092 25.695786 1.227238 0.864449 0.066234 -0.031683 -66464.800000 0 0 1
-6.200155 -18.073824 15.385792 24.532175 1.240330 0.892885 0.058699 -0.030737 -134452.000000 0 1 0
-5.363255 -16.798824 15.213392 23.289746 1.261761 0.858963 0.056649 -0.025839 -190084.000000 0 1 0
-5.967655 -15.633624 15.764492 22.990048 1.206148 0.815218 0.058652 -0.026650 -327086.000000 0 1 0
-5.297455 -14.435724 15.513192 21.842900 1.219086 0.780990 0.053852 -0.024863 -365964.000000 0 1 0
-5.833155 -13.322224 16.453192 21.959391 1.158091 0.723859 0.048828 -0.015043 299709.000000 0 1 0
-5.428155 -13.418524 17.860792 22.989770 1.186393 0.681066 0.052795 -0.014455 335962.000000 0 1 0
-6.112055 -14.444924 18.662992 24.378685 1.170512 0.698908 0.070925 -0.019103 934118.000000 0 1 0
-7.450155 -14.105524 19.396192 25.113400 1.084865 0.688273 0.074381 -0.020365 808781.000000 0 0 1
-7.143255 -13.204324 20.434292 25.356272 1.074906 0.633624 0.069190 -0.015872 359201.000000 0 0 1
-8.316455 -12.897624 21.186692 26.160811 0.998082 0.626877 0.071317 -0.012505 588697.000000 0 0 1
-8.047255 -11.963224 22.367492 26.611684 0.978652 0.572565 0.066580 -0.003903 -435216.000000 0 0 1
-7.684055 -10.639124 21.962192 25.584635 0.945296 0.538628 0.054660 -0.004939 373492.000000 0 0 1
-7.023455 -9.812324 22.932692 25.913683 0.949559 0.484378 0.042022 -0.007811 1611680.000000 0 0 1
-5.575255 -10.244624 23.449702 26.190157 1.072407 0.461550 0.046366 -0.006908 1071210.000000 0 0 1
-5.563355 -11.373624 24.254932 27.360774 1.115870 0.481102 0.055425 -0.001383 -191071.000000 0 0 1
-4.235055 -11.704924 24.597842 27.568002 1.223632 0.468469 0.049583 -0.001133 -340293.000000 0 0 1
-4.140255 -13.003024 25.392582 28.827132 1.262539 0.493127 0.060202 -0.008349 -328344.000000 0 0 1
-2.867555 -13.262924 25.946142 29.280203 1.357865 0.481864 0.048437 -0.005755 41114.100000 0 0 1
-2.828755 -14.433824 26.771762 30.546102 1.377268 0.502382 0.050219 -0.009007 -29264.600000 0 0 1
-2.760755 -15.867224 26.108242 30.676226 1.398530 0.552738 0.058460 -0.031289 742546.000000 0 0 1
-1.468755 -16.254324 25.602312 30.361796 1.480680 0.567512 0.056835 -0.033493 756365.000000 0 0 1
-1.554755 -17.521024 24.918482 30.501381 1.482292 0.614672 0.065192 -0.030142 61466.700000 0 0 1
-0.194855 -18.291324 24.965672 30.949883 1.560144 0.632337 0.058964 -0.037566 768796.000000 0 0 1
0.352145 -18.715424 26.231202 32.225255 -1.551983 0.619799 0.055951 -0.041470 171827.000000 0 0 1
0.863445 -17.638224 26.984852 32.249569 -1.521882 0.579474 0.062981 -0.044114 -723527.000000 0 0 1
1.627445 -18.094924 28.243112 33.581962 -1.481098 0.571630 0.047726 -0.038080 -623772.000000 0 0 1
2.818745 -18.807024 27.975262 33.826982 -1.422026 0.597028 0.046373 -0.036502 235431.000000 0 0 1
3.660145 -19.009824 29.120502 34.968181 -1.380584 0.586701 0.046059 -0.035587 261400.000000 0 0 1
4.425745 -17.772824 29.643062 34.844965 -1.326743 0.553456 0.052156 -0.034231 -1590240.000000 0 0 1
3.704445 -16.695324 30.118322 34.634810 -1.352449 0.516411 0.052688 -0.040724 -968171.000000 0 0 1
4.457445 -15.633324 30.516472 34.576360 -1.293042 0.489470 0.062655 -0.040757 -811132.000000 0 0 1
3.531445 -14.585824 31.180972 34.604485 -1.333253 0.448572 0.064488 -0.036419 45936.700000 0 0 1
2.872745 -15.164224 32.260651 35.762493 -1.383573 0.446230 0.057090 -0.042823 -499669.000000 0 0 1
2.018045 -14.233724 32.838067 35.847037 -1.429956 0.412651 0.058180 -0.029085 -341566.000000 0 0 1
1.076245 -14.792724 33.905387 37.007543 -1.498169 0.412366 0.045751 -0.020904 87629.400000 0 0 1
1.771445 -15.144224 -33.152751 36.490964 -1.454354 2.710523 0.067340 -0.021102 -123544.000000 0 0 1
0.930945 -15.771324 -32.225541 35.889926 -1.511837 2.685770 0.050093 -0.023520 327603.000000 0 0 1
1.718145 -15.799524 -30.892151 34.740495 -1.462475 2.666447 0.066652 -0.019568 278610.000000 0 0 1
0.983945 -16.493624 -29.931771 34.189453 -1.511211 2.637200 0.083114 -0.025043 -466443.000000 0 0 1
1.587345 -16.347624 -28.658301 33.031238 -1.474000 2.621176 0.051900 -0.020205 -83177.400000 0 0 1
1.287945 -17.439924 -27.621371 32.691740 -1.497080 2.577181 0.080182 -0.027004 -53208.600000 0 0 1
1.985945 -18.650924 -27.865451 33.589943 -1.464716 2.549146 0.081707 -0.028160 -92571.700000 0 0 1
1.502945 -19.684124 -27.066941 33.501386 -1.494591 2.511436 0.097072 -0.038133 -428377.000000 0 0 1
2.289845 -21.039124 -27.234821 34.490921 -1.462386 2.480991 0.098087 -0.039798 -815433.000000 0 0 1
3.616245 -21.064424 -26.887021 34.346748 -1.400778 2.469967 0.082543 -0.038221 -1177340.000000 0 0 1
3.831045 -21.020724 -25.462151 33.239568 -1.390524 2.443422 0.079612 -0.032472 -572915.000000 0 0 1
5.316145 -20.953624 -25.001201 33.051109 -1.322329 2.428650 0.090870 -0.037342 961448.000000 0 0 1
6.238045 -22.038124 -25.313111 34.137160 -1.294955 2.406117 0.088115 -0.032130 666477.000000 0 0 1
6.409745 -22.522924 -26.658341 35.482870 -1.293539 2.420829 0.080361 -0.030935 -928369.000000 0 0 1
5.461345 -23.660424 -27.098431 36.386356 -1.343947 2.410944 0.053530 -0.034955 -153889.000000 0 0 1
5.623245 -24.783124 -26.264461 36.546491 -1.347676 2.372668 0.080881 -0.024428 -34821.700000 0 0 1
4.996445 -25.892764 -26.830481 37.620133 -1.380172 2.364842 0.071634 -0.022766 -120674.000000 0 0 1
5.085045 -27.117644 -25.905961 37.846309 -1.385431 2.324720 0.073501 -0.026053 -34912.300000 0 0 1
6.401545 -27.568194 -25.698491 38.228229 -1.342632 2.308025 0.098353 -0.028354 -198180.000000 0 0 1
6.431245 -28.854734 -25.193651 38.841687 -1.351497 2.276572 0.094674 -0.031581 -29813.900000 0 0 1
7.837845 -29.449214 -24.985901 39.407908 -1.310678 2.257553 0.082712 -0.040505 78661.300000 0 0 1
8.493545 -29.867764 -26.194491 40.624807 -1.293738 2.271546 0.092195 -0.038107 934008.000000 0 0 1
9.884945 -30.141404 -25.923041 40.966089 -1.253896 2.255951 0.153236 -0.029814 942669.000000 0 0 1
10.702945 -30.067324 -27.223661 41.949073 -1.228817 2.277025 0.140399 -0.060541 -225383.000000 0 0 1
10.337345 -31.118364 -28.115001 43.193362 -1.250071 2.279579 0.146076 -0.055448 90331.300000 0 0 1
10.610045 -30.677854 -29.410201 43.802553 -1.237820 2.306929 0.130951 -0.032197 -49264.700000 0 0 1
-35.875845 -4.670124 -5.463501 36.588744 0.129447 1.720679 0.124036 -0.025824 -8201.450000 0 0 1
-35.377752 -3.974924 -4.314301 35.860822 0.111887 1.691395 0.145288 -0.031713 550895.000000 0 0 1
-34.652561 -2.762424 -4.622901 35.068536 0.079550 1.703006 0.152060 -0.035440 121593.000000 0 0 1
-35.489475 -1.501824 -4.965901 35.866677 0.042292 1.709697 0.095362 -0.019276 2885.590000 0 0 1
-36.145335 -0.855324 -3.890801 36.364202 0.023659 1.677997 0.095697 -0.022236 556092.000000 0 0 1
36.232815 0.156076 -4.339401 36.492076 0.004308 1.689992 0.107010 -0.015215 -14670.300000 0 0 1
35.718075 0.991276 -3.158201 35.871127 0.027746 1.658953 0.102797 -0.014502 -519567.000000 0 0 1
36.594365 1.943376 -2.619201 36.739413 0.053056 1.642148 0.113588 -0.019388 -198732.000000 0 0 1
35.931935 2.877976 -1.810601 36.092450 0.079925 1.620983 0.107765 -0.032116 -428652.000000 0 0 1
-36.507135 4.175376 -1.516601 36.776416 -0.113877 1.612046 0.105537 -0.040577 -41739.400000 0 0 1
-36.108305 4.900176 -2.693101 36.538668 -0.134884 1.644569 0.119492 -0.036198 443080.000000 0 0 1
-34.877117 4.422776 -3.207101 35.302405 -0.126137 1.661768 0.099057 -0.024885 -48199.100000 0 0 1
-33.655885 5.331476 -2.845601 34.194162 -0.157106 1.654112 0.089648 -0.026665 -184757.000000 0 0 1
-33.292945 5.409276 -1.510801 33.763338 -0.161068 1.615558 0.102984 -0.042579 316904.000000 0 0 1
-33.045485 6.762376 -1.288801 33.754923 -0.201852 1.608987 0.106102 -0.055270 -368261.000000 0 0 1
-32.428495 7.116876 0.033399 33.200276 -0.216039 1.569790 0.122056 -0.049900 119699.000000 0 0 1
-31.027575 6.951076 0.250799 31.797654 -0.220390 1.562909 0.156834 -0.044174 875487.000000 0 0 1
-30.459405 7.554876 1.434299 31.415104 -0.243125 1.525124 0.163095 -0.051519 149154.000000 0 0 1
-30.483745 9.076776 1.616299 31.847434 -0.289399 1.520023 0.158382 -0.048731 -1295090.000000 0 0 1
-31.774205 9.541576 1.658299 33.217341 -0.291726 1.520853 0.132499 -0.046692 -1136450.000000 0 0 1
-31.935045 10.840776 2.133299 33.792314 -0.327257 1.507625 0.122971 -0.036084 -128121.000000 0 0 1
-33.366325 11.369776 1.921099 35.302608 -0.328416 1.516351 0.139360 -0.035713 -600262.000000 0 0 1
-33.739755 11.363976 0.565999 35.606620 -0.324879 1.554900 0.120741 -0.021520 358297.000000 0 0 1
-34.960329 12.011676 0.260899 36.967189 -0.330944 1.563739 0.120793 -0.011383 76794.500000 0 0 1
-36.283135 11.293676 0.527099 38.003827 -0.301760 1.556926 0.128550 -0.043719 -347084.000000 0 0 1
36.600135 10.288576 -0.456501 38.021482 0.274035 1.582803 0.120117 -0.038883 367036.000000 0 0 1
35.310395 9.743576 -0.205801 36.630638 0.269241 1.576415 0.136958 -0.045463 421500.000000 0 0 1
34.822545 8.644476 -1.143801 35.897700 0.243325 1.602665 0.115180 -0.057852 -188361.000000 0 0 1
34.561665 9.201376 -2.429601 35.847970 0.260195 1.638623 0.110141 -0.048873 23451.200000 0 0 1
34.397505 8.271176 -3.441101 35.544928 0.235979 1.667758 0.097058 -0.053330 -225553.000000 0 0 1
33.736515 8.775876 -4.738601 35.179863 0.254490 1.705903 0.078496 -0.041533 1173210.000000 0 0 1
32.336965 9.123476 -4.565601 33.908138 0.274990 1.705853 0.105637 -0.040226 1239780.000000 0 0 1
31.790285 9.588176 -5.789501 33.705692 0.292931 1.743419 0.088512 -0.026947 390855.000000 0 0 1
30.357635 10.200976 -5.754601 32.538613 0.324173 1.748586 0.098584 -0.023739 218024.000000 0 0 1
29.307295 9.305976 -5.526101 31.241903 0.307462 1.748613 0.091952 -0.021324 148757.000000 0 0 1
28.054815 9.930076 -5.780401 30.316532 0.340192 1.762639 0.081971 -0.007179 -314386.000000 0 0 1
26.991515 8.833976 -5.859001 28.998430 0.316299 1.774242 0.099396 0.000472 -589724.000000 0 0 1
27.078015 8.139776 -7.110201 29.155271 0.292011 1.817154 0.094571 -0.010895 884017.000000 0 0 1
25.985015 7.201676 -7.206701 27.910960 0.270361 1.831958 0.106246 -0.014579 501996.000000 0 0 1
26.121515 6.150976 -8.326601 28.098049 0.231263 1.871656 0.116467 -0.026584 351126.000000 0 0 1
27.217715 5.224776 -8.281701 28.925575 0.189655 1.861170 0.120425 -0.024584 759353.000000 0 0 1
27.143815 4.310476 -9.326201 29.023179 0.157486 1.897937 0.114077 -0.026851 -486625.000000 0 0 1
28.250435 3.253776 -9.226301 29.896468 0.114671 1.884526 0.114672 -0.019604 425683.000000 0 0 1
29.595745 3.732376 -9.465201 31.295827 0.125450 1.878051 0.125650 -0.015945 1764980.000000 0 0 1
30.579535 3.410476 -8.471601 31.914062 0.111069 1.839467 0.094542 -0.020993 505131.000000 0 0 1
30.897365 1.868776 -8.170801 32.014083 0.060410 1.828877 0.087380 -0.010424 -333589.000000 0 0 1
29.800725 1.220376 -7.524601 30.760237 0.040928 1.817925 0.109537 -0.017170 603944.000000 0 0 1
30.177775 -0.042424 -6.951801 30.968168 -0.001406 1.797208 0.100032 -0.014578 -95884.000000 0 0 1
30.095485 -1.276924 -7.870301 31.133750 -0.042404 1.826359 0.087695 -0.012204 -1078300.000000 0 0 1
31.114595 -1.468224 -8.747801 32.354254 -0.047153 1.844579 0.073383 -0.014226 -702737.000000 0 0 1
30.828535 -2.498724 -9.602501 32.385957 -0.080876 1.871824 0.070797 -0.023981 -593732.000000 0 0 1
31.831565 -2.632824 -10.719301 33.691003 -0.082523 1.894590 0.077844 -0.025865 -422337.000000 0 0 1
33.080805 -3.207824 -10.371801 34.816721 -0.096667 1.873285 0.076981 -0.022570 267839.000000 0 0 1
33.793085 -3.600524 -11.544801 35.891765 -0.106146 1.898274 0.084406 -0.038599 375857.000000 0 0 1
35.234625 -4.077324 -11.183001 37.190898 -0.115207 1.876214 0.094906 -0.034414 181592.000000 0 0 1
35.245265 -5.199824 -10.242101 37.069765 -0.146476 1.850731 0.084222 -0.032479 -335370.000000 0 0 1
36.547615 -5.663624 -10.054001 38.326071 -0.153743 1.836230 0.106991 -0.029198 -455501.000000 0 0 1
-36.630395 -6.974324 -9.271701 38.423840 0.188145 1.814502 0.108892 -0.031023 -258975.000000 0 0 1
36.267245 -6.816024 -7.924101 37.743378 -0.185772 1.782317 0.101313 -0.026427 285550.000000 0 0 1
35.908695 -8.067024 -7.424601 37.545119 -0.220985 1.769860 0.089366 -0.022759 -221587.000000 0 0 1
35.452825 -7.970624 -5.937001 36.819582 -0.221146 1.732749 0.087388 -0.014681 -597696.000000 0 0 1
36.477995 -7.695924 -5.025301 37.618147 -0.207925 1.704784 0.096767 -0.015221 76278.700000 0 0 1
36.389615 -8.540424 -3.863601 37.577524 -0.230522 1.673795 0.108721 -0.017778 2051.070000 0 0 1
-36.178895 -9.915824 -3.955601 37.721119 0.267508 1.675854 0.109938 -0.023570 287715.000000 0 0 1
36.265445 -10.792724 -4.736101 38.132611 -0.289257 1.695319 0.085173 -0.016087 886571.000000 0 0 1
-36.204665 -11.668024 -5.533201 38.438742 0.311769 1.715247 0.070747 -0.017393 537729.000000 0 0 1
36.335105 -12.226524 -6.823801 38.939594 -0.324592 1.746947 0.071907 -0.027279 276069.000000 0 0 1
36.099925 -11.206724 -7.813601 38.598544 -0.301004 1.774638 0.093272 -0.030132 362240.000000 0 0 1
35.537105 -11.798424 -9.009601 38.513135 -0.320553 1.806920 0.089257 -0.026037 63516.000000 0 0 1
35.787645 -11.016824 -10.309101 38.838171 -0.298633 1.839454 0.074096 -0.028406 -326862.000000 0 0 1
35.072025 -9.825024 -10.488301 37.902276 -0.273137 1.851175 0.075233 -0.032685 283014.000000 0 0 1
35.398495 -9.245324 -11.752101 38.427091 -0.255472 1.881605 0.085654 -0.031986 -513600.000000 0 0 1
34.338835 -8.250824 -12.231101 37.374209 -0.235807 1.904199 0.081847 -0.029546 -440216.000000 0 0 1
34.535375 -7.750524 -13.548001 37.898695 -0.220765 1.936364 0.088726 -0.023109 507639.000000 0 0 1
33.500895 -6.827424 -13.791601 36.866407 -0.201045 1.954219 0.075378 -0.027542 -88933.000000 0 0 1
33.843085 -5.969624 -15.013901 37.502107 -0.174595 1.982693 0.080291 -0.026532 214893.000000 0 0 1
34.830935 -4.993224 -14.651401 38.115481 -0.142386 1.965349 0.090622 -0.015027 591603.000000 0 0 1
34.716905 -3.844924 -15.418201 38.180726 -0.110301 1.986487 0.096061 -0.019969 445325.000000 0 0 1
36.016625 -2.973624 -15.323101 39.253498 -0.082376 1.971822 0.097229 -0.021183 -118997.000000 0 0 1
-36.610905 -2.897024 -16.563401 40.287683 0.078966 1.994488 0.099510 -0.017561 -18048.000000 0 0 1
-35.334323 -2.291924 -16.374801 39.011555 0.064773 2.003958 0.110366 -0.012570 252136.000000 0 0 1
-35.286682 -0.727924 -16.292301 38.873113 0.020626 2.003267 0.101334 -0.009005 -536979.000000 0 0 1
-35.227269 0.014576 -17.462901 39.318108 -0.000414 2.031015 0.096085 -0.007135 171716.000000 0 0 1
-35.141441 1.363676 -17.140501 39.122593 -0.038786 2.024306 0.092543 -0.014005 -73118.300000 0 0 1
-35.332540 2.364176 -18.289101 39.855601 -0.066813 2.047535 0.088093 -0.013398 306937.000000 0 0 1
-34.301609 2.274976 -19.275501 39.412192 -0.066226 2.081825 0.077045 -0.011783 460676.000000 0 0 1
-34.432910 3.320976 -20.220201 40.068825 -0.096150 2.099757 0.072532 -0.013412 -17041.600000 0 0 1
-33.325265 3.482176 -21.296301 39.701780 -0.104113 2.136970 0.062855 -0.007224 -896217.000000 0 0 1
-32.166275 4.125676 -20.944201 38.605052 -0.127564 2.144236 0.066696 -0.008296 -878415.000000 0 0 1
-31.268145 4.155176 -22.016201 38.466551 -0.132114 2.180161 0.063856 -0.004177 -485092.000000 0 0 1
-29.817085 4.521576 -21.709201 37.159018 -0.150497 2.194720 0.062843 -0.005712 -417536.000000 0 0 1
-29.088905 3.451776 -21.151901 36.131456 -0.118111 2.196188 0.075282 0.001129 -553922.000000 0 0 1
-27.719625 3.663276 -21.314701 35.158409 -0.131393 2.222130 0.046462 0.006431 -714238.000000 0 0 1
-26.844545 2.641376 -20.625701 33.956237 -0.098080 2.223605 0.060857 0.002076 -339424.000000 0 0 1
-26.840115 2.952376 -19.229101 33.149158 -0.109558 2.189621 0.059567 0.004448 479802.000000 0 0 1
-26.116315 1.906876 -18.507401 32.065901 -0.072885 2.186052 0.063737 -0.005225 82766.000000 0 0 1
-25.531965 2.418676 -17.136501 30.844626 -0.094449 2.159851 0.081744 -0.010866 1806630.000000 0 0 1
-24.304455 3.217376 -17.398301 30.062584 -0.131613 2.187974 0.075467 -0.008646 1841510.000000 0 0 1
-23.471655 3.405976 -16.268501 28.760796 -0.144104 2.172016 0.090084 -0.023571 683822.000000 0 0 1
-22.207455 4.297476 -16.530101 28.015775 -0.191152 2.201890 0.083443 -0.028399 -24538.600000 0 0 1
-21.171955 3.653276 -17.189301 27.514909 -0.170870 2.245578 0.102196 -0.036141 -838030.000000 0 0 1
-20.190055 4.613976 -17.468001 27.093508 -0.224669 2.271467 0.093765 -0.036057 201905.000000 0 0 1
-18.838955 3.940976 -17.914501 26.293856 -0.206219 2.320359 0.121690 -0.041785 452236.000000 0 0 1
-18.241755 3.211576 -16.842501 25.034890 -0.174270 2.308731 0.130380 -0.039241 -309080.000000 0 0 1
-17.105555 2.507376 -17.223801 24.403817 -0.145546 2.354324 0.114073 -0.043093 -981000.000000 0 1 0
-17.192655 0.992476 -16.742401 24.018335 -0.057663 2.342096 0.113877 -0.037909 -36060.800000 0 1 0
-18.237555 0.150676 -17.173501 25.051153 -0.008262 2.326138 0.089577 -0.028307 615424.000000 0 0 1
-19.563955 0.539576 -16.795801 25.790278 -0.027573 2.280021 0.092429 -0.027408 -78681.200000 0 0 1
-20.610155 -0.419724 -17.360801 26.950920 0.020362 2.270726 0.084575 -0.021303 -460805.000000 0 0 1
-20.670655 -1.716424 -16.733001 26.649867 0.082847 2.249627 0.081464 -0.031858 86582.500000 0 0 1
-21.804355 -2.405524 -17.184901 27.866419 0.109879 2.235325 0.088328 -0.026419 -259118.000000 0 0 1
-21.923155 -3.730024 -16.376901 27.617761 0.168527 2.205556 0.098330 -0.037577 -101060.000000 0 0 1
-22.213255 -3.410724 -15.028701 27.035599 0.152355 2.160224 0.091584 -0.035947 312213.000000 0 0 1
-22.456355 -4.568624 -14.278801 27.000822 0.200705 2.128016 0.087847 -0.046966 -180860.000000 0 0 1
-22.870955 -4.154324 -12.853301 26.562123 0.179683 2.075897 0.093115 -0.048913 -394992.000000 0 0 1
-23.909655 -3.225024 -12.852801 27.336183 0.134075 2.060286 0.076201 -0.042989 234630.000000 0 0 1
-24.498255 -3.027124 -11.556701 27.255923 0.122942 2.008661 0.112111 -0.052243 -86072.300000 0 0 1
-25.118125 -1.635424 -11.357801 27.615113 0.065018 1.994664 0.130356 -0.052385 -234602.000000 0 0 1
-25.475995 -1.308224 -10.040001 27.414219 0.051306 1.945754 0.144860 -0.052354 462531.000000 0 0 1
-25.817105 0.026776 -9.956801 27.670590 -0.001037 1.938886 0.156901 -0.048392 -286537.000000 0 0 1
-25.981125 0.367576 -8.432201 27.317687 -0.014147 1.884593 0.172117 -0.043287 -231185.000000 0 0 1
-24.778155 0.214176 -7.731001 25.957104 -0.008644 1.873223 0.152132 -0.041473 335707.000000 0 0 1
-25.086325 0.451476 -6.356001 25.882935 -0.017995 1.818901 0.153624 -0.041725 569047.000000 0 0 1
-23.920955 1.028976 -5.457101 24.557094 -0.042989 1.794888 0.097396 -0.027202 445118.000000 0 1 0
-23.754855 2.429976 -5.663001 24.541139 -0.101939 1.803650 0.131544 -0.028241 592677.000000 0 1 0
-22.465855 2.855376 -5.249201 23.246977 -0.126421 1.798562 0.109091 -0.014563 45880.700000 0 1 0
-22.101455 4.357076 -5.449201 23.176545 -0.194644 1.808135 0.108591 -0.014750 -27973.100000 0 1 0
-22.784155 5.221176 -4.539701 23.811495 -0.225269 1.762622 0.123737 -0.015819 715218.000000 0 1 0
-22.225455 6.508676 -4.634701 23.618090 -0.284882 1.768313 0.106282 -0.021217 -559668.000000 0 1 0
-22.713455 7.619076 -3.707701 24.242492 -0.323648 1.724341 0.107903 -0.019713 -647828.000000 0 1 0
-22.262155 7.746976 -2.386401 23.692069 -0.334882 1.671693 0.105218 -0.020764 469174.000000 0 1 0
-20.896155 8.069376 -2.186301 22.506534 -0.368524 1.668090 0.109981 -0.019333 108351.000000 0 1 0
-20.389155 9.534676 -2.524901 22.649566 -0.437422 1.682505 0.091243 -0.020581 -488518.000000 0 1 0
-20.297655 9.837676 -3.914301 22.893153 -0.451309 1.742622 0.081919 -0.021243 583591.000000 0 1 0
-19.881055 11.185076 -4.134601 23.183124 -0.512465 1.750101 0.088761 -0.011870 -235686.000000 0 1 0
-19.783155 11.507876 -5.599501 23.561810 -0.526855 1.810744 0.094438 -0.021606 265679.000000 0 1 0
-18.607155 11.028476 -6.251901 22.515323 -0.535035 1.852168 0.066381 -0.021844 387727.000000 0 1 0
-18.532255 11.609276 -7.541301 23.132034 -0.559631 1.902877 0.074133 -0.019592 455369.000000 0 1 0
-17.167055 11.324576 -8.235401 22.153457 -0.583142 1.951683 0.057516 -0.012303 104788.000000 0 1 0
-16.970555 9.969776 -8.707401 21.522431 -0.531159 1.987309 0.054061 -0.012828 735470.000000 0 1 0
-17.917955 9.320976 -9.604401 22.364665 -0.479679 2.014675 0.070456 -0.011993 297853.000000 0 1 0
-18.096555 9.893676 -11.029401 23.388412 -0.500318 2.061873 0.086036 -0.016742 -193481.000000 0 1 0
-16.892555 9.811776 -11.740401 22.791806 -0.526208 2.111938 0.076288 -0.015438 -95029.600000 0 1 0
-17.051055 10.409176 -13.009101 23.839592 -0.548083 2.148012 0.093277 -0.023249 89868.800000 0 1 0
-15.922955 9.997576 -13.973301 23.425311 -0.560662 2.209935 0.073001 -0.015111 -77615.700000 0 1 0
-16.020755 8.725876 -14.583301 23.355475 -0.498735 2.245167 0.080762 -0.027287 28058.900000 0 1 0
-15.737155 7.652776 -13.705901 22.227793 -0.452617 2.235227 0.062845 -0.020071 -314988.000000 0 1 0
-15.615655 6.302976 -14.461001 22.196774 -0.383633 2.280345 0.067982 -0.025945 -301434.000000 0 1 0
-14.586255 6.312976 -15.422501 22.146468 -0.408461 2.341146 0.071660 -0.024916 265667.000000 0 1 0
-14.483155 5.060676 -16.097301 22.237251 -0.336156 2.380219 0.067811 -0.030365 -61056.200000 0 1 0
32.416435 -15.910124 28.403302 45.942408 -0.456264 0.904298 0.058810 -0.014367 -68945.700000 0 0 1
31.428725 -14.940224 28.711242 45.114415 -0.443749 0.880962 0.067035 -0.013159 321341.000000 0 0 1
30.516035 -15.237624 29.790172 45.286509 -0.463113 0.852882 0.068009 -0.016586 542605.000000 0 0 1
31.072265 -15.144824 31.209382 46.571202 -0.453522 0.836394 0.057109 -0.025637 -104992.000000 0 0 1
31.385045 -13.893824 31.705072 46.725485 -0.416758 0.825024 0.055640 -0.028891 -116657.000000 0 0 1
31.706225 -13.821124 33.059225 47.845799 -0.411077 0.807989 0.049519 -0.032023 -474145.000000 0 0 1
31.795775 -12.335124 33.502358 47.807265 -0.370074 0.794307 0.071969 -0.028512 -260106.000000 0 0 1
32.032645 -12.289724 -33.352101 47.848619 -0.366343 2.342049 0.039742 -0.033911 17720.200000 0 0 1
32.407995 -10.977624 -33.074701 47.589098 -0.326601 2.339224 0.051499 -0.027981 -220615.000000 0 0 1
32.036535 -10.599224 -31.602741 46.232201 -0.319512 2.323433 0.050080 -0.024708 -383238.000000 0 0 1
30.650745 -10.733124 -31.485331 45.232667 -0.336831 2.340712 0.080787 -0.032499 -577996.000000 0 0 1
30.243625 -10.192024 -30.273671 43.989196 -0.325045 2.329811 0.061110 -0.023531 457589.000000 0 0 1
28.948045 -10.853324 -29.667221 42.847730 -0.358704 2.335589 0.079150 -0.021822 533349.000000 0 0 1
28.564295 -10.308324 -28.437661 41.603859 -0.346336 2.323390 0.069332 -0.015516 367282.000000 0 0 1
27.430215 -11.054324 -27.981511 40.713385 -0.383088 2.328535 0.082565 -0.016552 -450738.000000 0 0 1
26.834115 -10.565124 -26.623431 39.249187 -0.375081 2.316267 0.071986 -0.008431 -1040260.000000 0 0 1
26.076815 -9.323524 -26.588801 38.391310 -0.343377 2.335847 0.065021 -0.013031 488141.000000 0 0 1
24.966515 -9.221524 -27.454711 38.237737 -0.353813 2.371722 0.057048 -0.020274 77959.000000 0 0 1
23.836215 -10.282224 -27.283841 37.660288 -0.407254 2.381065 0.069449 -0.000722 -907250.000000 0 0 1
24.332315 -11.531724 -27.751931 38.667970 -0.442572 2.371287 0.066075 -0.013069 -262245.000000 0 0 1
23.550315 -12.666824 -27.369021 38.263940 -0.493477 2.367806 0.067924 -0.020308 284253.000000 0 0 1
24.208215 -13.936124 -27.952531 39.517050 -0.522343 2.356544 0.072654 -0.004400 118551.000000 0 0 1
24.269915 -13.991524 -29.366091 40.585204 -0.522958 2.379752 0.070944 -0.013731 89732.300000 0 0 1
25.314915 -14.836424 -29.809201 41.827657 -0.530117 2.364089 0.067897 -0.009348 -96527.200000 0 0 1
25.356615 -14.944824 -31.323891 42.982460 -0.532578 2.387305 0.070786 -0.022204 -133726.000000 0 0 1
24.322015 -15.653824 -31.995351 43.131254 -0.571868 2.406567 0.076662 -0.018963 202573.000000 0 0 1
24.528215 -15.766724 -33.428561 44.358670 -0.571297 2.424313 0.076315 -0.013117 -108794.000000 0 0 1
24.544815 -14.439124 33.973203 44.329615 -0.531754 0.697614 0.047275 -0.025342 73510.300000 0 0 1
23.322615 -13.835824 33.573400 43.157242 -0.535431 0.679428 0.064613 -0.017452 -26370.200000 0 0 1
23.426415 -12.756924 32.681556 42.185544 -0.498652 0.684540 0.052477 -0.017967 -960985.000000 0 0 1
22.345415 -11.732724 33.007517 41.550819 -0.483495 0.652795 0.061669 -0.019954 893961.000000 0 0 1
20.989215 -12.127924 32.694227 40.700690 -0.523949 0.638007 0.065015 -0.021014 1281910.000000 0 0 1
20.523815 -12.470124 31.385802 39.519609 -0.545984 0.653134 0.056848 -0.010019 -2156800.000000 0 0 1
19.055415 -12.644524 31.267482 38.738201 -0.585853 0.631490 0.063057 -0.002683 -1003240.000000 0 0 1
18.273415 -11.447524 31.477302 38.154738 -0.559647 0.600611 0.067474 -0.009751 -326331.000000 0 0 1
17.183215 -11.643624 32.293109 38.388562 -0.595545 0.571266 0.062394 -0.006788 -954962.000000 0 0 1
16.387815 -10.430524 32.631645 37.976052 -0.566812 0.536957 0.055458 -0.005655 -953254.000000 0 0 1
15.617815 -9.897524 31.510092 36.534409 -0.564855 0.530652 0.054516 -0.007405 1078220.000000 0 0 1
14.741115 -8.763324 31.836022 36.161148 -0.536352 0.494106 0.055619 -0.002562 898603.000000 0 0 1
13.645915 -9.114524 32.860775 36.730315 -0.588877 0.463149 0.063024 -0.006359 -1394230.000000 0 0 1
12.669015 -10.029024 32.401035 36.206523 -0.669609 0.462601 0.065358 -0.007146 494649.000000 0 0 1
11.498315 -10.092824 33.209533 36.564319 -0.720394 0.431714 0.066316 -0.008416 873499.000000 0 0 1
10.358815 -9.096324 32.780125 35.561000 -0.720597 0.398098 0.064996 -0.006214 -313347.000000 0 0 1
10.658515 -7.753624 33.100454 35.628116 -0.628918 0.378948 0.078365 -0.006214 532550.000000 0 0 1
9.780115 -6.814524 32.465251 34.584402 -0.608557 0.351883 0.079182 0.002374 32687.200000 0 0 1
10.305115 -5.387824 32.467536 34.487170 -0.481744 0.343926 0.089496 -0.000083 -190014.000000 0 0 1
10.345615 -4.652324 33.641437 35.502424 -0.422596 0.325217 0.087567 -0.013871 459996.000000 0 0 1
10.973015 -3.377724 33.455782 35.370968 -0.298616 0.330580 0.062639 -0.009889 27031.000000 0 0 1
10.870715 -2.649324 -33.425521 35.248501 -0.239052 2.818576 0.062444 -0.014871 -1165050.000000 0 0 1
9.563515 -2.298124 -33.226341 34.651579 -0.235830 2.853788 0.074380 -0.002341 -1163790.000000 0 0 1
9.433215 -1.522324 -32.054261 33.448149 -0.160000 2.851883 0.080613 -0.004449 245187.000000 0 0 1
7.943115 -1.315324 -31.671201 32.678558 -0.164104 2.892651 0.069722 -0.000193 171013.000000 0 0 1
7.353315 -0.377724 -32.528961 33.351870 -0.051323 2.918991 0.068016 -0.001722 -199374.000000 0 0 1
5.981015 -0.169424 -32.283301 32.833105 -0.028319 2.958331 0.081471 -0.000455 -114916.000000 0 0 1
5.381515 0.887276 -33.187361 33.632557 0.163405 2.978704 0.092391 -0.004157 -3538.570000 0 0 1
5.951515 2.191376 -33.023381 33.626870 0.352800 2.951853 0.076855 -0.008284 361397.000000 0 0 1
5.297515 3.037076 -34.018263 34.561969 0.520557 2.963982 0.095947 -0.008723 327274.000000 0 0 1
5.855015 4.464476 -34.111958 34.897542 0.651456 2.929008 0.070130 -0.009684 44240.500000 0 0 1
5.433415 5.116776 32.965432 33.799750 0.755395 0.222649 0.090924 -0.026003 342989.000000 0 0 1
6.375515 6.160676 32.724369 33.904062 0.768262 0.264570 0.082147 -0.029484 121815.000000 0 0 1
5.771315 7.244376 31.853392 33.172694 0.898094 0.282974 0.101377 -0.033482 815137.000000 0 0 1
4.498815 7.794876 32.265732 33.497416 1.047348 0.272019 0.096751 -0.037870 903494.000000 0 0 1
4.180915 9.137676 31.830732 33.379225 1.141684 0.305791 0.095069 -0.043443 164218.000000 0 0 1
3.760515 9.339776 30.275722 31.905990 1.188021 0.321052 0.099803 -0.047629 166838.000000 0 0 1
2.589215 8.633776 29.938262 31.265726 1.279437 0.292443 0.117144 -0.044535 -380223.000000 0 0 1
2.359615 8.554876 28.515472 29.864458 1.301667 0.301710 0.097049 -0.029494 577495.000000 0 0 1
0.991715 7.980976 28.016752 29.148205 1.447170 0.279539 0.089759 -0.025897 258668.000000 0 0 1
-0.130485 8.670376 28.479052 29.769932 -1.555748 0.295564 0.087853 -0.024724 206986.000000 0 0 1
-1.260585 8.335276 27.631232 28.888594 -1.420699 0.296122 0.079472 -0.018244 552308.000000 0 0 1
-2.663685 8.553276 28.163932 29.554370 -1.268893 0.307962 0.069447 -0.016272 -518666.000000 0 0 1
-2.892585 9.885176 28.584292 30.383310 -1.286125 0.345845 0.068269 -0.015936 235998.000000 0 0 1
-4.222785 9.954376 29.106632 31.050242 -1.169592 0.355696 0.056115 -0.007809 199698.000000 0 0 1
-4.494885 11.257376 29.915982 32.278452 -1.190908 0.384970 0.052104 -0.002436 -94742.300000 0 0 1
-4.739485 12.488676 29.225412 32.133385 -1.208084 0.428709 0.044131 -0.013095 -153022.000000 0 0 1
-5.860385 12.500876 28.393932 31.572637 -1.132420 0.452582 0.037019 -0.015512 -512882.000000 0 0 1
-6.035985 13.921876 27.805642 31.676576 -1.161697 0.499550 0.025866 -0.015008 373834.000000 0 0 1
-5.115985 14.324376 26.786752 30.804077 -1.227764 0.516436 0.025705 -0.008181 167680.000000 0 0 1
-5.521185 15.616176 26.324242 31.101674 -1.230958 0.561621 0.021059 -0.007618 501046.000000 0 0 1
-4.432985 16.467076 25.571442 30.736210 -1.307828 0.588157 0.040392 -0.004918 344667.000000 0 0 1
-4.189585 16.058476 24.273042 29.404215 -1.315590 0.599717 0.012893 0.006698 -502666.000000 0 0 1
-3.068085 16.714876 23.768102 29.218537 -1.389263 0.620720 0.016237 0.004938 -310742.000000 0 0 1
-2.784485 16.606376 22.238392 27.893927 -1.404666 0.648073 0.008027 0.004747 -598.942000 0 0 1
-2.257885 15.321176 21.904292 26.826004 -1.424479 0.615418 0.003627 0.007910 67197.800000 0 0 1
-2.147985 15.239476 20.493892 25.629184 -1.430770 0.644116 -0.003436 0.004472 641720.000000 0 0 1
-1.084085 14.159476 20.010792 24.537681 -1.494383 0.617182 0.003189 -0.005352 89067.700000 0 1 0
-1.521785 12.854076 20.147792 23.947372 -1.452956 0.571046 0.015300 -0.001862 186335.000000 0 1 0
-0.838185 11.972376 19.241492 22.677640 -1.500900 0.557692 0.019415 -0.008024 82680.200000 0 1 0
-1.699485 10.693176 18.897792 21.779780 -1.413183 0.520288 0.004236 -0.016072 -105680.000000 0 1 0
-1.893285 9.781676 19.949592 22.299146 -1.379606 0.463183 0.011142 -0.019690 -68699.900000 0 1 0
-2.578985 10.134776 21.100392 23.549764 -1.321616 0.460137 0.026591 -0.012238 243180.000000 0 1 0
-4.144685 10.208276 21.095992 23.799752 -1.185118 0.481297 0.031552 -0.007796 761577.000000 0 1 0
-4.775085 8.917776 21.116492 23.414406 -1.079187 0.446743 0.042008 -0.007540 -118565.000000 0 1 0
-6.177985 9.016576 21.148092 23.805628 -0.970086 0.477024 0.047059 -0.002298 -88562.500000 0 1 0
-6.874485 7.657876 20.996892 23.383137 -0.839253 0.455707 0.039536 -0.006736 -264877.000000 0 1 0
-6.898085 7.033976 22.274392 24.355881 -0.795152 0.416431 0.051330 -0.014101 161278.000000 0 1 0
-7.622685 5.809176 22.324492 24.294748 -0.651194 0.405508 0.049258 -0.008079 186143.000000 0 1 0
-7.607385 5.030676 23.638612 25.337008 -0.584270 0.368225 0.036357 -0.008298 -509383.000000 0 0 1
-8.461285 5.586476 24.570762 26.580527 -0.583540 0.391364 0.033187 -0.006108 -260502.000000 0 0 1
-8.716485 4.760976 25.683152 27.536672 -0.499924 0.368999 0.030154 0.006115 -429034.000000 0 0 1
-9.739985 5.442076 26.574102 28.821284 -0.509525 0.397503 0.022799 0.002889 -487231.000000 0 0 1
-9.304385 6.661876 27.217342 29.525174 -0.621379 0.398007 0.025063 -0.004480 -322518.000000 0 0 1
-10.248285 7.068676 28.158022 30.787460 -0.603808 0.416294 0.022852 0.001970 -348844.000000 0 0 1
-9.842285 8.313376 28.924332 31.663856 -0.701385 0.419037 0.037037 -0.004454 -200608.000000 0 0 1
-8.901685 8.045176 29.923222 32.239170 -0.734900 0.381349 0.042216 -0.001845 -229117.000000 0 0 1
-8.640785 9.206976 30.636742 33.136710 -0.817111 0.390928 0.040834 -0.007529 -444532.000000 0 0 1
-7.643185 8.974476 31.751832 33.869431 -0.865340 0.355486 0.052776 -0.009805 121981.000000 0 0 1
-6.384085 8.475276 31.279362 33.030067 -0.925212 0.327042 0.055160 -0.011772 33140.600000 0 0 1
-5.732185 7.826476 32.346116 33.769556 -0.938649 0.291380 0.092883 -0.016374 -213159.000000 0 0 1
-4.245185 7.502176 32.151242 33.286733 -1.055858 0.261947 0.070500 -0.012011 420927.000000 0 0 1
-3.472585 8.724876 32.160872 33.503791 -1.192007 0.284089 0.060635 -0.014249 -513087.000000 0 0 1
-2.081985 8.602076 32.102492 33.300156 -1.333330 0.269011 0.075777 -0.021170 70028.300000 0 0 1
-1.317385 9.928776 31.765522 33.307124 -1.438883 0.305437 0.077427 -0.024868 109471.000000 0 0 1
-1.441885 10.907176 32.757944 34.556163 -1.439362 0.324022 0.079103 -0.034682 -81329.500000 0 0 1
-1.502185 12.209876 32.244145 34.511194 -1.448381 0.364479 0.078958 -0.028120 -451448.000000 0 0 1
-1.514585 13.341576 33.269528 35.876916 -1.457757 0.383598 0.069739 -0.033334 370308.000000 0 0 1
-0.211285 13.639276 33.772504 36.423296 -1.555307 0.383869 0.080737 -0.033672 32592.800000 0 0 1
-0.143685 14.508376 -33.374811 36.392192 -1.560893 2.731508 0.077559 -0.033129 694794.000000 0 0 1
1.346015 14.817376 -32.979171 36.179996 1.480205 2.717787 0.081365 -0.030720 718739.000000 0 0 1
1.932715 15.698176 -33.930311 37.435733 1.448296 2.705388 0.074153 -0.025472 -533441.000000 0 0 1
3.230615 16.055676 -33.602881 37.381483 1.372234 2.688090 0.058407 -0.025615 -809366.000000 0 0 1
3.802515 17.181476 33.774320 38.083683 1.352992 0.480325 0.062011 -0.015738 -348508.000000 0 0 1
3.436515 18.490976 -34.082429 38.927340 1.387045 2.637348 0.059748 -0.010500 -95000.500000 0 0 1
4.184115 19.408776 33.400231 38.855924 1.358467 0.536326 0.046493 0.000733 -130354.000000 0 0 1
3.770915 20.896776 33.551237 39.706178 1.392263 0.564254 0.056456 -0.008862 -160858.000000 0 0 1
3.960415 21.508076 -33.439611 39.956099 1.388700 2.562407 0.059557 -0.022313 219874.000000 0 0 1
3.489515 22.850376 -33.493611 40.695680 1.419256 2.537515 0.057864 -0.019315 3206.220000 0 0 1
3.593015 23.548676 -32.120471 39.989681 1.419386 2.503476 0.066731 -0.022168 78714.900000 0 0 1
3.141715 24.899276 -32.218061 40.839292 1.445283 2.479811 0.062490 -0.024684 273968.000000 0 0 1
3.065415 25.360676 -30.871601 40.070144 1.450507 2.450326 0.076381 -0.030309 -72193.000000 0 0 1
2.726515 26.879576 -30.719691 40.910206 1.469708 2.420228 0.069465 -0.028963 870526.000000 0 0 1
3.870015 27.764076 -30.713111 41.582642 1.432299 2.401794 0.084077 -0.039575 930076.000000 0 0 1
3.389915 29.089376 -30.400571 42.212298 1.454785 2.374862 0.087182 -0.035698 29019.500000 0 0 1
4.486215 30.129476 -30.029241 42.774605 1.422984 2.349046 0.118096 -0.046704 18370.300000 0 0 1
5.206015 29.667476 -28.914501 41.752965 1.397086 2.335764 0.106288 -0.055038 -267312.000000 0 0 1
6.105615 30.649776 -28.478571 42.281395 1.374164 2.309796 0.124226 -0.058331 -485154.000000 0 0 1
7.319715 30.215776 -27.631661 41.594231 1.333127 2.297373 0.122802 -0.061108 1051490.000000 0 0 1
8.454515 29.695576 -28.387151 41.942060 1.293429 2.314228 0.119431 -0.049969 1021480.000000 0 0 1
9.582015 30.523276 -28.631171 42.932847 1.266614 2.300814 0.126697 -0.044460 77459.100000 0 0 1
9.451915 31.946676 -29.252571 44.335558 1.283137 2.291348 0.137904 -0.051892 -1411120.000000 0 0 1
8.852615 32.927876 -28.510241 44.446009 1.308158 2.267193 0.144871 -0.055035 -122055.000000 0 0 1
8.665415 -34.044268 -29.102111 45.618357 -1.321555 2.262626 0.126770 -0.056289 -396930.000000 0 0 1
7.412515 -33.935768 -29.974421 45.880798 -1.355746 2.282746 0.101189 -0.033507 -426360.000000 0 0 1
7.565215 33.646976 -31.215901 46.516491 1.349633 2.306450 0.085835 -0.029057 467298.000000 0 0 1
6.280815 33.179576 -31.636091 46.272834 1.383712 2.323598 0.082093 -0.025286 435363.000000 0 0 1
6.286615 32.292676 -32.889121 46.519166 1.378525 2.356046 0.089661 -0.047515 -45546.000000 0 0 1
6.499515 32.945776 34.104200 47.861930 1.376018 0.777665 0.098700 -0.040215 13587.300000 0 0 1
6.407215 32.064176 32.984959 46.445358 1.373569 0.781030 0.097358 -0.040208 79095.900000 0 0 1
5.618315 32.717176 31.794072 45.965662 1.400731 0.806967 0.087703 -0.034032 345929.000000 0 0 1
6.419015 33.632376 31.091502 46.249562 1.382206 0.833546 0.096637 -0.036315 152924.000000 0 0 1
5.594015 -33.926768 30.198942 45.763464 -1.407382 0.850121 0.069850 -0.046083 130711.000000 0 0 1
17.976545 -22.474424 28.800772 40.715357 -0.896137 0.785028 0.105587 -0.010598 -889102.000000 0 0 1
17.142745 -21.370324 28.698102 39.675502 -0.894730 0.762197 0.095170 -0.009473 217473.000000 0 0 1
15.774745 -21.618924 29.001092 39.462435 -0.940432 0.745272 0.100978 -0.008107 576810.000000 0 0 1
15.432045 -21.879424 30.533702 40.609902 -0.956507 0.719890 0.092337 -0.012043 -732036.000000 0 0 1
15.738745 -23.174324 30.959772 41.752423 -0.974204 0.735481 0.123164 -0.016331 238153.000000 0 0 1
15.424345 -23.245624 32.319631 42.694589 -0.984963 0.712093 0.102281 -0.013863 -238894.000000 0 0 1
16.422945 -24.150024 33.017568 44.080569 -0.973593 0.724203 0.099607 -0.017771 -155236.000000 0 0 1
16.091345 -25.518784 32.779779 44.549451 -1.008203 0.743939 0.116434 -0.021528 760.110000 0 0 1
16.698545 -26.271074 33.794426 45.946424 -1.004593 0.744365 0.106233 -0.027949 29156.600000 0 0 1
16.552845 -27.828774 33.586402 46.652799 -1.034201 0.767106 0.108522 -0.027135 -120705.000000 0 0 1
17.190945 -28.488544 32.549259 46.546535 -1.027856 0.796401 0.104886 -0.032102 -282402.000000 0 0 1
16.703045 -29.795024 32.434905 47.103696 -1.059853 0.811260 0.106292 -0.031066 -40706.400000 0 0 1
17.405345 -30.661354 31.352562 47.181011 -1.054493 0.843950 0.115315 -0.035891 334436.000000 0 0 1
18.669645 -31.202604 31.725862 48.256486 -1.031601 0.853377 0.097775 -0.041575 363472.000000 0 0 1
19.388745 -31.648754 30.591012 48.097578 -1.021147 0.881467 0.071861 -0.035373 -444361.000000 0 0 1
20.699145 -32.381024 30.892182 49.308338 -1.002025 0.893729 0.051746 -0.032635 -63032.100000 0 0 1
21.830945 -31.532034 31.068962 49.357266 -0.965229 0.889924 0.048119 -0.034013 214592.000000 0 0 1
22.971845 -32.266204 30.682252 50.102037 -0.952097 0.911709 0.044288 -0.031859 604141.000000 0 0 1
24.328245 -31.507224 30.979302 50.440914 -0.913270 0.909462 0.040557 -0.038213 594846.000000 0 0 1
24.376745 -30.455424 30.070422 49.254328 -0.895807 0.914088 0.030828 -0.028984 -72839.000000 0 0 1
25.534245 -29.670034 30.141042 49.404362 -0.860176 0.914624 0.024778 -0.021678 536361.000000 0 0 1
26.755345 -30.059024 29.234122 49.739594 -0.843481 0.942529 0.029202 -0.013972 380709.000000 0 0 1
27.693045 -30.934834 29.845722 51.133509 -0.840636 0.947540 0.033981 -0.010330 698608.000000 0 0 1
28.951945 -30.610164 29.196482 51.260431 -0.813231 0.964812 0.028442 -0.025941 1030490.000000 0 0 1
30.131845 -31.491384 29.667522 52.723782 -0.807457 0.973151 0.038805 -0.026928 208695.000000 0 0 1
29.798545 -32.860594 29.433742 53.236426 -0.834228 0.984971 0.020034 -0.026731 376212.000000 0 0 1
30.867845 -33.700614 29.867082 54.594851 -0.829242 0.991939 0.036453 -0.016522 26416.500000 0 0 1
30.300645 33.191923 30.425352 54.272782 0.830904 0.975685 0.021222 -0.012267 104279.000000 0 0 1
29.404845 33.217943 31.525282 54.423524 0.846213 0.952978 0.024999 -0.011507 2329480.000000 0 0 1
28.110845 33.949658 31.501232 54.176808 0.879205 0.950284 0.003971 -0.009987 1392600.000000 0 0 1
27.134345 33.652260 30.380102 52.836520 0.892216 0.958213 0.022439 -0.017604 -610968.000000 0 0 1
26.535845 32.328453 30.377582 51.692141 0.883488 0.942628 0.022342 -0.019356 422670.000000 0 0 1
25.203045 32.290965 30.887422 51.302366 0.908060 0.924710 0.023180 -0.022311 459268.000000 0 0 1
24.653945 30.863630 30.828422 50.107607 0.896786 0.908100 0.044532 -0.020755 -134774.000000 0 0 1
24.480045 30.406180 29.500472 48.929400 0.892953 0.923641 0.048117 -0.027328 22649.200000 0 0 1
24.040045 29.080240 29.483012 47.883527 0.879998 0.907493 0.084081 -0.043101 -282123.000000 0 0 1
23.643745 28.789280 28.053662 46.635365 0.883220 0.925352 0.075232 -0.040270 306115.000000 0 0 1
22.368445 29.375060 27.805542 46.221095 0.919990 0.925323 0.100909 -0.040772 370058.000000 0 0 1
21.696945 28.974790 26.633562 44.940433 0.928050 0.936462 0.106879 -0.036195 57492.000000 0 0 1
20.338445 29.662090 26.428662 44.631447 0.969752 0.937068 0.105781 -0.031337 -198045.000000 0 0 1
20.418045 30.971270 25.865092 45.222993 0.987941 0.961921 0.116481 -0.037079 -538491.000000 0 0 1
19.192445 31.626210 25.687062 45.037676 1.025353 0.963869 0.105953 -0.035585 -654482.000000 0 0 1
19.196245 33.121967 25.135082 45.796647 1.045540 0.989819 0.124334 -0.030880 -272464.000000 0 0 1
19.707145 33.250494 23.828612 45.406714 1.035771 1.018338 0.117456 -0.034352 615996.000000 0 0 1
21.094245 33.608388 23.860112 46.301143 1.010295 1.029410 0.114361 -0.032902 389403.000000 0 0 1
21.698045 33.586184 22.443392 45.853492 0.997209 1.059327 0.113351 -0.036911 -259102.000000 0 0 1
21.419145 -33.572504 21.635092 45.320745 -1.002906 1.073129 0.114906 -0.028162 387366.000000 0 0 1
21.879545 -33.740764 20.264892 45.031316 -0.995504 1.104011 0.113831 -0.032790 128922.000000 0 0 1
21.567145 -32.453724 19.462492 43.556567 -0.984260 1.107575 0.087663 -0.030028 38610.300000 0 0 1
22.301345 -31.323374 19.951292 43.319254 -0.952081 1.092166 0.076677 -0.018642 396177.000000 0 0 1
21.783945 -30.034814 19.550492 41.938670 -0.943298 1.085841 0.074891 -0.030124 -243379.000000 0 0 1
22.462145 -29.443314 18.322192 41.317785 -0.919094 1.111357 0.061064 -0.025992 -298009.000000 0 0 1
22.277145 -30.170614 17.135692 41.233106 -0.934779 1.142215 0.048980 -0.032523 173253.000000 0 0 1
22.826545 -29.476344 16.061592 40.594097 -0.911860 1.164006 0.045759 -0.027551 -241047.000000 0 0 1
22.491245 -30.109074 14.705092 40.356562 -0.929223 1.197830 0.046006 -0.035990 -445055.000000 0 0 1
23.171545 -31.278954 14.405692 41.506835 -0.933207 1.216353 0.086866 -0.035646 -155292.000000 0 0 1
23.270545 -31.567684 12.972192 41.307562 -0.935561 1.251352 0.085289 -0.032863 218818.000000 0 0 1
21.924145 -31.675984 12.173492 40.400866 -0.965367 1.264722 0.082459 -0.030694 455808.000000 0 0 1
21.107245 -32.759664 12.626692 40.965164 -0.998434 1.257464 0.090321 -0.041489 -355024.000000 0 0 1
19.931045 -32.792344 11.856592 40.164202 -1.024664 1.271128 0.091940 -0.034639 -318049.000000 0 0 1
18.815445 -33.503884 12.637992 40.450587 -1.059098 1.253046 0.094217 -0.029449 -324205.000000 0 0 1
18.465645 -32.718984 13.779992 40.017497 -1.056987 1.219251 0.081638 -0.022350 382254.000000 0 0 1
19.109245 -33.146864 15.011392 41.100118 -1.047834 1.196906 0.074929 -0.030232 -615968.000000 0 0 1
18.830445 -32.201604 16.221092 40.677423 -1.041653 1.160617 0.070771 -0.029002 371868.000000 0 0 1
17.489745 -31.957064 16.635292 40.048446 -1.070037 1.142437 0.072360 -0.035975 259738.000000 0 0 1
16.701545 -33.070964 16.998592 40.762512 -1.103140 1.140637 0.071585 -0.028442 -701680.000000 0 0 1
16.786045 -33.862114 18.303092 41.993061 -1.110581 1.119803 0.075293 -0.031831 -586816.000000 0 0 1
17.646045 33.289512 18.228792 41.855267 1.083377 1.120181 0.070809 -0.024899 -117658.000000 0 0 1
18.077645 32.977055 19.565192 42.392029 1.069345 1.091077 0.066446 -0.021962 239472.000000 0 0 1
18.961245 31.707820 19.591692 41.818047 1.031849 1.083206 0.072995 -0.016926 4222.220000 0 0 1
18.229545 30.520270 19.478092 40.536394 1.032370 1.069562 0.051785 -0.015252 110720.000000 0 0 1
19.155545 29.476390 19.163592 40.037929 0.994519 1.071696 0.050034 -0.021425 189860.000000 0 0 1
18.495145 28.136760 18.877192 38.601762 0.989285 1.059826 0.052030 -0.015513 -40434.700000 0 0 1
18.145445 27.390240 20.023392 38.476209 0.985699 1.023466 0.055337 -0.027903 -134478.000000 0 0 1
17.606545 26.166090 19.571392 37.117302 0.978507 1.015394 0.063435 -0.031658 -262492.000000 0 0 1
17.250445 25.189600 20.719092 36.896810 0.970328 0.974549 0.073649 -0.029421 605081.000000 0 0 1
16.006345 25.494350 21.377192 36.920852 1.010158 0.953294 0.082612 -0.033079 723528.000000 0 0 1
15.019845 24.551130 20.969692 35.610135 1.021761 0.941138 0.090500 -0.031230 72487.000000 0 0 1
13.660645 24.687710 21.688092 35.587492 1.065394 0.915455 0.110595 -0.046273 100247.000000 0 0 1
13.034145 25.955010 21.503292 36.137834 1.105404 0.933487 0.113466 -0.043894 -256875.000000 0 0 1
11.874145 26.145780 22.288092 36.350463 1.144495 0.910761 0.105379 -0.042367 -178903.000000 0 0 1
10.976445 27.158790 21.542692 36.361653 1.186711 0.936692 0.097216 -0.043556 -578198.000000 0 0 1
11.481145 28.493120 21.523392 37.509079 1.187754 0.959636 0.090792 -0.044089 -249424.000000 0 0 1
10.994445 29.283610 20.469892 37.382136 1.211634 0.991321 0.082408 -0.042544 -181034.000000 0 0 1
11.371745 30.765300 20.631892 38.749132 1.216743 1.009307 0.080976 -0.043819 65877.300000 0 0 1
10.619345 31.456200 21.610192 39.613930 1.245218 0.993787 0.073690 -0.039782 -181195.000000 0 0 1
11.341245 31.484600 22.827392 40.509181 1.225050 0.972166 0.071387 -0.042009 78600.300000 0 0 1
10.716045 32.356225 23.936832 41.650100 1.250976 0.958544 0.063497 -0.037955 914829.000000 0 0 1
9.365145 32.089670 24.333482 41.346961 1.286840 0.941570 0.063200 -0.042962 422114.000000 0 0 1
8.967545 32.881192 25.390112 42.499970 1.304546 0.930523 0.059775 -0.031750 -767162.000000 0 0 1
7.637445 32.507974 26.048732 42.351333 1.340041 0.908331 0.110922 -0.043622 -329378.000000 0 0 1
6.488445 33.118902 25.483512 42.289135 1.377333 0.924039 0.102359 -0.045728 411579.000000 0 0 1
5.901745 32.514969 24.303992 41.021188 1.391243 0.936670 0.093698 -0.043828 6988.690000 0 0 1
5.083745 31.226640 24.495692 40.012329 1.409411 0.911952 0.077003 -0.038759 -269375.000000 0 0 1
5.890245 30.105700 24.816992 39.457968 1.377585 0.890598 0.067925 -0.031709 -529511.000000 0 0 1
5.180145 28.905390 24.737492 38.396601 1.393468 0.870738 0.042442 -0.025090 -781140.000000 0 0 1
6.114845 27.653680 24.921242 37.725133 1.353176 0.849178 0.050377 -0.034721 -241269.000000 0 0 1
7.072745 27.454660 23.926232 37.097799 1.318663 0.869838 0.060691 -0.035221 -201564.000000 0 0 1
8.115645 28.378750 23.877942 37.965422 1.292255 0.890608 0.080055 -0.040958 -915324.000000 0 0 1
9.362445 28.177580 24.777402 38.672355 1.250007 0.875386 0.078846 -0.043872 -409386.000000 0 0 1
8.948545 28.346650 26.146212 39.588299 1.265015 0.849374 0.072804 -0.039011 608088.000000 0 0 1
10.030545 28.135340 27.048802 40.296984 1.228333 0.834921 0.090008 -0.029277 -393536.000000 0 0 1
11.141845 29.129320 27.104472 41.319613 1.205470 0.855328 0.079124 -0.026711 -795256.000000 0 0 1
10.738745 30.357770 27.739742 42.501860 1.230794 0.859691 0.082106 -0.035208 490037.000000 0 0 1
11.833645 31.265250 27.755602 43.450253 1.208968 0.877871 0.073879 -0.027846 162976.000000 0 0 1
11.483445 32.556355 28.496152 44.764008 1.231696 0.880733 0.067419 -0.028116 -221354.000000 0 0 1
11.325745 32.382881 29.902532 45.509174 1.234349 0.853876 0.079523 -0.039803 665203.000000 0 0 1
10.040445 32.039300 30.447112 45.324981 1.267111 0.834226 0.101313 -0.042390 471726.000000 0 0 1
10.000645 31.834670 31.985132 46.222373 1.266415 0.806563 0.126230 -0.043421 -263386.000000 0 0 1
10.521145 30.607200 32.370552 45.774969 1.239703 0.785313 0.102489 -0.041681 111011.000000 0 0 1
10.486345 30.558610 33.786453 46.747369 1.240232 0.763030 0.127869 -0.041372 -45671.300000 0 0 1
10.609845 29.123170 -33.839841 45.889680 1.221431 2.400035 0.103414 -0.033498 -342732.000000 0 0 1
11.872145 28.533860 -34.003781 45.949822 1.176512 2.403896 0.109420 -0.032148 -233442.000000 0 0 1
11.976545 27.203010 -33.536371 44.812159 1.156067 2.416407 0.108569 -0.035184 675795.000000 0 0 1
13.400145 26.566150 -33.755981 44.997672 1.103630 2.419118 0.112211 -0.032429 834275.000000 0 0 1
13.367945 25.173580 -33.587751 44.051653 1.082633 2.437907 0.082396 -0.035535 -38984.800000 0 0 1
13.362345 24.690230 -32.258751 42.764316 1.074735 2.425442 0.076449 -0.032524 -177820.000000 0 0 1
13.244445 23.151520 -32.247401 41.848573 1.051162 2.450537 0.070020 -0.050824 33629.900000 0 0 1
14.441245 22.634120 -32.801151 42.388306 1.002882 2.455655 0.055123 -0.032986 384720.000000 0 0 1
14.358945 21.204920 -32.776721 41.594968 0.975570 2.478346 0.055053 -0.033087 954451.000000 0 0 1
15.718445 20.611620 -33.327411 42.221141 0.919279 2.480552 0.062821 -0.040545 1429880.000000 0 0 1
16.814345 20.726920 -32.415361 41.989083 0.889244 2.452770 0.069195 -0.040038 250524.000000 0 0 1
17.935945 20.013120 -32.872341 42.459556 0.840079 2.456252 0.079238 -0.032149 -1139810.000000 0 0 1
19.168145 20.069120 -32.032881 42.382695 0.808356 2.427673 0.072552 -0.032573 -1429260.000000 0 0 1
19.775945 21.295620 -32.218321 43.389073 0.822382 2.407658 0.064334 -0.036685 234521.000000 0 0 1
20.905645 21.513720 -31.366031 43.401775 0.799732 2.378483 0.052906 -0.025487 221804.000000 0 0 1
20.474145 21.855820 -29.937701 42.345406 0.818027 2.356027 0.058376 -0.025681 -47364.500000 0 0 1
19.755145 23.090420 -29.948971 42.665843 0.863086 2.348918 0.043769 -0.017004 338844.000000 0 0 1
19.261645 23.532960 -28.648721 41.779904 0.884878 2.326369 0.054688 -0.006963 124812.000000 0 0 1
20.357745 24.172440 -27.741881 42.051832 0.870855 2.291225 0.041172 -0.000348 58204.900000 0 0 1
21.139245 25.185060 -28.239381 43.343022 0.872514 2.280399 0.048865 0.000729 -294756.000000 0 0 1
20.424945 26.402590 -28.495701 43.889408 0.912364 2.277409 0.045562 0.005468 -115489.000000 0 0 1
21.291445 27.560130 -29.193561 45.443926 0.913022 2.268433 0.041823 0.002732 110011.000000 0 0 1
21.455845 27.349450 -30.580411 46.298026 0.905574 2.292297 0.042047 0.001578 119277.000000 0 0 1
22.118945 26.218450 -31.128361 46.320943 0.870006 2.307723 0.050836 -0.005418 -152094.000000 0 0 1
23.548645 25.891630 -30.655291 46.525929 0.832753 2.290133 0.080740 -0.020639 -917175.000000 0 0 1
24.511345 26.741270 -31.153501 47.816756 0.828879 2.280381 0.074711 -0.014046 247671.000000 0 0 1
25.767845 26.443570 -30.484681 47.880685 0.798340 2.260982 0.097022 -0.024791 1155760.000000 0 0 1
26.951245 27.388230 -30.848931 49.276174 0.793440 2.247263 0.062835 -0.013163 30529.900000 0 0 1
26.884445 28.706370 -30.387851 49.701615 0.818160 2.228632 0.041184 -0.005960 462577.000000 0 0 1
28.058945 29.456110 -30.753441 50.997460 0.809686 2.218101 0.041207 -0.004464 709976.000000 0 0 1
28.370845 30.629590 -29.839991 51.317655 0.823663 2.191338 0.037662 0.000204 -150224.000000 0 0 1
28.860645 30.303800 -28.563701 50.666973 0.809786 2.169720 0.057759 -0.010551 -88106.000000 0 0 1
28.093645 30.878460 -27.557741 50.021608 0.832586 2.154259 0.045453 -0.004152 -189609.000000 0 0 1
28.811845 30.819300 -26.163631 49.643602 0.819050 2.125897 0.067181 -0.002206 -101535.000000 0 0 1
29.036245 29.492000 -25.528981 48.627261 0.793185 2.123503 0.064085 0.008948 -93142.900000 0 0 1
27.912345 28.757620 -25.120971 47.298657 0.800313 2.130711 0.068877 0.007963 -379931.000000 0 0 1
27.258945 29.118430 -23.757401 46.425717 0.818369 2.107993 0.070913 0.014849 170118.000000 0 0 1
26.611745 30.385590 -23.712201 46.837352 0.851513 2.101647 0.065749 0.017653 101807.000000 0 0 1
25.729645 30.579470 -22.655701 45.939084 0.871315 2.086524 0.070846 0.024955 41188.800000 0 0 1
3.512745 -26.484334 -19.432901 33.036298 -1.438931 2.199663 0.084492 -0.020485 -204584.000000 0 0 1
3.396645 -27.718144 -18.729901 33.625019 -1.448862 2.161593 0.085913 -0.019478 221079.000000 0 0 1
2.831845 -27.474624 -17.488601 32.691367 -1.468088 2.135258 0.079907 -0.022257 -487060.000000 0 0 1
2.836645 -28.650774 -16.504001 33.185772 -1.472110 2.091305 0.054987 -0.011077 -556770.000000 0 0 1
4.122345 -29.028134 -16.129701 33.463316 -1.429728 2.073745 0.056074 -0.015822 -564985.000000 0 0 1
4.119945 -29.948214 -15.070601 33.778580 -1.434085 2.033265 0.048706 -0.017422 -789129.000000 0 0 1
5.508845 -30.415934 -14.714401 34.234339 -1.391622 2.015083 0.082326 -0.021735 -766168.000000 0 0 1
6.262045 -29.387184 -14.081501 33.182954 -1.360849 2.009051 0.056649 -0.009853 -337992.000000 0 0 1
7.609345 -29.636024 -13.786401 33.559811 -1.319466 1.994129 0.065254 -0.005809 -158215.000000 0 0 1
7.889045 -30.565004 -12.617701 33.995042 -1.318202 1.951057 0.058535 -0.013090 -911336.000000 0 0 1
8.093545 -29.887434 -11.410401 32.999415 -1.306338 1.923862 0.050802 -0.018948 24626.700000 0 0 1
8.031845 -30.725194 -10.238001 33.367120 -1.315109 1.882656 0.049061 -0.017136 -245263.000000 0 0 1
9.232945 -31.659384 -10.066901 34.480521 -1.287033 1.867071 0.071585 -0.023305 -135965.000000 0 0 1
10.387745 -31.011314 -9.562501 34.074158 -1.247577 1.855255 0.058812 -0.020536 965579.000000 0 0 1
11.465045 -32.003724 -9.519701 35.303120 -1.226799 1.843832 0.060100 -0.022548 693405.000000 0 0 1
12.724845 -31.828074 -8.670101 35.357016 -1.190463 1.818539 0.053456 -0.021611 -226209.000000 0 0 1
13.626445 -30.942864 -9.273401 35.059047 -1.155976 1.838490 0.068715 -0.029209 374178.000000 0 0 1
14.807445 -30.720934 -8.507701 35.148502 -1.121653 1.815275 0.054818 -0.022032 682535.000000 0 0 1
16.029345 -30.030544 -9.194501 35.260634 -1.080501 1.834604 0.061475 -0.032584 369524.000000 0 0 1
15.916145 -28.627264 -9.493701 34.102408 -1.063375 1.852912 0.064271 -0.026523 226042.000000 0 0 1
15.271045 -28.309794 -10.730801 33.908691 -1.076107 1.892793 0.050374 -0.021476 -97201.200000 0 0 1
15.202045 -26.814994 -10.970501 32.718465 -1.055053 1.912720 0.051771 -0.014511 -435616.000000 0 0 1
14.454645 -26.094934 -9.992301 31.459949 -1.064944 1.894015 0.047912 -0.022659 308685.000000 0 0 1
14.297545 -24.686624 -10.105701 30.265068 -1.045840 1.911241 0.010817 -0.007599 -130681.000000 0 0 1
13.553545 -24.097324 -11.337801 29.881856 -1.058445 1.959967 0.009335 -0.003448 222515.000000 0 0 1
14.443945 -23.814424 -12.391801 30.484603 -1.025596 1.989409 0.011750 -0.007883 76594.600000 0 0 1
13.685245 -23.639224 -13.580101 30.504393 -1.046020 2.032177 0.024225 -0.014527 595544.000000 0 0 1
14.437445 -22.996024 -14.841201 30.943790 -1.010169 2.071016 0.029726 -0.021427 159606.000000 0 0 1
15.283745 -23.859924 -15.543901 32.318751 -1.001085 2.072541 0.031250 -0.022143 46970.000000 0 0 1
15.923845 -23.289724 -16.682401 32.776250 -0.971075 2.104794 0.038702 -0.025091 54522.500000 0 0 1
16.893545 -24.333724 -17.429101 34.369980 -0.963944 2.102616 0.035313 -0.024493 398972.000000 0 0 1
18.116945 -24.570224 -16.797601 34.843636 -0.935438 2.073830 0.045006 -0.022713 -265069.000000 0 0 1
19.084745 -23.591724 -17.173001 34.867017 -0.890616 2.085789 0.053516 -0.023969 -433363.000000 0 0 1
20.474545 -23.737224 -16.537201 35.442091 -0.859061 2.056237 0.053723 -0.016426 272677.000000 0 0 1
21.280245 -24.749724 -17.154401 36.873718 -0.860630 2.054680 0.083616 -0.018185 -78094.100000 0 0 1
22.615445 -24.746224 -16.698101 37.452109 -0.830357 2.032922 0.110023 -0.004762 -370329.000000 0 0 1
23.450345 -25.711944 -17.475301 38.941095 -0.831368 2.036176 0.106779 -0.007327 -715129.000000 0 0 1
23.746945 -25.327014 -18.775001 39.469934 -0.817585 2.066532 0.112234 -0.009579 -105811.000000 0 0 1
24.007545 -26.425654 -19.574801 40.716707 -0.833308 2.072313 0.097041 -0.020710 283692.000000 0 0 1
25.340845 -26.295034 -20.401201 41.830566 -0.803875 2.080261 0.076331 -0.024595 616283.000000 0 0 1
25.401545 -25.328724 -21.441101 41.791190 -0.783963 2.109534 0.072449 -0.027006 26881.500000 0 0 1
26.054645 -24.117424 -21.047201 41.273227 -0.746806 2.105921 0.083846 -0.024334 27126.400000 0 0 1
25.047645 -22.914124 -20.989301 39.912308 -0.740944 2.124552 0.084455 -0.010195 424740.000000 0 0 1
24.622645 -22.252724 -22.209101 39.933727 -0.734883 2.160541 0.083123 -0.009546 305254.000000 0 0 1
24.154345 -23.102924 -23.253601 40.717409 -0.763153 2.178638 0.052329 -0.017613 -505086.000000 0 0 1
23.288745 -22.359424 -24.277601 40.394447 -0.765043 2.215565 0.034147 -0.010349 -36225.700000 0 0 1
24.040045 -21.556024 -25.188251 40.951604 -0.730973 2.233276 0.036879 -0.004963 119080.000000 0 0 1
23.236945 -20.686724 -25.953761 40.515353 -0.727403 2.266064 0.033908 0.004884 -278008.000000 0 0 1
23.877445 -20.295224 -27.278321 41.546784 -0.704479 2.287057 0.035159 0.004802 -27870.600000 0 0 1
23.214245 -19.231224 -28.006631 41.147448 -0.691834 2.319433 0.038915 0.006170 284578.000000 0 0 1
23.707545 -19.004624 -29.305431 42.214117 -0.675733 2.338117 0.048942 -0.004377 -392288.000000 0 0 1
22.916745 -17.886624 -29.953941 41.741431 -0.662740 2.371156 0.068890 -0.005902 -1332070.000000 0 0 1
21.639745 -18.276024 -30.274721 41.459020 -0.701326 2.389458 0.059670 -0.006420 -892141.000000 0 0 1
21.030445 -17.232024 -31.042721 41.265879 -0.686450 2.422284 0.073894 -0.009707 270623.000000 0 0 1
19.741645 -17.683224 -31.788621 41.387744 -0.730452 2.446616 0.063393 -0.007952 44889.200000 0 0 1
19.897645 -18.430524 -32.970061 42.692217 -0.747139 2.453208 0.064360 -0.002825 -218647.000000 0 0 1
18.681845 -18.922124 -33.443661 42.726298 -0.791788 2.469856 0.072265 -0.013620 -522632.000000 0 0 1
18.911245 -19.899724 33.623842 43.407337 -0.810862 0.684695 0.089925 -0.006430 1495.700000 0 0 1
19.588845 -21.067524 34.056943 44.580699 -0.821752 0.701401 0.087295 -0.007799 196499.000000 0 0 1
19.725245 -21.948824 32.931709 44.219154 -0.838704 0.730653 0.081292 -0.016194 49549.100000 0 0 1
20.441645 -23.301624 33.269746 45.471997 -0.850686 0.750052 0.068132 -0.007003 165896.000000 0 0 1
19.709545 -24.038024 -33.981171 46.054454 -0.884019 2.400672 0.081528 -0.014939 378714.000000 0 0 1
19.967845 -23.654824 -32.640651 44.985304 -0.869718 2.382680 0.085467 -0.012787 -225096.000000 0 0 1
19.228045 -24.519024 -31.591641 44.372649 -0.905758 2.363085 0.089645 -0.015837 -59001.400000 0 0 1
19.548545 -25.879644 -31.588111 45.273727 -0.923871 2.342998 0.089566 -0.026402 -363371.000000 0 0 1
20.683945 -26.193244 -30.833261 45.437887 -0.902388 2.316625 0.079533 -0.031826 -391627.000000 0 0 1
21.022045 -27.639774 -30.782941 46.405527 -0.920563 2.296078 0.064064 -0.030886 -308238.000000 0 0 1
20.037745 -28.424294 -30.160061 46.033477 -0.956755 2.285213 0.064636 -0.036697 -54975.100000 0 0 1
20.242145 -29.786684 -30.357051 47.101396 -0.973914 2.271171 0.063019 -0.028377 -413000.000000 0 0 1
19.101745 -30.685664 -29.769261 46.826227 -1.013999 2.259762 0.084340 -0.029546 1764330.000000 0 0 1
17.739745 -30.587654 -30.254381 46.536337 -1.045239 2.278544 0.095709 -0.031231 1156900.000000 0 0 1
17.690245 -30.925304 -31.669231 47.668222 -1.051196 2.297444 0.106941 -0.040939 -1276060.000000 0 0 1
16.451745 -31.703154 -32.130381 48.042806 -1.092119 2.303372 0.124306 -0.046804 -397620.000000 0 0 1
15.586745 -30.815244 -32.778691 47.612692 -1.102509 2.330138 0.124100 -0.039740 354916.000000 0 0 1
14.347445 -31.483134 -33.098551 47.880591 -1.143197 2.334045 0.095465 -0.028380 1296800.000000 0 0 1
13.244845 -30.764024 -33.961331 47.699298 -1.164251 2.363122 0.090449 -0.014582 475823.000000 0 0 1
12.536845 -29.809474 -33.248221 46.381261 -1.172687 2.370064 0.107993 -0.022047 -368455.000000 0 0 1
11.345545 -29.487174 -33.929531 46.361923 -1.203495 2.391815 0.091857 -0.016410 -70051.400000 0 0 1
10.558845 -28.415414 -33.127211 44.903642 -1.215020 2.400513 0.091012 -0.027898 366591.000000 0 0 1
9.672745 -28.995184 -32.154001 44.363977 -1.248807 2.381507 0.082877 -0.019748 119746.000000 0 0 1
8.679845 -28.067124 -31.762961 43.266486 -1.270872 2.395172 0.063002 -0.022661 980425.000000 0 0 1
7.508845 -28.762304 -30.915551 42.888509 -1.315431 2.375803 0.050494 -0.021568 546798.000000 0 0 1
6.493045 -29.422314 -31.600031 43.662274 -1.353593 2.380000 0.047584 -0.015614 -131461.000000 0 0 1
6.861945 -30.672994 -32.124491 44.943317 -1.350707 2.367103 0.064238 -0.015257 20043.700000 0 0 1
5.575345 -31.363764 -32.674621 45.633332 -1.394870 2.368888 0.091339 -0.019290 1050290.000000 0 0 1
4.678045 -31.598604 -31.564091 44.907101 -1.423818 2.350228 0.086650 -0.030842 863823.000000 0 0 1
3.515745 -32.379654 -31.893101 45.584782 -1.462641 2.345695 0.096083 -0.053451 790073.000000 0 0 1
2.535545 -32.632774 -30.675351 44.858712 -1.493253 2.323784 0.083923 -0.054562 817225.000000 0 0 1
1.533445 -31.715894 -30.249061 43.854932 -1.522485 2.331944 0.066253 -0.044101 345492.000000 0 0 1
0.417045 -31.557954 -31.093811 44.304666 -1.557582 2.348743 0.054336 -0.013203 199671.000000 0 0 1
-0.682455 -30.641544 -30.456681 43.208557 1.548528 2.353045 0.022493 -0.009212 438137.000000 0 0 1
-1.380455 -31.031494 -29.268621 42.679169 1.526340 2.326474 0.018570 -0.016295 -254257.000000 0 0 1
-2.320755 -30.066764 -28.958581 41.809037 1.493762 2.335938 0.038762 -0.010201 -624738.000000 0 0 1
-2.912255 -30.347654 -27.569411 41.103938 1.475126 2.305981 0.044293 -0.015897 -1190210.000000 0 0 1
-2.005155 -30.392844 -26.526021 40.390288 1.504917 2.287287 0.034824 -0.010759 -301635.000000 0 0 1
-2.628755 -30.764574 -25.300891 39.918723 1.485556 2.257266 0.058650 -0.024092 96849.900000 0 0 1
-1.511255 -30.898564 -24.275201 39.322901 1.521925 2.236140 0.041434 -0.017479 -198349.000000 0 0 1
-1.985455 -30.849674 -22.956001 38.504836 1.506526 2.209537 0.068248 -0.034254 -642959.000000 0 0 1
-0.977355 -31.165584 -22.056801 38.193603 1.539447 2.186459 0.067418 -0.028169 -200400.000000 0 0 1
-1.449455 -31.090424 -20.570701 37.307762 1.524209 2.154812 0.039440 -0.018023 270077.000000 0 0 1
-1.680955 -29.812194 -20.028301 35.954490 1.514471 2.161621 0.034557 -0.017114 990282.000000 0 0 1
-0.406755 -29.193964 -19.726801 35.236340 1.556864 2.164992 0.064039 -0.031951 982197.000000 0 0 1
-0.513755 -27.812694 -19.095701 33.741009 1.552326 2.172381 0.062645 -0.032898 -197870.000000 0 0 1
-1.071855 -27.758534 -17.805001 32.995502 1.532202 2.140781 0.059762 -0.035575 61925.900000 0 0 1
-1.014855 -26.413434 -17.259501 31.568810 1.532393 2.149246 0.048290 -0.028093 -96751.700000 0 0 1
-1.855655 -26.305554 -15.980401 30.835026 1.500371 2.115605 0.043666 -0.023884 -366519.000000 0 0 1
-1.847355 -25.067684 -15.326501 29.439822 1.497235 2.118355 0.034899 -0.018788 -34489.700000 0 0 1
-2.765655 -25.031324 -14.272001 28.946607 1.460755 2.086383 0.039661 -0.018959 -251506.000000 0 0 1
-2.559555 -23.796724 -13.338001 27.399592 1.463649 2.079214 0.042150 -0.012623 320531.000000 0 0 1
-1.371855 -23.939624 -12.563401 27.070771 1.513554 2.053409 0.037014 -0.008606 318585.000000 0 0 1
-0.946655 -22.694224 -11.990701 25.684642 1.529107 2.056514 0.039532 -0.006346 435534.000000 0 0 1
0.033745 -22.848224 -10.790401 25.268067 -1.569319 2.012010 0.039053 -0.009429 481872.000000 0 0 1
0.607745 -21.572224 -10.488801 23.994690 -1.542631 2.023202 0.034885 -0.001817 -471909.000000 0 1 0
1.807245 -21.623024 -9.784101 23.802309 -1.487410 1.994409 0.027015 -0.003271 -104980.000000 0 1 0
2.248945 -20.182224 -9.457201 22.401307 -1.459822 2.006636 0.029665 0.004303 -447951.000000 0 1 0
2.635845 -19.348024 -10.566601 22.202404 -1.435397 2.066808 0.020369 0.005352 278131.000000 0 1 0
3.439245 -18.205124 -10.193501 21.146215 -1.384081 2.073788 0.017614 -0.000887 1510790.000000 0 1 0
4.932445 -18.430424 -9.719901 21.412286 -1.309299 2.041979 0.037513 -0.017738 692952.000000 0 1 0
4.999345 -19.144124 -8.483601 21.528177 -1.315358 1.975852 0.033911 -0.003837 -1615240.000000 0 1 0
6.117945 -19.862824 -8.358801 22.401575 -1.272007 1.953182 0.032241 -0.002577 -1735460.000000 0 1 0
5.951945 -20.862824 -7.271001 22.881226 -1.292889 1.894175 0.034049 -0.012405 -98221.600000 0 1 0
5.037545 -21.862124 -7.656101 23.705383 -1.344326 1.899661 0.051892 -0.014765 27026.200000 0 1 0
4.853945 -22.858424 -6.725801 24.316758 -1.361556 1.851041 0.059975 -0.022582 -91777.500000 0 1 0
3.906845 -23.914824 -7.340301 25.319207 -1.408862 1.864930 0.066047 -0.017842 -23061.100000 0 0 1
4.297645 -24.380324 -8.594101 26.205505 -1.396314 1.904929 0.052101 -0.018240 -100611.000000 0 0 1
3.231845 -25.068044 -9.209101 26.900914 -1.442581 1.920196 0.040319 -0.012964 107848.000000 0 0 1
3.711045 -26.014664 -10.322401 28.232721 -1.429100 1.945093 0.028463 -0.014666 -19770.900000 0 0 1
4.240545 -27.244534 -9.859701 29.282427 -1.416388 1.914218 0.028030 -0.021112 -97663.600000 0 0 1
4.573845 -28.078504 -10.931201 30.476443 -1.409320 1.937647 0.035340 -0.012373 -4941.140000 0 0 1
4.400445 -29.585284 -10.722501 31.774596 -1.423141 1.915008 0.043722 -0.018335 788276.000000 0 0 1
3.085745 -30.135414 -10.960701 32.214934 -1.468756 1.917965 0.059798 -0.017695 957090.000000 0 0 1
3.175245 -31.536714 -11.043301 33.564877 -1.470450 1.906055 0.051029 -0.018385 392956.000000 0 0 1
1.898845 -32.108154 -11.736701 34.238711 -1.511726 1.920682 0.033178 -0.029778 239973.000000 0 0 1
1.859245 -31.932404 -13.150601 34.584296 -1.512638 1.960860 0.045378 -0.030473 422580.000000 0 0 1
1.148645 -33.034604 -13.747301 35.799340 -1.536039 1.964932 0.050620 -0.023789 -47017.700000 0 0 1
0.727345 -32.783284 -15.220801 36.151701 -1.548614 2.005372 0.057838 -0.026929 222788.000000 0 0 1
-0.351655 -31.852944 -15.254301 35.318938 1.559757 2.017396 0.055363 -0.022828 139081.000000 0 0 1
-0.767255 -31.611844 -16.592001 35.709828 1.546530 2.054018 0.036290 -0.027370 407142.000000 0 0 1
-1.989355 -30.624904 -16.685001 34.931812 1.505929 2.068768 0.047315 -0.018360 589333.000000 0 0 1
-3.163055 -31.228854 -16.184801 35.315634 1.469854 2.046867 0.059636 -0.026543 -513297.000000 0 0 1
-4.238355 -31.112734 -17.079101 35.744392 1.435404 2.068959 0.066067 -0.024403 378798.000000 0 0 1
-5.632155 -31.044834 -16.386101 35.552879 1.391328 2.049798 0.072864 -0.026018 -139067.000000 0 0 1
-5.862555 -29.805884 -15.702801 34.195588 1.376584 2.047897 0.059687 -0.015452 881269.000000 0 0 1
-7.243555 -29.506464 -15.428701 34.075582 1.330066 2.040676 0.070650 -0.023455 1128080.000000 0 0 1
-8.045255 -30.405934 -14.419301 34.600046 1.312129 2.000655 0.062469 -0.029704 -63012.100000 0 0 1
-8.294255 -31.742364 -14.828901 36.003731 1.315212 1.995303 0.066798 -0.025108 -90617.000000 0 0 1
-8.920055 -32.456854 -13.753401 36.361666 1.302590 1.958690 0.064555 -0.015715 266390.000000 0 0 1
-9.178255 -33.887814 -14.124501 37.843438 1.306300 1.953290 0.096624 -0.025186 204449.000000 0 0 1
-8.074755 33.524535 -13.835401 37.155275 -1.334437 1.952355 0.097283 -0.025933 249569.000000 0 0 1
-8.295355 32.312132 -14.481401 36.367538 -1.319498 1.980345 0.112587 -0.028673 -3229.490000 0 0 1
-7.275455 -22.156224 -3.377601 23.563503 1.253519 1.714632 0.057965 -0.023576 244493.000000 0 1 0
-7.255655 -21.241524 -4.474101 22.888085 1.241643 1.767540 0.047247 -0.018121 -223041.000000 0 1 0
-5.993055 -21.162124 -5.091401 22.575973 1.294825 1.798276 0.042211 -0.016668 -32453.600000 0 1 0
-6.101955 -20.024224 -6.171301 21.824032 1.275007 1.857483 0.043859 -0.018600 -231995.000000 0 1 0
-6.890155 -20.346424 -7.248701 22.671455 1.244276 1.896239 0.046218 -0.020069 -617926.000000 0 1 0
-7.132655 -19.276124 -8.095801 22.090399 1.216394 1.946025 0.033392 -0.018374 70425.000000 0 1 0
-8.068355 -19.594024 -9.290501 23.137362 1.180179 1.983991 0.048717 -0.015653 149910.000000 0 1 0
-7.495755 -20.437724 -10.275401 24.072199 1.219269 2.011811 0.067001 -0.009269 -258878.000000 0 1 0
-8.370955 -20.592924 -11.364501 24.965842 1.184702 2.043395 0.067486 -0.012925 -434054.000000 0 1 0
-7.777355 -21.445224 -12.547601 26.035114 1.222887 2.073674 0.057009 -0.008714 -370446.000000 0 0 1
-6.614555 -20.860724 -13.108501 25.509899 1.263743 2.110474 0.047979 -0.008827 103066.000000 0 0 1
-6.245955 -21.610124 -14.305501 26.658146 1.289435 2.137232 0.032620 -0.004350 -26198.900000 0 0 1
-5.106055 -20.937824 -15.062501 26.293406 1.331598 2.180790 0.037141 -0.006133 710315.000000 0 0 1
-3.724955 -21.076324 -14.611301 25.914800 1.395866 2.169801 0.031373 -0.004365 1757210.000000 0 0 1
-2.801355 -20.427324 -15.489801 25.788701 1.434509 2.215101 0.034287 0.004659 59688.300000 0 0 1
-2.880155 -18.848624 -15.532301 24.593054 1.419165 2.254376 0.034507 0.010057 -640652.000000 0 1 0
-3.929255 -18.172424 -16.233301 24.681898 1.357854 2.288559 0.038083 0.000267 57898.000000 0 1 0
-3.848255 -18.328824 -17.651101 25.735505 1.363846 2.326589 0.064298 -0.011290 253002.000000 0 0 1
-5.187455 -17.965224 -18.389501 26.226565 1.289692 2.347845 0.064254 -0.013806 310553.000000 0 0 1
-6.172255 -18.887324 -18.020001 26.824395 1.254943 2.307401 0.048397 -0.009274 -1232650.000000 0 0 1
-7.422055 -18.461324 -18.453601 27.137479 1.188539 2.318565 0.059348 -0.028688 -537541.000000 0 0 1
-8.535955 -19.320224 -17.810201 27.628551 1.154770 2.271336 0.071002 -0.030419 -141007.000000 0 0 1
-8.457555 -20.641624 -18.205301 28.793052 1.181928 2.255290 0.062016 -0.020020 -65297.900000 0 0 1
-9.237055 -21.492024 -17.443201 29.180397 1.164876 2.211514 0.068565 -0.029986 -283744.000000 0 0 1
-8.809055 -23.006124 -17.606501 30.279862 1.205117 2.191317 0.068888 -0.026875 -423008.000000 0 0 1
-9.008555 -23.359924 -18.933901 31.390010 1.202729 2.218281 0.044021 -0.030157 82684.900000 0 0 1
-8.443255 -24.567624 -19.340301 32.386787 1.239768 2.210760 0.060354 -0.035536 307142.000000 0 0 1
-6.906055 -24.495824 -19.644201 32.150173 1.296001 2.228137 0.093916 -0.033657 -190223.000000 0 0 1
-6.557755 -23.596024 -20.690201 32.060270 1.299719 2.272282 0.094193 -0.029621 44697.200000 0 0 1
-6.327155 -22.240924 -20.292101 30.764605 1.293636 2.291073 0.065925 -0.027360 -586262.000000 0 0 1
-5.202055 -21.986424 -19.272801 29.696887 1.338466 2.277044 0.079374 -0.011686 305825.000000 0 0 1
-3.889655 -22.426224 -19.626801 30.054555 1.399062 2.282387 0.077299 -0.022964 623314.000000 0 0 1
-3.052655 -22.583924 -18.481401 29.341345 1.436441 2.252190 0.030031 -0.014628 993848.000000 0 0 1
-1.655555 -23.239524 -18.798701 29.936725 1.499678 2.249710 0.058380 -0.014782 548495.000000 0 0 1
-0.799755 -22.380024 -19.541601 29.721697 1.535076 2.288274 0.075969 -0.016533 -549265.000000 0 0 1
0.435345 -23.065224 -19.527601 30.224514 -1.551924 2.273240 0.066126 -0.027316 -352219.000000 0 0 1
1.331845 -22.542824 -20.634301 30.589657 -1.511784 2.311153 0.086319 -0.037025 -351968.000000 0 0 1
0.747745 -22.680824 -21.896701 31.534813 -1.537840 2.338335 0.083722 -0.043121 -297934.000000 0 0 1
0.779745 -21.562124 -22.717901 31.331074 -1.534649 2.381964 0.093276 -0.033066 -124849.000000 0 0 1
0.044445 -21.927324 -24.029901 32.530688 -1.568769 2.401912 0.113843 -0.033101 85968.900000 0 0 1
-0.435355 -20.857324 -24.879901 32.468861 1.549926 2.443811 0.120502 -0.040197 -285703.000000 0 0 1
-1.738655 -20.439924 -24.561101 32.000955 1.485939 2.445746 0.104072 -0.026184 -322023.000000 0 0 1
-2.123055 -19.131724 -25.284831 31.778183 1.460278 2.490903 0.092347 -0.015367 509005.000000 0 0 1
-1.289555 -17.981924 -24.936901 30.771116 1.499205 2.515630 0.076997 -0.014154 562771.000000 0 0 1
-1.862255 -16.722324 -25.371701 30.443839 1.459890 2.556016 0.066862 -0.008864 -144440.000000 0 0 1
-1.168555 -15.473624 -24.942501 29.375618 1.495420 2.585054 0.056725 -0.007934 653759.000000 0 0 1
0.167745 -15.293824 -25.460781 29.701525 -1.559829 2.600646 0.053449 -0.016937 484441.000000 0 0 1
0.759345 -14.009124 -25.116531 28.769294 -1.516646 2.632183 0.045835 -0.018391 391956.000000 0 0 1
0.310245 -12.748424 -25.873601 28.845481 -1.546465 2.683669 0.040939 -0.013853 -114554.000000 0 0 1
0.982745 -11.565124 -25.496321 28.013930 -1.486025 2.714394 0.030716 -0.014409 -23739.700000 0 0 1
0.554745 -10.454424 -26.254691 28.265023 -1.517783 2.762162 0.034114 -0.014158 -460448.000000 0 0 1
1.440145 -9.188324 -26.038241 27.649400 -1.415325 2.798530 0.041007 -0.016182 395446.000000 0 0 1
2.814345 -9.229824 -26.376761 28.086362 -1.274833 2.790887 0.060414 -0.019491 82823.900000 0 0 1
3.028845 -9.429924 -27.806301 29.517584 -1.260010 2.799411 0.059202 -0.013756 -197011.000000 0 0 1
4.501145 -9.150524 -28.253051 30.037098 -1.113650 2.795205 0.069558 -0.011769 153011.000000 0 0 1
4.875445 -7.829024 -28.554681 30.007222 -1.013824 2.829176 0.070570 -0.014090 1520040.000000 0 0 1
6.221245 -7.527324 -29.043971 30.641748 -0.880111 2.817237 0.100238 -0.015914 1561300.000000 0 0 1
7.411845 -7.761124 -28.053041 30.035705 -0.808414 2.776217 0.120071 -0.020986 -203808.000000 0 0 1
7.773245 -8.982224 -27.581401 30.030607 -0.857428 2.734922 0.091319 -0.017970 197119.000000 0 0 1
8.629845 -9.670124 -28.492011 31.301441 -0.842183 2.714674 0.106629 -0.028008 -39327.400000 0 0 1
9.113445 -11.019624 -27.869641 31.324174 -0.879796 2.667521 0.104279 -0.032865 578617.000000 0 0 1
7.970345 -11.849524 -27.597641 31.073580 -0.978677 2.664075 0.099756 -0.031156 584477.000000 0 0 1
8.177945 -12.922124 -26.677301 30.749609 -1.006562 2.621082 0.099223 -0.025780 -257589.000000 0 0 1
9.060145 -14.120024 -27.118991 31.888885 -1.000312 2.587582 0.108583 -0.033238 -102356.000000 0 0 1
8.515445 -14.907724 -28.147011 32.969793 -1.051815 2.593886 0.113022 -0.037293 439076.000000 0 0 1
9.540245 -15.603724 -28.872041 34.177291 -1.022031 2.576937 0.105271 -0.038299 735086.000000 0 0 1
8.901945 -16.257724 -30.146551 35.388879 -1.069835 2.590332 0.086058 -0.035290 278202.000000 0 0 1
8.414545 -15.296924 -31.061751 35.631907 -1.067891 2.629538 0.083328 -0.031323 195953.000000 0 0 1
7.564645 -15.890524 -32.013011 36.531705 -1.126494 2.638940 0.079511 -0.030829 -674597.000000 0 0 1
6.684545 -14.903624 -32.744341 36.592253 -1.149175 2.678877 0.078069 -0.023765 -81551.100000 0 0 1
7.340145 -13.901124 -33.537811 37.039219 -1.084981 2.703276 0.077503 -0.022521 176912.000000 0 0 1
6.317345 -13.068724 -34.049107 37.014079 -1.120521 2.738612 0.060372 -0.018750 286663.000000 0 0 1
6.800145 -11.919224 33.223215 35.945679 -1.052336 0.391699 0.079427 -0.015231 28161.100000 0 0 1
7.158645 -12.356724 31.933312 34.981012 -1.045713 0.420523 0.070648 -0.018390 4468.560000 0 0 1
7.215345 -11.293224 31.046972 33.815863 -1.002257 0.407490 0.078113 -0.015567 -115886.000000 0 0 1
7.753945 -11.637724 29.650392 32.782709 -0.983064 0.440703 0.064608 -0.010175 69350.300000 0 0 1
6.733445 -12.025124 28.769552 31.900313 -1.060348 0.446745 0.071597 -0.007019 326299.000000 0 0 1
7.293345 -12.155524 27.485702 30.925935 -1.030375 0.476166 0.067303 -0.010725 1053120.000000 0 0 1
6.179845 -12.835124 26.555282 30.134928 -1.122075 0.492375 0.072277 -0.018785 1043200.000000 0 0 1
5.959945 -14.216724 26.924472 31.025205 -1.173831 0.519987 0.068027 -0.014318 -31625.900000 0 0 1
5.241345 -15.023024 26.008582 30.489494 -1.235113 0.549024 0.047755 -0.011241 130423.000000 0 0 1
3.698645 -15.091624 26.104792 30.379224 -1.330454 0.536902 0.054567 -0.025530 -327833.000000 0 0 1
3.006445 -13.986924 25.719102 29.430340 -1.359071 0.507633 0.058184 -0.027407 -405984.000000 0 0 1
1.805345 -14.398124 25.095852 28.989084 -1.446060 0.524249 0.055311 -0.024766 287269.000000 0 0 1
0.761845 -13.304624 24.734462 28.096032 -1.513597 0.494188 0.052130 -0.019627 -311177.000000 0 0 1
1.144945 -12.357724 23.703742 26.756151 -1.478410 0.482328 0.037998 -0.007300 92865.100000 0 0 1
0.219345 -11.295824 23.428352 26.010217 -1.551381 0.449334 0.041447 0.001847 510268.000000 0 0 1
-1.153555 -11.719624 22.847592 25.703944 1.472683 0.475913 0.030601 0.000565 -442455.000000 0 0 1
-1.118155 -12.298924 21.583092 24.866517 1.480131 0.519721 0.034552 0.000372 -239885.000000 0 1 0
-2.345455 -12.955524 21.373192 25.102990 1.391697 0.552109 0.049987 -0.006266 96858.200000 0 0 1
-2.457655 -13.662724 20.022792 24.364365 1.392819 0.606222 0.060141 -0.011536 -333080.000000 0 1 0
-1.522355 -14.654224 19.801192 24.680985 1.467283 0.639683 0.075584 -0.018545 -509449.000000 0 1 0
-1.765455 -15.248324 18.531892 24.063649 1.455529 0.691767 0.073837 -0.023850 739142.000000 0 1 0
-2.719855 -16.508224 18.603592 25.020246 1.407506 0.732445 0.075245 -0.027070 549472.000000 0 0 1
-2.403655 -17.508424 17.689492 25.004811 1.434364 0.784922 0.062825 -0.027209 -430566.000000 0 0 1
-3.344655 -18.558924 17.677492 25.847903 1.392492 0.817696 0.069372 -0.025191 -309469.000000 0 0 1
-2.812855 -19.895824 17.071292 26.366360 1.430348 0.866543 0.061288 -0.023821 -119637.000000 0 0 1
-1.723755 -20.403724 17.776392 27.116109 1.486514 0.855865 0.062371 -0.027030 -558102.000000 0 0 1
-1.811655 -21.804924 17.580492 28.067962 1.487902 0.893929 0.056219 -0.038573 425214.000000 0 0 1
-0.666755 -22.580224 18.348092 29.102638 1.541277 0.888649 0.060192 -0.027851 432517.000000 0 0 1
0.544145 -22.412524 17.676792 28.549716 -1.546522 0.903126 0.075812 -0.042003 -364158.000000 0 0 1
1.588445 -23.242924 18.225592 29.579196 -1.502561 0.906935 0.076495 -0.037763 835832.000000 0 0 1
2.881445 -23.229424 17.371392 29.149170 -1.447384 0.932351 0.077242 -0.034543 287600.000000 0 0 1
3.631245 -22.040324 17.431492 28.334056 -1.407509 0.908140 0.065741 -0.028153 -910510.000000 0 0 1
4.849745 -22.103224 16.776592 28.169603 -1.354806 0.932838 0.055678 -0.013616 -623604.000000 0 0 1
5.469245 -20.700824 16.867692 27.257215 -1.312494 0.903539 0.056778 -0.012622 -772444.000000 0 0 1
6.077845 -20.628324 18.148692 28.139704 -1.284268 0.869839 0.055050 -0.005012 124138.000000 0 0 1
6.661045 -19.346724 18.554492 27.621267 -1.239210 0.834232 0.061228 0.000133 783971.000000 0 0 1
7.677145 -18.650024 17.607392 26.772788 -1.180294 0.853088 0.051430 -0.005771 -187027.000000 0 0 1
7.030145 -18.087924 16.472792 25.454838 -1.200099 0.866972 0.044429 -0.007285 149040.000000 0 0 1
7.992645 -17.517524 15.610592 24.787831 -1.142744 0.889541 0.062986 -0.006985 287020.000000 0 1 0
7.269645 -16.682524 14.536792 23.291042 -1.159844 0.896770 0.049474 -0.013002 -216712.000000 0 1 0
6.392845 -17.345824 13.688092 23.002389 -1.217690 0.933440 0.051659 -0.013615 -234715.000000 0 1 0
5.926745 -16.381924 12.724092 21.573044 -1.223661 0.939967 0.045405 -0.017370 151431.000000 0 1 0
6.482145 -16.632624 11.283792 21.118388 -1.199179 1.007104 0.056362 -0.013138 -155901.000000 0 1 0
7.786445 -16.162024 11.135292 21.114792 -1.121835 1.015295 0.053766 -0.015934 -278937.000000 0 1 0
8.450545 -16.618524 9.925192 21.120996 -1.100371 1.081595 0.063460 -0.012497 289119.000000 0 1 0
9.837745 -15.979024 9.814392 21.176230 -1.018937 1.088897 0.049563 -0.010525 -363963.000000 0 1 0
10.654245 -16.472024 8.809192 21.504473 -0.996668 1.148732 0.056729 -0.008553 -1339670.000000 0 1 0
11.913145 -15.888824 8.934492 21.776200 -0.927435 1.148028 0.056533 -0.007080 -594169.000000 0 1 0
12.981045 -16.607124 8.091692 22.578298 -0.907342 1.204260 0.069115 -0.016761 -131556.000000 0 1 0
13.218045 -17.952224 8.584192 23.889064 -0.936127 1.203240 0.067808 -0.021487 -161338.000000 0 1 0
14.051645 -18.712424 7.763692 24.655191 -0.926703 1.250455 0.068603 -0.020046 -249594.000000 0 1 0
14.439845 -20.045224 8.454892 26.111402 -0.946534 1.241052 0.056091 -0.019586 -696574.000000 0 0 1
13.435345 -20.963724 8.710492 26.379137 -1.000855 1.234277 0.052653 -0.015247 -418425.000000 0 0 1
13.993745 -22.257024 8.943592 27.770269 -1.009516 1.242896 0.049526 -0.010610 261524.000000 0 0 1
13.050945 -23.135124 9.803292 28.313700 -1.057178 1.217238 0.056070 -0.010683 256529.000000 0 0 1
12.991245 -22.655724 11.152592 28.397791 -1.050150 1.167201 0.067462 -0.011033 -808769.000000 0 0 1
12.043745 -23.185624 12.004792 28.753086 -1.091711 1.140090 0.067671 -0.007343 -646430.000000 0 0 1
12.213845 -24.625724 12.486192 30.191212 -1.110371 1.144424 0.038681 -0.006194 -120109.000000 0 0 1
13.321045 -24.847924 13.326592 31.184413 -1.078685 1.129239 0.012094 -0.002517 -224028.000000 0 0 1
13.314945 -26.160144 13.891992 32.475041 -1.099992 1.128767 0.019359 -0.016130 410765.000000 0 0 1
14.386045 -26.391464 15.024692 33.603705 -1.071721 1.107260 0.026797 -0.011307 477769.000000 0 0 1
14.215045 -25.689434 16.263892 33.563800 -1.065391 1.064929 0.036868 -0.008384 432610.000000 0 0 1
15.142945 -26.249664 17.204392 34.847449 -1.047549 1.054450 0.044243 -0.018495 -17366.300000 0 0 1
14.941045 -25.792154 18.661892 35.167261 -1.045747 1.011416 0.051685 -0.022468 -99588.300000 0 0 1
15.405745 -24.497924 18.904992 34.567093 -1.009427 0.992131 0.026971 -0.007824 1333970.000000 0 0 1
16.833345 -24.416124 19.193092 35.325393 -0.967196 0.996406 0.030027 -0.014929 1297400.000000 0 0 1
17.271245 -22.961824 19.573692 34.765941 -0.925906 0.972769 0.021210 -0.009271 -51315.400000 0 0 1
17.332845 -21.959424 18.598092 33.593642 -0.902606 0.984092 0.022156 -0.006750 436324.000000 0 0 1
16.059445 -21.383624 18.341292 32.427891 -0.926645 0.969633 0.021273 0.000082 -277149.000000 0 0 1
16.144745 -20.232724 17.258392 31.110577 -0.897305 0.982742 0.018561 0.002468 -237982.000000 0 0 1
16.921745 -19.143124 17.637792 31.046680 -0.846914 0.966594 0.017433 -0.005987 380118.000000 0 0 1
18.320345 -19.341524 17.404792 31.822262 -0.812506 0.992094 0.030176 -0.009907 -134159.000000 0 0 1
19.010145 -18.028624 17.659792 31.595650 -0.758905 0.977700 0.044722 -0.009759 -626548.000000 0 0 1
19.265345 -17.712524 19.027392 32.356277 -0.743430 0.942140 0.042434 -0.007861 200202.000000 0 0 1
19.912445 -16.484424 19.200192 32.200761 -0.691491 0.931956 0.050733 -0.008984 -180755.000000 0 0 1
20.495145 -16.252824 20.602292 33.296541 -0.670463 0.903644 0.049267 -0.011201 -64453.500000 0 0 1
21.687545 -16.956824 20.858392 34.539195 -0.663587 0.922405 0.052290 -0.009229 3211.700000 0 0 1
22.300945 -16.669924 22.110692 35.554201 -0.641898 0.899646 0.067213 -0.006764 208291.000000 0 0 1
34.357095 -1.258424 -7.720301 35.236297 -0.036611 1.791689 0.092508 -0.008634 157401.000000 0 0 1
35.555905 -0.904924 -8.404201 36.546845 -0.025445 1.802830 0.097469 -0.018730 153166.000000 0 0 1
36.437115 -1.987124 -8.221801 37.406016 -0.054482 1.792405 0.109861 -0.024792 652148.000000 0 0 1
-35.363052 -1.893524 -8.758801 36.480783 0.053494 1.813259 0.112823 -0.030708 792264.000000 0 0 1
-34.659299 -3.025124 -8.340601 35.776865 0.087061 1.806090 0.129132 -0.032166 -142984.000000 0 0 1
-33.369205 -3.104724 -8.920901 34.680335 0.092774 1.830953 0.178059 -0.038835 288983.000000 0 0 1
-32.479465 -4.254924 -8.380501 33.812022 0.130262 1.821263 0.184959 -0.034395 -76652.400000 0 0 1
-32.139595 -4.036024 -7.054801 33.151369 0.124924 1.785242 0.186496 -0.035907 533206.000000 0 0 1
-31.190415 -4.995124 -6.549301 32.259675 0.158801 1.775236 0.179901 -0.036539 406410.000000 0 0 1
-30.868715 -4.703524 -5.099601 31.638689 0.151209 1.732685 0.171587 -0.045567 -171328.000000 0 0 1
-30.072905 -3.576624 -4.896401 30.678113 0.118376 1.731088 0.171242 -0.045294 282238.000000 0 0 1
-30.313595 -3.092324 -3.571701 30.679530 0.101659 1.687481 0.174072 -0.047230 -46129.900000 0 0 1
-29.824145 -1.648424 -3.289701 30.050276 0.055215 1.680489 0.184690 -0.042288 1064100.000000 0 0 1
-28.399935 -1.452624 -3.095301 28.605023 0.051104 1.679217 0.182795 -0.039784 1717080.000000 0 0 1
-28.274415 -0.193124 -2.467201 28.382511 0.006830 1.657833 0.190766 -0.044869 -475464.000000 0 0 1
-26.810595 0.248376 -2.356801 26.915130 -0.009264 1.658473 0.196249 -0.028107 -177233.000000 0 0 1
-26.150155 -0.421224 -1.269401 26.184336 0.016106 1.619295 0.160607 -0.032434 1274060.000000 0 0 1
-24.733955 -0.187524 -1.208801 24.764186 0.007581 1.619628 0.126779 -0.027734 897717.000000 0 1 0
-24.059755 -0.817924 0.021499 24.073664 0.033982 1.569903 0.105439 -0.029979 -108088.000000 0 1 0
-24.286955 -2.220824 -0.029601 24.388299 0.091187 1.572010 0.117147 -0.031586 576840.000000 0 1 0
-23.376155 -2.891024 0.831599 23.568925 0.123049 1.535505 0.097358 -0.026583 -11364.400000 0 1 0
-23.587055 -4.404124 0.777899 24.007303 0.184592 1.538388 0.098949 -0.019712 402751.000000 0 1 0
-24.746355 -4.830424 1.521899 25.259281 0.192773 1.510509 0.097523 -0.030234 863127.000000 0 0 1
-24.949555 -6.235624 1.378099 25.753883 0.244912 1.517260 0.082233 -0.018193 413633.000000 0 0 1
-26.315385 -6.692424 1.993099 27.226099 0.249037 1.497525 0.095517 -0.020031 332396.000000 0 0 1
-26.263945 -6.957524 3.406899 27.382639 0.258960 1.446055 0.093668 -0.018520 919199.000000 0 0 1
-27.483375 -7.538624 3.934899 28.768910 0.267713 1.433590 0.096405 -0.010310 739106.000000 0 0 1
-27.518715 -7.617824 5.478199 29.074415 0.270061 1.381243 0.098929 -0.011095 130101.000000 0 0 1
-26.633095 -8.611024 6.007999 28.628090 0.312712 1.359361 0.089942 0.004129 269951.000000 0 0 1
-26.789145 -8.770724 7.414799 29.147267 0.316400 1.313579 0.089935 -0.011071 273745.000000 0 0 1
-26.058845 -7.633024 8.269899 28.385167 0.284944 1.275163 0.102502 -0.009725 179394.000000 0 0 1
-24.666855 -7.562824 8.046499 27.025843 0.297500 1.268479 0.109924 -0.010531 63652.200000 0 0 1
-24.159455 -6.311824 8.541999 26.390986 0.255545 1.241189 0.110692 -0.020528 -7110.030000 0 0 1
-22.791855 -5.986424 7.902199 24.854591 0.256855 1.247243 0.099850 -0.021753 -333358.000000 0 1 0
-21.714055 -6.585924 8.546099 24.246864 0.294484 1.210596 0.087218 -0.026022 278612.000000 0 1 0
-20.505255 -6.472324 7.759199 22.859607 0.305745 1.224487 0.082217 -0.024895 597854.000000 0 1 0
-19.271255 -6.768924 8.621499 22.170473 0.337783 1.171388 0.083307 -0.022620 -279784.000000 0 1 0
-18.958455 -5.669524 9.511399 21.955255 0.290585 1.122737 0.062207 -0.022690 366687.000000 0 1 0
-17.906155 -6.039524 10.401699 21.570850 0.325305 1.067620 0.049855 -0.027793 78477.300000 0 1 0
-17.611555 -4.892324 11.421299 21.553371 0.270959 1.012305 0.031319 -0.017735 -179893.000000 0 1 0
-18.446155 -4.882824 12.546499 22.836752 0.258772 0.989151 0.029560 -0.016046 -175441.000000 0 1 0
-18.864955 -3.592624 12.913399 23.141939 0.188186 0.978812 0.051103 -0.013609 -291136.000000 0 1 0
-19.999455 -3.640924 13.930299 24.643209 0.180079 0.970024 0.048735 -0.021780 -457224.000000 0 1 0
-19.755455 -4.267224 15.167799 25.269534 0.212734 0.926994 0.043737 -0.017207 449710.000000 0 0 1
-20.986555 -4.408424 15.879599 26.683916 0.207049 0.933406 0.046644 -0.006667 599358.000000 0 0 1
-20.736555 -5.028524 17.288199 27.462203 0.237903 0.889852 0.044824 -0.003426 -2621.050000 0 0 1
-21.895955 -4.986124 18.088099 28.835284 0.223901 0.892727 0.042003 -0.003586 457458.000000 0 0 1
-21.529255 -5.440124 19.389599 29.479829 0.247504 0.853003 0.047751 0.001661 -21471.800000 0 0 1
-22.633055 -5.116124 20.409899 30.902975 0.222310 0.849377 0.057776 -0.007306 -271291.000000 0 0 1
-22.621555 -3.697024 20.629299 30.837813 0.161997 0.837986 0.064571 -0.001714 130813.000000 0 0 1
-23.045455 -3.460724 21.958499 32.019452 0.149056 0.815113 0.073087 -0.006328 -73912.900000 0 0 1
-23.301455 -1.977024 22.364799 32.358162 0.084643 0.807698 0.061963 0.003278 -132905.000000 0 0 1
-24.285255 -1.329024 21.601599 32.529510 0.054671 0.844558 0.083410 -0.014268 -225096.000000 0 0 1
-24.451655 0.059976 21.925099 32.842001 -0.002453 0.839825 0.068387 -0.014667 621352.000000 0 0 1
-25.828535 0.609676 21.405199 33.550968 -0.023600 0.878910 0.089860 -0.021644 1545790.000000 0 0 1
-26.983985 0.226976 22.171199 34.924906 -0.008411 0.883014 0.103125 -0.016570 290593.000000 0 0 1
-28.174505 0.912276 21.890299 35.690618 -0.032368 0.910520 0.097095 -0.021681 -35284.600000 0 0 1
-29.011255 0.946676 23.200199 37.159095 -0.032620 0.896500 0.081678 -0.013739 -210084.000000 0 0 1
-28.538975 1.833976 24.176999 37.448149 -0.064174 0.868971 0.072415 -0.010366 -27241.300000 0 0 1
-29.369225 1.699276 25.291399 38.795538 -0.057795 0.860689 0.070419 -0.006896 -352066.000000 0 0 1
-29.072075 2.691476 26.422599 39.377447 -0.092316 0.835228 0.097701 -0.015385 -389338.000000 0 0 1
-27.911635 2.274676 27.080999 38.956566 -0.081316 0.802156 0.073856 -0.024640 -57001.900000 0 0 1
-27.494645 3.323176 27.983899 39.371279 -0.120283 0.780205 0.066855 -0.026523 105070.000000 0 0 1
-26.279175 2.991776 28.886499 39.166001 -0.113358 0.741376 0.080309 -0.026168 106155.000000 0 0 1
-26.633775 2.046176 29.848399 40.055858 -0.076676 0.730008 0.075676 -0.023827 304570.000000 0 0 1
-25.510425 1.857376 30.666099 39.932960 -0.072680 0.695178 0.071885 -0.018298 -174728.000000 0 0 1
-25.664855 0.633576 31.574799 40.694645 -0.024682 0.682663 0.043658 -0.016451 -18508.600000 0 0 1
-25.856545 -0.518424 30.741599 40.173071 0.020047 0.699399 0.037604 -0.025519 -37821.200000 0 0 1
-25.937505 -1.788324 31.382499 40.753080 0.068838 0.691854 0.053931 -0.019644 -367158.000000 0 0 1
-26.755915 -2.810024 30.514999 40.680959 0.104641 0.722575 0.047801 -0.010532 1607540.000000 0 0 1
-28.183245 -2.530424 30.447499 41.566195 0.089545 0.748800 0.060961 -0.012765 1319420.000000 0 0 1
-28.457685 -1.555624 29.431799 40.969386 0.054610 0.769318 0.064160 -0.008317 -582338.000000 0 0 1
-29.962725 -1.377424 29.179499 41.846211 0.045939 0.799168 0.071159 -0.019983 233109.000000 0 0 1
-30.769385 -1.090224 30.302499 43.199365 0.035417 0.793357 0.082397 -0.012564 616077.000000 0 0 1
-32.168815 -1.108424 29.953999 43.969345 0.034443 0.821331 0.070087 -0.017010 1232170.000000 0 0 1
-33.091255 -0.723524 31.165399 45.462476 0.021861 0.815480 0.077926 -0.021278 -101478.000000 0 0 1
-33.113965 -1.696724 32.198599 46.218647 0.051194 0.800068 0.096711 -0.021299 41194.000000 0 0 1
-33.709295 -1.287424 33.443999 47.502370 0.038173 0.789713 0.125978 -0.026670 116459.000000 0 0 1
-34.035905 -2.567824 -33.978994 48.162315 0.075302 2.353939 0.124051 -0.029565 -149193.000000 0 0 1
-35.029417 -3.284124 33.564299 48.625175 0.093480 0.808940 0.102418 -0.033786 -370598.000000 0 0 1
-35.083050 -4.688324 33.784899 48.930769 0.132848 0.808667 0.085792 -0.032257 -87378.400000 0 0 1
-36.316535 -5.411924 33.200999 49.502384 0.147932 0.835651 0.086879 -0.030055 398304.000000 0 0 1
35.777835 -5.114224 33.932999 49.574763 -0.141982 0.816904 0.093665 -0.034841 -165520.000000 0 0 1
34.611725 -5.568324 33.297399 48.349711 -0.159513 0.811132 0.088163 -0.038209 167811.000000 0 0 1
33.290085 -4.962724 33.904299 47.774050 -0.147985 0.781752 0.100416 -0.045006 180336.000000 0 0 1
32.898385 -5.379924 -33.038794 46.934095 -0.162097 2.351726 0.082880 -0.041279 -74669.900000 0 0 1
32.510685 -6.701824 -32.890994 46.729825 -0.203294 2.351605 0.074111 -0.032962 -447618.000000 0 0 1
31.045075 -7.035924 -33.267194 46.043535 -0.222871 2.378231 0.051738 -0.028253 -379624.000000 0 0 1
30.109645 -6.745824 -32.276694 44.652904 -0.220402 2.378693 0.054337 -0.024856 77267.400000 0 0 1
28.862595 -7.284024 -32.721594 44.235835 -0.247207 2.403432 0.064704 -0.027912 133066.000000 0 0 1
27.585715 -6.917824 -31.953194 42.776566 -0.245708 2.414303 0.073312 -0.035387 -356117.000000 0 0 1
26.438015 -7.549824 -32.430794 42.517348 -0.278163 2.438376 0.072814 -0.036942 323765.000000 0 0 1
25.255115 -6.936324 -31.878094 41.257076 -0.268041 2.453832 0.075546 -0.036719 1295900.000000 0 0 1
23.898615 -7.463824 -32.488594 41.016597 -0.302714 2.485012 0.073058 -0.040713 682938.000000 0 0 1
23.644415 -8.830324 -32.302994 40.994102 -0.357423 2.478336 0.090216 -0.047015 182049.000000 0 0 1
23.301015 -9.364424 -31.035794 39.923054 -0.382134 2.461303 0.094698 -0.047034 -249373.000000 0 0 1
23.229815 -10.887124 -31.101794 40.317184 -0.438271 2.451878 0.084256 -0.041602 182899.000000 0 0 1
21.993615 -11.415924 -31.554094 40.121108 -0.478776 2.475871 0.086074 -0.041185 -9043.480000 0 0 1
22.033615 -12.847924 -31.566494 40.583160 -0.527904 2.461990 0.077157 -0.029617 -441311.000000 0 0 1
20.875415 -13.513824 -32.355394 40.807817 -0.574514 2.486305 0.066367 -0.020666 873178.000000 0 0 1
19.535115 -13.173124 -31.995394 39.734835 -0.593290 2.506847 0.052510 -0.021038 615459.000000 0 0 1
19.079015 -11.820724 -32.220094 39.266688 -0.554683 2.533161 0.050573 -0.028675 -1204790.000000 0 0 1
17.656715 -11.535324 -31.768394 38.132062 -0.578699 2.555512 0.047379 -0.028161 162111.000000 0 0 1
16.590015 -12.095024 -32.579994 38.509404 -0.629961 2.579285 0.038508 -0.015387 1114070.000000 0 0 1
15.353215 -11.747724 -31.932194 37.328210 -0.653135 2.597204 0.061193 -0.020851 898004.000000 0 0 1
14.078715 -12.128524 -32.746494 37.651616 -0.711121 2.625438 0.057691 -0.017499 -154161.000000 0 0 1
13.872415 -13.544424 -32.626294 37.952212 -0.773436 2.605415 0.070811 -0.014602 -846752.000000 0 0 1
12.700515 -13.968224 -33.201494 38.193633 -0.832898 2.624568 0.067817 -0.016426 -511351.000000 0 0 1
11.484715 -13.930924 -32.224494 36.937614 -0.881351 2.630894 0.066632 -0.014914 -19412.500000 0 0 1
10.902115 -12.625224 -32.196994 36.261534 -0.858506 2.663579 0.099802 -0.012840 -241056.000000 0 0 1
9.943615 -12.413424 -31.186494 35.008085 -0.895423 2.669980 0.105230 -0.023367 110795.000000 0 0 1
8.740315 -11.594224 -31.708694 34.874925 -0.924835 2.712183 0.100421 -0.016089 -213971.000000 0 0 1
9.114715 -10.261024 -32.079894 34.892496 -0.844491 2.737329 0.094981 -0.013646 264449.000000 0 0 1
7.978315 -9.470424 -32.321494 34.612446 -0.870704 2.775718 0.101217 -0.010795 -132596.000000 0 0 1
8.304115 -7.989124 -32.384394 34.373440 -0.766068 2.799737 0.112540 -0.011677 38117.000000 0 0 1
8.909815 -7.447524 -31.209894 33.300269 -0.696239 2.785386 0.101838 -0.014666 495316.000000 0 0 1
9.187015 -6.094324 -31.491994 33.365966 -0.585712 2.804850 0.103185 -0.005080 -59286.800000 0 0 1
9.405315 -5.139624 -30.315794 32.154674 -0.500121 2.801763 0.104316 -0.006704 59845.900000 0 0 1
8.165415 -4.871924 -29.687594 31.173112 -0.537955 2.831634 0.121663 -0.017626 324297.000000 0 0 1
8.379315 -3.854024 -28.699694 30.145296 -0.431093 2.830650 0.117921 -0.011889 985207.000000 0 0 1
7.006315 -3.270124 -28.188694 29.229859 -0.436687 2.873886 0.109625 -0.020207 -391283.000000 0 0 1
6.517515 -2.233824 -29.045194 29.851152 -0.330194 2.908691 0.088463 -0.005325 -94682.500000 0 0 1
5.229115 -1.794724 -28.699994 29.227630 -0.330620 2.951292 0.095667 -0.014631 170572.000000 0 0 1
4.043015 -2.778524 -28.885294 29.298914 -0.602111 2.973363 0.076684 -0.019746 -851833.000000 0 0 1
3.997215 -3.821924 -27.995694 28.536708 -0.762984 2.946561 0.083090 -0.025553 -525503.000000 0 0 1
2.809215 -4.534924 -28.163294 28.664060 -1.016189 2.954396 0.078001 -0.026014 -140962.000000 0 0 1
2.855115 -5.680524 -27.076794 27.813177 -1.105059 2.910969 0.061959 -0.029231 -81773.200000 0 0 1
2.729815 -5.163524 -25.752594 26.406627 -1.084474 2.918565 0.060434 -0.029153 87581.400000 0 0 1
2.977715 -6.131324 -24.756694 25.677886 -1.118690 2.872924 0.057488 -0.033014 -157462.000000 0 0 1
2.936215 -5.611024 -23.316794 24.161495 -1.088688 2.876390 0.065236 -0.030556 18905.100000 0 1 0
4.027015 -4.797624 -22.929794 23.769929 -0.872502 2.874930 0.055196 -0.031618 170056.000000 0 1 0
3.802215 -4.302424 -21.633494 22.382488 -0.847039 2.882164 0.047086 -0.025671 -50593.300000 0 1 0
4.677515 -3.063424 -21.371294 22.090630 -0.579830 2.885697 0.049405 -0.025207 579263.000000 0 1 0
6.055015 -3.274824 -21.053994 22.150809 -0.495787 2.825587 0.044654 -0.026030 421468.000000 0 1 0
6.654715 -1.983324 -21.018994 22.136326 -0.289651 2.822514 0.045241 -0.005588 -408485.000000 0 1 0
8.078115 -2.032524 -20.443794 22.075684 -0.246492 2.754678 0.060607 -0.020947 -757096.000000 0 1 0
8.970715 -2.393824 -21.524894 23.441954 -0.260772 2.734362 0.076362 -0.034130 656290.000000 0 1 0
10.149715 -3.084224 -21.118994 23.633473 -0.295006 2.676110 0.066812 -0.035889 235754.000000 0 1 0
11.254415 -2.292724 -20.430394 23.437565 -0.200968 2.629446 0.063629 -0.034437 -1158320.000000 0 1 0
10.909215 -1.764324 -19.180894 22.136633 -0.160340 2.618899 0.047184 -0.032084 730088.000000 0 1 0
12.056115 -1.474324 -18.351994 22.007254 -0.121684 2.556945 0.053005 -0.035647 130208.000000 0 1 0
12.637315 -0.058324 -18.449494 22.362669 -0.004615 2.541022 0.055211 -0.033003 -415727.000000 0 1 0
13.290215 0.323276 -19.615994 23.696446 0.024320 2.545977 0.070628 -0.035835 243117.000000 0 1 0
13.431715 1.755376 -19.571994 23.802421 0.129952 2.536183 0.083963 -0.039944 -107349.000000 0 1 0
13.834915 2.529976 -20.853394 25.152926 0.180870 2.548229 0.065948 -0.034678 -52182.800000 0 0 1
15.201415 2.634676 -21.190994 26.212264 0.171613 2.512290 0.061489 -0.030212 -8721.460000 0 0 1
15.391715 3.658376 -22.159494 27.227409 0.233355 2.521573 0.055771 -0.027202 813061.000000 0 0 1
16.855615 3.795276 -22.765694 28.579586 0.221470 2.492400 0.035633 -0.011864 1224720.000000 0 0 1
17.307015 2.681676 -23.541394 29.341462 0.153725 2.501977 0.026265 -0.008953 180068.000000 0 0 1
17.534915 1.401476 -22.912294 28.886166 0.079755 2.486830 0.028902 -0.009490 -776773.000000 0 0 1
9.392645 26.926176 3.434399 28.723437 1.235165 1.450942 0.023033 -0.004551 32150.800000 0 0 1
9.476445 27.332476 4.779099 29.320761 1.237055 1.407072 0.018715 -0.000823 697402.000000 0 0 1
10.811545 27.514676 5.281599 30.030688 1.196393 1.394003 0.042050 0.001536 631249.000000 0 0 1
10.829245 28.068676 6.765199 30.836521 1.202580 1.349608 0.020412 -0.009369 74788.000000 0 0 1
10.617245 27.102576 7.804299 30.136068 1.197428 1.308842 0.010060 -0.008470 -50386.700000 0 0 1
10.356045 27.734876 9.036199 30.953577 1.213434 1.274555 0.013083 -0.009011 -609397.000000 0 0 1
10.289545 26.726876 10.223799 30.409319 1.203297 1.227911 0.021121 -0.006392 393305.000000 0 0 1
11.541545 26.141276 10.587499 30.474066 1.155028 1.215971 0.045923 -0.006808 514471.000000 0 0 1
12.191445 25.328276 9.617899 29.709542 1.122190 1.241126 0.046539 -0.009844 -653539.000000 0 0 1
13.521045 24.786676 10.138099 29.999650 1.071417 1.226068 0.061024 -0.011989 280086.000000 0 0 1
14.554145 25.751476 10.392799 31.352383 1.056376 1.232921 0.072559 -0.015057 18233.600000 0 0 1
15.681745 25.225176 11.007199 31.676254 1.014595 1.215903 0.079264 -0.013525 -253695.000000 0 0 1
16.811245 26.255176 11.257699 33.146463 1.001269 1.224268 0.064450 -0.013272 -375431.000000 0 0 1
17.497645 26.689976 10.061099 33.462638 0.990502 1.265405 0.065616 -0.021696 745533.000000 0 0 1
18.910445 26.512476 10.103699 34.096936 0.951222 1.269956 0.066079 -0.030215 834990.000000 0 0 1
19.735645 27.423476 11.088699 35.559836 0.946996 1.253676 0.061333 -0.025189 -671730.000000 0 0 1
19.860045 28.803976 10.796299 36.614894 0.967159 1.271486 0.069586 -0.038661 -786517.000000 0 0 1
18.774745 29.560676 11.190099 36.763337 1.004949 1.261507 0.065146 -0.024006 -751748.000000 0 0 1
19.012145 31.024876 11.345799 38.114718 1.021016 1.268540 0.072067 -0.027344 -1130600.000000 0 0 1
19.160045 31.872776 10.211799 38.565036 1.029538 1.302806 0.089914 -0.049068 159936.000000 0 0 1
18.184145 32.005176 9.169999 37.935251 1.054116 1.326650 0.095034 -0.048939 -54156.600000 0 0 1
16.771445 32.418576 9.596999 37.740533 1.093373 1.313684 0.082120 -0.040145 -575511.000000 0 0 1
16.675745 33.747076 10.070099 38.966043 1.111849 1.309397 0.085030 -0.041185 723416.000000 0 0 1
15.316245 -34.034568 10.035199 38.647696 -1.147926 1.308128 0.077838 -0.028386 965396.000000 0 0 1
15.255745 -32.553468 10.375299 37.418082 -1.132553 1.289834 0.059127 -0.023571 -86777.700000 0 0 1
15.813645 -31.866368 9.270199 36.762390 -1.110154 1.315879 0.081829 -0.026497 49768.800000 0 0 1
15.761445 -30.513468 9.432299 35.615490 -1.094004 1.302761 0.103380 -0.022755 237098.000000 0 0 1
16.634445 -29.706168 8.398199 35.066949 -1.060334 1.328955 0.082279 -0.015410 238395.000000 0 0 1
16.089345 -29.734668 7.091399 34.544253 -1.074814 1.364042 0.071003 -0.017545 232034.000000 0 0 1
17.032845 -29.368868 6.091199 34.492766 -1.045241 1.393272 0.065750 -0.003534 211360.000000 0 0 1
16.479745 -29.596868 4.671899 34.196246 -1.062742 1.433747 0.057215 -0.010644 63184.700000 0 0 1
16.641445 -30.937668 4.153799 35.374157 -1.077289 1.453100 0.053291 -0.012622 -7083.320000 0 0 1
16.567845 -30.899768 2.725999 35.167033 -1.078625 1.493203 0.040583 -0.002630 -90209.900000 0 0 1
16.884645 -32.284568 2.151199 36.496742 -1.088923 1.511820 0.033006 -0.008509 -329259.000000 0 0 1
18.193045 -32.736868 2.376999 37.527850 -1.063560 1.507414 0.035350 -0.004634 -111161.000000 0 0 1
18.348945 -33.973968 1.696799 38.649623 -1.075595 1.526880 0.045418 -0.014675 -721171.000000 0 0 1
19.796645 33.817376 1.799899 39.227053 1.041182 1.524896 0.047551 -0.017997 -548437.000000 0 0 1
20.122145 33.470876 3.107599 39.177257 1.029507 1.491391 0.057547 -0.038850 268690.000000 0 0 1
21.460245 32.983376 3.212899 39.481235 0.993973 1.489328 0.049304 -0.030030 257157.000000 0 0 1
21.959745 32.890276 4.622599 39.816693 0.982102 1.454437 0.051859 -0.029683 -550801.000000 0 0 1
21.444745 31.810176 5.305799 38.728748 0.977633 1.433365 0.058305 -0.040212 822573.000000 0 0 1
22.439145 30.745876 5.548099 38.465641 0.940332 1.426056 0.043589 -0.045622 833358.000000 0 0 1
21.826945 29.731076 6.516699 37.454236 0.937519 1.395915 0.065138 -0.047734 265941.000000 0 0 1
20.595845 29.298176 5.948299 36.303639 0.958077 1.406206 0.067243 -0.035795 -435392.000000 0 0 1
19.715145 28.976076 6.983399 35.736085 0.973350 1.374115 0.071055 -0.047540 -672574.000000 0 0 1
18.241145 29.046076 6.550199 34.918749 1.010037 1.382094 0.092164 -0.040825 -390646.000000 0 0 1
17.732745 30.330476 6.397799 35.711621 1.041739 1.390672 0.081176 -0.045102 14110.100000 0 0 1
18.131845 31.007876 5.177999 36.291374 1.041666 1.427629 0.084275 -0.042359 -342908.000000 0 0 1
18.028145 32.525276 5.430899 37.581941 1.064672 1.425780 0.083216 -0.039308 803451.000000 0 0 1
16.656445 32.935176 5.543299 37.321457 1.102572 1.421716 0.087580 -0.037177 577908.000000 0 0 1
16.561045 -33.948768 5.791699 38.214275 -1.116936 1.418652 0.081370 -0.035352 -815763.000000 0 0 1
15.174045 -33.330268 5.934499 37.099551 -1.143574 1.410145 0.068110 -0.033279 -378421.000000 0 0 1
14.422845 -33.498868 4.741399 36.778709 -1.164237 1.441520 0.057772 -0.018464 23524.400000 0 0 1
13.271845 -32.655968 4.741899 35.567397 -1.184773 1.437077 0.046797 -0.018762 42017.800000 0 0 1
12.418945 -32.875668 3.484399 35.315446 -1.209613 1.471971 0.046688 -0.016604 65147.900000 0 0 1
11.354045 -31.916768 3.541799 34.060809 -1.229018 1.466623 0.047315 -0.025790 168243.000000 0 0 1
10.828345 -31.739468 2.239199 33.610428 -1.242015 1.504125 0.053325 -0.016778 -378178.000000 0 0 1
9.904445 -30.491468 2.184399 32.134082 -1.256721 1.502766 0.065711 -0.021398 67668.900000 0 0 1
9.399245 -30.051568 0.895499 31.499912 -1.267665 1.542364 0.075715 -0.012975 490021.000000 0 0 1
8.464445 -30.924968 0.241299 32.063354 -1.303631 1.563271 0.072129 -0.017774 -213507.000000 0 0 1
8.902345 -31.409168 -1.130001 32.665953 -1.294609 1.605396 0.083874 -0.023686 -430125.000000 0 0 1
10.097945 -32.124268 -0.986501 33.688429 -1.266236 1.600084 0.081351 -0.023287 -472305.000000 0 0 1
10.216645 -33.187368 -1.936201 34.778299 -1.272156 1.626498 0.086721 -0.017247 -1009700.000000 0 0 1
11.481745 -33.994868 -1.990901 35.936683 -1.245077 1.626225 0.066057 -0.016248 -946200.000000 0 0 1
11.594945 33.468876 -0.814101 35.429806 1.237297 1.593776 0.063126 -0.013998 325545.000000 0 0 1
12.745745 32.632376 -0.799101 35.042325 1.198432 1.593602 0.066227 -0.017240 -112790.000000 0 0 1
12.912645 31.612176 0.351199 34.149516 1.183009 1.560512 0.064015 -0.017878 -392473.000000 0 0 1
13.200745 32.154976 1.669099 34.799254 1.181241 1.522814 0.059375 -0.016202 -155372.000000 0 0 1
14.435245 32.751476 1.953699 35.844838 1.155660 1.516265 0.066192 -0.018283 -518948.000000 0 0 1
15.699245 31.888776 2.012399 35.600703 1.113318 1.514239 0.063636 -0.024364 -678960.000000 0 0 1
16.115845 31.334676 0.782299 35.244778 1.095764 1.548598 0.059915 -0.025675 153441.000000 0 0 1
17.030845 30.245276 0.904599 34.722395 1.057958 1.544741 0.065245 -0.025374 98621.500000 0 0 1
17.509045 29.647476 -0.396701 34.433949 1.037336 1.582317 0.057210 -0.017353 238479.000000 0 0 1
18.452445 30.303676 -1.240001 35.501311 1.023845 1.605732 0.034073 -0.010580 688566.000000 0 0 1
17.873245 31.447976 -1.932801 36.223802 1.053979 1.624179 0.030436 -0.014749 -126583.000000 0 0 1
18.940445 32.353476 -2.544301 37.576074 1.041165 1.638559 0.018011 -0.009390 -769238.000000 0 0 1
19.793945 32.787676 -1.567401 38.331302 1.027660 1.611699 0.025288 -0.010719 -154869.000000 0 0 1
20.814845 33.596776 -2.167201 39.581535 1.016127 1.625577 0.037978 -0.010055 -382797.000000 0 0 1
21.801545 -33.901268 -1.222101 40.324891 -0.999295 1.601107 0.041696 -0.012503 68376.100000 0 0 1
22.848245 33.569876 -0.582201 40.611794 0.973198 1.585133 0.032118 -0.013905 1487930.000000 0 0 1
23.841245 32.964276 -1.439201 40.707736 0.944640 1.606158 0.047478 -0.017508 211923.000000 0 0 1
24.551445 33.847476 -2.520401 41.890065 0.943255 1.631000 0.050708 -0.026442 -1010020.000000 0 0 1
23.714445 -33.979268 -3.593201 41.591785 -0.961475 1.657296 0.040643 -0.025673 -252897.000000 0 0 1
24.426945 -33.389968 -4.648301 41.631386 -0.939198 1.682683 0.045784 -0.021181 -477137.000000 0 0 1
23.643845 -33.043768 -5.925201 41.061296 -0.949723 1.715603 0.044447 -0.026501 -413054.000000 0 0 1
22.665745 -32.065268 -5.683001 39.676364 -0.955479 1.714525 0.050508 -0.019945 -182048.000000 0 0 1
22.187145 -31.533368 -6.897301 39.168807 -0.957653 1.747811 0.053418 -0.022457 -610314.000000 0 0 1
21.278345 -30.376068 -6.661701 37.680920 -0.959737 1.748523 0.069415 -0.022806 656156.000000 0 0 1
20.062745 -30.665768 -5.916101 37.120120 -0.991447 1.730856 0.058986 -0.015204 235986.000000 0 0 1
19.233545 -29.572768 -5.953001 35.775914 -0.994154 1.737971 0.061880 -0.021620 165828.000000 0 0 1
18.003545 -29.686868 -4.980001 35.074751 -1.025649 1.713260 0.044733 -0.011099 238113.000000 0 0 1
17.011145 -30.548468 -5.463501 35.389798 -1.062703 1.725797 0.043365 -0.014721 -534027.000000 0 0 1
15.979445 -30.511668 -4.481201 34.733063 -1.088357 1.700175 0.024283 -0.010023 -7343.080000 0 0 1
14.694545 -31.229068 -4.926601 34.863386 -1.130993 1.712583 0.026674 -0.007595 -214835.000000 0 0 1
14.910845 -32.600868 -5.029001 36.200010 -1.141826 1.710170 0.021954 0.000496 -522713.000000 0 0 1
13.727645 -33.308768 -5.260101 36.408665 -1.179874 1.715778 0.044741 -0.004398 -345562.000000 0 0 1
14.008945 33.425976 -5.170001 36.609771 1.173931 1.712489 0.043201 -0.009863 -87722.200000 0 0 1
14.176045 32.915476 -3.847201 36.044275 1.164124 1.677735 0.045601 -0.017212 -109505.000000 0 0 1
14.448845 31.468476 -3.853201 34.840799 1.140357 1.681618 0.052107 -0.019285 334659.000000 0 0 1
13.346545 30.441976 -4.369801 33.525205 1.157609 1.701512 0.066628 -0.017712 567306.000000 0 0 1
12.400845 29.997376 -3.410301 32.638224 1.178794 1.675475 0.077816 -0.023283 70160.200000 0 0 1
12.929145 29.132376 -2.437901 31.965630 1.153105 1.647137 0.079536 -0.025965 73335.900000 0 0 1
11.811545 28.369076 -1.654701 30.774261 1.176273 1.624591 0.087007 -0.020961 519827.000000 0 0 1
10.953045 29.189876 -0.876401 31.189520 1.211820 1.598899 0.074611 -0.022567 28950.500000 0 0 1
9.983745 28.362276 -0.241201 30.069121 1.232334 1.578818 0.064117 -0.010033 -485963.000000 0 0 1
8.712745 29.105776 0.070899 30.381955 1.279938 1.568463 0.041883 -0.000852 -489533.000000 0 0 1
7.680145 28.355876 0.682899 29.385484 1.306294 1.547555 0.023587 -0.002371 215401.000000 0 0 1
6.461145 29.098476 0.669599 29.814696 1.352297 1.548336 0.035097 -0.001165 273516.000000 0 0 1
5.379745 28.441776 1.551799 28.987659 1.383855 1.517238 0.025195 -0.008771 -77487.200000 0 0 1
4.841145 27.341076 0.867599 27.779918 1.395548 1.539560 0.021091 -0.014307 438778.000000 0 0 1
3.597845 26.924176 1.459899 27.202703 1.437955 1.517103 0.028834 -0.017116 703771.000000 0 0 1
3.061445 25.678376 0.718399 25.870206 1.452134 1.543023 0.032793 -0.023607 236917.000000 0 0 1
1.706745 25.397376 1.029299 25.475462 1.503696 1.530382 0.035473 -0.026844 92897.800000 0 0 1
1.101845 24.584776 0.081699 24.609591 1.526008 1.567477 0.024166 -0.022505 -423006.000000 0 1 0
-0.284655 24.057376 0.426099 24.062833 -1.558965 1.553088 0.028641 -0.017982 -513037.000000 0 1 0
-1.300355 24.997176 0.567099 25.037399 -1.518823 1.548144 0.044447 -0.029598 226279.000000 0 0 1
-2.467755 24.317976 1.079899 24.466711 -1.469664 1.526645 0.039335 -0.020869 591330.000000 0 1 0
-3.774055 25.105576 1.279799 25.419901 -1.421586 1.520429 0.068313 -0.038186 -344377.000000 0 0 1
-4.825855 24.231176 1.660099 24.762769 -1.374210 1.503706 0.066826 -0.031402 18789.400000 0 1 0
-5.976455 24.820176 2.224699 25.626324 -1.334504 1.483874 0.075294 -0.033313 108543.000000 0 0 1
-6.963855 25.359276 1.143999 26.322935 -1.302795 1.527322 0.084079 -0.030236 -651991.000000 0 0 1
-6.692155 26.579476 0.542399 27.414370 -1.324144 1.551010 0.077316 -0.032023 -388144.000000 0 0 1
-7.688955 26.799376 -0.404901 27.883518 -1.291393 1.585318 0.073898 -0.024533 -520618.000000 0 0 1
-7.426555 28.038076 -1.325201 29.035213 -1.311868 1.616453 0.064661 -0.020341 -133218.000000 0 0 1
-7.591655 29.374976 -0.782701 30.350207 -1.317890 1.596588 0.075885 -0.038133 -212188.000000 0 0 1
-7.636555 30.316576 -1.820601 31.316551 -1.324036 1.628965 0.073581 -0.031742 -453667.000000 0 0 1
-7.611555 31.758376 -1.318901 32.684396 -1.335563 1.611160 0.057945 -0.030576 -591167.000000 0 0 1
-7.601055 32.768076 -2.349001 33.720034 -1.342862 1.640515 0.053185 -0.020859 -220154.000000 0 0 1
-6.478455 32.855576 -3.220701 33.642714 -1.376114 1.666676 0.054448 -0.016350 799776.000000 0 0 1
-5.167655 33.381776 -2.533201 33.874249 -1.417211 1.645649 0.066885 -0.024353 101978.000000 0 0 1
-5.366455 -33.537268 -2.274801 34.040004 1.412127 1.637673 0.062760 -0.020175 180504.000000 0 0 1
-4.456755 -33.125768 -1.267601 33.448258 1.437059 1.608703 0.089475 -0.016740 192548.000000 0 0 1
-4.189655 -31.630868 -1.291301 31.933250 1.439108 1.611245 0.095154 -0.021873 -10321.700000 0 0 1
-5.411455 -30.986268 -1.046801 31.472662 1.397900 1.604063 0.082950 -0.019188 -137666.000000 0 0 1
-5.686055 -29.851368 -1.833701 30.443355 1.382572 1.631066 0.093413 -0.012990 -43515.800000 0 0 1
-7.144955 -29.352668 -1.734701 30.259522 1.332022 1.628155 0.119600 -0.009260 75664.600000 0 0 1
-7.405655 -28.871768 -0.402401 29.809137 1.319708 1.584296 0.096566 -0.009228 -371869.000000 0 0 1
-8.413755 -27.908368 -0.297301 29.150586 1.277984 1.580995 0.066213 -0.016819 -431867.000000 0 0 1
-8.678955 -27.464068 1.144699 28.825503 1.264716 1.531075 0.072186 -0.005529 785857.000000 0 0 1
-7.573455 -26.588768 1.461099 27.684917 1.293308 1.517996 0.079033 -0.014167 466895.000000 0 0 1
-7.336055 -26.318968 2.850199 27.470519 1.298960 1.466854 0.083922 -0.007001 -30235.100000 0 0 1
-8.338855 -25.425368 3.578899 26.996191 1.253877 1.437834 0.076595 -0.004558 -131409.000000 0 0 1
-8.066055 -24.085368 3.257399 25.608140 1.247641 1.443249 0.074669 -0.011407 -469521.000000 0 0 1
-8.943955 -23.164568 3.846599 25.127432 1.202325 1.417108 0.078379 -0.010361 -155107.000000 0 0 1
-8.419155 -21.704468 3.907099 23.605752 1.200765 1.404516 0.041058 0.002183 560340.000000 0 1 0
-7.327755 -21.675068 4.841999 23.386952 1.244786 1.362249 0.035914 0.003157 325595.000000 0 1 0
-6.745455 -20.357768 5.089999 22.041959 1.250836 1.337770 0.017260 -0.000609 305391.000000 0 1 0
-7.687255 -19.348168 5.762099 21.602020 1.192610 1.300789 0.023788 -0.001770 122831.000000 0 1 0
-8.240755 -19.721868 7.026899 22.499765 1.174999 1.253173 0.043975 -0.006101 262838.000000 0 1 0
-9.071755 -18.711868 7.581499 22.133908 1.119372 1.221189 0.038621 -0.014334 -186930.000000 0 1 0
-27.247225 29.200476 -5.725601 40.346767 -0.819987 1.713187 0.079196 0.002648 -117626.000000 0 0 1
-26.260385 29.925876 -5.040201 40.131902 -0.850544 1.696720 0.068570 -0.017857 -230588.000000 0 0 1
-25.539345 29.046076 -4.172201 38.901671 -0.849553 1.678253 0.053254 -0.018366 81096.700000 0 0 1
-24.551655 29.897776 -3.351401 38.831594 -0.883270 1.657210 0.039813 -0.027506 -463228.000000 0 0 1
-25.155355 30.788576 -2.438901 39.833109 -0.885754 1.632063 0.025598 -0.029700 645845.000000 0 0 1
-24.210055 31.726576 -1.892501 39.953523 -0.918974 1.618182 0.017288 -0.029719 1096250.000000 0 0 1
-23.002355 31.286776 -0.979401 38.844948 -0.936828 1.596012 0.021027 -0.025171 999777.000000 0 0 1
-21.982355 30.532376 -1.640601 37.658220 -0.946794 1.614376 0.036123 -0.034451 921350.000000 0 0 1
-20.801955 30.451976 -0.801901 36.887495 -0.971498 1.592537 0.040508 -0.031971 388841.000000 0 0 1
-19.668155 29.771876 -1.545001 35.715375 -0.986986 1.614069 0.061639 -0.031687 -585940.000000 0 0 1
-18.394855 29.903576 -0.958401 35.121405 -1.019320 1.598088 0.063819 -0.029465 198668.000000 0 0 1
-17.426555 29.088076 -1.638001 33.948256 -1.031042 1.619065 0.059299 -0.023938 256204.000000 0 0 1
-15.973755 29.424476 -1.260801 33.504482 -1.073441 1.608436 0.068484 -0.028571 -139585.000000 0 0 1
-15.657555 28.879576 -0.006901 32.851012 -1.073987 1.571006 0.058569 -0.030413 571036.000000 0 0 1
-14.596155 29.674176 0.587799 33.074915 -1.113665 1.553024 0.065608 -0.032042 782819.000000 0 0 1
-14.199955 29.088076 1.946699 32.427528 -1.116657 1.510728 0.061184 -0.030422 202089.000000 0 0 1
-15.157355 29.403576 2.973699 33.213832 -1.094831 1.481144 0.057244 -0.025069 79026.300000 0 0 1
-15.023155 28.668676 4.174599 32.634575 -1.088113 1.442525 0.061136 -0.032205 -396291.000000 0 0 1
-13.827355 29.047176 5.049499 32.564269 -1.126507 1.415106 0.084743 -0.024900 -170270.000000 0 0 1
-13.764455 30.271476 5.825599 33.760333 -1.144040 1.397371 0.078793 -0.033940 -301438.000000 0 0 1
-13.758255 31.481476 5.034299 34.723437 -1.158783 1.425301 0.080131 -0.041844 -51946.400000 0 0 1
-13.552955 32.733476 5.890299 35.914603 -1.178246 1.406044 0.079678 -0.028348 -17706.800000 0 0 1
-14.683755 32.972776 6.681599 36.707770 -1.151833 1.387755 0.075877 -0.026924 99652.100000 0 0 1
-14.430955 -34.015268 7.287899 37.661710 1.169562 1.376058 0.097525 -0.037784 400218.000000 0 0 1
-15.576155 -33.692568 8.283199 38.031791 1.137759 1.351240 0.089124 -0.035225 217848.000000 0 0 1
-15.552355 33.889776 9.570499 38.496586 -1.140558 1.319555 0.069671 -0.032112 -502000.000000 0 0 1
-16.564855 -33.896868 10.396599 39.134146 1.116242 1.301902 0.075866 -0.030705 -1149900.000000 0 0 1
-16.554255 33.668376 11.774999 39.322430 -1.113822 1.266683 0.076966 -0.024608 275656.000000 0 0 1
-15.596455 34.070576 12.751799 39.581081 -1.141500 1.242777 0.086049 -0.031673 316008.000000 0 0 1
-14.249755 33.768676 12.382999 38.687436 -1.171485 1.244984 0.093774 -0.017396 -446569.000000 0 0 1
-13.351155 33.838976 13.606299 38.838911 -1.194997 1.212877 0.114310 -0.017350 -734003.000000 0 0 1
-13.699255 32.992676 14.692999 38.627328 -1.177238 1.180591 0.095802 -0.016470 -255953.000000 0 0 1
-13.419255 31.603576 14.627799 37.320704 -1.169254 1.168048 0.063730 -0.015900 -632763.000000 0 0 1
-14.508855 30.621576 14.212699 36.744913 -1.128318 1.173644 0.070604 -0.019750 -463114.000000 0 0 1
-14.660455 30.663676 12.823599 36.326776 -1.124818 1.210013 0.073271 -0.012711 -234168.000000 0 0 1
-15.803555 29.996376 12.397599 36.100352 -1.085901 1.220240 0.063187 -0.012283 -359135.000000 0 0 1
-15.863755 29.842576 10.848099 35.495343 -1.082204 1.260206 0.053955 -0.004479 172011.000000 0 0 1
-14.965255 28.849576 10.391299 34.120903 -1.092274 1.261337 0.045366 0.003353 114414.000000 0 0 1
-15.010655 28.692576 8.963699 33.599577 -1.088797 1.300746 0.038519 -0.000444 82211.400000 0 0 1
-14.318155 27.415976 8.389699 32.047346 -1.089503 1.305919 0.042514 0.000202 254717.000000 0 0 1
-12.914855 27.371276 8.289499 31.379867 -1.129930 1.303457 0.073828 -0.001505 14839.700000 0 0 1
-12.403455 26.135776 7.949599 30.002010 -1.127693 1.302625 0.077688 -0.006644 684374.000000 0 0 1
-11.124055 25.977776 7.026299 29.119724 -1.166206 1.327101 0.093445 -0.013187 763552.000000 0 0 1
-11.338355 26.403176 5.666299 29.288103 -1.165178 1.376101 0.095532 -0.021773 528693.000000 0 0 1
-10.273655 25.991976 4.803699 28.358532 -1.194381 1.400584 0.120083 -0.017556 343764.000000 0 0 1
-10.527555 26.400076 3.334899 28.616691 -1.191351 1.453994 0.093114 -0.025659 310206.000000 0 0 1
-9.892355 27.623576 2.924199 29.486804 -1.226912 1.471463 0.093755 -0.022582 261347.000000 0 0 1
-10.465655 28.079676 1.699199 30.014754 -1.214032 1.514154 0.085119 -0.029597 383204.000000 0 0 1
-9.934355 29.524976 1.287299 31.178082 -1.246223 1.529496 0.091058 -0.029576 674035.000000 0 0 1
-10.736055 30.538576 1.940299 32.428880 -1.232735 1.510928 0.080578 -0.041085 384995.000000 0 0 1
-10.271755 31.829976 1.619499 33.485506 -1.258640 1.522413 0.077183 -0.035705 -198329.000000 0 0 1
-10.892955 32.846576 2.617699 34.704559 -1.250578 1.495297 0.073895 -0.029472 212070.000000 0 0 1
-12.220455 33.236176 2.357599 35.490016 -1.218454 1.504317 0.095133 -0.036682 -390154.000000 0 0 1
-12.348855 34.114776 1.239799 36.302194 -1.223489 1.536638 0.080125 -0.027500 -784042.000000 0 0 1
-13.792955 -33.858268 0.826299 36.569259 1.183950 1.548199 0.081389 -0.029082 -76216.400000 0 0 1
-14.537755 33.291976 0.343999 36.329332 -1.159079 1.561327 0.070469 -0.031596 -223443.000000 0 0 1
-14.801655 33.260976 -1.019401 36.420059 -1.152095 1.598790 0.064458 -0.027722 324722.000000 0 0 1
-13.580655 33.083676 -1.985901 35.817700 -1.181276 1.626269 0.073270 -0.030088 312546.000000 0 0 1
-13.118455 31.746876 -2.051901 34.411747 -1.178945 1.630460 0.065549 -0.028927 -952705.000000 0 0 1
-11.808355 31.755776 -2.489401 33.971513 -1.214791 1.644141 0.055701 -0.021740 -709101.000000 0 0 1
-11.236055 30.317276 -2.662401 32.441864 -1.215875 1.652956 0.022730 -0.028757 -133740.000000 0 0 1
-11.632355 29.818576 -3.870201 32.240311 -1.198850 1.691129 0.021140 -0.020792 267967.000000 0 0 1
-10.504655 29.740976 -4.761201 31.898942 -1.231269 1.720615 0.020441 -0.012909 566925.000000 0 0 1
-10.799355 28.975076 -6.098701 31.517857 -1.214033 1.765525 0.025596 -0.011854 -133625.000000 0 0 1
-11.196055 27.654776 -5.878701 30.408838 -1.186115 1.765343 0.023915 -0.005771 -47449.400000 0 0 1
-11.427755 26.892776 -7.092801 30.068635 -1.168978 1.808928 0.017458 -0.003642 -27276.100000 0 0 1
-11.926055 25.377176 -6.986701 28.897160 -1.131475 1.814994 0.040850 -0.010999 -3788.690000 0 0 1
-11.092955 24.562076 -6.202301 27.655339 -1.146588 1.796992 0.031490 -0.008274 -116610.000000 0 0 1
-11.283255 23.243876 -6.557701 26.656952 -1.118873 1.819351 0.068002 -0.023226 -213513.000000 0 0 1
-10.533755 22.243976 -5.685401 25.260211 -1.128527 1.797815 0.056979 -0.026883 538565.000000 0 0 1
-9.126855 22.049576 -5.930801 24.589789 -1.178344 1.814388 0.053911 -0.026817 1074260.000000 0 1 0
-8.613655 20.787276 -5.373901 23.134060 -1.177962 1.805232 0.058042 -0.022968 -136062.000000 0 1 0
-8.546255 20.557476 -3.814701 22.587613 -1.176808 1.740494 0.045588 -0.034858 71297.600000 0 1 0
-9.771555 20.599276 -3.094401 23.008451 -1.127867 1.705695 0.060769 -0.036868 163564.000000 0 1 0
-10.569055 19.427476 -3.186601 22.344713 -1.072551 1.713895 0.068746 -0.035140 -171568.000000 0 1 0
-11.866555 19.480276 -2.374501 22.933263 -1.023671 1.674522 0.070115 -0.033463 -344298.000000 0 1 0
-11.674055 19.613476 -0.951501 22.844636 -1.033909 1.612459 0.059140 -0.029671 163953.000000 0 1 0
-11.178455 18.381976 -0.406801 21.517909 -1.024427 1.589703 0.048403 -0.025144 -103478.000000 0 1 0
-10.840955 18.572776 1.060299 21.531339 -1.042447 1.521532 0.044596 -0.015179 182532.000000 0 1 0
-12.000755 18.410176 1.865699 22.055239 -0.993119 1.486103 0.052647 -0.022164 477516.000000 0 1 0
-11.711355 18.878876 3.171499 22.441618 -1.015554 1.428999 0.048583 -0.003122 590823.000000 0 1 0
-12.939255 18.749076 4.141599 23.153942 -0.966727 1.390956 0.054120 -0.011312 668568.000000 0 1 0
-13.355555 17.418676 4.476499 22.401343 -0.916669 1.369610 0.020987 -0.013847 348799.000000 0 1 0
-14.696955 17.475376 4.938999 23.361999 -0.871545 1.357777 0.036400 -0.018183 237117.000000 0 1 0
-15.266855 16.105976 5.255599 22.805716 -0.812139 1.338255 0.029302 -0.013675 -647761.000000 0 1 0
-14.724355 15.496176 6.415799 22.318167 -0.810932 1.279212 0.029861 -0.009377 -312818.000000 0 1 0
-15.187055 16.010076 7.672099 23.363011 -0.811773 1.236201 0.033671 -0.005537 -1221300.000000 0 1 0
-14.194055 15.890976 8.859899 23.075791 -0.841743 1.176728 0.018886 0.003718 291160.000000 0 1 0
-12.978955 16.582476 8.741799 22.800238 -0.906699 1.177313 0.020912 -0.010193 -11257.700000 0 1 0
-12.111655 16.159376 7.700099 21.612708 -0.927607 1.206517 0.020956 -0.011245 -1128400.000000 0 1 0
-10.814255 16.976676 7.572399 21.505741 -1.003610 1.210971 0.038161 -0.025072 -321295.000000 0 1 0
-9.851555 16.954276 8.548799 21.391180 -1.044415 1.159671 0.037047 -0.024408 -877491.000000 0 1 0
-9.150555 18.157676 8.498399 22.037619 -1.103994 1.174904 0.043261 -0.029441 -131651.000000 0 1 0
-7.871855 18.328976 9.332099 22.022842 -1.165141 1.133219 0.044921 -0.026150 -126180.000000 0 1 0
-6.773955 17.511276 8.937999 20.794689 -1.201691 1.126502 0.033925 -0.017782 484671.000000 0 1 0
-5.627455 17.788176 9.759199 21.055390 -1.264399 1.088854 0.039622 -0.019747 1063910.000000 0 1 0
-4.657255 18.904076 9.238999 21.550249 -1.329244 1.127722 0.031136 -0.016934 -679427.000000 0 1 0
-5.221455 20.219076 9.273299 22.848823 -1.318074 1.152883 0.044401 -0.024432 168796.000000 0 1 0
-4.517155 21.157276 8.464999 23.231256 -1.360451 1.197830 0.048158 -0.027186 361668.000000 0 1 0
-3.080155 21.642376 8.767199 23.552995 -1.429425 1.189383 0.043081 -0.024336 1194170.000000 0 1 0
-1.968255 20.819576 8.301599 22.499896 -1.476538 1.192905 0.028443 -0.009585 -73480.300000 0 1 0
-0.786055 21.494076 8.456599 23.111193 -1.534242 1.196187 0.020369 -0.005868 -155240.000000 0 1 0
0.559545 20.725576 8.264399 22.319563 1.543805 1.191490 0.012677 0.008235 695866.000000 0 1 0
0.875845 19.971576 9.394299 22.088092 1.526970 1.131491 0.010441 -0.003559 99884.100000 0 1 0
2.244945 19.587876 9.318299 21.807232 1.456685 1.129289 0.008272 -0.006055 260738.000000 0 1 0
2.827045 18.925976 10.556699 21.854717 1.422519 1.066673 -0.000969 -0.026506 -1264720.000000 0 1 0
4.197945 18.826576 10.589199 22.004405 1.351406 1.068738 0.020610 -0.007083 -916798.000000 0 1 0
4.693645 18.217276 11.822599 22.218760 1.318633 1.009718 0.015925 -0.017659 87729.500000 0 1 0
6.208345 18.223676 12.061299 22.718293 1.242453 1.011126 0.025504 -0.016336 -182980.000000 0 1 0
7.004045 17.397076 11.238299 21.863537 1.188051 1.030931 0.022330 -0.018337 -498334.000000 0 1 0
7.714545 16.561076 12.085999 21.905589 1.134861 0.986358 0.026687 -0.016677 -1431120.000000 0 1 0
8.924445 15.892676 11.503299 21.553393 1.059133 1.007813 0.024149 -0.019710 -690890.000000 0 1 0
9.887545 16.889976 11.172799 22.535889 1.041175 1.052066 0.039490 -0.021426 429351.000000 0 1 0
10.938145 16.352376 10.351799 22.230676 0.981247 1.086423 0.042737 -0.024915 605039.000000 0 1 0
11.950645 17.358976 9.772399 23.230406 0.967870 1.136610 0.050940 -0.023121 -199457.000000 0 1 0
12.906445 16.793176 8.934499 22.987222 0.915527 1.171606 0.055996 -0.022637 -1048210.000000 0 1 0
13.778145 17.788876 8.560299 24.074055 0.911776 1.207260 0.064538 -0.022447 -63296.300000 0 1 0
14.892045 17.353876 7.556099 24.083701 0.861596 1.251664 0.069063 -0.029296 1880290.000000 0 1 0
16.113145 16.804076 8.179399 24.676162 0.806385 1.232935 0.086600 -0.029759 1405310.000000 0 1 0
17.133745 16.636376 7.219899 24.949172 0.770671 1.277213 0.116954 -0.023258 151980.000000 0 1 0
18.555045 16.548076 7.810799 26.060259 0.728287 1.266396 0.103430 -0.023922 -124298.000000 0 0 1
18.914445 15.373476 8.501599 25.814282 0.682491 1.235195 0.106814 -0.019785 643507.000000 0 0 1
20.134045 15.528776 9.236299 27.052391 0.656975 1.222366 0.109537 -0.015809 630319.000000 0 0 1
20.538945 14.322876 10.193399 27.035133 0.608947 1.184195 0.106492 -0.008796 39051.900000 0 0 1
20.998645 13.131776 9.669799 26.587434 0.558860 1.198562 0.105463 -0.016361 96354.000000 0 0 1
21.445745 12.245876 10.658399 26.897638 0.518836 1.163359 0.122713 -0.015965 -227860.000000 0 0 1
22.313945 11.127176 10.054399 26.885258 0.462579 1.187506 0.129241 -0.014849 -1338050.000000 0 0 1
23.681645 11.363376 10.120699 28.149159 0.447389 1.203023 0.095861 -0.021742 -194033.000000 0 0 1
24.383845 10.488276 9.221499 28.100033 0.406210 1.236434 0.091869 -0.019756 -144006.000000 0 0 1
24.558545 8.959176 9.646299 27.864674 0.349806 1.217296 0.102334 -0.031083 -261094.000000 0 0 1
23.327445 8.238676 9.622699 26.545090 0.339501 1.199843 0.105018 -0.027463 485450.000000 0 0 1
23.251845 6.894276 10.130799 26.283310 0.288247 1.175105 0.092431 -0.029892 -322450.000000 0 0 1
24.124945 5.816776 9.483199 26.566500 0.236595 1.205784 0.097477 -0.032364 -231929.000000 0 0 1
23.707945 5.559376 8.167099 25.684135 0.230333 1.247196 0.089703 -0.024573 433248.000000 0 0 1
24.746645 5.493476 7.194799 26.350329 0.218446 1.294240 0.099055 -0.021632 189040.000000 0 0 1
24.161845 5.137276 5.743099 25.360787 0.209500 1.342359 0.088928 -0.028782 -183329.000000 0 0 1
23.614245 3.861976 5.531099 24.558918 0.162109 1.343630 0.109903 -0.028732 531970.000000 0 1 0
23.065845 3.725676 4.212699 23.741539 0.160140 1.392412 0.099360 -0.025014 -517540.000000 0 1 0
22.103845 2.564076 4.030199 22.614087 0.115485 1.391623 0.087515 -0.024470 -828921.000000 0 1 0
22.575145 1.353976 4.458399 23.050981 0.059905 1.376155 0.103169 -0.024585 466979.000000 0 1 0
21.742245 0.256476 4.022699 22.112736 0.011796 1.387860 0.091733 -0.019206 -357858.000000 0 1 0
22.321345 -1.128724 4.284599 22.756850 -0.050524 1.381389 0.103522 -0.019058 -570208.000000 0 1 0
22.291845 -1.475124 5.708299 23.058339 -0.066077 1.320636 0.094526 -0.016647 703075.000000 0 1 0
22.402545 -2.878224 5.765399 23.310899 -0.127778 1.320876 0.084418 -0.017409 -481110.000000 0 1 0
22.586745 -3.431524 7.194599 23.952007 -0.150773 1.265710 0.124992 -0.017376 -119372.000000 0 1 0
22.431945 -4.848824 7.238699 24.064538 -0.212882 1.265261 0.103619 -0.019141 701354.000000 0 1 0
22.929445 -5.409924 8.460099 25.031979 -0.231701 1.226035 0.150534 -0.023350 -234776.000000 0 0 1
22.437745 -6.881124 8.564599 24.983086 -0.297570 1.220884 0.141200 -0.029023 1089540.000000 0 1 0
21.012845 -6.990524 8.763199 23.815976 -0.321161 1.193988 0.122534 -0.029188 1363890.000000 0 1 0
20.689745 -8.202024 9.400299 24.159974 -0.377425 1.171158 0.113447 -0.027734 -113718.000000 0 1 0
-27.059135 -32.682468 5.257099 42.754855 0.879249 1.447525 0.049319 -0.013681 236652.000000 0 0 1
-27.775425 -33.839068 5.692999 44.147106 0.883495 1.441481 0.049081 -0.018938 174509.000000 0 0 1
-27.641745 34.123476 7.086499 44.482538 -0.889957 1.410805 0.052550 -0.005734 -115646.000000 0 0 1
-28.477015 32.894876 7.576399 44.163504 -0.857259 1.398390 0.061480 -0.016757 832238.000000 0 0 1
-29.878035 33.215176 7.674099 45.330307 -0.838241 1.400684 0.061402 -0.007005 347098.000000 0 0 1
-30.587145 32.102676 8.070199 45.069761 -0.809569 1.390765 0.065149 -0.015482 -430570.000000 0 0 1
-32.110415 32.235676 8.169099 46.227176 -0.787345 1.393147 0.065897 -0.010783 -151413.000000 0 0 1
-32.710025 32.309176 6.892999 46.490236 -0.779233 1.421980 0.060894 -0.005351 436855.000000 0 0 1
-34.135706 32.260076 6.930199 47.476169 -0.757156 1.424301 0.055358 -0.005695 538608.000000 0 0 1
-34.693850 32.188776 5.489899 47.643673 -0.747961 1.455312 0.031812 0.007497 -100002.000000 0 0 1
-34.249260 31.003776 4.807799 46.447399 -0.735702 1.467100 0.042843 -0.001857 611533.000000 0 0 1
-35.051161 30.785376 3.639299 46.792818 -0.720695 1.492943 0.051486 0.009903 258743.000000 0 0 1
-34.742413 29.429776 2.937499 45.626483 -0.702799 1.506370 0.059266 -0.002138 184195.000000 0 0 1
-35.032732 28.314176 3.792599 45.203636 -0.679733 1.486797 0.077104 -0.012531 294847.000000 0 0 1
-34.515372 27.112976 3.235799 44.010167 -0.665857 1.497206 0.078898 -0.019467 92486.700000 0 0 1
-35.119250 25.861276 3.975099 43.794620 -0.634730 1.479904 0.092272 -0.019288 -518671.000000 0 0 1
-36.444115 25.575376 3.672399 44.673929 -0.611913 1.488499 0.094400 -0.009449 -725268.000000 0 0 1
36.300835 24.608476 4.604499 44.096816 0.595742 1.466188 0.105579 -0.011795 629863.000000 0 0 1
34.833575 24.214076 4.238599 42.634084 0.607454 1.471214 0.108665 -0.009582 61269.000000 0 0 1
34.649675 23.447676 3.032299 41.947447 0.594921 1.498445 0.088659 -0.007369 125697.000000 0 0 1
35.057955 22.095076 3.243699 41.566503 0.562362 1.492681 0.081887 -0.008673 -591530.000000 0 0 1
34.415645 21.132076 2.163599 40.443571 0.550668 1.517274 0.095228 -0.009989 99881.200000 0 0 1
33.060465 20.823476 2.377199 39.144126 0.562087 1.510030 0.093220 -0.016682 29953.900000 0 0 1
32.827565 19.979276 3.547999 38.592859 0.546728 1.478732 0.077658 -0.013504 -533820.000000 0 0 1
32.960165 18.415976 3.292999 37.899400 0.509524 1.483799 0.098094 -0.014633 -312446.000000 0 0 1
32.046005 17.965876 2.321999 36.811830 0.510966 1.507677 0.094469 -0.030813 154046.000000 0 0 1
32.145595 16.537876 2.137399 36.213383 0.475155 1.511740 0.093318 -0.026527 -215903.000000 0 0 1
31.413295 15.598076 3.150499 35.213928 0.460879 1.481209 0.116659 -0.033272 584119.000000 0 0 1
29.999415 15.769976 3.173999 34.040143 0.483977 1.477418 0.101646 -0.041546 543409.000000 0 0 1
29.331845 14.931676 4.100099 33.168101 0.470870 1.446864 0.094154 -0.050011 1621500.000000 0 0 1
27.746315 15.054876 4.182599 31.843389 0.497136 1.439067 0.083573 -0.046012 1538990.000000 0 0 1
27.088115 14.609976 3.008899 30.923629 0.494630 1.473341 0.083973 -0.048118 -299664.000000 0 0 1
25.758715 15.027476 2.897099 29.962137 0.528120 1.473953 0.059091 -0.036088 -602299.000000 0 0 1
25.168515 14.566176 1.576999 29.122407 0.524645 1.516619 0.061264 -0.041629 -556815.000000 0 0 1
25.716815 15.009776 0.317099 29.778323 0.528315 1.560147 0.077989 -0.040769 254202.000000 0 0 1
26.886115 14.344576 -0.102401 30.473604 0.490111 1.574157 0.081585 -0.037232 -768285.000000 0 0 1
27.461015 15.073976 -1.340901 31.354906 0.502016 1.613575 0.096757 -0.035152 118700.000000 0 0 1
27.974215 16.440976 -1.160801 32.468598 0.531340 1.606555 0.088222 -0.037359 654292.000000 0 0 1
29.114815 16.516176 -0.328001 33.474828 0.516011 1.580595 0.105702 -0.043707 -532103.000000 0 0 1
29.659585 17.926976 -0.023301 34.656428 0.543666 1.571469 0.107474 -0.027750 -299691.000000 0 0 1
30.418125 18.332576 -1.122401 35.533160 0.542392 1.602389 0.083357 -0.024633 -60705.300000 0 0 1
31.107495 19.525276 -0.816901 36.736630 0.560518 1.593035 0.073241 -0.010192 45278.400000 0 0 1
31.194485 20.336876 -2.143501 37.299853 0.577737 1.628295 0.073368 -0.014088 76658.000000 0 0 1
32.038575 21.480876 -2.148501 38.633074 0.590630 1.626438 0.034756 -0.007193 473119.000000 0 0 1
31.685485 22.385276 -3.192801 38.926399 0.615064 1.652910 0.048601 -0.013843 228400.000000 0 0 1
32.761885 23.523876 -3.262001 40.464238 0.622722 1.651498 0.047803 -0.011324 112662.000000 0 0 1
32.752985 24.466876 -2.219501 40.942792 0.641586 1.625033 0.059970 -0.005560 269289.000000 0 0 1
33.398435 24.035076 -1.031601 41.160716 0.623790 1.595862 0.064877 0.005401 -583077.000000 0 0 1
33.073725 25.057476 0.096099 41.494068 0.648363 1.568480 0.070628 -0.014924 63575.100000 0 0 1
33.875515 26.212576 -0.037301 42.832827 0.658554 1.571667 0.085095 -0.009005 -91855.800000 0 0 1
35.171595 26.090676 0.505599 43.795207 0.638240 1.559251 0.087237 -0.011534 -359804.000000 0 0 1
36.109245 27.213676 0.089799 45.215814 0.645832 1.568810 0.079777 -0.011088 -565691.000000 0 0 1
36.569745 27.133476 -1.219201 45.552807 0.638339 1.597564 0.084947 -0.023532 -117711.000000 0 0 1
35.697645 27.668276 -2.181301 45.217402 0.659356 1.619055 0.069947 -0.019218 -227915.000000 0 0 1
36.130595 27.333576 -3.612701 45.448827 0.647662 1.650370 0.070726 -0.019178 234813.000000 0 0 1
-36.134535 28.214076 -4.106601 46.028284 -0.662927 1.660134 0.065516 -0.013197 200166.000000 0 0 1
-35.611204 27.700676 -5.310401 45.427808 -0.661097 1.687962 0.067774 -0.017174 -102309.000000 0 0 1
-36.553055 27.545876 -6.549701 46.236347 -0.645792 1.712931 0.050410 -0.004386 251990.000000 0 0 1
35.655255 26.631176 -6.336801 44.951883 0.641519 1.712236 0.050553 -0.003047 -26031.600000 0 0 1
34.729445 26.699576 -7.400501 44.427122 0.655417 1.738153 0.037137 -0.003377 1647760.000000 0 0 1
33.344295 25.939876 -7.074701 42.834222 0.661145 1.736721 0.039221 -0.005719 1254680.000000 0 0 1
33.408315 24.515276 -7.239201 42.065667 0.633057 1.743750 0.026751 -0.006092 -106572.000000 0 0 1
34.378495 23.812276 -6.476901 42.318503 0.605776 1.724452 0.038579 -0.009487 -18076.300000 0 0 1
34.403175 22.336376 -6.701001 41.561949 0.575850 1.732732 0.037937 -0.007968 -58317.300000 0 0 1
33.335555 21.624976 -6.098401 40.200613 0.575465 1.723083 0.036184 -0.007717 87591.500000 0 0 1
33.367115 20.213476 -6.276401 39.513823 0.544666 1.730313 0.041697 -0.015079 -464411.000000 0 0 1
32.227725 19.487176 -5.552601 38.068460 0.543847 1.717177 0.052756 -0.013504 -89763.500000 0 0 1
31.015415 19.553376 -6.285301 37.199402 0.562502 1.740573 0.050026 -0.020226 -328934.000000 0 0 1
30.034795 18.833476 -5.583901 35.888281 0.560076 1.727022 0.083945 -0.030021 -6035.740000 0 0 1
28.786685 18.531976 -6.465101 34.841138 0.571982 1.757437 0.069684 -0.027412 63893.600000 0 0 1
29.025335 17.634576 -7.521001 34.785253 0.545958 1.788730 0.056549 -0.026264 736142.000000 0 0 1
27.832215 17.451676 -8.314301 33.886882 0.560059 1.818682 0.077159 -0.029916 584349.000000 0 0 1
28.005515 16.275976 -9.247701 33.685846 0.526459 1.848895 0.074720 -0.031413 327101.000000 0 0 1
26.989515 16.166876 -10.258601 33.091399 0.539688 1.885998 0.080141 -0.034555 676645.000000 0 0 1
27.254115 15.030576 -11.071301 33.034508 0.503992 1.912554 0.078705 -0.022626 -158014.000000 0 0 1
26.539315 15.112376 -12.418201 32.968635 0.517641 1.956992 0.087649 -0.027395 876072.000000 0 0 1
25.100815 15.071576 -12.264401 31.743013 0.540744 1.967484 0.080571 -0.025885 1466110.000000 0 0 1
24.262815 15.126476 -13.409101 31.580033 0.557479 2.009324 0.078074 -0.028611 -90648.900000 0 0 1
24.207515 13.832776 -14.260701 31.316403 0.519143 2.043589 0.081334 -0.032194 -50641.900000 0 0 1
25.454715 13.432276 -14.848401 32.385855 0.485556 2.047085 0.091057 -0.038610 769486.000000 0 0 1
25.866215 14.205776 -15.974501 33.556666 0.502230 2.066949 0.098468 -0.044281 -1242190.000000 0 0 1
27.288415 13.961676 -16.402201 34.765187 0.472911 2.062127 0.118124 -0.043689 -993767.000000 0 0 1
27.352715 12.642376 -17.003201 34.599271 0.432952 2.084530 0.117206 -0.039351 590388.000000 0 0 1
28.702225 12.417676 -17.404001 35.789882 0.408322 2.078627 0.102259 -0.019007 589551.000000 0 0 1
28.895515 10.987276 -17.967901 35.756349 0.363358 2.097295 0.064170 -0.017244 -113138.000000 0 0 1
28.130315 10.770476 -19.139301 35.687962 0.365659 2.136838 0.080274 -0.024698 -61427.800000 0 0 1
28.073215 9.467676 -19.725601 35.592719 0.325271 2.158202 0.062522 -0.013508 -305958.000000 0 0 1
29.305095 8.907176 -20.459601 36.833703 0.295073 2.159711 0.062666 -0.014702 -915266.000000 0 0 1
29.570425 9.630176 -21.706501 37.925223 0.314837 2.180165 0.075514 -0.016234 391655.000000 0 0 1
30.379935 8.905676 -22.627301 38.913318 0.285154 2.191343 0.059987 -0.014564 939259.000000 0 0 1
31.820545 8.388976 -22.209401 39.701127 0.257769 2.164476 0.053495 -0.012599 401714.000000 0 0 1
32.763775 9.432776 -22.284601 40.731384 0.280322 2.149706 0.051962 -0.013407 468769.000000 0 0 1
34.112925 8.923976 -22.351201 41.748116 0.255867 2.135757 0.024239 -0.006569 1475010.000000 0 0 1
35.203985 10.055376 -22.407301 42.924565 0.278223 2.120009 0.041433 -0.008964 317374.000000 0 0 1
35.193345 10.809176 -21.202501 42.484772 0.297992 2.093311 0.024213 -0.002927 161178.000000 0 0 1
36.228145 11.756676 -21.041201 43.513562 0.313796 2.075508 -0.000283 0.001749 -79899.500000 0 0 1
36.164795 12.509876 -19.705001 43.042728 0.333029 2.046316 -0.007150 0.001465 -243843.000000 0 0 1
36.425195 11.599176 -18.659101 42.538192 0.308286 2.024885 -0.000824 0.000062 211939.000000 0 0 1
36.300015 12.315376 -17.417301 42.103705 0.327081 1.997285 0.004769 0.001763 -252676.000000 0 0 1
-36.468065 11.570576 -16.135801 41.523031 -0.307233 1.969907 -0.008487 0.005764 -58855.600000 0 0 1
35.997505 10.485576 -15.709001 40.651450 0.283443 1.967556 -0.014072 0.000810 -139966.000000 0 0 1
-36.588355 9.705776 -14.803701 40.645534 -0.259298 1.943586 -0.001726 -0.006772 -194996.000000 0 0 1
36.019085 8.384976 -14.293701 39.648357 0.228719 1.939613 0.041317 -0.002538 -653153.000000 0 0 1
34.769615 8.581176 -13.736101 38.356788 0.241966 1.937043 0.058483 -0.005030 -359977.000000 0 0 1
34.773725 8.149376 -12.420301 37.813862 0.230200 1.905468 0.056659 -0.003304 -195303.000000 0 0 1
33.548535 8.643076 -11.624001 36.542090 0.252146 1.894520 0.076714 -0.006297 -234651.000000 0 0 1
33.668815 10.046576 -11.507701 36.972287 0.289983 1.887307 0.078353 -0.011000 129602.000000 0 0 1
32.824905 10.786376 -10.645701 36.154547 0.317488 1.869676 0.059823 -0.001855 -392234.000000 0 0 1
32.938995 10.427476 -9.162401 35.744360 0.306588 1.830021 0.075661 -0.009844 240581.000000 0 0 1
34.028925 10.965376 -8.394801 36.724377 0.311731 1.801425 0.077891 -0.005829 498061.000000 0 0 1
33.868015 12.333276 -7.981501 36.916886 0.349231 1.788719 0.071412 -0.004292 -596079.000000 0 0 1
33.660245 12.541876 -6.464001 36.497864 0.356667 1.748842 0.067616 -0.011695 -318465.000000 0 0 1
34.759525 12.142076 -5.677701 37.254408 0.336066 1.723796 0.084553 -0.006754 231533.000000 0 0 1
34.534315 12.423176 -4.270101 36.948450 0.345320 1.686624 0.073439 -0.008891 -794502.000000 0 0 1
35.842695 12.393376 -3.542801 38.089972 0.332903 1.663942 0.094871 -0.003502 -529232.000000 0 0 1
-36.548855 13.474676 -3.828601 39.141333 -0.353215 1.668768 0.099086 0.000510 -424638.000000 0 0 1
-35.353996 13.279376 -3.154001 37.897158 -0.359307 1.654118 0.096287 -0.013236 10698.600000 0 0 1
-34.299292 14.444076 -3.218701 37.355493 -0.398579 1.657067 0.096621 -0.010564 482338.000000 0 0 1
-34.615805 15.491576 -2.317701 37.994929 -0.420797 1.631834 0.113136 -0.011941 705237.000000 0 0 1
-33.584355 16.489376 -2.158301 37.476215 -0.456409 1.628419 0.117162 -0.011506 508471.000000 0 0 1
-34.016875 17.567976 -1.144801 38.302639 -0.476720 1.600689 0.109453 -0.007624 -53170.100000 0 0 1
-35.093284 18.362776 -1.575001 39.638501 -0.482079 1.610541 0.084539 -0.003092 -80542.100000 0 0 1
-35.621812 19.041376 -0.455301 40.394243 -0.490898 1.582068 0.072817 -0.002346 299197.000000 0 0 1
36.599455 20.043776 -1.028201 41.741230 0.501039 1.595432 0.063664 -0.004229 409610.000000 0 0 1
-36.042487 21.169976 -1.613801 41.831007 -0.531075 1.609385 0.065898 -0.003790 105257.000000 0 0 1
36.345865 21.903076 -2.414101 42.504053 0.542350 1.627624 0.059922 -0.002980 -379116.000000 0 0 1
-36.355835 23.151076 -3.021001 43.207008 -0.567033 1.640773 0.077977 -0.017951 -656850.000000 0 0 1
-35.064601 22.956576 -3.508301 42.057565 -0.579668 1.654310 0.084117 -0.008115 -309722.000000 0 0 1
-34.500150 24.116076 -4.116101 42.294063 -0.610064 1.668272 0.086315 -0.011311 890645.000000 0 0 1
-32.978865 24.024876 -4.486101 41.047842 -0.629594 1.680305 0.072619 -0.019064 837670.000000 0 0 1
-32.653845 23.210776 -5.633601 40.456782 -0.617946 1.710500 0.055648 -0.009097 433857.000000 0 0 1
-31.285965 23.359576 -6.031601 39.507742 -0.641352 1.724065 0.061852 0.000422 645148.000000 0 0 1
-30.879035 22.467476 -7.261901 38.872066 -0.629008 1.758716 0.062859 -0.016686 159527.000000 0 0 1
-31.572475 22.693976 -8.491901 39.798871 -0.623226 1.785820 0.069172 -0.026065 -28973.500000 0 0 1
-30.770775 22.450276 -9.618101 39.285664 -0.630315 1.818135 0.029112 -0.023932 373151.000000 0 0 1
-31.628025 22.286376 -10.934101 40.206581 -0.613833 1.846213 0.036379 -0.015100 634413.000000 0 0 1
-32.399025 23.456276 -11.261101 41.553654 -0.626640 1.845230 0.031529 -0.017019 305738.000000 0 0 1
-33.099215 23.264076 -12.474101 42.336491 -0.612642 1.869877 0.017644 -0.012358 -258098.000000 0 0 1
-33.687315 24.562676 -13.128301 43.709411 -0.630015 1.875860 0.037850 -0.005904 324284.000000 0 0 1
-32.711515 25.526776 -13.472101 43.625188 -0.662650 1.884743 0.029530 -0.014728 200242.000000 0 0 1
-31.814715 25.307576 -14.568301 43.184313 -0.671971 1.914899 0.025184 -0.018090 135025.000000 0 0 1
-30.498455 26.138476 -14.469701 42.693653 -0.708568 1.916564 0.018445 -0.018990 681913.000000 0 0 1
-29.438915 25.681976 -13.612601 41.370479 -0.717345 1.906085 0.028736 -0.019874 674216.000000 0 0 1
-29.841565 25.241076 -12.264101 40.963876 -0.702072 1.874848 0.043091 -0.012041 -1213150.000000 0 0 1
-30.094275 26.375476 -11.279801 41.576016 -0.719638 1.845545 0.049149 -0.002335 71445.600000 0 0 1
-28.986945 27.202376 -10.930701 41.227327 -0.753649 1.839138 0.050129 0.003544 -37505.200000 0 0 1
-29.306855 28.160176 -9.954101 41.844611 -0.765447 1.810982 0.035064 -0.006427 37602.300000 0 0 1
-28.163535 29.178876 -9.759701 41.711429 -0.803103 1.806967 0.034921 -0.006655 271806.000000 0 0 1
-28.525975 30.510676 -9.402201 42.813947 -0.819004 1.792207 0.028840 -0.016616 570073.000000 0 0 1
-27.287175 31.250576 -9.252201 42.506372 -0.853002 1.790219 0.065942 -0.014175 993076.000000 0 0 1
34.885225 -25.269974 33.888581 54.808634 -0.626898 0.904209 0.037579 -0.009797 -208215.000000 0 0 1
34.622395 -23.935124 34.056991 54.143134 -0.604876 0.890507 0.037237 -0.008732 -214207.000000 0 0 1
33.658215 -23.765824 -33.173451 52.897710 -0.614803 2.248652 0.037532 -0.003587 -89013.800000 0 0 1
33.413565 -22.294024 -32.916661 51.932614 -0.588382 2.257297 0.029902 0.000004 -77719.600000 0 0 1
32.730955 -21.649424 -33.951101 51.891138 -0.584372 2.284021 0.028770 -0.000032 3391.690000 0 0 1
32.555765 -20.282324 -33.543021 50.954732 -0.557162 2.289342 0.019942 0.003657 -432003.000000 0 0 1
32.061745 -19.491624 33.504030 50.303070 -0.546237 0.841905 0.022514 -0.006373 -703093.000000 0 0 1
33.061415 -19.245924 32.587125 50.253193 -0.527173 0.865238 0.040015 -0.014751 -305223.000000 0 0 1
32.587205 -18.746424 31.344152 48.947014 -0.522037 0.875818 0.042950 -0.012936 385928.000000 0 0 1
33.802565 -18.485324 30.391142 49.070787 -0.500430 0.902904 0.041230 -0.019055 313750.000000 0 0 1
34.607485 -17.404024 30.753672 49.460756 -0.465963 0.899784 0.033914 -0.023792 445223.000000 0 0 1
35.751665 -17.334924 29.892062 49.721389 -0.451471 0.925805 0.051451 -0.021384 103708.000000 0 0 1
-36.505695 -16.255224 30.249772 50.119325 0.418921 0.922844 0.048558 -0.026215 -1368600.000000 0 0 1
-35.438492 -16.320724 29.379562 48.840674 0.431582 0.925370 0.051163 -0.021644 645560.000000 0 0 1
-34.279393 -15.516224 29.748322 47.966579 0.425047 0.901813 0.044573 -0.023277 1315700.000000 0 0 1
-33.304735 -16.127924 30.810432 48.151823 0.450971 0.876480 0.055856 -0.028257 -671935.000000 0 0 1
-32.203085 -15.274724 30.971132 47.218290 0.442897 0.855404 0.044666 -0.022327 -798703.000000 0 0 1
-31.164185 -16.003524 31.542632 47.140819 0.474407 0.837779 0.048095 -0.019735 -266080.000000 0 0 1
-30.027765 -15.022024 31.934962 46.337562 0.463864 0.810438 0.057486 -0.024027 -7175.190000 0 0 1
-30.531485 -14.110324 32.887793 47.041256 0.432917 0.796621 0.049680 -0.019956 565177.000000 0 0 1
-29.458655 -13.376924 33.466145 46.548226 0.426251 0.768497 0.048858 -0.022136 327270.000000 0 0 1
-29.916105 -12.635324 -33.470611 46.635894 0.399631 2.371291 0.036261 -0.003834 -146609.000000 0 0 1
-29.905315 -13.495824 -32.388721 46.103085 0.423922 2.349740 0.055362 -0.006863 135727.000000 0 0 1
-30.133825 -12.884824 -31.096521 45.178089 0.404060 2.329953 0.055848 0.001799 -762497.000000 0 0 1
-29.994095 -13.860924 -29.907411 44.567075 0.432889 2.306441 0.054048 -0.003481 -160317.000000 0 0 1
-31.047375 -14.792624 -29.844931 45.535493 0.444633 2.285537 0.043374 0.003552 -38469.900000 0 0 1
-31.080255 -15.440324 -28.590571 44.964504 0.461075 2.259903 0.057576 0.004001 397590.000000 0 0 1
-32.216775 -16.503324 -28.522321 46.084738 0.473406 2.238151 0.043470 -0.000021 387931.000000 0 0 1
-31.948365 -17.791924 -29.070121 46.715335 0.508122 2.242451 0.037030 0.013010 -89771.800000 0 0 1
-33.166705 -18.453924 -29.241491 47.912863 0.507743 2.227243 0.025275 0.011641 -285763.000000 0 0 1
-32.930825 -19.840324 -29.871571 48.686635 0.542245 2.231342 0.027818 0.005005 -387383.000000 0 0 1
-34.128125 -20.529724 -30.073781 49.906220 0.541557 2.217559 0.029367 0.000939 -220684.000000 0 0 1
-33.905885 -21.741824 -30.771841 50.687495 0.570193 2.223189 0.027725 -0.006918 770480.000000 0 0 1
-35.263903 -22.518224 -30.978291 52.060232 0.568293 2.208121 0.030684 -0.007688 559037.000000 0 0 1
-35.571969 -23.154524 -29.761701 51.838748 0.577022 2.182326 0.026255 -0.005221 -236436.000000 0 0 1
36.584465 -24.000724 -29.893141 52.991110 -0.580607 2.170159 0.045189 -0.006567 8597.200000 0 0 1
-36.447965 -25.426064 -30.415501 53.852034 0.609113 2.170984 0.039438 -0.008075 -117488.000000 0 0 1
-36.165795 -25.631244 -31.751471 54.525969 0.616551 2.192374 0.047800 -0.007815 -53313.700000 0 0 1
-35.460731 -26.879614 -31.832521 54.710936 0.648608 2.191775 0.039913 -0.010959 -264750.000000 0 0 1
-35.597655 -27.630964 -33.189391 55.966051 0.660060 2.205610 0.043729 -0.022218 1027610.000000 0 0 1
36.362605 -28.233694 -33.229411 56.776529 -0.660214 2.196005 0.052509 -0.017234 651406.000000 0 0 1
36.217715 -29.424994 -33.999501 57.736637 -0.682285 2.200459 0.047577 -0.016720 239090.000000 0 0 1
-36.285555 -30.669274 -33.511401 58.140002 0.701712 2.185102 0.044930 -0.023558 259927.000000 0 0 1
36.390955 -30.951454 -32.243841 57.636441 -0.704799 2.164500 0.055240 -0.028265 251477.000000 0 0 1
-36.180745 -32.008894 -31.600001 57.725001 0.724294 2.150078 0.046660 -0.032625 38775.400000 0 0 1
36.539285 -32.579484 -30.255701 57.549540 -0.728171 2.124373 0.037675 -0.038527 -227481.000000 0 0 1
35.357195 -33.329164 -30.295351 57.260568 -0.755881 2.128311 0.060961 -0.030678 -143231.000000 0 0 1
34.986005 -33.718584 -29.012141 56.592118 -0.766953 2.109069 0.064736 -0.031283 235398.000000 0 0 1
33.778425 33.563947 -28.981761 55.744623 0.782213 2.117533 0.064787 -0.035355 109860.000000 0 0 1
32.678685 33.866306 -29.790291 55.698156 0.803243 2.135129 0.071818 -0.034465 -657087.000000 0 0 1
31.513735 33.292670 -29.291451 54.401347 0.812841 2.139372 0.064054 -0.032705 -329768.000000 0 0 1
30.229295 33.708192 -30.028761 54.330277 0.839755 2.156406 0.029453 -0.019565 -78419.200000 0 0 1
30.150705 33.249348 -31.349371 54.748217 0.834234 2.180482 0.035947 -0.019651 227520.000000 0 0 1
28.977995 33.726743 -32.009591 54.788971 0.860986 2.194732 0.029844 -0.009310 320758.000000 0 0 1
28.789935 32.972288 -33.337541 55.022030 0.853012 2.221686 0.031701 -0.024441 -37126.100000 0 0 1
28.568645 31.619550 -33.251781 54.052238 0.836044 2.233409 0.024795 -0.019531 -64222.800000 0 0 1
28.323065 30.963810 33.761982 53.859307 0.829911 0.893286 0.035475 -0.020201 -14150.600000 0 0 1
28.376155 29.410640 33.851914 53.067354 0.803298 0.879022 0.032970 -0.031838 68509.000000 0 0 1
29.669355 28.861610 34.002815 53.567290 0.771599 0.883088 0.045058 -0.024602 -320768.000000 0 0 1
29.674275 27.477290 -33.969091 52.815369 0.746976 2.269423 0.039142 -0.025389 949536.000000 0 0 1
31.062075 26.885780 -33.525511 53.025066 0.713453 2.255260 0.066401 -0.023981 907255.000000 0 0 1
31.691635 27.314290 -32.336101 52.877723 0.711349 2.228784 0.068261 -0.026889 829760.000000 0 0 1
33.032395 26.765670 -32.335631 53.414729 0.680981 2.221026 0.080464 -0.019296 1068770.000000 0 0 1
33.819965 27.095400 -31.048281 53.309910 0.675451 2.192488 0.089326 -0.022448 -676087.000000 0 0 1
34.526595 28.327500 -31.039611 54.387411 0.687089 2.178170 0.080416 -0.018296 44032.500000 0 0 1
33.817865 29.564420 -31.110171 54.640147 0.718391 2.176529 0.078956 -0.010654 390387.000000 0 0 1
32.620995 29.777580 -30.142631 53.473468 0.739861 2.169647 0.067747 -0.011909 304301.000000 0 0 1
33.176645 30.036080 -28.896811 53.271771 0.735757 2.144137 0.053513 -0.012859 -332989.000000 0 0 1
32.188535 30.096400 -27.930731 52.172990 0.751821 2.135717 0.059566 -0.017484 -425016.000000 0 0 1
32.703805 30.536620 -26.500691 52.002987 0.751143 2.105515 0.063698 -0.021248 52359.900000 0 0 1
32.972905 31.931630 -26.397571 52.949724 0.769356 2.092710 0.065768 -0.023402 296649.000000 0 0 1
33.661685 32.170530 -25.159001 52.924733 0.762751 2.066185 0.045432 -0.023434 240706.000000 0 0 1
34.003315 33.673850 -24.984001 53.984757 0.780530 2.051945 0.048451 -0.024613 327563.000000 0 0 1
32.807585 -33.841234 -24.812201 53.265487 -0.800906 2.055359 0.052610 -0.012481 557124.000000 0 0 1
33.169525 -32.489994 -24.551701 52.522406 -0.775049 2.057203 0.048518 -0.018722 35123.200000 0 0 1
33.705145 -31.531424 -25.723431 52.839023 -0.752090 2.079249 0.050388 -0.022189 317942.000000 0 0 1
34.920725 -31.853944 -26.374341 54.127042 -0.739503 2.079754 0.064159 -0.031135 485476.000000 0 0 1
36.029505 -31.217584 -25.686881 54.152365 -0.713964 2.065016 0.070032 -0.031292 302944.000000 0 0 1
-35.895846 -31.820154 -26.163371 54.640241 0.725283 2.070118 0.044429 -0.025235 -199273.000000 0 0 1
-35.616248 -33.219804 -25.939901 55.181074 0.750598 2.060186 0.038278 -0.020590 -186528.000000 0 0 1
-35.529235 -33.547594 -24.569401 54.693904 0.756719 2.036684 0.046380 -0.019675 -72094.500000 0 0 1
-34.226170 -33.132054 -23.818801 53.258793 0.769156 2.034460 0.031268 -0.011747 164706.000000 0 0 1
-34.131083 -31.735724 -23.651301 52.263477 0.749047 2.040408 0.003703 -0.013697 -275475.000000 0 0 1
-33.905445 -31.381014 -22.338101 51.316060 0.746750 2.021173 0.017995 -0.011719 -229315.000000 0 0 1
-33.776145 -29.840594 -22.082201 50.188770 0.723613 2.026376 0.012446 0.003402 -129253.000000 0 0 1
-34.906525 -29.055004 -22.370001 50.626828 0.694167 2.028468 0.000668 0.004941 -613049.000000 0 0 1
-34.992980 -28.652124 -23.729901 51.074074 0.686098 2.053999 0.022881 0.006918 618519.000000 0 0 1
-36.220025 -27.686474 -23.908301 51.478519 0.652652 2.053790 0.019575 0.009834 644905.000000 0 0 1
-35.946026 -26.360014 -23.455601 50.369955 0.632741 2.055184 0.007444 0.006401 -282073.000000 0 0 1
36.513415 -25.348714 -23.995601 50.513123 -0.606843 2.065802 0.021754 0.004514 -85784.400000 0 0 1
-36.285795 -24.784224 -25.350151 50.730138 0.599244 2.094056 0.020668 0.011299 854802.000000 0 0 1
-35.008243 -24.124724 -25.203681 49.424740 0.603384 2.105912 0.013581 0.001168 573947.000000 0 0 1
-34.713062 -23.440924 -26.395701 49.509662 0.593940 2.133107 0.021227 0.006177 -90303.600000 0 0 1
-33.556035 -22.435324 -26.197731 48.121434 0.589335 2.146480 0.026694 0.001105 -139222.000000 0 0 1
-33.820775 -21.108124 -25.678221 47.421185 0.557964 2.143008 0.037881 -0.003957 103905.000000 0 0 1
-34.765648 -20.297024 -26.382541 48.131673 0.528441 2.150926 0.046017 -0.001018 714867.000000 0 0 1
-36.156185 -20.148324 -25.693021 48.717102 0.508398 2.126325 0.059978 -0.010065 298101.000000 0 0 1
-36.182165 -19.325424 -24.469001 47.763512 0.490565 2.108651 0.048881 -0.016497 -94118.200000 0 0 1
-35.498746 -19.818524 -23.281601 46.850484 0.509184 2.090858 0.029767 -0.009651 -23011.300000 0 0 1
-35.921319 -21.054724 -22.498001 47.326553 0.530162 2.066190 0.024624 0.004430 212291.000000 0 0 1
36.185265 -20.835324 -21.718701 47.065764 -0.522432 2.050430 0.026172 -0.000328 263816.000000 0 0 1
35.975335 -21.998924 -20.920501 47.072760 -0.548833 2.031333 0.030301 0.016527 290249.000000 0 0 1
34.783035 -21.972924 -19.866401 45.687447 -0.563413 2.020649 0.028711 0.003924 144374.000000 0 0 1
33.587025 -21.889024 -20.572501 45.060464 -0.577577 2.044914 0.040686 0.009971 -324703.000000 0 0 1
32.494935 -21.573324 -19.698101 43.696044 -0.586083 2.038456 0.038433 0.014591 225113.000000 0 0 1
31.258575 -20.964424 -20.325401 42.775314 -0.590774 2.065950 0.043575 0.010533 -322142.000000 0 0 1
30.529395 -21.851824 -21.202701 43.117290 -0.621227 2.084889 0.040478 0.014226 1515440.000000 0 0 1
29.277065 -21.364224 -21.771201 42.279567 -0.630399 2.111727 0.053194 0.006582 1214130.000000 0 0 1
29.180075 -20.131924 -22.684201 42.087339 -0.603929 2.140021 0.052557 0.002650 -541409.000000 0 0 1
29.519565 -18.979324 -21.967801 41.402944 -0.571396 2.130087 0.037509 0.004610 54384.000000 0 0 1
29.500145 -17.765024 -22.758001 41.276885 -0.542036 2.154778 0.029471 0.006034 -181978.000000 0 0 1
30.233355 -16.669524 -21.953301 40.913032 -0.503888 2.137181 0.016918 0.003644 -216691.000000 0 0 1
29.540735 -16.204024 -20.744801 39.567312 -0.501715 2.122679 0.001343 -0.001322 368344.000000 0 0 1
30.239705 -15.342224 -19.817001 39.275146 -0.469513 2.099678 -0.001364 -0.004307 63328.800000 0 0 1
31.316535 -16.194524 -19.064201 40.080316 -0.477253 2.066499 0.014419 -0.006420 -391949.000000 0 0 1
32.390785 -16.584324 -19.827801 41.440855 -0.473207 2.069697 0.014924 -0.005057 -896857.000000 0 0 1
33.171095 -17.639024 -19.317601 42.244839 -0.488731 2.045727 0.012158 0.004794 171307.000000 0 0 1
34.413035 -17.836224 -20.236801 43.725461 -0.478179 2.051965 0.024756 -0.013071 -49984.200000 0 0 1
35.308395 -16.762124 -20.192001 43.992823 -0.443232 2.047648 0.030123 -0.017955 67337.000000 0 0 1
36.379545 -17.036824 -21.071101 45.362054 -0.437974 2.053877 0.052963 -0.024994 -62649.200000 0 0 1
-36.014300 -15.928224 -21.638701 44.932967 0.416411 2.073250 0.071157 -0.033198 -522239.000000 0 0 1
-35.095962 -15.400924 -20.738601 43.577570 0.413521 2.066784 0.080840 -0.030901 -515964.000000 0 0 1
-34.429814 -14.335524 -21.406101 43.001634 0.394538 2.091854 0.092255 -0.033733 497525.000000 0 0 1
-33.090645 -14.019924 -20.587101 41.417120 0.400754 2.091012 0.092376 -0.033836 1519240.000000 0 0 1
-31.992285 -14.933524 -20.684301 40.918905 0.436724 2.100752 0.096199 -0.041650 599746.000000 0 0 1
-32.144375 -16.128724 -19.990601 41.146333 0.465054 2.078122 0.086080 -0.039666 -85865.800000 0 0 1
-30.904305 -17.077124 -20.158101 40.657758 0.504822 2.089552 0.070418 -0.044137 403278.000000 0 0 1
-31.106415 -18.432524 -19.762001 41.205627 0.534933 2.070989 0.058693 -0.046465 125261.000000 0 0 1
-29.963595 -19.238024 -19.922601 40.802312 0.570764 2.080904 0.066171 -0.045903 -189938.000000 0 0 1
-30.216955 -20.611024 -19.230401 41.324170 0.598612 2.054832 0.047333 -0.014118 -131109.000000 0 0 1
-31.187065 -21.416124 -19.893601 42.743874 0.601743 2.054899 0.038180 -0.006362 352466.000000 0 0 1
-31.376985 -22.630524 -19.196501 43.187515 0.624843 2.031403 0.027964 0.015661 -105470.000000 0 0 1
-32.342935 -23.518824 -20.018401 44.720654 0.628729 2.034912 0.011105 0.013787 -166465.000000 0 0 1
-31.798475 -24.068324 -21.196301 45.163153 0.647904 2.059325 0.007817 0.007944 -7318.950000 0 0 1
-32.647565 -24.993924 -21.828901 46.551699 0.653390 2.058861 0.010207 0.010821 -338447.000000 0 0 1
-32.454635 -25.103974 -23.389001 47.228786 0.658378 2.088893 0.012411 0.010081 -503694.000000 0 0 1
-31.254695 -25.543404 -23.935801 46.928073 0.685181 2.106043 0.022839 0.010852 -745158.000000 0 0 1
-31.384285 -25.741074 -25.350931 47.856514 0.686931 2.129076 0.026244 0.013177 78530.500000 0 0 1
-30.009775 -26.094904 -25.933401 47.477067 0.715733 2.148653 0.034836 0.006334 427326.000000 0 0 1
-29.025875 -25.046724 -25.874691 46.252994 0.711942 2.164478 0.042506 -0.005629 417349.000000 0 0 1
-27.731025 -25.474554 -26.210671 45.879864 0.743013 2.178872 0.038455 -0.004761 93550.600000 0 0 1
-26.618645 -24.453324 -26.438461 44.782916 0.743026 2.202313 0.049954 -0.009147 108822.000000 0 0 1
-26.715565 -23.944924 -27.781841 45.375230 0.730762 2.229723 0.052166 -0.017077 -559065.000000 0 0 1
-25.511335 -23.282424 -27.924821 44.415033 0.739750 2.250708 0.070102 -0.014022 -742220.000000 0 0 1
-25.321885 -22.504924 -29.261771 44.765173 0.726567 2.283224 0.052700 -0.018812 -44107.300000 0 0 1
-24.822255 -23.380224 -30.267451 45.594932 0.755491 2.296730 0.050359 -0.020537 242400.000000 0 0 1
-24.430155 -22.700124 -31.454111 45.842003 0.748707 2.326968 0.044421 -0.013097 -5844.790000 0 0 1
-23.820255 -23.750724 -32.445391 46.735477 0.783937 2.338152 0.036662 -0.015443 435365.000000 0 0 1
-24.824455 -24.607424 -33.042521 48.099762 0.781008 2.328091 0.029412 -0.014576 323983.000000 0 0 1
-24.325355 -25.660404 -33.791691 48.908666 0.812100 2.333549 0.033318 -0.009907 -170537.000000 0 0 1
-20.151655 -14.514324 -11.739601 27.469493 0.624191 2.012377 0.041724 0.008576 -184714.000000 0 0 1
-20.439955 -13.762224 -10.646401 26.842810 0.592581 1.978628 0.051441 0.011558 89643.100000 0 0 1
-19.608655 -14.202124 -9.596601 26.044086 0.626835 1.948165 0.046760 -0.002611 -94788.700000 0 0 1
-20.018455 -13.786824 -8.142901 25.634389 0.603106 1.894052 0.072288 -0.018776 -961489.000000 0 0 1
-21.018355 -14.495524 -7.541401 26.622626 0.603753 1.857999 0.086307 -0.019038 -458638.000000 0 0 1
-21.282855 -14.044424 -6.201101 26.242321 0.583299 1.809354 0.087224 -0.025546 -277874.000000 0 0 1
-22.504355 -14.756524 -5.602001 27.487878 0.580385 1.776033 0.098298 -0.023412 -497657.000000 0 0 1
-22.356855 -16.095124 -5.113701 28.018421 0.623970 1.754337 0.081810 -0.028669 311048.000000 0 0 1
-21.882455 -16.131724 -3.774201 27.446657 0.635258 1.708744 0.096817 -0.027602 -63882.200000 0 0 1
-21.653955 -17.551724 -3.205201 28.057621 0.681144 1.685283 0.070636 -0.012295 637129.000000 0 0 1
-22.900055 -18.226924 -2.968301 29.418431 0.672257 1.671868 0.065456 -0.013977 671469.000000 0 0 1
-22.743455 -19.362524 -2.153801 29.946802 0.705274 1.642779 0.045499 -0.005973 314905.000000 0 0 1
-24.020555 -20.248224 -1.908501 31.474117 0.700389 1.631471 0.019212 -0.016112 475415.000000 0 0 1
-24.195355 -21.177324 -2.972801 32.291358 0.718980 1.662989 0.010585 -0.022578 708102.000000 0 0 1
-25.286205 -22.124924 -2.826101 33.717818 0.718819 1.654711 0.023747 -0.018031 731946.000000 0 0 1
-25.114605 -23.295324 -3.831301 34.468745 0.747835 1.682179 0.024284 -0.014436 675328.000000 0 0 1
-23.831555 -23.950624 -3.792801 33.999423 0.787890 1.682584 0.025079 -0.005891 385646.000000 0 0 1
-23.499255 -24.604024 -5.001601 34.388792 0.808361 1.716757 0.033722 -0.005774 326448.000000 0 0 1
-22.066455 -24.301424 -5.529101 33.287514 0.833562 1.737671 0.029000 -0.003054 276325.000000 0 0 1
-21.740555 -23.034324 -6.152201 32.265793 0.814285 1.762644 0.018886 -0.002965 109470.000000 0 0 1
-21.846755 -21.965824 -5.215601 31.416248 0.788116 1.737585 0.012703 -0.001485 -561441.000000 0 0 1
-21.879555 -20.550624 -5.874801 30.586866 0.754088 1.764067 0.028055 0.000926 -860392.000000 0 0 1
-20.698555 -20.307124 -6.532301 29.723399 0.775853 1.792375 0.017201 0.004392 -746504.000000 0 0 1
-20.870355 -19.147224 -7.321301 29.253878 0.742365 1.823753 0.017468 0.007121 191118.000000 0 0 1
-19.636755 -18.854924 -8.194701 28.429974 0.765089 1.863186 0.031807 -0.001656 -269154.000000 0 0 1
-19.647155 -19.510924 -9.446701 29.256230 0.781919 1.899583 0.009747 0.000283 941471.000000 0 0 1
-18.323655 -19.600424 -10.025101 28.643247 0.819052 1.928366 0.077547 -0.000275 1020170.000000 0 0 1
-17.681155 -18.328424 -10.572801 27.574236 0.803371 1.964304 0.081324 0.000178 -400491.000000 0 0 1
-17.395355 -17.214524 -9.792501 26.359653 0.780173 1.951416 0.092128 -0.005265 99060.300000 0 0 1
-16.030155 -17.319124 -9.425201 25.411658 0.824029 1.950775 0.116440 -0.010654 -172960.000000 0 0 1
-15.645755 -16.138724 -8.521301 24.038732 0.800907 1.933157 0.102388 -0.010356 190937.000000 0 1 0
-16.239355 -16.318224 -7.199901 24.121353 0.787821 1.873903 0.073133 -0.008227 316754.000000 0 1 0
-16.381955 -15.140024 -6.486001 23.230519 0.746020 1.853759 0.081351 -0.016341 -239050.000000 0 1 0
-17.105155 -15.350324 -5.171301 23.557613 0.731382 1.792116 0.080304 -0.019383 -226597.000000 0 1 0
-17.493855 -14.112024 -4.611301 22.944461 0.678804 1.773151 0.086565 -0.018888 218984.000000 0 1 0
-18.092655 -14.325024 -3.341401 23.317707 0.669696 1.714590 0.093922 -0.016071 -109582.000000 0 1 0
-18.837255 -13.080224 -2.864701 23.111490 0.606945 1.695067 0.094754 -0.021294 226380.000000 0 1 0
-20.237755 -13.015624 -3.126701 24.264160 0.571535 1.700017 0.118899 -0.032969 774065.000000 0 1 0
-20.877155 -12.040124 -2.331501 24.212726 0.523121 1.667238 0.116316 -0.025331 40907.100000 0 1 0
-22.420255 -12.115724 -2.412501 25.598413 0.495437 1.665181 0.099741 -0.021721 60135.500000 0 0 1
-22.955655 -11.780124 -3.669301 26.061412 0.474127 1.712060 0.109414 -0.027942 -385221.000000 0 0 1
-24.339355 -11.889224 -3.756601 27.347210 0.454387 1.708599 0.093536 -0.024894 -683155.000000 0 0 1
-24.919755 -11.186924 -4.983001 27.766378 0.421954 1.751236 0.099851 -0.032834 -217768.000000 0 0 1
-24.458755 -11.675724 -6.206801 27.804273 0.445375 1.795925 0.100776 -0.034724 450252.000000 0 0 1
-25.160315 -11.086624 -7.328201 28.454476 0.415042 1.831273 0.104850 -0.034985 217878.000000 0 0 1
-24.431855 -11.369824 -8.683901 28.312516 0.435561 1.882537 0.121875 -0.036975 143727.000000 0 0 1
-23.293255 -10.585724 -8.920301 27.096219 0.426552 1.906261 0.112433 -0.034368 334176.000000 0 0 1
-22.358455 -11.075724 -9.874501 26.834268 0.459937 1.947633 0.077457 -0.023987 768529.000000 0 0 1
-20.967255 -10.348924 -9.904401 25.393369 0.458495 1.971470 0.079801 -0.029179 502625.000000 0 0 1
-20.992855 -9.042524 -10.486701 25.148322 0.406725 2.000932 0.073816 -0.033647 -118406.000000 0 0 1
-19.937255 -8.343224 -9.935801 23.787049 0.396330 2.001706 0.085108 -0.032838 -679638.000000 0 1 0
-19.847555 -6.999324 -10.628701 23.577219 0.339037 2.038462 0.089719 -0.041525 -228556.000000 0 1 0
-19.282655 -7.111924 -11.897701 23.747748 0.353346 2.095554 0.086001 -0.037470 431513.000000 0 1 0
-19.187055 -5.897024 -12.619201 23.709960 0.298181 2.132031 0.091955 -0.046077 -468637.000000 0 1 0
-18.522055 -6.009824 -13.984601 23.974019 0.313751 2.193610 0.103387 -0.038263 -33531.300000 0 1 0
-19.373855 -6.595424 -14.978201 25.361238 0.328123 2.202591 0.108178 -0.045174 710512.000000 0 0 1
-18.791555 -6.387924 -16.245301 25.648351 0.327681 2.256717 0.110885 -0.045231 -342397.000000 0 0 1
-19.190855 -7.363924 -17.345201 26.895582 0.366394 2.271700 0.104183 -0.039742 -416258.000000 0 0 1
-20.488655 -7.068924 -17.790701 28.040395 0.332228 2.258115 0.096109 -0.043031 62755.300000 0 0 1
-20.985255 -8.107124 -18.626701 29.207198 0.368662 2.262361 0.103351 -0.042502 -298403.000000 0 0 1
-22.426855 -7.815324 -19.082701 30.466254 0.335321 2.247665 0.090001 -0.038620 -969783.000000 0 0 1
-22.431755 -6.713524 -19.983301 30.782907 0.290802 2.277287 0.095174 -0.034893 113848.000000 0 0 1
-23.647255 -6.641124 -20.677001 32.106628 0.273789 2.270525 0.069575 -0.032640 975281.000000 0 0 1
-24.944755 -6.211024 -19.858201 32.483316 0.244029 2.228543 0.084536 -0.029603 220671.000000 0 0 1
-25.049365 -4.901124 -19.325201 32.014920 0.193218 2.218844 0.078679 -0.021487 -395102.000000 0 0 1
-26.213415 -4.672824 -18.591501 32.474949 0.176408 2.180333 0.097134 -0.016360 -657021.000000 0 0 1
-26.347545 -3.273924 -18.174801 32.175070 0.123625 2.171075 0.082632 -0.013506 -92369.700000 0 0 1
-26.690895 -2.318124 -19.152901 32.933436 0.086633 2.191446 0.092939 -0.013423 -262901.000000 0 0 1
-28.063495 -2.084724 -19.243501 34.091321 0.074150 2.170586 0.093945 -0.004841 -549136.000000 0 0 1
-28.387965 -0.908524 -20.208301 34.857961 0.031993 2.189197 0.091818 -0.007341 -10493.000000 0 0 1
-27.769715 -0.920424 -21.511001 35.138689 0.033133 2.229604 0.091414 -0.006749 453499.000000 0 0 1
-28.375205 -1.766924 -22.483601 36.246195 0.062190 2.239924 0.093477 -0.003007 102707.000000 0 0 1
-27.609105 -1.671824 -23.860301 36.529052 0.060479 2.282582 0.090848 -0.008631 -160079.000000 0 0 1
-27.831645 -0.480724 -24.681901 37.202524 0.017271 2.296213 0.091253 -0.000769 304083.000000 0 0 1
-27.211585 0.748476 -24.305101 36.493404 -0.027499 2.299648 0.083199 0.009157 395095.000000 0 0 1
-25.684735 0.796576 -23.999101 35.161016 -0.031004 2.322040 0.083408 0.006943 88513.600000 0 0 1
-24.879655 0.524676 -25.112571 35.354120 -0.021085 2.360742 0.072121 0.003241 475371.000000 0 0 1
-23.506855 0.340476 -24.713801 34.109532 -0.014483 2.381167 0.062323 0.003390 818034.000000 0 0 1
-22.663555 -0.134624 -25.903881 34.418976 0.005940 2.422805 0.053301 0.000488 -290298.000000 0 0 1
-22.527155 0.711376 -27.006941 35.176038 -0.031568 2.446142 0.026468 0.010246 577598.000000 0 0 1
-21.576555 0.219776 -27.978331 35.332465 -0.010186 2.484643 0.016740 0.007704 474695.000000 0 0 1
-21.299455 1.207776 -29.168831 36.137878 -0.056644 2.510111 0.012424 0.018535 -562327.000000 0 0 1
-20.453055 2.273176 -28.861911 35.447210 -0.110687 2.522185 0.028907 0.015084 9914.900000 0 0 1
-20.343055 3.213376 -29.904741 36.310594 -0.156665 2.538493 0.020941 0.008985 5460.330000 0 0 1
-19.838755 2.755776 -31.295631 37.156252 -0.138025 2.572279 0.018292 0.006964 -387871.000000 0 0 1
-18.450555 2.610776 -31.460291 36.564861 -0.140568 2.606844 0.000929 0.009401 23041.400000 0 0 1
-17.947255 2.105276 -32.711861 37.371139 -0.116770 2.636902 -0.000576 0.011762 156193.000000 0 0 1
-16.431355 1.855376 -32.772601 36.707973 -0.112441 2.674303 0.006432 -0.000209 15522.600000 0 0 1
-15.666555 3.048276 -32.880321 36.549261 -0.192171 2.689687 0.011931 0.007115 -1035940.000000 0 0 1
-14.316955 2.799376 -32.828671 35.923994 -0.193093 2.723431 0.015000 0.001314 -524036.000000 0 0 1
-13.391055 4.080776 -32.994301 35.841275 -0.295799 2.740326 0.017753 0.006925 166751.000000 0 0 1
-13.565155 5.052076 -32.014521 35.134975 -0.356516 2.716952 0.036560 -0.011921 189761.000000 0 0 1
-12.758255 6.159076 -32.326641 35.294745 -0.449754 2.728554 0.050719 -0.000787 -282680.000000 0 0 1
-12.486355 7.105076 -31.118231 34.274415 -0.517334 2.709077 0.049753 -0.013686 -76335.700000 0 0 1
-11.339055 6.804576 -30.332361 33.089705 -0.540494 2.730465 0.077101 -0.026151 287490.000000 0 0 1
-11.387755 5.584376 -29.577651 32.182350 -0.455925 2.736496 0.077239 -0.026372 -72861.200000 0 0 1
-10.035355 4.817776 -29.568921 31.594943 -0.447585 2.781531 0.098828 -0.042970 -323368.000000 0 0 1
-9.583555 4.141976 -30.695781 32.422700 -0.407950 2.813744 0.090888 -0.032962 -95036.400000 0 0 1
-10.375855 3.058976 -31.124671 32.950886 -0.286695 2.807102 0.090518 -0.025584 -607977.000000 0 0 1
-9.874055 2.318376 -32.348481 33.901269 -0.230617 2.837760 0.083450 -0.032778 -370693.000000 0 0 1
-10.693955 1.229576 -32.709861 34.435557 -0.114476 2.823668 0.080595 -0.032440 22935.500000 0 0 1
-10.254855 0.622676 -33.862131 35.386349 -0.060646 2.847020 0.068954 -0.021223 -631827.000000 0 0 1
-10.967055 1.164876 33.114319 34.902598 -0.105819 0.321496 0.062373 -0.012203 -498150.000000 0 0 1
-12.346655 0.946476 33.121933 35.360969 -0.076509 0.357769 0.017609 -0.010527 -818538.000000 0 0 1
-12.814155 1.072376 31.825112 34.324777 -0.083492 0.383993 0.010084 -0.008139 -1035680.000000 0 0 1
-14.310255 0.975576 31.658532 34.756263 -0.068068 0.425402 0.020396 0.000303 -855311.000000 0 0 1
-15.022455 2.190276 31.901142 35.329228 -0.144780 0.444170 0.019915 0.011598 -682640.000000 0 0 1
-16.315055 2.031176 31.436732 35.476398 -0.123860 0.481868 0.019806 0.005359 -939774.000000 0 0 1
-17.068555 3.366776 31.325912 35.832716 -0.194750 0.506956 0.015475 0.008032 -211810.000000 0 0 1
-17.317755 3.953976 32.607357 37.131904 -0.224471 0.498817 0.006560 0.005984 369598.000000 0 0 1
-16.501155 5.102976 32.792285 37.062952 -0.299921 0.484790 0.007776 0.008874 -218551.000000 0 0 1
-16.820155 5.834076 -34.055152 38.427952 -0.333866 2.659891 0.005956 0.009294 1368740.000000 0 0 1
-18.145255 6.431176 -33.911301 38.994701 -0.340614 2.625266 0.016569 0.005452 891457.000000 0 0 1
-19.045355 5.601076 -33.211301 38.692223 -0.286027 2.602833 0.015495 0.009936 -117459.000000 0 0 1
-20.495755 6.130576 -33.237641 39.527215 -0.290644 2.569703 0.021722 0.006659 -118493.000000 0 0 1
-20.660855 7.450176 -32.713401 39.402318 -0.346081 2.550335 0.035247 0.000373 -81148.200000 0 0 1
-20.359955 8.464976 -33.613491 40.200129 -0.394023 2.561029 0.020895 0.001141 -456347.000000 0 0 1
-20.437055 9.960176 -33.109431 40.163575 -0.453484 2.539875 0.049981 0.008572 -361643.000000 0 0 1
-19.398355 10.317776 -32.211891 38.991776 -0.488832 2.542983 0.055815 -0.003772 215450.000000 0 0 1
-19.092055 11.684976 -32.180731 39.200060 -0.549221 2.533844 0.071280 -0.009532 376970.000000 0 0 1
-18.279555 12.232576 -33.433071 40.019349 -0.589751 2.559698 0.048607 -0.009048 31765.500000 0 0 1
-19.111755 12.368076 33.638049 40.617076 -0.574366 0.594953 0.057418 -0.011108 467022.000000 0 0 1
-18.378255 12.525576 32.431675 39.325105 -0.598231 0.601113 0.058063 -0.012849 199862.000000 0 0 1
-19.123255 11.914376 31.219992 38.501158 -0.557182 0.625134 0.062579 -0.009744 -15502.500000 0 0 1
-19.243555 10.493076 31.250622 38.170937 -0.499210 0.611649 0.044458 -0.002962 389774.000000 0 0 1
-18.021955 9.787476 31.046062 37.208111 -0.497520 0.583772 0.038303 -0.004750 389091.000000 0 0 1
-18.215655 8.208876 31.061532 36.932567 -0.423394 0.571605 0.043348 -0.005799 196218.000000 0 0 1
-18.929655 7.742476 29.916792 36.239374 -0.388252 0.599651 0.044832 -0.000043 306746.000000 0 0 1
-19.089555 6.329376 30.015352 36.130229 -0.320156 0.590334 0.033208 -0.002573 -289136.000000 0 0 1
-19.809355 5.752676 28.809142 35.432619 -0.282628 0.621393 0.044473 -0.008438 -1116640.000000 0 0 1
-21.168555 5.965576 28.710152 36.165849 -0.274689 0.653687 0.076787 -0.016895 -1050050.000000 0 0 1
-21.730255 4.812376 28.127782 35.868302 -0.217942 0.669397 0.080120 -0.025255 -1385410.000000 0 0 1
-23.201255 4.902976 27.884682 36.604548 -0.208260 0.704737 0.077308 -0.012215 -1475050.000000 0 0 1
-23.506355 5.696876 26.708502 36.032585 -0.237770 0.735893 0.085140 -0.021614 -456982.000000 0 0 1
-24.866655 5.981976 26.716152 36.984961 -0.236076 0.763599 0.081733 -0.016199 -959370.000000 0 0 1
-25.306055 6.746576 25.416752 36.495534 -0.260539 0.800379 0.080995 -0.016598 -54032.700000 0 0 1
-25.549915 5.965676 24.239542 35.720342 -0.229381 0.824952 0.070484 -0.011453 574710.000000 0 0 1
-26.750015 5.205476 24.233032 36.467796 -0.192195 0.843965 0.059215 0.000714 -29584.000000 0 0 1
-26.826965 4.401376 22.936392 35.568754 -0.162617 0.869974 0.060738 -0.009667 -29890.100000 0 0 1
-27.052145 5.170376 21.786292 35.116860 -0.188849 0.901551 0.069652 -0.011820 72687.700000 0 0 1
-26.974625 4.351176 20.676592 34.264918 -0.159929 0.922997 0.069097 -0.005049 -242784.000000 0 0 1
-27.520075 4.940576 19.365492 34.011559 -0.177634 0.965045 0.109070 -0.015061 570070.000000 0 0 1
-28.951105 4.921176 19.286092 35.133144 -0.168373 0.989697 0.115344 -0.017533 541767.000000 0 0 1
-29.430455 5.292276 18.022992 34.914010 -0.177922 1.028375 0.113586 -0.021699 627157.000000 0 0 1
-30.996105 5.267076 18.035892 36.246297 -0.168319 1.049975 0.123621 -0.030309 536176.000000 0 0 1
-31.589865 6.139376 18.990792 37.366585 -0.191954 1.037669 0.124495 -0.021383 -1967.380000 0 0 1
-33.003255 6.076776 18.963692 38.545605 -0.182087 1.056433 0.132906 -0.031773 325157.000000 0 0 1
-33.635595 7.303376 19.704592 39.660604 -0.213813 1.050854 0.145966 -0.032298 -70579.000000 0 0 1
-33.692935 7.159276 21.096592 40.392268 -0.209372 1.021259 0.096880 -0.034447 72838.700000 0 0 1
-34.150543 8.361776 21.725492 41.330085 -0.240126 1.017308 0.114147 -0.038824 88526.200000 0 0 1
0.093545 32.791576 11.825899 34.858975 1.567944 1.224677 0.061988 -0.015997 -252453.000000 0 0 1
-0.317055 32.879376 13.160799 35.416953 -1.561154 1.190069 0.044548 -0.008570 -56532.900000 0 0 1
0.228245 33.985776 13.762699 36.667383 1.564081 1.186034 0.041081 -0.010299 -278611.000000 0 0 1
0.031845 33.948076 15.295699 37.234813 1.569858 1.147476 0.038009 0.001085 184738.000000 0 0 1
-1.288255 -34.097768 15.749699 37.581517 1.533033 1.138363 0.029789 0.010796 96974.200000 0 0 1
-1.085655 -33.829268 17.100599 37.921346 1.538715 1.102968 0.023374 -0.000872 -514094.000000 0 0 1
-2.332255 -33.599668 17.910999 38.146834 1.501494 1.082040 0.027931 0.000230 -975071.000000 0 0 1
-2.949555 33.460676 18.349899 38.275782 -1.482874 1.070811 0.009996 0.004158 97374.600000 0 0 1
-3.942655 33.893576 19.278899 39.191772 -1.454992 1.056512 0.007789 -0.000027 -182182.000000 0 0 1
-4.996855 32.880476 19.703399 38.656412 -1.419980 1.035953 0.008706 -0.006790 -358063.000000 0 0 1
-5.909755 32.612476 18.670899 38.040784 -1.391530 1.057774 0.016707 -0.008291 -199816.000000 0 0 1
-6.975155 31.844676 19.200299 37.833684 -1.355165 1.038525 0.022217 -0.022889 350964.000000 0 0 1
-8.185555 31.708376 18.216299 37.473430 -1.318161 1.063161 0.008328 -0.022131 -117264.000000 0 0 1
-8.854655 32.880676 17.926599 38.482551 -1.307740 1.086216 0.023038 -0.020554 -73270.100000 0 0 1
-9.686255 32.714276 16.774799 38.018960 -1.282934 1.113836 0.043929 -0.010269 410168.000000 0 0 1
-10.604155 33.929876 16.415499 39.155501 -1.267883 1.138190 0.090355 -0.024059 -30549.000000 0 0 1
-11.610355 34.103076 17.366899 39.992866 -1.242655 1.121591 0.097224 -0.022240 321141.000000 0 0 1
-12.636955 -33.259768 16.830899 39.359674 1.207695 1.128940 0.078199 -0.028554 1082960.000000 0 0 1
-14.018855 -33.356668 17.537199 40.208817 1.172938 1.119477 0.111202 -0.021753 401900.000000 0 0 1
-13.930955 -32.851868 18.848999 40.355935 1.169727 1.084823 0.094445 -0.013227 37298.700000 0 0 1
-15.119955 -33.048268 19.587799 41.285384 1.141714 1.076459 0.079397 -0.025679 309098.000000 0 0 1
-14.925755 -32.504868 21.037099 41.495833 1.140330 1.039132 0.075665 -0.030366 130195.000000 0 0 1
-15.002755 -31.065068 21.155599 40.468265 1.120885 1.020699 0.119905 -0.028223 27584.600000 0 0 1
-15.001355 -30.621968 22.465899 40.834571 1.115270 0.988230 0.074982 -0.024049 11408.900000 0 0 1
-15.214655 -29.103868 22.668999 39.904942 1.089098 0.966631 0.099274 -0.030282 -163758.000000 0 0 1
-15.502055 -28.856968 24.045299 40.635141 1.077831 0.937585 0.078397 -0.028111 -179268.000000 0 0 1
-15.632955 -27.454268 24.292999 39.853179 1.053167 0.915288 0.073948 -0.027955 -296466.000000 0 0 1
-16.980555 -26.787568 24.012399 39.780753 1.005825 0.922764 0.091960 -0.021175 -28643.800000 0 0 1
-17.930455 -26.898868 25.079099 40.914686 0.982848 0.910994 0.091035 -0.018005 931238.000000 0 0 1
-19.107355 -26.103768 24.857999 40.797277 0.938930 0.915612 0.092046 -0.015358 -195774.000000 0 0 1
-20.124455 -26.135768 25.987299 41.992997 0.914620 0.903521 0.072536 -0.003060 -531104.000000 0 0 1
-20.901355 -27.309668 26.158899 43.208478 0.917546 0.920514 0.061284 -0.003146 535837.000000 0 0 1
-21.791055 -27.738568 25.130799 43.310914 0.904906 0.951771 0.070785 -0.009381 -279777.000000 0 0 1
-23.062855 -26.928468 24.874599 43.310315 0.862570 0.959006 0.058273 -0.003485 -695519.000000 0 0 1
-22.765555 -25.816468 24.091299 42.013703 0.848115 0.960128 0.060973 -0.004616 78249.800000 0 0 1
-23.824255 -25.413168 23.252399 41.881957 0.817657 0.982206 0.042803 -0.001177 -295922.000000 0 0 1
-24.018655 -23.867368 23.100899 40.990225 0.782239 0.972094 0.039968 0.008492 22689.700000 0 0 1
-24.572155 -23.311868 24.290599 41.680537 0.759085 0.948650 0.035071 0.011987 235628.000000 0 0 1
-25.077785 -21.982268 24.128499 41.161874 0.719715 0.944454 0.030055 0.007979 151689.000000 0 0 1
-25.477935 -21.277668 25.408499 41.802585 0.695804 0.917482 0.028365 0.010918 361225.000000 0 0 1
-26.620395 -21.884768 26.006599 43.173275 0.688075 0.924320 0.010430 0.016019 484795.000000 0 0 1
-27.209145 -21.101768 27.032199 43.776272 0.659647 0.905226 0.011132 0.009970 -1292990.000000 0 0 1
-28.461875 -21.577368 27.714399 45.207843 0.648674 0.910888 0.018346 0.007244 -82834.700000 0 0 1
-29.675455 -21.401268 26.962799 45.449306 0.624798 0.935706 0.024900 0.007885 699849.000000 0 0 1
-29.947595 -22.372568 26.005999 45.537921 0.641615 0.962970 0.006576 0.009984 -1252760.000000 0 0 1
-31.471365 -22.435468 25.900699 46.525727 0.619321 0.980393 0.031130 0.007869 -411596.000000 0 0 1
-32.053955 -23.210568 24.853799 46.732193 0.626724 1.010031 0.020142 -0.002727 270856.000000 0 0 1
-31.984715 -24.614868 24.988999 47.469609 0.655916 1.016411 0.019447 -0.000798 -711362.000000 0 0 1
-32.358175 -25.237168 23.671599 47.374157 0.662384 1.047575 0.021023 0.001053 336165.000000 0 0 1
-33.755895 -25.370568 23.436899 48.295076 0.644517 1.064107 0.042327 -0.010154 143062.000000 0 0 1
-33.932175 -26.037368 22.205399 48.191460 0.654504 1.091929 0.047058 -0.003030 -73134.800000 0 0 1
-35.360324 -26.592368 22.071399 49.443434 0.644805 1.108062 0.045316 -0.008025 -271535.000000 0 0 1
-35.680947 -27.785668 22.778599 50.636330 0.661633 1.104202 0.050464 -0.009539 21876.000000 0 0 1
-34.939670 -28.962468 22.482099 50.646321 0.692133 1.110846 0.046107 -0.009142 -458801.000000 0 0 1
-35.384326 -29.816368 21.329299 50.951009 0.700208 1.138867 0.051031 -0.005828 -269598.000000 0 0 1
-35.345618 -29.179768 20.100999 50.048194 0.690130 1.157497 0.022862 0.001582 524895.000000 0 0 1
-35.920873 -30.082268 19.113199 50.602039 0.697168 1.183468 0.022715 0.013060 -84657.400000 0 0 1
-36.135915 -29.560668 17.651699 49.912122 0.685645 1.209320 0.020035 0.022591 -523867.000000 0 0 1
-34.989886 -29.666268 16.849699 48.870154 0.703246 1.218787 0.046763 0.013523 -146423.000000 0 0 1
-35.185392 -29.215368 15.495799 48.287362 0.692961 1.244108 0.032043 0.016808 -276608.000000 0 0 1
-35.884822 -30.137668 14.497199 49.052709 0.698569 1.270772 0.027568 0.013947 -198962.000000 0 0 1
-35.131223 -31.210368 13.960299 49.022238 0.726366 1.282025 0.041966 0.007036 -178441.000000 0 0 1
-35.667743 -31.872168 12.794699 49.514920 0.729260 1.309430 0.033703 0.010480 33905.900000 0 0 1
-35.878934 -31.036968 11.490999 48.812236 0.713165 1.333154 0.040757 0.002209 -65667.200000 0 0 1
36.225115 -30.282468 11.374899 48.566193 -0.696282 1.334386 0.035983 -0.001153 -60661.900000 0 0 1
36.164455 -29.706068 10.103599 47.879024 -0.687664 1.358174 0.024768 -0.005468 -185334.000000 0 0 1
35.234435 -28.499568 10.092199 46.427828 -0.680117 1.351673 0.048542 0.001615 -215872.000000 0 0 1
35.150635 -27.705268 8.933399 45.639398 -0.667496 1.373786 0.047850 -0.036597 81530.800000 0 0 1
34.047345 -26.830468 8.900699 44.252889 -0.667402 1.368282 0.034524 -0.029567 -13408.200000 0 0 1
34.285295 -25.677068 7.843299 43.546649 -0.642812 1.389695 0.033690 -0.025497 291190.000000 0 0 1
35.201215 -24.713768 8.327499 43.809167 -0.612115 1.379547 0.040974 -0.030353 68398.300000 0 0 1
35.525995 -23.747668 7.304699 43.352124 -0.589242 1.401492 0.046138 -0.033333 4959.290000 0 0 1
36.088645 -22.370468 7.771599 43.165100 -0.554906 1.389766 0.055663 -0.035607 -313585.000000 0 0 1
35.183055 -21.592968 8.503199 42.147456 -0.550455 1.367653 0.054590 -0.029280 -706761.000000 0 0 1
35.468385 -20.184668 8.468399 41.679023 -0.517381 1.366190 0.069506 -0.024947 279854.000000 0 0 1
34.591035 -19.202068 9.311499 40.644349 -0.506763 1.339646 0.073776 -0.011729 223997.000000 0 0 1
34.962115 -19.361568 10.647899 41.359371 -0.505746 1.310416 0.062281 -0.027600 -138051.000000 0 0 1
34.136425 -18.681768 11.538999 40.588822 -0.500743 1.282530 0.072254 -0.013780 -89192.600000 0 0 1
34.741045 -18.867268 12.960499 41.603949 -0.497517 1.254003 0.065526 -0.030472 902419.000000 0 0 1
35.856565 -17.964568 13.171799 42.212738 -0.464457 1.253463 0.040423 -0.015900 943769.000000 0 0 1
36.419205 -18.243168 14.471099 43.227125 -0.464385 1.229436 0.037309 -0.010333 447267.000000 0 0 1
-35.574030 -17.398968 14.841599 42.290765 0.454883 1.212220 0.057838 -0.020247 826742.000000 0 0 1
-34.392863 -17.974768 14.267199 41.346273 0.481588 1.218487 0.043181 -0.014230 246499.000000 0 0 1
-33.315595 -17.236068 14.837999 40.338284 0.477437 1.194112 0.032578 -0.017233 -49623.100000 0 0 1
-32.052735 -17.300668 13.955699 39.005801 0.494945 1.204901 0.055271 -0.019118 -366414.000000 0 0 1
-31.455175 -18.530068 13.744099 39.008867 0.532362 1.210734 0.049120 -0.019832 -126973.000000 0 0 1
-30.431975 -18.481768 12.798799 37.835038 0.545780 1.225709 0.027118 -0.013395 -245022.000000 0 0 1
-29.718625 -19.790868 12.400599 37.797487 0.587500 1.236526 0.011152 -0.018466 -270954.000000 0 0 1
-30.506785 -20.647668 11.615999 38.625401 0.595000 1.265333 0.019441 -0.015892 -474282.000000 0 0 1
-29.800005 -21.476068 10.754999 38.274428 0.624466 1.285964 0.028954 -0.013765 -375541.000000 0 0 1
-30.743105 -22.285168 9.849299 39.227234 0.627232 1.316997 0.033983 -0.018271 -29957.500000 0 0 1
-31.319365 -23.273668 10.637899 40.444173 0.639076 1.304638 0.039504 -0.016184 -62543.700000 0 0 1
-32.731055 -23.366468 10.587099 41.586061 0.619989 1.313380 0.043678 -0.024840 252226.000000 0 0 1
-33.239405 -24.846768 10.635199 42.840721 0.641905 1.319923 0.061721 -0.022379 121904.000000 0 0 1
-33.293115 -25.457968 9.384199 42.948840 0.652819 1.350522 0.067650 -0.019787 -70588.700000 0 0 1
-34.067062 -26.636068 9.391299 44.252021 0.663589 1.356947 0.073174 -0.011434 163175.000000 0 0 1
-34.289227 -27.260768 7.991299 44.528209 0.671700 1.390353 0.065429 -0.013220 206642.000000 0 0 1
-33.050445 -27.635368 7.442299 43.719942 0.696403 1.399737 0.064753 -0.014978 -205134.000000 0 0 1
-33.275535 -28.087968 6.126299 43.974160 0.701060 1.431026 0.067583 -0.018046 -305711.000000 0 0 1
-32.044285 -28.679568 5.409299 43.342985 0.730045 1.445668 0.082118 -0.011078 -164227.000000 0 0 1
-31.145825 -27.721668 4.932399 41.986687 0.727296 1.453049 0.099138 -0.010140 -222502.000000 0 0 1
-30.016755 -28.291868 4.290999 41.471051 0.755825 1.467141 0.085907 -0.013139 674131.000000 0 0 1
-29.010165 -27.206668 3.744499 39.947637 0.753328 1.476923 0.085972 -0.014841 622965.000000 0 0 1
-29.511395 -26.531468 2.596299 39.769109 0.732276 1.505466 0.095127 -0.011161 -199284.000000 0 0 1
-28.611075 -25.524268 2.249199 38.407561 0.728440 1.512201 0.076141 -0.013708 -162338.000000 0 0 1
-28.984555 -24.778168 0.921399 38.143296 0.707317 1.546638 0.076875 -0.013437 -38059.000000 0 0 1
-28.770735 -25.514568 -0.291401 38.455602 0.725487 1.578374 0.077670 -0.012557 -146600.000000 0 0 1
-28.836135 -24.767168 -1.455601 38.040164 0.709635 1.609071 0.075768 -0.016075 696356.000000 0 0 1
-30.290485 -24.488768 -1.987001 39.002070 0.679881 1.621764 0.102225 -0.016736 580043.000000 0 0 1
-30.925175 -23.384668 -1.417701 38.797152 0.647438 1.607346 0.090054 -0.011652 237582.000000 0 0 1
-32.285165 -23.413868 -1.866301 39.925232 0.627453 1.617558 0.101453 -0.019635 560446.000000 0 0 1
-33.033065 -22.086368 -1.594401 39.768495 0.589350 1.610899 0.086182 -0.021393 -40921.200000 0 0 1
-33.345195 -21.861568 -0.213201 39.873245 0.580311 1.576143 0.095582 -0.023665 329096.000000 0 0 1
-33.967075 -20.627268 0.069499 39.739794 0.545750 1.569047 0.098834 -0.022900 -211403.000000 0 0 1
-34.215649 -20.436468 1.611499 39.886800 0.538420 1.530384 0.078828 -0.021661 368583.000000 0 0 1
-35.259078 -21.326068 2.043599 41.257485 0.543970 1.521243 0.094569 -0.027531 575696.000000 0 0 1
-35.440693 -21.155968 3.415399 41.415971 0.538166 1.488237 0.092050 -0.030511 -1378170.000000 0 0 1
-36.629685 -21.947068 3.967399 42.885288 0.539802 1.478152 0.112727 -0.024351 410856.000000 0 0 1
35.381855 -21.746568 3.355999 41.665953 -0.551104 1.490164 0.083228 -0.016345 173949.000000 0 0 1
34.857595 -20.433068 3.560599 40.561559 -0.530201 1.482901 0.081167 -0.027541 -1087830.000000 0 0 1
33.642705 -20.135668 2.647699 39.297418 -0.539327 1.503369 0.066443 -0.010366 55648.100000 0 0 1
32.538005 -20.878268 3.090599 38.783703 -0.570488 1.491024 0.063792 0.001932 -819940.000000 0 0 1
31.377235 -20.573468 2.373999 37.595669 -0.580359 1.507609 0.069655 -0.007982 188083.000000 0 0 1
30.024455 -21.151068 2.835399 36.835785 -0.613714 1.493746 0.041828 0.010524 42978.700000 0 0 1
29.956985 -22.421768 2.233099 37.485242 -0.642518 1.511188 0.041092 0.000862 -563886.000000 0 0 1
28.826475 -23.146068 2.588499 37.059499 -0.676534 1.500892 0.027103 0.010592 -531913.000000 0 0 1
28.492565 -24.455768 1.833499 37.593517 -0.709305 1.522005 0.024231 0.006606 -15157.100000 0 0 1
27.913015 -24.012868 0.615499 36.825712 -0.710429 1.554082 0.025352 0.001344 212075.000000 0 0 1
27.207415 -25.061368 -0.042201 36.990774 -0.744363 1.571937 0.008988 0.001240 -400247.000000 0 0 1
26.341415 -24.645668 -1.188501 36.092820 -0.752152 1.603731 0.006474 -0.008627 -564486.000000 0 0 1
27.001015 -24.211968 -2.401501 36.346133 -0.730992 1.636918 0.014253 -0.022021 118072.000000 0 0 1
27.361915 -25.264268 -3.225401 37.381290 -0.745560 1.657188 0.006711 -0.020482 -409922.000000 0 0 1
26.304215 -25.740768 -4.271801 37.050602 -0.774572 1.686350 0.011960 -0.025813 125539.000000 0 0 1
26.046715 -24.774568 -5.261101 36.330287 -0.760372 1.716120 0.013702 -0.037089 73998.500000 0 0 1
24.981215 -23.934068 -4.914401 34.943555 -0.763994 1.711902 0.029969 -0.037666 -781831.000000 0 0 1
24.538415 -22.980068 -6.014801 34.152528 -0.752615 1.747836 0.045275 -0.045724 -550356.000000 0 0 1
23.732115 -23.608668 -6.973601 34.193765 -0.782791 1.776181 0.049425 -0.039526 748553.000000 0 0 1
22.677115 -22.798768 -7.557701 33.032623 -0.788073 1.801636 0.045039 -0.038138 467291.000000 0 0 1
22.949615 -21.416268 -8.144601 32.429553 -0.750851 1.824662 0.043172 -0.032442 -978591.000000 0 0 1
23.581215 -21.411468 -9.412401 33.213220 -0.737211 1.858127 0.051615 -0.034429 437307.000000 0 0 1
23.259515 -20.147168 -10.027201 32.364458 -0.713819 1.885801 0.048407 -0.032379 -179417.000000 0 0 1
23.763315 -20.116068 -11.447801 33.172330 -0.702469 1.923143 0.054582 -0.034020 -441599.000000 0 0 1
25.144115 -19.902368 -11.525401 34.075881 -0.669556 1.915829 0.070827 -0.032289 -519714.000000 0 0 1
25.506515 -19.751568 -12.843701 34.722722 -0.658919 1.949690 0.057469 -0.028790 -245424.000000 0 0 1
26.993715 -20.004368 -13.154501 36.081523 -0.637765 1.943975 0.059923 -0.027206 -134052.000000 0 0 1
27.352315 -21.332868 -12.998101 37.043097 -0.662382 1.929319 0.047294 -0.028942 -27920.600000 0 0 1
28.190515 -21.544068 -11.859401 37.409857 -0.652547 1.893374 0.063550 -0.042073 -60452.200000 0 0 1
28.839475 -22.948268 -11.910101 38.732271 -0.672128 1.883359 0.071641 -0.027516 -318816.000000 0 0 1
29.672465 -23.161368 -13.019901 39.829913 -0.662779 1.903805 0.073791 -0.038076 101109.000000 0 0 1
29.874615 -24.488068 -13.316401 40.859327 -0.686635 1.902769 0.076530 -0.025483 -241633.000000 0 0 1
-3.512955 -9.321524 -27.178041 28.946115 1.210392 2.790270 0.043098 -0.015506 189558.000000 0 0 1
-3.856555 -8.065624 -26.530251 27.996098 1.124783 2.816562 0.052646 -0.012130 115677.000000 0 0 1
-4.692255 -7.355924 -27.426491 28.780884 1.002983 2.833591 0.039838 -0.014594 15909.600000 0 0 1
-4.782455 -5.910824 -26.989851 28.040360 0.890530 2.867000 0.042105 -0.018901 -266335.000000 0 0 1
-5.516955 -5.909524 -25.825471 27.061305 0.819741 2.838212 0.045054 -0.020806 -42851.700000 0 0 1
-5.294155 -4.693324 -25.126891 26.103947 0.725312 2.867129 0.055271 -0.016758 298308.000000 0 0 1
-5.886055 -4.640324 -23.667701 24.826162 0.667602 2.834899 0.035425 -0.017455 -255769.000000 0 1 0
-5.155455 -5.472424 -22.814401 24.021304 0.815214 2.823255 0.043020 -0.027852 374798.000000 0 1 0
-5.459155 -5.228824 -21.469201 22.761142 0.763851 2.803049 0.026454 -0.024417 -116445.000000 0 1 0
-4.722655 -6.261124 -20.591301 22.034219 0.924560 2.777689 0.025648 -0.024445 -401488.000000 0 1 0
-5.274355 -7.534524 -20.679301 22.632308 0.960054 2.723111 0.021963 -0.023103 252276.000000 0 1 0
-4.508655 -8.428524 -19.900101 22.076730 1.079598 2.693803 0.037386 -0.030202 -1212730.000000 0 1 0
-5.114355 -9.866724 -19.810201 22.714597 1.092582 2.630346 0.041052 -0.029776 810691.000000 0 1 0
-6.225355 -9.971624 -18.880101 22.240651 1.012695 2.584698 0.040252 -0.031654 -96208.000000 0 1 0
-7.388755 -9.358124 -19.276901 22.666431 0.902457 2.587656 0.027244 -0.025270 -1484380.000000 0 1 0
-8.580555 -9.607024 -18.287001 22.368175 0.841776 2.527932 0.021894 -0.015839 -54680.800000 0 1 0
-9.138255 -10.852324 -18.455501 23.278448 0.870933 2.486210 0.044536 -0.021174 -348135.000000 0 1 0
-9.833955 -11.200724 -17.267401 22.810656 0.850284 2.429488 0.050817 -0.028593 -356068.000000 0 1 0
-10.651455 -12.462124 -17.539201 24.007949 0.863576 2.389935 0.077492 -0.021215 -107561.000000 0 1 0
-11.864755 -12.387324 -18.266401 25.057526 0.806942 2.387625 0.085434 -0.033376 -225476.000000 0 0 1
-11.694955 -12.085924 -19.619301 25.841024 0.801837 2.432927 0.072719 -0.028985 -1188760.000000 0 0 1
-13.049455 -11.603224 -20.186801 26.691385 0.726801 2.428441 0.060592 -0.019978 225454.000000 0 0 1
-14.082155 -12.542924 -20.266501 27.683264 0.727651 2.392174 0.066026 -0.022122 -109138.000000 0 0 1
-14.591655 -13.061024 -19.041201 27.314357 0.730103 2.342160 0.072182 -0.021026 -1614010.000000 0 0 1
-15.669255 -14.105224 -19.310801 28.590032 0.732917 2.312355 0.064311 -0.015951 80671.000000 0 0 1
-15.177155 -15.365524 -19.793901 29.295800 0.791565 2.312651 0.074276 -0.017526 532845.000000 0 0 1
-16.222155 -15.893024 -20.624001 30.677287 0.775150 2.308093 0.073378 -0.019118 820762.000000 0 0 1
-15.933455 -17.383324 -21.056101 31.613515 0.828888 2.299694 0.036519 -0.015180 -23449.000000 0 0 1
-16.284255 -18.362824 -20.080701 31.711273 0.845319 2.256523 0.053657 -0.010703 176043.000000 0 0 1
-15.955955 -19.656824 -20.664601 32.680407 0.888946 2.255346 0.041291 -0.008167 -105543.000000 0 0 1
-16.455455 -20.867224 -19.834101 33.160437 0.903058 2.211956 0.050045 -0.016086 -114401.000000 0 0 1
-16.029155 -22.084824 -20.349701 34.040911 0.942964 2.211552 0.039902 -0.012022 159578.000000 0 0 1
-16.671655 -23.202224 -19.750401 34.732774 0.947737 2.175646 0.059899 -0.012440 173068.000000 0 0 1
-16.156255 -24.558824 -20.349301 35.752685 0.988916 2.176291 0.056069 -0.014036 119584.000000 0 0 1
-16.570155 -24.746724 -21.709301 36.854635 0.980773 2.200682 0.036162 -0.013254 46674.600000 0 0 1
-15.959455 -25.882714 -22.228301 37.665853 1.018255 2.202034 0.040442 -0.014621 -246977.000000 0 0 1
-16.533855 -26.362364 -23.598501 39.054217 1.010633 2.219620 0.044580 -0.014822 -191298.000000 0 0 1
-17.847055 -26.869394 -23.681101 40.015950 0.984493 2.204076 0.059876 -0.012574 -82046.500000 0 0 1
-17.895855 -28.254674 -23.482301 40.865715 1.006196 2.182937 0.066819 -0.016369 -93120.400000 0 0 1
-18.755755 -29.036574 -24.540601 42.392713 0.997284 2.188160 0.066210 -0.013062 -62394.200000 0 0 1
-18.229355 -29.150234 -25.863671 43.022959 1.011939 2.215748 0.065731 -0.010660 189795.000000 0 0 1
-18.518355 -27.961894 -26.582421 42.795118 0.985843 2.241013 0.077253 -0.013304 154650.000000 0 0 1
-17.276055 -27.528774 -27.390311 42.503231 1.010356 2.271073 0.082172 -0.020411 -191271.000000 0 0 1
-17.175955 -28.131154 -28.655531 43.675104 1.022643 2.286445 0.087432 -0.015256 15856.800000 0 0 1
-16.066155 -27.811644 -29.466881 43.587911 1.046952 2.313162 0.054000 -0.009483 -141238.000000 0 0 1
-16.267455 -28.151504 -30.917331 44.866676 1.046820 2.331034 0.062097 -0.010669 -10276.700000 0 0 1
-16.334855 -29.547764 -31.218201 45.983409 1.065784 2.317062 0.046300 -0.006436 225850.000000 0 0 1
-16.839455 -29.684274 -32.535771 47.151880 1.054779 2.332314 0.055373 -0.003399 -83587.200000 0 0 1
-16.765755 -31.060734 -33.211991 48.465411 1.075839 2.325773 0.045446 -0.007409 -664102.000000 0 0 1
-15.569055 -31.450284 -33.780471 48.709712 1.111127 2.337140 0.045161 -0.006030 -904206.000000 0 0 1
-15.763855 -32.557704 33.582470 49.358743 1.119883 0.822522 0.034744 -0.004112 120928.000000 0 0 1
-14.494455 -33.081014 32.868160 48.833991 1.157840 0.832459 0.017692 -0.002506 -88531.300000 0 0 1
-13.572955 -33.717314 33.686947 49.556965 1.188092 0.823358 0.023262 0.001037 140972.000000 0 0 1
-12.568655 33.872315 32.893426 48.859823 -1.215485 0.832241 0.027165 -0.000443 674748.000000 0 0 1
-11.523755 33.046191 33.710293 48.592505 -1.235265 0.804135 0.039993 -0.001128 527685.000000 0 0 1
-10.672055 33.831998 -33.679061 48.916010 -1.265233 2.330226 0.058365 -0.010336 225272.000000 0 0 1
-9.869355 33.027887 -32.833211 47.605307 -1.280424 2.331866 0.063547 -0.018603 28018.900000 0 0 1
-9.132855 33.831464 -31.734601 47.276442 -1.307130 2.306698 0.059745 -0.027233 274042.000000 0 0 1
-10.040255 -33.849074 -30.808631 46.858705 1.282445 2.288265 0.068041 -0.021858 -389231.000000 0 0 1
-9.406855 -32.856474 -30.092341 45.536642 1.291954 2.292731 0.062313 -0.022034 -754180.000000 0 0 1
-10.230855 -31.898484 -29.214321 44.448400 1.260430 2.287979 0.073017 -0.019104 25594.500000 0 0 1
-10.632355 -32.194004 -27.889381 43.901235 1.251815 2.259162 0.091583 -0.020386 -46318.900000 0 0 1
-11.087455 -33.496164 -27.623091 44.810265 1.251141 2.235017 0.087801 -0.025875 -380535.000000 0 0 1
-11.436755 -33.793734 -26.141051 44.228615 1.244467 2.203149 0.100705 -0.034472 870279.000000 0 0 1
-10.291355 -33.635324 -25.266011 43.308409 1.273873 2.193702 0.089957 -0.038333 548456.000000 0 0 1
-10.653855 -33.748904 -23.881301 42.694375 1.265017 2.164403 0.099059 -0.044461 194896.000000 0 0 1
-9.445655 -33.739594 -22.920601 41.868061 1.297827 2.150108 0.094183 -0.049730 426336.000000 0 0 1
-8.662655 33.288945 -22.951801 41.351912 -1.316216 2.159203 0.082767 -0.043377 269278.000000 0 0 1
-7.883555 33.205019 -21.768501 40.479518 -1.337692 2.138581 0.090888 -0.044031 -211423.000000 0 0 1
-7.343955 31.833070 -21.443701 39.078260 -1.344061 2.151649 0.084610 -0.046260 -165319.000000 0 0 1
-6.283255 31.478280 -22.317701 39.095284 -1.373780 2.178342 0.062513 -0.057541 105222.000000 0 0 1
-5.790855 30.158090 -22.108801 37.839708 -1.381089 2.194783 0.049792 -0.039144 1034730.000000 0 0 1
-4.285655 30.066160 -22.593901 37.852678 -1.429209 2.210416 0.053916 -0.045880 1036360.000000 0 0 1
-4.217055 30.389920 -23.968101 38.933285 -1.432912 2.233969 0.074073 -0.047210 1194260.000000 0 0 1
-2.876855 30.918630 -24.257501 39.403862 -1.478017 2.233959 0.062828 -0.056880 1509160.000000 0 0 1
-2.699755 31.253290 -25.733501 40.574252 -1.484627 2.257811 0.050039 -0.035015 -459646.000000 0 0 1
-1.703755 32.133830 -26.160791 41.471350 -1.517825 2.253401 0.054015 -0.047155 -442577.000000 0 0 1
-1.907555 33.491119 -25.883911 42.370635 -1.513901 2.227984 0.056887 -0.039712 -707169.000000 0 0 1
-1.017855 -33.829764 -26.691591 43.103712 1.540718 2.238572 0.029581 -0.018738 -1468570.000000 0 0 1
0.125045 -33.581184 -25.953831 42.441877 -1.567073 2.228770 0.034015 -0.018960 -1299860.000000 0 0 1
0.741945 -32.496584 -26.523631 41.953325 -1.547969 2.255208 0.009703 -0.002556 -788626.000000 0 0 1
1.997845 -31.993374 -25.800511 41.148921 -1.508432 2.248497 0.023175 0.001459 -320106.000000 0 0 1
1.814245 -31.433374 -24.506301 39.898713 -1.513143 2.232184 0.025179 -0.002161 536457.000000 0 0 1
3.076045 -30.878004 -24.130401 39.308897 -1.471505 2.231745 0.022678 0.000157 380406.000000 0 0 1
3.055145 -30.038434 -22.825301 37.850175 -1.469437 2.218107 0.042781 -0.010086 -187356.000000 0 0 1
3.024645 -30.921104 -21.703201 37.898444 -1.473288 2.180552 0.043072 -0.010842 567794.000000 0 0 1
3.330145 -30.188414 -20.508801 36.647525 -1.460929 2.164727 0.047910 -0.009386 -529847.000000 0 0 1
3.502745 -31.026704 -19.225001 36.667782 -1.458378 2.122692 0.046691 -0.009300 -775448.000000 0 0 1
2.403645 -31.628524 -18.590301 36.766021 -1.494946 2.100918 0.055425 -0.019147 -145919.000000 0 0 1
1.915445 -32.756684 -19.239801 38.037340 -1.512388 2.101121 0.059944 -0.016993 -537092.000000 0 0 1
2.557345 -34.098335 -18.795901 39.019512 -1.495937 2.073396 0.040267 -0.025647 1281440.000000 0 0 1
3.971745 33.974316 -19.086101 39.170246 1.454420 2.079746 0.043269 -0.018820 1365100.000000 0 0 1
4.544345 33.078411 -18.125201 37.991516 1.434270 2.068132 0.049177 -0.037100 1168760.000000 0 0 1
5.861045 32.369373 -18.635001 37.807294 1.391669 2.086209 0.058053 -0.030133 1260320.000000 0 0 1
7.001945 33.146853 -18.966801 38.826288 1.362617 2.081171 0.099339 -0.027792 96080.400000 0 0 1
8.021145 32.293135 -19.475401 38.554852 1.327338 2.100335 0.082886 -0.033705 678361.000000 0 0 1
9.380445 33.078352 -19.592101 39.572978 1.294469 2.088732 0.072425 -0.034090 381987.000000 0 0 1
10.021745 33.185141 -18.346601 39.220998 1.277510 2.057568 0.069550 -0.020997 -114573.000000 0 0 1
11.269545 33.839879 -18.461801 40.161900 1.249323 2.048436 0.075103 -0.006957 -17215.000000 0 0 1
12.005445 33.898072 -17.107401 39.823023 1.230418 2.014830 0.048215 -0.007335 -321801.000000 0 0 1
12.710845 32.715322 -16.808501 38.915082 1.200218 2.017425 0.039277 -0.012104 -98277.700000 0 0 1
13.351945 32.942003 -15.567001 38.804401 1.185715 1.983586 0.025771 -0.018741 210250.000000 0 0 1
14.627245 32.085990 -15.317201 38.445854 1.143066 1.980579 0.022575 -0.015933 336769.000000 0 0 1
14.396045 30.772020 -14.860501 37.080963 1.133215 1.983141 0.038651 -0.025221 -352095.000000 0 0 1
15.599245 30.068350 -14.996301 37.044989 1.092228 1.987571 0.028442 -0.020201 -191937.000000 0 0 1
15.605345 28.804890 -14.147301 35.684655 1.074301 1.978447 0.055640 -0.022559 -323215.000000 0 0 1
15.495545 28.917680 -12.748701 35.197635 1.078882 1.941427 0.049843 -0.026160 -584862.000000 0 0 1
14.221945 29.086450 -12.200301 34.599605 1.116024 1.931159 0.053126 -0.027015 -637464.000000 0 0 1
13.534445 27.801720 -11.832201 33.107670 1.117748 1.936263 0.060329 -0.023447 -682340.000000 0 0 1
12.969845 26.998960 -12.842001 32.589534 1.122965 1.975833 0.054849 -0.024082 310043.000000 0 0 1
12.359045 25.730440 -12.536901 31.176521 1.123010 1.984634 0.081024 -0.025538 947565.000000 0 0 1
11.342245 25.575100 -11.338601 30.187682 1.153371 1.955844 0.080122 -0.015813 1113790.000000 0 0 1
10.095645 26.300440 -11.440401 30.405887 1.204282 1.956548 0.075612 -0.018312 1030100.000000 0 0 1
9.474845 26.449450 -10.166601 29.878184 1.226813 1.917999 0.074963 -0.001848 -615222.000000 0 0 1
8.393745 27.478760 -10.165001 30.477278 1.274335 1.910839 0.075625 -0.007479 -968072.000000 0 0 1
8.807945 28.794140 -10.450501 31.873114 1.273941 1.904853 0.078109 -0.014148 -666190.000000 0 0 1
7.774845 29.716090 -10.470301 32.451833 1.314895 1.899315 0.068278 -0.012521 -428600.000000 0 0 1
8.242045 31.137930 -10.921901 34.011615 1.312036 1.897711 0.080296 -0.019090 -20889.600000 0 0 1
8.963645 31.845540 -9.922501 34.538984 1.296423 1.862187 0.075633 -0.020822 -71282.700000 0 0 1
9.468345 33.110694 -10.309301 35.947869 1.292269 1.861665 0.079232 -0.024820 520532.000000 0 0 1
10.676245 33.156203 -11.317401 36.625122 1.259282 1.884945 0.064876 -0.025997 -606274.000000 0 0 1
11.874045 32.762521 -10.721301 36.459869 1.223093 1.869266 0.060085 -0.023147 -1065390.000000 0 0 1
12.801545 32.926332 -11.766101 37.235253 1.199988 1.892300 0.057204 -0.025962 -235711.000000 0 0 1
14.261645 32.608769 -11.364801 37.361545 1.158507 1.879879 0.042674 -0.026691 357652.000000 0 0 1
14.755845 33.541005 -10.360401 38.079810 1.156344 1.846341 0.046187 -0.026324 -1760710.000000 0 0 1
16.096545 33.426795 -10.252201 38.490999 1.122020 1.840404 0.033946 -0.024179 -1835150.000000 0 0 1
16.805145 -33.853234 -9.308701 38.924366 -1.110023 1.812285 0.050300 -0.030480 -134939.000000 0 0 1
16.760745 33.923036 -7.978901 38.669857 1.111895 1.778623 0.040259 -0.034223 172813.000000 0 0 1
17.312745 -33.331184 -7.120101 38.228193 -1.091737 1.758143 0.040383 -0.026613 -847511.000000 0 0 1
17.593345 -33.898024 -5.750201 38.622100 -1.092058 1.720236 0.030770 -0.017739 -39152.200000 0 0 1
18.619345 33.384045 -5.559101 38.627427 1.062036 1.715214 0.029419 -0.025454 793882.000000 0 0 1
19.959345 33.844324 -5.814101 39.719233 1.037955 1.717704 0.045823 -0.022535 296904.000000 0 0 1
20.742945 32.765664 -6.683101 39.351269 1.006415 1.741455 0.032283 -0.018294 222349.000000 0 0 1
20.992045 31.550280 -5.972001 38.363406 0.983704 1.727101 0.032097 -0.010759 110400.000000 0 0 1
22.013445 31.596100 -4.978801 38.829033 0.962279 1.699374 0.032624 -0.007173 -263087.000000 0 0 1
22.389845 30.169870 -4.506501 37.839593 0.932354 1.690175 0.030348 -0.011683 -121585.000000 0 0 1
23.100745 29.440170 -5.479201 37.820493 0.905475 1.716182 0.038787 -0.010208 -110172.000000 0 0 1
23.389445 28.165640 -4.932901 36.941886 0.877777 1.704728 0.043262 -0.002691 -428087.000000 0 0 1
24.346845 27.438310 -5.873701 37.150102 0.845025 1.729570 0.040625 0.009575 344465.000000 0 0 1
25.602445 28.131350 -5.972501 38.503621 0.832427 1.726541 0.059420 0.003393 638791.000000 0 0 1
26.599445 27.537920 -6.788401 38.883800 0.802732 1.746277 0.041772 0.003482 395456.000000 0 0 1
27.486245 26.410150 -6.179601 38.615763 0.765435 1.731515 0.039327 0.004815 -709539.000000 0 0 1
28.369645 27.007820 -5.278201 39.523645 0.760811 1.704742 0.047995 -0.005769 -371287.000000 0 0 1
29.058745 25.929320 -4.638801 39.220642 0.728549 1.689348 0.048571 -0.000543 -460807.000000 0 0 1
30.354945 26.281500 -3.939101 40.344224 0.713599 1.668589 0.059196 -0.012203 -620617.000000 0 0 1
30.141945 27.136880 -2.817301 40.655680 0.732982 1.640149 0.068391 -0.022293 -756441.000000 0 0 1
31.316945 27.396540 -2.134201 41.663848 0.718725 1.622043 0.073641 -0.035606 -723345.000000 0 0 1
31.339345 28.613270 -1.185401 42.453256 0.739959 1.598722 0.090305 -0.020798 82284.800000 0 0 1
31.310545 29.850510 -1.922001 43.302393 0.761531 1.615196 0.084677 -0.025657 7245.130000 0 0 1
31.366945 30.986910 -1.100701 44.105389 0.779303 1.595755 0.097101 -0.032558 -21049.500000 0 0 1
33.567605 22.931476 18.897992 44.830467 0.599323 1.135650 0.078582 -0.011223 67517.300000 0 0 1
33.572225 22.582376 20.283192 45.259981 0.592134 1.106103 0.063010 -0.020289 570427.000000 0 0 1
34.553035 23.422876 20.925192 46.694829 0.595727 1.106128 0.082476 -0.029402 477140.000000 0 0 1
34.488845 23.348176 22.507692 47.341461 0.595107 1.075340 0.050195 -0.014802 265176.000000 0 0 1
33.221435 23.764976 22.999492 46.876588 0.620954 1.057973 0.034022 -0.011113 525868.000000 0 0 1
33.235455 24.073876 24.357402 47.722427 0.626878 1.035149 0.030329 -0.010622 -778038.000000 0 0 1
31.911505 24.614776 24.842132 47.343034 0.657022 1.018403 0.039723 -0.013651 -703947.000000 0 0 1
31.836035 26.039676 24.782072 48.018215 0.685579 1.028508 0.035374 -0.020924 -5528.590000 0 0 1
30.561035 26.483476 25.148582 47.621450 0.714039 1.014442 0.028271 -0.023545 -631595.000000 0 0 1
30.372005 28.004176 25.370652 48.480538 0.744859 1.020058 0.020703 -0.013194 -306891.000000 0 0 1
30.613045 28.815876 24.163692 48.491208 0.755167 1.049147 0.024745 -0.027933 366202.000000 0 0 1
30.193055 30.176876 24.283612 49.111691 0.785130 1.053586 0.032368 -0.017286 -181367.000000 0 0 1
30.589085 31.019476 23.050592 49.287218 0.792384 1.084133 0.031062 -0.018034 -498734.000000 0 0 1
31.961035 31.284676 23.095192 50.335143 0.774704 1.094120 0.000405 -0.013954 -590673.000000 0 0 1
32.344445 32.140176 22.020192 50.636379 0.782230 1.120904 0.012924 -0.008363 -425279.000000 0 0 1
33.793605 32.596876 22.051992 51.873446 0.767375 1.131711 -0.015114 -0.022479 -417012.000000 0 0 1
34.107515 33.660176 22.984392 53.147082 0.778797 1.123569 0.006190 -0.009258 174559.000000 0 0 1
35.496875 33.920876 22.891192 54.172508 0.762699 1.134527 0.015383 -0.013253 253771.000000 0 0 1
35.855115 -33.074868 23.735902 54.248771 -0.745086 1.117937 0.031363 -0.004319 -190328.000000 0 0 1
35.319195 -31.934668 23.104892 52.925462 -0.735116 1.119030 0.022173 -0.001638 190068.000000 0 0 1
35.415565 -30.878168 24.025192 52.772468 -0.717061 1.098132 0.045087 -0.002766 -1245420.000000 0 0 1
34.499285 -29.720168 23.774122 51.368258 -0.711117 1.089626 0.043566 -0.016631 267924.000000 0 0 1
33.114075 -29.979868 24.020862 50.718204 -0.735764 1.077406 0.032433 -0.010290 791655.000000 0 0 1
32.397825 -30.440168 22.872892 49.993920 -0.754254 1.095600 0.021787 -0.002019 -421328.000000 0 0 1
31.613475 -31.740268 23.044492 50.377624 -0.787400 1.095688 0.009517 0.002658 -578902.000000 0 0 1
30.505515 -31.650768 23.885282 50.028634 -0.803821 1.073066 0.019686 -0.008388 -390924.000000 0 0 1
30.073305 -32.970168 24.023152 50.680839 -0.831316 1.076959 0.021416 -0.013842 117413.000000 0 0 1
29.096155 -33.298868 25.202372 50.897548 -0.852653 1.052779 0.024257 -0.010916 181730.000000 0 0 1
29.065045 33.593876 25.564232 51.252857 0.857550 1.048598 0.029037 -0.022032 107486.000000 0 0 1
28.451945 33.408876 26.832912 51.436090 0.865358 1.021983 0.028942 -0.014063 -387717.000000 0 0 1
28.107415 31.841976 27.002242 50.329507 0.847613 1.004501 0.040473 -0.022686 407795.000000 0 0 1
27.273315 31.224976 26.045382 48.961156 0.852847 1.009883 0.030968 -0.015622 679739.000000 0 0 1
25.898115 31.636476 26.102712 48.507016 0.884807 1.002588 0.024404 -0.017551 427331.000000 0 0 1
25.019515 31.556076 24.839912 47.315783 0.900425 1.018103 0.067480 -0.025336 182747.000000 0 0 1
25.429815 32.372276 23.726362 47.513998 0.904933 1.047942 0.081328 -0.037256 338124.000000 0 0 1
26.748015 32.351676 23.199392 47.961433 0.879933 1.065908 0.059192 -0.028237 19870.100000 0 0 1
27.027715 33.057876 21.848592 47.965420 0.885423 1.097855 0.075518 -0.026049 -331570.000000 0 0 1
28.379905 33.294276 21.576092 48.779664 0.864913 1.112615 0.066686 -0.023209 -357638.000000 0 0 1
28.413025 34.039376 20.377192 48.797634 0.875246 1.140010 0.054666 -0.028168 44711.000000 0 0 1
29.825555 -33.949568 19.803292 49.338699 -0.849973 1.157779 0.057797 -0.028284 323697.000000 0 0 1
30.484595 33.163976 19.266292 48.993365 0.827470 1.166640 0.063273 -0.036997 -362528.000000 0 0 1
31.533025 33.477176 18.410092 49.537708 0.815295 1.190024 0.044009 -0.022292 -251255.000000 0 0 1
32.406905 32.298176 17.913292 49.135178 0.783718 1.197624 0.025210 -0.023579 163478.000000 0 0 1
33.209515 31.636976 18.877792 49.599810 0.761153 1.180349 0.014397 -0.017769 283344.000000 0 0 1
34.217715 30.854476 18.280092 49.568261 0.733759 1.193093 0.021908 -0.022019 296917.000000 0 0 1
35.336545 30.243276 19.171092 50.307633 0.707889 1.179835 0.039724 -0.031203 664478.000000 0 0 1
36.278925 31.243876 19.609492 51.738500 0.710968 1.182068 0.056762 -0.023396 35205.700000 0 0 1
-36.023263 30.716276 20.448092 51.568300 -0.706047 1.163068 0.080621 -0.021468 160170.000000 0 0 1
-35.116845 31.877976 21.034692 51.883103 -0.737091 1.153353 0.081016 -0.018011 420341.000000 0 0 1
-34.227696 32.435476 20.062992 51.245673 -0.758520 1.168529 0.087049 -0.016330 199360.000000 0 0 1
-33.153195 33.219776 20.534292 51.228362 -0.786401 1.158365 0.079535 0.002951 139083.000000 0 0 1
-33.439015 -33.688868 21.244392 52.004151 0.789120 1.149972 0.055688 0.001371 -868552.000000 0 0 1
-33.913895 -33.930868 22.523692 52.997856 0.785648 1.131843 0.071645 0.002502 30871.100000 0 0 1
-33.500105 -32.970268 23.509132 52.554495 0.777427 1.107020 0.065076 0.001977 -126714.000000 0 0 1
-33.595305 -33.578268 24.944602 53.650515 0.785145 1.087223 0.090162 -0.015222 -385927.000000 0 0 1
-34.814390 -33.710368 25.625392 54.818714 0.769288 1.084384 0.075228 -0.000529 -701537.000000 0 0 1
-34.823072 33.714176 26.716752 55.345071 -0.769220 1.067026 0.087234 -0.010814 140727.000000 0 0 1
-36.170135 33.724376 27.463872 56.567451 -0.750420 1.063854 0.059484 -0.014954 184282.000000 0 0 1
-36.115335 32.820476 28.565862 56.546526 -0.737638 1.041212 0.084979 -0.027167 87965.800000 0 0 1
35.909765 32.672776 29.217672 56.662985 0.738235 1.029042 0.080675 -0.027127 256397.000000 0 0 1
35.916965 31.385776 30.125472 56.414886 0.718174 1.007473 0.078183 -0.022078 7179.830000 0 0 1
35.656665 30.118976 29.531232 55.232637 0.701406 1.006679 0.058383 -0.020673 -98612.900000 0 0 1
-36.534825 29.662576 28.772162 55.158854 -0.681954 1.022043 0.068741 -0.021967 -543130.000000 0 0 1
36.575815 28.180276 28.298632 54.154693 0.656469 1.020955 0.067383 -0.018824 -170054.000000 0 0 1
35.520025 27.952976 27.375832 52.843895 0.666741 1.026226 0.047719 -0.010543 215120.000000 0 0 1
35.400135 26.650576 26.790912 51.780071 0.645315 1.026989 0.055087 -0.011631 -135837.000000 0 0 1
35.046965 25.454976 27.777982 51.457379 0.628167 1.000567 0.044516 -0.014520 -447759.000000 0 0 1
36.086145 24.823576 28.501522 52.256641 0.602557 0.993913 0.045213 -0.014450 -314921.000000 0 0 1
35.820195 23.527676 29.034092 51.765011 0.581160 0.975345 0.047883 -0.010353 -174762.000000 0 0 1
36.046485 22.328776 28.038712 50.833972 0.554594 0.986546 0.031324 0.003957 -467069.000000 0 0 1
35.257955 22.434876 26.905052 49.702403 0.566689 0.998787 0.044272 -0.004092 -267672.000000 0 0 1
35.652755 21.620176 25.815742 49.040835 0.545119 1.016420 0.038548 -0.013133 -270984.000000 0 0 1
35.550825 20.059676 25.832382 48.306974 0.513720 1.006579 0.028091 -0.007638 -755166.000000 0 0 1
34.198855 19.718876 25.935682 47.234049 0.523032 0.989523 0.054303 -0.009126 -146411.000000 0 0 1
33.890885 18.528176 26.617842 46.908367 0.500307 0.967399 0.055859 -0.009474 -494945.000000 0 0 1
33.895975 18.651376 28.150992 47.846518 0.503038 0.941767 0.042272 -0.006133 198260.000000 0 0 1
32.735565 19.291776 28.696612 47.616020 0.532531 0.923957 0.044254 -0.010271 553891.000000 0 0 1
32.621495 20.668776 28.472052 47.979350 0.564755 0.935491 0.029940 -0.014484 -349511.000000 0 0 1
31.419655 21.320776 29.201012 47.900619 0.596206 0.915220 0.038195 -0.022789 1687430.000000 0 0 1
30.085695 21.193876 28.603692 46.610091 0.613706 0.910083 0.057961 -0.031509 1709870.000000 0 0 1
29.716045 22.166176 27.573902 46.202844 0.640893 0.931288 0.056539 -0.029359 27114.700000 0 0 1
29.635635 23.690576 27.907002 47.098992 0.674372 0.936615 0.057397 -0.021910 716612.000000 0 0 1
30.997695 24.121376 28.110842 48.300283 0.661285 0.949608 0.061366 -0.024454 866705.000000 0 0 1
31.092395 25.484976 28.617022 49.347290 0.686610 0.952177 0.039145 -0.015471 -239.760000 0 0 1
31.503675 25.514876 30.145052 50.519448 0.680749 0.931411 0.031980 -0.017510 664870.000000 0 0 1
32.823285 25.015076 30.395592 51.254406 0.651209 0.935975 0.013621 -0.004136 370726.000000 0 0 1
33.232355 24.749176 31.724472 52.185757 0.640121 0.917365 0.031605 -0.009867 12857.100000 0 0 1
32.612135 23.573276 32.503593 51.727500 0.625889 0.891351 0.034931 -0.003533 -300966.000000 0 0 1
33.053935 23.530676 33.807196 52.812705 0.618660 0.876124 0.037642 -0.011876 -95232.800000 0 0 1
32.581345 22.399576 -33.811231 52.023883 0.602285 2.278272 0.036575 -0.015235 -566076.000000 0 0 1
33.014725 22.330576 -32.377951 51.351324 0.594699 2.253017 0.015827 -0.013862 -431670.000000 0 0 1
32.317285 23.123776 -31.421201 50.659726 0.621069 2.239845 0.004219 -0.016500 145637.000000 0 0 1
32.730005 22.961976 -30.093331 50.041125 0.611770 2.216014 0.017109 -0.022650 -88659.300000 0 0 1
34.080325 23.611776 -29.670691 50.983668 0.605896 2.191939 0.023931 0.000279 282006.000000 0 0 1
34.508345 23.276776 -28.399271 50.390007 0.593424 2.169521 0.009356 -0.006594 -906202.000000 0 0 1
35.636765 23.996276 -28.058521 51.313555 0.592620 2.149340 0.013416 0.010552 -656946.000000 0 0 1
36.438435 23.500776 -26.812131 50.979765 0.572813 2.124612 0.002214 0.015438 -148520.000000 0 0 1
-36.229225 22.292276 -27.173241 50.476602 -0.551602 2.139255 0.003633 0.015969 -151505.000000 0 0 1
-36.182895 21.393976 -26.102601 49.479793 -0.533978 2.126499 -0.009824 0.008603 -528455.000000 0 0 1
-35.326974 20.113776 -26.302611 48.418865 -0.517586 2.145077 0.008056 0.013029 -429958.000000 0 0 1
-34.008075 20.338376 -25.895711 47.336947 -0.538981 2.149633 0.009967 0.013733 -455103.000000 0 0 1
-33.257385 19.137376 -25.961971 46.328358 -0.522159 2.165654 -0.002240 0.011622 -272289.000000 0 0 1
-31.882625 19.127876 -25.312601 44.978942 -0.540380 2.168524 0.005234 0.007038 -406173.000000 0 0 1
-31.851915 19.249576 -23.912601 44.236899 -0.543609 2.141896 0.013863 0.002041 -531303.000000 0 0 1
-30.528075 19.237276 -23.480901 43.051004 -0.562294 2.147687 0.030054 -0.002529 -633321.000000 0 0 1
-30.436795 19.708376 -22.024901 42.425404 -0.574629 2.116646 0.013013 -0.012123 -33403.200000 0 0 1
-31.053695 18.866976 -21.097301 42.016555 -0.545960 2.096843 0.008860 -0.001925 -35591.400000 0 0 1
-31.651815 19.514076 -20.003601 42.222987 -0.552480 2.064353 0.014030 0.001469 -561761.000000 0 0 1
-32.488225 18.506876 -19.173901 42.019373 -0.517803 2.044641 0.017104 0.003318 276504.000000 0 0 1
-33.224095 19.028976 -18.057301 42.332122 -0.520139 2.011485 0.009335 0.000850 472820.000000 0 0 1
-34.359403 19.793476 -18.409601 43.718002 -0.522639 2.005453 0.000150 0.001663 -678409.000000 0 0 1
-35.476306 19.970876 -17.370901 44.262314 -0.512720 1.974094 0.014582 -0.005122 -221649.000000 0 0 1
-35.216334 20.770776 -16.220601 43.985489 -0.532890 1.948484 0.024106 -0.015643 -361248.000000 0 0 1
-36.174555 20.494276 -15.250101 44.285205 -0.515452 1.922354 0.022061 -0.007523 -1092090.000000 0 0 1
-36.065275 21.249776 -13.887801 44.103606 -0.532443 1.891137 0.031183 -0.014034 -290635.000000 0 0 1
-36.540365 22.582476 -13.830301 45.126974 -0.553560 1.882284 0.038288 -0.017687 890397.000000 0 0 1
35.330985 22.686776 -14.061001 44.279567 0.570817 1.893942 0.046949 -0.011874 313408.000000 0 0 1
34.756285 24.108876 -14.417201 44.688846 0.606455 1.899285 0.048939 -0.014818 98566.100000 0 0 1
35.008015 25.104776 -13.481401 45.139330 0.622120 1.874087 0.037846 -0.015075 49727.300000 0 0 1
34.966545 26.402676 -13.981601 45.991801 0.646747 1.879687 0.014792 0.001772 280495.000000 0 0 1
36.394435 26.958476 -14.249901 47.480249 0.637542 1.875618 0.045726 -0.004539 251277.000000 0 0 1
-36.534855 26.679476 -15.584001 47.848210 -0.630739 1.902545 0.046294 -0.004922 167886.000000 0 0 1
-35.299258 27.348476 -15.825701 47.375412 -0.659161 1.911392 0.055302 -0.012532 -234392.000000 0 0 1
-35.001592 27.451376 -17.304601 47.729852 -0.665088 1.941802 0.049555 -0.010875 -192692.000000 0 0 1
-34.571775 26.276176 -17.926501 46.978767 -0.649900 1.962309 0.044823 -0.017518 -236589.000000 0 0 1
-33.251745 25.857776 -17.728001 45.701041 -0.660955 1.969162 0.049393 -0.017655 -669272.000000 0 0 1
-32.960055 24.525676 -18.440301 45.032419 -0.639716 1.992691 0.040417 -0.015552 -298652.000000 0 0 1
-32.710895 24.632676 -19.799501 45.483972 -0.645445 2.021176 0.019901 -0.007350 180526.000000 0 0 1
-32.422145 23.336776 -20.315501 44.816517 -0.623877 2.041265 0.018336 -0.009679 -262723.000000 0 0 1
-31.924675 23.284476 -21.769001 45.113647 -0.630158 2.074345 0.012313 0.007209 -334639.000000 0 0 1
-32.910775 23.538876 -22.722901 46.406121 -0.620877 2.082488 0.014329 0.008465 -172117.000000 0 0 1
-32.560015 23.085076 -23.945801 46.545427 -0.616741 2.111175 0.009878 0.014947 -496151.000000 0 0 1
-33.379325 23.688276 -25.024491 47.974357 -0.617186 2.119548 -0.011257 0.025569 -604522.000000 0 0 1
-32.995265 25.037376 -25.243421 48.505547 -0.649120 2.118143 -0.013728 0.028969 -61766.300000 0 0 1
-33.775485 25.668476 -26.239801 49.881673 -0.649854 2.124735 0.000333 0.023654 -50938.800000 0 0 1
-33.324565 27.113576 -26.581331 50.519698 -0.682992 2.124872 0.006867 0.022360 173951.000000 0 0 1
-32.129445 27.227976 -27.321631 50.200951 -0.703010 2.146286 -0.021551 0.028338 -545715.000000 0 0 1
-31.556505 28.499876 -27.206451 50.480164 -0.734546 2.139990 -0.012831 0.012381 925634.000000 0 0 1
-30.175535 28.544676 -27.969231 50.076335 -0.757632 2.163411 0.023368 0.006321 1031750.000000 0 0 1
-29.089145 27.931176 -27.240341 48.665852 -0.765093 2.164871 0.018506 0.006799 -152831.000000 0 0 1
-27.858655 28.024676 -27.874811 48.357960 -0.788369 2.185145 0.040078 0.005270 63261.200000 0 0 1
-27.056415 29.372776 -27.759151 48.635173 -0.826424 2.178231 0.045365 -0.019086 -705082.000000 0 0 1
-26.493075 29.659076 -26.532071 47.806847 -0.841721 2.159141 0.039941 -0.017766 -159945.000000 0 0 1
-27.380175 30.028476 -25.478981 47.964173 -0.831496 2.130823 0.015008 0.000556 -192234.000000 0 0 1
-26.661365 30.230076 -24.152601 46.989723 -0.848045 2.110635 -0.006667 -0.009533 189701.000000 0 0 1
-25.946705 31.463276 -24.112001 47.376765 -0.881195 2.104751 0.006063 -0.005086 173604.000000 0 0 1
-25.375305 31.859476 -22.888201 46.720468 -0.898208 2.082768 0.027118 0.001075 157575.000000 0 0 1
-24.839455 33.336776 -22.866901 47.447174 -0.930434 2.073669 0.028154 0.009473 538136.000000 0 0 1
-25.868775 -33.913968 -22.817201 48.373292 0.919168 2.062003 0.006390 -0.000350 310768.000000 0 0 1
-25.355065 -32.629768 -23.030801 47.307493 0.910205 2.079256 0.022724 0.011331 -27762.700000 0 0 1
16.888345 8.386676 -25.450111 31.674291 0.460920 2.503938 0.044795 -0.017047 -1084570.000000 0 0 1
15.641545 8.072176 -24.990201 30.566781 0.476423 2.527959 0.045734 -0.020950 -1070160.000000 0 0 1
15.306645 6.711876 -25.153831 30.200296 0.413245 2.555124 0.042153 -0.019790 -222960.000000 0 0 1
13.850445 6.256776 -24.940501 29.206346 0.424299 2.594309 0.029586 -0.016694 -243282.000000 0 0 1
13.476845 6.222376 -23.611101 27.889557 0.432548 2.580347 0.057462 -0.045582 236727.000000 0 0 1
12.111145 5.849976 -23.678801 27.232107 0.449975 2.625021 0.058978 -0.042964 177773.000000 0 0 1
11.308945 5.916676 -22.319901 25.711423 0.482024 2.622144 0.076344 -0.054858 176143.000000 0 0 1
11.778545 5.010376 -21.302901 24.852597 0.402194 2.600546 0.067139 -0.048116 160557.000000 0 1 0
11.303245 5.299976 -19.998601 23.575350 0.438451 2.583533 0.076642 -0.043291 -400685.000000 0 1 0
11.728845 6.593576 -19.308301 23.534051 0.512137 2.532978 0.079320 -0.046675 -325848.000000 0 1 0
11.267945 6.744676 -17.981901 22.266702 0.539369 2.510815 0.058062 -0.040067 -218717.000000 0 1 0
11.494445 8.042976 -17.442801 22.384437 0.610543 2.464245 0.060706 -0.040371 175868.000000 0 1 0
12.975245 8.375476 -17.127401 23.061948 0.573203 2.407844 0.066018 -0.037768 -48425.900000 0 1 0
13.493545 7.646676 -16.063501 22.328983 0.515568 2.373736 0.079311 -0.040203 -585113.000000 0 1 0
14.870045 7.851176 -15.992901 23.206294 0.485785 2.331129 0.069786 -0.036406 -932611.000000 0 1 0
15.360645 7.264476 -14.664901 22.445074 0.441756 2.282822 0.072469 -0.037023 -1450510.000000 0 1 0
16.741245 7.198176 -14.604901 23.353504 0.406070 2.246420 0.073543 -0.043083 -501207.000000 0 1 0
17.250145 7.666576 -13.362901 23.128143 0.418217 2.186798 0.074348 -0.040832 -165128.000000 0 1 0
17.535345 9.178776 -13.309701 23.851339 0.482227 2.162803 0.080972 -0.037834 -723236.000000 0 1 0
16.399845 9.981976 -13.155001 23.273350 0.546765 2.171519 0.076485 -0.031237 37547.000000 0 1 0
16.769545 11.304276 -13.053001 24.070420 0.593128 2.143949 0.094512 -0.040378 665948.000000 0 1 0
15.481545 12.199776 -12.917901 23.566606 0.667394 2.150940 0.095930 -0.028800 697774.000000 0 1 0
14.920745 12.221576 -11.589301 22.501277 0.686279 2.111863 0.093039 -0.026428 170643.000000 0 1 0
15.463745 13.260176 -10.762501 23.038904 0.708833 2.056855 0.090732 -0.019284 -249275.000000 0 1 0
14.990945 14.722776 -10.920301 23.679982 0.776373 2.050100 0.083232 -0.021494 712192.000000 0 1 0
13.856045 15.074976 -10.089201 22.826232 0.827506 2.028624 0.091066 -0.026117 843207.000000 0 1 0
13.508845 16.436876 -10.236201 23.610159 0.882866 2.019226 0.087909 -0.027913 -240313.000000 0 1 0
12.402845 16.871276 -9.276301 22.902408 0.936870 1.987815 0.081600 -0.025804 -77032.900000 0 1 0
12.834245 16.760876 -7.941701 22.554721 0.917306 1.930619 0.085437 -0.029190 200068.000000 0 1 0
11.836845 17.244376 -7.083001 22.082760 0.969244 1.897315 0.073121 -0.020307 77702.100000 0 1 0
12.200845 17.023176 -5.600701 21.679875 0.948937 1.832096 0.059034 -0.015217 423659.000000 0 1 0
13.306945 17.803876 -5.181901 22.823341 0.928949 1.799838 0.077287 -0.022112 505824.000000 0 1 0
13.901745 17.387876 -3.937501 22.607536 0.896356 1.745857 0.076799 -0.022418 20453.100000 0 1 0
15.043645 18.332776 -3.470301 23.967581 0.883628 1.716099 0.075146 -0.029792 -91028.400000 0 1 0
16.198745 18.183876 -4.264901 24.723310 0.843071 1.744169 0.084968 -0.039119 473333.000000 0 1 0
16.953345 19.407676 -4.395801 26.141860 0.852795 1.739751 0.063416 -0.030419 -117189.000000 0 0 1
18.210045 19.385576 -5.273901 27.114947 0.816656 1.766546 0.068945 -0.021096 76688.300000 0 0 1
19.309345 18.693576 -4.688901 27.281612 0.769196 1.743524 0.074337 -0.030343 144374.000000 0 0 1
19.608045 17.553176 -5.511101 26.887946 0.730158 1.777225 0.093451 -0.041177 308591.000000 0 0 1
20.714045 16.589576 -4.983101 27.002166 0.675281 1.756405 0.106277 -0.046244 1041970.000000 0 0 1
22.080445 16.917376 -5.244501 28.306332 0.653770 1.757150 0.090285 -0.043856 965943.000000 0 0 1
22.989945 16.078176 -4.527301 28.417279 0.610294 1.730793 0.102596 -0.049071 461680.000000 0 0 1
24.482545 16.440776 -4.736801 29.868569 0.591362 1.730057 0.104175 -0.042393 129089.000000 0 0 1
24.749345 17.641876 -4.055601 30.662905 0.619280 1.703449 0.108290 -0.045005 665518.000000 0 0 1
26.154845 17.781476 -3.849201 31.860213 0.597077 1.691907 0.098080 -0.034817 507689.000000 0 0 1
26.749645 19.030876 -3.122901 32.976814 0.618365 1.665638 0.097060 -0.034989 -15231.500000 0 0 1
26.781545 20.195676 -3.918001 33.770804 0.646113 1.687076 0.089534 -0.030082 308296.000000 0 0 1
27.255245 21.305176 -3.151001 34.737411 0.663477 1.661630 0.101652 -0.014138 -67126.800000 0 0 1
27.172545 22.630276 -3.953101 35.582350 0.694445 1.682123 0.073897 -0.011696 -201709.000000 0 0 1
28.180245 22.831976 -4.931601 36.602541 0.680937 1.705941 0.068107 -0.003212 187943.000000 0 0 1
28.287745 21.994776 -6.107401 36.349237 0.660893 1.739617 0.062118 -0.005117 -415884.000000 0 0 1
29.324145 22.456276 -7.112901 37.613603 0.653533 1.761046 0.048677 -0.002004 -322031.000000 0 0 1
28.835145 23.572976 -7.821201 38.056825 0.685326 1.777785 0.041483 0.000060 669861.000000 0 0 1
29.922545 24.367276 -8.297601 39.471167 0.683427 1.782596 0.028167 0.000495 377973.000000 0 0 1
30.858945 23.822376 -9.399801 40.101575 0.657418 1.807397 0.029938 -0.006322 -261841.000000 0 0 1
30.281345 23.600876 -10.681201 39.850336 0.662045 1.842147 0.027662 0.005604 -323208.000000 0 0 1
31.248345 23.268076 -11.642301 40.662090 0.640048 1.861178 0.020214 0.001534 -283494.000000 0 0 1
30.748045 22.881076 -13.024301 40.479851 0.639745 1.898371 0.018490 0.009108 -87264.500000 0 0 1
30.382345 23.898876 -13.968901 41.101987 0.666519 1.917564 0.019848 0.016144 45024.300000 0 0 1
30.171045 23.198476 -15.180201 40.974379 0.655487 1.950322 0.024968 0.011774 -180046.000000 0 0 1
30.235645 24.136076 -16.440701 42.036187 0.673683 1.972632 0.026693 0.014107 -445831.000000 0 0 1
31.524445 24.641476 -16.632301 43.331587 0.663459 1.964745 0.018591 0.016459 -462584.000000 0 0 1
31.575945 25.283076 -17.889001 44.229974 0.675172 1.987178 0.034733 0.011913 209676.000000 0 0 1
33.025845 25.753276 -18.165501 45.650006 0.662297 1.980056 0.024441 0.006210 114839.000000 0 0 1
33.867345 24.651176 -18.422801 45.761087 0.629190 1.985137 0.024681 0.010605 135038.000000 0 0 1
35.236445 25.065276 -18.349301 46.974163 0.618300 1.972107 0.035581 0.001546 246381.000000 0 0 1
36.155745 23.840376 -18.177001 46.968125 0.582941 1.968180 0.034050 -0.009518 -230268.000000 0 0 1
36.130645 22.898676 -19.202801 46.888383 0.564884 1.992749 0.025182 -0.003289 -348272.000000 0 0 1
-36.296626 23.308676 -20.206401 47.634421 -0.570853 2.008872 0.012187 0.004118 -812996.000000 0 0 1
-36.197326 22.336276 -21.434301 47.629664 -0.552876 2.037584 0.014071 0.002383 2884.230000 0 0 1
-35.674126 21.056176 -21.146801 46.510139 -0.533210 2.042799 -0.000503 0.005405 317829.000000 0 0 1
-35.376426 20.412276 -22.410701 46.587467 -0.523338 2.072643 0.009777 0.008553 103742.000000 0 0 1
-35.008926 18.940876 -22.390901 45.669838 -0.495930 2.083205 0.000297 0.007520 441603.000000 0 0 1
-36.152226 18.089876 -22.253401 46.145866 -0.463952 2.074007 -0.010584 0.004458 872746.000000 0 0 1
-35.755226 16.729976 -22.270801 45.324572 -0.437642 2.084450 -0.008488 0.005105 -157392.000000 0 0 1
36.261645 15.871976 -22.197501 45.382327 0.412584 2.081879 -0.011337 0.004306 -34841.400000 0 0 1
35.446645 15.903376 -23.362001 45.333929 0.421736 2.112191 0.031686 0.001011 329118.000000 0 0 1
34.288545 15.101776 -23.323301 44.133256 0.414869 2.127599 0.057053 0.002807 -229245.000000 0 0 1
34.428245 13.719776 -23.930901 44.116032 0.379216 2.144151 0.028546 -0.000303 -387639.000000 0 0 1
34.421545 13.636376 -25.298601 44.842086 0.377190 2.170225 0.031861 0.004732 196604.000000 0 0 1
34.954945 12.430776 -25.791861 45.183985 0.341675 2.178299 0.026668 0.011397 -226638.000000 0 0 1
34.801745 12.233376 -27.318771 45.903509 0.338025 2.208230 0.051349 0.007813 -394379.000000 0 0 1
33.484145 11.986076 -27.723841 45.093961 0.343751 2.232931 0.051227 0.004407 -206581.000000 0 0 1
32.906445 12.986276 -28.578371 45.477475 0.375879 2.250300 0.056247 0.005382 110848.000000 0 0 1
33.413445 13.085676 -30.074181 46.820397 0.373269 2.268332 0.049528 -0.003228 -141646.000000 0 0 1
34.703045 13.659776 -30.192921 47.984407 0.374993 2.251350 0.050476 0.006441 -4661.140000 0 0 1
34.990645 13.690976 -31.541241 49.057496 0.372963 2.269133 0.051953 -0.002825 -883394.000000 0 0 1
36.478245 13.961576 -31.771431 50.348901 0.365537 2.253671 0.055082 -0.000429 -167211.000000 0 0 1
-35.871826 12.914976 -31.514581 49.464667 -0.345583 2.261543 0.054052 0.003890 256880.000000 0 0 1
-35.574926 12.769376 -30.103641 48.320405 -0.344620 2.243369 0.034665 0.001458 -618202.000000 0 0 1
-34.496426 11.731276 -29.731671 47.027636 -0.327803 2.255208 0.045821 -0.007760 -34479.600000 0 0 1
-34.914726 10.401176 -29.959371 47.167642 -0.289531 2.259022 0.052489 -0.011810 367144.000000 0 0 1
-33.887726 9.469776 -29.642621 46.008039 -0.272495 2.270894 0.055732 -0.016786 178555.000000 0 0 1
-34.239426 7.970376 -30.008801 46.221135 -0.228711 2.277387 0.060761 -0.016307 -325106.000000 0 0 1
-34.286526 7.886976 -31.453631 47.192173 -0.226098 2.300302 0.064734 -0.021814 138214.000000 0 0 1
-34.639226 6.700776 -32.187651 47.757944 -0.191085 2.310372 0.068979 -0.021799 -636853.000000 0 0 1
-35.963526 6.011776 -31.936841 48.471419 -0.165632 2.290125 0.078737 -0.014047 -814256.000000 0 0 1
-35.994726 5.519776 -30.600131 47.565284 -0.152164 2.269635 0.077886 -0.017768 926859.000000 0 0 1
35.992345 4.952376 -30.293881 47.304272 0.136737 2.265821 0.072059 -0.008658 654912.000000 0 0 1
35.935945 4.296576 -28.916301 46.324995 0.118997 2.244910 0.075395 -0.015529 -265921.000000 0 0 1
-36.628326 3.107576 -28.835631 46.720284 -0.084638 2.235972 0.086800 -0.015555 272943.000000 0 0 1
36.291445 2.484376 -27.590171 45.655872 0.068350 2.219692 0.098873 -0.013902 554122.000000 0 0 1
-36.131626 1.143076 -27.327921 45.316843 -0.031626 2.218104 0.136806 -0.017739 1193540.000000 0 0 1
-34.760326 1.280976 -26.920031 43.984193 -0.036835 2.229432 0.131320 -0.011094 703799.000000 0 0 1
-34.156426 0.029176 -26.791081 43.409956 -0.000854 2.235930 0.146164 -0.013308 17213.600000 0 0 1
-32.787626 0.059376 -26.081911 41.896277 -0.001811 2.242774 0.126035 -0.011517 -69795.000000 0 0 1
-32.911426 0.122576 -24.694801 41.146205 -0.003724 2.214512 0.113025 -0.013910 -82474.200000 0 0 1
-31.672826 0.130176 -24.033401 39.759140 -0.004110 2.219903 0.118254 -0.010175 -262535.000000 0 0 1
-31.774426 -0.055424 -22.525201 38.948708 0.001744 2.187476 0.098600 -0.005712 -471595.000000 0 0 1
-32.179326 -1.314424 -22.138301 39.081212 0.040824 2.173011 0.111925 -0.015588 142377.000000 0 0 1
-32.386926 -1.365824 -20.745701 38.485875 0.042147 2.140102 0.108491 -0.008268 -350379.000000 0 0 1
-33.857526 -1.241224 -20.344301 39.519151 0.036644 2.111566 0.104482 -0.007163 -494365.000000 0 0 1
-34.749326 -2.273824 -20.686701 40.504636 0.065342 2.106823 0.099973 -0.011283 1243580.000000 0 0 1
-36.081526 -2.030924 -20.154901 41.378995 0.056228 2.079540 0.093443 -0.008752 1036750.000000 0 0 1
36.477745 -3.332724 -19.873701 41.673696 -0.091110 2.067908 0.100603 -0.008670 -419563.000000 0 0 1
35.993645 -4.050324 -21.005801 41.871127 -0.112057 2.096333 0.083667 -0.003147 109631.000000 0 0 1
-36.345826 -4.816424 -21.710401 42.609371 0.131749 2.105425 0.064726 -0.003775 -488227.000000 0 0 1
36.253745 -5.672624 -22.801101 43.201885 -0.155211 2.126781 0.065291 -0.008763 167159.000000 0 0 1
35.466245 -6.809024 -22.398501 42.496002 -0.189678 2.125949 0.072310 -0.000425 539873.000000 0 0 1
34.914745 -7.649024 -23.392001 42.716890 -0.215670 2.150296 0.070464 -0.000168 -167245.000000 0 0 1
33.569345 -7.186124 -23.956901 41.862565 -0.210885 2.180074 0.045614 0.007541 -662135.000000 0 0 1
33.488245 -6.038224 -24.806201 42.110216 -0.178392 2.200714 0.043484 0.001833 -1110040.000000 0 0 1
32.147045 -5.764524 -24.951501 41.100360 -0.177432 2.223186 0.025649 0.003738 -796999.000000 0 0 1
31.973445 -4.593324 -25.996971 41.463747 -0.142684 2.248468 0.054989 -0.024909 54364.700000 0 0 1
32.031245 -5.106224 -27.320201 42.408343 -0.158084 2.270796 0.053088 -0.026454 200867.000000 0 0 1
31.589045 -4.111024 -28.191311 42.538433 -0.129413 2.295249 0.057854 -0.023531 -39902.700000 0 0 1
31.372945 -4.519924 -29.659831 43.409641 -0.143086 2.323007 0.065046 -0.022718 58567.900000 0 0 1
30.866545 -3.424024 -30.387631 43.449691 -0.110478 2.345319 0.059064 -0.039018 -54959.700000 0 0 1
30.230745 -3.793524 -31.586651 43.886277 -0.124833 2.374222 0.065133 -0.041008 -389324.000000 0 0 1
29.806645 -2.529624 -32.419101 44.111599 -0.084665 2.396365 0.072842 -0.044558 255163.000000 0 0 1
28.763245 -1.666424 -31.869131 42.962108 -0.057871 2.406541 0.056812 -0.039784 1686540.000000 0 0 1
27.425045 -2.181524 -31.772461 42.028341 -0.079378 2.427942 0.062176 -0.040768 1051860.000000 0 0 1
26.647845 -2.609924 -33.079321 42.557735 -0.097630 2.461129 0.055655 -0.038328 -615006.000000 0 0 1
27.116545 -3.840524 -33.561631 43.317891 -0.140695 2.457156 0.063381 -0.037811 126569.000000 0 0 1
26.423645 -4.221424 33.496702 42.872584 -0.158421 0.674037 0.062323 -0.030423 -205624.000000 0 0 1
27.044645 -5.467424 32.883506 42.925872 -0.199474 0.698118 0.048367 -0.034294 -128474.000000 0 0 1
28.372045 -5.485124 32.406046 43.419020 -0.190972 0.728226 0.048475 -0.024069 -20959.100000 0 0 1
28.633945 -4.936524 31.101472 42.562585 -0.170723 0.751415 0.057927 -0.028469 -329212.000000 0 0 1
28.975545 -3.433624 31.052792 42.610419 -0.117951 0.754286 0.048184 -0.024126 -1113290.000000 0 0 1
30.180945 -3.199024 31.678692 43.870978 -0.105601 0.763981 0.060573 -0.033978 -820299.000000 0 0 1
30.401845 -1.840324 31.948732 44.140462 -0.060460 0.761507 0.061471 -0.030033 -56079.400000 0 0 1
31.788245 -1.611624 32.576864 45.544944 -0.050655 0.773788 0.067735 -0.037373 -465832.000000 0 0 1
32.857645 -1.994624 31.776242 45.752955 -0.060631 0.803047 0.072699 -0.034239 221604.000000 0 0 1
34.105645 -1.549924 32.368432 47.045857 -0.045414 0.812041 0.091509 -0.033763 723198.000000 0 0 1
35.256745 -2.458424 31.884672 47.599519 -0.069616 0.836786 0.112203 -0.029070 -303514.000000 0 0 1
35.756445 -2.087324 30.639092 47.134215 -0.058310 0.863160 0.102095 -0.026887 -408657.000000 0 0 1
-36.345126 -2.759124 30.290002 47.392670 0.075769 0.877432 0.097458 -0.027468 -182807.000000 0 0 1
-35.793226 -2.187724 28.972732 46.101630 0.061045 0.891233 0.093421 -0.032855 383589.000000 0 0 1
36.565145 -2.299724 27.857092 46.025168 -0.062811 0.920707 0.087076 -0.031389 251311.000000 0 0 1
-36.144826 -1.713824 26.733442 44.989582 0.047380 0.934508 0.080840 -0.018215 262422.000000 0 0 1
-26.476665 14.990376 12.601799 32.932211 -0.515175 1.178124 0.067882 -0.014299 -928196.000000 0 0 1
-27.602795 14.329576 13.035899 33.722185 -0.478838 1.173890 0.066463 -0.009934 -902875.000000 0 0 1
-28.493595 15.240876 13.592299 35.055954 -0.491167 1.172627 0.065574 -0.009683 -721555.000000 0 0 1
-29.731475 14.482676 14.090799 35.948006 -0.453287 1.168017 0.066224 -0.008693 -522995.000000 0 0 1
-30.777815 15.377876 14.360099 37.282240 -0.463361 1.175401 0.088136 -0.007483 -308489.000000 0 0 1
-31.977105 14.648476 14.682299 38.114079 -0.429563 1.175350 0.101336 -0.015582 374121.000000 0 0 1
-32.955935 15.637976 15.333399 39.569598 -0.443050 1.172873 0.096787 -0.014099 -334127.000000 0 0 1
-32.488275 16.077976 16.591199 39.865489 -0.459548 1.141557 0.091952 -0.012483 -503406.000000 0 0 1
-33.535335 16.226076 17.494399 41.157724 -0.450644 1.131771 0.123570 -0.031537 -349942.000000 0 0 1
-33.064495 16.674776 18.878899 41.565874 -0.467090 1.099331 0.130236 -0.016871 -76648.800000 0 0 1
-32.312725 15.672376 19.521299 40.875625 -0.451593 1.072900 0.127766 -0.017817 -468959.000000 0 0 1
-31.419195 16.172376 20.460899 40.833319 -0.475361 1.045946 0.115517 -0.017225 -134655.000000 0 0 1
-32.029935 16.547876 21.857599 42.160451 -0.476869 1.025773 0.109981 -0.021633 -273308.000000 0 0 1
-32.946575 17.652376 21.784299 43.262442 -0.491866 1.043107 0.118687 -0.020015 546015.000000 0 0 1
-33.417895 18.081776 23.045099 44.438530 -0.495970 1.025603 0.116850 -0.031525 -644490.000000 0 0 1
-34.264701 17.107676 23.913299 45.150728 -0.463071 1.012629 0.107512 -0.024926 -242175.000000 0 0 1
-35.462081 16.560076 23.433499 45.617148 -0.436884 1.031305 0.098609 -0.023048 222540.000000 0 0 1
-36.543025 17.416076 23.089499 46.602976 -0.444746 1.052442 0.076712 -0.026483 -615127.000000 0 0 1
35.434135 16.639976 22.905199 45.355428 0.439036 1.041396 0.063919 -0.031584 -526215.000000 0 0 1
34.966625 16.239976 24.163799 45.500449 0.434799 1.010937 0.059615 -0.023095 381629.000000 0 0 1
33.937175 15.249976 23.965699 44.256619 0.422321 0.998556 0.062559 -0.024001 417748.000000 0 0 1
33.535665 14.588376 25.261599 44.447834 0.410319 0.966306 0.055749 -0.023743 -453102.000000 0 0 1
32.936225 15.425976 26.274399 44.867580 0.438016 0.945178 0.066070 -0.022261 702612.000000 0 0 1
32.473635 14.723176 27.435399 44.988999 0.425668 0.914957 0.068339 -0.014781 923697.000000 0 0 1
31.460185 13.510376 27.284699 43.780456 0.405628 0.897948 0.070430 -0.013789 614683.000000 0 0 1
32.244165 12.301976 27.133499 43.900473 0.364479 0.904513 0.069950 -0.017218 369807.000000 0 0 1
31.451735 11.207776 26.828999 42.832477 0.342319 0.893908 0.077144 -0.019351 -534933.000000 0 0 1
32.254905 10.027776 26.349499 42.839599 0.301419 0.908317 0.080379 -0.022032 -264622.000000 0 0 1
33.164065 9.541076 27.325899 44.018088 0.280128 0.901049 0.081995 -0.018481 -8490.370000 0 0 1
33.651125 8.312576 26.974099 43.921511 0.242174 0.909496 0.082733 -0.016464 -371025.000000 0 0 1
34.704325 7.819176 28.014699 45.280824 0.221608 0.903725 0.082667 -0.014762 316417.000000 0 0 1
35.945135 8.504376 28.012499 46.358141 0.232321 0.921956 0.082215 -0.011958 -129701.000000 0 0 1
-36.361255 7.750776 28.660399 46.942879 -0.210017 0.914057 0.065752 -0.013332 -906186.000000 0 0 1
-35.063809 8.466576 28.969099 46.264050 -0.236927 0.894167 0.049373 -0.011573 -567528.000000 0 0 1
-34.363811 8.689676 27.765799 45.025788 -0.247681 0.906298 0.039223 -0.012780 -244203.000000 0 0 1
-33.142205 9.331976 28.055299 44.413864 -0.274467 0.887079 0.065790 -0.008756 -17729.800000 0 0 1
-32.466195 9.943276 26.808499 43.262203 -0.297195 0.902468 0.075607 -0.012630 -87256.800000 0 0 1
-31.899345 9.003576 25.893499 42.060741 -0.275094 0.907622 0.069637 -0.014597 459544.000000 0 0 1
-31.053235 9.657176 24.946399 40.986428 -0.301507 0.916438 0.078055 -0.005075 192034.000000 0 0 1
-30.197815 8.705476 24.052099 39.575205 -0.280672 0.917564 0.075650 -0.008236 136089.000000 0 0 1
-29.245305 9.411476 23.301299 38.559231 -0.311345 0.921911 0.071419 -0.015692 506267.000000 0 0 1
-28.402895 8.481776 22.566499 37.254689 -0.290194 0.920106 0.055392 0.001140 691814.000000 0 0 1
-27.298315 9.106476 21.661899 36.018937 -0.321983 0.925540 0.047826 0.002089 -650298.000000 0 0 1
-26.208085 9.630976 22.402699 35.798050 -0.352163 0.894630 0.052037 -0.002756 1378880.000000 0 0 1
-25.219695 10.302176 21.529299 34.722883 -0.387810 0.902013 0.042556 0.007540 1236880.000000 0 0 1
-24.447855 9.550076 20.431199 33.261622 -0.372403 0.909352 0.029573 0.008049 -770483.000000 0 0 1
-25.264205 9.420576 19.272899 33.143204 -0.356913 0.950220 0.023950 0.010492 421508.000000 0 0 1
-24.747655 8.587676 18.226299 31.912264 -0.334008 0.962905 0.027337 -0.001185 -110739.000000 0 0 1
-24.713855 7.065076 18.429299 31.627978 -0.278448 0.948762 0.020477 0.009292 -322097.000000 0 0 1
-23.636055 6.744976 19.296699 31.249326 -0.277980 0.905226 0.033687 0.012260 614415.000000 0 0 1
-23.503855 5.386576 19.718499 31.149087 -0.225288 0.885327 0.056968 0.006386 -326156.000000 0 0 1
-23.215255 4.280776 18.609699 30.059841 -0.182347 0.903215 0.043427 -0.002805 -781563.000000 0 0 1
-24.312355 4.028176 17.779599 30.388007 -0.164193 0.945810 0.079088 -0.003750 83225.800000 0 0 1
-24.058455 3.186576 16.707099 29.463379 -0.131685 0.967881 0.059547 -0.007217 -243773.000000 0 0 1
-24.160355 1.645576 17.040999 29.611254 -0.068006 0.957592 0.080084 -0.015550 -49039.200000 0 0 1
-22.935755 1.148676 17.551099 28.903450 -0.050041 0.918224 0.052509 -0.006613 471044.000000 0 0 1
-23.150955 -0.086724 18.211199 29.455424 0.003746 0.904266 0.089800 -0.017942 312747.000000 0 0 1
-21.873055 -0.999124 18.394599 28.597029 0.045647 0.872081 0.062961 -0.008033 546619.000000 0 0 1
-21.024655 -0.380624 19.348099 28.574988 0.018102 0.826983 0.047929 -0.006649 90874.600000 0 0 1
-19.854855 -1.158524 19.551699 27.889539 0.058284 0.793941 0.039239 0.001456 647437.000000 0 0 1
-18.843455 -0.695124 20.648499 27.962824 0.036873 0.740062 0.048018 0.001104 613951.000000 0 0 1
-19.186755 -1.140624 21.941699 29.169689 0.059379 0.719388 0.058613 0.004236 -310728.000000 0 0 1
-18.246655 -0.652524 22.854799 29.252488 0.035746 0.674060 0.053804 -0.002508 -814970.000000 0 0 1
-18.566355 -0.970924 24.330499 30.620670 0.052247 0.652485 0.067186 -0.005663 724926.000000 0 0 1
-19.461455 -0.049524 25.009399 31.689442 0.002545 0.661286 0.061056 -0.012395 -406391.000000 0 0 1
-20.775555 -0.169724 24.598899 32.198732 0.008169 0.701351 0.114040 -0.021077 -1515700.000000 0 0 1
-21.736855 0.866976 25.145899 33.249944 -0.039864 0.713205 0.092279 -0.030315 -378275.000000 0 0 1
-21.459155 2.106576 24.492199 32.631286 -0.097853 0.721866 0.082980 -0.023915 768763.000000 0 0 1
-22.631255 2.918676 24.397899 33.405836 -0.128259 0.751964 0.075086 -0.020136 149809.000000 0 0 1
-22.306455 4.237776 23.702299 32.822792 -0.187742 0.763921 0.074889 -0.004674 182697.000000 0 0 1
-21.833255 4.103076 22.325499 31.495304 -0.185761 0.782927 0.076129 -0.005213 1090520.000000 0 0 1
-20.449655 3.776976 22.154899 30.385745 -0.182638 0.753759 0.063041 -0.000077 69611.500000 0 0 1
-20.207155 2.973276 20.906899 29.227862 -0.146091 0.773733 0.062154 -0.001572 -234237.000000 0 0 1
-19.679455 3.590976 19.754799 28.114554 -0.180488 0.791676 0.048013 -0.002831 336757.000000 0 0 1
-19.536955 2.707376 18.677599 27.163859 -0.137700 0.812632 0.065372 -0.008897 132112.000000 0 0 1
-18.947555 3.334776 17.337599 25.898319 -0.174216 0.837330 0.041261 -0.003733 1163780.000000 0 0 1
-17.530455 3.592876 17.475499 25.012371 -0.202151 0.797254 0.044960 -0.016901 1126070.000000 0 0 1
-17.095355 4.454776 16.402399 24.106740 -0.254915 0.822478 0.048549 -0.018583 689529.000000 0 1 0
-15.574455 4.828976 16.539699 23.225940 -0.300658 0.778280 0.054905 -0.013797 537181.000000 0 1 0
-15.212755 5.806376 17.477899 23.887630 -0.364613 0.750025 0.056945 -0.016251 159809.000000 0 1 0
-15.830255 7.118476 17.454699 24.615771 -0.422584 0.782595 0.056393 -0.024216 -548898.000000 0 1 0
-15.348855 8.200676 16.445699 23.943673 -0.490699 0.813651 0.040990 -0.011882 -172161.000000 0 1 0
-15.717855 7.901676 15.075799 23.168236 -0.465821 0.862277 0.035729 -0.012322 -509683.000000 0 1 0
-17.058655 8.089876 14.804399 23.991958 -0.442827 0.905799 0.033084 -0.008577 -1033840.000000 0 1 0
-17.462955 7.411776 13.480799 23.272756 -0.401387 0.952985 0.034641 -0.013166 -129941.000000 0 1 0
-17.454955 6.014476 13.617999 22.941214 -0.331830 0.935266 0.041746 -0.014146 559124.000000 0 1 0
-18.092555 5.333176 12.510899 22.634176 -0.286653 0.985143 0.053492 -0.016689 -98665.200000 0 1 0
-17.557455 3.947976 12.360699 21.832032 -0.221182 0.968941 0.036620 -0.017031 -232015.000000 0 1 0
-17.782255 3.174976 13.567499 22.591284 -0.176686 0.926591 0.030006 -0.016519 327310.000000 0 1 0
-17.574955 1.763976 13.354999 22.143773 -0.100034 0.923409 0.023945 -0.021897 -596949.000000 0 1 0
-18.430555 0.875676 14.321699 23.357295 -0.047477 0.910745 0.030039 -0.027687 234445.000000 0 1 0
-19.816755 0.990176 14.069499 24.323549 -0.049925 0.953992 0.043974 -0.019164 -449826.000000 0 1 0
-20.553055 0.339076 15.040199 25.470584 -0.016496 0.939127 0.050002 -0.021374 -276498.000000 0 0 1
-21.993955 0.117776 14.515999 26.352650 -0.005355 0.987430 0.058634 -0.027834 -311849.000000 0 0 1
-22.115155 -0.805724 13.479599 25.911945 0.036417 1.023702 0.072884 -0.032727 -492689.000000 0 0 1
-23.425855 -1.014524 13.093399 26.855857 0.043281 1.061522 0.124352 -0.041494 -843223.000000 0 0 1
-23.510855 -2.219324 12.161099 26.562719 0.094117 1.095248 0.116217 -0.038701 -99439.800000 0 0 1
-23.130455 -3.474724 12.775299 26.651453 0.149108 1.070886 0.085351 -0.031615 469012.000000 0 0 1
-23.239055 -4.558524 11.805399 26.461317 0.193698 1.108351 0.092552 -0.028212 -210174.000000 0 0 1
-22.911755 -5.945024 12.292199 26.671895 0.253876 1.091824 0.086295 -0.022878 12046.600000 0 0 1
-23.858455 -6.346324 13.266299 28.026709 0.259979 1.077712 0.090761 -0.023110 348608.000000 0 0 1
-23.851555 -7.765524 13.520399 28.495635 0.314754 1.076432 0.081998 -0.028534 -591281.000000 0 0 1
-24.786255 -8.370624 14.548399 29.934624 0.325686 1.063283 0.098435 -0.020484 217797.000000 0 0 1
-26.118315 -7.863324 14.440399 30.862977 0.292434 1.083897 0.145796 -0.025600 870142.000000 0 0 1
-26.941295 -8.303224 15.520399 32.181667 0.298960 1.067547 0.144586 -0.021212 507428.000000 0 0 1
-28.339035 -7.592324 15.726999 33.287878 0.261763 1.078723 0.162904 -0.025106 985765.000000 0 0 1
-29.415315 -7.875024 14.835499 33.872833 0.261584 1.117450 0.136229 -0.020544 698585.000000 0 0 1
-29.933305 -9.175124 14.742299 34.605217 0.297427 1.130714 0.130878 -0.030097 -786773.000000 0 0 1
-30.360405 -9.931324 16.041099 35.744961 0.316143 1.105413 0.126192 -0.027063 -895514.000000 0 0 1
-29.375415 -10.151724 17.036799 35.443265 0.332737 1.069369 0.127839 -0.012012 -60546.400000 0 0 1
-29.729405 -11.144124 17.987799 36.490957 0.358641 1.055332 0.105687 -0.011032 529618.000000 0 0 1
-28.648755 -11.331024 19.153199 36.276553 0.376634 1.014579 0.104185 -0.014757 749890.000000 0 0 1
-27.521655 -11.965224 18.632899 35.324114 0.410106 1.015160 0.077352 -0.020567 -867553.000000 0 0 1
-26.417755 -12.072924 19.469499 34.967337 0.428660 0.980279 0.076556 -0.024064 -435526.000000 0 0 1
-25.299185 -12.950324 18.937699 34.152542 0.473112 0.983030 0.046595 -0.012134 -702600.000000 0 0 1
-24.874655 -12.457824 17.737999 32.993673 0.464307 1.003187 0.044080 -0.013857 458561.000000 0 0 1
-23.777255 -13.263024 17.252799 32.232355 0.508814 1.005977 0.035194 -0.021055 289480.000000 0 0 1
-23.442755 -12.921024 15.738799 31.051979 0.503744 1.039266 0.036281 -0.021732 -831152.000000 0 0 1
-22.290255 -12.185524 15.598099 29.810118 0.500287 1.020138 0.043593 -0.025826 -1019300.000000 0 0 1
-22.155955 -11.901924 14.228699 28.896332 0.492954 1.055946 0.054136 -0.018385 -77306.100000 0 0 1
-20.954155 -11.072324 13.745999 27.397545 0.486114 1.045206 0.044456 -0.024913 -622970.000000 0 0 1
-21.181555 -9.679224 13.565099 26.951022 0.428631 1.043355 0.041065 -0.027455 395463.000000 0 0 1
-19.940955 -8.988424 13.484499 25.695626 0.423479 1.018342 0.047342 -0.024902 -146810.000000 0 0 1
-19.284955 -8.901924 12.118899 24.454477 0.432458 1.052306 0.050661 -0.021814 -595845.000000 0 1 0
-18.700355 -10.076924 11.694199 24.248752 0.494252 1.067564 0.045148 -0.025285 -137830.000000 0 1 0
-18.429455 -10.067324 10.304999 23.392068 0.499969 1.114603 0.055153 -0.020840 -176260.000000 0 1 0
-17.837255 -11.447224 9.716399 23.315553 0.570560 1.140946 0.044181 -0.020672 832546.000000 0 1 0
-16.456055 -11.769324 9.716399 22.443867 0.620853 1.123067 0.062147 -0.027562 635762.000000 0 1 0
-15.750255 -11.744924 10.952599 22.493848 0.640742 1.062242 0.056472 -0.025135 -1265330.000000 0 1 0
-14.344555 -12.249924 10.866499 21.769421 0.706799 1.048163 0.057595 -0.024436 -1130110.000000 0 1 0
-14.142055 -13.652224 10.986999 22.518772 0.767777 1.061109 0.060868 -0.019860 506090.000000 0 1 0
-12.786355 -14.053424 10.800399 21.854936 0.832572 1.053898 0.064098 -0.017775 401263.000000 0 1 0
-12.463655 -15.550424 10.614299 22.579232 0.895142 1.081402 0.075405 -0.020361 106068.000000 0 1 0
-12.819055 -16.009324 9.308499 22.522761 0.895614 1.144729 0.061890 -0.022846 -43256.900000 0 1 0
-12.562655 -17.402924 9.256899 23.374607 0.945543 1.163614 0.068683 -0.016939 71366.100000 0 1 0
-12.906055 -18.138224 7.959399 23.641350 0.952368 1.227415 0.063658 -0.017926 -446397.000000 0 1 0
-12.095755 -17.851924 6.861099 22.629033 0.975290 1.262749 0.059635 -0.021226 -352702.000000 0 1 0
-12.404555 -18.640024 5.740999 23.114553 0.983616 1.319797 0.047589 -0.008057 -67648.800000 0 1 0
-11.457655 -18.351724 4.550799 22.108220 1.012674 1.363472 0.052536 -0.005096 -75118.800000 0 1 0
-11.641255 -19.160024 3.456099 22.684134 1.024822 1.417843 0.064946 -0.003853 -452266.000000 0 1 0
-10.775455 -18.901824 2.439599 21.893858 1.052671 1.459136 0.068940 -0.018860 -669011.000000 0 1 0
-10.942555 -19.915824 1.316899 22.762113 1.068383 1.512909 0.077746 -0.019048 19617.000000 0 1 0
-10.757755 -21.228124 1.689399 23.858261 1.101748 1.499927 0.062917 -0.020289 -273443.000000 0 1 0
-11.052055 -22.250724 0.690799 24.853970 1.109788 1.542998 0.065677 -0.025107 -7855.790000 0 1 0
-10.279655 -22.433224 -0.661101 24.685176 1.141117 1.597581 0.076814 -0.024388 -21727.500000 0 1 0
-10.616455 -21.526324 -1.746101 24.065340 1.112616 1.643417 0.087326 -0.039744 178184.000000 0 1 0
-11.716855 -21.990624 -2.508701 25.043279 1.081245 1.671139 0.108608 -0.021698 123324.000000 0 0 1
-13.028155 -21.196424 -2.494201 25.004845 1.019682 1.670711 0.123819 -0.011844 -303958.000000 0 0 1
-13.444055 -21.048124 -1.148901 25.001722 1.002385 1.616765 0.109577 -0.015728 171656.000000 0 0 1
-14.448555 -20.064024 -0.942701 24.742968 0.946693 1.608905 0.115873 0.001403 330865.000000 0 1 0
26.543745 -20.407524 -3.646701 33.679902 -0.655441 1.679284 0.084961 -0.038368 273111.000000 0 0 1
25.298545 -20.381524 -2.950701 32.620998 -0.678171 1.661374 0.056983 -0.033814 455015.000000 0 0 1
25.194845 -21.505724 -2.106701 33.192085 -0.706567 1.634309 0.040633 -0.028359 -1247680.000000 0 0 1
23.838245 -21.800724 -1.520601 32.339538 -0.740783 1.617834 0.025995 -0.018510 -1361760.000000 0 0 1
22.969045 -22.339024 -2.457901 32.134876 -0.771494 1.647358 0.036239 -0.022974 -397693.000000 0 0 1
21.856345 -22.838524 -1.723101 31.658601 -0.807370 1.625251 0.020224 -0.013583 914736.000000 0 0 1
20.768145 -23.525824 -2.690401 31.496325 -0.847576 1.656320 0.033117 -0.014793 939105.000000 0 0 1
20.215045 -22.660824 -3.662901 30.587216 -0.842380 1.690837 0.041320 -0.020536 -459631.000000 0 0 1
19.228845 -23.318624 -4.407201 30.543904 -0.881226 1.715592 0.048934 -0.012422 -397990.000000 0 0 1
18.358745 -22.412724 -5.253301 29.444369 -0.884504 1.750171 0.041464 0.008401 -497772.000000 0 0 1
17.421745 -21.555224 -4.621401 28.098082 -0.891053 1.736021 0.040209 0.004607 381252.000000 0 0 1
17.911945 -20.641924 -3.639501 27.571230 -0.856090 1.703186 0.036059 -0.005871 -186651.000000 0 0 1
16.762445 -20.070224 -2.729701 26.291533 -0.874963 1.674808 0.058131 0.005443 282736.000000 0 0 1
16.200045 -21.050524 -1.917901 26.631642 -0.914882 1.642875 0.047445 0.002975 66148.900000 0 0 1
15.330445 -20.424324 -1.007001 25.557574 -0.926913 1.610208 0.059966 0.004674 -361262.000000 0 0 1
15.049745 -21.148324 0.344199 25.958908 -0.952309 1.557537 0.056393 -0.002301 -6836.770000 0 0 1
14.211045 -22.277224 0.209699 26.424845 -1.002961 1.562861 0.067334 -0.005995 -220824.000000 0 0 1
13.509445 -22.487824 1.414399 26.271807 -1.029829 1.516933 0.062403 -0.006007 259883.000000 0 0 1
12.570445 -23.724824 1.474099 26.889706 -1.083560 1.515949 0.065006 -0.011921 288364.000000 0 0 1
13.270545 -24.897024 1.681299 28.262978 -1.081085 1.511274 0.057913 -0.008415 -244319.000000 0 0 1
12.350745 -25.906994 1.476899 28.738379 -1.125934 1.519383 0.050595 -0.009513 -137215.000000 0 0 1
12.698745 -27.302444 2.145299 30.187478 -1.135445 1.499671 0.055940 -0.012113 -26149.600000 0 0 1
12.157745 -27.413044 3.440199 30.184776 -1.153359 1.456577 0.069649 -0.021173 214438.000000 0 0 1
12.356645 -28.674584 4.058299 31.486318 -1.163916 1.441546 0.065157 -0.018565 -151538.000000 0 0 1
12.037945 -28.576924 5.548499 31.501405 -1.172109 1.393738 0.059194 -0.019325 -86340.200000 0 0 1
12.307845 -29.790754 6.212399 32.826300 -1.179011 1.380397 0.046156 -0.017844 -71347.900000 0 0 1
12.219345 -29.756374 7.619099 33.057599 -1.181146 1.338226 0.035753 -0.013174 -2452.490000 0 0 1
12.173945 -31.247104 8.191599 34.520845 -1.199285 1.331217 0.031689 -0.013266 -243560.000000 0 0 1
11.961945 -31.335204 9.557899 34.876017 -1.206129 1.293191 0.023389 -0.013844 -101112.000000 0 0 1
11.414245 -32.618984 9.773699 35.913901 -1.234187 1.295177 0.018105 -0.013878 101261.000000 0 0 1
10.958345 -33.012084 11.187699 36.538303 -1.250292 1.259607 0.023448 -0.016457 172725.000000 0 0 1
12.104145 -33.465784 11.938399 37.536574 -1.223748 1.247127 0.031509 -0.021113 673834.000000 0 0 1
11.929245 -33.784834 13.307799 38.220667 -1.231367 1.215164 0.029594 -0.017911 -89229.300000 0 0 1
10.982145 33.279459 13.576899 37.582737 1.252051 1.201184 0.029582 -0.015513 -3163.800000 0 0 1
11.457245 32.105970 13.034799 36.496134 1.228026 1.205575 0.044139 -0.022709 -120064.000000 0 0 1
10.484445 31.072770 13.031699 35.288324 1.245376 1.192549 0.038492 -0.016285 -20482.400000 0 0 1
10.650145 30.059000 11.912799 34.042383 1.230289 1.213289 0.036694 -0.013697 -259497.000000 0 0 1
10.295045 30.465890 10.562699 33.848619 1.244923 1.253439 0.031863 -0.013400 -295920.000000 0 0 1
11.092145 31.455040 10.015899 34.824897 1.231776 1.279069 0.017177 -0.014498 -264430.000000 0 0 1
10.522245 31.811030 8.625699 34.598583 1.251351 1.318831 0.011016 -0.011974 -382067.000000 0 0 1
9.330745 32.518048 8.689499 34.928408 1.291363 1.319376 0.009943 -0.010884 -591737.000000 0 0 1
8.781745 32.770771 7.365099 34.717246 1.308973 1.357027 0.007486 -0.008006 -80382.700000 0 0 1
9.339745 33.980349 6.607899 35.854697 1.302563 1.385440 0.018478 -0.000815 -214037.000000 0 0 1
8.746745 -33.106534 7.074899 34.965730 -1.312498 1.367052 0.020669 -0.004199 -55210.800000 0 0 1
9.269845 -32.001914 6.387499 33.924219 -1.288848 1.381378 0.023498 -0.013777 -271066.000000 0 0 1
8.440545 -30.724434 6.619499 32.543070 -1.302693 1.365960 0.032469 -0.013671 394.035000 0 0 1
8.644445 -30.302304 7.941499 32.496514 -1.292904 1.323916 0.032320 -0.011715 115165.000000 0 0 1
7.989245 -29.070824 8.231299 31.252122 -1.302597 1.304268 0.058040 -0.011736 -13985.000000 0 0 1
8.737745 -27.820594 7.699699 30.159890 -1.266477 1.312643 0.071366 -0.015213 -419296.000000 0 0 1
9.691245 -27.327194 8.633899 30.252933 -1.229996 1.281383 0.055973 -0.013351 333053.000000 0 0 1
10.530745 -26.287554 8.111099 29.457121 -1.189774 1.291840 0.062002 -0.016189 -78760.700000 0 0 1
9.953145 -25.047324 7.397799 27.949257 -1.192556 1.302917 0.073597 -0.015981 -697233.000000 0 0 1
9.703345 -25.424544 6.049199 27.877502 -1.206206 1.352064 0.079055 -0.017910 -663571.000000 0 0 1
8.972545 -24.568424 5.306299 26.688402 -1.220639 1.370638 0.079847 -0.017550 -411767.000000 0 0 1
8.756045 -25.089614 3.854699 26.851736 -1.235021 1.426744 0.070092 -0.018687 271795.000000 0 0 1
7.785945 -26.136464 3.797199 27.534603 -1.281271 1.432449 0.066136 -0.018016 8153.840000 0 0 1
8.285745 -27.456094 3.808999 28.930937 -1.277706 1.438755 0.068280 -0.022507 189193.000000 0 0 1
7.180545 -28.464814 3.417299 29.554759 -1.323691 1.454911 0.061321 -0.016090 815743.000000 0 0 1
6.130345 -28.787554 4.348599 29.752558 -1.360979 1.424112 0.056120 -0.014616 830450.000000 0 0 1
4.959145 -29.380584 3.816499 30.039598 -1.403583 1.443403 0.049691 -0.006487 652359.000000 0 0 1
5.085745 -30.917044 4.047499 31.592889 -1.407760 1.442329 0.047315 -0.006732 -204026.000000 0 0 1
5.966145 -31.552414 3.168299 32.267442 -1.383916 1.472449 0.056296 -0.013177 -181600.000000 0 0 1
6.231245 -32.868644 3.611899 33.648506 -1.383440 1.463247 0.045054 -0.008758 50726.000000 0 0 1
7.270145 -33.673944 2.804399 34.563769 -1.358162 1.489570 0.041084 -0.007137 -68590.800000 0 0 1
6.861245 -33.925934 1.492799 34.644972 -1.371246 1.527695 0.060778 -0.016341 151892.000000 0 0 1
7.831945 33.552382 0.776699 34.463096 1.341478 1.548257 0.048128 -0.015859 -435845.000000 0 0 1
7.423945 33.159593 -0.674901 33.987189 1.350543 1.590655 0.075489 -0.015835 158854.000000 0 0 1
6.383845 32.192545 -0.704601 32.826969 1.375034 1.592262 0.049173 -0.010423 287248.000000 0 0 1
5.093945 32.769051 -0.511701 33.166562 1.416581 1.586225 0.055146 -0.017799 174250.000000 0 0 1
3.962945 31.792640 -0.038301 32.038701 1.446786 1.571992 0.055885 -0.019861 437081.000000 0 0 1
3.815545 30.765640 -0.968501 31.016464 1.447407 1.602027 0.053230 -0.021799 78291.900000 0 0 1
2.611845 30.036170 -0.807901 30.160338 1.484058 1.597586 0.041001 -0.029207 201820.000000 0 0 1
2.413745 28.924510 -1.851301 29.084030 1.487539 1.634493 0.041475 -0.031004 -115054.000000 0 0 1
2.153745 29.426760 -3.136201 29.671680 1.497737 1.676691 0.053555 -0.037847 -49037.100000 0 0 1
1.986345 28.435280 -4.155901 28.805941 1.501055 1.715574 0.055273 -0.043488 -305383.000000 0 0 1
1.592645 29.109230 -5.454101 29.658574 1.516138 1.755745 0.066454 -0.039632 596856.000000 0 0 1
0.331845 29.802770 -5.366201 30.283847 1.559662 1.748934 0.072840 -0.031299 683802.000000 0 0 1
0.152045 30.750010 -6.443401 31.418206 1.565852 1.777347 0.070239 -0.023898 -181697.000000 0 0 1
0.090145 30.291560 -7.946901 31.316769 1.567820 1.827360 0.074212 -0.026914 -131660.000000 0 0 1
-1.164555 29.689150 -8.268801 30.841124 -1.531591 1.842227 0.077509 -0.029084 538880.000000 0 0 1
-1.166055 29.039890 -9.546101 30.590897 -1.530664 1.888154 0.086785 -0.025303 -11061.900000 0 0 1
-1.355455 30.069410 -10.719701 31.951818 -1.525749 1.912928 0.072860 -0.023549 -256599.000000 0 0 1
-0.175155 30.759330 -11.089701 32.697837 -1.565102 1.916817 0.063719 -0.018720 -111099.000000 0 0 1
-0.271755 32.132520 -11.472101 34.120109 -1.562339 1.913704 0.054612 -0.025794 -151572.000000 0 0 1
-0.479555 33.154739 -10.326201 34.728909 -1.556333 1.872699 0.046851 -0.025927 -39698.500000 0 0 1
0.641545 33.493701 -9.527101 34.828225 1.551644 1.847873 0.051279 -0.033852 -305135.000000 0 0 1
0.331745 -33.888584 -8.456201 34.929264 -1.561007 1.815321 0.044729 -0.029750 82308.400000 0 0 1
1.469545 -33.476924 -7.454901 34.328407 -1.526927 1.789705 0.043509 -0.027374 -65374.700000 0 0 1
2.371745 -32.568204 -8.003601 33.620986 -1.498101 1.811158 0.043958 -0.027192 45522.200000 0 0 1
3.417945 -32.326884 -7.014601 33.255291 -1.465457 1.783325 0.045052 -0.029134 -636011.000000 0 0 1
4.664545 -31.781894 -7.767001 33.048042 -1.425069 1.808037 0.036366 -0.023188 -13325.600000 0 0 1
5.377545 -32.738414 -8.559601 34.263515 -1.407992 1.823287 0.041332 -0.021009 143090.000000 0 0 1
6.077345 -33.548194 -7.639601 34.939647 -1.391587 1.791228 0.062223 -0.018975 -2241950.000000 0 0 1
6.339245 33.258224 -8.067901 34.804978 1.382449 1.804727 0.059571 -0.022268 -50404.800000 0 0 1
5.210345 32.420005 -7.981501 33.792141 1.411445 1.809243 0.058398 -0.023196 -326415.000000 0 0 1
4.263445 32.730170 -8.964401 34.202361 1.441265 1.835993 0.054799 -0.031218 -746215.000000 0 0 1
3.430045 31.567060 -9.555501 33.159495 1.462562 1.863109 0.060662 -0.029441 -277979.000000 0 0 1
4.146945 30.674490 -10.335201 32.633386 1.436419 1.893051 0.058292 -0.018204 -377915.000000 0 0 1
3.439645 29.512540 -10.552501 31.530564 1.454771 1.912057 0.053253 -0.025361 -44767.900000 0 0 1
4.241745 28.590690 -11.495901 31.105879 1.423510 1.949346 0.054586 -0.022814 100969.000000 0 0 1
4.403845 29.205950 -12.748801 32.170069 1.421138 1.978273 0.063825 -0.015026 70796.200000 0 0 1
5.583045 28.776910 -13.387701 32.225945 1.379166 1.999214 0.064639 -0.019629 -29694.900000 0 0 1
5.688545 29.216890 -14.831701 33.256061 1.378502 2.033071 0.070698 -0.020096 18912.200000 0 0 1
4.737545 28.426300 -15.536301 32.739510 1.405654 2.065241 0.080048 -0.024064 384251.000000 0 0 1
4.513745 28.824170 -16.877201 33.705291 1.415462 2.095237 0.099832 -0.025732 76916.700000 0 0 1
3.260045 28.192630 -17.531901 33.358955 1.455673 2.124161 0.080329 -0.022639 94908.800000 0 0 1
3.538845 26.963270 -18.122301 32.679645 1.440295 2.158611 0.097967 -0.014834 643264.000000 0 0 1
2.486945 26.507460 -19.002301 32.709598 1.477250 2.190679 0.098300 -0.022441 837774.000000 0 0 1
3.031845 25.294690 -19.820601 32.278006 1.451505 2.231990 0.105201 -0.022510 350409.000000 0 0 1
3.199745 24.140170 -19.018001 30.897744 1.439016 2.233835 0.112698 -0.028359 -385849.000000 0 0 1
4.299045 23.404290 -19.464601 30.742695 1.389135 2.256407 0.101227 -0.026332 -244209.000000 0 0 1
4.722245 22.273720 -18.525001 29.352920 1.361880 2.253783 0.097062 -0.021686 -575525.000000 0 0 1
3.845245 21.215620 -18.370801 28.326221 1.391497 2.276466 0.127015 -0.023020 -588694.000000 0 0 1
4.330345 20.235020 -17.428601 27.054835 1.359974 2.270767 0.103368 -0.021245 -83307.500000 0 0 1
3.315945 19.104020 -17.311301 25.993081 1.398935 2.299625 0.096463 -0.026582 -473247.000000 0 0 1
2.292345 19.376320 -16.402801 25.490165 1.453037 2.269852 0.103117 -0.034242 -397328.000000 0 0 1
1.418245 18.227720 -16.299701 24.493703 1.493146 2.298913 0.085625 -0.020941 138185.000000 0 1 0
1.811545 17.123020 -15.269601 23.013914 1.465393 2.296276 0.079295 -0.014726 -85025.500000 0 1 0
3.004045 16.407420 -15.527701 22.788972 1.389711 2.320428 0.076810 -0.028766 -127517.000000 0 1 0
2.868845 15.347920 -16.372701 22.624197 1.386008 2.379918 0.071186 -0.033581 -434485.000000 0 1 0
2.883845 15.542720 -17.896401 23.878314 1.387339 2.418078 0.068160 -0.031775 -35052.800000 0 1 0
4.089345 16.041320 -18.481601 24.811616 1.321187 2.411147 0.071301 -0.030484 106675.000000 0 1 0
3.874345 16.532320 -19.845701 26.118576 1.340601 2.433849 0.050545 -0.022816 -62034.000000 0 0 1
4.362345 15.598120 -20.995301 26.516676 1.298093 2.484510 0.048756 -0.017708 584243.000000 0 0 1
3.457745 14.496920 -21.187601 25.904269 1.336655 2.528581 0.049636 -0.019590 332683.000000 0 0 1
2.420945 14.839520 -22.105001 26.733938 1.409079 2.544283 0.063837 -0.021926 321247.000000 0 0 1
1.675145 13.578220 -22.626701 26.441289 1.448047 2.597763 0.079010 -0.020433 130119.000000 0 0 1
0.843545 12.897320 -21.707301 25.263796 1.505485 2.604550 0.077740 -0.014029 292680.000000 0 0 1
0.117245 11.846720 -22.333201 25.281029 1.560900 2.653860 0.063698 -0.010730 133240.000000 0 0 1
-0.522155 10.828120 -21.343701 23.938973 -1.522611 2.671636 0.049381 -0.008656 -371838.000000 0 1 0
-1.533855 11.486520 -20.578601 23.617191 -1.438046 2.628723 0.047488 -0.004690 260103.000000 0 1 0
-2.199055 10.697420 -19.621401 22.455958 -1.368052 2.633703 0.041281 -0.001966 321212.000000 0 1 0
-3.184055 9.592220 -20.097301 22.495564 -1.250299 2.675630 0.037873 -0.005514 -135576.000000 0 1 0
-2.516055 8.549420 -20.789901 22.619530 -1.284581 2.736619 0.034257 -0.001604 -284061.000000 0 1 0
-3.453655 7.546620 -21.054001 22.630735 -1.141605 2.766102 0.033724 0.004706 -5985.420000 0 1 0
-2.926255 6.283220 -21.785201 22.861251 -1.134942 2.833558 0.033151 -0.000944 -372750.000000 0 1 0
-2.230355 5.359220 -21.036001 21.822215 -1.176427 2.872347 0.036455 0.001886 -76936.800000 0 1 0
-1.995455 4.145220 -21.718501 22.200405 -1.122150 2.932854 0.039392 -0.004353 -164197.000000 0 1 0
-1.123155 3.121420 -20.896701 21.158376 -1.225398 2.984157 0.037431 -0.004556 -200332.000000 0 1 0
0.222445 3.430920 -20.740501 21.023536 1.506052 2.977318 0.034876 -0.004719 -339114.000000 0 1 0
0.870045 2.493320 -19.826701 20.001793 1.235057 3.009180 0.030406 -0.006254 -123230.000000 0 1 0
2.386045 2.373020 -19.839301 20.122681 0.782661 2.973570 0.031102 -0.011147 -491184.000000 0 1 0
2.926045 2.084720 -21.130901 21.434150 0.619046 2.973180 0.045884 -0.009397 64516.500000 0 1 0
4.340545 2.067320 -21.045101 21.587275 0.444493 2.916999 0.054557 -0.011466 342587.000000 0 1 0
5.027745 1.561220 -22.359201 22.970623 0.301081 2.910351 0.056666 -0.002723 -666782.000000 0 1 0
6.388845 1.357920 -22.203701 23.144451 0.209429 2.855497 0.065735 -0.016468 -517556.000000 0 1 0
6.988645 0.787020 -23.398301 24.432377 0.112142 2.849613 0.070209 -0.016520 840638.000000 0 1 0
8.550245 0.761120 -23.375701 24.901996 0.088783 2.789659 0.060437 -0.025417 823208.000000 0 1 0
9.236445 2.006120 -23.372901 25.211683 0.213874 2.757307 0.061231 -0.031461 362624.000000 0 0 1
10.630945 1.898120 -23.596601 25.950326 0.176685 2.712392 0.056396 -0.029124 30290.500000 0 0 1
14.356245 -21.330524 21.958292 33.812122 -0.978396 0.863974 0.071180 0.005559 -821551.000000 0 0 1
13.370745 -22.223324 22.380392 34.256895 -1.029162 0.858847 0.058352 0.007753 -322821.000000 0 0 1
12.038045 -21.864524 22.125292 33.354167 -1.067512 0.845517 0.041120 0.004993 156102.000000 0 0 1
11.481445 -21.622724 20.737492 32.084409 -1.082665 0.868016 0.042104 -0.000228 -804093.000000 0 0 1
11.716945 -20.279824 20.341292 31.021383 -1.046888 0.855663 0.046953 0.001318 -111099.000000 0 0 1
11.301345 -20.025824 19.056392 29.864696 -1.057011 0.878780 0.061237 0.001627 -118298.000000 0 0 1
11.584045 -18.600824 18.637192 28.766746 -1.013802 0.866008 0.069116 -0.004380 -94167.000000 0 0 1
10.652745 -17.632624 19.046092 28.056087 -1.027331 0.824590 0.083813 -0.008572 -119022.000000 0 0 1
11.117145 -16.318424 18.710192 27.202080 -0.972756 0.812312 0.085597 -0.005869 165787.000000 0 0 1
10.072045 -15.259324 19.120092 26.455074 -0.987383 0.763040 0.097489 -0.008723 886203.000000 0 0 1
8.815545 -15.451424 18.438092 25.620764 -1.052326 0.767492 0.076499 -0.005082 -331767.000000 0 0 1
7.903245 -14.576524 18.966192 25.192315 -1.073969 0.718405 0.063875 -0.004948 -723074.000000 0 0 1
6.465445 -14.890424 18.520292 24.627787 -1.161158 0.719693 0.038327 0.003549 -246523.000000 0 1 0
6.189145 -14.742624 17.137092 23.437798 -1.173327 0.750756 0.026479 -0.004191 -792539.000000 0 1 0
4.832545 -14.990924 16.930192 23.123855 -1.258950 0.749319 0.019340 0.000679 -500603.000000 0 1 0
4.310245 -16.425424 16.737292 23.843441 -1.314169 0.792642 0.010146 0.006669 -1986560.000000 0 1 0
2.951945 -16.430524 16.612492 23.551029 -1.393031 0.787833 0.023471 0.011083 -1632030.000000 0 1 0
2.470045 -17.752824 16.532492 24.384158 -1.432549 0.825756 0.025892 -0.000975 165815.000000 0 1 0
0.942245 -17.770924 16.332492 24.154582 -1.517824 0.828251 0.014084 0.009227 209766.000000 0 1 0
0.497845 -17.459724 15.025492 23.040295 -1.542290 0.860393 0.024834 -0.001374 647397.000000 0 1 0
-0.860255 -17.845924 14.735392 23.159206 1.522629 0.881149 0.033097 0.004728 630640.000000 0 1 0
-1.262355 -17.842924 13.255192 22.263503 1.500166 0.933061 0.030944 -0.017248 322498.000000 0 1 0
-2.532955 -18.427224 12.989492 22.687118 1.434195 0.961185 0.027484 -0.017085 204310.000000 0 1 0
-2.454455 -19.854924 12.745192 23.720925 1.447801 1.003567 0.029295 -0.017707 37821.400000 0 1 0
-3.834655 -20.495724 12.452392 24.286649 1.385839 1.032440 0.021358 -0.013380 460516.000000 0 1 0
-4.578355 -20.650424 13.647092 25.172295 1.352618 0.997806 0.034490 -0.033031 -59975.200000 0 0 1
-5.928555 -21.001824 13.412492 25.614826 1.295668 1.019699 0.033550 -0.035364 130714.000000 0 0 1
-6.552855 -21.705524 14.645492 26.991853 1.277599 0.997280 0.046801 -0.039185 1328380.000000 0 0 1
-7.994055 -21.774624 14.468792 27.338345 1.218946 1.013081 0.062594 -0.039779 992181.000000 0 0 1
-8.573155 -22.614524 15.456092 28.702029 1.208436 1.002138 0.064417 -0.040640 -1117260.000000 0 0 1
-10.051855 -22.404724 15.513392 29.046114 1.149067 1.007359 0.080612 -0.040197 -1140770.000000 0 0 1
-10.400955 -21.151524 16.022292 28.500538 1.113782 0.973783 0.078877 -0.039645 -91072.300000 0 0 1
-11.751655 -20.797924 15.757692 28.617475 1.056480 0.987675 0.098465 -0.029886 385699.000000 0 0 1
-12.185655 -19.472624 16.417492 28.234860 1.011633 0.950272 0.097211 -0.023582 -51664.600000 0 0 1
-12.144555 -19.657724 17.801192 29.168455 1.017391 0.914371 0.097519 -0.034225 -174707.000000 0 0 1
-12.516755 -18.475124 18.505392 28.990496 0.975336 0.878475 0.100034 -0.039645 -522940.000000 0 0 1
-13.035555 -18.755624 19.921692 30.307968 0.963420 0.853554 0.096523 -0.030543 -82770.500000 0 0 1
-14.349655 -19.279624 19.962792 31.243072 0.930959 0.877663 0.103646 -0.021956 101635.000000 0 0 1
-14.636055 -19.934224 21.185592 32.564040 0.937473 0.862445 0.098188 -0.023673 101966.000000 0 0 1
-16.083555 -20.472124 21.188392 33.566897 0.904878 0.887660 0.098060 -0.019608 -288107.000000 0 0 1
-16.315455 -21.511424 20.276692 33.765066 0.921906 0.926642 0.107401 -0.026505 981358.000000 0 0 1
-17.645855 -21.693624 19.761992 34.242165 0.887931 0.955593 0.100567 -0.023371 1266240.000000 0 0 1
-18.749455 -22.343824 20.663692 35.746002 0.872645 0.954435 0.096597 -0.023675 11463.600000 0 0 1
-19.177555 -21.578024 21.723192 36.128753 0.844229 0.925705 0.092714 -0.014535 16831.700000 0 0 1
-19.929155 -22.316924 22.682492 37.546128 0.841859 0.922131 0.073368 -0.008824 -14507.200000 0 0 1
-20.423355 -21.345524 23.789052 37.929722 0.807472 0.892859 0.059931 -0.000861 -98077.900000 0 0 1
-21.386355 -20.488824 23.204692 37.624803 0.763968 0.906203 0.060288 0.006134 90092.600000 0 0 1
-21.722455 -19.441324 24.076442 37.808798 0.730039 0.880462 0.057075 0.001498 296062.000000 0 0 1
-22.815255 -18.480024 23.511402 37.614268 0.680800 0.895580 0.051454 -0.000795 210338.000000 0 0 1
-22.378555 -17.710724 22.465292 36.320226 0.669484 0.903921 0.058367 -0.000850 -134406.000000 0 0 1
-23.436955 -16.889024 22.014292 36.320229 0.624428 0.919627 0.048728 -0.008020 -33615.800000 0 0 1
-23.092855 -16.176124 20.685892 34.969316 0.611049 0.937824 0.055204 -0.005699 -437746.000000 0 0 1
-22.049155 -15.280624 20.897992 34.005717 0.606030 0.908989 0.056417 -0.005731 -677579.000000 0 0 1
-21.715555 -14.831224 19.561892 32.774962 0.599209 0.931221 0.041218 -0.003126 -226759.000000 0 0 1
-20.683255 -13.723324 19.346692 31.470957 0.585807 0.908731 0.039164 -0.013122 -172944.000000 0 0 1
-20.267755 -13.838724 17.963592 30.413530 0.599085 0.938939 0.029241 -0.019478 48567.500000 0 0 1
-19.528355 -12.718024 17.512192 29.151015 0.577260 0.926369 0.031334 -0.027185 -335449.000000 0 0 1
-19.008055 -12.871824 16.051092 28.011204 0.595244 0.960605 0.034407 -0.031313 -246980.000000 0 0 1
-18.518155 -11.715524 15.427392 26.798880 0.564082 0.957369 0.026936 -0.025910 -699913.000000 0 0 1
-17.148855 -11.574524 15.678592 25.959027 0.593711 0.922318 0.048624 -0.031657 -552355.000000 0 0 1
-16.495355 -10.311624 15.004592 24.567542 0.558688 0.913791 0.032097 -0.024880 -80887.800000 0 1 0
-16.933355 -9.130224 15.556692 24.740860 0.494503 0.890806 0.029329 -0.021996 -87976.700000 0 1 0
-16.628255 -8.018024 14.781992 23.649416 0.449301 0.895605 0.028446 -0.013336 -660112.000000 0 1 0
-16.934355 -6.692424 15.569992 23.957996 0.376360 0.863360 0.033755 -0.005831 281896.000000 0 1 0
-16.145055 -6.329624 16.702392 24.076894 0.373632 0.804168 0.037446 -0.006636 -412243.000000 0 1 0
-14.822355 -6.014924 16.391192 22.903115 0.385497 0.773206 0.035598 -0.011803 -577479.000000 0 1 0
-13.802955 -6.020524 17.558592 23.131633 0.411299 0.708909 0.026511 -0.013299 124072.000000 0 1 0
-13.704955 -7.221624 18.395592 24.049438 0.484963 0.699899 0.024808 -0.014477 144758.000000 0 1 0
-13.463855 -8.495224 17.782792 23.867801 0.562877 0.730181 0.041756 -0.010450 -338170.000000 0 1 0
-13.396655 -9.711724 18.772792 25.024102 0.627267 0.722449 0.049190 -0.013775 -702092.000000 0 0 1
-14.568255 -10.177024 19.307292 26.240758 0.609769 0.743986 0.044141 -0.016761 -996899.000000 0 0 1
-15.280955 -9.423024 20.255892 27.066624 0.552573 0.725193 0.034943 -0.014126 -1256010.000000 0 0 1
-16.664555 -9.954924 20.591592 28.298791 0.538484 0.755908 0.030420 -0.015489 -41308.200000 0 0 1
-17.730455 -9.948824 19.652692 28.276783 0.511337 0.802360 0.039670 -0.017288 461045.000000 0 0 1
-18.073155 -8.686524 19.128292 27.712564 0.448033 0.808977 0.028111 -0.019269 -720826.000000 0 0 1
-19.026355 -8.850224 17.917192 27.592652 0.435386 0.864072 0.036048 -0.019587 471830.000000 0 0 1
-20.379455 -9.076124 18.276992 28.840018 0.418986 0.884421 0.042076 -0.019720 -461372.000000 0 0 1
-21.265355 -8.916924 17.243892 28.793726 0.397047 0.928699 0.066428 -0.023031 -1126070.000000 0 0 1
-22.702855 -9.236624 17.572492 30.158371 0.386396 0.948782 0.063557 -0.015919 -890951.000000 0 0 1
-23.248955 -8.303424 18.477892 30.836557 0.343033 0.928269 0.078237 -0.010331 97011.000000 0 0 1
-24.610155 -8.618124 18.666492 32.068204 0.336840 0.949503 0.088012 -0.007920 -36965.200000 0 0 1
-25.558775 -7.653924 19.410092 32.993715 0.290965 0.941846 0.118393 -0.009711 38053.700000 0 0 1
-25.421935 -7.580424 20.824492 33.725318 0.289790 0.905270 0.110554 -0.012468 38693.700000 0 0 1
-26.278455 -6.614324 21.407692 34.533980 0.246579 0.902178 0.103917 -0.020529 -510225.000000 0 0 1
-26.298575 -6.582524 22.937292 35.511464 0.245261 0.868579 0.101079 -0.016724 477320.000000 0 0 1
-25.109775 -6.217324 23.616312 35.026934 0.242724 0.830871 0.092095 -0.016653 194135.000000 0 0 1
-23.950655 -7.023824 23.517922 34.293741 0.285264 0.815123 0.086539 -0.011983 -377442.000000 0 0 1
-23.001955 -6.756424 24.685552 34.410982 0.285697 0.770770 0.079144 -0.008946 -106361.000000 0 0 1
-22.385055 -5.459624 24.565312 33.680153 0.239225 0.753395 0.065711 -0.005948 93110.400000 0 0 1
-21.742955 -5.104224 25.776102 34.105962 0.230578 0.713974 0.064918 -0.007652 174188.000000 0 0 1
-21.029255 -3.750824 25.826412 33.515695 0.176506 0.691051 0.067625 -0.009426 119977.000000 0 0 1
-20.176455 -3.498324 26.944912 33.843107 0.171680 0.649855 0.050987 -0.011148 -3558.760000 0 0 1
-20.768555 -3.280824 28.235072 35.203920 0.156676 0.640088 0.056896 -0.017474 36162.500000 0 0 1
-21.432655 -1.883124 28.439122 35.660742 0.087637 0.647671 0.074613 -0.024778 -491328.000000 0 0 1
-22.614855 -1.792524 27.737162 35.832876 0.079098 0.685551 0.089305 -0.027599 -1094150.000000 0 0 1
-23.408055 -0.694424 28.232992 36.681345 0.029657 0.692453 0.083070 -0.035561 -7996.720000 0 0 1
-24.725355 -0.608624 27.482602 36.973058 0.024610 0.732785 0.065075 -0.023569 -884218.000000 0 0 1
-24.582155 -0.204324 26.181012 35.913361 0.008312 0.753929 0.062778 -0.024836 347469.000000 0 0 1
-25.793355 -0.056724 25.419312 36.213835 0.002199 0.792703 0.079125 -0.026602 501200.000000 0 0 1
-26.451815 -1.379524 24.925272 36.371291 0.052105 0.815780 0.077331 -0.026033 -313856.000000 0 0 1
-27.173355 -2.080724 25.899192 37.596393 0.076423 0.810861 0.059605 -0.019694 -61251.900000 0 0 1
-27.489315 -3.379224 25.526452 37.665387 0.122315 0.826144 0.043440 -0.015295 -284770.000000 0 0 1
-26.446645 -4.401624 25.932152 37.299810 0.164922 0.802049 0.056828 -0.025413 -136321.000000 0 0 1
-26.201965 -4.563524 27.321782 38.129365 0.172438 0.771946 0.054256 -0.023044 -326154.000000 0 0 1
-25.330685 -5.644824 27.525692 37.830826 0.219263 0.755980 0.069182 -0.025295 -178458.000000 0 0 1
-25.112665 -5.885224 29.044832 38.844357 0.230199 0.726170 0.051136 -0.013448 564741.000000 0 0 1
-26.287245 -6.221724 29.798902 40.220687 0.232406 0.736409 0.058681 -0.016341 680899.000000 0 0 1
-25.918495 -7.067124 30.911772 40.954246 0.266196 0.715466 0.056437 -0.007088 455286.000000 0 0 1
-27.231105 -7.546624 31.595092 42.387905 0.270348 0.729692 0.038777 -0.011144 331427.000000 0 0 1
-27.933885 -8.513424 30.846782 42.477103 0.295828 0.758021 0.035886 -0.017609 -274387.000000 0 0 1
-29.100675 -8.920924 31.507552 43.808196 0.297459 0.768123 0.045970 -0.014852 -52656.200000 0 0 1
-30.043005 -9.734624 30.571162 43.953851 0.313348 0.801641 0.031112 -0.021089 289928.000000 0 0 1
-29.445645 -10.976724 30.144152 43.545429 0.356822 0.806200 0.031980 -0.021817 842024.000000 0 0 1
-30.532045 -11.755924 29.668202 44.165708 0.367540 0.834231 0.017641 -0.017371 474928.000000 0 0 1
-30.006425 -12.949524 28.862422 43.601779 0.407412 0.847372 0.029772 -0.025744 133624.000000 0 0 1
-29.454855 -12.548324 27.617062 42.281805 0.402733 0.859038 0.054001 -0.023335 1031650.000000 0 0 1
-28.405985 -13.463624 27.178622 41.555344 0.442609 0.857891 0.058222 -0.024439 1106590.000000 0 0 1
-27.077705 -12.819124 26.665812 40.107326 0.442158 0.843488 0.077423 -0.023315 311792.000000 0 0 1
-26.224025 -12.252724 27.684122 40.052957 0.437092 0.807665 0.067929 -0.023480 258706.000000 0 0 1
-26.604475 -11.051324 28.381172 40.440336 0.393706 0.792870 0.068915 -0.023656 -806890.000000 0 0 1
-26.476015 -9.740624 27.502032 39.398235 0.352535 0.798122 0.068784 -0.018439 616559.000000 0 0 1
-25.212055 -9.394524 26.905072 38.049806 0.356683 0.785406 0.065686 -0.016449 618294.000000 0 0 1
-24.744555 -10.265524 25.867372 37.239696 0.393251 0.802907 0.056872 -0.021649 -454543.000000 0 0 1
-25.387905 -10.075524 24.495492 36.689113 0.377799 0.839748 0.074601 -0.013604 477062.000000 0 0 1
-26.757465 -10.483724 24.408142 37.704480 0.373422 0.866689 0.071267 -0.021153 517180.000000 0 0 1
-27.351555 -10.486524 23.115092 37.314638 0.366113 0.902736 0.086828 -0.019582 41318.000000 0 0 1
-28.747035 -11.129124 23.198592 38.580100 0.369371 0.925657 0.087168 -0.031025 543224.000000 0 0 1
-29.846225 -10.415924 23.800892 39.569825 0.335771 0.925430 0.088504 -0.022563 421941.000000 0 0 1
-29.865035 -10.446224 25.203472 40.450697 0.336480 0.898139 0.087077 -0.025990 -360345.000000 0 0 1
-31.338825 -10.509024 25.680222 41.857321 0.323552 0.910288 0.042363 -0.017219 5125.990000 0 0 1
-31.996305 -9.262124 25.375102 41.874172 0.281773 0.919793 0.059757 -0.027311 -623598.000000 0 0 1
-33.347055 -9.223224 25.720582 43.111974 0.269837 0.931539 0.054804 -0.020628 -473433.000000 0 0 1
-33.795655 -9.165024 27.175112 44.324155 0.264820 0.910818 0.039989 -0.019936 -456913.000000 0 0 1
-33.999635 -10.515324 27.698212 45.096986 0.299946 0.909435 0.035863 -0.033007 -14379.000000 0 0 1
-34.365413 -10.433424 29.010062 46.167322 0.294759 0.891343 0.052723 -0.033722 -760618.000000 0 0 1
-34.694443 -11.867824 29.591352 47.118974 0.329590 0.891798 0.067455 -0.024941 608538.000000 0 0 1
-35.849071 -12.542224 29.041832 47.810995 0.336552 0.917975 0.052575 -0.026467 1910020.000000 0 0 1
36.190195 -11.996524 29.581742 48.256878 -0.320087 0.910937 0.071244 -0.025086 576645.000000 0 0 1
34.860955 -12.497224 29.012792 47.044754 -0.344216 0.906245 0.071473 -0.027354 67316.600000 0 0 1
34.539635 -12.066024 27.719152 45.901271 -0.336085 0.922428 0.068190 -0.019414 326532.000000 0 0 1
33.229545 -12.498224 27.338152 44.808289 -0.359750 0.914592 0.075469 -0.007184 509110.000000 0 0 1
33.089395 -12.303624 25.785012 43.716748 -0.355988 0.939960 0.067445 -0.007776 132197.000000 0 0 1
33.032865 -10.914824 25.409892 43.080926 -0.319129 0.939963 0.072110 -0.023637 -107793.000000 0 0 1
32.913245 -10.716124 23.961902 42.098572 -0.314763 0.965281 0.063064 -0.020003 -211959.000000 0 0 1
32.549245 -9.309424 23.523012 41.224396 -0.278573 0.963549 0.073279 0.009954 -1155920.000000 0 0 1
31.234755 -8.962124 23.715292 40.228655 -0.279421 0.940341 0.080432 -0.002346 -1345940.000000 0 0 1
31.013385 -7.669724 23.163492 39.461400 -0.242439 0.943459 0.077200 0.008658 561845.000000 0 0 1
29.551635 -7.130424 23.070492 38.162674 -0.236761 0.921620 0.067625 0.015104 812577.000000 0 0 1
28.807725 -7.662224 21.964892 37.027708 -0.259959 0.935767 0.059677 0.012555 1073370.000000 0 0 1
27.389415 -7.531024 22.186492 36.043540 -0.268330 0.907717 0.071079 -0.001545 775696.000000 0 0 1
14.646845 -18.394624 25.317192 34.552170 -0.898342 0.748481 0.064720 0.016623 -35317.300000 0 0 1
13.622245 -19.315724 25.468982 34.746680 -0.956561 0.748089 0.035727 0.008834 90829.000000 0 0 1
14.323145 -20.580724 25.516382 35.774354 -0.962794 0.776659 0.061882 -0.011339 -255442.000000 0 0 1
13.475845 -21.870324 25.699782 36.337147 -1.018572 0.785183 0.017091 -0.017373 -145746.000000 0 0 1
12.955645 -22.061224 26.975102 37.177983 -1.039798 0.758939 0.037788 -0.025259 69415.200000 0 0 1
11.846045 -21.222624 27.212262 36.486103 -1.061695 0.729023 0.046099 -0.008523 -1004110.000000 0 0 1
11.308245 -21.307224 28.652222 37.454292 -1.082873 0.699768 0.047825 -0.011476 86994.700000 0 0 1
12.136045 -20.725124 29.682222 38.181784 -1.041053 0.680287 0.052515 -0.009047 193361.000000 0 0 1
11.481845 -19.856224 30.573702 38.221115 -1.046524 0.643640 0.045022 -0.004889 -140066.000000 0 0 1
11.270445 -18.424724 30.103092 37.049825 -1.021817 0.622363 0.044718 0.003717 -570327.000000 0 0 1
12.426145 -17.664624 30.027582 36.987885 -0.957760 0.623530 0.050629 0.010733 -642840.000000 0 0 1
12.171745 -16.386724 29.404772 35.795484 -0.931932 0.606819 0.050926 0.008742 16607.500000 0 0 1
12.975145 -15.288524 30.086002 36.156062 -0.867066 0.587886 0.056892 0.009516 -34340.400000 0 0 1
12.744245 -14.001024 29.527772 35.076114 -0.832354 0.570150 0.066790 0.010279 -263139.000000 0 0 1
13.514545 -12.982424 30.084552 35.443850 -0.765319 0.557095 0.066554 0.010010 -318577.000000 0 0 1
13.124245 -11.532524 29.622142 34.390641 -0.720932 0.532889 0.060539 0.001199 -194085.000000 0 0 1
13.381645 -11.156124 28.306562 33.238366 -0.694948 0.551722 0.074348 0.003320 414056.000000 0 0 1
14.738345 -10.831024 27.989992 33.436051 -0.633759 0.578799 0.061169 0.009632 217812.000000 0 0 1
14.921545 -9.608824 27.102942 32.396781 -0.572115 0.579761 0.060820 0.009670 -4385.860000 0 0 1
14.935145 -8.318324 27.610002 32.474070 -0.508173 0.554399 0.059340 0.000134 70466.200000 0 0 1
16.203845 -8.035324 28.159212 33.467480 -0.460354 0.570946 0.051949 -0.002177 -423716.000000 0 0 1
16.656345 -6.559824 27.987372 33.222855 -0.375179 0.569050 0.045176 -0.005888 -360150.000000 0 0 1
18.038845 -6.401024 28.176012 34.062599 -0.340986 0.596720 0.040379 -0.012878 -288258.000000 0 0 1
18.385345 -5.096424 27.929572 33.823888 -0.270411 0.599292 0.045438 -0.014366 21820.100000 0 0 1
19.873145 -4.921424 27.536832 34.313837 -0.242758 0.639324 0.044837 -0.016763 -467859.000000 0 0 1
20.289345 -5.613924 26.365422 33.738837 -0.269940 0.673800 0.041105 -0.008877 1041450.000000 0 0 1
21.678845 -5.552724 26.011922 34.313629 -0.250745 0.710457 0.062634 -0.008337 380352.000000 0 0 1
22.782345 -5.976924 26.930932 35.777562 -0.256567 0.718593 0.063209 -0.023054 -1118730.000000 0 0 1
23.273345 -4.872424 27.721422 36.522135 -0.206376 0.708973 0.067091 -0.025033 380422.000000 0 0 1
24.282045 -5.311024 28.629232 37.913818 -0.215331 0.714969 0.074634 -0.035052 -169463.000000 0 0 1
24.979345 -4.208524 29.378792 38.791658 -0.166913 0.711554 0.074277 -0.027496 -388133.000000 0 0 1
25.772445 -3.499724 28.438352 38.538381 -0.134968 0.740809 0.068486 -0.017626 156896.000000 0 0 1
26.093245 -2.167824 28.882962 38.984386 -0.082890 0.736409 0.060691 -0.024696 -441945.000000 0 0 1
26.902645 -1.372324 27.864392 38.756417 -0.050967 0.768489 0.068899 -0.020989 310307.000000 0 0 1
28.304945 -1.499524 28.058982 39.883893 -0.052928 0.790463 0.071831 -0.015663 253992.000000 0 0 1
29.065845 -0.930224 26.994042 39.678293 -0.031993 0.822594 0.063600 0.001225 -127176.000000 0 0 1
30.550845 -0.779524 27.297442 40.976970 -0.025510 0.841741 0.048852 0.001870 -527292.000000 0 0 1
30.858245 0.206876 28.271202 41.851343 0.006704 0.829134 0.049646 0.002783 88777.300000 0 0 1
32.130745 -0.074224 28.834832 43.172188 -0.002310 0.839409 0.058364 -0.009742 172804.000000 0 0 1
32.517845 0.965576 29.865722 44.162245 0.029685 0.828105 0.075280 -0.019524 -105519.000000 0 0 1
33.064045 2.127276 29.293672 44.225282 0.064250 0.846813 0.069274 -0.010026 166997.000000 0 0 1
33.144545 3.216876 30.190542 44.948615 0.096753 0.834338 0.063437 -0.016017 -37574.800000 0 0 1
33.440245 4.527276 29.396532 44.753796 0.134566 0.854163 0.071779 -0.013403 -14344.300000 0 0 1
33.411945 5.789376 30.049412 45.308300 0.171569 0.845682 0.076209 -0.015148 201362.000000 0 0 1
32.121145 6.089376 30.544692 44.741777 0.187352 0.819361 0.056868 -0.010420 -176642.000000 0 0 1
31.999245 6.955776 31.837192 45.672106 0.214043 0.799477 0.041487 -0.006786 -306295.000000 0 0 1
32.467945 6.323976 33.009498 46.731007 0.192367 0.786436 0.043777 -0.006675 118555.000000 0 0 1
32.407345 7.123276 -34.026244 47.526438 0.216364 2.368771 0.052300 -0.011522 -459886.000000 0 0 1
33.176745 6.584876 -32.795701 47.112790 0.195932 2.340762 0.060524 -0.009766 -251119.000000 0 0 1
32.661645 5.424076 -32.084641 46.104532 0.164567 2.340484 0.032506 -0.002175 280202.000000 0 0 1
32.677045 4.204076 -32.852921 46.527174 0.127952 2.354774 0.058298 -0.015433 18658.400000 0 0 1
32.664545 3.031676 -31.926161 45.776012 0.092547 2.342620 0.058096 -0.026919 -19676.900000 0 0 1
32.513545 1.778676 -32.498021 46.004518 0.054651 2.355209 0.067994 -0.033558 195780.000000 0 0 1
32.639745 0.826176 -31.454821 45.336975 0.025307 2.337549 0.055280 -0.033122 35196.600000 0 0 1
32.738245 -0.627624 -32.015091 45.794679 -0.019169 2.344935 0.078561 -0.054949 -914293.000000 0 0 1
33.892645 -0.744724 -32.809851 47.177879 -0.021969 2.339842 0.078701 -0.045814 -19436.600000 0 0 1
34.631945 -1.926224 -32.550511 47.566981 -0.055563 2.324452 0.083983 -0.043854 418531.000000 0 0 1
35.559445 -1.984724 -31.309491 47.420433 -0.055756 2.291952 0.092545 -0.041625 -119753.000000 0 0 1
34.820945 -1.940124 -30.082161 46.056473 -0.055660 2.282544 0.074143 -0.038222 222247.000000 0 0 1
35.700245 -1.845324 -28.999921 46.031599 -0.051643 2.252350 0.073965 -0.030868 -108460.000000 0 0 1
34.863945 -1.522424 -27.773851 44.600440 -0.043640 2.243018 0.073317 -0.025746 -152751.000000 0 0 1
34.234045 -0.274824 -27.878591 44.150438 -0.008028 2.254212 0.066342 -0.018284 286815.000000 0 0 1
33.297145 -0.123724 -26.811821 42.750309 -0.003716 2.248714 0.067439 -0.012367 -43950.900000 0 0 1
32.812945 1.355976 -26.558731 42.236172 0.041301 2.250824 0.054588 -0.015008 -87799.500000 0 0 1
31.902345 1.684476 -27.585641 42.208585 0.052752 2.283069 0.071534 -0.028712 86156.000000 0 0 1
31.424045 2.984676 -27.440251 41.825187 0.094697 2.286396 0.051057 -0.010426 -23523.300000 0 0 1
30.452645 3.402676 -28.553011 41.883364 0.111275 2.320917 0.054629 -0.011061 -116520.000000 0 0 1
29.708445 4.567376 -28.314061 41.293325 0.152546 2.326336 0.043348 -0.003967 383388.000000 0 0 1
28.784145 4.843576 -29.362521 41.402233 0.166711 2.359161 0.049703 -0.004077 371576.000000 0 0 1
27.581445 5.750776 -28.994431 40.428759 0.205557 2.370534 0.046495 -0.002124 1010620.000000 0 0 1
26.416845 5.059176 -28.461291 39.159801 0.189222 2.384446 0.055619 -0.003137 1283400.000000 0 0 1
25.467845 5.968576 -27.931721 38.267690 0.230203 2.388977 0.054580 -0.004560 143374.000000 0 0 1
24.068245 5.408276 -27.625181 37.036205 0.221034 2.412676 0.052158 0.001887 306676.000000 0 0 1
23.265045 4.914576 -28.709431 37.277967 0.208182 2.449864 0.056963 -0.001937 1180990.000000 0 0 1
21.995745 4.406876 -28.255771 36.077998 0.197733 2.470569 0.053106 0.003189 653088.000000 0 0 1
21.078345 3.976476 -29.389991 36.385169 0.186461 2.511116 0.041338 0.006806 -106212.000000 0 0 1
21.487145 2.649376 -29.739351 36.785127 0.122681 2.512329 0.036935 -0.000497 435667.000000 0 0 1
20.683445 2.134176 -30.802611 37.163967 0.102819 2.547810 0.019984 -0.000917 66714.300000 0 0 1
20.636145 2.739776 -32.258761 38.392506 0.131994 2.568514 0.037351 -0.004195 554533.000000 0 0 1
21.897445 2.569676 -32.944941 39.641777 0.116816 2.551818 0.051986 -0.008289 567123.000000 0 0 1
21.925945 3.195576 33.973581 40.560608 0.144725 0.577921 0.054469 -0.019931 690015.000000 0 0 1
23.312245 3.087176 33.240147 40.717303 0.131661 0.615709 0.047640 -0.018178 677878.000000 0 0 1
23.614845 1.779776 32.853803 40.499393 0.075225 0.624566 0.053623 -0.021947 442868.000000 0 0 1
24.961245 1.557176 32.423070 40.948065 0.062303 0.657030 0.063177 -0.025465 152850.000000 0 0 1
25.369245 0.060076 32.476836 41.211006 0.002368 0.663142 0.051060 -0.028812 -531604.000000 0 0 1
24.918145 -0.910124 31.524192 40.193494 -0.036508 0.669212 0.050031 -0.022329 563254.000000 0 0 1
23.496045 -0.962924 31.419032 39.244705 -0.040959 0.642512 0.052990 -0.028866 379344.000000 0 0 1
22.772445 -2.031624 32.330971 39.598023 -0.088979 0.615509 0.047605 -0.034939 -94032.800000 0 0 1
22.990645 -3.399424 31.921332 39.485405 -0.146798 0.629310 0.051894 -0.041563 -78166.100000 0 0 1
22.325545 -4.314924 32.715306 39.841433 -0.190919 0.607395 0.052122 -0.043037 -415407.000000 0 0 1
22.405145 -5.795324 32.268429 39.709291 -0.253113 0.622168 0.058478 -0.041856 -319462.000000 0 0 1
23.691145 -6.328624 32.437846 40.663690 -0.261035 0.647308 0.062386 -0.036963 -333002.000000 0 0 1
23.764145 -7.741724 32.210602 40.769986 -0.314931 0.659895 0.081636 -0.044331 -805004.000000 0 0 1
25.170645 -8.277124 32.018222 41.560061 -0.317701 0.691315 0.062669 -0.034876 -774488.000000 0 0 1
25.668345 -7.826424 30.806312 40.855179 -0.295951 0.716610 0.080734 -0.036899 -922186.000000 0 0 1
26.735145 -8.561224 30.336692 41.332522 -0.309906 0.746652 0.065486 -0.028628 -609768.000000 0 0 1
27.059145 -8.211124 28.894872 40.429364 -0.294620 0.774601 0.069959 -0.026526 -468354.000000 0 0 1
26.132445 -8.678024 27.984792 39.260175 -0.320621 0.777309 0.061092 -0.022654 -646619.000000 0 0 1
26.485845 -8.371324 26.664212 38.504016 -0.306132 0.805841 0.072522 -0.013887 -192197.000000 0 0 1
25.684845 -9.070524 25.584972 37.370796 -0.339476 0.816708 0.050491 -0.010423 -281131.000000 0 0 1
24.319945 -8.723424 25.486752 36.292318 -0.344399 0.792225 0.054893 -0.008763 -84673.200000 0 0 1
23.702245 -9.462424 24.443002 35.338282 -0.379834 0.806975 0.051794 -0.008731 525845.000000 0 0 1
22.295245 -8.876424 24.076762 33.993518 -0.378894 0.783745 0.011552 -0.001867 553873.000000 0 0 1
21.358845 -9.189024 25.091752 34.208689 -0.406285 0.747353 0.019521 0.008339 -703451.000000 0 0 1
20.107645 -8.659824 24.772382 33.060260 -0.406666 0.723777 0.025491 0.009731 -544663.000000 0 0 1
19.104645 -8.733024 25.917662 33.361330 -0.428755 0.681105 0.026395 0.000537 -563876.000000 0 0 1
18.654345 -10.039024 26.229762 33.715975 -0.493708 0.679380 0.038214 0.008446 -258530.000000 0 0 1
19.372545 -10.726624 27.181802 35.060038 -0.505681 0.683617 0.033314 0.008083 -291251.000000 0 0 1
18.507345 -11.868424 27.802862 35.445457 -0.570222 0.669093 0.043362 0.007115 366624.000000 0 0 1
18.096045 -12.928024 26.905892 34.907415 -0.620333 0.690734 0.058586 0.004870 303972.000000 0 0 1
17.243945 -13.927324 27.458122 35.288418 -0.679397 0.679152 0.059950 0.007253 -179466.000000 0 0 1
17.886045 -14.984424 28.338152 36.708233 -0.697352 0.688841 0.077904 0.012157 -163311.000000 0 0 1
16.960545 -15.936124 28.842072 37.060561 -0.754268 0.678935 0.068225 0.010961 341189.000000 0 0 1
17.655245 -16.965924 29.540692 38.369294 -0.765490 0.692105 0.074050 0.010960 105816.000000 0 0 1
17.864945 -18.181424 28.607232 38.315716 -0.794178 0.727832 0.076642 0.006774 135974.000000 0 0 1
19.013445 -18.033924 27.795872 38.201361 -0.758965 0.755958 0.077483 0.002370 290303.000000 0 0 1
19.353345 -19.236524 27.124382 38.475029 -0.782371 0.788392 0.074118 0.004485 -299589.000000 0 0 1
20.386045 -18.999924 26.026532 38.130936 -0.750219 0.819541 0.074662 -0.005167 -72327.500000 0 0 1
21.652945 -18.622624 26.535972 38.984740 -0.710300 0.822111 0.084188 -0.009962 -267704.000000 0 0 1
22.476445 -18.121824 25.530052 38.540558 -0.678545 0.846751 0.073567 -0.009374 -403754.000000 0 0 1
23.906345 -17.797124 25.957832 39.522904 -0.639941 0.854256 0.059065 -0.011492 -225079.000000 0 0 1
24.719845 -18.957524 26.160982 40.679914 -0.654226 0.872265 0.060589 -0.016072 -454729.000000 0 0 1
25.999445 -18.549224 26.512082 41.508256 -0.619694 0.877965 0.046044 -0.016740 -502348.000000 0 0 1
27.007645 -19.698824 26.712242 42.790190 -0.630173 0.896611 0.044018 -0.010842 -19722.700000 0 0 1
26.674045 -20.417024 27.854092 43.637254 -0.653301 0.878496 0.053507 -0.007247 -351350.000000 0 0 1
27.466845 -21.525224 28.023442 44.755738 -0.664710 0.894201 0.060812 -0.013961 -532855.000000 0 0 1
26.836345 -22.573324 28.915902 45.451883 -0.699332 0.881250 0.067872 -0.010477 -48866.600000 0 0 1
26.955645 -22.298024 30.368062 46.325240 -0.691115 0.855898 0.066917 -0.008918 -26461.200000 0 0 1
26.389745 -23.416124 31.027682 46.983513 -0.725765 0.849452 0.074056 -0.007524 -182405.000000 0 0 1
25.980945 -23.213924 32.465668 47.622635 -0.729211 0.820675 0.063400 -0.007819 69409.900000 0 0 1
25.348645 -24.396824 32.950486 48.202628 -0.766267 0.818136 0.060254 -0.010388 252414.000000 0 0 1
25.020645 -24.310024 -33.871881 48.624215 -0.770994 2.341451 0.064099 -0.011340 -259202.000000 0 0 1
24.839145 -25.691834 -33.150261 48.744161 -0.802271 2.318677 0.059471 -0.014023 818469.000000 0 0 1
23.606245 -26.403594 -33.378961 48.667850 -0.841276 2.326571 0.071015 -0.020616 417365.000000 0 0 1
23.382245 -26.892704 33.531424 48.931618 -0.855110 0.815820 0.068822 -0.021277 117439.000000 0 0 1
22.043945 -27.655574 33.348590 48.609615 -0.897833 0.814751 0.086588 -0.022712 302093.000000 0 0 1
22.008345 -28.873404 34.018376 49.752292 -0.919510 0.817900 0.069575 -0.029652 1020920.000000 0 0 1
20.665645 -29.398084 -34.089520 49.531925 -0.958087 2.329847 0.090658 -0.033349 862035.000000 0 0 1
20.681945 -30.891364 -33.873931 50.293761 -0.980831 2.309759 0.070214 -0.035436 -58694.800000 0 0 1
21.318745 -31.435044 -32.685461 50.109782 -0.974862 2.281381 0.040315 -0.035175 254343.000000 0 0 1
22.599445 -31.918564 -33.033351 51.193084 -0.954698 2.272173 0.022979 -0.022241 -435903.000000 0 0 1
23.278245 -32.618854 -31.847961 51.187488 -0.950972 2.242324 0.006330 -0.020109 -1169040.000000 0 0 1
24.372645 -33.405314 -32.214431 52.418607 -0.940477 2.232626 -0.000059 -0.020124 41769.000000 0 0 1
25.101445 -33.950454 -31.096651 52.437749 -0.934143 2.205601 0.003130 0.002861 332544.000000 0 0 1
25.943745 -33.009174 -30.224101 51.731806 -0.904678 2.194747 -0.001683 -0.002326 -643246.000000 0 0 1
26.449345 -33.630614 -29.019901 51.698556 -0.904362 2.166787 0.007880 0.010823 50031.000000 0 0 1
27.013445 -32.662394 -28.152921 50.883643 -0.879778 2.157093 0.015254 0.006998 -419717.000000 0 0 1
27.225945 -33.177674 -26.653211 50.521320 -0.883614 2.126526 0.017320 0.008293 461783.000000 0 0 1
28.187845 34.077910 -26.314601 51.461799 0.879713 2.107542 0.022358 0.026829 1557110.000000 0 0 1
29.575445 -33.721424 -26.350071 52.020838 -0.850805 2.101951 0.032295 0.011996 1492960.000000 0 0 1
-27.423625 -30.935668 8.767899 42.260464 0.845505 1.361805 0.050536 0.000553 -32887.400000 0 0 1
-27.493005 -31.907068 9.806199 43.244512 0.859573 1.342045 0.058134 -0.005374 89650.700000 0 0 1
-26.288325 -31.878368 10.565299 42.648938 0.881208 1.320463 0.055057 -0.003065 337605.000000 0 0 1
-26.275965 -32.823568 11.819799 43.675171 0.895738 1.296749 0.048436 -0.002640 71704.900000 0 0 1
-26.173025 34.077976 11.489299 44.478531 -0.915853 1.309523 0.050260 0.008037 36338.000000 0 0 1
-27.419115 33.438976 11.246699 44.681778 -0.883994 1.316353 0.027037 -0.011428 -157603.000000 0 0 1
-27.319675 31.946876 10.839699 43.410444 -0.863315 1.318423 0.032409 -0.004426 183363.000000 0 0 1
-26.617665 31.640376 9.637899 42.455890 -0.871400 1.341790 0.054190 -0.016587 -33775.300000 0 0 1
-26.698625 30.267876 9.245999 41.405911 -0.847972 1.345596 0.064822 -0.015011 94449.600000 0 0 1
-25.918675 30.093576 7.878399 40.490372 -0.859796 1.374973 0.048701 -0.004014 -268187.000000 0 0 1
-24.556655 29.847176 8.090099 39.488390 -0.882339 1.364463 0.033215 -0.002249 -292324.000000 0 0 1
-24.040255 29.677476 6.754699 38.785467 -0.889957 1.395748 0.023490 -0.001366 294444.000000 0 0 1
-22.716555 28.839776 6.732399 37.324252 -0.903612 1.389428 0.056925 -0.000795 15490.400000 0 0 1
-22.709855 27.419176 6.904199 36.265917 -0.879067 1.379250 0.038997 -0.003505 17723.800000 0 0 1
-23.349155 26.724476 5.853199 35.967216 -0.852704 1.407332 0.033921 -0.010289 -344112.000000 0 0 1
-23.434155 25.180176 6.225299 34.956477 -0.821298 1.391754 0.033378 -0.000333 320585.000000 0 0 1
-24.565255 24.969776 7.111099 35.742261 -0.793564 1.370505 0.049559 -0.000535 1087180.000000 0 0 1
-24.801655 23.604176 7.403399 35.029838 -0.760665 1.357845 0.062470 -0.015039 -99319.900000 0 0 1
-25.251965 22.667076 6.226899 34.499745 -0.731508 1.389311 0.059758 -0.031947 -1022850.000000 0 0 1
-26.584885 22.954576 5.899699 35.615659 -0.712248 1.404380 0.064790 -0.036423 -320739.000000 0 0 1
-26.922715 22.465976 4.607599 35.366406 -0.695404 1.440143 0.058763 -0.035319 -124923.000000 0 0 1
-26.544445 23.381376 3.415899 35.538215 -0.722127 1.474529 0.049382 -0.032896 -689847.000000 0 0 1
-25.277595 23.972176 3.432799 35.005802 -0.758898 1.472575 0.047333 -0.029372 -263717.000000 0 0 1
-25.102885 24.600276 2.197099 35.215844 -0.775286 1.508366 0.042942 -0.028760 -211797.000000 0 0 1
-23.739155 25.304476 2.157899 34.763782 -0.817304 1.508683 0.047892 -0.023761 -175629.000000 0 0 1
-23.334055 25.802576 0.937099 34.801282 -0.835594 1.543866 0.037621 -0.027603 -152258.000000 0 0 1
-22.122755 26.548076 1.026999 34.572697 -0.876072 1.541086 0.042231 -0.029410 138266.000000 0 0 1
-21.657755 27.000576 -0.412401 34.615886 -0.894763 1.582710 0.055818 -0.026921 58348.300000 0 0 1
-21.314355 26.066076 -1.459701 33.702712 -0.885353 1.614121 0.050898 -0.020749 285287.000000 0 0 1
-20.134155 25.330676 -1.202601 32.380142 -0.899202 1.607945 0.050137 -0.021715 -97336.800000 0 0 1
-19.954655 24.305376 -2.346901 31.534862 -0.883382 1.645288 0.054145 -0.027884 -16496.900000 0 0 1
-20.902855 23.254376 -2.451601 31.364083 -0.838601 1.649042 0.048118 -0.028918 173903.000000 0 0 1
-20.518755 22.325376 -3.409701 30.513404 -0.827540 1.682775 0.047519 -0.022366 41783.100000 0 0 1
-21.730055 21.785476 -4.213201 31.057259 -0.786672 1.706875 0.041734 -0.013293 184113.000000 0 0 1
-22.252555 22.691776 -5.152901 32.196977 -0.795170 1.731531 0.027774 -0.006747 740742.000000 0 0 1
-23.543155 22.251476 -5.618601 32.878215 -0.757200 1.742531 0.027300 -0.000838 853740.000000 0 0 1
-23.718755 22.925776 -7.006501 33.723310 -0.768399 1.780085 0.030591 0.000020 349022.000000 0 0 1
-22.982055 22.193576 -8.025801 32.941512 -0.767946 1.816911 0.022347 -0.003687 494709.000000 0 0 1
-22.633855 23.111476 -9.059401 33.593221 -0.795839 1.843856 0.034560 -0.008745 -374405.000000 0 0 1
-22.012455 22.416576 -10.270201 33.053413 -0.794494 1.886742 0.034079 -0.010075 -531849.000000 0 0 1
-22.819355 21.511576 -10.984301 33.228388 -0.755906 1.907704 0.014918 -0.008900 -19687.400000 0 0 1
-22.154555 20.920476 -12.105901 32.787856 -0.756756 1.948965 0.009089 -0.000358 215802.000000 0 0 1
-23.119455 20.831276 -13.329901 33.854653 -0.733383 1.975492 0.001222 -0.005416 -3553.030000 0 0 1
-24.182155 19.956576 -13.094701 33.978122 -0.689955 1.966423 -0.003092 -0.002540 -393322.000000 0 0 1
-24.865655 19.707876 -14.277401 34.792893 -0.670197 1.993638 0.015440 -0.005484 47738.600000 0 0 1
-25.772015 18.463376 -14.278201 34.770103 -0.621656 1.993959 0.048908 -0.010908 235116.000000 0 0 1
-25.096585 17.429076 -14.955801 34.018925 -0.607012 2.025985 0.046922 -0.009967 634950.000000 0 0 1
-26.011795 16.359876 -15.219801 34.291419 -0.561428 2.030672 0.065459 -0.020285 312007.000000 0 0 1
-25.505935 15.418976 -16.380101 34.008900 -0.543740 2.073323 0.076919 -0.012150 -928658.000000 0 0 1
-24.324255 14.768276 -16.204001 32.746619 -0.545654 2.088435 0.093344 -0.015555 -1150480.000000 0 0 1
-23.920155 14.267776 -17.447301 32.865660 -0.537824 2.130420 0.102227 -0.024268 -157475.000000 0 0 1
-23.178055 12.947576 -17.234001 31.652374 -0.509432 2.146562 0.108267 -0.025828 732554.000000 0 0 1
-21.845455 13.108776 -16.725001 30.476050 -0.540470 2.151714 0.114841 -0.037668 688412.000000 0 0 1
-21.121755 11.920776 -16.520801 29.345704 -0.513819 2.168773 0.113479 -0.038335 -136312.000000 0 0 1
-19.753555 12.203176 -15.886101 28.133408 -0.553384 2.170830 0.115633 -0.036068 -38753.100000 0 0 1
-18.798655 12.972676 -16.602401 28.236846 -0.604041 2.199342 0.104305 -0.032292 209287.000000 0 0 1
-17.670455 13.160476 -15.785901 27.104203 -0.640147 2.192493 0.096820 -0.017641 346940.000000 0 0 1
-16.708355 14.376076 -16.075201 27.280997 -0.710508 2.200921 0.069565 -0.017065 655360.000000 0 0 1
-15.847455 14.219176 -17.204001 27.373426 -0.731295 2.250410 0.096821 -0.027014 539100.000000 0 0 1
-14.954755 15.318976 -17.351901 27.557290 -0.797429 2.251920 0.072865 -0.017260 -141209.000000 0 0 1
-13.902255 15.264176 -18.440201 27.682283 -0.832059 2.299814 0.060722 -0.019285 71640.700000 0 0 1
-12.976855 14.187376 -18.238001 26.501040 -0.829932 2.329801 0.054499 -0.022420 495749.000000 0 0 1
-11.934655 14.301676 -19.238101 26.778321 -0.875374 2.372326 0.054607 -0.023300 1090160.000000 0 0 1
-11.104755 12.949876 -19.313401 25.768631 -0.861954 2.418092 0.045589 -0.030724 615323.000000 0 0 1
-11.807555 11.978776 -20.096001 26.206082 -0.792596 2.444707 0.068648 -0.020113 222449.000000 0 0 1
-11.275455 10.697976 -19.856601 25.216407 -0.759123 2.477453 0.043948 -0.009408 -195361.000000 0 0 1
-11.865055 9.701376 -20.869901 25.893030 -0.685407 2.508167 0.066323 -0.014882 160183.000000 0 0 1
-11.283055 9.786176 -22.191401 26.749484 -0.714472 2.549189 0.066861 -0.020777 180038.000000 0 0 1
-11.778255 8.766276 -23.104401 27.374957 -0.639828 2.575490 0.079298 -0.000343 164279.000000 0 0 1
-11.263555 9.028776 -24.522201 28.455664 -0.675711 2.609542 0.073510 -0.020895 -235069.000000 0 0 1
-9.933055 8.621476 -24.743101 28.021715 -0.714828 2.653007 0.057253 -0.015561 -255226.000000 0 0 1
-9.746755 8.280976 -26.128201 29.090492 -0.704270 2.686385 0.036342 -0.027712 -301244.000000 0 0 1
-9.616155 9.388576 -27.226621 30.362884 -0.773424 2.683070 0.066456 -0.031531 -575080.000000 0 0 1
-8.336555 9.853976 -27.539631 30.414311 -0.868624 2.703312 0.055748 -0.033882 -327359.000000 0 0 1
-7.861455 10.807276 -26.588711 29.758348 -0.941902 2.675848 0.039105 -0.024193 -55420.200000 0 0 1
-6.410955 11.263576 -26.876521 29.838162 -1.053350 2.692274 0.044061 -0.023245 5758.730000 0 0 1
-6.155355 12.081676 -28.033511 31.140537 -1.099595 2.691084 0.043833 -0.029219 -424083.000000 0 0 1
-4.862655 12.599776 -27.957631 31.048815 -1.202476 2.691579 0.068393 -0.027259 -631302.000000 0 0 1
-4.106055 12.458976 -29.293221 32.096395 -1.252440 2.720551 0.076710 -0.032968 84026.300000 0 0 1
-2.730655 12.741476 -29.054761 31.843066 -1.359678 2.719994 0.089806 -0.041246 27652.300000 0 0 1
-2.068355 12.490876 -30.275481 32.816228 -1.406696 2.745502 0.085580 -0.036891 45940.100000 0 0 1
-0.524055 12.499076 -30.229151 32.715488 -1.528893 2.749212 0.090318 -0.044640 -249332.000000 0 0 1
-0.012955 11.403376 -29.477941 31.606743 -1.569660 2.772478 0.069758 -0.027567 992433.000000 0 0 1
1.420545 11.266776 -29.581711 31.686524 1.445376 2.775055 0.088593 -0.031909 1052990.000000 0 0 1
1.937045 10.579176 -30.856171 32.676818 1.389703 2.806206 0.090043 -0.032893 -598576.000000 0 0 1
1.969245 11.399676 -32.014131 34.040199 1.399739 2.794837 0.092646 -0.040440 122476.000000 0 0 1
2.046845 10.553176 -33.149111 34.848568 1.379220 2.828005 0.092072 -0.033216 -136861.000000 0 0 1
1.927245 11.331076 33.785372 35.686957 1.402324 0.327918 0.098790 -0.037265 -1031540.000000 0 0 1
2.993445 12.146276 33.491085 35.751161 1.329162 0.357476 0.092668 -0.044706 -890503.000000 0 0 1
2.905845 12.741576 32.234417 34.782888 1.346571 0.385177 0.094137 -0.035424 540208.000000 0 0 1
4.301645 13.342276 31.839762 34.789236 1.258911 0.414746 0.093185 -0.030943 1083340.000000 0 0 1
5.262045 12.302076 31.674312 34.384477 1.166610 0.399693 0.081689 -0.036077 412812.000000 0 0 1
6.614445 12.684076 31.461382 34.560891 1.090116 0.426746 0.067491 -0.028721 597284.000000 0 0 1
7.513145 11.469076 31.156432 34.039834 0.990859 0.414561 0.053466 -0.030257 -255321.000000 0 0 1
7.253745 10.944976 29.886752 32.643947 0.985513 0.413955 0.057731 -0.034053 -298312.000000 0 0 1
8.208145 10.058376 29.375802 32.116698 0.886345 0.416135 0.051338 -0.033874 81301.500000 0 0 1
7.641645 9.246376 28.154832 30.603672 0.880136 0.402761 0.058747 -0.034238 -29195.800000 0 0 1
6.643845 8.328276 28.498322 30.424582 0.897432 0.357749 0.073993 -0.042231 -286481.000000 0 0 1
6.227745 7.532376 27.357202 29.050611 0.879928 0.343124 0.079085 -0.042407 20123.400000 0 0 1
5.400845 6.291676 27.833972 29.042801 0.861439 0.289532 0.090493 -0.039114 438297.000000 0 0 1
6.086045 5.333976 28.667022 29.787403 0.719638 0.275139 0.068488 -0.029305 -50540.400000 0 0 1
5.106245 4.488376 29.201912 29.982844 0.721090 0.228735 0.080342 -0.023170 -488592.000000 0 0 1
5.480845 3.294176 30.052392 30.725193 0.541180 0.209656 0.079771 -0.016842 -231447.000000 0 0 1
5.894145 2.098276 29.418552 30.076484 0.342004 0.209550 0.084816 -0.014938 -768588.000000 0 0 1
7.217645 2.027676 29.015812 29.968704 0.273874 0.252848 0.069510 -0.010127 -891060.000000 0 0 1
7.477845 0.756476 28.184422 29.169368 0.100819 0.260608 0.064530 -0.016007 -72444.900000 0 0 1
7.504645 -0.468724 28.902322 29.864420 -0.062377 0.254519 0.047891 -0.004079 112926.000000 0 0 1
7.872045 -1.565824 28.097752 29.221645 -0.196347 0.278245 0.067648 -0.005464 60564.500000 0 0 1
8.590245 -2.781124 28.766002 30.149790 -0.313104 0.304147 0.058036 0.007532 391849.000000 0 0 1
9.945545 -2.521024 29.094652 30.850740 -0.248254 0.339029 0.041255 0.001873 -43776.000000 0 0 1
10.719345 -3.687424 28.974662 31.113220 -0.331317 0.372926 0.043078 0.002892 694504.000000 0 0 1
12.278645 -3.412424 28.935102 31.617240 -0.271075 0.414871 0.033350 0.005215 1436220.000000 0 0 1
13.051045 -4.619124 28.715882 31.878958 -0.340169 0.449237 0.042484 -0.002041 422147.000000 0 0 1
13.166445 -5.619724 29.716492 32.984943 -0.403413 0.448933 0.052961 -0.000773 -628635.000000 0 0 1
12.573645 -6.989624 29.255902 32.601521 -0.507358 0.457004 0.056001 -0.002138 663177.000000 0 0 1
11.137245 -7.029624 29.270782 32.097235 -0.563032 0.422807 0.060064 -0.003773 605040.000000 0 0 1
10.592445 -8.248524 28.830252 31.802853 -0.661629 0.435805 0.065248 0.000314 711773.000000 0 0 1
9.073145 -8.020924 28.528342 30.992313 -0.723921 0.401445 0.071770 -0.003581 829543.000000 0 0 1
8.290445 -7.654724 29.654502 31.728784 -0.745550 0.363594 0.083759 -0.005810 -703862.000000 0 0 1
6.925345 -7.654824 29.420442 31.178825 -0.835389 0.337446 0.092412 -0.006710 -300901.000000 0 0 1
6.011745 -6.908124 30.458542 31.805440 -0.854667 0.292063 0.088143 -0.008826 386022.000000 0 0 1
5.593645 -7.715324 31.561862 32.969170 -0.943485 0.293233 0.080936 -0.008391 268423.000000 0 0 1
4.899845 -6.966824 32.588427 33.683092 -0.957852 0.255642 0.089199 -0.009451 553393.000000 0 0 1
5.743445 -5.896324 33.424087 34.422716 -0.798532 0.241463 0.098591 -0.002477 499888.000000 0 0 1
6.176745 -4.807224 32.537077 33.465250 -0.661355 0.236070 0.101612 -0.002067 43173.800000 0 0 1
6.812545 -3.800024 33.287424 34.189231 -0.508810 0.230190 0.093293 0.003596 -63172.100000 0 0 1
6.855845 -2.479524 32.492325 33.300177 -0.347029 0.220719 0.078330 0.000694 745866.000000 0 0 1
5.565845 -1.850424 32.425976 32.952187 -0.320965 0.178950 0.096445 -0.004117 612598.000000 0 0 1
5.620045 -0.752424 31.537372 32.043047 -0.133091 0.177892 0.089824 -0.004497 107821.000000 0 0 1
4.219645 -0.179624 31.191832 31.476468 -0.042543 0.134584 0.112081 -0.021508 179494.000000 0 0 1
3.637545 0.449276 32.311519 32.518730 0.122889 0.112950 0.103979 -0.018349 -605300.000000 0 0 1
2.390245 1.005476 32.014202 32.119050 0.398187 0.080822 0.107511 -0.020766 213562.000000 0 0 1
1.456245 1.233576 33.275299 33.329984 0.702805 0.057292 0.093245 -0.021349 369540.000000 0 0 1
1.940645 2.192876 -34.016936 34.142741 0.846344 3.055721 0.089072 -0.016906 -154496.000000 0 0 1
1.077045 2.419776 -32.939611 33.045928 1.152024 3.061356 0.069671 -0.011002 -338091.000000 0 0 1
1.678045 3.362176 -31.918411 32.138840 1.107873 3.024405 0.066390 0.000403 -48336.100000 0 0 1
2.768645 2.799476 -31.221891 31.469175 0.790935 3.016147 0.058639 0.003109 -58461.300000 0 0 1
3.383745 3.775476 -30.409451 30.829185 0.840061 2.976391 0.052330 0.007137 -92880.800000 0 0 1
4.420045 3.200476 -29.426931 29.928650 0.626706 2.958230 0.066594 0.005032 -161876.000000 0 0 1
3.787445 2.359876 -28.523541 28.870507 0.557217 2.986402 0.068314 -0.017269 427954.000000 0 0 1
4.627845 2.159876 -27.366191 27.838650 0.436665 2.957096 0.076732 -0.020286 309641.000000 0 0 1
3.932445 1.390076 -26.215231 26.544958 0.339780 2.983813 0.066132 -0.022134 -120447.000000 0 0 1
4.018545 0.013076 -26.418001 26.721895 0.003254 2.990635 0.083137 -0.020992 -169975.000000 0 0 1
3.559845 -0.777724 -25.371791 25.632111 -0.215092 2.998951 0.079357 -0.014656 -315480.000000 0 0 1
4.163145 -2.232824 -25.228381 25.666875 -0.492288 2.956482 0.080423 -0.019950 1180880.000000 0 0 1
5.583245 -2.120424 -24.963701 25.668175 -0.362958 2.906766 0.077201 -0.027995 948334.000000 0 0 1
6.107545 -3.459624 -24.835801 25.808683 -0.515386 2.866147 0.081429 -0.035431 -947101.000000 0 0 1
7.540945 -3.457724 -24.351801 25.726094 -0.429922 2.813255 0.095816 -0.034526 -793074.000000 0 0 1
8.369945 -2.892424 -25.361451 26.863084 -0.332725 2.805652 0.098544 -0.028422 -1696880.000000 0 0 1
9.663545 -3.032924 -24.928201 26.907210 -0.304116 2.755668 0.076076 -0.019227 -1240060.000000 0 0 1
-30.608355 -3.091524 18.046092 35.666376 0.100661 1.040291 0.207954 -0.030083 -303533.000000 0 0 1
-31.993625 -3.272824 18.104592 36.906364 0.101942 1.058070 0.190288 -0.005684 -801970.000000 0 0 1
-32.324655 -4.587924 18.331392 37.442921 0.140991 1.059186 0.151148 -0.016608 -204304.000000 0 0 1
-33.741275 -4.836924 18.873292 38.962426 0.142383 1.065122 0.141197 -0.012684 -620188.000000 0 0 1
-34.669965 -4.809024 17.863992 39.297015 0.137829 1.098886 0.128435 -0.012714 -1264730.000000 0 0 1
-35.937639 -5.136224 18.316492 40.661881 0.141959 1.103517 0.082180 -0.003726 -55328.700000 0 0 1
36.170005 -4.719124 17.350592 40.392851 -0.129738 1.126806 0.052758 0.000436 1218850.000000 0 0 1
34.854835 -5.109824 17.765192 39.453414 -0.145566 1.103714 0.011262 0.014700 260829.000000 0 0 1
33.902405 -4.762024 16.780692 38.126651 -0.139550 1.115053 0.015008 0.008105 -105906.000000 0 0 1
32.514735 -5.211524 17.280692 37.188577 -0.158930 1.087526 0.030433 0.012770 -280214.000000 0 0 1
31.898225 -4.449224 18.305092 37.045495 -0.138588 1.053969 0.042411 0.006704 115822.000000 0 0 1
30.744425 -5.142724 18.739492 36.370810 -0.165739 1.029515 0.044654 0.003956 -54044.400000 0 0 1
30.114945 -4.522724 19.961092 36.411676 -0.149068 0.990579 0.049852 0.003884 -85166.600000 0 0 1
29.335285 -3.328224 19.869692 35.587086 -0.112972 0.978413 0.048183 0.002017 491645.000000 0 0 1
30.010555 -2.132524 19.385692 35.790866 -0.070940 0.998412 0.038158 0.005110 -247765.000000 0 0 1
29.112775 -0.907724 19.497392 35.050334 -0.031169 0.980908 0.034405 0.007104 -175141.000000 0 0 1
29.692865 0.283176 19.060192 35.285087 0.009537 1.000149 0.033403 -0.000777 709590.000000 0 0 1
28.751805 1.353376 19.376192 34.697763 0.047036 0.978307 0.035354 -0.005684 981143.000000 0 0 1
29.255485 2.697876 18.765992 34.861503 0.091958 1.002376 0.029750 -0.008162 -80966.800000 0 0 1
29.451425 2.685476 17.355092 34.289903 0.090932 1.040107 0.027834 -0.009330 127714.000000 0 0 1
29.168915 3.963976 16.768792 33.878180 0.135070 1.052992 0.038323 -0.011822 21429.100000 0 0 1
28.770505 3.851376 15.287892 32.806931 0.133074 1.086037 0.048870 -0.011509 -199136.000000 0 0 1
28.277245 5.082976 14.836192 32.334994 0.177856 1.094121 0.061169 -0.020931 638669.000000 0 0 1
27.525215 4.925376 13.595892 31.092524 0.177067 1.118233 0.065366 -0.015656 111681.000000 0 0 1
26.796215 6.177576 13.079492 30.451153 0.226580 1.126831 0.078220 -0.016740 -246751.000000 0 0 1
25.799915 6.642576 13.945492 30.070520 0.251992 1.088562 0.054787 -0.019158 -217446.000000 0 0 1
25.183915 7.793476 13.400792 29.572776 0.300115 1.100505 0.076249 -0.027800 -1131070.000000 0 0 1
24.041715 8.361976 14.272492 29.182713 0.334724 1.059769 0.073367 -0.030415 -943012.000000 0 0 1
22.801815 7.796476 14.088692 27.914137 0.329462 1.041744 0.080248 -0.022694 -572113.000000 0 0 1
22.714715 6.385576 14.357492 27.620127 0.274048 1.024156 0.086810 -0.024212 -1593860.000000 0 0 1
21.297115 5.818276 14.099892 26.195923 0.266688 1.002440 0.095123 -0.026532 -70993.200000 0 0 1
20.994015 5.809476 12.680292 25.204930 0.269965 1.043628 0.093624 -0.026199 307804.000000 0 0 1
19.853715 5.020076 12.495992 23.990018 0.247662 1.022911 0.099953 -0.026374 -517326.000000 0 1 0
19.507315 4.883676 11.016892 22.929403 0.245309 1.069606 0.102888 -0.025438 155839.000000 0 1 0
20.509415 4.146076 10.292792 23.318825 0.199467 1.113645 0.090826 -0.028314 936345.000000 0 1 0
20.127815 3.772676 8.968292 22.356035 0.185286 1.158016 0.092241 -0.028927 331024.000000 0 1 0
21.382415 3.256376 8.192692 23.128594 0.151131 1.208713 0.097031 -0.020375 -176438.000000 0 1 0
21.816115 1.984576 8.649092 23.551820 0.090719 1.194760 0.104400 -0.015518 980205.000000 0 1 0
22.762415 1.302376 7.795092 24.095377 0.057154 1.241360 0.107851 -0.011808 1799220.000000 0 1 0
24.283715 1.780076 7.913392 25.602524 0.073172 1.256564 0.100884 -0.016893 928534.000000 0 0 1
25.081115 1.362976 9.024092 26.689966 0.054289 1.225891 0.099089 -0.010678 404254.000000 0 0 1
24.794315 1.778676 10.386892 26.940848 0.071615 1.174999 0.086068 -0.009001 -962201.000000 0 0 1
25.620015 0.980476 11.360692 28.043035 0.038251 1.153690 0.071964 -0.006651 563032.000000 0 0 1
27.005715 1.376876 11.316192 29.313148 0.050941 1.174456 0.086656 -0.008635 595768.000000 0 0 1
27.794915 0.502776 12.074292 30.308392 0.018087 1.161045 0.067775 -0.010874 363089.000000 0 0 1
29.322335 0.632076 11.786392 31.608826 0.021553 1.188682 0.084001 -0.008939 517422.000000 0 0 1
29.928235 1.764076 12.370692 32.432164 0.058875 1.179451 0.081456 -0.011474 363167.000000 0 0 1
31.328385 1.560976 12.529292 33.777026 0.049785 1.190774 0.084273 -0.015848 212771.000000 0 0 1
32.081765 2.794476 13.056692 34.749474 0.086886 1.185604 0.072433 -0.013761 -454085.000000 0 0 1
32.093075 3.839476 12.079292 34.505309 0.119070 1.213150 0.082723 -0.024343 267772.000000 0 0 1
32.708905 5.068376 12.531392 35.392043 0.153731 1.208873 0.080761 -0.023920 1146070.000000 0 0 1
34.223735 5.103776 12.080192 36.650288 0.148039 1.234909 0.083584 -0.018392 592970.000000 0 0 1
35.020625 4.151876 12.745192 37.498296 0.118004 1.223999 0.080028 -0.018514 186510.000000 0 0 1
36.367945 4.259176 12.312092 38.631019 0.116582 1.246428 0.096486 -0.015254 264531.000000 0 0 1
-35.945490 3.251176 12.991392 38.359154 -0.090202 1.225285 0.114727 -0.013937 -637394.000000 0 0 1
-35.974040 1.893076 12.510892 38.134469 -0.052575 1.236533 0.090276 -0.010742 526271.000000 0 0 1
36.116225 1.106776 12.623692 38.274851 0.030635 1.234687 0.081012 -0.005848 99635.600000 0 0 1
35.485115 0.864376 14.021392 38.164643 0.024354 1.194593 0.060755 -0.004933 -290678.000000 0 0 1
36.270585 -0.022924 14.799892 39.173877 -0.000632 1.183377 0.077100 -0.010861 245981.000000 0 0 1
35.917615 -0.068024 16.186792 39.396598 -0.001894 1.147391 0.063492 -0.019418 -557910.000000 0 0 1
-36.449325 -0.898124 17.065692 40.256649 0.024635 1.133025 0.099477 -0.018566 -91841.600000 0 0 1
-35.163953 -0.323124 17.277292 39.180516 0.009189 1.114121 0.153548 -0.032779 174450.000000 0 0 1
-34.267469 -1.178724 17.943492 38.699066 0.034384 1.088666 0.135717 -0.019030 -272730.000000 0 0 1
-34.284418 -1.219624 19.495192 39.458476 0.035559 1.054033 0.141207 -0.020308 -205770.000000 0 0 1
-35.316657 -1.898624 20.204692 40.732059 0.053708 1.051765 0.099793 -0.011504 118776.000000 0 0 1
-35.145117 -1.694824 21.598992 41.286415 0.048186 1.020253 0.084584 -0.006135 144037.000000 0 0 1
-35.350031 -2.990524 22.472392 41.994956 0.084397 1.006145 0.065182 0.002021 -656968.000000 0 0 1
-34.389183 -3.941324 22.306892 41.179453 0.114112 0.998339 0.091683 -0.005627 -821961.000000 0 0 1
-34.663296 -5.201924 22.887892 41.862390 0.148958 0.992329 0.082633 -0.005213 52089.100000 0 0 1
-34.890007 -5.275924 24.440282 42.924065 0.150079 0.965040 0.078912 -0.012567 -56473.500000 0 0 1
-33.703045 -5.007824 25.130932 42.338367 0.147507 0.935304 0.092884 -0.020637 -527746.000000 0 0 1
-33.954465 -5.001024 26.509442 43.366651 0.146235 0.913111 0.106558 -0.037227 297506.000000 0 0 1
-32.751765 -4.339424 27.235532 42.816853 0.131727 0.881371 0.097756 -0.036470 379632.000000 0 0 1
-32.501525 -2.957724 26.996642 42.354645 0.090753 0.879683 0.081579 -0.021021 -361484.000000 0 0 1
-31.879195 -2.657924 25.799302 41.096857 0.083182 0.892114 0.079191 -0.013178 -337822.000000 0 0 1
-31.669735 -1.163624 25.528252 40.694199 0.036726 0.892690 0.059119 -0.013605 770210.000000 0 0 1
-32.967755 -0.553624 25.467862 41.662830 0.016791 0.913113 0.081506 -0.022896 758260.000000 0 0 1
-32.921285 0.591476 24.650962 41.131871 -0.017964 0.928151 0.049837 -0.009633 228297.000000 0 0 1
-34.240990 1.420376 24.705842 42.247385 -0.041458 0.946175 0.086353 -0.004559 954817.000000 0 0 1
-35.344305 0.823676 23.998272 42.729561 -0.023300 0.974440 0.090195 0.008117 426627.000000 0 0 1
-36.367655 1.710276 23.552412 43.361821 -0.046993 0.996600 0.091494 0.001008 37407.400000 0 0 1
-36.053175 2.958576 22.621692 42.665274 -0.081878 1.011944 0.098581 0.001439 -597309.000000 0 0 1
-35.714973 2.619476 21.282092 41.657513 -0.073213 1.034585 0.107179 -0.026798 -488977.000000 0 0 1
-36.472595 3.200276 20.261392 41.845143 -0.087521 1.065348 0.092017 -0.019848 -253092.000000 0 0 1
-36.126255 2.661476 18.836892 40.829135 -0.073539 1.091270 0.119606 -0.023408 777341.000000 0 0 1
-34.941700 3.303876 18.324592 39.593291 -0.094274 1.089622 0.149650 -0.032677 659684.000000 0 0 1
-34.506736 2.756376 17.085092 38.603275 -0.079710 1.112321 0.173253 -0.032794 -124824.000000 0 0 1
-33.515195 3.545976 16.219992 37.402278 -0.105410 1.122242 0.169749 -0.035211 -471661.000000 0 0 1
-33.936795 4.767576 15.762492 37.721241 -0.139571 1.139699 0.161880 -0.041937 -451331.000000 0 0 1
-33.138485 5.241476 14.729792 36.641494 -0.156869 1.157099 0.169332 -0.031208 -612780.000000 0 0 1
-33.414495 6.694876 14.253992 36.939493 -0.197740 1.174641 0.177498 -0.045016 -155944.000000 0 0 1
-32.747685 7.259676 13.147492 36.027355 -0.218157 1.197238 0.177584 -0.031207 108449.000000 0 0 1
-33.220065 8.559276 12.889892 36.646736 -0.252169 1.211374 0.148334 -0.036628 123904.000000 0 0 1
-32.225785 9.264576 11.911792 35.584047 -0.279940 1.229455 0.156389 -0.031548 520685.000000 0 0 1
-32.513425 10.643376 11.848592 36.204881 -0.316359 1.237389 0.140145 -0.023448 287403.000000 0 0 1
-31.508485 11.300176 11.083292 35.260715 -0.344350 1.251052 0.116991 -0.030374 107166.000000 0 0 1
-31.891805 12.792476 10.767392 36.009324 -0.381472 1.267134 0.095883 -0.019242 -387741.000000 0 0 1
-31.064905 13.347076 9.817392 35.207300 -0.405804 1.288205 0.075215 -0.016900 -364735.000000 0 0 1
-31.064765 14.762876 9.896892 35.789812 -0.443635 1.290617 0.065561 -0.016302 46000.400000 0 0 1
-30.328215 15.462776 8.710092 35.139206 -0.471495 1.320311 0.066016 -0.022189 385430.000000 0 0 1
-28.907395 15.402176 8.771792 33.908832 -0.489551 1.309133 0.076429 -0.018371 181403.000000 0 0 1
-28.314825 16.332576 7.917692 33.632904 -0.523201 1.333151 0.063049 -0.030298 -296593.000000 0 0 1
-26.846105 16.577376 8.292392 32.623405 -0.553185 1.313791 0.073629 -0.019788 -423123.000000 0 0 1
-26.499835 17.031576 9.596092 32.930242 -0.571230 1.275099 0.060713 -0.019363 143992.000000 0 0 1
-26.798505 18.365276 9.942192 33.974850 -0.600799 1.273816 0.059848 -0.023576 -260880.000000 0 0 1
-26.779605 18.640676 11.449292 34.579016 -0.608088 1.233322 0.070145 -0.011665 813923.000000 0 0 1
-25.486055 18.688076 12.102492 33.841595 -0.632706 1.205076 0.065656 -0.008610 939809.000000 0 0 1
-25.457465 19.155376 13.472592 34.590775 -0.645065 1.170724 0.062184 -0.011062 -57384.900000 0 0 1
-26.037835 18.274476 14.582892 34.994086 -0.611962 1.140957 0.058722 -0.011025 -50101.900000 0 0 1
-25.110015 17.286276 15.002792 33.976639 -0.602913 1.113458 0.068089 -0.007308 18955.300000 0 0 1
-25.564585 16.502276 15.999092 34.377959 -0.573215 1.086723 0.067858 -0.003921 -580235.000000 0 0 1
-24.514855 15.494876 16.470292 33.351759 -0.563661 1.054301 0.069807 -0.002014 62443.700000 0 0 1
-23.360155 16.044176 17.109792 33.103737 -0.601824 1.027625 0.071718 -0.005007 734249.000000 0 0 1
-22.302655 15.084976 17.239392 31.971262 -0.594694 1.001291 0.064652 -0.013974 496528.000000 0 0 1
-22.511955 13.995276 18.363692 32.247187 -0.556210 0.964940 0.072318 -0.008976 -528037.000000 0 0 1
-22.563855 14.453876 19.759392 33.293778 -0.569722 0.935413 0.069399 -0.005918 223912.000000 0 0 1
-22.893055 13.342476 20.539492 33.525876 -0.527690 0.911392 0.061928 -0.007642 -728377.000000 0 0 1
-22.590555 13.496676 22.029292 34.318846 -0.538541 0.873822 0.049877 -0.001821 -892977.000000 0 0 1
-21.253655 13.604276 22.361392 33.716851 -0.569378 0.845695 0.052617 -0.006605 -653736.000000 0 0 1
-20.740155 14.929176 22.260892 33.890731 -0.623904 0.854172 0.056957 -0.011101 -558284.000000 0 0 1
-19.237655 14.994976 22.603292 33.254255 -0.662090 0.823427 0.069994 -0.016746 -73186.000000 0 0 1
-18.350955 14.463676 21.657092 31.858831 -0.667486 0.823330 0.056547 -0.014084 -51373.600000 0 0 1
-17.891055 15.397976 20.643092 31.358010 -0.710646 0.852233 0.049021 -0.006174 -631635.000000 0 0 1
-16.659055 14.767976 19.922492 29.875122 -0.725297 0.840811 0.047589 0.000052 847718.000000 0 0 1
-15.511255 14.506176 20.729992 29.677614 -0.751927 0.797489 0.058968 -0.000666 592626.000000 0 0 1
-14.799655 15.644476 21.262192 30.263183 -0.813141 0.791785 0.047937 -0.006121 -1324490.000000 0 0 1
-13.673855 15.266676 22.148392 30.176100 -0.840380 0.746645 0.042280 -0.015693 -947585.000000 0 0 1
-12.641755 14.534476 21.520592 28.882535 -0.854932 0.730100 0.037615 -0.003864 -261261.000000 0 0 1
-11.697455 14.186376 22.513992 29.068257 -0.881261 0.684838 0.050827 -0.009072 518376.000000 0 0 1
-10.428255 13.413976 22.003692 27.800103 -0.909978 0.657542 0.049327 -0.006826 -573231.000000 0 0 1
-9.896655 12.750476 23.087492 28.170032 -0.910750 0.610125 0.054830 -0.008764 85345.000000 0 0 1
-8.737655 11.968976 22.811492 27.202338 -0.940202 0.576114 0.056116 0.010910 837563.000000 0 0 1
-7.400855 12.769676 22.728892 27.100550 -1.045538 0.575928 0.045815 0.013327 -747750.000000 0 0 1
-7.282255 13.505376 21.500592 26.414047 -1.076274 0.619820 0.035662 0.002455 -103223.000000 0 0 1
-6.350455 14.573076 21.639092 26.850570 -1.159842 0.633589 0.016296 0.009606 -60856.800000 0 0 1
-6.790055 15.855576 22.403392 28.273948 -1.166181 0.656114 0.023509 0.002908 295694.000000 0 0 1
-7.873955 16.474076 21.717392 28.373218 -1.124935 0.699105 0.015871 -0.000861 134412.000000 0 0 1
-7.423055 17.777976 21.381292 28.780511 -1.175259 0.733391 0.006588 0.015952 -690450.000000 0 0 1
-8.170355 18.346576 20.110892 28.421814 -1.151829 0.784720 0.004099 0.022326 1554290.000000 0 0 1
-9.548355 18.742876 20.224892 29.180691 -1.099626 0.805027 0.012414 0.010659 937796.000000 0 0 1
-10.467855 17.816376 20.797692 29.317968 -1.039588 0.782173 0.014026 0.004925 -1138960.000000 0 0 1
-11.824555 18.412276 21.127992 30.417496 -0.999917 0.802933 0.008893 0.002418 -53795.900000 0 0 1
-12.620455 18.778576 19.980692 30.185077 -0.979065 0.847393 0.012400 0.003166 1001950.000000 0 0 1
-13.947255 19.203776 20.343692 31.259827 -0.942652 0.862167 0.017514 -0.001968 915381.000000 0 0 1
-14.902755 19.429376 19.154192 31.088195 -0.916490 0.906984 0.022458 -0.005161 -171819.000000 0 0 1
-15.401355 18.198976 18.633692 30.259196 -0.868468 0.907392 0.034060 0.007728 565440.000000 0 0 1
-16.183955 18.358376 17.415992 30.037762 -0.848265 0.952309 0.053967 -0.002069 -498953.000000 0 0 1
-17.135055 17.155676 17.058392 29.646519 -0.786000 0.957712 0.053452 -0.001549 595082.000000 0 0 1
-18.233755 16.923676 17.919992 30.659530 -0.748152 0.946553 0.056427 0.004292 376525.000000 0 0 1
-19.236255 17.943176 17.774592 31.747869 -0.750633 0.976571 0.063538 -0.005709 -707373.000000 0 0 1
34.775215 -9.363624 12.028499 37.969433 -0.263023 1.248449 0.053339 -0.020482 -641176.000000 0 0 1
33.558765 -9.973824 11.743799 36.926747 -0.288890 1.247146 0.040673 -0.009094 -392164.000000 0 0 1
33.266135 -11.043024 12.645599 37.262518 -0.320514 1.224554 0.041976 -0.006849 311117.000000 0 0 1
31.824615 -11.630124 12.456499 36.100281 -0.350367 1.218501 0.060042 0.003964 -138958.000000 0 0 1
30.883125 -10.692824 12.848099 35.116628 -0.333317 1.196230 0.051568 0.004722 -840951.000000 0 0 1
29.541175 -10.994324 12.630699 33.957190 -0.356287 1.189677 0.063896 0.002683 -247513.000000 0 0 1
28.848695 -11.859024 13.690199 34.063253 -0.390019 1.157200 0.056003 0.001461 -868698.000000 0 0 1
28.718855 -11.225024 14.970699 34.276750 -0.372601 1.118803 0.060526 0.001686 -11867.200000 0 0 1
27.833315 -11.856224 15.864199 34.160449 -0.402694 1.087836 0.063306 -0.002589 532808.000000 0 0 1
26.375715 -11.306424 15.759199 32.739363 -0.404973 1.068598 0.069149 -0.015585 198935.000000 0 0 1
26.215815 -10.042024 16.294699 32.459643 -0.365811 1.044888 0.061249 0.002465 -310175.000000 0 0 1
25.206715 -9.351724 15.600499 31.083899 -0.355260 1.045021 0.080491 -0.011339 -183002.000000 0 0 1
25.151615 -7.836024 15.990499 30.817253 -0.302021 1.025254 0.078691 -0.020020 -731143.000000 0 0 1
26.231615 -7.052024 15.618499 31.333148 -0.262627 1.048968 0.061563 -0.017100 -654050.000000 0 0 1
26.166615 -5.693224 15.993699 31.191392 -0.214237 1.032400 0.052588 -0.010330 1134990.000000 0 0 1
27.537915 -4.906724 15.769699 32.110685 -0.176330 1.057439 0.053397 -0.009382 1108580.000000 0 0 1
27.791015 -4.498424 14.417499 31.629742 -0.160474 1.097502 0.059374 -0.008997 -335590.000000 0 0 1
28.990795 -3.806124 14.326099 32.560557 -0.130541 1.115216 0.059038 -0.003339 -604480.000000 0 0 1
29.131965 -3.266124 12.916399 32.033924 -0.111649 1.155774 0.059161 -0.008855 -100653.000000 0 0 1
29.562555 -4.208024 11.947499 32.162009 -0.141393 1.190195 0.056181 -0.012053 200263.000000 0 0 1
29.636495 -3.464924 10.768599 31.722078 -0.116386 1.224446 0.073235 -0.017306 -18849.300000 0 0 1
30.312645 -4.235224 9.614099 32.081528 -0.138819 1.266442 0.081552 -0.011001 293230.000000 0 0 1
31.644995 -4.670024 9.856799 33.471948 -0.146518 1.271886 0.081399 -0.021818 389678.000000 0 0 1
32.008765 -5.552224 8.822799 33.663482 -0.171751 1.305611 0.079297 -0.030271 -201484.000000 0 0 1
33.340885 -6.289624 9.117699 35.132697 -0.186455 1.308269 0.063071 -0.025424 -27811.400000 0 0 1
34.435505 -5.396024 8.996499 35.998029 -0.155435 1.318202 0.070120 -0.027404 -400390.000000 0 0 1
35.584715 -6.146024 8.677899 37.139621 -0.171028 1.334960 0.085838 -0.042392 188721.000000 0 0 1
-36.472015 -5.244424 8.332299 37.777494 0.142814 1.348405 0.094355 -0.038226 414403.000000 0 0 1
-36.637365 -4.614624 7.078599 37.599174 0.125294 1.381401 0.080356 -0.036426 -411569.000000 0 0 1
-35.485932 -3.874624 6.858799 36.349790 0.108757 1.380970 0.104713 -0.021835 -389851.000000 0 0 1
-35.556011 -3.131824 5.521399 36.118196 0.087855 1.417324 0.098604 -0.034581 -266211.000000 0 0 1
-35.068158 -3.809424 4.414499 35.549616 0.108205 1.446296 0.105366 -0.036946 -143098.000000 0 0 1
-34.959390 -3.011924 3.278299 35.241707 0.085943 1.477638 0.107573 -0.033598 434466.000000 0 0 1
-34.028235 -3.576324 2.110599 34.280687 0.104714 1.509189 0.135480 -0.035615 586288.000000 0 0 1
-34.414056 -4.863724 1.581099 34.791996 0.140400 1.525336 0.125244 -0.030250 561488.000000 0 0 1
-35.622120 -4.933624 0.802999 35.971112 0.137623 1.548471 0.108916 -0.033934 254000.000000 0 0 1
-35.438813 -5.096024 -0.758301 35.811367 0.142819 1.591973 0.144614 -0.030877 -769489.000000 0 0 1
-34.951928 -6.391524 -1.133901 35.549607 0.180868 1.602698 0.133999 -0.035067 672367.000000 0 0 1
-34.091973 -6.423224 -2.291901 34.767417 0.186226 1.636765 0.129558 -0.028011 714972.000000 0 0 1
-32.620415 -5.966324 -1.983501 33.220819 0.180902 1.630538 0.136236 -0.038812 -52816.800000 0 0 1
-31.966915 -6.867324 -1.135801 32.715957 0.211610 1.605520 0.135739 -0.038243 -758809.000000 0 0 1
-30.826475 -6.271124 -0.606701 31.463736 0.200694 1.590080 0.135520 -0.049974 -624524.000000 0 0 1
-30.241345 -7.236024 0.398599 31.097554 0.234860 1.557978 0.107051 -0.039870 -217701.000000 0 0 1
-29.570085 -8.350424 -0.210301 30.727248 0.275228 1.577641 0.096070 -0.033555 592678.000000 0 0 1
-29.155175 -9.226724 0.798699 30.590760 0.306497 1.544684 0.094127 -0.021509 -140376.000000 0 0 1
-28.725205 -10.645924 0.233299 30.635397 0.354919 1.563181 0.075561 -0.019065 262269.000000 0 0 1
-27.669585 -10.588124 -0.744101 29.635587 0.365472 1.595907 0.080201 -0.025772 669637.000000 0 0 1
-27.165385 -11.866824 -1.038401 29.662399 0.411853 1.605811 0.080961 -0.011039 -208797.000000 0 0 1
-27.928335 -12.802524 -2.038501 30.790453 0.429823 1.637050 0.072832 -0.014152 553246.000000 0 0 1
-29.016685 -13.547924 -1.426801 32.055421 0.436820 1.615321 0.080089 -0.020842 964625.000000 0 0 1
-29.605365 -14.411924 -2.369601 33.012062 0.453033 1.642638 0.076962 -0.015964 -206321.000000 0 0 1
-30.576315 -15.392724 -1.651301 34.272056 0.466380 1.618997 0.079613 -0.016050 23286.800000 0 0 1
-29.938545 -16.412724 -0.844401 34.152701 0.501471 1.595523 0.050587 -0.008622 93146.900000 0 0 1
-30.797045 -17.168824 -0.004901 35.259418 0.508570 1.570935 0.055984 -0.004257 -192736.000000 0 0 1
-30.629805 -18.720824 -0.043701 35.897857 0.548611 1.572014 0.054231 -0.009353 554710.000000 0 0 1
-29.370805 -19.172224 0.493099 35.077935 0.578316 1.556739 0.068397 -0.014742 885055.000000 0 0 1
-29.284925 -20.586324 0.466399 35.799736 0.612714 1.557768 0.086817 -0.016451 138654.000000 0 0 1
-30.249885 -21.394524 1.424399 37.078432 0.615582 1.532371 0.094112 -0.014583 -19724.200000 0 0 1
-29.857695 -21.623324 2.725799 36.965931 0.626792 1.496991 0.098667 -0.022800 -138222.000000 0 0 1
-30.950945 -21.995824 3.551999 38.136518 0.617849 1.477522 0.101245 -0.025643 462680.000000 0 0 1
-30.443515 -22.265324 5.025799 38.050111 0.631468 1.438326 0.079718 -0.025928 -29308.300000 0 0 1
-30.038645 -21.105724 5.643299 37.143218 0.612482 1.418272 0.062233 -0.024329 -294738.000000 0 0 1
-29.023685 -21.358424 6.579199 36.631167 0.634413 1.390210 0.061285 -0.020893 -99921.500000 0 0 1
-28.589135 -20.023624 7.197799 35.638357 0.610990 1.367430 0.057360 -0.019962 -281881.000000 0 0 1
-27.549785 -20.148724 8.114299 35.082810 0.631462 1.337393 0.065602 -0.028508 -134557.000000 0 0 1
-26.951505 -18.896624 8.474699 33.989506 0.611487 1.318805 0.066734 -0.024934 655321.000000 0 0 1
-25.967665 -18.877624 9.690399 33.534880 0.628596 1.277651 0.074649 -0.024402 69178.600000 0 0 1
-26.592075 -19.252724 10.903099 34.593112 0.626654 1.250149 0.063578 -0.026785 -498488.000000 0 0 1
-25.844765 -19.391924 12.058399 34.487731 0.643708 1.213606 0.064848 -0.018589 -581296.000000 0 0 1
-25.471975 -18.022724 12.731899 33.700762 0.615776 1.183385 0.051316 -0.018063 42932.200000 0 0 1
-24.358455 -17.317524 12.147099 32.261168 0.618034 1.184755 0.049749 -0.016982 529754.000000 0 0 1
-23.829655 -16.272124 12.917099 31.614647 0.599124 1.149899 0.038516 -0.007909 127997.000000 0 0 1
-23.034655 -16.675424 14.159199 31.767090 0.626605 1.108819 0.037690 -0.011352 -709638.000000 0 0 1
-23.881855 -17.088224 15.238899 33.084353 0.621074 1.092117 0.033236 -0.015826 126276.000000 0 0 1
-23.206255 -17.680924 16.345499 33.441302 0.651076 1.060104 0.043707 -0.010575 -575098.000000 0 0 1
-24.198655 -18.297024 17.348499 34.947481 0.647405 1.051331 0.033779 -0.000874 -46196.300000 0 0 1
-24.958955 -17.327324 18.015199 35.323264 0.606845 1.035601 0.036695 -0.004553 -412999.000000 0 0 1
-25.935905 -18.008624 18.770899 36.733205 0.606925 1.034441 0.034319 -0.000014 39042.900000 0 0 1
-26.912215 -17.038424 19.508699 37.351902 0.564411 1.021257 0.038074 0.001072 -185496.000000 0 0 1
-26.359975 -16.452324 20.632299 37.299048 0.557981 0.984645 0.037062 -0.001871 -187043.000000 0 0 1
-27.172635 -15.381024 21.079499 37.673243 0.515081 0.976972 0.048657 -0.013639 -46896.900000 0 0 1
-26.610895 -14.646724 22.333399 37.702082 0.503153 0.936805 0.054167 -0.014617 733977.000000 0 0 1
-25.395265 -13.964024 21.986899 36.377702 0.502741 0.921776 0.050172 -0.014221 422720.000000 0 0 1
-24.683055 -13.336824 23.020799 36.291614 0.495383 0.883657 0.050406 -0.018555 604848.000000 0 0 1
-23.367155 -12.657924 22.501999 34.822219 0.496446 0.868206 0.044114 -0.011071 367034.000000 0 0 1
-23.640355 -11.674024 21.517599 34.031695 0.458689 0.886302 0.065421 -0.013827 -926864.000000 0 0 1
-22.520655 -11.121724 20.985499 32.730167 0.458712 0.874778 0.055285 -0.013913 -1424460.000000 0 0 1
-22.201155 -9.667724 21.511699 32.389958 0.410697 0.844444 0.065799 -0.013927 75756.300000 0 0 1
-21.723555 -9.539724 22.846299 32.937404 0.413788 0.804283 0.067619 -0.014184 987750.000000 0 0 1
-20.284955 -9.576924 22.914399 32.066596 0.441096 0.774762 0.044015 -0.004720 837006.000000 0 0 1
-19.723055 -9.643024 24.327599 32.769176 0.454746 0.734162 0.041112 0.001741 -28122.000000 0 0 1
-19.902755 -10.871524 24.939399 33.708802 0.499946 0.737952 0.056840 -0.002849 -208795.000000 0 0 1
-19.249655 -10.953324 26.160899 34.277065 0.517324 0.702516 0.058516 -0.000755 -890942.000000 0 0 1
-19.416555 -12.280524 26.996599 35.448981 0.563958 0.705076 0.058402 -0.015486 1273090.000000 0 0 1
-20.628955 -12.500624 27.776299 36.787799 0.544801 0.715080 0.066805 -0.012836 606591.000000 0 0 1
-21.804755 -12.745524 27.031599 36.994636 0.528966 0.751465 0.060677 -0.013433 -528489.000000 0 0 1
-22.935255 -13.129824 27.966099 38.477538 0.519933 0.757121 0.056566 -0.014645 -691447.000000 0 0 1
-22.851155 -14.399524 28.672499 39.390783 0.562290 0.755544 0.055738 -0.015667 -330399.000000 0 0 1
-21.853855 -14.524424 29.656999 39.599084 0.586582 0.724348 0.052462 -0.016214 -71429.300000 0 0 1
-22.228155 -15.490824 30.811499 41.029318 0.608643 0.721277 0.050515 -0.017750 -230576.000000 0 0 1
-22.104755 -16.856224 30.564999 41.315513 0.651492 0.738031 0.049519 -0.019444 -28255.400000 0 0 1
-22.448055 -17.734924 31.661999 42.672296 0.668640 0.734777 0.047079 -0.019900 34244.500000 0 0 1
-23.923455 -17.963124 32.065299 43.854178 0.644050 0.750746 0.059276 -0.024814 -98679.600000 0 0 1
-24.444555 -16.922124 32.830799 44.291714 0.605516 0.735880 0.076549 -0.024868 380953.000000 0 0 1
-25.747775 -17.151424 33.381999 45.513483 0.587633 0.747408 0.074987 -0.021764 564015.000000 0 0 1
-26.453825 -16.104924 -33.945494 45.950735 0.546860 2.401990 0.069035 -0.015040 -94662.200000 0 0 1
-25.958955 -15.929324 -32.628994 44.634762 0.550385 2.390615 0.076870 -0.018145 -112504.000000 0 0 1
-26.576365 -14.832124 -31.885094 44.078955 0.509037 2.379457 0.069837 -0.017648 161166.000000 0 0 1
-26.107835 -14.614924 -30.412594 42.663110 0.510329 2.364357 0.062785 -0.005242 -47511.500000 0 0 1
-26.753475 -15.484624 -29.522594 42.744656 0.524677 2.333216 0.050358 0.007176 30029.200000 0 0 1
-26.124625 -15.453624 -28.236294 41.455987 0.534172 2.320081 0.049606 0.011040 144918.000000 0 0 1
-26.977925 -15.938224 -27.031494 41.382812 0.533618 2.282607 0.042327 0.010319 -103199.000000 0 0 1
-28.030395 -15.129124 -26.555694 41.470451 0.494932 2.265753 0.060830 0.004838 11127.000000 0 0 1
-27.763205 -13.894224 -25.902794 40.432657 0.464011 2.266128 0.053105 -0.009229 -435428.000000 0 0 1
-26.788985 -13.961924 -24.676594 39.006658 0.480449 2.255735 0.053441 -0.013347 -175621.000000 0 0 1
-25.424785 -13.980724 -25.015694 38.310120 0.502755 2.282307 0.040194 -0.013360 -156954.000000 0 0 1
-24.596555 -14.367424 -23.958194 37.221076 0.528664 2.270084 0.046966 -0.013269 -237178.000000 0 0 1
-24.224755 -15.852124 -24.045094 37.633697 0.579446 2.263896 0.042895 -0.006818 -886263.000000 0 0 1
-23.334555 -16.100224 -25.094294 37.860828 0.603965 2.295353 0.062768 -0.002650 72502.500000 0 0 1
-22.783655 -17.403724 -25.086294 38.096020 0.652318 2.289622 0.055664 -0.000480 -190619.000000 0 0 1
-21.872055 -17.672724 -26.288894 38.494388 0.679603 2.322560 0.052921 -0.001636 -235553.000000 0 0 1
-22.430355 -17.829024 -27.593194 39.779131 0.671600 2.337354 0.055953 -0.004204 15615.300000 0 0 1
-23.371355 -18.870624 -27.780394 40.915413 0.679252 2.317157 0.064951 -0.014379 -104944.000000 0 0 1
-24.173255 -18.658024 -29.080794 42.168243 0.657336 2.331784 0.053719 -0.008771 -120145.000000 0 0 1
-23.407255 -19.043224 -30.199294 42.691233 0.682955 2.356593 0.059764 -0.015855 179473.000000 0 0 1
-23.980155 -18.616124 -31.388994 43.667801 0.660130 2.372890 0.057198 -0.010637 -383260.000000 0 0 1
-23.151355 -19.107224 -32.596294 44.312410 0.689989 2.397351 0.055347 -0.020298 389641.000000 0 0 1
-21.994355 -18.358424 -32.997894 43.699478 0.695537 2.426618 0.050093 -0.015833 399912.000000 0 0 1
-20.760455 -18.716724 -32.435694 42.818063 0.733674 2.430308 0.046253 -0.019101 -288616.000000 0 0 1
-20.061555 -19.800424 -33.261894 43.599041 0.778847 2.438590 0.045025 -0.021303 -885468.000000 0 0 1
-19.740055 -19.431224 33.636399 43.573496 0.777514 0.688899 0.042985 -0.025647 15360.300000 0 0 1
-19.439755 -20.508424 32.784199 43.281673 0.812143 0.711380 0.043994 -0.026156 -444731.000000 0 0 1
-20.632755 -21.275824 32.218799 43.776960 0.800742 0.743689 0.042461 -0.023424 -64163.100000 0 0 1
-21.366555 -22.087724 33.140199 45.195907 0.801993 0.747697 0.035975 -0.018035 635178.000000 0 0 1
-22.614855 -22.651924 32.709999 45.765548 0.786217 0.774559 0.029851 -0.006205 628912.000000 0 0 1
-22.591855 -23.764124 31.650699 45.572933 0.810681 0.803063 0.025760 0.001222 -635563.000000 0 0 1
-22.007055 -24.926524 32.132599 46.240091 0.847522 0.802505 0.030326 0.003825 -697089.000000 0 0 1
-22.212155 -25.950124 31.187999 46.254514 0.862855 0.830822 0.035524 0.014257 -57912.300000 0 0 1
-21.685755 -27.280284 31.784499 47.167152 0.899158 0.831363 0.052555 -0.001031 -131352.000000 0 0 1
-22.406155 -27.719954 32.892899 48.501283 0.891012 0.825505 0.041117 -0.004120 -299099.000000 0 0 1
-21.806855 -28.843154 33.493499 49.287736 0.923435 0.823647 0.050885 -0.007295 -124920.000000 0 0 1
-22.835055 -29.728954 -33.946494 50.572867 0.915806 2.306676 0.049178 -0.011582 -454762.000000 0 0 1
-23.797255 -30.412934 33.508199 51.127833 0.906835 0.856110 0.039580 -0.010770 636143.000000 0 0 1
-24.977455 -29.725374 33.083899 51.009955 0.871976 0.865083 0.038201 -0.007970 156251.000000 0 0 1
-25.913575 -29.285814 -33.995594 51.815757 0.846414 2.286417 0.041878 -0.011038 -1316880.000000 0 0 1
-27.068145 -28.625824 33.812599 51.917378 0.813359 0.861530 0.037003 -0.005235 -569225.000000 0 0 1
-27.925075 -28.463694 -33.347594 51.981282 0.794950 2.267289 0.035318 0.004597 -823554.000000 0 0 1
-29.176205 -27.633234 -33.546794 52.347244 0.758244 2.266403 0.033294 -0.007731 -665655.000000 0 0 1
-29.984355 -28.108524 33.625799 53.102213 0.753119 0.885080 0.035594 -0.018724 439421.000000 0 0 1
-30.964455 -27.067594 33.337399 52.941801 0.718349 0.889631 0.036490 -0.022613 470456.000000 0 0 1
