# x y z rho theta phi s1 s2 stress_xx np intf bulk
-0.614235 -10.775058 -14.302031 17.917233 1.513853 2.495143 -0.000369 -0.001020 702431.000000 1 0 0
2.211565 -13.641158 -12.894331 18.900687 -1.410070 2.321584 -0.006903 0.007656 349298.000000 1 0 0
2.250165 -11.217958 -14.486331 18.459675 -1.372837 2.473098 -0.005783 0.001176 368100.000000 1 0 0
-5.565635 -6.282158 -16.291331 18.326191 0.845802 2.665875 0.018268 -0.013160 -789013.000000 1 0 0
4.497565 -14.194858 -11.301231 18.693312 -1.263958 2.220010 -0.007874 0.004266 612894.000000 1 0 0
13.886465 -10.720958 -7.934131 19.254176 -0.657460 1.995525 0.026506 -0.011853 -930248.000000 1 0 0
6.994565 10.802942 -10.877531 16.850762 0.996203 2.272502 0.007574 -0.008203 1566470.000000 1 0 0
5.718765 -4.150258 -12.572631 14.422204 -0.627784 2.629570 -0.002433 -0.000047 1933900.000000 1 0 0
13.693065 0.495042 -10.013531 16.971031 0.036137 2.201901 0.007648 0.002258 -244000.000000 1 0 0
14.110665 5.023042 -10.345331 18.203508 0.341988 2.175253 0.003385 -0.004546 -410298.000000 1 0 0
4.069465 4.288642 -13.472931 14.713017 0.811615 2.728080 0.010088 -0.001349 2573520.000000 1 0 0
10.305965 -5.140058 -13.592431 17.815367 -0.462644 2.438678 0.016795 -0.001105 -734052.000000 1 0 0
2.494965 -7.554358 -11.878031 14.296181 -1.251807 2.551436 -0.006310 0.000239 1959820.000000 1 0 0
-5.668335 -2.059058 -15.167831 16.322771 0.348435 2.763157 0.010773 -0.008002 459345.000000 1 0 0
10.681265 0.050042 -9.576031 14.345463 0.004685 2.301683 0.006007 -0.003911 1635530.000000 1 0 0
-1.563735 -9.602758 -16.803331 19.416749 1.409371 2.616752 0.016124 -0.002828 1475910.000000 1 0 0
8.744765 1.715042 -17.935431 20.027281 0.193664 2.680462 0.021214 -0.001020 -1196270.000000 1 0 0
16.292565 -6.194558 -8.762531 19.509028 -0.363328 2.036613 0.039256 -0.008659 -1567500.000000 1 0 0
10.103165 7.567142 -10.054831 16.138005 0.642853 2.243436 0.008725 -0.005231 -75357.700000 1 0 0
13.805865 -2.352458 -10.633931 17.584552 -0.168775 2.220225 0.014765 -0.001395 -922339.000000 1 0 0
7.303865 -1.913158 -13.608431 15.562648 -0.256182 2.635054 0.008838 -0.002712 1338090.000000 1 0 0
-2.805835 6.634542 -13.845631 15.607414 -1.170695 2.661861 0.002921 -0.003476 1517450.000000 1 0 0
11.291965 1.625642 -13.878031 17.965270 0.142982 2.453553 0.007125 -0.002230 440503.000000 1 0 0
-2.302735 10.650042 -12.887031 16.876065 -1.357856 2.439710 0.005890 -0.004096 -2934910.000000 1 0 0
2.828465 -1.067858 -15.315631 15.611185 -0.360995 2.946697 0.013636 -0.006621 1735580.000000 1 0 0
-9.058535 0.306842 -15.349531 17.825805 -0.033860 2.608196 0.007560 -0.001639 -952281.000000 1 0 0
2.303165 -1.908158 -18.035931 18.282244 -0.691875 2.977257 0.016712 -0.009870 1277720.000000 1 0 0
1.068865 7.815042 -13.231331 15.404074 1.434869 2.604012 0.004844 -0.003216 -460237.000000 1 0 0
9.312665 -9.130458 -9.807831 16.318227 -0.775519 2.215592 0.012597 -0.003111 246684.000000 1 0 0
3.938965 7.251042 -13.603531 15.910661 1.073168 2.596337 0.001667 -0.001227 508762.000000 1 0 0
-2.748135 9.101342 -15.497231 18.181058 -1.277553 2.591323 0.003412 -0.005353 785178.000000 1 0 0
5.505565 -7.716058 -15.119631 17.845224 -0.951054 2.581611 -0.002650 0.001843 400180.000000 1 0 0
4.257065 7.341242 -16.455031 18.514440 1.045300 2.665445 0.009518 0.003046 797096.000000 1 0 0
-0.224235 5.054442 -13.534631 14.449357 -1.526461 2.783864 0.009529 -0.004558 2061300.000000 1 0 0
8.832565 4.273542 -16.665831 19.339785 0.450636 2.609482 0.015354 -0.000277 -13536.200000 1 0 0
5.364565 0.186842 -14.338131 15.309979 0.034815 2.783371 0.008989 -0.000422 1434100.000000 1 0 0
6.236665 7.914642 -11.597831 15.363829 0.903421 2.426266 0.000438 -0.003057 491615.000000 1 0 0
2.720365 -8.439058 -14.833731 17.281715 -1.258959 2.602838 -0.008646 -0.003212 -358811.000000 1 0 0
4.055165 11.286242 -13.890231 18.351080 1.225859 2.429378 -0.005096 -0.012966 -1860040.000000 1 0 0
0.555565 -4.558758 -13.719231 14.467489 -1.449527 2.818569 0.005372 -0.006604 3208910.000000 1 0 0
8.459265 -0.096858 -11.578231 14.339595 -0.011449 2.510581 0.002414 -0.003152 1040740.000000 1 0 0
-1.020935 -5.175958 -16.238731 17.074227 1.376051 2.827467 0.008965 -0.012225 591243.000000 1 0 0
4.479665 0.875342 -11.758731 12.613540 0.192972 2.771326 0.007343 -0.005422 -53261.300000 1 0 0
-2.918035 -7.295558 -15.553531 17.425625 1.190312 2.673802 0.009144 -0.005324 2105350.000000 1 0 0
11.339165 -3.794158 -11.325131 16.469089 -0.322896 2.329057 0.013282 -0.004205 18471.600000 1 0 0
6.518865 -7.094058 -12.409431 15.710354 -0.827626 2.481424 -0.002580 0.002089 -898271.000000 1 0 0
3.409465 -3.987258 -14.606731 15.520286 -0.863355 2.796778 0.006419 -0.005372 2499480.000000 1 0 0
-0.635735 -1.652258 -18.292131 18.377600 1.203490 3.045111 0.023587 -0.015368 1165680.000000 1 0 0
14.981665 2.855742 -8.507731 17.463878 0.188356 2.079633 0.002287 0.000946 -1448630.000000 1 0 0
6.944765 4.242442 -14.319431 16.470403 0.548384 2.624791 0.008531 0.000550 3909250.000000 1 0 0
10.037665 -9.724858 -13.986831 19.772684 -0.769571 2.356583 0.025077 -0.007045 -436501.000000 1 0 0
9.097465 -3.267558 -15.455931 18.229827 -0.344823 2.582690 0.015669 -0.004855 206400.000000 1 0 0
-5.280635 -2.044058 -18.046431 18.913935 0.369324 2.837550 0.007490 -0.003977 -1213030.000000 1 0 0
4.950365 -9.115758 -11.016531 15.131659 -1.073300 2.386262 -0.014080 0.002501 1421560.000000 1 0 0
-2.500135 3.890942 -17.311531 17.918684 -0.999674 2.880530 0.006408 0.001330 976835.000000 1 0 0
9.312465 9.362842 -14.561931 19.657941 0.788096 2.405006 0.026847 -0.008129 -1157770.000000 1 0 0
9.751065 10.014842 -11.705431 18.231771 0.798742 2.267946 0.012993 -0.008323 583818.000000 1 0 0
11.928065 -6.000258 -9.661131 16.480876 -0.466074 2.197160 0.016381 -0.007680 -237395.000000 1 0 0
8.165365 6.875442 -13.648731 17.327226 0.699846 2.477870 0.007341 -0.001263 226774.000000 1 0 0
3.920665 -4.293458 -17.484831 18.426196 -0.830751 2.820565 0.016384 -0.010395 824163.000000 1 0 0
9.338265 -7.565058 -12.285231 17.186046 -0.680878 2.367188 0.012690 -0.003263 -371437.000000 1 0 0
11.986565 -8.671858 -8.737731 17.182165 -0.626301 2.104279 0.022211 -0.010686 17168.800000 1 0 0
-3.017735 -2.560658 -13.876231 14.429604 0.703644 2.863753 0.009399 -0.009337 -883656.000000 1 0 0
-0.371735 6.083442 -17.635131 18.658626 -1.509766 2.808839 0.011736 -0.002346 1543160.000000 1 0 0
1.126365 -8.401758 -17.279131 19.246470 -1.437528 2.685503 0.008063 -0.009566 2052550.000000 1 0 0
0.067465 8.577942 -16.063131 18.210157 1.562932 2.651092 0.004035 -0.001250 -656205.000000 1 0 0
1.784765 3.359642 -15.039531 15.513223 1.082473 2.893837 0.016372 -0.001696 1496050.000000 1 0 0
-1.993535 -0.497058 -15.789131 15.922246 0.244352 3.012194 0.015272 -0.007174 1702690.000000 1 0 0
14.145565 -4.370758 -8.469631 17.056822 -0.299679 2.090420 0.024456 -0.004825 173420.000000 1 0 0
0.498965 0.633142 -14.662531 14.684674 0.903368 3.086669 0.012022 -0.005338 1261120.000000 1 0 0
8.875265 2.665842 -12.558131 15.607168 0.291794 2.505863 0.004091 0.001383 1739690.000000 1 0 0
6.042765 0.949642 -17.080431 18.142711 0.155879 2.797698 0.020576 0.000089 -558992.000000 1 0 0
15.330265 1.458942 -12.369331 19.752111 0.094882 2.247502 0.015359 -0.005694 -205331.000000 1 0 0
8.766265 -11.267658 -11.837131 18.545220 -0.909613 2.263064 0.017326 -0.001202 2497020.000000 1 0 0
-4.684735 0.709842 -14.980631 15.712095 -0.150379 2.835260 0.011377 -0.006471 26421.900000 1 0 0
2.411365 5.097942 -17.320331 18.215311 1.128975 2.826819 0.018646 -0.000446 2359220.000000 1 0 0
5.871065 -11.757958 -12.233331 17.954759 -1.107687 2.320391 -0.003896 0.003310 612062.000000 1 0 0
12.697965 7.094142 -8.614831 16.905043 0.509485 2.105518 0.004274 -0.006468 -808628.000000 1 0 0
-4.989735 3.544642 -15.780031 16.925464 -0.617663 2.771586 0.005242 -0.003325 2118610.000000 1 0 0
-0.621135 -4.495958 -19.021131 19.555124 1.433511 2.907361 0.022755 -0.016207 -1269150.000000 1 0 0
9.882265 4.383842 -10.270631 14.911844 0.417525 2.330569 0.002811 -0.000055 -1651230.000000 1 0 0
13.377865 3.614842 -12.864431 18.908409 0.263908 2.319043 0.011218 -0.006434 1241930.000000 1 0 0
-6.282435 5.584842 -17.291331 19.226273 -0.726683 2.689099 0.002357 0.005148 -546091.000000 1 0 0
-10.071235 3.099542 -15.537931 18.774031 -0.298563 2.545666 0.000103 0.003404 -1153730.000000 1 0 0
10.617465 13.541142 -8.487131 19.186571 0.905833 2.029011 0.035825 -0.003916 -1169300.000000 1 0 0
7.394465 13.369842 -12.369031 19.657663 1.065599 2.251348 0.025001 -0.011558 99477.300000 1 0 0
5.272965 15.071742 -11.334931 19.581681 1.234248 2.188119 0.009254 -0.011888 191416.000000 1 0 0
14.023265 9.345442 -9.910031 19.549884 0.587835 2.102393 0.030850 -0.009068 -1118720.000000 1 0 0
8.081565 -17.308458 -2.017131 19.208415 -1.133966 1.676003 0.017588 0.003660 1640450.000000 1 0 0
0.668565 -15.908458 0.014269 15.922506 -1.528795 1.569900 0.005250 -0.007724 2997020.000000 1 0 0
-9.120135 -11.669058 7.491869 16.597345 0.907397 1.102474 0.005625 -0.007820 1653470.000000 1 0 0
1.986565 -15.845358 -2.531831 16.168858 -1.446075 1.728030 0.001852 -0.005811 2282800.000000 1 0 0
-1.246535 -11.039558 -9.462631 14.593391 1.458357 2.276302 0.003631 -0.000899 -27552.300000 1 0 0
-4.818035 -12.776058 -12.977431 18.837591 1.210173 2.330782 0.027405 -0.000184 -21504.300000 1 0 0
-8.401635 -17.946358 -1.648831 19.884111 1.132950 1.653814 0.014842 0.001305 -981940.000000 1 0 0
-11.383835 -7.098558 -8.858631 16.076584 0.557567 2.154391 0.009797 -0.006666 2308430.000000 1 0 0
-13.641035 -11.376758 -4.661631 18.364075 0.695137 1.827450 0.012771 -0.005445 545877.000000 1 0 0
-5.811535 -13.445758 9.805769 17.627122 1.162826 0.980883 0.006037 -0.007079 9119.130000 1 0 0
0.138065 -13.984458 -3.683531 14.462106 -1.560924 1.828336 0.000441 -0.003865 276425.000000 1 0 0
-14.864135 -11.691958 2.008269 19.017821 0.666510 1.465000 0.004469 0.000351 650125.000000 1 0 0
-3.910735 -16.571258 -7.533531 18.618660 1.339042 1.987362 0.006849 -0.004790 526640.000000 1 0 0
0.529665 -15.295258 -9.094831 17.802848 -1.536181 2.106986 0.001818 0.001633 -366063.000000 1 0 0
4.478365 -14.209858 -2.591631 15.122578 -1.265491 1.743021 -0.003088 0.001430 659509.000000 1 0 0
-3.531735 -17.980058 -2.415331 18.482139 1.376840 1.701856 0.002900 -0.013972 1260740.000000 1 0 0
-0.944835 -13.424458 0.625469 13.472193 1.500531 1.524353 0.007524 -0.005341 3068650.000000 1 0 0
-8.545935 -11.476758 -10.426131 17.704609 0.930741 2.200486 0.017442 -0.003747 2933600.000000 1 0 0
-3.827535 -14.073958 -0.381631 14.590132 1.305260 1.596956 0.002662 -0.001968 5146870.000000 1 0 0
-1.546835 -14.940658 -7.260731 16.683350 1.467632 2.021066 -0.000967 -0.002637 378227.000000 1 0 0
-14.226635 -7.918058 -1.813731 16.382381 0.507870 1.681736 0.006498 -0.002794 1257810.000000 1 0 0
-10.760135 -7.393358 -11.679431 17.517173 0.602020 2.300625 0.014993 -0.006210 -1763590.000000 1 0 0
-9.426635 -14.666358 6.848769 18.731501 0.999543 1.196488 -0.006460 -0.002455 -108873.000000 1 0 0
-2.458335 -14.321658 -12.256431 19.009823 1.400801 2.271482 0.018525 -0.000749 1835860.000000 1 0 0
2.343465 -17.748258 -4.641431 18.494198 -1.439517 1.824475 0.008201 -0.009658 1456490.000000 1 0 0
-6.637435 -9.754358 -9.222731 14.975373 0.973306 2.234273 0.021008 -0.009812 533772.000000 1 0 0
-11.027835 -15.287858 0.595469 18.859648 0.945887 1.539217 0.007608 -0.001808 -1124990.000000 1 0 0
-12.676335 -11.105558 4.077769 17.339293 0.719445 1.333398 0.014204 -0.006228 3562550.000000 1 0 0
-17.069735 -8.815858 -1.524731 19.272260 0.476730 1.649994 0.003151 -0.001608 -232931.000000 1 0 0
-1.440635 -19.243958 -3.911731 19.690276 1.496074 1.770790 0.011760 -0.007554 -287822.000000 1 0 0
3.212265 -14.228558 -8.598131 16.932169 -1.348757 2.103424 -0.009365 0.004986 864658.000000 1 0 0
-4.337835 -8.135258 -13.006731 15.942844 1.080932 2.524968 0.010680 -0.004468 1668150.000000 1 0 0
5.435565 -16.628258 1.323669 17.544128 -1.254858 1.495277 0.013831 -0.001654 4929600.000000 1 0 0
-2.855935 -13.719258 -3.210831 14.376503 1.365558 1.796035 0.008620 -0.005813 767469.000000 1 0 0
-0.488235 -13.952258 3.661769 14.433032 1.535817 1.314285 0.007422 -0.000412 -3022090.000000 1 0 0
1.201665 -16.115858 6.945869 17.590053 -1.496370 1.164865 0.017863 -0.006148 2036470.000000 1 0 0
-5.411535 -10.402158 -14.558531 18.693326 1.091094 2.463561 0.022001 -0.005455 -508316.000000 1 0 0
-0.277935 -17.256858 -5.799331 18.207378 1.554692 1.894959 0.007602 -0.008826 1506010.000000 1 0 0
-6.630735 -13.422958 -1.281331 15.026119 1.111973 1.656174 0.010320 -0.004708 2743190.000000 1 0 0
-1.742535 -17.666858 -0.122731 17.753009 1.472481 1.577710 0.005142 -0.008967 2391540.000000 1 0 0
-9.524535 -9.707658 -4.850331 14.438874 0.794920 1.913380 0.018501 -0.008808 1132790.000000 1 0 0
-0.858935 -16.699158 4.869169 17.415753 1.519406 1.287435 0.014839 -0.002440 1171590.000000 1 0 0
-6.867835 -9.975258 -6.287131 13.645546 0.967839 2.049632 0.021211 -0.008625 3354170.000000 1 0 0
-6.062435 -14.645958 -8.597331 18.032507 1.178337 2.067771 0.023616 -0.006480 1332180.000000 1 0 0
-5.734935 -12.270558 -10.278131 17.002825 1.133589 2.219929 0.027850 -0.005642 1153620.000000 1 0 0
-10.984435 -12.145458 -8.792331 18.586959 0.835552 2.063532 0.035462 -0.015456 279653.000000 1 0 0
4.030965 -17.014658 6.669869 18.714550 -1.338174 1.206384 0.032186 -0.010081 267385.000000 1 0 0
-6.732135 -14.358458 -4.107831 16.381734 1.132368 1.824258 0.019274 -0.012368 737774.000000 1 0 0
-2.836135 -12.160158 -7.142131 14.384823 1.341661 2.090364 0.011122 -0.005208 2384040.000000 1 0 0
-6.968035 -12.783658 4.358169 15.197666 1.071743 1.279947 -0.003916 -0.000861 3093380.000000 1 0 0
2.480765 -16.396158 2.390969 16.754250 -1.420634 1.427599 0.008560 -0.006138 2491730.000000 1 0 0
-6.161635 -11.944258 7.216769 15.254927 1.094537 1.078015 -0.001504 -0.000828 1234710.000000 1 0 0
-11.358035 -12.724758 -0.869631 17.078661 0.842088 1.621738 0.016055 -0.001124 637442.000000 1 0 0
-14.358735 -8.794558 4.652969 17.469048 0.549552 1.301187 0.016808 -0.009177 1095730.000000 1 0 0
-7.935935 -15.546958 4.495769 18.024952 1.098824 1.318716 -0.013152 0.003846 309809.000000 1 0 0
-16.465635 -9.233358 1.220569 18.917236 0.511071 1.506230 -0.008321 0.000650 -453013.000000 1 0 0
-6.647235 -17.164358 2.417869 18.564671 1.201312 1.440185 -0.012345 0.007346 1046110.000000 1 0 0
-11.682935 -14.749758 -4.803731 19.419633 0.900906 1.820756 0.027042 -0.006208 -1018990.000000 1 0 0
-10.072035 -10.110758 -12.587731 19.029563 0.787317 2.293591 0.011244 -0.003414 346288.000000 1 0 0
-4.368035 -15.948458 -4.585231 17.159760 1.303467 1.841291 0.007230 -0.009953 -1341640.000000 1 0 0
-11.816935 -8.257358 -0.051731 14.416192 0.609902 1.574385 0.010734 -0.001891 1200640.000000 1 0 0
-9.606535 -11.160758 3.434769 15.121034 0.860099 1.341644 0.004072 -0.002172 3744700.000000 1 0 0
-14.309835 -12.919258 -0.604631 19.288447 0.734373 1.602148 0.009942 0.006709 886153.000000 1 0 0
5.545865 -14.901158 -7.004031 17.374049 -1.214503 1.985733 -0.001116 -0.005081 701358.000000 1 0 0
-7.457735 -10.539558 -1.328331 12.979389 0.954991 1.673317 0.012037 -0.005579 43694.100000 1 0 0
-11.708135 -8.169758 -6.080331 15.517596 0.609238 1.973421 0.009657 -0.007082 526871.000000 1 0 0
-14.385935 -6.585458 -9.243131 18.323724 0.429297 2.099524 0.010053 -0.009457 1966030.000000 1 0 0
-3.956635 -16.337258 1.430069 16.870271 1.333187 1.485926 -0.001574 -0.005193 2255390.000000 1 0 0
-8.111335 -15.585858 0.158969 17.570941 1.090939 1.561749 0.008942 -0.003143 2924190.000000 1 0 0
0.978765 -18.615258 3.725569 19.009620 -1.518266 1.373536 0.015515 -0.006007 1882800.000000 1 0 0
-14.202835 -8.618458 -4.583331 17.233840 0.545414 1.839985 0.006302 -0.007493 -150318.000000 1 0 0
-3.328335 -14.414558 11.204569 18.558008 1.343872 0.922588 0.004733 -0.009372 1044110.000000 1 0 0
-10.937135 -12.061858 -3.750231 16.708488 0.834262 1.797176 0.023649 -0.010845 1679570.000000 1 0 0
-9.970235 -10.629458 0.473569 14.581331 0.817389 1.538313 0.009469 -0.001008 477925.000000 1 0 0
0.055765 -13.193758 -11.073631 17.225088 -1.566570 2.269046 0.005264 -0.002844 1750750.000000 1 0 0
-5.786735 -12.700758 -6.315331 15.319235 1.143278 1.995717 0.020073 -0.011305 1653250.000000 1 0 0
1.760465 -15.838958 9.749769 18.682339 -1.460103 1.021754 0.017976 -0.004511 -478608.000000 1 0 0
-9.095035 -15.611958 -5.480931 18.881035 1.043293 1.865324 0.039150 -0.011317 -1238870.000000 1 0 0
-3.349735 -15.429258 5.844569 16.835727 1.357011 1.216263 0.000042 -0.000321 -228496.000000 1 0 0
-17.473035 -5.342158 -6.540031 19.406638 0.296712 1.914525 0.011240 -0.008145 260968.000000 1 0 0
18.869765 5.615842 -3.052431 19.922928 0.289263 1.724614 0.004540 0.012096 -946732.000000 1 0 0
12.751365 -12.555158 -5.957831 18.860674 -0.777645 1.892187 0.033167 -0.005285 607765.000000 1 0 0
10.935065 -13.589558 -1.623131 17.518170 -0.893216 1.663584 0.029085 -0.003478 2585350.000000 1 0 0
18.725365 -2.980558 4.532469 19.495289 -0.157848 1.336159 0.034279 -0.005731 -1337960.000000 1 0 0
8.627565 -16.747658 5.044269 19.502912 -1.095102 1.309180 0.040536 -0.021261 514009.000000 1 0 0
18.162565 -1.121258 6.633269 19.368434 -0.061656 1.221243 0.054285 -0.008346 -275114.000000 1 0 0
17.965865 -4.349058 -4.908631 19.125409 -0.237505 1.830356 0.039791 -0.005225 -76216.200000 1 0 0
5.354865 -11.791758 14.788169 19.657316 -1.144522 0.719252 0.004136 0.001869 -804047.000000 1 0 0
15.948865 -9.017758 -0.728931 18.336237 -0.514602 1.610560 0.035642 -0.009730 235179.000000 1 0 0
13.792865 -12.764458 -1.309731 18.838522 -0.746693 1.640377 0.031535 -0.003077 -52658.300000 1 0 0
10.961965 -1.745558 13.929969 17.811673 -0.157912 0.672816 -0.009301 0.002449 -383608.000000 1 0 0
16.992465 -6.336558 -1.317531 18.183281 -0.356932 1.643318 0.032360 -0.007121 -86524.900000 1 0 0
17.790265 3.754142 -1.052431 18.212488 0.207971 1.628615 0.009496 0.006061 903963.000000 1 0 0
9.766665 -11.089558 9.572469 17.606765 -0.848742 0.995979 0.019992 -0.006799 -239814.000000 1 0 0
9.027565 -11.052458 4.309969 14.907367 -0.885900 1.277492 0.004284 -0.008738 944034.000000 1 0 0
13.946665 -10.196658 6.768769 18.555256 -0.631307 1.197389 0.018765 -0.013286 129624.000000 1 0 0
16.298965 -0.590158 -4.637031 16.956020 -0.036192 1.847799 0.013482 0.003050 -1175300.000000 1 0 0
15.792965 -0.530858 -1.601031 15.882785 -0.033601 1.671771 0.012409 0.003479 954420.000000 1 0 0
12.852665 -5.223658 -0.298431 13.876839 -0.386034 1.592304 0.010876 -0.003533 1329540.000000 1 0 0
14.245665 -7.592158 1.072069 16.178046 -0.489655 1.504481 0.019057 -0.004365 1807290.000000 1 0 0
15.642565 2.470442 3.596869 16.239778 0.156637 1.347459 0.023342 -0.001036 2389710.000000 1 0 0
15.889265 -7.154458 4.976769 18.122451 -0.423078 1.292603 0.026185 -0.010375 -848290.000000 1 0 0
13.681965 -12.189158 3.228369 18.606292 -0.727760 1.396404 0.027098 -0.011878 456604.000000 1 0 0
13.970465 -1.008358 9.257169 16.789457 -0.072053 0.986793 0.016918 -0.002615 871827.000000 1 0 0
14.191265 -2.821058 -1.501331 14.546627 -0.196230 1.674189 0.008577 0.002454 247919.000000 1 0 0
14.992165 1.776842 9.254569 17.707886 0.117968 1.020870 0.024028 0.001231 16378.800000 1 0 0
14.343065 -10.317758 -2.961931 17.915152 -0.623598 1.736890 0.033766 -0.008906 -1208580.000000 1 0 0
7.252065 -12.535158 6.182269 15.746208 -1.046307 1.167318 0.008657 -0.011314 647653.000000 1 0 0
12.412365 -4.636158 6.986269 14.978942 -0.357465 1.085573 0.003997 -0.001463 2345300.000000 1 0 0
14.939865 -9.206158 -5.689331 18.447802 -0.552257 1.884309 0.046638 -0.010645 -831382.000000 1 0 0
14.289565 -4.613558 4.664769 15.723761 -0.312297 1.269593 0.015565 -0.007198 298627.000000 1 0 0
17.141765 -4.371958 0.946369 17.715805 -0.249723 1.517351 0.022619 -0.005922 -507670.000000 1 0 0
10.076365 -14.478358 1.083769 17.672875 -0.962787 1.509434 0.029845 -0.010316 1716740.000000 1 0 0
16.427965 -2.632858 8.533569 18.698443 -0.158915 1.096875 0.042443 -0.011869 1423090.000000 1 0 0
16.052865 -2.705158 3.228069 16.596168 -0.166947 1.375042 0.028199 -0.006925 711166.000000 1 0 0
7.663765 -15.232158 2.713269 17.265971 -1.104647 1.412997 0.017358 -0.010511 1820860.000000 1 0 0
16.556665 -7.145358 7.856469 19.669860 -0.407422 1.159916 0.028299 -0.007541 -20396.400000 1 0 0
10.232665 -8.515858 5.164969 14.279502 -0.694083 1.200700 0.003039 -0.006017 93031.600000 1 0 0
10.923065 -11.922958 2.266169 16.328067 -0.829137 1.431557 0.020534 -0.010902 736062.000000 1 0 0
12.263965 -7.324358 12.156369 18.757088 -0.538377 0.865716 0.006817 -0.003948 -645431.000000 1 0 0
15.188665 -9.963458 4.264369 18.658801 -0.580567 1.340214 0.024334 -0.012478 -2052240.000000 1 0 0
7.407665 -10.192058 7.853069 14.846623 -0.942304 1.013438 0.004177 -0.002718 808737.000000 1 0 0
15.262865 -3.395958 -4.263231 16.206872 -0.218932 1.836979 0.023793 0.002709 -559593.000000 1 0 0
11.839565 -9.034658 9.835169 17.847433 -0.651826 0.987151 0.013299 -0.003868 -1722780.000000 1 0 0
16.923065 -6.731258 2.475269 18.380068 -0.378571 1.435715 0.027009 -0.008802 1874750.000000 1 0 0
17.622865 4.001542 1.987669 18.180444 0.223279 1.461247 0.018232 0.005110 -19911.000000 1 0 0
14.668365 -5.040558 8.773269 17.819607 -0.330993 1.056023 0.025764 -0.009399 153292.000000 1 0 0
12.789065 -12.814758 6.040069 19.085613 -0.786402 1.248788 0.028065 -0.014072 -441205.000000 1 0 0
18.200565 0.846642 -0.708631 18.234021 0.046484 1.609669 0.016843 -0.001815 -30813.300000 1 0 0
11.727065 -2.128858 11.101369 16.287924 -0.179578 0.820890 0.001587 0.003114 -427229.000000 1 0 0
5.886165 -12.396358 10.557069 17.313819 -1.127487 0.915054 0.007819 -0.005764 -2030520.000000 1 0 0
10.723565 -5.020858 11.156469 16.268702 -0.437892 0.815145 -0.004854 0.003524 129625.000000 1 0 0
17.940365 1.234242 5.010169 18.667668 0.068689 1.299078 0.035066 -0.001517 67456.100000 1 0 0
12.220965 -7.764558 7.156269 16.150929 -0.566006 1.111757 0.011166 -0.008031 -1897490.000000 1 0 0
10.515565 -7.999358 14.420769 19.558257 -0.650324 0.741696 -0.000409 0.001345 -94580.200000 1 0 0
14.252665 -0.276858 3.771669 14.745867 -0.019423 1.312144 0.012743 0.000461 1732050.000000 1 0 0
11.642465 -7.741958 2.578069 14.217290 -0.586831 1.388454 0.005964 -0.002574 2155580.000000 1 0 0
9.265765 6.115042 3.468269 11.630866 0.583346 1.267995 0.011383 0.000847 1769980.000000 1 0 0
-3.906835 14.736642 -9.921031 18.189526 -1.311648 2.147693 0.005729 -0.005072 824073.000000 1 0 0
8.916765 -6.405258 9.284869 14.378623 -0.622928 0.868803 -0.001702 -0.001343 593933.000000 1 0 0
5.743365 -10.586758 -8.437331 14.705585 -1.073726 2.181874 -0.004429 -0.002396 -126917.000000 1 0 0
5.358565 1.140842 0.509769 5.502327 0.209769 1.478017 0.003035 0.001158 4967450.000000 1 0 0
-0.590535 9.969942 10.935369 14.809820 -1.511634 0.740122 0.002929 -0.001449 -993117.000000 1 0 0
-6.309435 -5.109158 1.042769 8.185342 0.680667 1.443055 0.003777 -0.002100 1280320.000000 1 0 0
-1.064535 3.924042 -10.963031 11.692707 -1.305887 2.786446 0.011442 -0.004820 513512.000000 1 0 0
10.974265 5.731842 1.249569 12.443871 0.481327 1.470210 0.008657 0.001040 859374.000000 1 0 0
-10.193835 -1.880258 -13.707931 17.185954 0.182400 2.494142 0.011924 -0.008349 1426410.000000 1 0 0
7.461165 10.913942 -6.174731 14.591451 0.971137 2.007743 -0.000310 -0.000260 79471.600000 1 0 0
-12.506635 -2.951558 -9.546331 16.008124 0.231759 2.209734 0.007620 -0.004359 46167.600000 1 0 0
-3.929835 -8.578158 2.428769 9.743065 1.141209 1.318858 0.004355 -0.002294 -852463.000000 1 0 0
8.056065 -6.669858 -5.823731 11.970924 -0.691541 2.078864 0.002484 -0.003996 503861.000000 1 0 0
14.396665 3.244542 -4.216231 15.348212 0.221664 1.849079 0.008364 0.002224 1390020.000000 1 0 0
-2.452335 -5.028158 9.788069 11.273979 1.117021 0.519233 0.004657 0.000850 2928910.000000 1 0 0
3.379065 -1.941158 -4.577731 6.011805 -0.521433 2.436354 0.003170 -0.002115 -1857610.000000 1 0 0
-4.047935 8.471242 -3.470931 10.009750 -1.125030 1.924906 0.001511 -0.001158 -128320.000000 1 0 0
5.840465 0.073442 11.654269 13.036043 0.012574 0.464594 -0.002860 0.001206 486901.000000 1 0 0
7.187465 4.792442 12.400969 15.113278 0.588080 0.608451 0.001042 0.003956 612486.000000 1 0 0
1.185165 -14.542658 12.393869 19.144229 -1.489480 0.866635 0.003146 -0.000263 225624.000000 1 0 0
3.010565 8.674342 -9.231731 13.020468 1.236738 2.358899 0.004085 -0.004441 1071600.000000 1 0 0
-4.462235 -8.904558 -4.586331 10.965269 1.106255 2.002325 0.011902 -0.004729 1255700.000000 1 0 0
5.806065 -6.535658 -3.931331 9.585436 -0.844445 1.993399 0.002344 -0.005753 3304670.000000 1 0 0
-3.128135 3.484642 8.694469 9.875310 -0.839258 0.494039 0.004590 -0.000858 3073610.000000 1 0 0
-3.749735 3.061442 -11.172731 12.176324 -0.684687 2.732742 0.003925 -0.005690 929520.000000 1 0 0
3.062265 -6.081758 8.511369 10.899938 -1.104340 0.674749 -0.000735 0.000551 1272570.000000 1 0 0
-5.145835 -8.738858 10.514869 14.608549 1.038619 0.767318 0.008292 -0.004736 1552880.000000 1 0 0
-13.269435 -2.556858 6.538569 15.012272 0.190355 1.120149 0.015606 -0.007555 218737.000000 1 0 0
3.943965 -5.938158 -8.308431 10.947447 -0.984522 2.432477 -0.001507 -0.003367 3676350.000000 1 0 0
2.986265 -0.515958 12.327769 12.694797 -0.171088 0.241048 0.000778 0.001328 696778.000000 1 0 0
1.488565 -1.403158 -7.598531 7.869076 -0.755872 2.878611 0.005359 -0.004586 236299.000000 1 0 0
3.588465 -3.529558 3.418369 6.084415 -0.777123 0.974208 0.004693 -0.000162 3166840.000000 1 0 0
1.567565 0.425542 -11.939531 12.049512 0.265079 3.006379 0.010812 -0.006355 1117540.000000 1 0 0
4.109065 3.588042 -10.577431 11.901282 0.717811 2.665438 0.004143 -0.002521 1152150.000000 1 0 0
2.904565 3.304442 3.387969 5.552852 0.849712 0.914570 -0.001804 0.003846 80272.200000 1 0 0
-5.337035 0.977942 2.619569 6.025152 -0.181227 1.121011 0.002810 -0.002178 1315790.000000 1 0 0
-9.482735 -9.319558 5.632669 14.439646 0.776720 1.170074 0.008265 -0.004598 -2162210.000000 1 0 0
-3.030235 3.907542 -0.564731 4.976960 -0.911184 1.684510 0.002746 -0.005106 258938.000000 1 0 0
-15.941335 -6.532358 4.994169 17.937101 0.388904 1.288641 0.035527 -0.012427 1829380.000000 1 0 0
1.002165 6.664742 -8.089131 10.528873 1.421546 2.446947 0.006801 -0.003331 1440330.000000 1 0 0
-1.674735 6.453742 -9.486431 11.595167 -1.316898 2.528959 0.005922 -0.002118 1076540.000000 1 0 0
2.128065 -0.348858 5.229269 5.656467 -0.162487 0.391137 0.004597 0.001489 3646380.000000 1 0 0
-3.456135 -0.625858 -6.253231 7.172131 0.179145 2.629823 0.006951 -0.007143 -675431.000000 1 0 0
1.875065 -1.066158 -2.439831 3.256584 -0.517009 2.417649 0.007564 -0.001443 272989.000000 1 0 0
2.409565 -8.541958 -7.595531 11.681744 -1.295855 2.278651 -0.004455 -0.001404 1344000.000000 1 0 0
-2.435035 13.908142 -5.579231 15.182017 -1.397473 1.947104 0.003511 -0.001137 3385790.000000 1 0 0
6.860765 -5.094658 -8.102231 11.775898 -0.638734 2.329574 0.003004 -0.004447 3540950.000000 1 0 0
-14.195635 -4.960958 -2.115331 15.185578 0.336203 1.710549 0.003518 -0.006235 68234.900000 1 0 0
-2.746135 6.865442 -6.853731 10.082122 -1.190295 2.318273 0.003499 -0.002004 -2227420.000000 1 0 0
-5.667135 -1.131058 -8.136531 9.979922 0.196993 2.524026 0.012524 -0.011502 -803913.000000 1 0 0
-5.661335 -10.518958 3.490369 12.445154 1.077055 1.286523 0.003535 -0.002115 -2846540.000000 1 0 0
8.150265 -7.546458 6.702869 12.973214 -0.746950 1.027839 -0.002630 -0.001468 -516924.000000 1 0 0
8.822265 -5.973358 13.253269 17.004779 -0.595176 0.677113 -0.001183 0.002646 657527.000000 1 0 0
-4.770735 9.522042 -0.866431 10.685500 -1.106333 1.651970 0.002692 -0.000642 656533.000000 1 0 0
2.768065 6.636242 12.071969 14.051133 1.175625 0.537199 0.004587 -0.001103 1856820.000000 1 0 0
6.109165 -2.839658 10.905769 12.818789 -0.435109 0.553358 -0.003410 0.005005 55575.200000 1 0 0
-9.652535 -6.486258 -1.150931 11.686215 0.591668 1.669442 0.010158 -0.003361 -945329.000000 1 0 0
0.831965 -13.310658 6.268769 14.736459 -1.508374 1.131402 0.007317 -0.000853 1140730.000000 1 0 0
-0.550935 -3.136058 8.702469 9.266680 1.396893 0.350754 0.004827 -0.000458 1610290.000000 1 0 0
4.271665 0.782642 3.419069 5.527177 0.181207 0.903847 0.001121 0.002841 700856.000000 1 0 0
-10.239535 5.597742 8.298469 14.319476 -0.500290 0.952653 -0.000599 -0.004076 -501668.000000 1 0 0
9.398465 8.026242 -0.111231 12.359777 0.706809 1.579796 0.008450 0.003968 1765450.000000 1 0 0
4.395065 2.976642 8.184369 9.755044 0.595307 0.575375 -0.000148 -0.001169 3960220.000000 1 0 0
1.340065 2.637842 -9.794031 10.231179 1.100757 2.848216 0.010123 -0.005703 2518520.000000 1 0 0
-1.384135 -10.118258 3.040269 10.655431 1.434844 1.281450 0.005286 -0.004733 -446575.000000 1 0 0
-10.048135 9.482542 9.012869 16.495922 -0.756447 0.992773 0.001694 -0.006522 1099470.000000 1 0 0
9.763165 -1.974358 -7.568631 12.510062 -0.199534 2.220567 0.008749 -0.002812 -262290.000000 1 0 0
-5.220335 -1.847058 6.675069 8.672950 0.340074 0.692516 0.005057 0.000167 261553.000000 1 0 0
3.163665 -7.755958 -4.872631 9.690520 -1.183497 2.097660 -0.004987 -0.004074 4553320.000000 1 0 0
-5.050435 4.853842 -13.105831 14.860333 -0.765552 2.650746 -0.002429 -0.006807 2686970.000000 1 0 0
-5.696835 9.680142 5.428669 12.475157 -1.038870 1.120582 0.002888 -0.001392 366853.000000 1 0 0
-0.520635 -1.714958 -9.367131 9.537048 1.276054 2.952544 0.006948 -0.008270 1736680.000000 1 0 0
-16.731535 0.126942 6.423369 17.922613 -0.007587 1.204249 0.019411 -0.005414 -146219.000000 1 0 0
-6.000535 -2.857458 4.037969 7.776675 0.444427 1.024834 -0.001831 -0.000589 1912900.000000 1 0 0
0.956665 -5.638758 -5.097831 7.661506 -1.402738 2.298802 0.000948 -0.003155 1717790.000000 1 0 0
-7.026235 1.408142 -8.552531 11.157806 -0.197792 2.444180 0.002211 -0.006103 630030.000000 1 0 0
8.061965 2.078742 4.741769 9.581275 0.252349 1.053077 0.002472 0.000857 858242.000000 1 0 0
0.517765 -8.044358 -0.499631 8.076472 -1.506521 1.632698 0.001059 -0.003466 926575.000000 1 0 0
5.419165 5.542842 -3.458431 8.488298 0.796680 1.990440 0.003424 0.000232 124915.000000 1 0 0
-0.739535 -0.303658 -1.178431 1.424015 0.389616 2.545510 0.003744 -0.002873 393510.000000 1 0 0
9.096265 6.449642 -6.372331 12.843151 0.616769 2.089973 0.003450 -0.002503 1939630.000000 1 0 0
-14.962435 -7.035058 2.455969 16.715211 0.439509 1.423332 0.001554 -0.008400 619373.000000 1 0 0
-6.427735 6.832142 8.899369 12.930302 -0.815887 0.811713 -0.000397 0.001217 1055340.000000 1 0 0
-9.533635 -3.182958 -9.595731 13.896024 0.322230 2.333029 0.004290 -0.007249 1146130.000000 1 0 0
14.919065 3.508342 -1.298531 15.380935 0.230962 1.655322 0.000662 0.003827 1732090.000000 1 0 0
12.137765 1.660942 -5.684131 13.505311 0.135996 2.005213 0.008253 -0.000192 -137866.000000 1 0 0
1.697865 -9.415058 12.690569 15.892658 -1.392379 0.645968 -0.004043 -0.003529 880505.000000 1 0 0
-3.609635 6.389142 7.941069 10.812547 -1.056537 0.745969 0.003017 0.000158 209799.000000 1 0 0
-3.971535 13.011442 -12.351931 18.375008 -1.274545 2.307991 0.008741 -0.006979 628237.000000 1 0 0
-10.270135 7.754642 6.471769 14.404650 -0.646736 1.104833 -0.003165 -0.002840 551113.000000 1 0 0
7.960565 -9.301958 -7.089031 14.147486 -0.862948 2.095643 0.002407 -0.002564 258603.000000 1 0 0
5.758665 -3.768258 -0.321831 6.889526 -0.579436 1.617526 0.004161 -0.003078 671346.000000 1 0 0
-1.654835 -4.465058 4.149569 6.316181 1.215872 0.853998 0.003868 -0.000723 1608900.000000 1 0 0
9.871465 -2.088758 -2.642431 10.430301 -0.208520 1.826930 0.007915 -0.002596 -2983000.000000 1 0 0
13.642065 6.975142 1.329369 15.379394 0.472644 1.484250 0.010978 0.003716 690425.000000 1 0 0
5.391365 -3.690158 -3.172231 7.262722 -0.600218 2.022815 0.005127 -0.006523 -2066370.000000 1 0 0
-12.225435 -6.029558 2.024669 13.781005 0.458191 1.423345 0.005877 -0.003515 1115110.000000 1 0 0
3.634265 -5.728758 -0.260831 6.789299 -1.005473 1.609224 0.002882 -0.002925 -1029720.000000 1 0 0
-5.192635 3.699842 -8.718731 10.801322 -0.619078 2.510174 0.002056 -0.005206 420502.000000 1 0 0
-1.691035 -9.209658 7.255369 11.845580 1.389204 0.911582 0.005719 -0.002243 2240390.000000 1 0 0
-7.439235 -7.468958 2.532069 10.841537 0.787392 1.335067 0.007751 -0.002324 -2947490.000000 1 0 0
-5.770535 13.065542 -8.605231 16.675056 -1.154899 2.113034 0.008330 -0.005124 685440.000000 1 0 0
9.133365 -13.903758 -4.189631 17.154761 -0.989586 1.817517 0.016266 0.000870 500174.000000 1 0 0
-6.476535 -5.093858 -6.826231 10.700015 0.666461 2.262649 0.012217 -0.004471 166795.000000 1 0 0
3.399665 0.405742 -6.254531 7.130323 0.118786 2.640740 0.005379 -0.004723 1484060.000000 1 0 0
-3.622235 5.883342 5.032469 8.547517 -1.018930 0.941268 0.004756 0.000413 855532.000000 1 0 0
-2.673135 -10.754558 -2.806331 11.431608 1.327175 1.818820 0.007985 -0.002610 1597390.000000 1 0 0
-12.508435 -0.482658 1.772169 12.642566 0.038567 1.430158 0.000306 -0.002965 624147.000000 1 0 0
8.346665 -12.026858 -6.046631 15.838998 -0.964107 1.962492 0.006638 -0.005651 100560.000000 1 0 0
6.159565 3.977542 0.974769 7.396706 0.573382 1.438628 0.001069 0.001585 -1762090.000000 1 0 0
3.446265 -4.848058 -10.923931 12.438355 -0.952822 2.642977 -0.000935 -0.002370 1516890.000000 1 0 0
-7.693035 4.280642 8.605569 12.311072 -0.507767 0.796783 -0.002333 0.001562 1741420.000000 1 0 0
8.318665 8.772142 4.061069 12.753155 0.811925 1.246717 0.013787 -0.000677 2020560.000000 1 0 0
0.266765 10.556742 -6.430831 12.364124 1.545532 2.117788 0.004556 -0.002145 2029360.000000 1 0 0
5.483665 8.119742 3.277369 10.331599 0.976807 1.248002 0.006105 -0.000078 3392040.000000 1 0 0
8.014965 6.681542 -3.819931 11.111910 0.694915 1.921724 0.003737 -0.001300 41405.100000 1 0 0
10.627065 2.558142 -8.160731 13.640973 0.236225 2.212113 0.005416 -0.002631 951921.000000 1 0 0
3.305365 -12.452258 -0.281431 12.886557 -1.311337 1.592637 -0.005281 -0.002694 -2204300.000000 1 0 0
0.700265 2.168042 5.310069 5.778201 1.258380 0.405303 0.004593 0.001983 2396520.000000 1 0 0
-4.952835 13.542042 1.426369 14.489721 -1.220171 1.472197 0.003343 0.002303 366846.000000 1 0 0
8.327465 4.106142 -8.032031 12.276832 0.458100 2.283978 0.001369 -0.000488 312749.000000 1 0 0
-13.956535 -0.556058 -3.546731 14.410877 0.039821 1.819466 0.001588 -0.003715 -291937.000000 1 0 0
-8.552135 0.025142 -0.494731 8.566470 -0.002940 1.628581 0.000734 -0.002750 -83116.500000 1 0 0
1.731165 -3.739658 -1.172531 4.284484 -1.137250 1.848002 0.008447 -0.002603 -1486570.000000 1 0 0
8.016365 -5.588458 -0.258831 9.775477 -0.608798 1.597277 0.003723 -0.003598 1811280.000000 1 0 0
-2.298835 -1.174158 7.371369 7.810273 0.472220 0.336839 0.007305 0.001098 2917730.000000 1 0 0
-5.850435 8.758942 -11.754531 15.783398 -0.981914 2.410942 -0.002282 0.000811 -1860980.000000 1 0 0
-6.195935 9.172042 -8.871531 14.185205 -0.976687 2.246450 -0.004472 -0.000345 -157885.000000 1 0 0
-1.511735 13.904042 -8.402131 16.315745 -1.462495 2.111770 0.004751 -0.001425 -815705.000000 1 0 0
-1.496435 7.288342 9.751369 12.265743 -1.368292 0.651775 0.003349 -0.001458 648727.000000 1 0 0
10.031865 2.300242 -4.018431 11.048856 0.225397 1.943030 0.007611 -0.002017 -1346630.000000 1 0 0
-3.042435 -7.505858 -6.991431 10.699272 1.185694 2.282929 0.009542 -0.003501 1439180.000000 1 0 0
-5.523435 -4.985558 -1.657431 7.623070 0.734260 1.789970 0.004197 -0.002586 -661372.000000 1 0 0
5.679465 7.408842 -8.809231 12.835491 0.916769 2.327211 -0.000678 -0.001243 100751.000000 1 0 0
-9.529235 5.177942 -7.498231 13.184873 -0.497742 2.175720 -0.004779 -0.000122 740693.000000 1 0 0
-0.466835 6.151242 -5.305231 8.136412 -1.495049 2.281063 0.006493 -0.003130 -1624100.000000 1 0 0
-8.279835 2.721242 -6.322431 10.767264 -0.317538 2.198379 0.002038 -0.001563 2431100.000000 1 0 0
3.640965 1.504842 -2.089131 4.459332 0.391926 2.058372 0.001440 -0.000990 1942980.000000 1 0 0
-6.811435 12.431142 -3.517431 14.604837 -1.069541 1.814028 0.005140 -0.000660 450711.000000 1 0 0
-6.590935 3.150142 -2.308031 7.660994 -0.445853 1.876821 0.002051 -0.002395 -1473250.000000 1 0 0
12.079565 4.061042 -0.898831 12.775596 0.324320 1.641210 0.003154 0.000158 1205400.000000 1 0 0
2.257065 12.388842 -5.565731 13.767902 1.390587 1.986960 0.001472 0.000364 67360.800000 1 0 0
-9.194635 -1.432658 -4.261631 10.235005 0.154572 2.000254 0.003945 -0.002285 -9055.980000 1 0 0
-1.111935 5.858342 3.461769 6.894956 -1.383224 1.044803 0.002670 -0.000312 751192.000000 1 0 0
11.613865 2.645842 12.113369 16.988704 0.223995 0.776993 0.011063 0.005683 -1160280.000000 1 0 0
-7.028835 -2.288858 -5.754231 9.367741 0.314809 2.232245 0.009010 -0.004381 1730400.000000 1 0 0
7.530065 -7.324558 10.870969 15.117175 -0.771564 0.768270 -0.000861 -0.000467 -704529.000000 1 0 0
-5.529535 -2.017958 -10.974431 12.453355 0.349923 2.649282 0.009417 -0.008842 -1862.610000 1 0 0
0.835165 -6.142858 4.458369 7.636049 -1.435668 0.947324 0.003175 -0.001682 1471020.000000 1 0 0
-4.791535 -9.280258 7.409169 12.805381 1.094182 0.953788 0.002039 -0.000511 2715380.000000 1 0 0
-8.749435 9.380942 1.657869 12.934575 -0.820216 1.442269 0.003523 -0.001118 951856.000000 1 0 0
-8.085635 7.126942 -9.155831 14.142137 -0.722462 2.274984 -0.007001 0.000796 -164329.000000 1 0 0
-1.252635 -10.600758 -0.097231 10.674952 1.453177 1.579905 0.002587 -0.003214 -652523.000000 1 0 0
-3.988835 10.425142 7.748569 13.588036 -1.205365 0.963987 0.001995 -0.000761 3147140.000000 1 0 0
-7.484335 12.116742 1.989969 14.380219 -1.017474 1.431968 0.004961 -0.002659 1355490.000000 1 0 0
-8.058335 -8.168558 -2.844631 11.821761 0.792191 1.813808 0.018632 -0.006327 -601546.000000 1 0 0
5.496465 4.634342 -8.050431 10.793410 0.700504 2.412629 0.003607 -0.000604 2101050.000000 1 0 0
-8.936835 -0.164358 -10.250031 13.599896 0.018389 2.424447 0.006369 -0.007545 -2357740.000000 1 0 0
-15.234535 -2.218158 -1.449831 15.463288 0.144585 1.664694 0.003383 -0.003972 -1110680.000000 1 0 0
-7.129335 -5.812958 8.792769 12.725199 0.684035 0.807962 0.006722 -0.001375 -1047110.000000 1 0 0
8.114865 3.462642 -0.990631 8.878191 0.403313 1.682609 0.004839 0.001438 408091.000000 1 0 0
11.926365 7.291942 -5.820931 15.142452 0.548770 1.965366 0.002029 -0.004429 -1109630.000000 1 0 0
3.823665 13.190442 -9.610831 16.762347 1.288648 2.181395 -0.004968 -0.006845 427887.000000 1 0 0
-9.782135 5.457742 -0.504531 11.213013 -0.508911 1.615807 -0.001136 -0.000042 2009260.000000 1 0 0
11.284965 -1.332558 -5.127631 12.466705 -0.117538 1.994683 0.012612 -0.002213 -620850.000000 1 0 0
10.588765 1.697142 -1.200731 10.790922 0.158926 1.682300 0.007821 0.000005 -377889.000000 1 0 0
14.618765 5.032842 4.764669 16.178376 0.331564 1.271855 0.016853 -0.000735 2403320.000000 1 0 0
0.854365 -0.734958 10.320569 10.381919 -0.710408 0.108767 0.004870 0.001129 2423120.000000 1 0 0
-7.964735 1.353542 -12.684931 15.039168 -0.168334 2.574488 0.002379 -0.008743 992791.000000 1 0 0
3.065565 -11.492558 -7.727831 14.184355 -1.310122 2.146963 -0.009692 -0.001892 573599.000000 1 0 0
2.904865 5.016642 -6.827831 8.956797 1.045927 2.437667 0.004482 -0.000330 -730203.000000 1 0 0
6.470865 8.054742 0.527769 10.345507 0.894009 1.519760 0.006501 -0.001434 934171.000000 1 0 0
-9.140735 -5.403058 6.855069 12.638751 0.533847 0.997523 0.003025 -0.000954 -1952440.000000 1 0 0
-0.335335 -6.890958 -11.822031 13.687884 1.522172 2.613333 0.002283 -0.002483 1659850.000000 1 0 0
6.393865 -13.388858 -4.616331 15.538775 -1.125268 1.872434 0.001883 -0.001345 3324380.000000 1 0 0
-3.231935 -0.250958 10.004569 10.516643 0.077494 0.313344 0.004064 0.001890 1062570.000000 1 0 0
8.627065 8.426442 7.017869 13.952837 0.773634 1.043764 0.010326 -0.001675 -692710.000000 1 0 0
-7.908435 5.684742 -2.679131 10.101356 -0.623246 1.839234 0.000698 -0.002091 1394940.000000 1 0 0
-5.354435 5.755942 -6.460431 10.175363 -0.821521 2.258687 0.000606 -0.000374 -729521.000000 1 0 0
3.268665 -13.596758 2.554669 14.215566 -1.334873 1.390105 0.004313 -0.004596 -1543980.000000 1 0 0
-11.346635 -7.056758 6.489769 14.854664 0.556385 1.118664 0.016319 -0.006711 -433545.000000 1 0 0
-12.876735 -3.665158 -6.661631 14.953963 0.277301 2.032502 0.006144 -0.004642 -926412.000000 1 0 0
6.042965 0.398242 -7.297231 9.482911 0.065807 2.448876 0.002373 -0.000494 -121659.000000 1 0 0
-1.438335 2.268842 -2.469531 3.648978 -1.005786 2.314167 0.003456 -0.004478 2626010.000000 1 0 0
7.537365 0.964342 -4.992431 9.092095 0.127250 2.152078 0.005943 -0.001000 524652.000000 1 0 0
3.743465 -4.482758 10.876169 12.345027 -0.875028 0.492790 -0.002799 0.003253 511730.000000 1 0 0
6.028465 -2.514958 2.108469 6.863894 -0.395229 1.258565 0.004973 -0.000647 -1165430.000000 1 0 0
-6.308735 7.772042 1.104269 10.070958 -0.888949 1.460927 -0.000732 -0.001916 2347790.000000 1 0 0
6.112065 -3.390858 7.970769 10.601340 -0.506506 0.719911 0.000790 -0.000178 1280430.000000 1 0 0
6.815765 -2.263558 -7.798731 10.601818 -0.320646 2.397353 0.003484 -0.005125 706982.000000 1 0 0
12.136265 -8.188658 -5.756031 15.731336 -0.593562 1.945392 0.021324 -0.008117 -220995.000000 1 0 0
5.612165 -9.580458 9.956169 14.913312 -1.040889 0.839812 -0.002125 0.000394 1273540.000000 1 0 0
-6.623035 7.495442 -4.478731 10.959256 -0.847112 1.991794 -0.002076 -0.000049 765115.000000 1 0 0
-1.281635 -7.620258 9.798369 12.478740 1.404168 0.667769 0.006848 -0.000893 -996925.000000 1 0 0
10.039965 -9.352958 0.829469 13.746517 -0.749987 1.510419 0.007005 -0.004983 138588.000000 1 0 0
11.161265 6.136642 9.891269 16.126668 0.502702 0.910503 0.014097 -0.000950 1979040.000000 1 0 0
-15.260935 -4.173158 -4.945431 16.576148 0.266928 1.873756 0.003029 -0.005420 1772440.000000 1 0 0
-4.694035 -4.602258 7.798369 10.199475 0.775526 0.700399 0.005235 -0.000113 572547.000000 1 0 0
2.920365 10.862642 -11.185231 15.863005 1.308162 2.353381 -0.005079 -0.005506 -374410.000000 1 0 0
10.002765 -1.298958 1.527169 10.201708 -0.129137 1.420534 0.003526 0.000485 -236785.000000 1 0 0
-1.659135 -2.587058 0.633369 3.137953 1.000546 1.367559 0.003383 -0.002981 558952.000000 1 0 0
1.624565 2.948642 0.847869 3.471683 1.067221 1.324077 -0.002572 0.001140 -122085.000000 1 0 0
-8.955735 -2.353858 4.333669 10.223821 0.257019 1.133072 -0.000870 -0.001458 3257140.000000 1 0 0
9.865865 4.884142 -2.778931 11.353968 0.459684 1.818062 0.003622 -0.000397 1350890.000000 1 0 0
2.600165 8.453642 2.483869 9.186650 1.272401 1.297011 0.001791 -0.002067 1538070.000000 1 0 0
-8.141535 -0.021858 2.531369 8.526013 0.002685 1.269352 -0.001261 -0.002293 1135750.000000 1 0 0
6.968265 2.067242 13.667169 15.479719 0.288395 0.488776 -0.003550 0.004530 785414.000000 1 0 0
6.819665 4.472242 3.753669 8.977684 0.580432 1.139431 -0.000295 0.001283 -317495.000000 1 0 0
-0.250535 3.441442 7.797269 8.526646 -1.498125 0.416627 0.003476 -0.000273 1303280.000000 1 0 0
2.739665 -10.210858 9.228969 14.033576 -1.308661 0.853121 0.001456 -0.004348 2389720.000000 1 0 0
1.359265 -4.475758 6.842869 8.288840 -1.275953 0.599616 0.003069 -0.000804 347558.000000 1 0 0
-0.163635 10.794042 -2.056431 10.989406 -1.555638 1.759035 0.003699 -0.004802 1771590.000000 1 0 0
8.882365 5.538742 8.086069 13.227191 0.557568 0.913067 0.005387 -0.000129 -476645.000000 1 0 0
2.659865 11.389842 -2.991131 12.072707 1.341378 1.821164 0.005494 -0.006839 2324150.000000 1 0 0
1.467065 2.459842 -6.697131 7.283864 1.033024 2.737470 0.005394 -0.003413 867556.000000 1 0 0
-13.568535 -2.184058 3.563769 14.197736 0.159596 1.317073 0.008120 -0.006876 663796.000000 1 0 0
-0.956435 -10.526658 -5.240131 11.797638 1.480187 2.031042 0.001141 -0.001846 1268870.000000 1 0 0
-5.683735 2.882742 0.413669 6.386405 -0.469384 1.505978 0.003395 -0.003506 1314600.000000 1 0 0
3.732965 7.346942 -5.074131 9.677779 1.100692 2.122698 0.004625 -0.003801 -1457420.000000 1 0 0
3.008765 9.819942 -6.573931 12.194282 1.273484 2.140164 0.004276 -0.003491 1321630.000000 1 0 0
-12.217435 1.755042 -2.516031 12.596678 -0.142675 1.771887 0.002782 -0.001522 1081220.000000 1 0 0
-2.531135 9.602742 -5.816831 11.508902 -1.313074 2.100665 0.001042 -0.003355 1175280.000000 1 0 0
-1.310435 3.460542 1.775169 4.104122 -1.208804 1.123496 0.002775 -0.001622 1635170.000000 1 0 0
12.830265 3.699242 9.754169 16.536139 0.280709 0.939899 0.018011 0.002905 436779.000000 1 0 0
-2.526135 -9.543458 11.665569 15.282161 1.312033 0.702320 0.004876 -0.008824 -265519.000000 1 0 0
-0.499635 -8.885358 -7.509031 11.644087 1.514624 2.271662 0.001914 -0.002864 3104530.000000 1 0 0
2.381265 7.705242 -0.520531 8.081592 1.271062 1.635250 0.002919 -0.002209 2114350.000000 1 0 0
-11.862735 -1.274958 -5.501331 13.138289 0.107065 2.002837 0.003655 -0.000466 459403.000000 1 0 0
-6.257635 -7.174458 -10.912331 14.481361 0.853549 2.424232 0.009080 -0.006150 2419100.000000 1 0 0
-4.779235 -2.240458 -1.376531 5.454867 0.438369 1.825904 0.000120 -0.002642 -2075760.000000 1 0 0
-10.486035 3.692342 4.584269 12.025217 -0.338562 1.179679 -0.001160 -0.002203 3619810.000000 1 0 0
6.757365 9.353142 -3.728131 12.126097 0.945148 1.883305 0.006635 0.000782 974634.000000 1 0 0
1.264565 -2.675558 -11.497231 11.871986 -1.129279 2.889665 0.007253 -0.005802 14010.000000 1 0 0
1.228565 8.823742 7.510169 11.652057 1.432452 0.870380 0.002654 0.001280 539216.000000 1 0 0
10.397465 0.427142 10.420669 14.726849 0.041058 0.784705 -0.001380 0.003962 899365.000000 1 0 0
-5.308235 -0.837858 -3.924231 6.654243 0.156550 2.201525 0.003682 -0.004923 -1234040.000000 1 0 0
11.729565 5.717242 5.390069 14.118158 0.453534 1.179072 0.009915 0.003613 4006870.000000 1 0 0
9.971465 -3.480658 3.582569 11.152573 -0.335839 1.243766 0.002471 -0.003370 -1441750.000000 1 0 0
7.318065 -1.691758 -3.460631 8.269951 -0.227185 2.002544 0.006647 -0.002516 -2509400.000000 1 0 0
2.359565 9.339342 10.408669 14.182075 1.323327 0.746704 0.007365 -0.002523 3038100.000000 1 0 0
2.433565 -10.802058 6.359469 12.769085 -1.349209 1.049463 0.000072 -0.001641 276825.000000 1 0 0
5.921565 -7.510058 -1.162331 9.634153 -0.903116 1.691738 -0.000841 -0.004918 136211.000000 1 0 0
-0.275635 -5.559058 -2.251531 6.004039 1.521254 1.955196 0.002777 -0.001640 1347420.000000 1 0 0
7.740765 -4.965058 2.663469 9.574200 -0.570318 1.288885 0.002536 -0.003730 646648.000000 1 0 0
-2.694635 -12.395358 4.693369 13.525297 1.356736 1.216419 0.004453 -0.002604 -585331.000000 1 0 0
4.824865 -10.260158 -1.125131 11.393686 -1.131229 1.669708 -0.004648 -0.004949 -177803.000000 1 0 0
0.943465 0.251542 1.149469 1.508204 0.260555 0.704178 0.000134 0.000114 -1067170.000000 1 0 0
-1.589535 8.587042 2.334369 9.039535 -1.387760 1.309596 0.000566 0.000387 -118705.000000 1 0 0
-7.520135 0.660942 -3.041431 8.138770 -0.087664 1.953788 0.002393 -0.001856 -237306.000000 1 0 0
4.446365 -6.318458 12.916669 15.051027 -0.957584 0.539059 -0.001131 0.000031 -593909.000000 1 0 0
-5.190935 13.130442 8.416669 16.437598 -1.194317 1.033241 0.003543 -0.003303 13854.600000 1 0 0
0.668765 6.171042 8.262669 10.334443 1.462846 0.644289 0.003754 0.001434 1382370.000000 1 0 0
7.967765 -0.511358 -0.731731 8.017618 -0.064090 1.662189 0.005918 -0.001771 4550590.000000 1 0 0
2.446865 -9.235058 -2.383531 9.846556 -1.311794 1.815292 -0.003820 -0.004136 1383620.000000 1 0 0
-7.215635 12.237642 4.827069 15.004195 -1.038040 1.243257 0.003895 -0.002476 407144.000000 1 0 0
-14.982735 0.277342 0.267369 14.987687 -0.018509 1.552956 0.007639 -0.005396 2212390.000000 1 0 0
6.915665 -0.388458 3.907769 7.952860 -0.056112 1.057138 0.002811 0.000647 542677.000000 1 0 0
-4.238435 -5.028958 5.027469 8.278296 0.870494 0.918130 0.003050 -0.001362 -1104700.000000 1 0 0
2.940565 5.205742 6.848169 9.090880 1.056609 0.717729 0.000817 -0.000063 -1445370.000000 1 0 0
2.065665 -7.184758 1.830069 7.696549 -1.290840 1.330719 0.001208 -0.003840 3038350.000000 1 0 0
-2.452735 6.464342 -1.789931 7.141953 -1.208152 1.824119 0.002508 -0.002608 1286150.000000 1 0 0
2.660665 -3.798458 -6.577131 8.047737 -0.959762 2.527445 0.000795 -0.004014 455229.000000 1 0 0
-5.186035 0.842542 -12.180431 13.265283 -0.161057 2.734356 0.005776 -0.003930 -521573.000000 1 0 0
-7.473235 6.347142 -11.973031 15.475430 -0.704097 2.455425 -0.007414 -0.001179 1256310.000000 1 0 0
-1.031835 11.186342 -9.100131 14.457224 -1.478816 2.251644 0.002487 0.000566 1347820.000000 1 0 0
4.580965 5.904742 -0.590731 7.496678 0.910980 1.649677 0.002124 0.000321 -6187.360000 1 0 0
-2.695535 13.419942 3.508669 14.130517 -1.372574 1.319867 -0.002608 0.003644 1763580.000000 1 0 0
1.483965 -7.894458 10.202769 12.985419 -1.384989 0.666954 -0.000495 -0.003036 -443513.000000 1 0 0
13.007965 -0.257458 -1.046931 13.052567 -0.019790 1.651091 0.011677 0.000638 1427690.000000 1 0 0
-1.072535 3.125142 -5.378931 6.312666 -1.240196 2.590753 0.005792 -0.005914 1354940.000000 1 0 0
6.643765 1.148942 7.316769 9.949612 0.171242 0.744566 -0.001405 0.000634 859249.000000 1 0 0
5.549365 -6.077458 6.877569 10.725292 -0.830787 0.874673 -0.002303 -0.000667 1373890.000000 1 0 0
12.199565 -4.907058 2.645469 13.412945 -0.382429 1.372262 0.005236 -0.003395 -522119.000000 1 0 0
4.431465 -9.135458 13.890969 17.206205 -1.119153 0.631194 -0.002127 -0.000694 192527.000000 1 0 0
-2.779235 -4.326858 -1.373331 5.322770 0.999838 1.831759 0.003796 -0.004272 1628300.000000 1 0 0
-9.347835 -5.145758 -7.556631 13.075302 0.503208 2.186988 0.009661 -0.005069 548845.000000 1 0 0
-10.644735 -3.150258 7.913269 13.632840 0.287733 0.951507 0.004089 -0.001721 700259.000000 1 0 0
12.160365 -0.619958 1.642869 12.286490 -0.050938 1.436681 0.005671 0.000405 404281.000000 1 0 0
-7.602635 4.718242 4.407769 9.974482 -0.555433 1.113076 0.001312 -0.003342 3021060.000000 1 0 0
-1.084935 10.641342 6.853669 12.703859 -1.469193 1.000959 0.001099 0.003007 1997670.000000 1 0 0
7.316065 -10.042858 1.892069 12.568362 -0.941208 1.419680 -0.002364 -0.004817 2067800.000000 1 0 0
-4.365835 -1.618858 1.611969 4.927439 0.355085 1.237520 -0.000124 0.000245 1994170.000000 1 0 0
6.588165 -14.997458 -0.886731 16.404693 -1.156888 1.624876 0.008025 -0.002981 -2634670.000000 1 0 0
-10.437035 1.707042 2.359069 10.835631 -0.162121 1.351325 -0.002841 -0.001114 148626.000000 1 0 0
-3.061335 8.223242 -11.373731 14.365070 -1.214414 2.484486 0.002437 0.000487 -1595640.000000 1 0 0
-1.368735 -5.157358 -6.839131 8.674416 1.311382 2.479042 0.003059 -0.005039 -342543.000000 1 0 0
12.847465 -0.397558 6.440069 14.376714 -0.030935 1.106324 0.009789 -0.000225 1986280.000000 1 0 0
5.836665 -13.236058 3.787769 14.953497 -1.155480 1.314703 0.002526 -0.006949 670094.000000 1 0 0
-5.612035 3.469842 -4.966331 8.258280 -0.553757 2.216019 0.003487 -0.002730 3148420.000000 1 0 0
-4.406835 8.138342 3.327569 9.834914 -1.074510 1.225641 0.002579 -0.000276 1404610.000000 1 0 0
14.110565 6.190442 -4.125131 15.951374 0.413425 1.832376 0.015381 -0.001810 -1304260.000000 1 0 0
-6.761535 -8.430658 5.296769 12.035369 0.894826 1.115086 0.008379 -0.001867 64587.500000 1 0 0
1.703665 11.393842 2.658969 11.823377 1.422371 1.343965 0.003046 -0.003343 1736450.000000 1 0 0
-7.351535 7.261142 5.987869 11.942522 -0.779212 1.045591 -0.000377 -0.002162 -515202.000000 1 0 0
-17.400335 -4.088958 5.318569 18.648818 0.230805 1.281585 0.034202 -0.017745 1532420.000000 1 0 0
7.434665 -13.132858 -8.525831 17.333089 -1.055667 2.085046 0.008095 -0.003238 -188881.000000 1 0 0
-2.329335 12.768842 -2.764031 13.270607 -1.390357 1.780615 -0.001068 -0.000678 303946.000000 1 0 0
-5.556035 13.861742 -5.811731 16.024782 -1.189585 1.941929 0.009791 -0.003178 4448470.000000 1 0 0
-5.647535 2.473642 7.418669 9.646254 -0.412833 0.693407 0.005268 -0.001820 1610220.000000 1 0 0
-7.460135 5.102942 1.444069 9.153085 -0.599926 1.412366 0.001469 -0.001034 2039070.000000 1 0 0
10.778765 -5.697358 -5.018131 13.184206 -0.486243 1.961260 0.007061 -0.003166 3241220.000000 1 0 0
-9.554635 -0.770958 6.794169 11.749305 0.080515 0.954200 -0.000703 -0.000907 840474.000000 1 0 0
-11.242935 -4.531958 -2.582731 12.394060 0.383171 1.780719 0.006361 -0.006306 1551970.000000 1 0 0
6.505165 -4.284858 13.567969 15.645030 -0.582457 0.521168 -0.002465 0.002220 -43208.000000 1 0 0
0.208465 10.136942 -11.749831 15.519652 1.550234 2.429649 0.001407 -0.002732 -1235640.000000 1 0 0
-11.783435 -3.260658 1.486069 12.316234 0.269960 1.449842 0.001264 -0.003623 1760300.000000 1 0 0
5.259165 6.038742 5.463769 9.694225 0.854291 0.972046 0.000465 0.000776 -4886450.000000 1 0 0
-7.168135 0.018342 8.135769 10.843119 -0.002559 0.722256 0.001920 0.000488 1580260.000000 1 0 0
1.832365 2.105442 9.596269 9.993939 0.854635 0.283047 0.004652 -0.001988 3356730.000000 1 0 0
10.405765 -4.993258 -2.016531 11.716611 -0.447402 1.743766 0.008084 -0.002346 2851110.000000 1 0 0
-9.635235 -2.355658 -1.604331 10.047923 0.239780 1.731151 0.003226 -0.002897 -1406880.000000 1 0 0
-2.005635 -5.169958 -9.922731 11.367129 1.200729 2.631977 0.010593 -0.007346 713433.000000 1 0 0
7.725265 -1.512658 6.545769 10.237917 -0.193360 0.877124 0.001652 0.000186 602915.000000 1 0 0
1.518265 -11.854058 -2.544431 12.218754 -1.443410 1.780571 -0.005080 -0.002144 -2909250.000000 1 0 0
-0.766735 -1.512158 4.799169 5.089845 1.101527 0.339591 0.006747 0.001400 3946340.000000 1 0 0
7.662765 1.599242 9.933969 12.647501 0.205750 0.667375 -0.004978 0.002872 813968.000000 1 0 0
-3.878135 10.741242 -8.063531 13.979798 -1.224311 2.185601 0.002054 0.001766 3281100.000000 1 0 0
-9.623835 12.668642 6.368069 17.136657 -0.921143 1.190059 0.004148 -0.003908 1737090.000000 1 0 0
-2.579435 -2.419558 -11.047031 11.599338 0.753427 2.831760 0.011995 -0.009910 -1659950.000000 1 0 0
1.224165 -11.951358 11.047669 16.321290 -1.468723 0.827271 -0.000033 0.000568 1722260.000000 1 0 0
1.422765 3.501242 -1.956031 4.255469 1.184819 2.048399 0.001395 -0.001437 3243120.000000 1 0 0
-1.906035 -9.433658 -11.997331 15.380599 1.371434 2.465510 0.005872 -0.002892 1030320.000000 1 0 0
1.247065 -2.654358 1.517169 3.301906 -1.131585 1.093384 0.009336 -0.001573 2233740.000000 1 0 0
-1.052635 -2.230858 -6.615731 7.060642 1.129919 2.784701 0.005459 -0.007395 1644760.000000 1 0 0
1.827065 5.895242 4.026469 7.369159 1.270262 0.992743 -0.002450 0.001704 -348653.000000 1 0 0
-10.965735 8.627842 3.609569 14.412356 -0.666640 1.317652 -0.006431 -0.003003 1769730.000000 1 0 0
-16.366235 -1.588958 4.022269 16.927997 0.096784 1.330891 0.022119 -0.010785 907576.000000 1 0 0
-12.308235 0.225442 6.766569 14.047417 -0.018314 1.068209 0.005116 -0.003260 1080350.000000 1 0 0
-5.051235 3.120842 4.680469 7.560517 -0.553432 0.903242 0.003464 -0.000037 1121630.000000 1 0 0
5.282265 -6.060358 3.937069 8.951579 -0.853890 1.115400 -0.002830 -0.003808 2196000.000000 1 0 0
9.995165 3.515342 6.256369 12.304597 0.338192 1.037403 0.003546 0.003461 856402.000000 1 0 0
-12.133935 5.848442 3.212869 13.847714 -0.449137 1.336648 0.000926 -0.000562 1191810.000000 1 0 0
-4.935435 12.309642 -1.272031 13.323058 -1.189479 1.666418 -0.002260 0.000225 1536010.000000 1 0 0
-1.672935 -12.158558 10.335069 16.045027 1.434062 0.870912 0.012730 -0.007279 1742630.000000 1 0 0
5.239165 6.442242 13.806869 16.111517 0.888027 0.541461 0.002306 -0.000795 1510040.000000 1 0 0
12.995265 -3.731058 -5.917831 14.758673 -0.279589 1.983375 0.008586 -0.001401 1159400.000000 1 0 0
3.581765 -2.494058 6.379569 7.729700 -0.608252 0.600006 0.000840 0.001857 2268590.000000 1 0 0
7.169065 -11.855358 -0.584531 13.866747 -1.026920 1.612962 0.002109 -0.000951 -1307790.000000 1 0 0
-6.027535 -6.544558 -4.195531 9.836915 0.826500 2.011426 0.013432 -0.004817 -1962540.000000 1 0 0
0.343365 -8.863358 5.096269 10.229808 -1.532076 1.049300 0.003824 -0.003260 2020010.000000 1 0 0
-10.250235 2.503642 -0.372131 10.558126 -0.239562 1.606050 0.000186 0.000209 -1641210.000000 1 0 0
-1.912235 8.961142 -0.493831 9.176197 -1.360558 1.624639 0.002591 -0.004558 -917548.000000 1 0 0
-3.486035 2.308642 -6.657631 7.861700 -0.584942 2.580819 0.007968 -0.007353 -430633.000000 1 0 0
-12.700735 3.039842 6.457469 14.568741 -0.234924 1.111585 0.003331 -0.005087 410941.000000 1 0 0
11.383365 1.664942 7.951869 13.985180 0.145231 0.966002 0.009643 0.001294 -2244190.000000 1 0 0
6.029365 2.665442 -3.286931 7.366257 0.416246 2.033327 0.002425 -0.000174 1369310.000000 1 0 0
10.548765 -2.367758 6.333569 12.529837 -0.220799 1.040859 0.004510 -0.002106 2991080.000000 1 0 0
-1.006335 11.061842 3.978169 11.798428 -1.480073 1.226879 0.003213 0.000815 2721960.000000 1 0 0
-1.620035 -12.188558 7.459369 14.381503 1.438656 1.025492 0.003262 0.002019 111561.000000 1 0 0
8.110665 8.646242 -7.910331 14.251798 0.817349 2.159209 0.000600 -0.003349 1997700.000000 1 0 0
-4.691535 -5.902858 -8.760131 11.558292 0.899240 2.430898 0.010865 -0.005640 228429.000000 1 0 0
-8.644435 -5.366058 -11.666431 15.479872 0.555539 2.424397 0.007653 -0.006425 1338960.000000 1 0 0
5.961065 -0.682658 -9.911431 11.586060 -0.114023 2.597238 0.004808 -0.002737 -217372.000000 1 0 0
-11.194135 -5.459258 -5.328331 13.546338 0.453750 1.975059 0.006666 -0.007831 -1625470.000000 1 0 0
3.887365 8.933242 -2.807131 10.138758 1.160354 1.851333 0.008163 -0.005605 295974.000000 1 0 0
11.654265 -10.479558 -3.975831 16.169423 -0.732375 1.819230 0.019262 -0.008393 853444.000000 1 0 0
3.861265 -11.281658 3.931969 12.555698 -1.241033 1.252276 0.000376 -0.003277 -1082320.000000 1 0 0
-1.008035 0.939542 3.212769 3.495820 -0.750245 0.405180 0.005702 -0.000057 -454608.000000 1 0 0
-10.583935 -5.081758 4.566369 12.597447 0.447633 1.199865 0.006774 -0.004683 2342890.000000 1 0 0
4.601765 -8.628558 2.763269 10.161885 -1.080851 1.295404 -0.003358 -0.002509 3783050.000000 1 0 0
-3.726035 -5.678558 2.608269 7.275467 0.990104 1.204134 0.002861 -0.000764 1346900.000000 1 0 0
10.079865 5.071442 12.394769 16.761668 0.466145 0.738512 0.014775 0.003427 620652.000000 1 0 0
1.643965 -12.260658 -5.223731 13.428094 -1.437507 1.970359 -0.006310 -0.002980 108112.000000 1 0 0
9.834065 -10.774258 -1.703631 14.686586 -0.830989 1.687057 0.009648 -0.003201 1195300.000000 1 0 0
9.611265 -4.450358 -9.137031 13.988118 -0.433641 2.282599 0.006708 -0.003916 2774870.000000 1 0 0
-7.518035 -3.128658 -13.131131 15.451083 0.394354 2.586500 0.007474 -0.006842 1794520.000000 1 0 0
0.429965 6.269642 -2.528231 6.773864 1.502325 1.953288 0.002752 -0.003929 142771.000000 1 0 0
-5.942235 -9.534658 0.925769 11.272839 1.013475 1.488580 0.006318 -0.002979 1741920.000000 1 0 0
-8.976335 -4.103558 0.618269 9.889188 0.428786 1.508236 -0.000855 -0.001906 3398410.000000 1 0 0
1.907165 3.901942 12.020169 12.780723 1.116170 0.346721 0.004007 -0.003788 1593730.000000 1 0 0
6.722365 4.369942 9.653969 12.549331 0.576418 0.693080 -0.003428 0.001470 1181590.000000 1 0 0
-8.294435 9.812642 -3.574531 13.336524 -0.869049 1.842139 -0.000823 0.001562 2302740.000000 1 0 0
16.429865 2.104842 -6.019131 17.623869 0.127417 1.919344 0.008283 0.004024 -1578760.000000 1 0 0
-11.015735 2.605942 -5.100831 12.415951 -0.232295 1.994159 -0.001714 -0.000971 2237530.000000 1 0 0
-13.752635 3.916042 1.570069 14.385252 -0.277407 1.461434 0.001151 0.002446 -483554.000000 1 0 0
-17.424335 10.410542 3.404269 20.580959 -0.538558 1.404624 0.031513 -0.007333 492446.000000 1 0 0
-14.365335 2.836042 -1.116731 14.685131 -0.194916 1.646915 0.002396 0.001586 695405.000000 1 0 0
-14.349635 5.119942 5.161869 16.086352 -0.342719 1.244133 0.001527 -0.003013 725885.000000 1 0 0
-17.349035 7.515242 3.126569 19.163594 -0.408778 1.406912 0.021968 0.000796 -1036040.000000 1 0 0
-14.984735 12.570842 -3.525931 19.874621 -0.698020 1.749149 0.032807 -0.013193 279182.000000 1 0 0
-8.528635 12.481742 -9.621031 17.919145 -0.971374 2.137571 0.009719 -0.008782 133994.000000 1 0 0
-12.366935 8.770642 -9.822531 18.065087 -0.616874 2.145672 0.000055 0.002331 -1391850.000000 1 0 0
-13.905035 -3.574058 -12.218831 18.852685 0.251587 2.275912 0.012764 -0.002504 -272689.000000 1 0 0
-14.767735 5.649442 -7.700931 17.587113 -0.365376 2.024028 0.011302 -0.000244 -350227.000000 1 0 0
-10.849635 13.500542 -8.215831 19.169745 -0.893837 2.013720 0.012726 -0.010359 762319.000000 1 0 0
-10.897435 13.593242 3.858069 17.844187 -0.895032 1.352867 0.007765 -0.003232 -2505830.000000 1 0 0
-15.140835 3.172642 3.157169 15.788548 -0.206554 1.369473 0.005064 0.000513 1188060.000000 1 0 0
-11.158035 9.344642 -12.495631 19.182411 -0.697181 2.280239 0.003134 0.000094 708556.000000 1 0 0
-12.979135 11.531442 -8.999831 19.555794 -0.726403 2.049031 0.010995 -0.012117 -114401.000000 1 0 0
-8.909135 14.598342 -3.531731 17.463030 -1.022849 1.774441 0.015217 -0.009191 874081.000000 1 0 0
-16.719835 8.227742 -4.268631 19.117266 -0.457303 1.795981 0.024714 -0.001688 -2370510.000000 1 0 0
-16.752935 6.732842 0.306369 18.057848 -0.382135 1.553830 0.017711 0.006071 1018830.000000 1 0 0
-10.547235 2.665142 -12.640731 16.677387 -0.247505 2.430971 0.002541 -0.005594 652379.000000 1 0 0
-16.942435 0.880242 2.410569 17.135687 -0.051908 1.429653 0.021463 -0.008320 1045330.000000 1 0 0
-12.711135 1.141542 -7.035131 14.572891 -0.089566 2.074594 0.003402 -0.005900 350146.000000 1 0 0
-12.227235 8.923542 -5.407131 16.073953 -0.630453 1.913878 0.009049 -0.003112 -33155.200000 1 0 0
-9.670935 14.018242 1.175469 17.071023 -0.966893 1.501884 0.018349 -0.004048 708816.000000 1 0 0
-12.243335 11.135242 2.723769 16.772352 -0.738036 1.407678 0.002614 -0.001347 351104.000000 1 0 0
-12.620235 6.817042 -3.584931 14.784929 -0.495263 1.815709 0.002250 0.001731 -216441.000000 1 0 0
-15.738135 3.574142 -9.516731 18.735836 -0.223313 2.103591 0.009560 -0.000106 -2130240.000000 1 0 0
-15.171235 5.787542 -4.804231 16.933477 -0.364441 1.858459 0.011340 0.002174 2999210.000000 1 0 0
-18.036135 5.265042 7.489169 20.226480 -0.284024 1.191501 0.025075 -0.004388 -113118.000000 1 0 0
-15.875335 10.068342 -2.236931 18.931499 -0.565197 1.689232 0.029418 -0.001821 -553219.000000 1 0 0
-8.829235 9.820142 -8.452131 15.678938 -0.838482 2.140135 -0.002800 -0.002157 -719773.000000 1 0 0
-16.981735 4.262142 -1.276931 17.554935 -0.245904 1.643600 0.010388 0.003038 346618.000000 1 0 0
-10.206035 5.423342 -4.592431 12.436487 -0.488440 1.949021 -0.001256 0.001233 -670595.000000 1 0 0
-18.229935 2.676542 6.103869 19.410091 -0.145780 1.250899 0.023882 -0.007501 -539362.000000 1 0 0
-10.309835 10.069042 -5.785031 15.528841 -0.773583 1.952535 -0.001044 -0.002318 812078.000000 1 0 0
-15.410535 0.491642 -5.861131 16.494822 -0.031892 1.934065 0.007876 -0.003455 -352806.000000 1 0 0
-16.294335 -4.064358 -8.906631 19.009272 0.244446 2.058435 -0.000130 -0.009108 -2340850.000000 1 0 0
-9.998035 9.759542 -1.112331 14.015943 -0.773328 1.650242 -0.001144 0.002175 1556970.000000 1 0 0
-17.384735 -2.967358 -3.183831 17.921244 0.169058 1.749401 0.012538 -0.009124 -552471.000000 1 0 0
-11.900335 4.957942 -11.549931 17.308959 -0.394753 2.301348 -0.000452 -0.000742 -1269030.000000 1 0 0
-16.356835 7.029742 5.899269 18.755391 -0.405907 1.250827 0.011630 -0.002233 -357781.000000 1 0 0
-12.117035 5.917742 -8.820431 16.113417 -0.454310 2.150047 0.001267 -0.000554 372834.000000 1 0 0
-14.550935 8.442842 -0.158531 16.823687 -0.525753 1.580220 0.017734 0.001271 1735130.000000 1 0 0
-14.946935 11.966942 3.823469 19.525304 -0.675124 1.373702 0.012127 -0.006059 980425.000000 1 0 0
-17.347735 4.104542 -4.069331 18.285257 -0.232331 1.795223 0.016254 -0.000597 -167474.000000 1 0 0
-13.944435 13.330242 -0.846931 19.309581 -0.762883 1.614671 0.028067 -0.008907 -799210.000000 1 0 0
-10.038635 6.714642 -13.187031 17.881790 -0.589533 2.400092 -0.011746 -0.001113 1499790.000000 1 0 0
-15.888035 -1.120258 -8.335031 17.976579 0.070393 2.052919 0.010436 -0.008136 376570.000000 1 0 0
-11.500935 11.982942 -0.088031 16.609340 -0.805920 1.576096 0.015443 -0.003473 505306.000000 1 0 0
-11.918235 7.521242 -0.926731 14.123464 -0.562952 1.636460 0.000049 0.004643 888510.000000 1 0 0
-11.447535 0.076042 -11.718831 16.382394 -0.006643 2.367894 0.002789 -0.008585 -1015830.000000 1 0 0
-19.037935 -1.237258 -4.743531 19.658964 0.064898 1.814492 0.021050 -0.012852 -1691350.000000 1 0 0
-17.967235 1.500142 -5.070431 18.729155 -0.083300 1.844941 0.013869 -0.004062 -743252.000000 1 0 0
-13.255235 -0.131458 -9.522331 16.321560 0.009917 2.193730 0.002899 -0.006663 -691973.000000 1 0 0
-6.105135 11.181242 -13.241331 18.374594 -1.071017 2.375511 0.003094 -0.001700 -144577.000000 1 0 0
16.440565 5.779542 7.023469 18.788944 0.338048 1.187684 0.033759 0.000017 111097.000000 1 0 0
14.814165 10.255442 -5.588631 18.864421 0.605521 1.871563 0.036603 -0.004840 426149.000000 1 0 0
2.380165 16.925542 4.363769 17.640342 1.431087 1.320827 0.004706 -0.005337 -265438.000000 1 0 0
-3.817435 18.141942 -5.863531 19.444379 -1.363402 1.877118 0.006010 -0.010673 734999.000000 1 0 0
5.418165 14.558242 5.761269 16.567775 1.214508 1.215637 0.008402 -0.009147 -127557.000000 1 0 0
9.760065 5.941642 15.185169 19.003982 0.546844 0.645080 0.021073 -0.000051 -1122700.000000 1 0 0
4.626265 12.717342 -1.161631 13.582434 1.221902 1.656425 0.004605 -0.004683 1139910.000000 1 0 0
3.617665 13.667442 12.987669 19.198074 1.312038 0.827785 0.021499 -0.007071 -500177.000000 1 0 0
-0.855435 12.438242 9.128669 15.452322 -1.502130 0.938791 0.005728 -0.000388 2646150.000000 1 0 0
-7.855035 14.064942 8.334869 18.138198 -1.061463 1.093341 0.015018 -0.010945 2173090.000000 1 0 0
11.438565 12.965942 -4.168231 17.785685 0.847903 1.807355 0.034216 -0.000617 1232110.000000 1 0 0
-5.793035 16.222942 0.753069 17.242686 -1.227820 1.527108 0.004395 0.002282 2020800.000000 1 0 0
3.194665 10.678242 6.761869 13.036626 1.280096 1.025487 0.004977 0.000989 2373100.000000 1 0 0
-1.152135 15.522542 2.404269 15.749833 -1.496709 1.417544 0.002581 -0.002705 -1484940.000000 1 0 0
9.951665 8.886342 9.481969 16.367970 0.728907 0.952926 0.017163 -0.001540 2062820.000000 1 0 0
7.284965 12.259542 6.163469 15.535619 1.034632 1.162843 0.016061 -0.006520 -339339.000000 1 0 0
11.848065 14.053942 -1.479531 18.441230 0.870356 1.651112 0.026728 -0.001072 -1500900.000000 1 0 0
9.623865 16.007342 -1.180731 18.714912 1.029483 1.633929 0.015001 -0.002603 943010.000000 1 0 0
10.241965 13.777542 3.002969 17.428033 0.931545 1.397625 0.023621 -0.005081 1719950.000000 1 0 0
-6.072735 14.640442 6.196069 17.017989 -1.177604 1.198141 -0.000429 -0.004190 1611580.000000 1 0 0
-0.842335 18.176642 -6.301631 19.256438 -1.524488 1.904186 0.012347 -0.003172 1642330.000000 1 0 0
-3.485935 15.713442 5.444969 16.991519 -1.352488 1.244590 -0.006257 -0.003132 2265250.000000 1 0 0
7.065065 12.355542 10.526769 17.702752 1.051360 0.933978 0.018746 -0.008733 1926840.000000 1 0 0
1.475465 14.696842 6.228569 16.030260 1.470738 1.171738 0.003434 -0.003919 193089.000000 1 0 0
17.515065 7.696042 -1.446431 19.185899 0.414000 1.646258 0.017708 0.007759 730493.000000 1 0 0
2.075265 16.162742 -3.362431 16.638717 1.443097 1.774282 -0.003236 -0.003251 1710860.000000 1 0 0
6.671265 11.169342 0.590369 13.023384 1.032377 1.525449 0.013524 -0.002316 1543750.000000 1 0 0
12.773465 9.303342 3.139169 16.111113 0.629490 1.374697 0.017313 0.002780 -1873990.000000 1 0 0
6.010065 14.282642 -3.508931 15.887963 1.172493 1.793487 0.005253 0.000102 208410.000000 1 0 0
2.989665 16.398442 1.601169 16.745470 1.390463 1.475032 0.004708 -0.011732 -2647880.000000 1 0 0
2.786965 18.935542 -2.669031 19.324742 1.424664 1.709354 0.003800 -0.003896 -580454.000000 1 0 0
4.017565 12.015842 10.541269 16.481494 1.248126 0.876842 0.013251 -0.008873 2349040.000000 1 0 0
8.156065 11.558742 3.362169 14.540636 0.956309 1.337459 0.017396 0.000467 1907180.000000 1 0 0
0.728665 12.420242 0.068969 12.441790 1.512196 1.565253 0.004738 -0.004820 -2701370.000000 1 0 0
12.024065 9.977542 -4.656631 16.303794 0.692648 1.860446 0.021952 0.000743 327209.000000 1 0 0
-1.276035 16.477542 9.980669 19.306771 -1.493510 1.027510 0.005568 -0.006701 -960939.000000 1 0 0
8.074565 14.848542 -8.133631 18.757232 1.072729 2.019310 0.019059 -0.000091 391963.000000 1 0 0
14.560265 7.550742 -1.417431 16.462811 0.478405 1.657002 0.018608 0.002647 -812913.000000 1 0 0
12.616265 8.373042 5.980069 16.280025 0.585925 1.194664 0.018487 0.000298 -392043.000000 1 0 0
-3.153335 14.314442 10.079969 17.789113 -1.353969 0.968378 0.006797 -0.010559 795554.000000 1 0 0
-4.537935 17.055042 -3.185831 17.933679 -1.310746 1.749389 0.008030 -0.007326 1210780.000000 1 0 0
-7.102535 16.492942 -1.905231 18.058047 -1.164158 1.676499 0.016238 -0.002491 -530972.000000 1 0 0
8.390165 11.261442 -1.894631 14.170553 0.930481 1.704900 0.015334 0.000229 1635520.000000 1 0 0
8.524265 12.846442 -4.227931 15.986544 0.984954 1.838449 0.019596 -0.003155 3477250.000000 1 0 0
2.633365 14.772042 -7.441431 16.748813 1.394383 2.031185 -0.003531 -0.001506 -2475670.000000 1 0 0
11.397165 11.359742 9.680169 18.778839 0.783754 1.029225 0.029524 -0.008610 2931700.000000 1 0 0
8.530565 15.763542 1.537369 17.989533 1.074767 1.485233 0.011884 -0.002693 -1116500.000000 1 0 0
6.033965 9.965842 7.677769 13.952594 1.026368 0.988102 0.011398 0.001304 4123730.000000 1 0 0
14.504665 11.356242 2.621969 18.607103 0.664250 1.429414 0.025820 0.001551 1704380.000000 1 0 0
12.224565 12.647242 1.122369 17.625335 0.802391 1.507074 0.029878 -0.002007 773392.000000 1 0 0
5.201965 15.889942 8.291769 18.662908 1.254418 1.110413 0.019702 -0.009937 -1563360.000000 1 0 0
11.654465 15.032342 5.149769 19.705786 0.911303 1.306394 0.032443 -0.006680 -535759.000000 1 0 0
5.882065 16.666042 1.746969 17.759717 1.231507 1.472270 0.000460 -0.014168 1330720.000000 1 0 0
-0.619635 16.099842 -4.306831 16.677460 -1.532328 1.831999 0.002762 -0.003581 1303150.000000 1 0 0
16.118265 6.384442 2.526869 17.519836 0.377140 1.426063 0.007722 0.003999 -816008.000000 1 0 0
7.599265 16.679842 -3.171731 18.601770 1.143299 1.742140 0.012204 -0.003616 -1455400.000000 1 0 0
14.951965 8.163642 7.449769 18.593154 0.499760 1.158545 0.036678 -0.001243 -274927.000000 1 0 0
1.994265 13.004642 8.580069 15.707177 1.418631 0.992914 0.010309 -0.003347 1588760.000000 1 0 0
15.875565 7.511842 -6.048831 18.575513 0.441954 1.902479 0.010500 -0.000630 -1060590.000000 1 0 0
-2.921835 16.986342 0.556669 17.244791 -1.400452 1.538510 0.000726 -0.002367 684642.000000 1 0 0
-2.860435 18.552042 4.583269 19.322700 -1.417817 1.331318 -0.003708 -0.003366 1336870.000000 1 0 0
-0.791035 19.023942 0.745569 19.054973 -1.529239 1.531659 0.001598 -0.008330 848699.000000 1 0 0
6.934365 16.842442 -6.093431 19.206332 1.180228 1.893637 0.016418 -0.001273 511405.000000 1 0 0
11.095165 10.041342 0.720569 14.981671 0.735581 1.522681 0.017732 0.002461 -1635100.000000 1 0 0
9.092765 8.678842 14.192769 18.958781 0.762111 0.724830 0.022697 -0.008032 -815502.000000 1 0 0
6.385965 12.429642 -8.427831 16.318851 1.096194 2.113494 0.011836 -0.006701 80824.400000 1 0 0
6.319465 9.103142 13.242069 17.267172 0.963969 0.696811 0.008523 -0.005285 515647.000000 1 0 0
16.799365 9.403642 2.810869 19.456314 0.510307 1.425818 0.020617 0.000882 660569.000000 1 0 0
2.579065 14.673442 -0.815331 14.920665 1.396809 1.625468 -0.000860 -0.005859 758419.000000 1 0 0
9.184165 12.914642 8.277769 17.878991 0.952631 1.089432 0.026098 -0.011002 2627530.000000 1 0 0
7.245565 9.422942 10.434369 15.816640 0.915291 0.850366 0.011055 -0.006861 907202.000000 1 0 0
4.304965 15.767842 -5.376031 17.206374 1.304270 1.888561 0.006524 -0.004694 1022750.000000 1 0 0
0.304765 16.262842 -8.257031 18.241477 1.552059 2.040533 -0.000780 0.000836 2197720.000000 1 0 0
-2.372235 15.617042 -2.041731 15.927592 -1.420048 1.699338 -0.004239 0.000092 -814320.000000 1 0 0
13.438165 10.536842 7.631369 18.704201 0.664969 1.150531 0.034781 -0.004580 1573980.000000 1 0 0
-1.025335 15.999042 7.121669 17.542487 -1.506797 1.152760 0.004410 -0.000910 1971210.000000 1 0 0
13.475365 13.430342 6.697269 20.169605 0.783725 1.232323 0.040224 -0.004376 211878.000000 1 0 0
5.368365 17.354342 4.495269 18.713631 1.270794 1.328210 0.004627 -0.009855 1787620.000000 1 0 0
10.863365 9.553142 -1.907731 14.591596 0.721311 1.701913 0.008338 0.004982 -311415.000000 1 0 0
3.213065 12.725942 4.736669 13.953832 1.323484 1.224461 0.003984 -0.001049 2990090.000000 1 0 0
-0.125335 18.035242 3.484769 18.369249 -1.563847 1.379933 -0.003525 -0.003098 2563630.000000 1 0 0
-7.660835 15.891542 -5.903931 18.603385 -1.121595 1.893738 0.022688 -0.012753 603459.000000 1 0 0
-12.424335 -9.112158 8.263269 17.483625 0.632800 1.078525 0.020186 -0.011659 409903.000000 1 0 0
-13.247535 -11.737758 6.833969 18.973014 0.725045 1.202320 0.021509 -0.010214 -748670.000000 1 0 0
-6.538335 -12.190358 12.352069 18.545303 1.078491 0.841898 0.015838 -0.009526 -727872.000000 1 0 0
-1.741535 -10.639158 14.431069 18.013339 1.408544 0.641611 0.007493 -0.011350 596820.000000 1 0 0
-8.864035 2.856542 10.980769 14.398203 -0.311754 0.703398 0.001326 0.001409 230199.000000 1 0 0
0.546065 10.144242 15.103569 18.202243 1.517018 0.592111 0.005069 -0.002749 1138250.000000 1 0 0
1.079565 -6.735558 16.601769 17.948591 -1.411870 0.389860 0.000497 -0.006128 1957030.000000 1 0 0
6.058865 2.339142 17.893069 19.035318 0.368440 0.348186 0.004812 0.005741 670150.000000 1 0 0
-4.956635 -2.931158 17.681069 18.595164 0.534043 0.314852 0.015094 -0.009869 461784.000000 1 0 0
-4.360735 8.167742 12.992169 15.953823 -1.080400 0.619169 -0.005135 0.000078 125108.000000 1 0 0
0.223865 -4.817058 18.601069 19.215981 -1.524356 0.253662 0.011666 -0.011309 -24504.500000 1 0 0
-11.638735 2.024142 11.056469 16.180322 -0.172192 0.818485 0.010774 -0.002715 1160640.000000 1 0 0
-3.352935 -6.156658 14.417469 16.031532 1.072106 0.452586 0.015123 -0.008238 1525070.000000 1 0 0
-7.343535 -2.346158 14.664169 16.567130 0.309237 0.484009 0.008661 -0.001122 1083830.000000 1 0 0
-6.087635 -1.164658 10.586069 12.267053 0.189031 0.529682 0.005531 0.001027 2003210.000000 1 0 0
-4.002735 2.430942 11.160069 12.102831 -0.545785 0.397313 -0.000158 0.003514 570216.000000 1 0 0
-6.439935 6.213442 13.490469 16.188650 -0.767500 0.585694 -0.010370 -0.002057 1354120.000000 1 0 0
-9.010135 5.407042 12.538469 16.359457 -0.540498 0.697523 -0.006237 -0.004625 -1304610.000000 1 0 0
-12.087535 -2.081558 15.731069 19.947629 0.170534 0.662237 0.016005 -0.001748 613451.000000 1 0 0
-3.389635 -7.647958 16.935669 18.889091 1.153605 0.458800 0.022442 -0.013173 647740.000000 1 0 0
-0.471635 -5.322158 14.403969 15.363011 1.482410 0.355207 0.005836 -0.000698 3873320.000000 1 0 0
-14.187835 -2.255758 13.736869 19.876737 0.157673 0.807783 0.027738 0.000051 -322918.000000 1 0 0
-6.488335 1.405242 12.183869 13.875153 -0.213286 0.498905 0.000673 0.001346 2395880.000000 1 0 0
2.331665 -2.181658 14.527169 14.873968 -0.752174 0.216366 0.001132 0.003955 777606.000000 1 0 0
-12.665235 4.054042 9.148769 16.141357 -0.309787 0.968191 0.003309 -0.002235 -612965.000000 1 0 0
-9.019735 -3.123258 12.584369 15.794831 0.333347 0.648915 0.004918 0.003875 2323760.000000 1 0 0
-7.080635 -7.285058 15.310969 18.374799 0.799627 0.585820 0.019791 -0.010056 -194036.000000 1 0 0
-3.224035 5.952642 19.523569 20.663932 -1.074414 0.333770 0.021486 -0.001419 -119319.000000 1 0 0
0.616265 5.460942 16.076069 16.989457 1.458422 0.329396 0.005154 0.000741 2966390.000000 1 0 0
3.473565 1.592542 16.756869 17.187045 0.429879 0.224206 -0.006771 0.007271 2166560.000000 1 0 0
-11.830035 11.401042 7.780069 18.178640 -0.766934 1.128541 0.005075 -0.011093 45028.100000 1 0 0
0.741465 -9.405458 15.468969 18.119089 -1.492126 0.547673 -0.003199 -0.000561 519148.000000 1 0 0
-2.420035 -3.747858 18.972569 19.490033 0.997442 0.230948 0.014641 -0.011945 464416.000000 1 0 0
-12.798035 2.315342 13.662469 18.863021 -0.178978 0.760779 0.011325 -0.011705 -4397.330000 1 0 0
-5.251735 -0.617758 15.804369 16.665546 0.117091 0.322879 0.006139 0.000650 1892580.000000 1 0 0
-4.402635 -6.040758 11.686669 13.872713 0.940988 0.569035 0.009744 -0.000681 1256160.000000 1 0 0
2.532565 1.876242 13.929669 14.281801 0.637617 0.222522 0.001282 -0.001201 210921.000000 1 0 0
0.102165 3.314042 14.156369 14.539467 1.539978 0.230067 0.008105 -0.002850 -206960.000000 1 0 0
-12.978335 7.133842 12.227569 19.205268 -0.502592 0.880614 0.011000 -0.005350 291315.000000 1 0 0
0.952665 1.544142 18.359869 18.449302 1.018004 0.098503 0.009360 0.005848 1949310.000000 1 0 0
-2.013635 6.481842 12.413269 14.147730 -1.269591 0.500373 -0.002640 0.001082 1824730.000000 1 0 0
-13.502235 -2.745858 10.861069 17.544597 0.200627 0.903258 0.021727 -0.003751 463744.000000 1 0 0
-2.578435 3.647142 13.453969 14.176010 -0.955405 0.320538 0.001499 -0.001111 221763.000000 1 0 0
3.549265 6.188142 16.244669 17.742031 1.050046 0.413790 -0.000740 0.001860 2069190.000000 1 0 0
-3.816735 12.440342 12.292569 17.900750 -1.273110 0.813847 0.008876 -0.012033 277741.000000 1 0 0
3.750565 -1.399758 17.043969 17.507796 -0.357203 0.230696 0.006618 0.003240 -963864.000000 1 0 0
-15.833435 0.392942 9.257269 18.345274 -0.024812 1.041862 0.018718 -0.003354 1103570.000000 1 0 0
-4.624035 4.573342 15.208869 16.541066 -0.779887 0.404088 -0.004576 -0.002397 1252060.000000 1 0 0
-8.004935 -8.245558 10.545769 15.597482 0.800204 0.828313 0.009321 -0.008667 4239520.000000 1 0 0
-2.510635 -0.411858 14.777169 14.994587 0.162597 0.170499 0.000356 0.001043 2152620.000000 1 0 0
-1.750335 0.953342 17.300169 17.414602 -0.498736 0.114703 0.007044 -0.001151 176826.000000 1 0 0
-0.632435 -2.468858 14.330469 14.555328 1.320024 0.176003 0.003891 0.002630 1244240.000000 1 0 0
5.290265 -8.187858 16.424569 19.099591 -0.997160 0.535637 0.008086 -0.000568 730200.000000 1 0 0
-4.581435 10.015642 10.605969 15.290167 -1.141782 0.804257 -0.001126 -0.004468 -1331720.000000 1 0 0
-6.097035 2.051842 15.192869 16.498702 -0.324626 0.400535 -0.003115 -0.000907 156192.000000 1 0 0
-4.950735 6.728542 17.294069 19.205933 -0.936458 0.449983 0.006788 0.001764 -56072.000000 1 0 0
-4.178435 9.048542 15.767269 18.653209 -1.138190 0.563699 0.001889 0.002135 503097.000000 1 0 0
-4.564135 -9.799958 18.370269 21.315189 1.134939 0.531911 0.038275 -0.022375 -190600.000000 1 0 0
-6.763235 -4.120058 11.140469 13.668441 0.547145 0.617980 0.007473 0.003409 207349.000000 1 0 0
-2.250435 -0.864558 19.684369 19.831447 0.366789 0.121866 0.013250 -0.002241 -39464.900000 1 0 0
-5.672435 -4.565258 15.433369 17.064787 0.677670 0.440828 0.013552 -0.006032 443453.000000 1 0 0
-12.947935 -0.085158 9.755869 16.212133 0.006577 0.925089 0.010890 -0.001939 670315.000000 1 0 0
-14.453735 8.717442 10.346869 19.798029 -0.542716 1.020874 0.005290 -0.011427 -627108.000000 1 0 0
-8.318735 10.655242 12.714869 18.558110 -0.907924 0.816003 -0.002650 -0.009737 -1843340.000000 1 0 0
-10.476435 7.148442 10.745569 16.622971 -0.598772 0.867902 0.001260 -0.006381 -719922.000000 1 0 0
-9.848035 -6.552858 14.859669 18.992985 0.587123 0.672324 0.016386 -0.009489 -809679.000000 1 0 0
-0.635135 -13.372858 14.392869 19.656841 1.523338 0.749240 -0.000168 -0.010450 -276062.000000 1 0 0
3.934365 -5.696858 17.003669 18.359144 -0.966393 0.386673 0.006724 0.001197 2110380.000000 1 0 0
-7.412435 9.357042 10.296969 15.764708 -0.900844 0.859038 0.001413 -0.006470 1207140.000000 1 0 0
-10.319735 -6.723558 11.864069 17.101441 0.577446 0.804118 0.016004 -0.009813 1311730.000000 1 0 0
-10.848935 -3.985658 10.758769 15.790376 0.352071 0.821191 0.009693 0.001243 -233712.000000 1 0 0
-10.079135 -10.246758 9.802369 17.397455 0.793645 0.972256 0.011145 -0.009325 1330360.000000 1 0 0
-9.825135 -3.654258 15.273369 18.524650 0.356076 0.601498 0.012243 -0.006488 1253380.000000 1 0 0
5.648365 -3.322558 16.132069 17.412268 -0.531723 0.385854 0.000772 0.004894 1175260.000000 1 0 0
-11.110435 0.580742 15.275569 18.897673 -0.052222 0.629485 0.014440 -0.008737 -621601.000000 1 0 0
-3.179835 3.076442 18.821269 19.334322 -0.768873 0.230886 0.014853 -0.002688 -1297460.000000 1 0 0
0.496665 7.427942 13.894669 15.763338 1.504031 0.491863 0.006435 -0.003757 1429450.000000 1 0 0
-13.159035 -7.388258 12.135969 19.365647 0.511598 0.893517 0.020542 -0.011235 30503.800000 1 0 0
-1.436135 -1.021958 12.145969 12.273200 0.618471 0.144115 0.003258 0.003227 772089.000000 1 0 0
2.014465 -4.859658 13.109569 14.125691 -1.177829 0.381611 -0.000312 0.000610 681628.000000 1 0 0
-14.724935 -4.177658 8.580869 17.547303 0.276449 1.059838 0.029470 -0.014809 -16517.700000 1 0 0
8.169865 1.150442 16.189269 18.170378 0.139896 0.471318 0.005122 0.007832 100350.000000 1 0 0
-1.340835 11.387542 13.331269 17.583990 -1.453590 0.710328 0.001471 -0.001359 263321.000000 1 0 0
2.922565 -12.456258 -13.783031 18.806161 -1.340339 2.393371 -0.007435 0.009760 -677581.000000 1 0 0
0.879765 -10.816558 -13.718831 17.492233 -1.489640 2.472333 -0.007182 0.002335 -770921.000000 1 0 0
3.342065 -14.622158 -12.311531 19.404914 -1.346094 2.258099 -0.000400 0.010546 -311901.000000 1 0 0
-5.060935 -10.219258 -16.114231 19.741194 1.110968 2.525728 0.021798 -0.010113 -969849.000000 1 0 0
-0.829735 -12.269858 -14.843731 19.276260 1.503275 2.449720 0.006936 -0.001464 -351316.000000 1 0 0
5.844465 -14.933358 -11.752931 19.882010 -1.197752 2.203260 0.003314 0.001213 151663.000000 1 0 0
2.157665 -11.726058 -16.025131 19.974002 -1.388826 2.501934 0.000960 0.000391 -697843.000000 1 0 0
1.283565 -14.480858 -13.849631 20.078721 -1.482389 2.331963 0.007691 0.009747 -944709.000000 1 0 0
-0.913135 -10.730658 -15.865631 19.175481 1.485905 2.545244 0.006172 -0.003385 -416797.000000 1 0 0
-5.919535 -5.619558 -14.871431 16.964073 0.759407 2.639636 0.012943 -0.011880 -198881.000000 1 0 0
-6.496235 -7.548358 -16.544031 19.310198 0.860171 2.599733 0.017007 -0.006917 -58940.200000 1 0 0
4.890965 -12.621458 -11.302831 17.634532 -1.201102 2.266530 -0.008591 0.005519 32563.700000 1 0 0
-1.782835 -15.571558 -13.023031 20.377714 1.456800 2.264100 0.015166 -0.000436 -25572.700000 1 0 0
15.375565 -7.489258 -8.774331 19.222015 -0.453265 2.044823 0.014051 -0.007586 20252.300000 1 0 0
19.310265 -3.688258 -4.275631 20.118911 -0.188727 1.784947 0.029410 -0.005376 1030700.000000 1 0 0
14.627765 -11.715558 -8.885631 20.740787 -0.675297 2.013532 0.023295 -0.011913 -328454.000000 1 0 0
17.781465 -3.698058 -6.355031 19.241688 -0.205050 1.907390 0.040539 -0.003054 485666.000000 1 0 0
9.245065 -9.302058 -15.349631 20.189370 -0.788471 2.434545 0.022126 -0.009976 362797.000000 1 0 0
1.243565 1.890642 -15.336831 15.502883 0.988994 2.995099 0.015590 -0.003038 146733.000000 1 0 0
4.846765 -4.309758 -13.916431 15.353573 -0.726818 2.705471 0.000402 -0.000709 822441.000000 1 0 0
13.030765 -5.511858 -8.698831 16.608765 -0.400165 2.122043 0.015814 -0.006702 -1672730.000000 1 0 0
3.007765 1.000442 -12.297131 12.699093 0.321108 2.889318 0.010540 -0.005010 -2796990.000000 1 0 0
0.649765 6.283242 -12.977631 14.433303 1.467750 2.688608 0.012903 -0.004018 448648.000000 1 0 0
3.041765 -1.203058 -16.872431 17.186582 -0.376632 2.950099 0.017171 -0.003799 -502501.000000 1 0 0
13.202265 4.451542 -11.509831 18.071863 0.325209 2.261257 0.002720 -0.001753 542981.000000 1 0 0
-3.905635 9.443642 -16.549631 19.450621 -1.178644 2.588404 0.002644 -0.004940 -180299.000000 1 0 0
-0.206935 -5.153258 -17.622531 18.361713 1.530662 2.856883 0.012894 -0.011986 290563.000000 1 0 0
-0.466135 -8.651458 -17.457331 19.489059 1.516969 2.680913 0.013652 -0.003890 -206910.000000 1 0 0
5.461465 -10.211058 -12.135831 16.774138 -1.079653 2.379633 -0.010717 0.002466 620657.000000 1 0 0
1.850965 -9.633058 -18.016231 20.513568 -1.380963 2.643006 0.008464 -0.007922 -355961.000000 1 0 0
10.824165 8.860742 -14.618631 20.233133 0.685984 2.378222 0.031087 -0.014404 -765714.000000 1 0 0
10.957165 -3.893558 -12.841931 17.324389 -0.341427 2.405747 0.015115 -0.004446 206094.000000 1 0 0
4.886465 7.465042 -12.348131 15.234196 0.991208 2.515893 -0.002823 -0.001302 67020.400000 1 0 0
9.559465 -6.027358 -12.504131 16.854249 -0.562553 2.406693 0.012040 -0.003197 -1459360.000000 1 0 0
-3.367335 0.343642 -15.757931 16.117364 -0.101700 2.930006 0.016022 -0.004660 -1451860.000000 1 0 0
-0.765435 10.726642 -12.855031 16.760029 -1.499559 2.444957 -0.000604 -0.001199 -3422790.000000 1 0 0
6.597365 -5.474658 -12.490531 15.149603 -0.692664 2.540077 -0.001400 0.002429 143102.000000 1 0 0
17.677065 -6.343758 -7.974131 20.403643 -0.344554 1.972318 0.029972 -0.013722 352864.000000 1 0 0
13.152965 4.641342 -14.105731 19.837192 0.339233 2.361822 0.015779 -0.008571 409251.000000 1 0 0
14.152865 0.775142 -11.523631 18.267417 0.054715 2.253419 0.009659 -0.001550 335780.000000 1 0 0
15.105065 6.169142 -10.962931 19.657242 0.387740 2.162414 0.014229 -0.013480 641692.000000 1 0 0
8.266465 1.481842 -11.668731 14.376703 0.177376 2.517753 -0.001446 0.000084 779646.000000 1 0 0
10.035565 1.294942 -8.907031 13.480528 0.128326 2.292591 0.000444 -0.002181 45570.600000 1 0 0
-0.094935 -5.830858 -13.034931 14.279963 1.554516 2.720916 0.001908 -0.005895 15267.300000 1 0 0
10.502465 -5.760158 -8.935231 14.943880 -0.501658 2.211699 0.008659 -0.006415 -105330.000000 1 0 0
10.231665 8.485642 -11.345631 17.476168 0.692383 2.277336 0.015165 -0.008647 549490.000000 1 0 0
8.300865 8.144242 -14.630531 18.689181 0.775874 2.470004 0.021191 -0.003143 330338.000000 1 0 0
8.597665 10.499742 -10.672731 17.264751 0.884670 2.237222 0.018010 -0.009537 1472630.000000 1 0 0
7.180665 1.636242 -17.930331 19.383911 0.224042 2.751861 0.025213 0.003510 -2964710.000000 1 0 0
12.202365 2.528842 -12.914231 17.946312 0.204349 2.374028 0.007540 -0.003526 -599115.000000 1 0 0
2.685865 -1.096358 -19.372831 19.588835 -0.387551 2.992951 0.023224 -0.010676 -308724.000000 1 0 0
10.419365 -2.286558 -15.415731 18.746634 -0.216028 2.536272 0.026243 -0.002633 1042690.000000 1 0 0
8.364965 -0.875158 -12.984731 15.470675 -0.104243 2.566814 0.007264 -0.002546 792114.000000 1 0 0
0.594565 4.334942 -14.704331 15.341531 1.434490 2.852369 0.012498 -0.003521 -544392.000000 1 0 0
3.975165 -7.741458 -15.504031 17.779401 -1.096415 2.630115 -0.003612 -0.002775 -2137970.000000 1 0 0
11.411965 -6.012558 -14.359531 19.302330 -0.484907 2.409725 0.029224 -0.003499 -923969.000000 1 0 0
-5.872435 4.096842 -16.996331 18.443017 -0.609140 2.742874 0.008100 -0.002532 84867.200000 1 0 0
11.305065 7.745242 -9.039831 16.416815 0.600664 2.153933 0.013909 -0.007303 -1663840.000000 1 0 0
9.578765 6.123042 -13.448831 17.610095 0.568767 2.439822 0.013526 -0.001686 -224053.000000 1 0 0
12.129065 0.569442 -10.036131 15.753171 0.046914 2.261509 0.006501 -0.001700 -2176350.000000 1 0 0
5.505765 -7.371158 -13.614131 16.431433 -0.929261 2.547295 -0.003447 0.002443 -518697.000000 1 0 0
8.583665 -10.333558 -10.538431 17.073964 -0.877638 2.236004 0.011396 -0.000355 150465.000000 1 0 0
10.169765 4.598842 -15.891631 19.419511 0.424688 2.529301 0.028321 -0.007429 -723558.000000 1 0 0
9.871065 -0.348158 -10.854431 14.675756 -0.035256 2.403297 0.001898 -0.002705 -400686.000000 1 0 0
-1.657835 5.528842 -14.094931 15.231008 -1.279475 2.752913 0.005472 -0.004740 830056.000000 1 0 0
1.287765 -0.687558 -14.987331 15.058259 -0.490410 3.044495 0.010239 -0.005152 10917.700000 1 0 0
11.356165 -10.616158 -14.259131 21.094741 -0.751732 2.313058 0.045340 -0.007794 227717.000000 1 0 0
9.364065 -7.855158 -10.729131 16.263563 -0.697992 2.291221 0.012083 -0.003708 -261018.000000 1 0 0
14.057265 -1.035358 -9.752431 17.140262 -0.073520 2.176059 0.010105 0.001610 933563.000000 1 0 0
3.970065 11.111642 -12.340931 17.074208 1.227643 2.378616 -0.000727 -0.009346 -1249930.000000 1 0 0
-1.334135 2.793842 -17.246831 17.522519 -1.125288 2.963971 0.009627 0.000579 142719.000000 1 0 0
5.942965 -0.566658 -17.665831 18.647293 -0.095062 2.815705 0.008418 0.002329 193876.000000 1 0 0
6.223165 -6.603458 -16.054431 18.441209 -0.815038 2.627163 0.000562 0.003341 233166.000000 1 0 0
-1.816535 -5.369758 -19.663431 20.464228 1.244591 2.860917 0.027506 -0.022564 -198758.000000 1 0 0
-0.187335 -4.358158 -15.140831 15.756694 1.527838 2.861082 0.005159 -0.009369 251930.000000 1 0 0
0.501165 0.769542 -13.099631 13.131782 0.993542 3.071602 0.010904 -0.005961 892232.000000 1 0 0
15.637465 0.505942 -13.604331 20.733165 0.032343 2.286519 0.014465 -0.003350 678277.000000 1 0 0
-0.126335 7.061342 -16.406431 17.861957 -1.552907 2.735098 0.008799 -0.002426 -59593.700000 1 0 0
-4.988635 -0.485558 -18.255331 18.930910 0.097027 2.873634 0.014831 -0.007353 -157946.000000 1 0 0
10.373665 -8.506058 -13.043831 18.711159 -0.686798 2.342162 0.015717 -0.010641 274287.000000 1 0 0
4.243865 8.668742 -17.346031 19.850498 1.115536 2.633828 0.014025 -0.010399 -361319.000000 1 0 0
9.374265 0.872842 -16.748631 19.213416 0.092843 2.629489 0.018412 -0.004232 -379577.000000 1 0 0
3.345165 4.819742 -18.581931 19.486103 0.964072 2.835769 0.019711 0.000585 -578481.000000 1 0 0
1.454765 -8.236658 -15.755431 17.837951 -1.395978 2.653552 -0.004974 -0.006659 -403247.000000 1 0 0
4.636765 7.781842 -14.921731 17.456080 1.033438 2.595992 0.003908 -0.001637 795179.000000 1 0 0
-5.706535 -0.500558 -15.072131 16.124027 0.087493 2.778386 0.011002 -0.007227 -812664.000000 1 0 0
2.878265 3.292642 -13.857731 14.531435 0.852448 2.835898 0.011421 -0.001318 58393.300000 1 0 0
-2.172835 -10.396258 -18.071631 20.961566 1.364761 2.610258 0.024040 -0.000740 14451.400000 1 0 0
6.186965 -9.171458 -15.368531 18.936365 -0.977329 2.517662 -0.006790 0.002131 148405.000000 1 0 0
-1.786335 5.311542 -17.405231 18.285118 -1.246367 2.830108 0.007024 -0.001660 1378020.000000 1 0 0
10.099065 -12.160658 -11.563331 19.585284 -0.877750 2.202362 0.036947 -0.006952 789035.000000 1 0 0
10.973865 3.645142 -9.391631 14.896829 0.320699 2.252923 0.005245 -0.003373 -2012460.000000 1 0 0
4.802365 -0.452558 -10.960931 11.975372 -0.093959 2.727022 0.007485 -0.006517 -206815.000000 1 0 0
6.210565 9.502342 -11.373031 16.068960 0.991907 2.357124 0.003447 -0.008787 -56068.200000 1 0 0
10.822865 -9.518258 -9.433231 17.225489 -0.721349 2.150328 0.021074 -0.009866 -705364.000000 1 0 0
3.113965 -2.423558 -14.563331 15.088440 -0.661360 2.876996 0.010037 -0.005695 31714.700000 1 0 0
9.217365 -4.621558 -14.627331 17.896296 -0.464764 2.527573 0.015740 -0.002135 149530.000000 1 0 0
-4.043535 -6.667358 -16.523031 18.270588 1.025635 2.700654 0.010018 -0.006254 -1017510.000000 1 0 0
5.865065 -7.806158 -11.070931 14.761457 -0.926439 2.418842 -0.004899 0.001795 519114.000000 1 0 0
5.458765 6.428142 -16.877031 18.866725 0.866768 2.678196 0.014084 -0.006153 -1902350.000000 1 0 0
9.254365 1.151042 -19.339831 21.470846 0.123743 2.692286 0.039210 -0.009006 319898.000000 1 0 0
13.093165 5.706142 -9.292131 17.039212 0.410992 2.147589 0.001440 -0.006478 683253.000000 1 0 0
-1.692235 -0.909358 -17.333731 17.439863 0.493095 3.031213 0.019637 -0.008589 697511.000000 1 0 0
-0.485335 -0.711858 -19.532031 19.551024 0.972399 3.097511 0.021968 -0.014596 -196809.000000 1 0 0
2.871265 6.463742 -16.601731 18.045543 1.152767 2.738853 0.009238 0.001418 749332.000000 1 0 0
7.637265 3.793742 -15.650331 17.822827 0.461037 2.642686 0.010393 0.002051 769943.000000 1 0 0
3.103165 -9.906758 -14.460131 17.800811 -1.267240 2.518932 -0.007247 -0.006254 -482715.000000 1 0 0
8.995665 -10.653258 -13.255231 19.238374 -0.869559 2.330904 0.020201 -0.001511 -125985.000000 1 0 0
3.824865 0.041542 -14.795831 15.282275 0.010861 2.888607 0.014166 -0.004330 -822842.000000 1 0 0
-1.176435 -3.032558 -18.872731 19.150989 1.200734 2.970917 0.026317 -0.011008 -43480.900000 1 0 0
9.195365 10.160442 -13.191231 19.020986 0.835217 2.337145 0.027747 -0.010388 139596.000000 1 0 0
4.624365 2.109342 -10.772131 11.911041 0.427945 2.700726 0.007110 -0.001352 112602.000000 1 0 0
-0.445535 6.971142 -18.944331 20.191162 -1.506972 2.788329 0.018783 -0.007859 228913.000000 1 0 0
0.762165 -1.897458 -17.567131 17.685738 -1.188845 3.025714 0.022791 -0.014705 -1272240.000000 1 0 0
-4.573535 -2.364658 -14.113331 15.023147 0.477179 2.791786 0.009540 -0.008731 -2964960.000000 1 0 0
10.159265 5.993942 -10.510031 15.798695 0.533032 2.298621 0.006566 0.001511 65344.500000 1 0 0
8.344565 5.630442 -17.279731 19.998069 0.593574 2.614096 0.028471 -0.010972 -224066.000000 1 0 0
11.477765 0.091542 -13.450431 17.682239 0.007975 2.435148 0.004777 0.000284 500591.000000 1 0 0
6.663465 12.059442 -11.816831 18.151292 1.065996 2.279722 0.012444 -0.012689 -504316.000000 1 0 0
-0.960435 0.558942 -15.244331 15.284779 -0.527055 3.068826 0.013845 -0.007216 -1704900.000000 1 0 0
-4.206635 -2.898158 -18.885031 19.563729 0.603271 2.877418 0.009470 -0.012364 -336324.000000 1 0 0
5.790265 -12.239658 -13.736531 19.288045 -1.128921 2.363393 -0.007558 0.003047 -278865.000000 1 0 0
2.183165 -4.709558 -13.964331 14.897942 -1.136723 2.785692 0.004624 -0.004517 773903.000000 1 0 0
11.927965 1.715342 -15.338231 19.505899 0.142829 2.475655 0.024020 -0.004064 541362.000000 1 0 0
9.756365 2.095242 -13.764631 17.001228 0.211543 2.514310 0.005918 -0.000132 468262.000000 1 0 0
-2.345735 -4.306158 -16.447331 17.162755 1.072001 2.851843 0.009220 -0.013242 -1522910.000000 1 0 0
-2.875635 10.095542 -14.220831 17.675443 -1.293303 2.505719 0.005572 -0.008586 -209355.000000 1 0 0
3.615165 5.725942 -13.818631 15.388645 1.007632 2.685944 0.002686 0.001734 -274089.000000 1 0 0
-5.058935 -2.575658 -16.541631 17.488636 0.470925 2.811000 0.008878 -0.008089 447107.000000 1 0 0
-4.330335 6.189942 -13.647231 15.598529 -0.960355 2.636036 -0.002591 -0.003330 16166.300000 1 0 0
5.926565 -1.259158 -14.081931 15.330050 -0.209347 2.735278 0.011900 -0.001385 -575135.000000 1 0 0
6.857365 -3.025258 -12.593931 14.655468 -0.415486 2.604761 0.005204 -0.002433 1073180.000000 1 0 0
2.812665 -3.381358 -18.179831 18.704302 -0.876955 2.904223 0.017269 -0.014283 -310461.000000 1 0 0
7.376365 -12.072258 -11.822031 18.436664 -1.022315 2.266889 0.007577 -0.000152 -571369.000000 1 0 0
-6.074735 -5.272858 -17.413031 19.181217 0.714850 2.708845 0.031107 -0.016463 431016.000000 1 0 0
0.546265 8.582042 -11.941131 14.715314 1.507230 2.517471 0.003025 -0.003219 65743.500000 1 0 0
0.414465 8.529442 -14.503831 16.831051 1.522242 2.609467 0.001855 -0.002150 159537.000000 1 0 0
7.867865 -2.395358 -15.014131 17.119146 -0.295533 2.640457 0.013750 -0.005252 -568252.000000 1 0 0
14.291365 1.441042 -8.889931 16.892323 0.100493 2.125005 0.000679 0.002530 375627.000000 1 0 0
2.889665 10.538342 -14.684531 18.304160 1.303169 2.501853 0.001447 -0.006317 -474796.000000 1 0 0
6.259965 0.847142 -15.475431 16.715076 0.134510 2.754040 0.016990 -0.000947 502917.000000 1 0 0
16.683965 -5.676758 -10.209131 20.366802 -0.327965 2.095854 0.061566 -0.019860 629815.000000 1 0 0
4.867565 -4.096658 -11.234331 12.910693 -0.699611 2.626317 0.002275 0.000098 -26269.700000 1 0 0
8.870365 -3.478558 -17.015231 19.501329 -0.373725 2.631126 0.010271 -0.002700 437363.000000 1 0 0
13.278265 -9.584658 -8.833331 18.606604 -0.625228 2.065467 0.033060 -0.012159 -707200.000000 1 0 0
2.285065 -7.719558 -13.447931 15.673543 -1.283004 2.602163 -0.008053 -0.000291 65732.900000 1 0 0
-6.739635 -2.359558 -18.567231 19.893020 0.336765 2.774442 0.009188 -0.004615 -1251710.000000 1 0 0
-1.498735 -6.584558 -15.681131 17.073385 1.346996 2.734952 0.006284 -0.008714 -120776.000000 1 0 0
1.662765 -7.151658 -18.197431 19.622882 -1.342354 2.758085 0.011194 -0.015949 -445875.000000 1 0 0
5.455965 10.755642 -14.435731 18.810681 1.101353 2.445607 0.005611 -0.021919 -342815.000000 1 0 0
5.327765 -3.472958 -17.378331 18.505483 -0.577682 2.790772 0.009444 -0.006018 351573.000000 1 0 0
4.038765 12.816242 -14.387231 19.686547 1.265518 2.390312 -0.004468 -0.008348 -162270.000000 1 0 0
9.010765 10.395442 -15.795031 20.946172 0.856630 2.425044 0.033665 -0.017097 380674.000000 1 0 0
2.596265 3.845042 -16.295931 16.943504 0.976893 2.864228 0.014768 -0.002945 37212.700000 1 0 0
16.666565 1.534942 -11.475131 20.293079 0.091838 2.171800 0.015738 -0.003339 290035.000000 1 0 0
9.992065 -3.668358 -10.471931 14.931830 -0.351851 2.348038 0.010608 -0.005100 -332478.000000 1 0 0
14.506265 -2.286158 -12.076731 19.013303 -0.156312 2.259028 0.015983 -0.000480 416419.000000 1 0 0
-2.697835 -8.789758 -15.975931 18.432811 1.272994 2.619368 0.014908 -0.001609 -160743.000000 1 0 0
13.784665 8.204142 -8.845031 18.318284 0.536856 2.074706 0.016007 -0.008103 -273237.000000 1 0 0
-8.346335 -0.342958 -16.625031 18.605660 0.041068 2.675981 0.003624 -0.005525 -568164.000000 1 0 0
-3.429535 3.894942 -16.001431 16.821952 -0.848854 2.827973 0.003922 -0.001573 64659.200000 1 0 0
15.030165 3.882842 -9.757731 18.335639 0.252809 2.131961 0.001799 -0.001439 117296.000000 1 0 0
5.494565 1.007942 -12.986331 14.136866 0.181426 2.735356 0.008523 -0.001343 182214.000000 1 0 0
7.866065 -7.807458 -12.762031 16.902686 -0.781659 2.426496 0.006400 -0.000907 -3873710.000000 1 0 0
3.278865 -6.165758 -11.786431 13.699908 -1.082044 2.606711 -0.003422 -0.001967 -821065.000000 1 0 0
-3.329635 3.718842 -18.667431 19.323282 -0.840561 2.880308 0.014382 0.003148 -539228.000000 1 0 0
0.885765 5.169642 -17.851931 18.606483 1.401104 2.855829 0.020225 -0.005834 -705824.000000 1 0 0
6.317365 7.157942 -10.247931 14.005904 0.847697 2.391589 -0.003236 -0.002142 62082.900000 1 0 0
9.837865 3.592842 -11.656331 15.670423 0.350156 2.409598 0.008286 -0.001911 264440.000000 1 0 0
4.733065 1.805742 -17.418331 18.140035 0.364472 2.858567 0.024085 -0.002198 -697572.000000 1 0 0
2.629665 8.054442 -13.275931 15.749271 1.255221 2.573549 -0.000791 -0.002960 -2288450.000000 1 0 0
14.459265 -3.570358 -9.824931 17.842283 -0.242083 2.153944 0.025149 -0.003393 590596.000000 1 0 0
-1.335235 9.267742 -16.239931 18.745913 -1.427708 2.618580 0.005059 -0.006202 -1575120.000000 1 0 0
-5.336335 1.994042 -15.733931 16.733477 -0.357606 2.794209 0.011455 -0.006987 854602.000000 1 0 0
4.444965 4.328842 -11.923731 13.441427 0.772164 2.661795 0.009332 -0.002469 594944.000000 1 0 0
9.209065 3.236642 -17.799331 20.300220 0.337977 2.639973 0.013885 0.004968 880205.000000 1 0 0
-4.150035 14.265742 -13.293631 19.936269 -1.287700 2.300711 0.016378 -0.012587 -102653.000000 1 0 0
15.451065 -5.121258 -7.968731 18.123558 -0.320055 2.026049 0.032164 -0.003304 -357752.000000 1 0 0
1.124965 9.385242 -16.974231 19.428660 1.451500 2.633491 0.006580 0.001915 -288402.000000 1 0 0
0.451465 -3.253158 -12.752331 13.168478 -1.432900 2.889523 0.006030 -0.006765 299262.000000 1 0 0
7.586265 3.481542 -13.047831 15.489301 0.430253 2.572475 0.006006 0.000368 534679.000000 1 0 0
-2.990435 7.584542 -15.096331 17.157133 -1.195231 2.646420 0.003513 -0.003607 782245.000000 1 0 0
12.061465 -5.155958 -11.040331 17.145021 -0.403964 2.270431 0.019903 -0.006046 -1262670.000000 1 0 0
0.663065 -4.532858 -19.976331 20.494884 -1.425547 2.916164 0.024906 -0.013231 -714240.000000 1 0 0
3.415765 -4.641458 -16.065331 17.067672 -0.936364 2.797176 0.006550 -0.009645 416918.000000 1 0 0
-5.658835 4.165342 -14.431531 16.051217 -0.634531 2.688489 -0.000904 -0.003274 856817.000000 1 0 0
12.203865 -7.524658 -9.824931 17.380566 -0.552521 2.171572 0.017301 -0.005554 -59568.300000 1 0 0
-2.035335 -1.809058 -14.906231 15.152921 0.726607 2.960903 0.013258 -0.007182 755329.000000 1 0 0
7.135765 5.828942 -14.230431 16.952902 0.684939 2.566993 0.012567 -0.002758 -361820.000000 1 0 0
4.186865 -5.617458 -18.345631 19.637919 -0.930290 2.776790 0.015763 -0.009451 -121206.000000 1 0 0
7.604765 7.444042 -12.277931 16.247886 0.774718 2.427463 0.004215 -0.004354 -465235.000000 1 0 0
12.236065 -2.578458 -10.835531 16.546252 -0.207687 2.284798 0.010550 -0.008304 -931399.000000 1 0 0
7.369865 -0.775658 -10.618731 12.948900 -0.104861 2.532293 0.002606 -0.003215 -1084080.000000 1 0 0
5.348965 3.894642 -14.414031 15.860137 0.629345 2.711246 0.006697 0.001686 1599010.000000 1 0 0
14.848065 2.927842 -12.810831 19.828129 0.194689 2.273252 0.015995 -0.011603 1313710.000000 1 0 0
-6.558935 6.478842 -15.991231 18.458453 -0.779255 2.618616 0.000199 0.006539 573777.000000 1 0 0
-10.880835 3.828942 -16.691431 20.289338 -0.338365 2.536888 0.005972 -0.011312 -298338.000000 1 0 0
-5.115635 6.237242 -18.182031 19.891183 -0.883874 2.724017 -0.000424 0.013017 -231610.000000 1 0 0
-9.928735 1.553142 -15.861731 18.777288 -0.155172 2.576856 0.006953 -0.004138 145499.000000 1 0 0
-7.663435 5.662142 -18.128531 20.480033 -0.636328 2.657679 0.000715 0.000863 105669.000000 1 0 0
-8.638835 3.772242 -15.366631 18.027552 -0.411706 2.591349 -0.002903 -0.003793 -1318110.000000 1 0 0
8.958165 13.321742 -11.999731 20.042732 0.978803 2.212683 0.043519 -0.019572 -564578.000000 1 0 0
13.684365 8.820942 -11.384031 19.866229 0.572570 2.181000 0.020123 -0.014073 485935.000000 1 0 0
8.246365 15.994442 -9.224231 20.221552 1.094765 2.044470 0.034492 -0.008385 96308.100000 1 0 0
7.185365 13.508842 -13.992931 20.734522 1.081955 2.311573 0.027050 -0.015052 -176302.000000 1 0 0
4.680265 15.925642 -12.576431 20.825407 1.284961 2.219179 0.013054 -0.015190 -33120.300000 1 0 0
11.031865 10.969842 -11.693631 19.462284 0.782579 2.215342 0.034795 -0.009799 -9688.980000 1 0 0
15.587865 9.750842 -9.851231 20.859224 0.558988 2.062663 0.044776 -0.004303 792743.000000 1 0 0
13.118665 10.624242 -9.544531 19.392575 0.680722 2.085382 0.049018 -0.011114 255567.000000 1 0 0
10.277365 11.968942 -8.632931 17.983529 0.861291 2.071504 0.023767 0.001681 86642.700000 1 0 0
5.156365 16.101542 -10.139131 19.714202 1.260875 2.110994 0.015928 -0.012358 -5982.040000 1 0 0
6.770765 14.612042 -11.646831 19.874700 1.136881 2.196926 0.018213 -0.002929 -664905.000000 1 0 0
10.880465 14.242542 -9.903231 20.477024 0.918432 2.075590 0.048861 0.002508 -460873.000000 1 0 0
8.185665 -18.665858 -1.107131 20.411886 -1.157516 1.625062 0.033372 0.004459 -86951.700000 1 0 0
7.015265 -17.560658 -3.256331 19.188390 -1.190732 1.741325 0.015407 0.004104 651359.000000 1 0 0
4.606665 -18.227858 5.814569 19.679567 -1.323253 1.270857 0.032228 -0.000106 -44354.300000 1 0 0
9.572365 -17.087258 -2.680031 19.768336 -1.060152 1.706787 0.029494 -0.000665 972123.000000 1 0 0
-9.748335 -12.328358 -9.796331 18.519896 0.901737 2.128174 0.023237 -0.008242 338653.000000 1 0 0
-5.159735 -7.090758 -12.086031 14.932309 0.941740 2.513906 0.006082 -0.005630 702221.000000 1 0 0
-10.906235 -9.408258 -5.556931 15.438289 0.711792 1.939005 0.011157 -0.006576 -1062530.000000 1 0 0
-4.512235 -11.589558 -14.006331 18.731135 1.199516 2.415473 0.023018 -0.004912 305772.000000 1 0 0
-3.142735 -15.508558 7.428869 17.480853 1.370859 1.131866 0.005256 0.000703 176046.000000 1 0 0
-4.812635 -12.083458 -11.524431 17.377684 1.191771 2.295848 0.026330 -0.003463 -87372.600000 1 0 0
-14.444335 -12.700158 -4.327231 19.714404 0.721231 1.792094 0.014258 -0.006264 -272228.000000 1 0 0
-3.238735 -12.185258 -3.281331 13.028317 1.311011 1.825400 0.009647 -0.005582 794588.000000 1 0 0
-2.456235 -17.236558 -1.499831 17.475168 1.429248 1.656728 0.000848 -0.010884 -506611.000000 1 0 0
-5.730135 -12.063258 3.659969 13.847455 1.127342 1.303312 0.000276 -0.001840 -29545.500000 1 0 0
-8.878235 -10.920358 -11.866831 18.409208 0.888180 2.271314 0.016502 -0.000635 655211.000000 1 0 0
-10.413935 -11.892658 -7.298931 17.411483 0.851592 2.003363 0.030181 -0.014015 200260.000000 1 0 0
-10.846535 -15.052658 6.211469 19.565586 0.946396 1.247737 0.013200 -0.010758 -788935.000000 1 0 0
-9.566035 -15.750858 0.832569 18.446997 1.025001 1.525648 0.010692 0.003765 -2497660.000000 1 0 0
-14.705835 -7.664558 -8.139831 18.473329 0.480457 2.027092 -0.007304 -0.008587 -78311.800000 1 0 0
-2.398035 -16.512058 5.147769 17.461333 1.426575 1.271540 0.005323 0.000413 -1556870.000000 1 0 0
4.479665 -15.637958 6.056069 17.357681 -1.291806 1.214401 0.023009 -0.005512 -661683.000000 1 0 0
4.051465 -14.690558 -9.849831 18.145138 -1.301699 2.144606 -0.007088 0.003689 -449435.000000 1 0 0
-7.686335 -14.066158 -0.241331 16.031057 1.070689 1.585851 0.012166 -0.001781 921027.000000 1 0 0
3.039365 -14.916458 9.620069 18.007892 -1.369789 1.007219 0.017314 -0.003371 -1231200.000000 1 0 0
2.139165 -17.325558 10.267669 20.252802 -1.447949 1.039124 0.033292 -0.004014 -464535.000000 1 0 0
-8.447935 -17.027258 -5.818331 19.878332 1.110240 1.867843 0.034775 -0.009828 -346899.000000 1 0 0
-6.537435 -9.182458 -7.685131 13.642464 0.952096 2.169200 0.020632 -0.008471 542894.000000 1 0 0
-6.097235 -13.063058 -4.836531 15.205650 1.134097 1.894494 0.017974 -0.011769 378156.000000 1 0 0
2.235765 -19.360058 -4.800431 20.071238 -1.455822 1.812307 0.008967 -0.012308 72559.500000 1 0 0
-5.473035 -12.836858 8.343569 16.258972 1.167780 1.031926 0.002995 -0.002990 905576.000000 1 0 0
2.091565 -17.446158 3.524169 17.921016 -1.451479 1.372856 0.010427 -0.006450 408242.000000 1 0 0
-17.674135 -9.953858 -2.482031 20.435626 0.512912 1.692553 0.011183 -0.004151 498752.000000 1 0 0
-3.610135 -15.331258 2.580969 15.960637 1.339534 1.408375 -0.002620 0.001003 -136728.000000 1 0 0
-10.051635 -10.350658 -14.175431 20.226575 0.800053 2.347360 0.012399 -0.006840 -37475.400000 1 0 0
6.080765 -14.624858 -5.539831 16.779508 -1.176759 1.907264 -0.001781 -0.002731 47441.300000 1 0 0
-7.274535 -12.408858 -10.723431 17.941309 1.040558 2.211419 0.024941 -0.007389 -658423.000000 1 0 0
-7.055635 -14.308858 4.025469 16.453868 1.112687 1.323636 -0.009940 0.002750 451283.000000 1 0 0
3.160765 -14.950158 -3.159431 15.603834 -1.362444 1.774684 -0.001696 -0.002952 -432608.000000 1 0 0
-7.542335 -11.303458 7.663969 15.601006 0.982384 1.057274 -0.000275 -0.007487 -553028.000000 1 0 0
-12.865135 -12.247258 -0.868631 17.783744 0.760799 1.619660 0.012292 0.002035 -668352.000000 1 0 0
-1.969335 -13.567558 3.973169 14.273856 1.426653 1.288718 0.002767 0.000839 -3143270.000000 1 0 0
-3.152735 -13.888558 5.350769 15.213892 1.347577 1.211407 -0.001118 0.001660 -118285.000000 1 0 0
-14.613835 -10.127658 -4.453331 18.329369 0.606025 1.816214 0.009889 -0.007099 892163.000000 1 0 0
-6.451935 -8.693258 -10.420831 15.026440 0.932321 2.337132 0.018504 -0.006494 437943.000000 1 0 0
0.737965 -19.488058 2.398569 19.648972 -1.532947 1.448420 0.020714 -0.009880 135938.000000 1 0 0
6.504665 -14.336258 -8.137831 17.721830 -1.144852 2.047889 0.005596 0.001461 -1457120.000000 1 0 0
-3.974235 -16.745658 -5.883431 18.188632 1.337778 1.900188 0.006473 -0.008663 -155289.000000 1 0 0
-3.576235 -13.703258 -13.194631 19.356317 1.315513 2.320840 0.030298 -0.000467 -1513580.000000 1 0 0
-8.256735 -14.706558 -4.494531 17.454435 1.059218 1.831231 0.024917 -0.010072 -329864.000000 1 0 0
-4.611735 -14.381658 10.247369 18.251267 1.260488 0.974646 0.009619 -0.002779 -658600.000000 1 0 0
-0.154935 -12.116758 -9.869131 15.628166 1.558010 2.254278 0.007660 -0.002870 515949.000000 1 0 0
2.445365 -17.094058 6.776369 18.550089 -1.428707 1.196840 0.017114 -0.009288 -1384150.000000 1 0 0
-2.926835 -19.008158 -3.446131 19.538481 1.418018 1.748100 0.004911 -0.013042 -1499510.000000 1 0 0
0.582065 -15.379558 -3.112431 15.702128 -1.532968 1.770335 -0.003616 -0.003386 -723808.000000 1 0 0
5.903565 -17.981258 0.604369 18.935231 -1.253567 1.538873 0.017246 -0.001802 -318013.000000 1 0 0
-7.059435 -16.767858 3.910369 18.608806 1.172310 1.359083 -0.013026 0.006804 351655.000000 1 0 0
-5.245135 -13.619658 -9.514631 17.422248 1.203187 2.148521 0.023747 -0.005926 167605.000000 1 0 0
5.626065 -15.203558 -2.117031 16.348779 -1.216373 1.700653 0.006496 0.000638 -1211530.000000 1 0 0
-8.847835 -10.289558 -0.579031 13.582874 0.860591 1.613439 0.010733 -0.004183 -902747.000000 1 0 0
-7.664735 -18.225958 -3.060531 20.007512 1.172710 1.724368 0.021230 -0.010791 224977.000000 1 0 0
7.769665 -16.021058 -1.108031 17.840115 -1.119248 1.632945 0.013672 -0.002130 -777190.000000 1 0 0
-8.133835 -10.240158 -9.483331 16.154060 0.899536 2.198213 0.018227 -0.006283 -824312.000000 1 0 0
-9.135935 -14.843958 -6.886931 18.741350 1.019083 1.947086 0.035406 -0.015062 -317686.000000 1 0 0
-11.543235 -10.592458 -12.131431 19.814592 0.742472 2.229696 0.020536 0.007389 254355.000000 1 0 0
6.490865 -16.339758 2.510069 17.760052 -1.192668 1.428989 0.019093 -0.003017 630991.000000 1 0 0
-2.177735 -11.221958 -5.998231 12.909440 1.379119 2.054023 0.007705 -0.004342 -10079.500000 1 0 0
-12.373535 -15.110258 -3.390631 19.822226 0.884647 1.742694 0.015176 -0.013427 -120321.000000 1 0 0
-0.440535 -19.646058 -2.686731 19.833814 1.548376 1.706676 0.020418 -0.013990 274876.000000 1 0 0
-5.879835 -15.561858 -4.682731 17.282125 1.209541 1.845185 0.009743 -0.010166 -2598940.000000 1 0 0
1.962465 -15.751058 -0.946931 15.901062 -1.446842 1.630383 0.003099 -0.008578 727225.000000 1 0 0
-13.194335 -12.029358 5.239969 18.607880 0.739245 1.285336 0.015988 -0.009971 420742.000000 1 0 0
2.012465 -15.282058 -8.571631 17.637011 -1.439862 2.078306 -0.003720 0.005700 -1931470.000000 1 0 0
-11.817935 -16.614958 0.216869 20.390376 0.952538 1.560160 0.023466 -0.007910 -78667.500000 1 0 0
-7.829135 -16.578158 -1.044931 18.363620 1.129589 1.627729 0.013488 -0.002154 480060.000000 1 0 0
-3.077735 -14.356358 -1.774531 14.789402 1.359612 1.691073 0.003633 -0.004395 612384.000000 1 0 0
-1.746735 -10.492958 -13.185831 16.941646 1.405842 2.462764 0.006957 -0.002472 319499.000000 1 0 0
1.501565 -19.561658 4.904069 20.222834 -1.494186 1.325853 0.025243 -0.008953 -201330.000000 1 0 0
-17.375535 -9.362658 2.541369 19.900430 0.494236 1.442742 0.016914 -0.005922 -45285.900000 1 0 0
-2.625835 -15.775058 -8.108631 17.930347 1.405854 2.040060 0.002771 -0.000383 -71075.700000 1 0 0
-10.419535 -12.125658 0.275469 15.989814 0.860930 1.553568 0.008351 -0.000470 572813.000000 1 0 0
-6.864735 -11.520258 -6.519531 14.911244 1.033409 2.023304 0.023666 -0.009213 699807.000000 1 0 0
-2.318435 -13.610058 -6.706331 15.348736 1.402069 2.022980 0.002986 -0.002893 880046.000000 1 0 0
-14.345335 -14.439158 -1.079831 20.382442 0.788658 1.623800 0.020892 0.003063 62572.400000 1 0 0
-9.667735 -11.204458 -4.226331 15.390479 0.858891 1.848977 0.020621 -0.010920 964170.000000 1 0 0
9.324565 -15.168658 -5.148731 18.534970 -1.019619 1.852284 0.018891 -0.001426 99170.500000 1 0 0
-5.625135 -10.999458 -9.374931 15.508693 1.098069 2.219928 0.024975 -0.008025 -424016.000000 1 0 0
-10.531135 -15.818758 -4.909431 19.627542 0.983437 1.823611 0.038145 -0.010836 -2554570.000000 1 0 0
2.189465 -17.329458 -3.077531 17.736264 -1.445119 1.745195 0.008276 -0.007573 351606.000000 1 0 0
-0.338535 -14.466758 -8.095831 16.581440 1.547400 2.080876 0.000270 -0.001773 -2084890.000000 1 0 0
-0.564035 -18.320658 -6.977531 19.612510 1.540019 1.934534 0.006611 -0.006110 29432.800000 1 0 0
-1.579935 -9.913558 -10.526131 14.545592 1.412754 2.379894 0.003169 -0.002348 181268.000000 1 0 0
-5.103835 -17.303558 2.075769 18.159599 1.283971 1.456239 -0.004360 -0.000513 -704639.000000 1 0 0
0.202865 -12.771958 -2.638731 13.043272 -1.554914 1.774508 0.002974 -0.004979 -1034490.000000 1 0 0
2.596865 -14.929658 3.037869 15.455324 -1.398579 1.372950 0.008486 -0.002274 -906282.000000 1 0 0
-9.301435 -13.068458 6.750169 17.403047 0.952230 1.172474 -0.004382 -0.007623 -686073.000000 1 0 0
-0.944135 -17.879658 -4.521731 18.466716 1.518040 1.818170 0.008082 -0.008654 -520213.000000 1 0 0
-9.937335 -17.751758 -2.043631 20.446319 1.060465 1.670915 0.026230 -0.002267 -871247.000000 1 0 0
1.215965 -16.132658 1.479869 16.245960 -1.495566 1.479578 0.006831 -0.010218 -587776.000000 1 0 0
-0.497335 -18.035658 4.049269 18.491319 1.543228 1.350025 0.015021 -0.008283 705532.000000 1 0 0
-17.429435 -9.191558 -0.046731 19.704622 0.485294 1.573168 -0.003585 0.001064 886335.000000 1 0 0
-14.793035 -7.286958 -10.630531 19.619934 0.457705 2.143401 0.017149 -0.009999 710039.000000 1 0 0
2.785565 -12.696658 -8.759731 15.674737 -1.354825 2.163787 -0.012451 0.001740 274771.000000 1 0 0
-11.615035 -14.573558 1.898069 18.732333 0.897891 1.469296 0.005337 -0.002374 -253453.000000 1 0 0
-2.363335 -15.555958 10.676669 19.014847 1.420025 0.974610 0.015012 0.001335 -215172.000000 1 0 0
-7.134835 -16.068458 1.391669 17.636268 1.152920 1.491805 0.001383 0.005846 -763427.000000 1 0 0
-12.694635 -15.002658 -6.017931 20.553564 0.868536 1.867942 0.025622 -0.001786 128821.000000 1 0 0
0.917965 -13.669458 -5.043431 14.599073 -1.503743 1.923528 -0.003479 -0.001799 79845.300000 1 0 0
5.699665 -16.434958 -7.300431 18.865055 -1.236974 1.968152 0.006195 -0.007406 169488.000000 1 0 0
-6.468535 -12.825058 5.921369 15.536623 1.103661 1.179785 -0.001806 -0.000169 172111.000000 1 0 0
-2.582935 -13.504858 0.548469 13.760579 1.381819 1.530928 0.003091 -0.003812 3238260.000000 1 0 0
-4.356335 -15.472958 0.143869 16.075160 1.296355 1.561846 -0.000743 -0.004186 194073.000000 1 0 0
-17.718335 -7.393158 -1.923831 19.295059 0.395297 1.670668 -0.001286 -0.000453 616054.000000 1 0 0
1.395665 -12.825358 -11.812431 17.492033 -1.462402 2.312172 -0.000584 0.003273 -971285.000000 1 0 0
1.318665 -17.025858 -5.652431 17.988015 -1.493500 1.890445 0.011635 -0.007033 323852.000000 1 0 0
-12.775235 -6.363058 -9.174231 16.966486 0.462108 2.142097 0.005959 -0.003403 986922.000000 1 0 0
-11.843535 -13.511958 -8.817631 20.014818 0.851105 2.027013 0.045109 -0.014014 471972.000000 1 0 0
-4.272335 -9.696458 3.551369 11.175256 1.155780 1.247400 0.004894 -0.000368 -3420950.000000 1 0 0
-7.161535 -14.270358 9.698669 18.681404 1.105672 1.024927 0.002259 -0.006323 -1665340.000000 1 0 0
-5.231535 -15.955758 -8.174331 18.675515 1.253964 2.023839 0.018368 -0.005966 -461347.000000 1 0 0
-0.274035 -13.512658 2.117869 13.680365 1.550519 1.415360 0.005668 -0.004382 740523.000000 1 0 0
-11.058935 -13.285358 -4.759831 17.929215 0.876600 1.839497 0.026713 -0.007900 -592512.000000 1 0 0
-9.801535 -10.572258 6.543369 15.832195 0.823209 1.144727 0.010340 -0.005121 -345593.000000 1 0 0
-15.661235 -7.980258 -4.804231 18.221949 0.471262 1.837601 0.012560 -0.005164 413030.000000 1 0 0
-14.606235 -7.383058 5.426369 17.242306 0.468016 1.250643 0.025687 -0.008678 525220.000000 1 0 0
-1.794135 -19.256358 0.082269 19.339933 1.477893 1.566542 0.012051 -0.010438 -415603.000000 1 0 0
-15.434135 -12.160858 -1.461531 19.703681 0.667331 1.645040 0.006017 0.007510 364655.000000 1 0 0
-4.378535 -12.087358 -6.737431 14.514433 1.223258 2.053514 0.015419 -0.008179 -1393210.000000 1 0 0
-7.296135 -18.635158 2.165069 20.129337 1.197617 1.463030 -0.004669 0.012674 87462.300000 1 0 0
-2.476535 -11.648158 -8.662931 14.726139 1.361304 2.199713 0.009211 -0.001180 -333505.000000 1 0 0
-1.341235 -20.399758 -5.012231 21.049263 1.505143 1.811225 0.010984 -0.003178 -221896.000000 1 0 0
-5.397835 -9.064158 -13.705231 17.295344 1.033682 2.485568 0.017005 -0.010161 120467.000000 1 0 0
-8.122035 -19.209958 -0.731931 20.869251 1.170788 1.605876 -0.000736 0.014781 30688.900000 1 0 0
-17.204035 -7.311258 5.714769 19.547171 0.401848 1.274105 0.049091 -0.014723 768834.000000 1 0 0
-3.587335 -14.603458 -4.353431 15.655105 1.329916 1.852595 0.009453 -0.008586 -2216760.000000 1 0 0
-3.035735 -14.872258 -10.828231 18.645383 1.369442 2.190441 0.013451 -0.005608 -92692.800000 1 0 0
-0.119035 -16.661258 6.272169 17.803139 1.563652 1.210761 0.021364 -0.006964 -1119960.000000 1 0 0
-11.149235 -11.548158 3.752169 16.484664 0.802972 1.341168 0.007063 -0.004668 1148470.000000 1 0 0
-0.284035 -14.630458 -0.193731 14.634497 1.551385 1.584035 0.002279 -0.002555 557940.000000 1 0 0
-7.184935 -9.443658 -2.462931 12.119075 0.920406 1.775450 0.015524 -0.005210 84542.400000 1 0 0
-11.215535 -14.313558 -0.660031 18.196203 0.906160 1.607077 0.015470 -0.008082 311639.000000 1 0 0
0.412165 -14.633358 -10.504131 18.017819 -1.542638 2.193195 0.001021 0.000652 220518.000000 1 0 0
-1.417935 -13.879758 -3.923731 14.493235 1.468991 1.844946 0.003852 -0.007103 -1678300.000000 1 0 0
-11.499935 -8.135158 -7.651131 16.030256 0.615681 2.068368 0.009977 -0.004912 487800.000000 1 0 0
-0.206635 -17.219058 -0.216131 17.221654 1.558797 1.583347 0.008821 -0.009800 -70428.300000 1 0 0
-12.892135 -9.544358 4.565869 16.677802 0.637280 1.293487 0.015802 -0.008393 1323320.000000 1 0 0
3.830265 -16.851858 1.598069 17.355398 -1.347303 1.478587 0.009737 -0.007095 2398200.000000 1 0 0
-3.657235 -18.060858 -8.051131 20.109467 1.371003 1.982712 0.009474 -0.004832 74374.500000 1 0 0
-13.437635 -11.432358 2.647569 17.840360 0.704942 1.421843 0.006446 -0.002214 -178752.000000 1 0 0
-8.478535 -12.140258 4.114869 15.368915 0.961157 1.299750 0.005755 -0.004471 2395710.000000 1 0 0
-8.380435 -9.531558 -5.928931 14.008373 0.849575 2.007817 0.018548 -0.009102 -101070.000000 1 0 0
3.880265 -17.493658 -5.121531 18.636378 -1.352520 1.849192 -0.000309 0.001351 485576.000000 1 0 0
-2.498435 -13.025258 11.337269 17.448014 1.381284 0.863509 0.006195 -0.008357 294380.000000 1 0 0
0.005465 -16.789058 -9.354531 19.219254 -1.570471 2.079135 0.006065 0.000489 -317561.000000 1 0 0
-6.935435 -10.903358 -14.578831 19.481421 1.004267 2.416360 0.030789 0.000353 -961139.000000 1 0 0
-4.661135 -18.745958 -1.557631 19.379456 1.327091 1.651258 0.010696 -0.010584 -231427.000000 1 0 0
-2.539435 -17.054258 1.105169 17.277668 1.422979 1.506787 0.005266 -0.010872 791615.000000 1 0 0
4.016865 -14.482958 -7.230631 16.678528 -1.300246 2.019202 -0.005212 -0.003325 -197106.000000 1 0 0
-1.036735 -15.867158 -6.078231 17.023114 1.505551 1.935912 0.002107 -0.005630 -345407.000000 1 0 0
-9.518135 -15.150458 8.363869 19.750584 1.009870 1.133519 0.002272 -0.007915 -624098.000000 1 0 0
-7.329835 -12.049658 -1.787531 14.216751 1.024295 1.696864 0.011035 -0.006100 945489.000000 1 0 0
-7.475135 -15.065658 -9.321831 19.228838 1.110217 2.076912 0.033712 -0.010236 993372.000000 1 0 0
-5.182635 -13.213558 -0.564631 14.204810 1.197014 1.610556 0.005332 -0.004303 1812820.000000 1 0 0
-6.279835 -13.866458 -7.246331 16.858953 1.145550 2.015091 0.018757 -0.009513 157284.000000 1 0 0
5.641265 -15.390658 0.326769 16.395212 -1.219465 1.550864 0.008881 -0.001325 -124781.000000 1 0 0
-14.599635 -12.898758 0.984269 19.506309 0.723623 1.520316 0.009643 -0.000023 1001620.000000 1 0 0
0.915165 -15.275258 11.002669 18.847539 -1.510956 0.947429 0.018687 -0.005410 -72753.700000 1 0 0
-9.335035 -10.712058 1.911469 14.336833 0.853980 1.437072 0.008174 -0.001158 213584.000000 1 0 0
-9.340435 -8.660158 -3.624131 13.242975 0.747624 1.847997 0.019319 -0.007802 -869989.000000 1 0 0
-12.130735 -7.355558 -12.467331 18.886326 0.545081 2.291781 0.015034 -0.000954 -1124180.000000 1 0 0
-13.215335 -8.510158 -0.716931 15.734734 0.572118 1.616376 0.006474 -0.002111 -1020240.000000 1 0 0
-11.246135 -9.689358 0.382269 14.849422 0.711174 1.545050 0.010810 -0.001868 167094.000000 1 0 0
-15.936935 -12.199358 3.138669 20.314071 0.653333 1.415668 0.027339 -0.000400 397962.000000 1 0 0
-10.606535 -12.499958 -2.267131 16.549544 0.867159 1.708219 0.023980 -0.008198 800157.000000 1 0 0
-3.423835 -8.963758 -11.990831 15.357462 1.205934 2.466713 0.008987 -0.003037 -731977.000000 1 0 0
-0.409335 -15.513758 3.920069 16.006598 1.544417 1.323376 0.011021 -0.003699 -763954.000000 1 0 0
-15.670235 -7.809158 1.266569 17.554014 0.462321 1.498581 -0.005259 -0.003252 613700.000000 1 0 0
-6.186635 -13.511258 -13.408631 20.015492 1.141403 2.304887 0.033886 0.001794 -66013.600000 1 0 0
-15.368335 -10.405758 1.186669 18.597680 0.595185 1.506946 0.001808 -0.002036 346361.000000 1 0 0
-9.876935 -8.556058 -12.343931 17.975889 0.713862 2.327727 0.011767 -0.009964 205927.000000 1 0 0
-13.268935 -11.524258 -6.200731 18.636583 0.715145 1.909981 0.017110 -0.008807 -626152.000000 1 0 0
-12.312335 -11.210258 -3.741531 17.066415 0.738581 1.791825 0.013257 -0.006334 279043.000000 1 0 0
-12.013235 -10.973558 -9.131131 18.657822 0.740200 2.082197 0.023604 -0.009226 421247.000000 1 0 0
-13.266935 -8.350358 -5.814031 16.719539 0.561765 1.925955 0.008475 -0.008334 -1269630.000000 1 0 0
-13.560735 -8.121458 -3.255631 16.138486 0.539607 1.773921 0.009519 -0.006461 228000.000000 1 0 0
-4.278435 -16.853858 -3.291731 17.697260 1.322193 1.757888 0.003855 -0.013403 422993.000000 1 0 0
-15.508635 -8.839358 -1.803631 17.941714 0.518041 1.671494 0.002810 -0.001125 -2234420.000000 1 0 0
-9.279035 -15.404758 3.639669 18.348140 1.028652 1.371105 -0.006690 -0.004062 -1442310.000000 1 0 0
4.666565 -17.142558 8.116069 19.532401 -1.305016 1.142284 0.041603 -0.019242 38263.600000 1 0 0
-8.285935 -15.495858 6.076469 18.593058 1.079761 1.237866 -0.011952 0.005626 -133513.000000 1 0 0
0.849165 -15.919258 8.442069 18.039190 -1.517505 1.083787 0.018735 -0.004504 169486.000000 1 0 0
-11.017535 -7.901258 -10.197931 16.965074 0.622145 2.215690 0.013530 -0.004821 769632.000000 1 0 0
-4.863435 -15.964758 5.661969 17.623404 1.275092 1.243720 -0.007818 -0.001911 -792499.000000 1 0 0
-1.281735 -13.225058 -11.997931 17.902384 1.474181 2.305256 0.007052 -0.003340 1364780.000000 1 0 0
-6.482835 -14.433358 -2.546131 16.025971 1.148644 1.730348 0.014362 -0.006178 318448.000000 1 0 0
-17.663535 -6.802858 -7.190131 20.247897 0.367627 1.933823 0.014771 -0.013131 467579.000000 1 0 0
-17.136535 -3.924758 -10.282831 20.366668 0.225146 2.100045 0.007041 -0.011656 906770.000000 1 0 0
-15.241335 -5.262458 -8.940131 18.436857 0.332460 2.077051 0.000824 -0.012503 -395829.000000 1 0 0
-16.122235 -5.273358 -5.677031 17.887522 0.316117 1.893755 0.005933 -0.006605 344063.000000 1 0 0
-15.187935 -4.518158 -12.442531 20.147052 0.289146 2.236466 0.014525 -0.007607 10904.400000 1 0 0
-18.761135 -5.088858 -5.591731 20.227311 0.264872 1.850889 0.025385 -0.010773 274670.000000 1 0 0
-17.378635 -4.300158 -7.759931 19.512172 0.242567 1.979802 0.005008 -0.010014 626529.000000 1 0 0
12.197565 -7.893058 8.757569 16.963961 -0.574335 1.028335 0.013236 -0.005157 344621.000000 1 0 0
16.091865 -3.431158 1.770169 16.548549 -0.210077 1.463623 0.023656 -0.006297 713512.000000 1 0 0
11.925265 -2.072158 12.705669 17.548214 -0.172044 0.761150 -0.004962 0.003659 32249.800000 1 0 0
9.641365 -9.959658 5.238069 14.818504 -0.801635 1.209506 0.004415 -0.008955 -83076.500000 1 0 0
16.971465 -2.010758 7.182569 18.538152 -0.117929 1.172935 0.041602 -0.010842 24022.700000 1 0 0
5.173965 -12.814058 9.168869 16.584274 -1.187042 0.984997 0.012124 -0.003781 14281.600000 1 0 0
15.093365 -9.241358 -2.071331 17.818607 -0.549400 1.687305 0.028046 -0.006650 529632.000000 1 0 0
11.101565 -8.591958 6.485169 15.463631 -0.658648 1.138032 0.008909 -0.007022 -3643030.000000 1 0 0
19.986365 -3.398258 3.628769 20.595410 -0.168418 1.393679 0.039228 -0.012065 673337.000000 1 0 0
13.489665 -8.655458 6.734869 17.385237 -0.570473 1.172997 0.016008 -0.010790 -1096030.000000 1 0 0
8.340465 -11.015258 8.878769 16.423513 -0.922720 0.999630 0.009553 -0.004957 -1561140.000000 1 0 0
16.777965 0.161942 -0.554831 16.787917 0.009652 1.603852 0.016721 -0.000103 -866940.000000 1 0 0
12.430965 -12.420858 2.347169 17.728954 -0.784991 1.438015 0.025172 -0.012852 -2401650.000000 1 0 0
10.383065 -11.628358 3.700269 16.022444 -0.841913 1.337750 0.014213 -0.009319 228296.000000 1 0 0
16.464465 3.003842 2.335769 16.898446 0.180459 1.432128 0.016701 0.002862 -1078910.000000 1 0 0
18.364865 -3.379758 0.487469 18.679632 -0.181997 1.544697 0.026995 -0.007450 1239190.000000 1 0 0
13.349565 -11.750758 -0.150031 17.785210 -0.721787 1.579232 0.029708 -0.003319 -774519.000000 1 0 0
16.970765 -7.813858 -0.792031 18.700015 -0.431494 1.613164 0.039333 -0.008615 -66344.500000 1 0 0
10.252965 -5.647158 9.786669 15.257541 -0.503444 0.874433 -0.002226 -0.000960 205538.000000 1 0 0
11.326365 -13.528958 6.026769 18.645138 -0.873784 1.241650 0.030257 -0.014376 357227.000000 1 0 0
13.039365 -1.791458 10.311869 16.720317 -0.136534 0.906218 0.006198 -0.000894 -1078000.000000 1 0 0
15.546665 -2.078958 -1.201231 15.730983 -0.132935 1.647232 0.007179 0.000315 -1223160.000000 1 0 0
10.407765 -12.442358 8.990269 18.546125 -0.874205 1.064717 0.031956 -0.013994 -145956.000000 1 0 0
14.698665 1.154042 3.215369 15.090433 0.078353 1.356077 0.019524 0.001344 1832340.000000 1 0 0
14.852565 -5.957258 5.249469 16.841750 -0.381448 1.253821 0.020230 -0.007393 -366688.000000 1 0 0
14.450065 -3.461958 -2.936831 15.146435 -0.235149 1.765928 0.012778 0.000383 603083.000000 1 0 0
14.040765 0.564142 9.671469 17.058682 0.040157 0.967994 0.018894 0.000279 49633.100000 1 0 0
15.506465 -3.632358 4.411969 16.526038 -0.230099 1.300548 0.025980 -0.007290 -1113180.000000 1 0 0
18.464265 4.855442 -4.441131 19.601736 0.257143 1.799349 -0.002787 0.004965 595582.000000 1 0 0
18.166065 -5.942758 -5.035031 19.765470 -0.316162 1.828374 0.054532 -0.008934 693035.000000 1 0 0
17.376865 0.077042 5.924269 18.359148 0.004434 1.242229 0.042615 -0.002632 1122310.000000 1 0 0
17.026065 -6.653458 4.029369 18.718739 -0.372534 1.353840 0.029775 -0.011625 -246407.000000 1 0 0
9.709165 -6.641458 14.390769 18.586852 -0.599934 0.685276 -0.000522 0.003887 -757841.000000 1 0 0
8.483065 -12.241258 5.221969 15.782260 -0.964791 1.233565 0.009173 -0.009854 -1348300.000000 1 0 0
16.736665 -10.420958 -0.484631 19.721744 -0.556902 1.595372 0.039062 -0.005495 -26308.700000 1 0 0
14.897465 -8.891658 0.453269 17.355157 -0.538105 1.544676 0.033207 -0.010076 2136.330000 1 0 0
9.942265 -12.953858 1.561469 16.403940 -0.916180 1.475463 0.021145 -0.011777 144944.000000 1 0 0
16.681365 -8.385058 8.812269 20.645416 -0.465773 1.129802 0.023616 -0.010884 349903.000000 1 0 0
19.025765 -0.073658 -1.746031 19.105857 -0.003871 1.662311 0.019580 -0.001419 -921086.000000 1 0 0
13.452165 -1.121158 7.753469 15.567081 -0.083152 1.049427 0.010315 -0.002619 52237.600000 1 0 0
12.823665 -9.957358 -3.025131 16.515047 -0.660236 1.755011 0.021563 -0.004134 -2604640.000000 1 0 0
8.699965 -15.296658 1.474869 17.659342 -1.053672 1.487181 0.023116 -0.004531 1069730.000000 1 0 0
11.386565 -8.275358 11.183269 17.977789 -0.628464 0.899425 0.015404 -0.004226 496812.000000 1 0 0
13.905265 -4.031558 -0.520431 14.487260 -0.282193 1.606727 0.011830 -0.003146 -332094.000000 1 0 0
7.239065 -13.235158 10.794769 18.549946 -1.070292 0.949696 0.022315 -0.002401 -117409.000000 1 0 0
15.373365 -6.890858 1.965369 16.961337 -0.421384 1.454662 0.017849 -0.008395 835118.000000 1 0 0
15.915265 -6.309658 -2.516131 17.304287 -0.377445 1.716719 0.037159 -0.006929 383710.000000 1 0 0
11.149065 -8.541958 3.843269 14.561504 -0.653763 1.303698 0.008157 -0.008750 374955.000000 1 0 0
10.538065 -14.603858 -0.444831 18.014476 -0.945724 1.595492 0.032524 -0.004401 698937.000000 1 0 0
13.418765 -13.004658 4.601369 19.244661 -0.769727 1.329359 0.025475 -0.012294 255868.000000 1 0 0
12.752065 -11.259158 6.487369 18.206311 -0.723303 1.206464 0.022063 -0.013970 559288.000000 1 0 0
10.929865 -10.542158 1.435869 15.253221 -0.767344 1.476521 0.011032 -0.005283 609546.000000 1 0 0
13.834765 -7.551758 11.953069 19.781446 -0.499654 0.921964 0.014042 -0.006412 -528927.000000 1 0 0
15.407965 -1.903858 -4.826431 16.258059 -0.122940 1.872203 0.019793 0.004538 -383757.000000 1 0 0
12.747665 -11.556558 -7.217831 18.658887 -0.736429 1.967989 0.030770 -0.007545 -157157.000000 1 0 0
17.682365 -5.487658 1.872969 18.608827 -0.300922 1.469976 0.030853 -0.007611 422060.000000 1 0 0
10.684965 -9.896058 9.162369 17.206087 -0.747085 1.009236 0.012304 -0.004819 -1322310.000000 1 0 0
16.418265 1.693442 10.083969 19.342016 0.102780 1.022364 0.042084 0.002795 1734690.000000 1 0 0
18.153865 4.030642 0.449769 18.601376 0.218483 1.546615 0.007325 0.006809 821320.000000 1 0 0
13.307065 -4.047258 5.803869 15.071270 -0.295254 1.175486 0.012280 -0.007498 -1053810.000000 1 0 0
12.150265 -6.237058 6.613869 15.174752 -0.474252 1.119817 0.008446 -0.007199 -421807.000000 1 0 0
16.508465 -10.367558 3.542769 19.813300 -0.560764 1.391022 0.023563 -0.010276 -1817720.000000 1 0 0
16.222565 -8.288658 -5.715131 19.092831 -0.472356 1.874791 0.045620 -0.004171 -532898.000000 1 0 0
14.003165 -0.341858 5.338369 14.990119 -0.024408 1.206678 0.013554 0.000225 292515.000000 1 0 0
18.318265 -4.276458 5.379769 19.564990 -0.229346 1.292239 0.042252 -0.006741 88083.700000 1 0 0
13.653465 -13.688958 7.054369 20.580787 -0.786696 1.220938 0.037316 -0.013300 -272529.000000 1 0 0
14.813865 -13.780358 -0.606131 20.241449 -0.749270 1.600746 0.027483 -0.001905 207747.000000 1 0 0
17.789765 -6.122458 8.118569 20.490763 -0.331459 1.163415 0.043695 -0.002767 50774.800000 1 0 0
14.337465 3.251442 9.384169 17.441256 0.223008 1.002681 0.022548 0.003870 593500.000000 1 0 0
18.926865 3.641242 2.871769 19.486711 0.190063 1.422887 0.034677 0.000107 450647.000000 1 0 0
14.623265 -10.533858 8.151669 19.780084 -0.624253 1.146022 0.014101 -0.015185 -718405.000000 1 0 0
14.705265 -4.962758 10.377269 18.669802 -0.325479 0.981433 0.024056 -0.009255 211016.000000 1 0 0
17.782265 -7.982758 1.991069 19.593308 -0.421953 1.469001 0.045514 -0.015921 -188352.000000 1 0 0
18.517365 -6.105258 -1.843231 19.584802 -0.318481 1.665051 0.040842 -0.007035 1017160.000000 1 0 0
14.274665 -13.028358 -5.549831 20.107332 -0.739783 1.850437 0.047207 -0.008486 722018.000000 1 0 0
15.451465 -1.587858 9.340769 18.125094 -0.102405 1.029380 0.036917 -0.009472 268790.000000 1 0 0
13.052465 -9.980658 10.231669 19.356327 -0.652816 1.013851 0.013833 -0.011815 -1859880.000000 1 0 0
16.640465 2.128242 4.789569 17.446331 0.127205 1.292694 0.025351 -0.000727 -404457.000000 1 0 0
14.970065 2.435342 -0.128531 15.167408 0.161268 1.579271 0.002982 0.003305 -1011590.000000 1 0 0
15.015665 -10.120458 -7.003231 19.414920 -0.593058 1.939830 0.045064 -0.009154 634509.000000 1 0 0
16.360765 -0.215458 -3.075831 16.648777 -0.013168 1.756612 0.016025 0.005906 -53650.700000 1 0 0
11.894465 2.424642 13.679869 18.289232 0.201091 0.725792 0.015692 0.006323 -293113.000000 1 0 0
17.576865 -3.199658 9.495969 20.232583 -0.180066 1.082253 0.039859 -0.015323 -172265.000000 1 0 0
7.724865 -18.019158 4.660269 20.151468 -1.165793 1.337422 0.045773 -0.017423 -189485.000000 1 0 0
6.807965 -11.084058 6.655469 14.611639 -1.019992 1.097873 0.005557 -0.007277 235730.000000 1 0 0
17.957165 2.258342 -1.488031 18.159684 0.125106 1.652830 0.006983 0.003640 296552.000000 1 0 0
17.540365 -2.440258 3.650069 18.081545 -0.138235 1.367532 0.025530 -0.006256 -2434480.000000 1 0 0
12.528565 -13.524758 -1.905331 18.534139 -0.823616 1.673779 0.033609 -0.002099 -59403.500000 1 0 0
15.042265 -8.358058 4.360769 17.752272 -0.507162 1.322611 0.023700 -0.009458 -379308.000000 1 0 0
11.360265 -2.948658 14.923869 18.986102 -0.253955 0.666417 -0.010159 0.001081 286408.000000 1 0 0
12.001665 -13.895258 -6.353931 19.429117 -0.858389 1.903957 0.029492 -0.008879 -406369.000000 1 0 0
10.560565 -12.097958 -1.183531 16.102387 -0.853145 1.644363 0.023798 -0.005108 -922762.000000 1 0 0
13.162365 -8.144958 2.130469 15.624567 -0.554133 1.434016 0.011622 -0.003295 816444.000000 1 0 0
8.741265 -7.875758 9.979069 15.427867 -0.733360 0.867388 0.004971 -0.000695 -1284450.000000 1 0 0
15.615965 -3.924558 8.109969 18.028647 -0.246218 1.104212 0.033523 -0.012814 -422431.000000 1 0 0
10.201865 -17.074458 5.301169 20.584400 -1.032222 1.310328 0.058434 -0.026516 1080440.000000 1 0 0
15.174965 -6.455458 8.261769 18.444764 -0.402211 1.106359 0.026807 -0.004423 -411944.000000 1 0 0
16.567565 -5.121958 -0.335931 17.344495 -0.299835 1.590166 0.017188 -0.004913 -244202.000000 1 0 0
13.969665 -10.597458 3.478569 17.876188 -0.648986 1.374955 0.023511 -0.012040 -217028.000000 1 0 0
14.935865 -10.133158 -4.398631 18.577107 -0.596112 1.809843 0.043388 -0.014600 46367.600000 1 0 0
13.559365 -6.630958 0.008369 15.093908 -0.454834 1.570242 0.016031 -0.005890 125287.000000 1 0 0
17.794965 -0.983058 -5.021231 18.515938 -0.055187 1.845420 0.015292 0.004722 -639461.000000 1 0 0
14.405465 0.248442 -1.623831 14.498827 0.017245 1.683029 0.009449 0.002116 -1434640.000000 1 0 0
4.897665 -12.618758 11.737369 17.916082 -1.200568 0.856441 0.006938 -0.005694 -1099370.000000 1 0 0
11.872665 -7.696758 13.627369 19.644476 -0.575162 0.804183 0.003662 -0.000745 126545.000000 1 0 0
12.007365 -5.807858 11.664469 17.719138 -0.450516 0.852241 0.001718 0.000777 117562.000000 1 0 0
13.204865 -4.644258 8.384669 16.316870 -0.338196 1.031112 0.013427 -0.007204 -1871500.000000 1 0 0
15.407165 -1.247758 3.207969 15.786979 -0.080809 1.366168 0.024432 -0.001233 406584.000000 1 0 0
15.134965 -10.532958 5.754169 19.316336 -0.607993 1.268313 0.022394 -0.013148 107616.000000 1 0 0
13.708365 -8.175358 -5.771531 16.972516 -0.537751 1.917768 0.032631 -0.006687 -1867950.000000 1 0 0
9.393565 -1.921258 13.574069 16.618834 -0.201747 0.614974 -0.013874 -0.000514 242092.000000 1 0 0
9.747965 -9.238858 13.812269 19.265463 -0.758591 0.771387 0.013317 0.002634 -515949.000000 1 0 0
20.310065 6.293142 -3.316531 21.519799 0.300472 1.725528 0.034135 0.008806 216553.000000 1 0 0
11.209965 -3.575458 10.693969 15.899943 -0.308753 0.833108 -0.001574 0.003376 700104.000000 1 0 0
10.174665 -14.004758 -2.968031 17.563207 -0.942496 1.740603 0.022636 -0.002571 489362.000000 1 0 0
14.931965 -12.828058 2.412669 19.832892 -0.709754 1.448844 0.032113 -0.009209 368683.000000 1 0 0
11.267365 -0.408058 14.725469 18.546144 -0.036200 0.653451 0.007663 0.006854 143939.000000 1 0 0
19.121365 -1.876058 5.598569 20.012250 -0.097800 1.287255 0.049375 -0.007947 988192.000000 1 0 0
19.001865 -0.533758 7.902269 20.586443 -0.028082 1.176826 0.059335 -0.007063 465926.000000 1 0 0
19.013465 0.928742 0.678469 19.048221 0.048808 1.535170 0.027525 -0.003664 199651.000000 1 0 0
18.657765 0.692842 3.661769 19.026318 0.037117 1.377130 0.038801 -0.005673 929913.000000 1 0 0
16.703865 -3.971358 -4.041031 17.638614 -0.233417 1.801951 0.025111 -0.001929 -1756260.000000 1 0 0
10.937565 -8.320658 15.963569 21.064169 -0.650340 0.710778 0.016547 0.003727 549867.000000 1 0 0
16.592865 -7.613458 6.352169 19.329717 -0.430180 1.235952 0.028398 -0.009455 719087.000000 1 0 0
19.025665 2.117442 5.799369 20.002304 0.110838 1.276637 0.045014 -0.003052 501733.000000 1 0 0
15.474165 1.661842 7.718969 17.372219 0.106985 1.110372 0.036421 0.000635 265454.000000 1 0 0
8.605565 -15.631458 3.916369 18.268447 -1.067547 1.354740 0.028630 -0.019093 598172.000000 1 0 0
11.246065 -15.150958 1.983569 18.972613 -0.932262 1.466056 0.033750 -0.009915 445867.000000 1 0 0
7.892065 -15.918658 6.187069 18.814042 -1.110535 1.235707 0.036651 -0.020177 -25525.100000 1 0 0
14.483165 -11.840158 -2.449131 18.866628 -0.685328 1.700977 0.034000 -0.006029 557170.000000 1 0 0
13.669565 -4.912058 3.248869 14.884235 -0.344974 1.350749 0.009584 -0.003398 -1680420.000000 1 0 0
-1.063835 10.163842 -5.686431 11.694911 -1.466507 2.078568 0.002671 -0.001805 -1754440.000000 1 0 0
8.301965 -1.724658 -8.018231 11.670008 -0.204828 2.328259 0.002683 -0.004154 -4150120.000000 1 0 0
3.006465 -10.188758 7.693869 13.116601 -1.283862 0.943973 0.002723 -0.003573 601907.000000 1 0 0
-6.316835 1.337642 8.343269 10.549968 -0.208676 0.658627 0.002280 0.000022 3023.000000 1 0 0
7.247465 -6.252158 -7.085831 11.908998 -0.711803 2.208060 0.001402 -0.005402 -188026.000000 1 0 0
-11.346235 -4.490058 -4.093531 12.870690 0.376821 1.894469 0.007128 -0.006786 300227.000000 1 0 0
2.102865 -3.262658 2.734369 4.748026 -0.998279 0.957097 0.007248 -0.001779 2219050.000000 1 0 0
-3.572335 -4.291558 8.915969 10.520149 0.876603 0.559513 0.003984 0.000703 -1502760.000000 1 0 0
-4.862335 -1.029058 -2.406031 5.521797 0.208561 2.021649 0.001041 -0.003389 -406648.000000 1 0 0
5.091465 -5.222658 -3.424231 8.057576 -0.798117 2.009726 0.003868 -0.006193 -102165.000000 1 0 0
2.736265 14.164942 -8.937831 16.971080 1.379975 2.125452 0.001897 -0.003898 40582.700000 1 0 0
5.410465 -5.432658 13.771369 15.761900 -0.787445 0.508014 -0.002949 -0.002152 -1191910.000000 1 0 0
-4.698435 -0.880158 9.838169 10.937986 0.185184 0.452287 0.004948 0.002960 -1699240.000000 1 0 0
-0.969335 11.982842 -2.706431 12.322861 -1.490079 1.792228 0.001071 -0.004526 -693823.000000 1 0 0
3.085265 9.397442 -10.672831 14.551292 1.253574 2.394199 0.003835 -0.004594 -928580.000000 1 0 0
-10.555735 2.769242 1.171669 10.975657 -0.256563 1.463841 -0.002309 0.000095 48602.200000 1 0 0
5.593365 -8.970158 -0.668131 10.592255 -1.013239 1.633916 -0.004172 -0.004132 524967.000000 1 0 0
-7.008235 5.443042 9.393369 12.921975 -0.660349 0.756956 -0.001981 0.000663 -330673.000000 1 0 0
-5.480435 -1.843258 5.113269 7.718697 0.324449 0.846709 0.003148 -0.001788 663788.000000 1 0 0
6.712065 -3.751458 -7.242631 10.563189 -0.509660 2.326290 0.002969 -0.004725 320749.000000 1 0 0
6.327065 4.889342 11.087069 13.669693 0.657913 0.624818 0.000716 -0.000727 -108960.000000 1 0 0
3.774465 -9.851958 3.320969 11.060583 -1.204927 1.265839 -0.003836 -0.002452 874472.000000 1 0 0
-6.609935 6.541442 -5.769531 10.943912 -0.780190 2.126088 -0.002763 -0.000935 482365.000000 1 0 0
-11.024935 8.344542 5.201969 14.772984 -0.647889 1.210953 -0.004065 -0.002902 73399.100000 1 0 0
-9.178035 -5.466858 5.218769 11.889424 0.537212 1.116375 0.002887 -0.001685 -1319630.000000 1 0 0
3.259565 9.730242 -8.114831 13.082541 1.247553 2.239895 0.002444 -0.004208 643656.000000 1 0 0
-8.161135 -8.594758 5.970669 13.271129 0.811271 1.104144 0.004586 -0.001838 -4029420.000000 1 0 0
-7.815535 -5.603958 -7.583931 12.247569 0.622063 2.238544 0.009383 -0.007371 106293.000000 1 0 0
9.266165 -1.558158 6.936869 11.679461 -0.166597 0.934852 0.003087 -0.001681 661205.000000 1 0 0
-4.133735 -0.436858 -4.848731 6.386611 0.105290 2.432883 0.006994 -0.007293 -1789340.000000 1 0 0
9.051565 1.140342 -4.504331 10.174488 0.125323 2.029413 0.006351 -0.000820 -1706620.000000 1 0 0
-1.879835 -10.654258 10.752769 15.253492 1.396154 0.788460 0.004452 -0.006232 -17226.500000 1 0 0
-13.049735 0.431142 -2.707431 13.334604 -0.033026 1.775256 0.000902 -0.004904 -858169.000000 1 0 0
-9.864735 -5.106758 -6.051431 12.649577 0.477690 2.069617 0.007412 -0.006082 -1676630.000000 1 0 0
-5.642435 8.301042 -0.258031 10.040466 -0.973807 1.596498 -0.000593 -0.000569 909583.000000 1 0 0
6.156265 9.603142 0.476169 11.416947 1.000726 1.529077 0.012827 -0.002183 744739.000000 1 0 0
-0.543435 -12.002658 -0.029131 12.014989 1.525551 1.573221 0.004087 -0.002516 -997338.000000 1 0 0
6.270865 4.810642 2.305069 8.232823 0.654382 1.287018 0.002322 0.000735 389983.000000 1 0 0
3.456965 -7.499658 -8.195831 11.634738 -1.138874 2.352413 -0.003297 -0.004033 155342.000000 1 0 0
-6.551435 -9.801558 4.588169 12.650815 0.981589 1.199657 0.005056 -0.000924 -2499670.000000 1 0 0
-0.110535 6.474442 -9.195031 11.246298 -1.553725 2.528036 0.007002 -0.002439 -1260510.000000 1 0 0
-17.254435 -2.861558 4.316669 18.014929 0.164349 1.328826 0.032533 -0.013206 398519.000000 1 0 0
-8.326235 0.971142 -9.368731 12.571493 -0.116112 2.411685 0.003893 -0.006398 374068.000000 1 0 0
-10.104735 -5.970858 -11.901731 16.715502 0.533699 2.363164 0.011652 -0.001497 -670276.000000 1 0 0
2.187265 9.453442 6.404569 11.626272 1.343425 0.987390 0.002311 0.001013 228138.000000 1 0 0
-11.366435 1.638842 -1.145731 11.540986 -0.143196 1.670235 0.001326 -0.001579 -971375.000000 1 0 0
-5.901835 -5.302958 -3.189031 8.551195 0.732001 1.952965 0.009734 -0.004518 654319.000000 1 0 0
-6.941435 -8.332758 1.270769 10.919397 0.876237 1.454155 0.007451 -0.002487 -43084.500000 1 0 0
0.044165 10.981742 -7.929531 13.545408 1.566775 2.196174 0.002032 -0.001433 892212.000000 1 0 0
-2.957335 9.286942 -4.304031 10.654474 -1.262509 1.986643 0.002459 -0.002977 196524.000000 1 0 0
3.489765 -4.761958 9.319769 11.032352 -0.938367 0.564666 -0.000124 -0.000392 -716562.000000 1 0 0
-8.948035 1.623042 -0.397531 9.102726 -0.179434 1.614482 -0.000031 -0.001164 -2352360.000000 1 0 0
2.536665 3.615842 -10.296831 11.204183 0.959036 2.736375 0.007185 -0.003033 -16729.400000 1 0 0
-13.658235 0.462842 1.163169 13.715486 -0.033874 1.485887 0.002712 -0.003075 257129.000000 1 0 0
9.412165 -12.618958 -5.069931 16.538777 -0.929940 1.882361 0.016280 -0.003131 -2360300.000000 1 0 0
-4.726935 9.408842 -8.341031 13.432909 -1.105236 2.240738 -0.002023 -0.000160 -863598.000000 1 0 0
-2.346235 7.203742 8.383169 11.299391 -1.255934 0.734877 0.004709 0.001365 -1555400.000000 1 0 0
-10.772935 -1.247258 -4.333231 11.678556 0.115264 1.950927 0.004510 -0.003889 -1698340.000000 1 0 0
2.751465 -7.167158 9.621969 12.309386 -1.204247 0.673446 -0.001650 -0.000017 -1049800.000000 1 0 0
-16.141435 -6.489558 3.401169 17.726484 0.382267 1.377730 0.019965 -0.010030 62930.800000 1 0 0
-10.825635 -0.071758 6.187269 12.469235 0.006628 1.051577 0.000878 -0.002652 -674240.000000 1 0 0
-8.539935 9.901242 9.290769 16.040059 -0.859083 0.953021 0.002792 -0.006496 -275389.000000 1 0 0
0.171265 -6.017858 -3.740331 7.087596 -1.542345 2.126721 -0.000027 -0.002155 822609.000000 1 0 0
4.878865 1.596142 -3.067831 5.980182 0.316179 2.109472 0.001534 -0.000559 -417910.000000 1 0 0
0.341565 5.422142 3.803669 6.632058 1.507885 0.959991 0.001345 0.001183 -3230070.000000 1 0 0
6.026265 -11.226658 -1.439331 12.822846 -1.078158 1.683281 -0.004525 -0.002672 -2771360.000000 1 0 0
6.154065 -13.380858 5.335369 15.664802 -1.139727 1.223246 0.006321 -0.010026 40518.000000 1 0 0
8.003665 -8.265058 -5.887831 12.924256 -0.801464 2.043802 0.000021 -0.003945 689290.000000 1 0 0
-13.189235 -1.344858 -4.652031 14.050123 0.101615 1.908268 0.001068 -0.001511 -2928670.000000 1 0 0
-6.710235 -1.379658 -7.031031 9.816624 0.202779 2.369192 0.010694 -0.006932 -1444950.000000 1 0 0
-5.781635 12.786542 -4.668631 14.789154 -1.146143 1.891969 0.004714 -0.001049 266675.000000 1 0 0
-4.310635 6.841242 -6.799231 10.564739 -1.008541 2.269960 0.002210 -0.000802 -3343420.000000 1 0 0
-9.428835 -3.586158 -8.049631 12.905813 0.363444 2.244291 0.006186 -0.004078 585970.000000 1 0 0
-2.169035 -6.440558 9.125469 11.378035 1.245949 0.640118 0.005634 -0.000002 66542.200000 1 0 0
7.561565 -5.939458 10.067569 13.921579 -0.665824 0.762426 -0.003303 0.000237 768494.000000 1 0 0
9.645565 -4.971958 12.342269 16.434381 -0.475943 0.721217 -0.002360 0.007111 -821302.000000 1 0 0
-6.464135 2.784642 -9.060231 11.472884 -0.406759 2.481130 0.001096 -0.005202 -550403.000000 1 0 0
7.528265 5.542142 8.935869 12.932125 0.634596 0.807949 0.001504 -0.000142 -408864.000000 1 0 0
12.779165 3.262342 11.287969 17.359959 0.249948 0.862909 0.021412 0.003510 -1165950.000000 1 0 0
-7.365135 -7.260658 -3.922831 11.061237 0.778255 1.933332 0.015854 -0.007579 -2487600.000000 1 0 0
2.265565 1.398342 -5.810831 6.391706 0.552982 2.711964 0.006598 -0.001581 -529649.000000 1 0 0
12.755265 6.846942 -7.055431 16.104549 0.492647 2.024282 0.004543 -0.003709 -559989.000000 1 0 0
0.762765 -7.792558 1.074869 7.903234 -1.473223 1.434370 0.001721 -0.003530 1320220.000000 1 0 0
-10.180435 -6.083058 -8.532231 14.609716 0.538597 2.194457 0.006627 -0.004837 757.395000 1 0 0
-6.711435 0.311942 3.168569 7.428358 -0.046446 1.130121 0.000808 -0.001736 128028.000000 1 0 0
10.679465 -7.909058 1.351569 13.357803 -0.637449 1.469441 0.005044 -0.003905 143431.000000 1 0 0
6.273765 1.100342 10.514469 12.293288 0.173622 0.544664 -0.001457 0.002110 -594906.000000 1 0 0
-12.885635 5.209442 1.957169 14.035968 -0.384193 1.430901 0.002110 0.000733 249784.000000 1 0 0
2.033465 7.428042 3.576769 8.491412 1.303588 1.136004 -0.000548 0.000325 39729.000000 1 0 0
10.037265 -9.473758 -0.793731 13.824933 -0.756525 1.628241 0.005995 -0.002205 891281.000000 1 0 0
6.709165 -11.751958 -8.925831 16.210856 -1.052051 2.153889 -0.003006 -0.002906 -918463.000000 1 0 0
10.301965 3.513942 11.995469 16.197825 0.328719 0.736892 0.006627 0.002986 -1309960.000000 1 0 0
-11.000535 -3.080558 -1.958031 11.590319 0.273043 1.740547 0.001874 -0.002927 -533313.000000 1 0 0
12.407065 1.054642 6.908369 14.239842 0.084800 1.064269 0.009485 0.001741 -783989.000000 1 0 0
-9.542635 9.148342 3.054069 13.567660 -0.764306 1.343752 -0.002534 -0.002388 685240.000000 1 0 0
-6.593835 7.613942 -8.898031 13.439708 -0.857074 2.294374 -0.003478 -0.001604 -986300.000000 1 0 0
8.584865 5.531442 12.171169 15.888175 0.572375 0.698120 0.007681 0.003684 -2446100.000000 1 0 0
1.312965 4.964442 -2.680731 5.792744 1.312242 2.051918 0.002149 -0.002996 151451.000000 1 0 0
1.433465 0.513242 9.475169 9.596722 0.343822 0.159329 0.004422 -0.000009 667427.000000 1 0 0
2.579565 12.619742 -4.001631 13.487962 1.369167 1.872012 0.002361 -0.002366 359656.000000 1 0 0
2.212965 0.697342 12.920669 13.127345 0.305267 0.177682 0.001779 -0.002653 -344426.000000 1 0 0
-12.194835 -1.827358 0.842969 12.359767 0.148740 1.502541 -0.002637 -0.002807 20762.600000 1 0 0
3.336965 8.728342 -1.339031 9.439931 1.205629 1.713124 0.006032 -0.004349 -195034.000000 1 0 0
3.686165 -2.830058 -5.836331 7.460549 -0.654765 2.469134 0.001888 -0.002702 -499136.000000 1 0 0
-7.692535 -7.200958 9.344569 14.083673 0.752404 0.845304 0.003680 -0.002705 -321821.000000 1 0 0
-7.098835 10.862442 -3.600931 13.466730 -0.991950 1.841485 0.001869 0.000796 -165956.000000 1 0 0
0.421565 0.645342 2.588869 2.701190 0.992145 0.289390 0.001059 0.000584 -2028530.000000 1 0 0
-7.035135 4.591242 -1.950531 8.624222 -0.578212 1.798939 0.001172 -0.003026 -584869.000000 1 0 0
-6.865735 -3.792958 -5.966431 9.855108 0.504720 2.221084 0.006623 -0.004497 401539.000000 1 0 0
2.980765 -6.076958 13.475969 15.080322 -1.114775 0.465465 -0.005802 -0.001353 -1482520.000000 1 0 0
-5.546235 -0.674858 -11.816931 13.071190 0.121083 2.699934 0.010449 -0.009566 -854363.000000 1 0 0
11.855265 2.469242 -0.659031 12.127604 0.205347 1.625165 0.005401 0.000628 -1051170.000000 1 0 0
6.175465 -10.857558 10.711669 16.454871 -1.053656 0.861931 0.004966 -0.005080 -94355.300000 1 0 0
-8.170035 6.384642 -10.541331 14.786237 -0.663340 2.364443 -0.005530 -0.001316 239230.000000 1 0 0
2.897765 8.013142 11.237369 14.102693 1.223802 0.648775 0.008243 -0.002092 1127050.000000 1 0 0
-6.259135 -10.215958 -0.421631 11.988342 1.021104 1.605974 0.009986 -0.004179 -1121640.000000 1 0 0
11.402765 4.328842 6.127169 13.649327 0.362824 1.105264 0.009958 0.003236 1134580.000000 1 0 0
-7.766435 10.608942 1.511169 13.234455 -0.938873 1.456362 0.002446 -0.001218 469728.000000 1 0 0
4.241965 -2.696658 -3.507831 6.129528 -0.566264 2.180085 0.002942 -0.004315 -4099080.000000 1 0 0
6.435465 6.430442 6.334969 11.085920 0.785008 0.962533 0.003097 -0.000718 -6109720.000000 1 0 0
-0.369935 10.301842 -10.245531 14.533951 -1.534902 2.353132 0.000468 -0.001340 -9481.140000 1 0 0
14.201765 6.520642 -2.556031 15.834841 0.430431 1.732924 0.014937 0.002117 633613.000000 1 0 0
1.459765 9.462342 -6.325031 11.474879 1.417732 2.154606 0.004336 -0.004306 127976.000000 1 0 0
0.622865 7.410842 7.218569 10.364183 1.486946 0.800299 0.001851 0.001882 -217019.000000 1 0 0
12.332865 6.266742 1.854969 13.957526 0.470133 1.437501 0.010235 0.001932 -1381850.000000 1 0 0
-6.774635 6.672842 -3.107331 10.003900 -0.777829 1.886633 -0.002287 -0.001444 38395.900000 1 0 0
0.974065 9.924742 11.029369 14.869307 1.472965 0.735114 0.006108 -0.002216 -839633.000000 1 0 0
-3.591635 13.546742 -10.908831 17.759974 -1.311630 2.232215 0.006562 -0.004337 -616674.000000 1 0 0
-9.993235 -5.468758 -2.268431 11.615414 0.500726 1.767354 0.008418 -0.005139 53706.700000 1 0 0
-3.980035 3.862142 -12.523831 13.696831 -0.770366 2.724720 0.003946 -0.006805 -1008410.000000 1 0 0
-3.158035 8.492242 2.372969 9.366021 -1.214770 1.314645 0.001860 0.000831 -2341130.000000 1 0 0
7.084965 8.916842 7.040969 13.389625 0.899381 1.017079 0.013733 0.000034 731648.000000 1 0 0
-1.394735 -2.224558 -8.121631 8.535504 1.010780 2.828909 0.005279 -0.008470 -982691.000000 1 0 0
0.871665 -1.304158 4.774769 5.025838 -0.981613 0.317418 0.006461 0.000382 2335690.000000 1 0 0
2.681265 -8.755358 -6.071731 10.986873 -1.273622 2.156319 -0.005554 -0.003015 349448.000000 1 0 0
5.405565 4.085842 8.831069 11.131128 0.647240 0.654476 0.000038 -0.000547 -88463.600000 1 0 0
6.210265 -7.493958 -2.727031 10.107596 -0.878797 1.843982 0.000543 -0.005772 788882.000000 1 0 0
1.659665 2.213542 -8.255831 8.707066 0.927437 2.818242 0.007595 -0.003466 284264.000000 1 0 0
-5.478035 10.914342 -0.647331 12.229096 -1.105621 1.623755 -0.000205 0.000765 703780.000000 1 0 0
-5.463535 3.326242 -3.428831 7.257478 -0.546871 2.062870 0.001624 -0.001931 597272.000000 1 0 0
2.052465 13.754642 -6.350931 15.288464 1.422670 1.999186 -0.007706 -0.000797 202039.000000 1 0 0
-5.350035 -2.450158 2.617769 6.440408 0.429462 1.152220 -0.003755 -0.002016 701946.000000 1 0 0
10.233365 -3.429658 -1.777531 10.938187 -0.323380 1.734027 0.004170 -0.000199 328593.000000 1 0 0
2.381165 -3.300558 7.071869 8.159348 -0.945823 0.522208 0.002533 -0.000455 -1376210.000000 1 0 0
-2.878735 9.804142 -11.664231 15.506857 -1.285199 2.422188 0.003322 -0.000095 -2642280.000000 1 0 0
0.442565 -1.984958 9.301569 9.521297 -1.351425 0.215253 0.003742 -0.000134 409075.000000 1 0 0
9.504065 2.787342 4.960969 11.077353 0.285279 1.106439 0.004218 0.000386 260409.000000 1 0 0
13.487065 2.144742 -4.935231 14.520928 0.157702 1.917575 0.007749 0.000148 -1349520.000000 1 0 0
-6.544135 3.795442 7.578669 10.708282 -0.525566 0.784504 0.002085 -0.002042 753717.000000 1 0 0
10.737465 0.133942 1.801669 10.888393 0.012474 1.404565 0.007600 0.001141 1525370.000000 1 0 0
15.461465 6.628642 -4.792931 17.491941 0.405017 1.848354 0.020032 -0.000105 -434771.000000 1 0 0
8.029365 -4.874058 -9.204431 13.150996 -0.545572 2.346059 0.004256 -0.004616 1750250.000000 1 0 0
4.477965 5.628742 -2.202331 7.522312 0.898773 1.867922 0.002816 -0.001648 -227941.000000 1 0 0
-1.580835 -10.453758 1.462769 10.673321 1.420712 1.433315 0.003156 -0.003418 -635130.000000 1 0 0
-2.782535 12.150342 -12.899231 17.937767 -1.345670 2.373317 0.005499 -0.004581 -794571.000000 1 0 0
8.472865 4.186842 -9.634731 13.496190 0.458954 2.365827 0.003086 -0.000866 -2475050.000000 1 0 0
4.130165 7.577542 -9.043031 12.500153 1.071759 2.379559 0.005314 -0.004926 -2338350.000000 1 0 0
-1.773835 -5.003558 -2.408131 5.829337 1.230105 1.996658 0.003850 -0.003288 -312478.000000 1 0 0
-3.265535 -8.947558 7.070869 11.862533 1.220853 0.932202 0.005113 0.001014 -324687.000000 1 0 0
1.042265 7.374442 -1.450231 7.587614 1.430392 1.763111 0.003151 -0.003229 1818190.000000 1 0 0
0.357465 -0.748258 -2.184131 2.336258 -1.125123 2.778730 0.006203 -0.001750 -2796170.000000 1 0 0
4.158965 -6.588158 7.477169 10.798558 -1.007695 0.805955 0.000595 -0.000389 -658815.000000 1 0 0
-13.965635 3.919142 6.074469 15.725705 -0.273591 1.174205 0.002473 -0.000938 -338332.000000 1 0 0
4.287065 6.358842 12.503169 14.667755 0.977604 0.550189 0.004631 -0.000322 -607100.000000 1 0 0
8.300765 10.098042 -7.327831 14.985669 0.882774 2.081727 0.006815 -0.004698 485969.000000 1 0 0
12.544165 5.306842 9.693069 16.717483 0.400220 0.952293 0.025049 0.002015 609461.000000 1 0 0
7.517865 4.219042 0.281669 8.625425 0.511403 1.538135 0.005726 0.001784 -2212990.000000 1 0 0
-10.846535 -7.535458 -1.132531 13.255681 0.607183 1.656338 0.010630 -0.004052 -844914.000000 1 0 0
10.428565 6.839842 0.233969 12.473698 0.580495 1.552038 0.011128 0.002439 147414.000000 1 0 0
14.635365 3.604142 4.072869 15.613200 0.241458 1.306883 0.021578 0.000241 575861.000000 1 0 0
2.213965 5.634842 8.222869 10.211203 1.196420 0.634650 0.000790 0.001455 929167.000000 1 0 0
4.283065 0.009942 11.600769 12.366187 0.002321 0.353682 0.000271 0.001283 -3003760.000000 1 0 0
-1.528635 -1.533758 -0.529831 2.229318 0.787071 1.810758 0.005717 -0.004749 -1016840.000000 1 0 0
3.042165 -5.194658 -9.443531 11.199085 -1.041007 2.574081 -0.001520 -0.003294 959852.000000 1 0 0
-4.005035 -5.330058 -1.324031 6.797270 0.926396 1.766838 0.003413 -0.004233 -1782220.000000 1 0 0
-1.218335 -8.692458 8.681069 12.345206 1.431543 0.790917 0.006657 -0.002392 -462708.000000 1 0 0
3.999665 8.655742 -5.989031 11.260004 1.137940 2.131622 0.005590 -0.002490 581592.000000 1 0 0
-14.328335 -1.725958 -2.629131 14.669439 0.119880 1.750995 0.001341 -0.004739 -1035780.000000 1 0 0
8.788465 -10.571758 -6.609731 15.254105 -0.877250 2.018957 -0.001314 -0.003704 510346.000000 1 0 0
14.938165 6.036342 1.542169 16.185317 0.384026 1.475370 0.004910 0.005293 -490691.000000 1 0 0
-5.824035 0.358642 -8.643131 10.428409 -0.061502 2.547767 0.008384 -0.009929 -84890.500000 1 0 0
-8.096535 -4.652458 -12.999131 16.005519 0.521551 2.518651 0.006800 -0.006939 562698.000000 1 0 0
0.963865 -10.703858 12.037169 16.136760 -1.480990 0.728841 0.003172 -0.004743 -454438.000000 1 0 0
0.217165 11.738842 3.200569 12.169274 1.552299 1.304662 0.003356 -0.001111 118333.000000 1 0 0
5.037065 -13.198458 -3.707831 14.605455 -1.206217 1.827472 -0.003708 0.000684 1355670.000000 1 0 0
-7.506535 1.504442 -7.012731 10.382187 -0.197797 2.312382 0.002213 -0.003114 724421.000000 1 0 0
1.539265 2.851342 4.124569 5.245146 1.075788 0.665903 0.002107 0.002600 -516096.000000 1 0 0
17.385665 5.505542 2.280869 18.378648 0.306681 1.446371 0.014263 0.002388 -697761.000000 1 0 0
2.510965 -8.180558 -3.502031 9.246117 -1.272982 1.959249 -0.003857 -0.003163 529357.000000 1 0 0
-0.391635 -9.348258 -0.625531 9.377344 1.528927 1.637553 0.005116 -0.002853 -831003.000000 1 0 0
0.775265 11.841742 -5.709831 13.169285 1.505421 2.019249 0.002456 -0.002390 -1215650.000000 1 0 0
6.124165 -4.948058 7.788769 11.074908 -0.679574 0.790795 -0.001367 0.000714 -678208.000000 1 0 0
-6.059935 -1.961258 -9.451531 11.397403 0.313004 2.548598 0.011458 -0.009039 -534601.000000 1 0 0
2.071865 -1.259058 11.257769 11.515868 -0.546057 0.212116 0.001783 0.001072 39030.700000 1 0 0
17.983665 2.105642 -5.682331 18.977219 0.116556 1.874891 0.004292 0.005070 -1018650.000000 1 0 0
-9.017035 4.735442 7.848169 12.857880 -0.483577 0.914258 0.000927 -0.002762 -1423160.000000 1 0 0
11.615465 -7.028858 -4.791331 14.397247 -0.544182 1.910062 0.008090 -0.005134 377844.000000 1 0 0
10.867665 0.562142 8.903469 14.060366 0.051680 0.885075 0.002680 0.001830 -239658.000000 1 0 0
-8.473235 -7.421858 -1.523931 11.366708 0.719350 1.705271 0.010458 -0.005882 -1569900.000000 1 0 0
10.217965 -10.522258 -3.235631 15.019788 -0.800069 1.787923 0.013572 -0.003949 996756.000000 1 0 0
7.616065 -13.880858 -3.710131 16.261849 -1.068972 1.800973 0.007768 -0.001513 -1892730.000000 1 0 0
1.780265 -1.175658 -11.699231 11.892162 -0.583640 2.961218 0.008557 -0.006990 308128.000000 1 0 0
-11.755635 -2.610958 -6.323231 13.601298 0.218555 2.054317 0.005889 -0.002858 -420978.000000 1 0 0
2.727665 -12.024158 -6.274031 13.834160 -1.347723 2.041504 -0.005959 -0.003452 -772795.000000 1 0 0
-5.604035 1.542842 1.165469 5.928228 -0.268654 1.372911 0.003125 -0.002244 400712.000000 1 0 0
0.062665 6.857542 -3.956931 7.917520 1.561658 2.094128 0.004945 -0.004972 898805.000000 1 0 0
5.340165 -11.739558 3.668369 13.408635 -1.143886 1.293681 -0.005945 -0.005651 -3393420.000000 1 0 0
-4.349135 -9.217358 1.023969 10.243201 1.129928 1.470663 0.008509 -0.002100 783304.000000 1 0 0
7.241065 -6.156058 -4.597631 10.557854 -0.704586 2.021357 0.007529 -0.004929 787972.000000 1 0 0
-6.901735 -6.034458 2.153169 9.417259 0.718456 1.340115 0.003714 -0.001122 -184856.000000 1 0 0
-6.224535 -0.732658 7.080169 9.455708 0.117166 0.724589 0.003268 0.000781 -882077.000000 1 0 0
4.236265 -4.991058 3.223669 7.297166 -0.867016 1.113226 0.000872 -0.001320 48319.500000 1 0 0
-2.500035 10.602742 -8.886931 14.058658 -1.339235 2.255098 0.001789 0.000873 -18643.700000 1 0 0
-2.330335 -4.859358 2.731269 6.041825 1.123637 1.101723 0.003491 0.000523 231644.000000 1 0 0
15.199065 5.061942 6.244969 17.194024 0.321489 1.199090 0.028916 -0.003518 994136.000000 1 0 0
6.840465 0.369442 0.125769 6.851589 0.053956 1.552439 0.004212 -0.000150 5910900.000000 1 0 0
-9.706135 9.254242 0.402569 13.416860 -0.761569 1.540787 0.000007 0.000139 -1636940.000000 1 0 0
7.236765 10.423342 -2.682831 12.969750 0.963917 1.779154 0.006787 0.000518 839361.000000 1 0 0
1.549665 -4.218058 -5.430631 7.048775 -1.218716 2.450321 0.001387 -0.003209 32285.700000 1 0 0
0.882365 -8.109158 -7.863731 11.330281 -1.462412 2.337890 -0.001275 -0.002567 952397.000000 1 0 0
-10.430035 0.165442 -10.496731 14.798458 -0.015861 2.359319 0.003324 -0.007811 -5243180.000000 1 0 0
5.789465 -2.485958 0.553569 6.324897 -0.405586 1.483162 0.003676 -0.001048 451271.000000 1 0 0
-3.313135 5.370742 -1.075031 6.401362 -1.018053 1.739534 0.003920 -0.003722 505531.000000 1 0 0
-0.428335 4.574642 -5.055831 6.831709 -1.477436 2.403946 0.004864 -0.003779 -333926.000000 1 0 0
4.033865 -9.710058 10.062569 14.553782 -1.177058 0.807363 -0.003393 -0.001548 -1542060.000000 1 0 0
7.255465 -13.469558 -0.730131 15.316783 -1.076704 1.618483 0.006841 -0.003911 947402.000000 1 0 0
13.114765 -0.077658 0.513569 13.125046 -0.005921 1.531657 0.009245 -0.000710 173365.000000 1 0 0
9.248665 2.380542 -0.646331 9.571966 0.251925 1.638371 0.006743 0.000831 176200.000000 1 0 0
-0.722235 -5.746258 4.370269 7.255367 1.445764 0.924355 0.002503 -0.000916 108845.000000 1 0 0
11.508265 -3.730458 3.342369 12.551012 -0.313467 1.301241 0.004309 -0.001947 -2210990.000000 1 0 0
1.694965 -8.163358 11.748169 14.405998 -1.366074 0.617194 -0.001562 -0.001760 249479.000000 1 0 0
9.502065 -6.052558 -5.931931 12.732262 -0.567163 2.055445 0.004000 -0.004671 -1168310.000000 1 0 0
3.139665 6.363342 -0.171731 7.097825 1.112444 1.594994 -0.000612 -0.000669 -1588140.000000 1 0 0
6.460065 -1.346858 11.329969 13.111623 -0.205545 0.527404 -0.003235 0.002250 210285.000000 1 0 0
-4.829035 -7.516358 -3.943831 9.765706 0.999733 1.986512 0.012956 -0.004073 -698304.000000 1 0 0
-3.519735 -8.557758 -5.867931 10.957024 1.180594 2.135944 0.012156 -0.003450 -203123.000000 1 0 0
9.873865 5.317242 2.264269 11.440856 0.493984 1.371570 0.006118 0.000423 -664341.000000 1 0 0
8.951065 -1.340558 0.261269 9.054663 -0.148660 1.541938 0.006479 -0.000300 1451300.000000 1 0 0
-3.959735 9.667642 9.151169 13.888366 -1.182053 0.851429 0.000635 0.000315 288144.000000 1 0 0
-14.329135 -3.477358 -6.038331 15.933536 0.238075 1.959479 0.003675 -0.004617 -932579.000000 1 0 0
10.649265 6.369142 -5.903831 13.741472 0.539009 2.014886 0.002179 -0.003756 -514959.000000 1 0 0
-1.792635 4.583042 2.768469 5.646436 -1.197947 1.058358 0.002682 -0.001352 379815.000000 1 0 0
6.872265 -3.662158 2.740169 8.255177 -0.489612 1.232444 0.002625 -0.001440 -2161660.000000 1 0 0
8.310965 -11.231258 -1.554431 14.058077 -0.933736 1.681595 0.007407 -0.003182 -995989.000000 1 0 0
4.546365 0.604742 1.826869 4.936861 0.132240 1.191737 0.002297 0.001878 102014.000000 1 0 0
-10.863835 2.365542 3.783069 11.744374 -0.214398 1.242831 -0.001678 -0.001340 -106653.000000 1 0 0
-0.863435 -3.070758 4.405669 5.439209 1.296694 0.626672 0.004921 -0.000636 592379.000000 1 0 0
8.584165 -8.688658 -8.426031 14.838418 -0.791448 2.174691 0.004055 -0.003474 -61309.400000 1 0 0
12.015265 -4.852158 1.032969 12.999117 -0.383806 1.491248 0.004730 -0.002989 503957.000000 1 0 0
2.949665 4.886942 3.443869 6.666556 1.027748 1.027934 -0.002906 0.001036 -73117.200000 1 0 0
6.176365 7.464042 2.000169 9.892426 0.879521 1.367201 0.004231 -0.000544 -9613.780000 1 0 0
-1.711535 -1.254458 -10.367331 10.582276 0.632495 2.939697 0.009473 -0.008370 1645890.000000 1 0 0
-0.945935 -8.599058 6.018569 10.538584 1.461232 0.962953 0.000993 -0.002151 -525182.000000 1 0 0
-4.304735 -0.148558 2.206269 4.839466 0.034497 1.097423 0.001754 -0.001078 346323.000000 1 0 0
-8.366035 6.093742 -8.006031 13.085136 -0.629527 2.229183 -0.006817 -0.001616 -970035.000000 1 0 0
6.491465 11.140342 -9.405231 15.959471 1.043195 2.201013 0.002167 -0.007624 -118539.000000 1 0 0
-11.104435 -5.790058 3.192969 12.923943 0.480635 1.321153 0.003883 -0.003112 719223.000000 1 0 0
1.670465 -6.263958 3.071269 7.173584 -1.310183 1.128367 -0.002101 -0.002605 220814.000000 1 0 0
10.141065 2.225842 7.172769 12.619199 0.216062 0.966235 0.004992 0.002523 -1737080.000000 1 0 0
-4.091635 -2.571258 -10.628831 11.675825 0.561053 2.714872 0.010906 -0.010914 -2445610.000000 1 0 0
-8.312835 11.880542 5.934669 15.667508 -0.960271 1.182310 0.001181 -0.001152 -256837.000000 1 0 0
6.867965 6.003642 -2.964531 9.591721 0.718349 1.885013 0.007099 -0.000328 -2794470.000000 1 0 0
3.881365 -9.926158 -2.312331 10.905983 -1.198052 1.784442 -0.005820 -0.006164 -2179920.000000 1 0 0
8.453865 -12.869458 -7.346931 17.060720 -0.989590 2.015992 0.008357 -0.006108 439332.000000 1 0 0
-1.117335 9.535842 3.573869 10.244670 -1.454156 1.214451 0.003013 0.001254 223393.000000 1 0 0
0.466065 -13.162858 4.710369 13.988052 -1.535404 1.227341 0.004849 -0.000637 -1163910.000000 1 0 0
-11.137035 -7.007358 -5.136431 14.125138 0.561610 1.942966 0.007746 -0.006683 222588.000000 1 0 0
3.620965 10.286242 -3.493431 11.450862 1.232323 1.880819 0.007023 -0.005326 -828151.000000 1 0 0
11.599865 -8.138458 -7.273531 15.927825 -0.611799 2.045029 0.021126 -0.008774 357463.000000 1 0 0
11.752365 -4.733558 -5.859231 13.959056 -0.382896 2.003960 0.008062 -0.004683 360581.000000 1 0 0
1.279165 -10.280258 -2.727431 10.712555 -1.447003 1.828232 -0.003065 -0.002479 -651368.000000 1 0 0
2.414465 -12.071358 -3.852131 12.899079 -1.373385 1.874060 -0.007141 -0.001676 -2316440.000000 1 0 0
-7.696635 -5.755158 7.327269 12.085069 0.642059 0.919387 0.003618 0.000183 -2193910.000000 1 0 0
-7.227035 -0.835358 9.479269 11.949242 0.115077 0.654595 0.003877 0.000881 524149.000000 1 0 0
16.249765 2.511142 -7.585631 18.108078 0.153321 2.003039 0.010894 0.003258 -265932.000000 1 0 0
-2.009435 6.343642 -5.516331 8.643468 -1.264032 2.262965 0.003611 -0.001308 -1434640.000000 1 0 0
7.778265 1.310942 8.393669 11.518405 0.166970 0.754348 0.001530 0.002336 -504226.000000 1 0 0
7.872765 8.224742 -3.837431 12.014687 0.807260 1.895887 0.006237 0.001091 -167031.000000 1 0 0
8.079265 0.705042 3.891169 8.995154 0.087045 1.123438 0.000726 -0.001090 486164.000000 1 0 0
-6.900335 5.857442 5.337969 10.508005 -0.703834 1.037946 0.006257 -0.005115 3403.400000 1 0 0
-6.096535 -2.065458 -4.486831 7.846369 0.326655 2.179538 0.005106 -0.004460 -1549940.000000 1 0 0
-15.098835 -2.128358 3.142769 15.568613 0.140039 1.367534 0.013204 -0.007975 -541164.000000 1 0 0
1.108265 1.267142 -10.649231 10.781467 0.852183 2.984811 0.010992 -0.008772 537471.000000 1 0 0
1.474465 -9.277458 9.480669 13.346473 -1.413185 0.780801 0.002333 -0.005375 -864638.000000 1 0 0
-0.153335 -6.728158 -1.118631 6.822239 1.548010 1.735508 0.001811 -0.001957 433197.000000 1 0 0
-0.464935 -10.186558 -8.367431 13.190755 1.525186 2.257952 -0.000415 -0.000799 -216899.000000 1 0 0
-4.383335 6.573942 3.793569 8.764788 -0.982719 1.123179 0.002576 0.000094 -113591.000000 1 0 0
10.797565 -1.192258 -8.507131 13.797832 -0.109974 2.235157 0.010604 -0.002289 477921.000000 1 0 0
3.153965 -1.011758 6.227869 7.053900 -0.310419 0.488799 0.001350 0.001532 138573.000000 1 0 0
1.953665 -12.255558 6.738469 14.121702 -1.412716 1.073363 0.003971 -0.001257 435282.000000 1 0 0
2.831865 -4.891858 -1.332231 5.807286 -1.046041 1.802265 0.008016 -0.003215 -1670960.000000 1 0 0
-1.052335 9.506142 -1.701031 9.714302 -1.460545 1.746810 0.002667 -0.005208 58285.700000 1 0 0
4.554165 -2.509058 2.637769 5.830404 -0.503562 1.101324 0.004284 0.000893 -1343160.000000 1 0 0
17.853665 6.768942 -2.694531 19.282957 0.362391 1.710992 0.014815 0.008676 -16615.400000 1 0 0
-7.193335 3.430742 -5.406731 9.630514 -0.445025 2.166893 0.000684 -0.002240 921792.000000 1 0 0
-13.796235 -5.980958 2.337669 15.217511 0.409066 1.416569 0.005540 -0.007063 -247581.000000 1 0 0
6.746965 -6.085158 3.259069 9.652575 -0.733870 1.226391 0.000122 -0.005111 765351.000000 1 0 0
-4.607535 2.077142 3.534569 6.167421 -0.423531 0.960509 0.004778 -0.002454 497968.000000 1 0 0
6.831765 -12.143358 -5.461231 14.965266 -1.058336 1.944351 0.002670 -0.002821 105358.000000 1 0 0
2.788965 -12.289158 3.363769 13.042878 -1.347631 1.309947 0.002305 -0.004785 -999295.000000 1 0 0
3.297865 11.339342 -6.205831 13.340500 1.287770 2.054643 0.000023 0.000318 -574397.000000 1 0 0
-5.713635 -8.307058 6.523869 12.008901 0.968302 0.996490 0.006429 -0.000442 -68570.400000 1 0 0
-4.048435 6.589242 6.400869 10.038878 -1.019855 0.879407 0.004723 -0.000541 97886.600000 1 0 0
4.310665 4.293742 -7.068331 9.326273 0.783431 2.430876 0.004977 -0.000511 -1195490.000000 1 0 0
-0.345335 -2.725658 1.580969 3.169847 1.444770 1.048637 0.005336 -0.001190 -428343.000000 1 0 0
-13.277235 -0.991858 6.555069 14.840407 0.074565 1.113299 0.008441 -0.005482 -653088.000000 1 0 0
-0.480635 -9.178058 -5.928331 10.936766 1.518476 2.143677 -0.000334 -0.001545 402698.000000 1 0 0
1.948265 -1.680458 -3.944431 4.709375 -0.711730 2.563616 0.009895 -0.001885 -1007870.000000 1 0 0
11.394865 -1.980358 1.096569 11.617540 -0.172075 1.476267 0.006302 -0.001501 636356.000000 1 0 0
0.460465 -4.172958 -2.001731 4.651078 -1.460896 2.015710 0.005268 -0.002393 -1541680.000000 1 0 0
1.054965 -7.385258 -11.180231 13.440705 -1.428909 2.553173 -0.004482 -0.001598 -41652.200000 1 0 0
-4.383935 3.999642 -10.052831 11.673707 -0.739591 2.608327 0.001721 -0.003979 -68159.400000 1 0 0
-1.011835 5.862342 -2.125431 6.317304 -1.399881 1.913937 0.003552 -0.004178 -2362560.000000 1 0 0
-11.368735 1.780442 -3.841931 12.131717 -0.155347 1.893029 0.001831 -0.001796 -349706.000000 1 0 0
-1.769935 -11.153158 4.166869 12.036959 1.413415 1.217308 0.008382 -0.001999 -145864.000000 1 0 0
-3.558735 -5.467258 -9.772231 11.749553 0.993776 2.552978 0.008105 -0.004807 -1367890.000000 1 0 0
-12.873435 -3.812258 -8.235831 15.750795 0.287906 2.121027 0.007870 -0.003829 -319491.000000 1 0 0
11.329065 4.497542 0.422369 12.196475 0.377910 1.536159 0.007378 0.000549 161053.000000 1 0 0
-8.860035 -2.239758 -2.969631 9.609133 0.247606 1.884982 0.006065 -0.003953 -366790.000000 1 0 0
-2.573935 -6.086858 -6.402631 9.201558 1.170733 2.340358 0.005222 -0.004046 -639687.000000 1 0 0
-0.054335 2.776442 -1.859831 3.342238 -1.551229 2.160919 0.003795 -0.003508 663181.000000 1 0 0
8.013065 6.088242 -5.300931 11.374347 0.649737 2.055609 0.004975 -0.001327 -733411.000000 1 0 0
-9.778935 -0.918658 -0.930031 9.865924 0.093668 1.665204 -0.000050 -0.002746 -167717.000000 1 0 0
6.052765 0.568842 -8.874431 10.757094 0.093705 2.540970 0.004533 -0.001840 475685.000000 1 0 0
-4.183435 2.550342 7.985969 9.369155 -0.547469 0.550299 0.004030 0.001162 -1663630.000000 1 0 0
-10.180435 -3.367858 1.502069 10.827739 0.319484 1.431623 -0.000097 -0.002650 1185780.000000 1 0 0
-1.856735 -8.077458 -7.872531 11.431077 1.344855 2.330485 0.003758 -0.005145 -181759.000000 1 0 0
-9.425835 -9.769458 4.141969 14.193117 0.803298 1.274657 0.005099 -0.003876 -263668.000000 1 0 0
-1.199735 -10.657458 7.425969 13.044761 1.458696 0.965181 0.005773 -0.003321 -39729.800000 1 0 0
9.426565 3.771442 -3.809431 10.844154 0.380581 1.929744 0.003908 0.000012 -647163.000000 1 0 0
12.930865 -0.807958 3.021469 13.303734 -0.062402 1.341683 0.007494 0.000396 -110318.000000 1 0 0
6.620065 12.009842 -6.932531 15.366248 1.067017 2.038853 0.005440 0.000567 -299551.000000 1 0 0
-11.851235 -0.112558 -6.573331 13.552606 0.009497 2.077186 0.000957 -0.001677 445780.000000 1 0 0
-7.692835 -6.627558 -11.444031 15.299349 0.711146 2.415851 0.010863 -0.006831 -388831.000000 1 0 0
4.144665 6.119142 6.585469 9.899018 0.975449 0.842948 -0.000045 0.000049 -3417120.000000 1 0 0
-4.256935 -1.375958 -7.434331 8.676637 0.312628 2.599870 0.007710 -0.011245 -1103790.000000 1 0 0
9.688365 9.320542 0.827569 13.469291 0.766051 1.509316 0.017001 0.002239 -1478980.000000 1 0 0
-8.893535 3.859742 4.930069 10.876496 -0.409464 1.100358 -0.001368 -0.003920 2315960.000000 1 0 0
-7.040135 7.868542 -12.239831 16.164496 -0.840907 2.429819 -0.003994 0.000896 -1386500.000000 1 0 0
11.165065 -3.580458 7.198169 13.758342 -0.310323 1.020211 0.001414 -0.000194 859075.000000 1 0 0
11.883765 6.970242 6.378469 15.181996 0.530460 1.137204 0.013997 0.000628 323956.000000 1 0 0
-10.105735 -0.777958 -14.838931 17.970113 0.076830 2.542338 0.012819 -0.005137 90820.200000 1 0 0
1.807665 -13.120458 11.974669 17.855160 -1.433884 0.835704 0.003951 0.001617 63173.300000 1 0 0
2.977065 3.117242 12.975969 13.673181 0.808395 0.320720 -0.000604 -0.000534 -530046.000000 1 0 0
-2.515035 -1.276458 10.997569 11.353469 0.469654 0.251048 0.004860 0.002341 -488530.000000 1 0 0
2.531165 -10.022658 -8.145331 13.160808 -1.323424 2.238148 -0.008834 0.000417 -1228030.000000 1 0 0
14.060065 3.590742 -7.480631 16.326013 0.250041 2.046769 0.010097 -0.002803 -3515310.000000 1 0 0
7.384165 -1.474058 4.994569 9.035732 -0.197034 0.985127 0.000066 -0.000039 457535.000000 1 0 0
-1.271535 8.842742 10.104669 13.487595 -1.427981 0.723970 0.005539 -0.001954 -209075.000000 1 0 0
-12.222735 -4.734258 1.031669 13.148110 0.369538 1.492250 0.004043 -0.004096 186687.000000 1 0 0
-4.885235 4.846442 -5.307731 8.690543 -0.781412 2.227801 0.003201 -0.002816 12316.300000 1 0 0
-11.218135 0.396942 1.891269 11.383366 -0.035369 1.403879 -0.002763 -0.001546 -2521300.000000 1 0 0
-1.505535 2.265942 -4.108731 4.927758 -0.984351 2.556739 0.003579 -0.005093 599003.000000 1 0 0
3.194565 -9.808358 13.118669 16.688577 -1.255933 0.666344 -0.004344 -0.002097 -1204270.000000 1 0 0
8.886565 4.670442 -1.549831 10.158053 0.483888 1.723966 0.004754 -0.001491 -1568280.000000 1 0 0
4.111965 2.339842 3.761469 6.044151 0.517338 0.899078 -0.001782 0.003921 -270587.000000 1 0 0
-5.480835 -3.261358 7.427869 9.790263 0.536770 0.709482 0.004474 0.000493 -72774.300000 1 0 0
1.723465 -5.782158 7.694869 9.778276 -1.281115 0.664970 0.000833 -0.001212 -205780.000000 1 0 0
-5.877635 -6.312358 -9.695531 12.976740 0.821045 2.414555 0.011527 -0.006378 -1013820.000000 1 0 0
-11.723935 -5.739758 5.557669 14.187429 0.455274 1.168283 0.009678 -0.005392 -1554180.000000 1 0 0
10.423865 6.217242 4.564869 12.967232 0.537800 1.211056 0.012386 0.002233 324171.000000 1 0 0
1.376965 -3.673558 0.335469 3.937461 -1.212173 1.485494 0.013239 -0.002320 -891587.000000 1 0 0
8.873065 4.342442 7.013169 12.114975 0.455128 0.953437 0.004953 0.003703 -307012.000000 1 0 0
-8.000035 12.066142 3.457969 14.884553 -0.985326 1.336335 0.004373 -0.002174 -306103.000000 1 0 0
-6.263435 13.181242 -7.099431 16.228915 -1.127203 2.023564 0.011595 -0.007103 585710.000000 1 0 0
4.503765 -6.864258 -0.947031 8.264309 -0.990132 1.685642 0.002554 -0.006164 -1052470.000000 1 0 0
-1.921135 -8.179658 11.167369 13.975253 1.340110 0.645030 0.005159 -0.005663 -624819.000000 1 0 0
11.675265 8.905042 -5.796731 15.786503 0.651597 1.946788 0.011683 -0.003890 279962.000000 1 0 0
-3.383335 -2.857258 -1.860531 4.803379 0.701298 1.968539 0.004325 -0.003490 -2350490.000000 1 0 0
-2.050335 6.153242 4.728069 8.026263 -1.249155 0.940883 0.003699 0.002624 781263.000000 1 0 0
0.425365 -11.318058 -5.539531 12.608163 -1.533231 2.025683 -0.004438 -0.001688 248332.000000 1 0 0
-8.841435 6.272442 -1.515631 10.945851 -0.617032 1.709709 0.003209 0.001064 -328810.000000 1 0 0
2.961265 0.018742 3.895869 4.893591 0.006329 0.649946 0.001807 0.002255 -525540.000000 1 0 0
-10.164135 3.987342 -0.992331 10.963269 -0.373847 1.661435 0.002749 -0.000495 -96719.100000 1 0 0
6.600865 5.661242 13.587269 16.131800 0.708919 0.569323 0.007742 0.002651 -880549.000000 1 0 0
-8.676835 -1.544658 5.695569 10.493471 0.176175 0.997062 -0.000494 -0.001973 144857.000000 1 0 0
12.939265 -1.783558 -1.492831 13.146642 -0.136978 1.684594 0.010856 0.000555 -911982.000000 1 0 0
5.408365 -5.487958 5.429069 9.425650 -0.792703 0.956983 -0.001950 -0.002749 270782.000000 1 0 0
-9.064435 -1.189358 3.188069 9.682063 0.130466 1.235260 -0.001948 -0.002137 700863.000000 1 0 0
2.028865 5.506242 5.577069 8.095597 1.217766 0.810824 0.001362 -0.000069 -1154450.000000 1 0 0
9.378465 3.100542 -7.380731 12.330619 0.319291 2.212510 0.004283 -0.002836 -1603540.000000 1 0 0
2.259665 -2.293858 -1.524731 3.562678 -0.792907 2.013046 0.006218 -0.001707 -281538.000000 1 0 0
-6.213735 0.449542 -3.885231 7.342180 -0.072221 2.128414 0.003296 -0.002660 -2316770.000000 1 0 0
-3.972935 4.295342 5.036869 7.720377 -0.824372 0.860033 0.003884 -0.000021 769898.000000 1 0 0
-6.425735 1.790042 -12.427931 14.104886 -0.271686 2.648997 0.002939 -0.007590 -1300540.000000 1 0 0
-0.087635 3.192042 6.235669 7.005739 -1.543349 0.473276 0.003658 0.000535 1315390.000000 1 0 0
-8.694035 9.535542 -2.034631 13.063405 -0.831527 1.727183 0.000061 0.003168 527437.000000 1 0 0
-1.469435 -3.707358 -6.144631 7.325314 1.193435 2.565911 0.006018 -0.004298 762005.000000 1 0 0
-3.348735 7.065142 -2.982131 8.367997 -1.128181 1.935180 0.003721 -0.000643 1102960.000000 1 0 0
7.023065 -0.400958 -4.346631 8.269063 -0.057030 2.124275 0.005564 -0.001808 -212956.000000 1 0 0
-5.125335 -10.763658 6.883869 13.766373 1.126393 1.047140 0.000810 -0.000018 355608.000000 1 0 0
9.877565 8.350042 -1.581831 13.030414 0.701791 1.692492 0.008801 0.004013 -65460.700000 1 0 0
13.739065 4.646542 -4.352831 15.142635 0.326124 1.862365 0.002747 -0.002600 417945.000000 1 0 0
4.743665 1.123742 -6.742031 8.319864 0.232605 2.515552 0.002784 -0.001712 -898299.000000 1 0 0
8.985665 -4.723158 3.566669 10.759717 -0.483943 1.232921 0.001531 -0.003004 -1257700.000000 1 0 0
-8.760435 -3.279458 -0.714031 9.381359 0.358200 1.646982 0.000106 -0.002164 -126781.000000 1 0 0
-8.704535 -4.263958 -10.475031 14.271529 0.455498 2.394961 0.002241 -0.008434 82820.400000 1 0 0
10.587865 -1.112258 10.681669 15.081049 -0.104666 0.783732 0.000503 0.004783 66411.100000 1 0 0
2.273765 -11.573958 9.939469 15.424641 -1.376811 0.870572 -0.000148 -0.003701 -299973.000000 1 0 0
-6.317935 -10.526658 2.065769 12.449668 1.030241 1.404096 0.007411 -0.003366 -911525.000000 1 0 0
-3.735635 -1.330258 6.665769 7.756096 0.342098 0.536656 0.006959 0.001049 -1323460.000000 1 0 0
4.680965 -7.544058 3.949269 9.717045 -1.015451 1.152256 -0.003665 -0.002366 216444.000000 1 0 0
11.444965 -9.522258 -5.246131 15.785516 -0.693953 1.909578 0.014562 -0.006403 843339.000000 1 0 0
11.413865 1.189042 11.378069 16.160154 0.103801 0.789667 0.000314 0.002605 23231.900000 1 0 0
-10.227935 -3.436558 4.444869 11.669509 0.324146 1.180031 0.003439 -0.001957 1377480.000000 1 0 0
2.057365 8.834342 8.919169 12.721239 1.341992 0.793823 0.004099 -0.001732 30294.700000 1 0 0
6.681065 8.826142 4.096669 11.803394 0.922854 1.216345 0.009046 -0.000544 1424220.000000 1 0 0
-4.233835 3.566642 0.456669 5.554714 -0.700074 1.488491 0.004560 -0.003911 -238060.000000 1 0 0
4.915465 7.027342 4.262769 9.576875 0.960421 1.109499 0.002782 0.000461 -936962.000000 1 0 0
-8.324535 13.145242 1.087169 15.597347 -1.006270 1.501038 0.008590 -0.001799 304270.000000 1 0 0
8.841465 8.089142 -9.224831 15.122937 0.740992 2.226844 -0.000049 -0.005761 -1543160.000000 1 0 0
7.228965 1.994642 6.103569 9.669027 0.269225 0.887633 -0.000550 0.001540 -997228.000000 1 0 0
11.496565 -6.268758 3.077669 13.451408 -0.499206 1.339953 0.003498 -0.001389 117286.000000 1 0 0
11.366265 4.747942 -2.200631 12.513102 0.395690 1.747582 0.005245 0.002424 591962.000000 1 0 0
-3.961735 14.169942 -6.102431 15.928662 -1.298170 1.963957 0.004563 -0.003371 2221840.000000 1 0 0
7.238465 -2.945158 6.943269 10.453627 -0.386420 0.844377 0.000798 -0.001069 -415427.000000 1 0 0
-8.042035 -0.434758 0.976569 8.112769 0.054008 1.450129 -0.000398 -0.001803 249914.000000 1 0 0
-3.202435 1.153342 10.713669 11.241374 -0.345684 0.307620 0.001924 0.004179 -387172.000000 1 0 0
7.201565 -1.328258 -1.885831 7.561955 -0.182390 1.822841 0.007434 -0.002133 -3790570.000000 1 0 0
-7.853235 5.349242 2.978469 9.957860 -0.597964 1.267039 0.000353 -0.000873 850082.000000 1 0 0
9.503465 -2.155458 2.823269 10.145575 -0.223034 1.288798 0.001692 -0.001027 -1127500.000000 1 0 0
0.284365 3.544142 1.512369 3.863815 1.490733 1.168624 0.001226 0.001065 -825649.000000 1 0 0
-7.593535 -3.086458 3.982769 9.113202 0.386062 1.118499 -0.001065 -0.001003 -306592.000000 1 0 0
-2.287135 8.371242 -6.804831 11.027893 -1.304092 2.235793 0.001043 -0.002622 -267649.000000 1 0 0
4.453065 9.865942 7.340969 13.078854 1.146814 0.974858 0.004811 0.001860 624512.000000 1 0 0
-11.893635 -3.225458 6.908769 14.127746 0.264822 1.059829 0.013056 -0.007536 -1454020.000000 1 0 0
-4.743535 2.345442 -5.674031 7.758663 -0.459198 2.391045 0.005807 -0.005709 85166.700000 1 0 0
-2.762335 2.968742 -1.834031 4.450573 -0.821398 1.995542 0.004055 -0.003220 1360870.000000 1 0 0
2.350165 5.270142 11.335269 12.719512 1.151324 0.470875 0.005587 -0.004096 109601.000000 1 0 0
-0.659335 1.652342 4.590569 4.923239 -1.191126 0.369720 0.005482 0.000923 1268800.000000 1 0 0
5.186165 1.700342 7.602669 9.358849 0.316818 0.622624 0.000728 0.000803 -425644.000000 1 0 0
3.389265 -8.157358 1.827669 9.020531 -1.177012 1.366772 -0.001189 -0.003588 2407940.000000 1 0 0
5.053465 6.521242 -4.655231 9.472871 0.911534 2.084525 0.006765 -0.002961 -2248390.000000 1 0 0
-4.122735 2.778742 -8.017931 9.434277 -0.593066 2.586539 0.007635 -0.006502 -335448.000000 1 0 0
-8.781335 -2.190158 -12.982831 15.826008 0.244424 2.532815 0.007666 -0.008696 -576320.000000 1 0 0
-7.864235 8.156542 1.218169 11.395583 -0.803642 1.463693 0.000528 -0.001336 -540721.000000 1 0 0
7.360565 0.932742 -6.580831 9.917422 0.126050 2.296367 0.003396 -0.000475 91411.500000 1 0 0
9.007765 8.739242 5.513269 13.708039 0.770269 1.156886 0.013082 0.001076 284867.000000 1 0 0
9.433165 -1.113158 -1.394731 9.600469 -0.117461 1.716590 0.008430 -0.002563 2441830.000000 1 0 0
5.480765 0.204042 4.278569 6.956046 0.037212 0.908301 0.001139 0.001720 -1483310.000000 1 0 0
-4.241935 -7.265258 -8.050931 11.644547 1.042325 2.334208 0.015609 -0.007983 79196.100000 1 0 0
-2.149935 7.416542 -0.589431 7.744337 -1.288646 1.646981 0.003302 -0.002822 209912.000000 1 0 0
13.553465 -3.368158 -7.385431 15.798275 -0.243575 2.057238 0.017316 -0.003084 1192990.000000 1 0 0
-4.808235 -5.000658 1.594669 7.118193 0.805013 1.344852 0.002951 -0.001444 400072.000000 1 0 0
-8.904335 1.384342 2.650769 9.393091 -0.154234 1.284706 -0.001316 -0.002143 -1035900.000000 1 0 0
-1.087035 11.271342 10.173069 15.222225 -1.474651 0.838870 0.003354 -0.002927 558941.000000 1 0 0
-8.606835 0.284942 7.470969 11.400622 -0.033094 0.856200 -0.002481 -0.000205 -72585.900000 1 0 0
-6.135135 12.886642 -2.172731 14.436973 -1.126463 1.721868 0.001498 -0.000159 347530.000000 1 0 0
-12.923935 -0.751058 3.279269 13.354617 0.058048 1.322706 0.007840 -0.003831 536260.000000 1 0 0
-6.733235 12.916742 8.705269 16.969396 -1.090270 1.032122 0.006491 -0.005564 -60684.600000 1 0 0
-8.077135 0.757342 -14.177731 16.334679 -0.093490 2.621862 0.000737 -0.005517 -859998.000000 1 0 0
7.206165 2.928042 3.742869 8.631994 0.385947 1.122308 -0.000360 0.003065 -597164.000000 1 0 0
-1.651335 0.774542 -1.967131 2.682616 -0.438574 2.393942 0.003144 -0.003565 877019.000000 1 0 0
-6.150735 9.607942 -10.430531 15.457687 -1.001361 2.311462 -0.003146 0.001135 -75129.600000 1 0 0
-10.082635 13.684342 5.208369 17.777735 -0.935796 1.273463 0.002404 -0.005228 -202310.000000 1 0 0
-5.633035 8.418742 2.352369 10.399036 -0.981107 1.342611 0.000591 -0.001354 -1354520.000000 1 0 0
-2.455335 -10.753558 -1.184431 11.093717 1.346317 1.677766 0.005909 -0.002559 310771.000000 1 0 0
-2.291635 -12.340958 8.880469 15.375746 1.387194 0.955055 0.006043 -0.001551 297257.000000 1 0 0
-14.644835 -6.392758 -1.551031 16.054415 0.411587 1.667558 0.006720 -0.003304 580098.000000 1 0 0
-2.708235 -9.236958 3.240269 10.156538 1.285594 1.246088 0.004159 -0.001906 246707.000000 1 0 0
4.720565 -2.653658 7.537169 9.280870 -0.512122 0.623022 -0.000482 0.001971 300851.000000 1 0 0
-15.103635 -1.233958 -0.183531 15.155069 0.081518 1.582907 0.008388 -0.006599 288033.000000 1 0 0
5.464265 8.746242 -2.940331 10.723828 1.012373 1.848540 0.006395 -0.001227 -838085.000000 1 0 0
-5.592635 -5.679458 8.568269 11.702523 0.793100 0.749290 0.006041 0.001356 -3201260.000000 1 0 0
3.486365 3.706642 7.058269 8.701327 0.816012 0.624644 0.000484 0.000361 210840.000000 1 0 0
3.411465 2.353042 9.314969 10.195271 0.603811 0.418608 0.006222 -0.003466 1051460.000000 1 0 0
9.908765 -3.205758 5.160469 11.622863 -0.312899 1.110746 0.001112 -0.001185 -226993.000000 1 0 0
6.552565 10.079242 -5.167931 13.085670 0.994347 1.976789 0.004396 -0.000487 -190485.000000 1 0 0
-4.632135 11.992642 -8.656231 15.498725 -1.202201 2.163388 0.002739 -0.000926 -1286960.000000 1 0 0
-3.412635 -7.147858 2.047269 8.181030 1.125363 1.317862 0.003315 -0.002003 812115.000000 1 0 0
-7.449435 -3.986458 1.144569 8.526193 0.491359 1.436148 0.000269 -0.001564 1555860.000000 1 0 0
-1.969935 -3.890358 -10.934131 11.771608 1.102071 2.762110 0.011186 -0.008406 -1333410.000000 1 0 0
-5.241635 8.272442 -4.452431 10.757889 -1.006018 1.997504 0.000074 -0.000983 -1753500.000000 1 0 0
-11.050435 -3.281158 -10.100031 15.326080 0.288634 2.290297 0.009111 -0.004396 -820144.000000 1 0 0
4.648865 -11.353358 -7.599931 14.431550 -1.182152 2.125415 -0.003705 -0.003762 -1859910.000000 1 0 0
-9.389135 -3.933658 7.335869 12.547689 0.396742 0.946361 0.002473 -0.003103 -360536.000000 1 0 0
-5.804135 -9.621758 -5.118731 12.347778 1.028005 1.998241 0.016833 -0.008459 508307.000000 1 0 0
5.022565 4.344442 -9.540531 11.624202 0.713129 2.533514 0.001920 0.001594 195697.000000 1 0 0
-3.360635 -7.304358 -14.002631 16.146863 1.139586 2.620357 0.004956 -0.005430 303181.000000 1 0 0
0.620165 -0.766958 -8.776931 8.832177 -0.890831 3.029686 0.007574 -0.009917 137349.000000 1 0 0
-7.759335 2.208342 -2.793631 8.537472 -0.277273 1.904156 0.002361 -0.002725 -871765.000000 1 0 0
-2.393435 7.466042 -12.549431 14.797248 -1.260571 2.583171 0.002550 -0.003226 -65615.500000 1 0 0
-9.977935 8.854442 7.526069 15.316725 -0.725811 1.057143 -0.000115 -0.005100 -123444.000000 1 0 0
-10.676335 -3.197358 -14.392731 18.203240 0.290980 2.482697 0.016727 -0.000633 -578363.000000 1 0 0
-3.277035 4.867042 7.970969 9.897646 -0.978208 0.634548 0.005120 -0.000793 -44717.200000 1 0 0
8.671265 -2.428458 -3.632831 9.710083 -0.273063 1.954255 0.007847 -0.001070 -4592890.000000 1 0 0
1.961665 -8.399658 -1.115931 8.697567 -1.341367 1.699455 -0.000946 -0.002854 -201820.000000 1 0 0
-13.468735 -2.828758 5.013869 14.647443 0.207015 1.221429 0.017774 -0.012334 358840.000000 1 0 0
7.086665 2.793442 -2.020131 7.880677 0.375482 1.830030 0.003925 -0.000541 759844.000000 1 0 0
-11.219635 4.606842 8.986169 15.094848 -0.389615 0.933140 0.001401 -0.002853 -3172830.000000 1 0 0
-1.842735 -2.516358 8.003969 8.590183 0.938718 0.371572 0.005220 -0.000522 -947801.000000 1 0 0
3.001465 11.888042 -9.973631 15.805305 1.323487 2.253677 -0.003110 -0.005980 726527.000000 1 0 0
3.619465 -5.032458 -7.040331 9.380427 -0.947284 2.419666 -0.001732 -0.004263 582322.000000 1 0 0
8.366365 -13.773458 -9.690331 18.804433 -1.024934 2.112179 0.014697 0.001378 542845.000000 1 0 0
-6.249235 -5.757858 -0.471631 8.510482 0.744497 1.626242 0.005982 -0.002516 -348760.000000 1 0 0
-1.118335 -4.069658 9.841169 10.708006 1.302618 0.405139 0.004450 0.000736 1356010.000000 1 0 0
2.792265 3.267942 1.852969 4.680778 0.863730 1.163784 -0.002218 0.002688 -669946.000000 1 0 0
-9.165635 13.303342 7.734769 17.911294 -0.967510 1.124267 0.004786 -0.018132 750726.000000 1 0 0
3.983865 -10.996458 -0.003031 11.695865 -1.223218 1.571055 -0.005899 -0.003155 -306023.000000 1 0 0
-12.515235 -1.459958 -9.080631 15.531273 0.116130 2.195267 0.003415 -0.003538 -107228.000000 1 0 0
-4.248535 0.800142 -13.455831 14.133282 -0.186153 2.830720 0.009028 -0.006776 492053.000000 1 0 0
3.949265 -3.113258 4.957569 7.061626 -0.667574 0.792533 0.003363 0.002080 -161338.000000 1 0 0
1.719465 -1.165058 1.135969 2.367350 -0.595513 1.070314 0.005918 0.000055 724406.000000 1 0 0
8.237865 -8.971058 7.427269 14.265574 -0.827978 1.023193 0.003279 -0.002908 -1835930.000000 1 0 0
-0.039735 2.259842 -6.266331 6.661484 -1.553215 2.795428 0.004608 -0.005590 -1226130.000000 1 0 0
-3.836535 -9.739558 -3.318031 10.981225 1.195549 1.877749 0.013266 -0.003015 897250.000000 1 0 0
-9.528335 2.151242 -5.494831 11.207595 -0.222050 2.083204 0.000261 -0.001487 -87286.500000 1 0 0
8.962365 -7.567758 5.313269 12.877335 -0.701230 1.145483 0.000659 -0.003345 565302.000000 1 0 0
-5.525135 -4.228258 4.591869 8.336099 0.653207 0.987424 0.002532 0.000261 -1175770.000000 1 0 0
-0.102535 -12.497358 10.304069 16.197787 1.562592 0.881310 0.012976 -0.002630 -508998.000000 1 0 0
-14.248435 -8.281458 3.159669 16.780463 0.526495 1.381371 0.005205 -0.010558 -1183180.000000 1 0 0
11.032165 -1.443658 -3.533931 11.673966 -0.130120 1.878341 0.014579 -0.000881 -238843.000000 1 0 0
-13.572435 2.910442 2.808469 14.162244 -0.211239 1.371166 0.000505 0.000592 -549245.000000 1 0 0
-6.331035 6.190442 1.109869 8.923866 -0.774171 1.446103 0.000278 -0.001857 711730.000000 1 0 0
7.005865 -6.794058 -0.286031 9.763359 -0.770051 1.600097 0.000045 -0.003623 -1358600.000000 1 0 0
-6.953635 7.874342 10.030269 14.524621 -0.847411 0.808519 0.000125 -0.001315 339789.000000 1 0 0
-12.615935 -5.040458 -1.936331 13.722879 0.380102 1.712371 0.005752 -0.006266 -1175000.000000 1 0 0
-9.366335 -5.634058 0.244569 10.933007 0.541538 1.548425 0.003796 -0.002478 -856467.000000 1 0 0
-1.790035 1.973842 2.223869 3.470716 -0.834194 0.875319 0.005006 -0.000234 41767.300000 1 0 0
-7.042735 7.414942 7.532469 12.701164 -0.811137 0.935950 -0.000998 -0.001968 33469.000000 1 0 0
5.554065 7.158942 -0.460531 9.072496 0.910973 1.621579 0.003422 -0.001633 -1705830.000000 1 0 0
-0.055335 -4.018058 7.397569 8.418543 1.557026 0.497616 0.004960 0.000184 -750063.000000 1 0 0
6.300765 0.751842 13.069769 14.528722 0.118764 0.451986 -0.004110 0.002029 638219.000000 1 0 0
5.775165 6.182542 -7.839031 11.533723 0.819453 2.318098 0.001139 -0.002261 -73770.600000 1 0 0
10.060165 5.305342 9.118669 14.577507 0.485296 0.894986 0.005738 0.000293 -2380510.000000 1 0 0
-1.309535 -4.984458 -8.455531 9.902308 1.313879 2.594220 0.006638 -0.006938 876070.000000 1 0 0
10.000965 -3.522058 -7.926631 13.238416 -0.338608 2.212748 0.007172 -0.007020 490523.000000 1 0 0
8.419465 -5.335558 1.282369 10.049877 -0.564843 1.442847 0.004800 -0.003706 1200470.000000 1 0 0
15.746865 3.254342 -5.138531 16.880729 0.203797 1.880107 0.007941 0.004313 200963.000000 1 0 0
-6.899935 3.643142 1.120569 7.882719 -0.485793 1.428158 0.000801 -0.003268 337654.000000 1 0 0
-1.749435 3.955342 0.343469 4.338574 -1.154367 1.491547 0.004682 -0.002696 -1285320.000000 1 0 0
-2.614735 10.161042 6.882069 12.547769 -1.318931 0.990264 0.002778 0.000926 1200830.000000 1 0 0
5.491365 -5.685458 -8.712731 11.763979 -0.802762 2.404801 -0.000557 -0.004896 37816.100000 1 0 0
-1.187635 -0.937558 6.235469 6.416429 0.668264 0.238060 0.007439 0.000566 339504.000000 1 0 0
-5.583035 4.963642 -7.859131 10.843153 -0.726737 2.381542 -0.000454 -0.001294 -202293.000000 1 0 0
6.799565 -1.201558 2.549769 7.360648 -0.174905 1.217060 0.001354 0.001935 -915073.000000 1 0 0
8.838465 7.625042 3.150769 12.090785 0.711827 1.307160 0.009949 0.000063 -371424.000000 1 0 0
-5.263535 -4.807358 -7.724631 10.511204 0.740132 2.396308 0.011167 -0.008322 -791602.000000 1 0 0
-2.250535 7.837942 -10.077331 12.963443 -1.291185 2.461263 0.004150 -0.000930 253182.000000 1 0 0
-2.869735 -2.214658 1.637969 3.977817 0.657263 1.146394 0.000589 -0.000295 557939.000000 1 0 0
5.929565 -2.096558 -9.159731 11.111074 -0.339858 2.539900 0.003813 -0.003331 1411960.000000 1 0 0
1.162765 -7.512058 5.243369 9.234498 -1.417229 0.966963 0.000267 -0.001438 322362.000000 1 0 0
1.733065 11.842342 1.149469 12.023555 1.425483 1.475049 0.003713 -0.004503 260058.000000 1 0 0
-1.019335 7.119942 2.454369 7.599773 -1.428596 1.241948 0.001244 0.000778 441012.000000 1 0 0
8.774665 7.939942 -6.667731 13.582933 0.735500 2.083908 0.004067 -0.004412 -18422.100000 1 0 0
3.705165 -11.031858 5.499069 12.871281 -1.246773 1.129363 0.004154 -0.000734 -760053.000000 1 0 0
7.968165 -7.091258 12.415069 16.368003 -0.727234 0.709794 0.000816 -0.000841 512982.000000 1 0 0
-8.714435 0.024742 -3.932031 9.560484 -0.002839 1.994654 0.004228 -0.002724 -73838.800000 1 0 0
-3.126235 -5.134958 11.209369 12.719712 1.023921 0.492276 0.008116 -0.000775 1081390.000000 1 0 0
-8.274135 0.165842 -11.637031 14.279682 -0.020041 2.523416 0.004853 -0.009208 -2038350.000000 1 0 0
1.452865 -4.930158 5.307969 7.388627 -1.284219 0.769301 0.003903 -0.001245 -565530.000000 1 0 0
6.829165 3.826442 -7.649231 10.944857 0.510724 2.344638 0.001651 -0.001285 -882524.000000 1 0 0
16.302365 4.275542 -1.294931 16.903379 0.256489 1.647479 -0.000541 0.006393 -1338400.000000 1 0 0
7.873965 7.541142 -0.008831 10.902671 0.763811 1.571606 0.008331 -0.001888 -997237.000000 1 0 0
5.453465 -10.340658 14.027769 18.260552 -1.085485 0.694770 0.004216 -0.001234 -401662.000000 1 0 0
-5.179235 -9.209758 8.975369 13.863670 1.058510 0.866626 0.002111 -0.003102 431037.000000 1 0 0
-12.573135 -3.211258 2.896869 13.296155 0.250060 1.351162 0.003783 -0.004446 -332821.000000 1 0 0
-2.111635 -1.315958 -5.892831 6.396578 0.557299 2.742072 0.004906 -0.007337 -1417090.000000 1 0 0
-2.491635 12.870042 -4.386531 13.823454 -1.379563 1.893704 0.001717 -0.000668 697050.000000 1 0 0
3.862865 -0.470758 -4.973331 6.314852 -0.121269 2.477637 0.006688 -0.001724 64806.800000 1 0 0
-8.934635 3.725142 -7.436531 12.206817 -0.395018 2.225862 -0.000081 -0.002498 509548.000000 1 0 0
-4.600535 7.904842 -11.338231 14.567324 -1.043725 2.462803 0.000349 -0.000805 -3095240.000000 1 0 0
-10.189235 -6.453558 7.405469 14.153087 0.564596 1.020147 0.005894 -0.003222 -1474000.000000 1 0 0
8.062865 5.351342 4.128469 10.520975 0.585948 1.167553 0.001722 0.001408 -2788010.000000 1 0 0
-6.667035 -7.553258 3.961969 10.825814 0.847639 1.196117 0.008914 -0.000123 -1044830.000000 1 0 0
-4.195435 11.970342 8.043069 15.019379 -1.233689 1.005682 0.002915 -0.001638 -503045.000000 1 0 0
-7.308535 9.925742 -8.005031 14.697468 -0.936107 2.146773 -0.000831 -0.002873 -1607590.000000 1 0 0
13.099465 5.484742 4.580469 14.921765 0.396522 1.258793 0.009801 0.001901 138881.000000 1 0 0
5.380665 3.999642 -3.865831 7.739079 0.639223 2.093842 0.004067 0.000303 663087.000000 1 0 0
-2.896735 -4.248758 5.117569 7.254828 0.972401 0.787806 0.004132 0.000587 -2353490.000000 1 0 0
12.472765 -2.321958 -5.333831 13.762671 -0.184055 1.968777 0.008419 -0.004748 -1516010.000000 1 0 0
-5.283635 9.810842 7.005269 13.162189 -1.076786 1.009568 0.000973 0.001468 309326.000000 1 0 0
1.858265 3.739242 -0.475131 4.202479 1.109581 1.684098 -0.003642 -0.000858 300600.000000 1 0 0
-0.057235 9.734542 7.657369 12.385471 -1.564917 0.904277 0.002530 0.000756 -1011180.000000 1 0 0
-5.443535 2.118542 5.870069 8.281184 -0.371149 0.782938 0.004963 -0.000895 764260.000000 1 0 0
8.896465 0.935542 10.675769 13.928186 0.104774 0.697443 -0.000481 0.004780 -713995.000000 1 0 0
0.376165 -2.804058 -10.169731 10.555931 -1.437442 2.870258 0.005710 -0.006937 -1891270.000000 1 0 0
1.190665 10.664642 -2.868031 11.107560 1.459611 1.831960 0.005211 -0.005434 637784.000000 1 0 0
2.333665 -4.299258 11.651669 12.636890 -1.073493 0.397489 -0.001962 0.000938 311047.000000 1 0 0
6.667965 -3.035658 9.402769 11.920111 -0.427219 0.661917 -0.002394 0.004130 430667.000000 1 0 0
-10.629535 -8.195558 5.614269 14.549027 0.656817 1.174628 0.008563 -0.005049 -460321.000000 1 0 0
-2.995835 0.821942 -6.826831 7.500416 -0.267773 2.714548 0.008073 -0.008029 857907.000000 1 0 0
11.073265 2.591942 -5.078031 12.454789 0.229932 1.990749 0.004873 -0.000550 -3624630.000000 1 0 0
-2.075435 -4.029258 0.045769 4.532598 1.095149 1.560698 -0.000009 -0.002892 1002740.000000 1 0 0
-1.268035 -6.375258 -10.618231 12.449846 1.374459 2.592274 0.007207 -0.004256 453254.000000 1 0 0
0.272965 6.794642 -6.633231 9.499549 1.530644 2.343771 0.006875 -0.001805 -2435920.000000 1 0 0
2.017165 3.864542 -6.258631 7.627195 1.089730 2.533200 0.002790 -0.001590 -1359020.000000 1 0 0
1.589065 -14.674358 6.398869 16.087493 -1.462928 1.161728 0.011118 -0.002442 -356424.000000 1 0 0
-1.717335 5.330442 -10.612631 11.999617 -1.259122 2.656034 0.007898 -0.002694 -481776.000000 1 0 0
13.654965 4.406142 -0.835831 14.372570 0.312129 1.628984 0.005164 0.003132 728212.000000 1 0 0
-2.356735 3.308242 -6.293331 7.490306 -0.951808 2.568442 0.007628 -0.005664 -1450160.000000 1 0 0
5.613365 7.963942 14.083569 17.125454 0.956824 0.605221 0.005198 -0.003133 406683.000000 1 0 0
15.861365 0.653142 -5.583331 16.828044 0.041155 1.908994 0.004083 0.000050 -17680.300000 1 0 0
6.199865 -8.193058 10.573769 14.743443 -0.923007 0.771043 -0.004833 0.003283 753105.000000 1 0 0
-0.040335 -5.911258 -6.313631 8.649077 1.563973 2.389085 0.002359 -0.004313 165575.000000 1 0 0
8.766265 5.562942 -7.623631 12.880741 0.565462 2.204164 0.000952 0.000205 -214547.000000 1 0 0
-15.972435 -0.818958 5.356969 16.866727 0.051228 1.247593 0.017594 -0.009414 -345265.000000 1 0 0
-0.449335 3.976942 -12.413931 13.043146 -1.458288 2.829715 0.011508 -0.003841 533704.000000 1 0 0
-11.306035 3.605342 5.940169 13.270664 -0.308693 1.106698 0.001524 -0.003214 -716751.000000 1 0 0
5.048065 -9.780058 -9.588131 14.596737 -1.094305 2.287454 -0.013172 0.001360 -517598.000000 1 0 0
1.483465 11.076442 -11.843431 16.283584 1.437659 2.385210 -0.002279 -0.003138 -1846130.000000 1 0 0
6.050065 2.421342 1.178669 6.622344 0.380694 1.391859 0.003898 0.002846 88311.300000 1 0 0
5.631765 4.671242 4.806269 8.754285 0.692439 0.989606 -0.002489 0.000766 -425213.000000 1 0 0
0.461365 -1.641258 -6.341831 6.566994 -1.296764 2.878972 0.002906 -0.005060 891701.000000 1 0 0
12.788865 6.852042 -4.579731 15.214450 0.491862 1.876550 0.006572 -0.004606 -1364670.000000 1 0 0
7.372265 3.225142 12.689669 15.025962 0.412385 0.565135 -0.000735 0.001414 -561814.000000 1 0 0
-2.416635 -0.124758 8.596169 8.930275 0.051579 0.274403 0.003561 0.001788 979329.000000 1 0 0
2.263665 -15.398958 13.202769 20.409928 -1.424840 0.867311 0.012815 0.003346 -229291.000000 1 0 0
18.894465 4.632642 -1.859531 19.542775 0.240442 1.666092 0.006941 0.007947 1425530.000000 1 0 0
-0.409335 -13.231558 7.247469 15.091967 1.539870 1.069890 0.003180 0.000793 -1351300.000000 1 0 0
4.421765 1.682742 -0.687131 4.780772 0.363635 1.715024 0.001289 0.000566 681766.000000 1 0 0
2.775665 -0.487558 -7.425831 7.942606 -0.173880 2.778876 0.004745 -0.003901 34571.900000 1 0 0
7.229065 -11.364958 0.956869 13.503231 -1.004266 1.499875 -0.003252 -0.002118 426479.000000 1 0 0
-11.860635 -7.367158 1.291469 14.022039 0.555821 1.478563 0.007343 -0.001730 86985.900000 1 0 0
0.166365 -7.058558 9.951869 12.202074 -1.547231 0.617051 0.002455 -0.001559 -3014570.000000 1 0 0
-4.713235 -7.219258 10.681469 13.726837 0.992406 0.679089 0.007754 0.001224 -644540.000000 1 0 0
11.815965 0.718842 -1.626631 11.949046 0.060762 1.707351 0.007334 0.000048 1225430.000000 1 0 0
6.430465 -9.601758 -7.384131 13.713862 -0.980685 2.139384 -0.004790 -0.003284 -883948.000000 1 0 0
-10.921535 4.959642 3.733769 12.562604 -0.426271 1.269024 -0.002286 -0.001371 -241443.000000 1 0 0
5.989965 -9.128758 2.077769 11.114451 -0.990100 1.382747 -0.004474 -0.004227 1440770.000000 1 0 0
11.646865 -1.317758 5.852869 13.101222 -0.112664 1.107676 0.006825 -0.002476 -83600.100000 1 0 0
-6.424835 3.688442 4.185769 8.509041 -0.521151 1.056502 0.002546 -0.002935 -1857780.000000 1 0 0
9.446965 6.298542 -3.224031 11.803015 0.588044 1.847466 0.006840 0.001129 -166402.000000 1 0 0
-2.367535 6.643242 10.898869 12.981650 -1.228447 0.574324 -0.001227 -0.001782 13784.300000 1 0 0
1.954065 9.865642 2.933569 10.476407 1.375259 1.286985 0.000714 -0.002187 146435.000000 1 0 0
2.897965 6.173442 -5.702131 8.889538 1.131907 2.267174 0.002199 -0.001429 -2037480.000000 1 0 0
11.776865 0.097642 -5.620931 13.049864 0.008291 2.016095 0.006481 -0.000880 241580.000000 1 0 0
-2.690435 -12.456158 6.307869 14.219125 1.358072 1.111164 0.002110 0.000367 -194365.000000 1 0 0
10.885965 1.868042 -2.749731 11.382216 0.169946 1.814791 0.008749 -0.000574 669588.000000 1 0 0
-8.929635 5.356842 0.868369 10.449316 -0.540342 1.487597 -0.000573 -0.001726 431851.000000 1 0 0
1.238465 -10.076358 5.587669 11.588305 -1.448502 1.067653 0.001694 -0.003774 -555384.000000 1 0 0
9.295365 -5.856058 -1.199431 11.051509 -0.562185 1.679542 0.007953 -0.004251 1044790.000000 1 0 0
-7.845235 8.508342 -4.401931 12.382108 -0.825924 1.934253 -0.001710 0.000336 -387419.000000 1 0 0
-7.405135 -0.000058 -1.579431 7.571699 0.000008 1.780936 0.002190 -0.001183 -1991130.000000 1 0 0
4.155765 8.850842 2.741969 10.155107 1.131818 1.297394 0.005639 -0.002623 758865.000000 1 0 0
-1.381335 -10.404158 -3.702531 11.129390 1.438801 1.909941 0.004007 -0.001564 -559622.000000 1 0 0
3.109965 7.957742 -3.734431 9.324351 1.198237 1.982862 0.007964 -0.005124 -440012.000000 1 0 0
-4.330635 1.586742 -11.101031 12.021025 -0.351209 2.747819 0.006716 -0.006811 -541183.000000 1 0 0
1.310265 2.822842 10.940569 11.374589 1.136225 0.277136 0.004462 -0.003221 803850.000000 1 0 0
2.135665 5.497042 -8.122731 10.037794 1.200233 2.513611 0.004024 -0.000284 672492.000000 1 0 0
15.546865 6.105342 3.976969 17.169639 0.374202 1.337045 0.011851 -0.000681 504502.000000 1 0 0
-4.499035 9.162442 4.571069 11.184200 -1.114350 1.149759 0.003514 0.001225 -746094.000000 1 0 0
-0.974635 -8.198158 -12.404131 14.900408 1.452467 2.554346 0.002892 -0.002511 -409654.000000 1 0 0
14.299865 -4.234958 -5.184531 15.789248 -0.287924 1.905361 0.020504 -0.000931 38062.500000 1 0 0
-6.054135 -6.205958 -5.758931 10.408254 0.797781 2.157122 0.012791 -0.005647 574684.000000 1 0 0
-8.963835 2.546742 -12.355831 15.475878 -0.276819 2.495418 -0.000680 -0.006404 164947.000000 1 0 0
10.470465 5.302342 13.908369 18.198577 0.468762 0.700910 0.017863 0.000180 636081.000000 1 0 0
-0.477335 11.059642 5.464369 12.345156 -1.527663 1.112264 0.002123 0.002901 620176.000000 1 0 0
0.483965 11.121942 -0.693231 11.154030 1.527309 1.632987 0.003899 -0.004612 -180800.000000 1 0 0
-1.432535 -0.568458 3.631169 3.944704 0.377761 0.401393 0.004663 0.000421 354789.000000 1 0 0
-4.823735 6.743042 8.893469 12.158570 -0.949833 0.750340 0.000372 0.000658 -867926.000000 1 0 0
3.411265 -8.769858 -11.324531 14.723863 -1.199829 2.448272 -0.012970 0.002122 447556.000000 1 0 0
6.721965 -3.779858 12.033669 14.292702 -0.512248 0.569918 0.000287 0.003838 -547571.000000 1 0 0
-2.572335 -1.845458 -12.520931 12.914966 0.622325 2.893938 0.008019 -0.010620 864085.000000 1 0 0
-16.065435 -5.026958 5.493769 17.707343 0.303254 1.255336 0.028852 -0.013098 1485750.000000 1 0 0
-8.912035 7.267242 5.822469 12.889466 -0.684086 1.102101 -0.003293 0.000336 -3436370.000000 1 0 0
-12.899335 1.513342 6.041569 14.324231 -0.116786 1.135397 0.004846 -0.006030 363103.000000 1 0 0
-3.533635 3.631442 10.202869 11.391773 -0.799048 0.460940 0.001714 0.000037 555984.000000 1 0 0
2.002165 -12.228458 -1.100131 12.440021 -1.408506 1.659347 -0.003888 -0.002200 -3558770.000000 1 0 0
10.252465 -5.068458 -3.615731 11.994824 -0.459129 1.877000 0.010818 -0.001363 682968.000000 1 0 0
3.047665 -13.362858 0.986269 13.741432 -1.346562 1.498961 -0.001548 -0.001271 448493.000000 1 0 0
9.971965 -1.754158 -5.955731 11.746825 -0.174127 2.102506 0.011182 -0.002963 137519.000000 1 0 0
11.900465 -5.443358 -1.564231 13.179455 -0.428997 1.689764 0.012226 -0.002424 527994.000000 1 0 0
1.477365 0.939242 5.956569 6.208502 0.566296 0.285854 0.004827 -0.000387 429780.000000 1 0 0
-10.819135 11.605742 6.557469 17.168207 -0.820461 1.178886 0.000437 -0.006792 223537.000000 1 0 0
4.711465 -14.063558 3.061169 15.144382 -1.247535 1.367262 0.002024 -0.004484 -3525000.000000 1 0 0
5.160865 -3.288058 -1.666631 6.342201 -0.567263 1.836703 0.007167 -0.004457 -1328810.000000 1 0 0
2.094565 -2.875158 -7.779031 8.553775 -0.941195 2.712700 0.001051 -0.004343 42894.600000 1 0 0
-2.728235 14.813942 -8.855431 17.473260 -1.388670 2.102264 0.007137 -0.003825 -1472870.000000 1 0 0
-2.342935 6.014042 -8.146931 10.393774 -1.199307 2.471603 0.007103 -0.003211 -560573.000000 1 0 0
2.606265 -3.546958 -11.367731 12.190112 -0.937102 2.772173 0.002187 -0.002632 -750068.000000 1 0 0
14.650565 2.850042 -2.707331 15.168765 0.192135 1.750238 0.007460 0.002212 403373.000000 1 0 0
-3.545735 13.367942 2.131569 13.993488 -1.311525 1.417875 -0.001289 0.001957 -1064930.000000 1 0 0
7.863165 -4.962258 14.043069 16.842243 -0.562957 0.584840 -0.004666 0.003052 -875913.000000 1 0 0
-11.501635 7.295842 2.804869 13.906265 -0.565281 1.367705 -0.005000 -0.000682 1379430.000000 1 0 0
-2.405335 11.887342 3.853369 12.725683 -1.371148 1.263164 -0.000232 0.002507 1121930.000000 1 0 0
1.816765 1.414942 0.610169 2.382227 0.661696 1.311776 -0.001763 0.000645 -1611990.000000 1 0 0
-6.894035 8.648342 5.301369 12.264830 -0.897795 1.123819 -0.000146 -0.003543 -908910.000000 1 0 0
-1.190235 9.210742 0.872969 9.328264 -1.442286 1.477076 0.001854 -0.000926 150786.000000 1 0 0
4.915265 12.927542 -8.530731 16.249756 1.207460 2.123483 0.003471 -0.010517 -3736790.000000 1 0 0
8.929465 6.878942 7.183669 13.366387 0.656407 1.003394 0.005388 0.000294 -1685940.000000 1 0 0
7.127165 -13.732158 2.977769 15.755499 -1.092054 1.380654 0.013205 -0.008779 -163568.000000 1 0 0
4.146465 -13.398758 -1.255931 14.081805 -1.270678 1.660103 -0.007600 0.002546 -3486140.000000 1 0 0
12.085265 -11.866958 -4.701631 17.577931 -0.776284 1.841566 0.023576 -0.004517 -1092740.000000 1 0 0
2.969065 0.038542 -2.104831 3.639663 0.012981 2.187444 0.003589 -0.001003 874361.000000 1 0 0
-13.656235 -3.093558 -10.682731 17.612030 0.222771 2.222521 0.011843 -0.007186 443494.000000 1 0 0
-6.626235 13.764642 4.951169 16.058843 -1.122143 1.257376 0.006979 -0.002861 798466.000000 1 0 0
7.259965 -4.279858 -0.668031 8.454025 -0.532674 1.649898 0.003350 -0.002577 -167816.000000 1 0 0
11.895565 2.151142 -7.184531 14.062339 0.178902 2.107035 0.007926 -0.001713 -98245.900000 1 0 0
-7.441635 -4.547758 9.722369 13.060800 0.548558 0.731171 0.007997 0.001486 483870.000000 1 0 0
1.075665 2.921142 8.451169 9.006241 1.217970 0.352918 0.003217 -0.000984 -1937170.000000 1 0 0
1.624165 7.981842 -8.792431 11.985598 1.370054 2.394376 0.005646 -0.003427 187766.000000 1 0 0
-8.637735 -2.043458 -5.587831 10.488567 0.232302 2.132648 0.007213 -0.003535 1022320.000000 1 0 0
6.750065 -0.443458 7.235969 9.905518 -0.065603 0.751744 0.000850 0.000544 365067.000000 1 0 0
-10.929035 6.427442 7.108469 14.535686 -0.531629 1.059812 0.001285 -0.001484 689760.000000 1 0 0
-6.041135 11.152042 4.929769 13.607571 -1.074343 1.200082 -0.000752 -0.000383 -75744.000000 1 0 0
6.118465 -1.145358 -6.906931 9.298019 -0.185055 2.408097 0.004746 -0.003328 -323196.000000 1 0 0
4.546165 -5.740658 11.405769 13.554126 -0.900999 0.570746 -0.002884 0.001112 -1570450.000000 1 0 0
-9.025635 -7.410258 2.720669 11.990665 0.687429 1.341904 0.006230 -0.001673 -1701070.000000 1 0 0
-1.166835 12.744342 -9.447431 15.907034 -1.479494 2.206713 0.007073 -0.000110 681584.000000 1 0 0
-4.732335 9.307542 -2.409231 10.715864 -1.100419 1.797563 0.000417 -0.001834 84038.800000 1 0 0
-3.302435 9.673542 -0.306831 10.226321 -1.241814 1.600805 0.003146 -0.004215 -2692160.000000 1 0 0
-3.433635 10.769842 -6.505331 13.042189 -1.262165 2.093000 0.001207 -0.001528 894173.000000 1 0 0
4.736865 -4.799958 0.358769 6.753236 -0.792014 1.517646 0.001386 -0.002791 -840064.000000 1 0 0
-2.186035 2.805242 -10.905531 11.470778 -0.908825 2.826356 0.009821 -0.004569 -634157.000000 1 0 0
-3.659135 12.130342 -2.215231 12.862415 -1.277825 1.743884 0.000890 -0.000313 -1037790.000000 1 0 0
-0.213435 0.433942 0.076569 0.489616 -1.113689 1.413766 -0.000463 -0.000550 -1696490.000000 1 0 0
-4.893035 -1.606058 0.098569 5.150818 0.317154 1.551659 -0.003334 -0.000913 282660.000000 1 0 0
2.547665 2.579542 -2.554131 4.434887 0.791615 2.184523 -0.003800 0.000168 141372.000000 1 0 0
6.078365 -9.588558 8.489069 14.175727 -1.005809 0.928738 -0.000277 -0.000441 -318026.000000 1 0 0
-4.252035 -5.492958 6.568469 9.560187 0.912056 0.813355 0.004548 -0.001246 96950.600000 1 0 0
-6.267335 5.275342 -12.093231 14.606675 -0.699668 2.546194 -0.004683 -0.003300 1317460.000000 1 0 0
-12.920935 3.065042 8.014369 15.510485 -0.232910 1.027797 0.006129 -0.005762 594261.000000 1 0 0
4.777165 -7.401658 -4.845531 10.054104 -0.997649 2.073670 -0.003159 -0.005389 2494990.000000 1 0 0
-5.888735 2.464542 -1.103731 6.478379 -0.396368 1.742003 0.002637 -0.003292 -964126.000000 1 0 0
-6.970035 -2.838258 -14.617431 16.440997 0.386705 2.666137 0.008902 -0.006997 119308.000000 1 0 0
2.731965 -6.088858 0.954469 6.741575 -1.149038 1.428740 0.003191 -0.002888 -551339.000000 1 0 0
4.910065 -7.858758 13.081369 16.030939 -1.012349 0.616326 -0.002588 -0.002362 -105415.000000 1 0 0
-10.049135 -1.682158 8.057969 12.990213 0.165856 0.901657 0.005159 -0.001565 168735.000000 1 0 0
-4.587135 13.370542 -0.120631 14.136045 -1.240302 1.579330 0.001817 0.001661 608422.000000 1 0 0
6.787665 2.248442 -4.590831 8.497271 0.319878 2.141556 0.003281 -0.000250 -1718870.000000 1 0 0
5.001065 4.559542 0.108569 6.768446 0.739250 1.554755 -0.000293 0.001458 -1369650.000000 1 0 0
-5.911935 12.404742 1.926069 13.875819 -1.126054 1.431539 0.000074 0.002652 -869193.000000 1 0 0
6.603865 -7.252458 6.709769 11.884030 -0.832172 0.970843 -0.002961 -0.001871 -1718460.000000 1 0 0
-0.290835 5.020242 7.851869 9.324123 -1.512929 0.569626 0.002335 -0.000989 -1079700.000000 1 0 0
-5.843635 -3.393758 -1.567431 6.937038 0.526153 1.798716 -0.000338 -0.002707 -766184.000000 1 0 0
2.326665 -6.430058 -5.076031 8.516167 -1.223611 2.209365 -0.002603 -0.002150 -381898.000000 1 0 0
-14.463635 -4.852058 -3.700631 15.698212 0.323669 1.808772 0.002894 -0.006379 267266.000000 1 0 0
-12.393635 -5.123858 -6.291931 14.813659 0.392027 2.009469 0.005948 -0.007112 -1380720.000000 1 0 0
-14.784935 -3.771858 -1.261431 15.310533 0.249787 1.653280 0.002736 -0.006251 291444.000000 1 0 0
11.877665 2.907342 8.809069 15.070875 0.240054 0.946521 0.013424 0.001609 -1820820.000000 1 0 0
8.813265 -6.480258 7.688469 13.370861 -0.634017 0.958172 0.000653 -0.002179 -94512.200000 1 0 0
-8.848835 -1.709058 -9.717431 13.253348 0.190790 2.393821 0.003831 -0.007511 -79122.700000 1 0 0
-8.829835 5.139542 -3.906031 10.937914 -0.527128 1.935968 0.001592 -0.001387 -1211600.000000 1 0 0
-4.200135 -6.245358 4.076069 8.559203 0.978752 1.074445 0.002752 -0.001116 -1258020.000000 1 0 0
-0.079035 -9.291458 3.568469 9.953462 1.562290 1.204119 0.002029 -0.004314 1132730.000000 1 0 0
7.869665 -10.380058 3.377869 13.456865 -0.922098 1.317068 0.000145 -0.006414 1037110.000000 1 0 0
-0.038335 6.616742 9.621069 11.676803 -1.565003 0.602455 0.002426 -0.003937 321302.000000 1 0 0
0.010265 3.519142 -9.881431 10.489383 1.567879 2.799460 0.009723 -0.004860 -894982.000000 1 0 0
4.545865 -3.124858 10.965869 12.275174 -0.602224 0.466079 -0.000365 0.001616 -1921320.000000 1 0 0
8.556365 -9.246858 1.303769 12.665527 -0.824163 1.467675 -0.000506 -0.003470 -1735550.000000 1 0 0
-0.278635 -0.225858 11.343069 11.348738 0.681162 0.031610 0.005099 0.001529 -1410850.000000 1 0 0
10.983465 6.049242 11.501769 17.015303 0.503426 0.828521 0.023940 0.001885 81289.000000 1 0 0
-6.426935 -3.004458 -11.903531 13.857356 0.437294 2.604118 0.006306 -0.008177 821342.000000 1 0 0
-1.626035 2.893142 8.487069 9.112881 -1.058763 0.372758 0.006468 -0.001361 1923320.000000 1 0 0
-1.669735 13.389842 -6.872831 15.143041 -1.446735 2.041890 0.004422 -0.002310 324300.000000 1 0 0
7.750465 3.166742 9.833769 12.915145 0.387887 0.705305 -0.002926 0.001286 275126.000000 1 0 0
6.497165 8.477942 -7.943731 13.311331 0.916906 2.210259 0.002490 -0.002942 699671.000000 1 0 0
6.554465 -3.008758 -3.980331 8.237516 -0.430346 2.075097 0.009632 -0.004148 -2060210.000000 1 0 0
2.067465 8.174142 0.959469 8.485965 1.323064 1.457489 0.002307 -0.001914 713628.000000 1 0 0
-17.656435 6.230442 6.281169 19.748954 -0.339230 1.247124 0.023596 -0.003547 -625824.000000 1 0 0
-14.475035 3.061242 -10.303931 18.029666 -0.208413 2.179127 0.008804 -0.001609 -1505380.000000 1 0 0
-18.208735 0.044442 -4.349131 18.720976 -0.002441 1.805252 0.023578 -0.011549 -435254.000000 1 0 0
-12.961735 8.188042 0.064769 15.331497 -0.563409 1.566572 0.000492 0.004380 81967.200000 1 0 0
-12.599935 -4.396258 -12.691831 18.416515 0.335704 2.331118 0.014111 -0.003260 -3714.170000 1 0 0
-17.369435 -0.697258 -8.831431 19.498144 0.040121 2.040853 0.014523 -0.010408 385085.000000 1 0 0
-16.689535 -2.118958 -2.025531 16.945009 0.126288 1.690618 0.012527 -0.009465 -1338630.000000 1 0 0
-15.331935 3.871542 1.774569 15.912453 -0.247344 1.459043 0.008219 0.002018 -1293360.000000 1 0 0
-13.147635 5.892442 4.435169 15.074877 -0.421335 1.272168 0.000452 -0.001734 -453305.000000 1 0 0
-10.043535 14.256742 2.714269 17.649208 -0.957073 1.416394 0.019550 -0.003868 -44810.500000 1 0 0
-11.934735 2.401642 -6.467831 13.785450 -0.198579 2.059156 0.002661 0.000157 727042.000000 1 0 0
-15.899935 10.678642 3.895669 19.545270 -0.591421 1.370137 0.012907 -0.004151 619995.000000 1 0 0
-12.773335 1.082142 -8.610031 15.442207 -0.084517 2.162246 0.002333 -0.003870 401739.000000 1 0 0
-12.267635 14.348042 4.000969 19.296864 -0.863404 1.361944 0.015789 -0.010052 -1119610.000000 1 0 0
-10.426335 11.332142 -1.026831 15.433091 -0.827004 1.637380 0.006093 0.001241 -361760.000000 1 0 0
-17.286735 5.629442 8.859069 20.223870 -0.314821 1.117368 0.026211 -0.005594 88952.900000 1 0 0
-11.670135 12.458142 -9.060031 19.325670 -0.818046 2.058737 0.006889 -0.007548 -1174650.000000 1 0 0
-17.227235 -0.551758 3.141169 17.519960 0.032017 1.390531 0.025780 -0.009680 868241.000000 1 0 0
-13.471035 14.862842 -0.596131 20.068090 -0.834480 1.600506 0.051079 -0.013068 88914.600000 1 0 0
-16.505635 4.566342 -10.501431 20.088990 -0.269903 2.120865 0.032970 -0.001645 588002.000000 1 0 0
-11.851035 7.495942 -8.956631 16.639033 -0.563984 2.139203 -0.004954 0.002149 -120158.000000 1 0 0
-14.895935 13.297642 -2.120231 20.080128 -0.728769 1.676582 0.041233 -0.023059 481990.000000 1 0 0
-11.869335 10.468342 -5.560831 16.774688 -0.722761 1.908691 0.012655 -0.007264 1208760.000000 1 0 0
-17.748135 2.935842 -0.744431 18.004712 -0.163932 1.612155 0.017630 -0.000572 6770.690000 1 0 0
-9.454735 15.479442 0.516269 18.145845 -1.022479 1.542341 0.026520 -0.007062 138116.000000 1 0 0
-8.160035 13.218942 -3.758831 15.982973 -1.017754 1.808197 0.006703 -0.004046 -808010.000000 1 0 0
-17.916335 11.460642 2.308869 21.393276 -0.569083 1.462661 0.057535 0.003637 -159951.000000 1 0 0
-8.056035 15.696942 -7.429631 19.144010 -1.096626 1.969356 0.030346 -0.018881 74555.700000 1 0 0
-6.199835 15.310942 -5.510631 17.413500 -1.186049 1.892789 0.007270 -0.005332 440255.000000 1 0 0
-17.364535 5.345342 -0.183231 18.169572 -0.298626 1.580881 0.025809 0.006685 1011330.000000 1 0 0
-5.415535 12.319742 -12.309631 18.238177 -1.156640 2.311676 0.003754 -0.001784 29878.800000 1 0 0
-11.248735 3.502942 -11.525031 16.481231 -0.301889 2.345189 0.005959 -0.006039 71741.500000 1 0 0
-11.931135 11.053342 1.171869 16.306491 -0.747226 1.498869 0.008248 0.000826 375109.000000 1 0 0
-12.897135 0.109842 -11.056031 16.987760 -0.008517 2.279465 0.001726 -0.008045 -12401.400000 1 0 0
-14.044835 -2.256158 -13.176431 19.389842 0.159279 2.317950 0.009130 -0.002792 85761.600000 1 0 0
-18.758435 -2.290158 -3.582731 19.234336 0.121486 1.758158 0.019266 -0.009183 381805.000000 1 0 0
-18.416035 4.841842 -5.025131 19.693799 -0.257096 1.828813 0.037054 -0.002677 254675.000000 1 0 0
-8.196835 15.451842 -2.359631 17.649799 -1.083066 1.704889 0.022261 -0.008657 -81183.500000 1 0 0
-16.063835 9.181542 -5.416231 19.279084 -0.519250 1.855568 0.020085 -0.001519 -124155.000000 1 0 0
-18.341235 1.663942 2.179569 18.545084 -0.090474 1.452996 0.031843 -0.007902 343986.000000 1 0 0
-15.636035 -2.681458 -8.581031 18.036349 0.169840 2.066628 0.001384 -0.008375 -1018750.000000 1 0 0
-9.622935 10.390442 -7.178531 15.877452 -0.823729 2.039938 0.001440 -0.007504 -50187.700000 1 0 0
-13.945835 11.883642 -7.748631 19.893430 -0.705728 1.970893 0.021123 -0.013300 254312.000000 1 0 0
-11.126535 6.463242 -3.863231 13.434948 -0.526246 1.862465 -0.003223 0.001855 -2139680.000000 1 0 0
-13.064035 4.913942 -12.591131 18.797671 -0.359772 2.304768 0.013988 -0.007534 -1016280.000000 1 0 0
-17.584335 9.005542 2.659469 19.934428 -0.473308 1.436987 0.025913 -0.004099 939186.000000 1 0 0
-13.289035 8.538642 -6.545131 17.098117 -0.571108 1.963620 -0.000545 -0.002460 -429743.000000 1 0 0
-15.911435 6.881542 -3.869831 17.762460 -0.408198 1.790423 0.015070 0.003335 -500375.000000 1 0 0
-14.823535 -0.304558 -9.234331 17.467193 0.020543 2.127826 0.008261 -0.010818 -243420.000000 1 0 0
-9.970335 5.783942 -6.102331 13.042240 -0.525670 2.057698 -0.002489 0.001804 563881.000000 1 0 0
-12.744235 12.324842 -1.028031 17.758776 -0.768670 1.628717 0.021231 -0.004575 -1019460.000000 1 0 0
-10.763435 3.280642 -14.088131 18.030241 -0.295850 2.467640 0.003226 -0.000764 347223.000000 1 0 0
-10.860335 6.108142 -11.922831 17.245584 -0.512334 2.334160 -0.010433 -0.000503 -739575.000000 1 0 0
-5.695335 11.504042 -14.766631 19.566125 -1.111098 2.425999 0.004913 -0.013012 -140289.000000 1 0 0
-15.674135 13.303642 3.308669 20.823369 -0.703776 1.411228 0.017263 -0.009016 109310.000000 1 0 0
-15.131635 10.997742 -3.293931 18.993860 -0.628490 1.745098 0.030149 -0.006663 705770.000000 1 0 0
-18.109135 7.821742 -4.833431 20.309665 -0.407719 1.811089 0.028129 -0.000528 -1869610.000000 1 0 0
-3.944635 16.169842 -10.636231 19.752300 -1.331520 2.139429 0.020210 -0.005886 163003.000000 1 0 0
-15.829535 4.321842 -4.556831 17.029892 -0.266528 1.841675 0.011136 0.000606 527972.000000 1 0 0
-18.580735 -1.756358 -6.177631 19.659390 0.094246 1.890445 0.016462 -0.009899 168344.000000 1 0 0
-10.679135 8.501742 -5.733531 14.805301 -0.672363 1.968456 -0.003406 0.000234 1295020.000000 1 0 0
-11.112035 13.448642 -6.667531 18.676169 -0.880249 1.935859 0.014665 -0.011330 309969.000000 1 0 0
-9.502535 10.459142 -4.469931 14.821340 -0.833284 1.877154 -0.003965 -0.000432 -206249.000000 1 0 0
-11.037235 6.406242 -0.213931 12.763474 -0.525899 1.587558 -0.001001 0.002891 -863001.000000 1 0 0
-14.720635 9.204442 -1.523931 17.428173 -0.558797 1.658349 0.022922 0.002278 607681.000000 1 0 0
-18.706335 3.332042 4.695369 19.572327 -0.176275 1.328535 0.033041 -0.003390 503189.000000 1 0 0
-14.885535 12.987042 0.436869 19.759385 -0.717390 1.548685 0.021987 -0.011476 368374.000000 1 0 0
-16.673635 2.307242 -9.149531 19.158481 -0.137503 2.068684 0.012309 -0.003019 462850.000000 1 0 0
-9.121935 8.369842 -9.044731 15.332029 -0.742428 2.201761 -0.003780 0.002140 -2147310.000000 1 0 0
-17.503035 4.790842 -2.649331 18.339230 -0.267171 1.715766 0.004766 0.001979 454098.000000 1 0 0
-13.601535 5.786142 -4.351731 15.408399 -0.402212 1.857118 0.003235 0.003791 1078350.000000 1 0 0
-12.163935 9.670742 3.412569 15.910066 -0.671706 1.354625 -0.004652 -0.000537 995849.000000 1 0 0
-17.677435 2.537242 -3.915131 18.282712 -0.142556 1.786612 0.023350 -0.002298 834563.000000 1 0 0
-11.309135 1.288242 -12.671431 17.032947 -0.113423 2.409738 0.005874 -0.002811 87398.800000 1 0 0
-11.124535 12.059942 3.358069 16.747362 -0.825723 1.368914 0.002379 -0.003720 -65244.900000 1 0 0
-16.315835 13.122842 -4.245831 21.364516 -0.677358 1.770861 0.031914 -0.013901 423206.000000 1 0 0
-11.026035 4.086242 -4.645031 12.643067 -0.354907 1.947006 -0.000839 0.000602 -142345.000000 1 0 0
-11.289235 14.905542 -8.788231 20.660470 -0.922586 2.010161 0.031218 -0.013209 406864.000000 1 0 0
-15.268035 7.046742 -0.243131 16.817508 -0.432405 1.585254 0.011743 0.005922 -262642.000000 1 0 0
-12.763835 8.331542 -4.029031 15.765886 -0.578303 1.829217 0.005430 0.000453 891695.000000 1 0 0
-19.161635 1.978042 -5.987231 20.172453 -0.102865 1.872139 0.030579 -0.006383 -393279.000000 1 0 0
-12.544135 10.005542 -8.877731 18.337947 -0.673292 2.076151 0.004502 -0.006800 532221.000000 1 0 0
-16.636135 10.929642 -1.123931 19.936933 -0.581268 1.627201 0.021865 -0.001533 77200.300000 1 0 0
-10.653435 6.300742 -14.620431 19.155992 -0.534093 2.439094 0.001783 -0.008212 -323105.000000 1 0 0
-13.655035 12.835442 -4.440931 19.259554 -0.754469 1.803473 0.022764 -0.013285 1265830.000000 1 0 0
-17.856335 7.819942 -0.209931 19.494724 -0.412777 1.581565 0.027986 0.004163 751522.000000 1 0 0
-12.704735 6.647842 -1.982431 14.475294 -0.482080 1.708181 -0.000513 0.002948 -48853.600000 1 0 0
-13.753835 8.419842 -10.542531 19.266725 -0.549328 2.149798 0.008602 -0.004553 -867273.000000 1 0 0
-14.992935 1.359342 -0.910731 15.081954 -0.090418 1.631219 0.004251 0.000791 -774931.000000 1 0 0
-13.422035 2.803842 -2.406531 13.921349 -0.205937 1.744535 0.000989 0.001426 436954.000000 1 0 0
-11.294835 9.263542 -10.919931 18.238186 -0.686912 2.212723 -0.001069 0.001082 -114639.000000 1 0 0
-15.304535 4.196742 -8.090331 17.812773 -0.267637 2.042256 0.008233 -0.000985 687204.000000 1 0 0
-18.377535 10.501242 4.703669 21.682583 -0.519138 1.352125 0.045775 -0.016582 474662.000000 1 0 0
-15.392435 6.139542 -6.363231 17.751387 -0.379530 1.937418 0.013288 0.001618 601719.000000 1 0 0
-7.708835 11.246842 -13.129931 18.929149 -0.969921 2.337320 -0.007107 0.005492 -465678.000000 1 0 0
-16.954035 9.179342 -3.026831 19.515669 -0.496236 1.726522 0.026224 0.002892 875434.000000 1 0 0
-20.593935 -0.872258 -4.791131 21.161898 0.042330 1.799180 0.030023 -0.015211 165812.000000 1 0 0
-15.404135 4.366942 4.239869 16.563033 -0.276243 1.311931 0.010024 0.000891 -123795.000000 1 0 0
-6.949935 12.601442 -9.562131 17.278087 -1.066788 2.157268 0.008318 -0.002848 -1345100.000000 1 0 0
-17.084035 1.581542 5.872969 18.134423 -0.092311 1.240992 0.013944 -0.006041 226574.000000 1 0 0
-10.434835 14.400742 -3.090731 18.050479 -0.943748 1.742871 0.028333 -0.013470 -37152.900000 1 0 0
-9.997135 8.295242 -13.008931 18.384397 -0.692627 2.356902 -0.013002 -0.000836 947050.000000 1 0 0
-13.738135 11.674442 2.856769 18.253495 -0.704368 1.413645 0.008247 -0.004111 -905391.000000 1 0 0
-16.664235 6.736642 1.916969 18.076334 -0.384171 1.464548 0.014430 0.005965 876042.000000 1 0 0
-9.286135 13.277642 -8.494831 18.294542 -0.960486 2.053682 0.018984 -0.011157 -699932.000000 1 0 0
-5.587735 9.702142 -13.010031 17.164360 -1.048265 2.430988 0.002083 -0.000249 -737549.000000 1 0 0
-15.953335 1.821742 3.273769 16.387349 -0.113699 1.369669 0.011095 -0.000128 -334639.000000 1 0 0
-18.672635 -4.895058 4.596969 19.843412 0.256382 1.337010 0.046839 -0.013144 1597020.000000 1 0 0
-5.258335 14.481042 -9.110731 17.898494 -1.222483 2.104845 0.007699 -0.005541 -291513.000000 1 0 0
-15.622435 -0.792158 -6.784731 17.050530 0.050663 1.980044 0.016663 -0.006562 881343.000000 1 0 0
-8.978835 10.988242 -9.557031 17.108413 -0.885697 2.163512 0.001957 -0.003332 256430.000000 1 0 0
-16.690835 1.403342 -6.050931 17.809186 -0.083881 1.917463 0.008114 -0.003065 -625592.000000 1 0 0
-11.137235 8.774342 -1.601331 14.268544 -0.667281 1.683261 0.000814 0.000355 -1100440.000000 1 0 0
-10.764035 10.831142 -12.996831 20.052324 -0.788506 2.275943 0.004059 0.004955 -172960.000000 1 0 0
-13.794735 11.651342 -10.331231 20.803433 -0.701364 2.090487 0.021276 -0.005413 -565040.000000 1 0 0
-13.180835 5.551842 -7.719431 16.252599 -0.398652 2.065722 0.003183 0.002694 -1225700.000000 1 0 0
-8.849435 15.336642 -4.966531 18.389985 -1.047451 1.844259 0.019887 -0.014785 907953.000000 1 0 0
-8.567035 6.112642 -13.052531 16.766844 -0.619734 2.463025 -0.012711 -0.000273 -1441830.000000 1 0 0
-16.366335 7.537142 4.374169 18.541812 -0.431574 1.332643 0.021774 0.003130 -42442.900000 1 0 0
-12.604735 5.343542 -10.178531 17.059756 -0.400965 2.210104 0.002254 -0.001072 258465.000000 1 0 0
-12.502935 9.028242 -13.286931 20.356205 -0.625398 2.281967 0.025433 -0.006675 -1384900.000000 1 0 0
-10.804335 5.095442 -8.483131 14.651304 -0.440680 2.188300 -0.004283 0.000460 -557919.000000 1 0 0
-17.671935 -4.413758 -2.584931 18.397294 0.244754 1.711769 0.003626 -0.009073 287219.000000 1 0 0
-8.943235 13.118042 -11.045331 19.340730 -0.972423 2.178632 0.021063 -0.006629 186475.000000 1 0 0
-15.027335 6.173842 6.125769 17.362666 -0.389817 1.210221 0.005190 -0.004694 -307203.000000 1 0 0
-16.352235 -3.100858 -4.431531 17.223512 0.187404 1.831019 0.003750 -0.007726 449631.000000 1 0 0
-11.202035 -1.248658 -12.601231 16.906678 0.111009 2.411842 0.007594 -0.004907 296397.000000 1 0 0
-15.376635 6.807642 -8.637331 18.904719 -0.416789 2.045289 0.012103 -0.000272 387297.000000 1 0 0
-14.968735 9.469042 0.977169 17.739240 -0.564037 1.515683 0.015004 0.000579 -267732.000000 1 0 0
-19.610935 5.421642 7.826169 21.799814 -0.269723 1.203598 0.040120 -0.008954 4770.530000 1 0 0
-16.380835 0.589142 0.986769 16.421101 -0.035950 1.510669 0.019131 -0.007307 245467.000000 1 0 0
-17.737435 3.781342 7.121369 19.484072 -0.210040 1.196630 0.029932 -0.004150 598082.000000 1 0 0
-15.399435 4.021942 -1.375131 15.975281 -0.255468 1.656982 0.004633 0.002322 -998895.000000 1 0 0
-10.908435 13.355942 0.430769 17.249948 -0.885926 1.545822 0.019932 -0.007914 -629364.000000 1 0 0
-13.445235 3.295142 0.114969 13.843610 -0.240342 1.562491 0.003019 0.002428 -354378.000000 1 0 0
-15.162135 0.138142 -4.297731 15.760073 -0.009111 1.846992 0.005504 -0.001967 -925259.000000 1 0 0
-18.775835 6.871742 3.563369 20.308875 -0.350847 1.394425 0.025233 0.002462 735775.000000 1 0 0
-14.159335 1.296942 -6.432731 15.606052 -0.091341 1.995658 0.005305 -0.001754 -1404310.000000 1 0 0
-14.393635 12.274642 5.297469 19.644510 -0.706107 1.297749 0.008047 -0.003823 53324.200000 1 0 0
17.777665 5.599242 6.179469 19.636260 0.305124 1.250659 0.032039 -0.001866 -428894.000000 1 0 0
18.582365 7.534842 -0.270531 20.053711 0.385225 1.584287 0.024380 0.008640 410654.000000 1 0 0
16.672565 5.091742 8.444369 19.370277 0.296400 1.119709 0.039119 0.002092 423456.000000 1 0 0
11.786565 12.401842 10.818869 20.242943 0.810830 1.006938 0.037461 -0.014222 636802.000000 1 0 0
-2.220635 16.250442 -0.624031 16.413333 -1.434987 1.608825 -0.004325 -0.001069 -101310.000000 1 0 0
15.103565 12.552442 3.507269 19.949497 0.693414 1.394070 0.024616 -0.004226 196959.000000 1 0 0
13.699465 11.819942 6.763669 19.316666 0.711880 1.213069 0.037403 0.001767 569692.000000 1 0 0
-0.550835 15.943742 8.669369 18.156660 -1.536261 1.073017 -0.000693 -0.001021 105177.000000 1 0 0
0.627565 13.055042 9.359569 16.075743 1.522763 0.949344 0.004330 -0.002703 -471949.000000 1 0 0
0.767265 15.409742 -3.925931 15.920483 1.521047 1.819963 -0.002911 -0.002925 -59998.000000 1 0 0
5.463365 10.480942 13.517369 17.955995 1.090281 0.718483 0.014673 -0.006173 537447.000000 1 0 0
-1.341135 16.388542 -2.968031 16.709045 -1.489145 1.749374 -0.001484 -0.001993 -1108760.000000 1 0 0
8.704165 10.062642 3.266269 13.699919 0.857659 1.330063 0.015036 0.000183 315349.000000 1 0 0
12.557065 13.790242 -5.012431 19.312564 0.832169 1.833345 0.044859 -0.007102 430879.000000 1 0 0
2.318365 11.616542 7.786369 14.175557 1.373810 0.989292 0.008417 -0.001438 571056.000000 1 0 0
-0.257835 14.815642 -8.655131 17.160450 -1.553395 2.099443 0.003800 -0.002944 -1758400.000000 1 0 0
2.306765 15.834442 0.256469 16.003641 1.426134 1.554770 0.000432 -0.008599 -1214830.000000 1 0 0
1.847265 13.385142 5.347369 14.531648 1.433654 1.193960 0.005993 -0.000637 1393400.000000 1 0 0
17.694165 9.217042 -1.923031 20.043338 0.480234 1.666888 0.021619 0.005534 607819.000000 1 0 0
-7.364635 15.011542 7.154369 18.187063 -1.114698 1.166495 0.015374 -0.010802 834406.000000 1 0 0
8.514165 15.954642 -0.048031 18.084356 1.080594 1.573452 0.010618 -0.005589 -278091.000000 1 0 0
15.719565 10.396442 2.153969 18.969194 0.584326 1.457000 0.018355 0.000206 178201.000000 1 0 0
14.272265 7.523042 8.734869 18.346434 0.485099 1.074574 0.035634 0.001296 -825162.000000 1 0 0
4.154965 18.572342 -1.923531 19.128398 1.350703 1.671526 0.005781 -0.005764 -605741.000000 1 0 0
-0.353335 17.533042 -4.946131 18.220775 -1.550647 1.845701 0.004724 -0.002885 90103.800000 1 0 0
1.316665 13.652842 -0.859231 13.743071 1.474655 1.633358 0.000488 -0.005683 648582.000000 1 0 0
10.342565 14.668942 4.309369 18.458526 0.956679 1.335160 0.024779 -0.014305 557521.000000 1 0 0
-1.659635 15.259242 -5.272831 16.229652 -1.462460 1.901690 0.005564 -0.002691 1267920.000000 1 0 0
14.955365 8.806542 -6.258031 18.449420 0.532184 1.916862 0.018398 -0.003364 -77311.300000 1 0 0
-2.293035 18.448442 0.784669 18.606954 -1.447136 1.528613 -0.000734 -0.006778 -59599.000000 1 0 0
-3.695835 19.385742 3.448769 20.033977 -1.382410 1.397789 0.006375 -0.007072 259015.000000 1 0 0
1.867765 17.645842 -2.764831 17.958524 1.465342 1.725368 -0.003132 -0.003433 -335375.000000 1 0 0
2.849365 12.280542 3.280669 13.026642 1.342808 1.316212 0.005723 -0.002264 5929.160000 1 0 0
-2.523035 16.119442 1.833669 16.418419 -1.415535 1.458879 0.001094 -0.003657 -402490.000000 1 0 0
11.865065 12.939042 -2.614131 17.749148 0.828670 1.718616 0.025350 0.006663 432523.000000 1 0 0
7.265665 11.654442 4.677669 14.508498 1.013331 1.242523 0.014486 -0.002156 32168.900000 1 0 0
7.036865 15.531342 1.899969 17.156630 1.145388 1.459826 0.004538 -0.010295 -1711210.000000 1 0 0
5.526365 12.308142 10.098469 16.852601 1.148774 0.928266 0.015543 -0.004577 -844408.000000 1 0 0
-1.329435 14.155642 3.157469 14.564313 -1.477155 1.352266 0.000112 0.000553 -679267.000000 1 0 0
4.474165 15.942642 1.668269 16.642389 1.297193 1.470386 -0.001340 -0.008466 -3268310.000000 1 0 0
7.415465 13.284242 11.809669 19.259504 1.061668 0.910708 0.030519 -0.010007 350017.000000 1 0 0
0.522965 17.218042 -9.516931 19.680103 1.540433 2.075538 0.007965 -0.000583 514440.000000 1 0 0
9.849665 9.726942 15.134769 20.510742 0.779129 0.740851 0.032675 -0.017093 -249092.000000 1 0 0
13.551565 7.424242 -0.189231 15.453158 0.501192 1.583042 0.007183 0.004224 94171.300000 1 0 0
12.526265 13.540642 -0.162831 18.446757 0.824293 1.579624 0.031237 -0.006121 459310.000000 1 0 0
9.507765 12.458642 3.361769 16.028626 0.918935 1.359492 0.019249 -0.000037 941667.000000 1 0 0
-0.681535 12.738142 0.641969 12.772505 -1.517344 1.520513 0.002675 -0.003088 -1802080.000000 1 0 0
16.025765 7.403242 -0.908431 17.676493 0.432754 1.622211 0.014349 0.006270 -1922940.000000 1 0 0
-4.111435 18.463542 -2.481331 19.077822 -1.351693 1.701229 0.008484 -0.006692 238632.000000 1 0 0
11.639565 9.337342 -3.241931 15.270087 0.676085 1.784730 0.013862 0.003220 -41648.300000 1 0 0
14.803765 9.706142 7.880569 19.376894 0.580339 1.151958 0.033487 -0.001566 228686.000000 1 0 0
4.472565 13.738842 4.734569 15.204466 1.256075 1.254137 0.007350 -0.002208 403741.000000 1 0 0
2.228965 15.984442 5.680969 17.109766 1.432244 1.232341 0.002380 -0.000399 140370.000000 1 0 0
6.149665 18.496342 5.360969 20.215664 1.249814 1.302397 0.015155 -0.018100 130860.000000 1 0 0
10.523165 17.351042 -1.031431 20.318945 1.025621 1.621580 0.027801 -0.010820 -463529.000000 1 0 0
9.971365 13.580142 -4.477431 17.432607 0.937445 1.830550 0.033193 -0.004513 1881090.000000 1 0 0
16.622065 7.912642 2.242269 18.545369 0.444290 1.449593 0.007235 0.003624 26273.700000 1 0 0
3.947665 13.969342 -0.432131 14.522855 1.295383 1.600556 0.001184 -0.005488 -146806.000000 1 0 0
5.592665 13.141242 -2.381231 14.478965 1.168434 1.736008 0.003854 -0.001851 -67258.400000 1 0 0
-6.134935 16.926442 -3.065831 18.263110 -1.223076 1.739465 0.013975 -0.005289 -776014.000000 1 0 0
18.284265 10.040442 2.463169 21.004572 0.502175 1.453258 0.024221 0.001232 1786000.000000 1 0 0
7.920565 12.927942 9.307169 17.790178 1.021113 1.020238 0.025099 -0.008831 997171.000000 1 0 0
-2.575035 15.863642 6.784069 17.444470 -1.409877 1.171364 -0.002012 -0.000783 -61877.900000 1 0 0
11.213365 16.041542 6.346369 20.575399 0.960728 1.257239 0.029416 -0.008542 49485.800000 1 0 0
13.643065 12.013242 1.429969 18.234474 0.721958 1.492295 0.032674 -0.000958 -156629.000000 1 0 0
17.400065 7.993942 -5.789331 20.004543 0.430660 1.864397 0.015702 0.010876 253923.000000 1 0 0
9.547665 9.209442 7.988369 15.485018 0.767368 1.028765 0.017358 -0.001674 -925502.000000 1 0 0
-2.010435 14.091142 -1.950231 14.366821 -1.429079 1.706962 -0.003251 0.001119 682540.000000 1 0 0
11.078365 11.638342 0.707269 16.083576 0.810044 1.526808 0.023014 0.003299 -51790.900000 1 0 0
11.808765 9.714742 -0.663231 15.305653 0.688413 1.614142 0.012608 0.005379 -2117100.000000 1 0 0
-0.483635 16.007842 11.273569 19.585155 -1.540593 0.957437 0.009259 -0.007639 -692130.000000 1 0 0
1.983965 20.027542 -1.769331 20.203195 1.472057 1.658485 0.007258 -0.011008 -251532.000000 1 0 0
9.299565 14.467242 1.907869 17.303843 0.999498 1.460315 0.015930 -0.005295 -276484.000000 1 0 0
8.539965 11.592742 -5.228831 15.318726 0.935885 1.919134 0.013867 -0.002995 -783732.000000 1 0 0
10.572465 10.148542 10.229269 17.871986 0.764942 0.961411 0.015632 -0.004575 -85714.900000 1 0 0
-5.063935 15.821142 5.765869 17.584005 -1.261026 1.236712 -0.008820 -0.002396 811959.000000 1 0 0
14.562465 9.045742 -2.041531 17.264376 0.555839 1.689325 0.031852 0.000935 -347686.000000 1 0 0
12.300565 9.636442 6.909769 17.085369 0.664546 1.154445 0.021131 -0.001456 -587817.000000 1 0 0
3.156165 13.078442 9.705769 16.589424 1.333998 0.945845 0.011500 -0.006496 103431.000000 1 0 0
8.482665 12.622442 -2.652331 15.437504 0.979090 1.743464 0.015269 -0.001178 -522490.000000 1 0 0
9.221465 16.995942 2.223269 19.463823 1.073676 1.456321 0.009889 -0.008824 -177182.000000 1 0 0
9.565765 14.481142 -7.741131 19.003485 0.987028 1.990350 0.035311 -0.005181 -1111780.000000 1 0 0
6.449765 11.482042 7.268669 15.042284 1.058995 1.066472 0.013553 -0.001828 -694377.000000 1 0 0
5.417865 16.884142 -5.634431 18.605761 1.260291 1.878460 0.018302 -0.003997 -1700280.000000 1 0 0
-3.969735 17.102542 -4.690431 18.172944 -1.342721 1.831851 0.001169 -0.009362 66874.600000 1 0 0
-0.074435 18.455342 -0.597431 18.465160 -1.566763 1.603156 0.001330 -0.007089 -600617.000000 1 0 0
6.416665 15.676542 -2.853231 17.177558 1.182285 1.737672 0.010279 0.001832 -560432.000000 1 0 0
-0.775335 20.634742 0.667269 20.660082 -1.533240 1.538493 0.004599 -0.005864 -216880.000000 1 0 0
-1.315935 18.889842 4.207369 19.397417 -1.501245 1.352155 0.000244 -0.001415 814011.000000 1 0 0
7.189465 13.708042 -4.432631 16.101151 1.087764 1.849697 0.015271 -0.000214 -212421.000000 1 0 0
-1.035835 12.012842 7.604469 14.255149 -1.484782 1.008117 0.004819 0.001958 436663.000000 1 0 0
7.582165 10.890142 10.835169 17.131413 0.962598 0.886054 0.018314 -0.008104 150863.000000 1 0 0
1.725965 16.069642 -7.487031 17.812018 1.463801 2.004612 0.003346 0.002011 514316.000000 1 0 0
8.909165 7.292242 14.893769 18.824834 0.685926 0.658066 0.021508 0.003002 449805.000000 1 0 0
11.427765 11.474642 -4.799831 16.890814 0.787445 1.858935 0.031797 0.000481 -136426.000000 1 0 0
-3.219635 16.978242 4.513269 17.860469 -1.383389 1.315331 -0.004871 -0.003588 -417493.000000 1 0 0
3.979665 15.227942 -6.835131 17.159458 1.315174 1.980492 0.010070 -0.008686 -2139810.000000 1 0 0
-4.554535 14.235642 9.359369 17.635053 -1.261149 1.011340 0.010399 -0.007641 -1033770.000000 1 0 0
6.008765 17.719042 0.533469 18.717754 1.243853 1.542292 -0.000344 -0.012811 -197886.000000 1 0 0
9.916065 10.800842 -2.121931 14.815166 0.828080 1.714518 0.013830 0.004344 -331796.000000 1 0 0
7.348165 18.084142 -2.430131 19.670721 1.184843 1.694653 0.014708 -0.001134 -208240.000000 1 0 0
3.494365 10.469442 10.316069 15.107650 1.248655 0.819157 0.009541 -0.004429 714593.000000 1 0 0
0.050465 18.544442 2.018069 18.653994 1.568075 1.462400 0.000404 -0.006336 -293101.000000 1 0 0
-0.866035 17.036542 -7.440631 18.610663 -1.520006 1.982100 0.004914 -0.004219 898417.000000 1 0 0
10.013465 8.452842 12.943569 18.418903 0.701087 0.791565 0.025216 -0.012207 -449735.000000 1 0 0
3.615265 11.381642 5.403369 13.107567 1.263236 1.145893 0.004030 -0.001248 532425.000000 1 0 0
13.108065 13.938942 8.191669 20.813912 0.816108 1.166288 0.036981 -0.007224 -127508.000000 1 0 0
-0.560035 17.491542 6.748769 18.756694 -1.538790 1.202736 0.000328 -0.002143 -519171.000000 1 0 0
12.314365 13.678842 5.669469 19.258691 0.837844 1.271984 0.031838 -0.005981 -680887.000000 1 0 0
4.839265 14.509542 -4.523031 15.950019 1.248875 1.858317 0.002388 0.000200 -1449060.000000 1 0 0
3.769365 17.660242 4.536569 18.619150 1.360514 1.324668 0.005617 -0.005501 -217774.000000 1 0 0
7.167565 11.655342 2.080569 13.840150 1.019450 1.419896 0.013564 -0.000537 1103970.000000 1 0 0
6.425165 8.756842 11.668069 15.940793 0.937789 0.749598 0.007901 -0.004277 732225.000000 1 0 0
-5.477435 14.971542 1.698969 16.032338 -1.220066 1.464626 0.002869 0.005192 -204583.000000 1 0 0
6.770765 13.756642 6.050569 16.483260 1.113423 1.194935 0.015881 -0.007691 -197274.000000 1 0 0
5.818165 15.960442 5.067469 17.727549 1.221230 1.280900 0.003730 -0.010376 572397.000000 1 0 0
1.230665 17.985742 4.364269 18.548539 1.502478 1.333280 0.004697 -0.003369 -869071.000000 1 0 0
7.275765 18.197342 -6.912031 20.781150 1.190440 1.909867 0.019047 -0.000882 290140.000000 1 0 0
-2.330335 18.716942 -6.010531 19.795981 -1.446930 1.879290 0.014333 -0.007315 -678875.000000 1 0 0
13.600065 10.172642 -4.602431 17.596215 0.642210 1.835432 0.028360 0.001449 -2127130.000000 1 0 0
-1.442835 18.059042 9.952569 20.670375 -1.491070 1.068443 0.009742 -0.009100 -353074.000000 1 0 0
3.454065 11.751642 -1.621831 12.355647 1.284925 1.702439 0.006322 -0.006719 -89935.500000 1 0 0
4.320365 13.837942 -10.981631 18.186545 1.268174 2.219097 -0.004079 -0.014766 -464147.000000 1 0 0
11.662465 13.497542 2.340369 17.990944 0.858206 1.440341 0.030760 -0.003119 -303493.000000 1 0 0
15.805265 6.486542 -7.282531 18.571938 0.389443 1.973737 -0.000603 0.001418 -336000.000000 1 0 0
2.362165 16.025842 3.044669 16.482641 1.424453 1.385010 0.000884 -0.005861 -696138.000000 1 0 0
13.474565 10.632742 3.572369 17.532283 0.668057 1.365600 0.021094 0.002592 -915185.000000 1 0 0
-4.765535 19.432942 -5.691131 20.802369 -1.330312 1.847910 0.001859 -0.013809 172055.000000 1 0 0
5.460265 12.079942 0.051669 13.256778 1.146271 1.566899 0.008034 -0.004044 471082.000000 1 0 0
4.445265 15.504642 9.649969 18.795644 1.291581 1.031636 0.014045 -0.005973 -394132.000000 1 0 0
7.743165 9.378142 13.834169 18.419837 0.880603 0.721149 0.010540 -0.009094 -3147490.000000 1 0 0
-5.160435 13.641642 6.940969 16.152447 -1.209148 1.126618 -0.000496 0.000756 -2163060.000000 1 0 0
-4.483135 17.079042 0.388469 17.661911 -1.314094 1.548800 0.002991 -0.004179 -1778390.000000 1 0 0
-0.548935 16.508642 3.451469 16.874515 -1.537557 1.364805 0.000923 -0.004858 -2134140.000000 1 0 0
7.821465 16.930842 -4.742631 19.243734 1.138037 1.819813 0.013853 -0.003086 738118.000000 1 0 0
3.066765 16.401942 -4.626031 17.315569 1.385955 1.841241 -0.002830 -0.001092 -146235.000000 1 0 0
9.685465 14.398242 8.193669 19.189941 0.978640 1.129649 0.033981 -0.006875 64876.800000 1 0 0
12.897265 10.919542 9.105969 19.196211 0.702549 1.076556 0.036875 -0.008557 2811970.000000 1 0 0
3.859865 12.367342 12.072969 17.708933 1.268275 0.820652 0.017639 -0.010539 525736.000000 1 0 0
-3.276635 19.217542 5.959869 20.385542 -1.401918 1.274105 0.006951 -0.008095 127961.000000 1 0 0
-2.717635 15.849142 10.130969 19.005720 -1.400979 1.008597 0.008432 -0.010077 -1128330.000000 1 0 0
2.069765 14.249542 7.639169 16.300009 1.426554 1.083023 0.008442 -0.003174 -299778.000000 1 0 0
4.591665 17.278542 7.779469 19.497476 1.311056 1.160372 0.020372 -0.014627 51886.800000 1 0 0
-2.056535 13.503142 9.285869 16.516403 -1.419657 0.973727 0.008235 -0.004894 -932427.000000 1 0 0
5.910365 17.520842 3.039869 18.739081 1.245450 1.407855 0.001059 -0.018517 468980.000000 1 0 0
7.271365 15.465142 -6.932631 18.441929 1.131290 1.956182 0.019561 -0.000687 -470225.000000 1 0 0
11.067665 7.687542 9.482769 16.477695 0.607089 0.957592 0.018654 0.001353 720861.000000 1 0 0
8.913065 16.075842 -2.595131 18.563678 1.064552 1.711052 0.018482 -0.014958 -1396410.000000 1 0 0
14.550365 11.260242 -6.795231 19.613295 0.658610 1.924592 0.052388 -0.004414 420918.000000 1 0 0
10.926665 6.368642 16.188769 20.543316 0.527716 0.663192 0.027897 -0.009040 -262358.000000 1 0 0
8.614165 8.611342 10.294169 15.947695 0.785234 0.869124 0.012596 -0.000036 -1034020.000000 1 0 0
16.648565 9.259442 4.404469 19.552783 0.507568 1.343586 0.031839 0.000369 323170.000000 1 0 0
-3.306035 14.252642 4.714669 15.371916 -1.342868 1.259065 -0.009478 0.002088 -971644.000000 1 0 0
4.852865 14.670842 12.778669 20.051890 1.251343 0.879833 0.022187 -0.002759 -531646.000000 1 0 0
16.157665 10.756642 -4.795031 19.994195 0.587354 1.812978 0.045777 -0.007064 1186140.000000 1 0 0
14.869965 14.156942 6.229069 21.455446 0.760839 1.276229 0.033632 0.002426 1046300.000000 1 0 0
6.270265 9.475742 9.164169 14.597531 0.986228 0.892087 0.008920 -0.003501 714904.000000 1 0 0
10.493265 12.007142 8.549969 18.093702 0.852579 1.078628 0.028807 -0.013823 794198.000000 1 0 0
7.922065 11.419442 -0.345231 13.902588 0.964288 1.595631 0.011597 -0.001132 -177759.000000 1 0 0
7.387265 13.602442 -8.840031 17.825383 1.073279 2.089695 0.019419 -0.003622 -1111020.000000 1 0 0
2.865865 15.277742 -2.275031 15.709817 1.385367 1.716123 -0.000438 -0.003685 680969.000000 1 0 0
11.977965 13.684542 -7.713631 19.754454 0.851801 1.971944 0.029325 -0.014054 -972749.000000 1 0 0
-8.176335 14.940842 9.643869 19.572568 -1.070069 1.055579 0.022744 -0.014379 173022.000000 1 0 0
11.597065 9.611742 2.169169 15.217845 0.692062 1.427768 0.022034 0.002948 -2215600.000000 1 0 0
12.189665 8.807842 4.511269 15.700878 0.625711 1.279362 0.016333 0.002913 302235.000000 1 0 0
14.164765 8.025442 6.058869 17.371188 0.515482 1.214518 0.020541 0.001190 -2172640.000000 1 0 0
16.322965 7.376242 7.261969 19.328330 0.424427 1.185627 0.040508 -0.000342 -336609.000000 1 0 0
13.696465 8.259242 2.337969 16.163983 0.542637 1.425647 0.012496 0.004370 -1918140.000000 1 0 0
-4.258035 17.467842 -7.265631 19.391900 -1.331695 1.954841 0.010381 -0.008549 328516.000000 1 0 0
3.047865 19.574042 -4.128331 20.235507 1.416327 1.776253 0.010688 -0.004435 443818.000000 1 0 0
-0.095135 14.949742 6.332569 16.235926 -1.564433 1.170127 0.004554 -0.000045 -276282.000000 1 0 0
6.756165 16.104742 8.530469 19.436496 1.173582 1.116434 0.028839 -0.007544 -996322.000000 1 0 0
12.805465 15.180742 -1.995331 19.960366 0.870068 1.670928 0.044355 -0.012141 -645901.000000 1 0 0
12.758665 15.829342 4.348869 20.790966 0.892399 1.360069 0.035924 -0.008332 -136420.000000 1 0 0
2.888665 18.031742 1.393769 18.314768 1.411947 1.494622 0.004205 -0.009107 -640431.000000 1 0 0
10.441165 14.644242 -1.122431 18.020311 0.951407 1.633124 0.026928 0.008383 -1902530.000000 1 0 0
-6.433235 15.776442 -0.681931 17.051325 -1.183606 1.610800 0.010161 -0.002059 -285115.000000 1 0 0
-3.849635 15.754542 -2.555731 16.418193 -1.331142 1.727097 0.004251 -0.002857 -1591990.000000 1 0 0
-6.837735 17.190642 1.526169 18.563459 -1.192223 1.488490 0.015288 0.000841 415790.000000 1 0 0
0.074365 19.411442 -6.710931 20.538895 1.566965 1.903651 0.012588 -0.003854 -301256.000000 1 0 0
4.804565 14.786442 7.179869 17.125222 1.256627 1.138170 0.015049 -0.007543 -883066.000000 1 0 0
8.688665 12.412742 6.839569 16.623741 0.960084 1.146770 0.022007 -0.006275 -1570970.000000 1 0 0
-7.595135 17.440742 -5.702931 19.859230 -1.160081 1.862065 0.030052 -0.015455 446069.000000 1 0 0
-7.924535 17.773142 -1.480531 19.516014 -1.151381 1.646732 0.041723 -0.011867 -47988.800000 1 0 0
-13.697735 -9.145258 9.215669 18.873056 0.588681 1.060658 0.030500 -0.017574 -594945.000000 1 0 0
-12.453035 -12.865858 7.615269 19.457664 0.801702 1.168670 0.013924 -0.011817 -143553.000000 1 0 0
-3.843835 -14.842158 12.645369 19.873854 1.317383 0.881128 0.005817 -0.008641 -51521.600000 1 0 0
-1.966235 -13.979158 15.000769 20.598689 1.431058 0.755047 0.017833 -0.009700 -1017330.000000 1 0 0
-7.008735 -13.650558 12.841769 20.009276 1.096455 0.873965 0.015749 -0.011709 79083.800000 1 0 0
-9.840335 -11.509958 8.917069 17.573430 0.863441 1.038611 0.005358 -0.009632 589917.000000 1 0 0
-10.742435 -10.718258 11.247169 18.888615 0.784272 0.932974 0.028065 -0.012041 732407.000000 1 0 0
-5.976435 -12.257258 10.868769 17.438127 1.117131 0.897871 0.012079 -0.007190 520793.000000 1 0 0
-12.550935 -10.334358 7.221769 17.789853 0.688843 1.152780 0.017182 -0.012272 -235190.000000 1 0 0
-7.808035 -11.239058 12.570669 18.582345 0.963621 0.827818 0.020940 -0.009566 -396868.000000 1 0 0
-14.812235 -11.539058 7.150869 20.091966 0.661818 1.206912 0.043140 -0.014716 94375.900000 1 0 0
-11.042335 -9.205758 9.121269 17.025765 0.694942 1.005420 0.015663 -0.010761 144178.000000 1 0 0
-5.364335 -11.698558 13.334669 18.532289 1.140858 0.767661 0.020361 -0.017819 -164573.000000 1 0 0
3.921565 -12.462658 14.624069 19.610199 -1.265940 0.729155 -0.000261 -0.003368 -886545.000000 1 0 0
6.528165 -12.788658 14.348169 20.298686 -1.098812 0.785758 0.012216 0.002210 -156790.000000 1 0 0
6.800465 -8.384358 15.868469 19.192501 -0.889330 0.597391 0.007889 -0.005597 -105892.000000 1 0 0
0.809965 -1.729258 14.371169 14.497478 -1.132756 0.132100 0.004926 0.003262 -961424.000000 1 0 0
-0.032835 -6.364658 15.508669 16.763912 1.565637 0.389439 0.007284 -0.005881 -36576.800000 1 0 0
-1.305735 -4.627458 18.277969 18.899800 1.295775 0.257229 0.016489 -0.020166 -2683060.000000 1 0 0
-5.233935 12.870342 12.893469 18.954718 -1.184556 0.822727 0.010286 -0.006111 -537550.000000 1 0 0
-4.117135 8.946342 11.633069 15.241920 -1.139490 0.702501 -0.004646 0.002431 -173462.000000 1 0 0
-0.547735 -3.863258 15.027769 15.526062 1.429954 0.254036 0.004593 0.000064 -103047.000000 1 0 0
-4.563835 9.181342 14.208869 17.521918 -1.109490 0.625074 -0.002042 -0.001800 357101.000000 1 0 0
-13.293035 -2.358558 16.722869 21.492369 0.175601 0.679186 0.031224 -0.003636 -984829.000000 1 0 0
-0.175035 0.949742 17.378269 17.405082 -1.388544 0.055514 0.003844 0.002971 -1396950.000000 1 0 0
-3.189935 -7.378358 15.380769 17.354651 1.162728 0.481585 0.019306 -0.014677 91911.100000 1 0 0
-7.456235 5.427342 12.609669 15.622267 -0.629202 0.631471 -0.006481 -0.001040 -2935750.000000 1 0 0
-9.789035 10.347542 13.321769 19.502984 -0.813127 0.818848 0.002220 -0.003164 448707.000000 1 0 0
-5.576535 2.200442 11.128569 12.640599 -0.375834 0.494127 0.002026 0.002074 -1368410.000000 1 0 0
-7.083135 -7.621658 16.894269 19.841290 0.822004 0.552014 0.017220 -0.009127 -373069.000000 1 0 0
-4.743935 2.832542 18.663069 19.463770 -0.538275 0.287831 0.003461 -0.003770 -1219140.000000 1 0 0
1.101965 -8.300558 16.579869 18.574327 -1.438810 0.467666 0.004553 -0.002742 493614.000000 1 0 0
-14.790835 -3.728458 14.032669 20.726456 0.246934 0.827061 0.032482 -0.003226 27200.900000 1 0 0
-14.262035 2.200842 12.983269 19.411714 -0.153107 0.838153 0.017399 -0.008931 -9097.140000 1 0 0
-5.341635 0.947242 16.084769 16.974985 -0.175507 0.325293 0.003116 -0.001330 95203.100000 1 0 0
4.524165 5.801442 15.079169 16.778145 0.908473 0.453912 0.001193 0.001525 -315418.000000 1 0 0
-1.003735 -11.928758 13.798469 18.267471 1.486850 0.714597 0.005610 -0.013000 -105023.000000 1 0 0
-5.747735 -4.134158 16.936169 18.356512 0.623540 0.395966 0.013406 -0.008765 117421.000000 1 0 0
-12.955435 -1.645058 9.849769 16.357489 0.126302 0.924597 0.012828 -0.002442 -667143.000000 1 0 0
-14.528535 10.326042 10.189169 20.531065 -0.617899 1.051487 0.003793 0.000100 263334.000000 1 0 0
-3.449835 -3.445058 17.788569 18.444592 0.784705 0.267507 0.011439 -0.009740 -1568260.000000 1 0 0
-7.977735 9.375142 11.778769 17.037516 -0.865754 0.807450 -0.000359 -0.007835 -5342.570000 1 0 0
-4.158835 10.492642 16.447769 19.947946 -1.193434 0.601417 -0.004810 0.000925 307611.000000 1 0 0
-12.480935 12.789142 8.253369 19.683851 -0.797594 1.138126 0.009610 -0.010976 158016.000000 1 0 0
-12.655735 3.107142 10.450769 16.704506 -0.240751 0.894863 0.008264 -0.001576 357635.000000 1 0 0
-10.095835 -3.572058 13.717269 17.402556 0.340069 0.662864 0.010084 -0.001462 -484006.000000 1 0 0
-4.265635 -6.544858 17.752969 19.395842 0.993189 0.414550 0.024267 -0.011395 -173102.000000 1 0 0
1.049965 -3.629958 17.864569 18.259842 -1.289231 0.208450 0.010356 -0.008832 -779844.000000 1 0 0
-5.900135 1.822442 13.646869 14.978983 -0.299585 0.424929 -0.001715 0.000982 -1085690.000000 1 0 0
-10.625235 8.618742 10.221469 17.077961 -0.681508 0.929146 0.000703 -0.010614 -156556.000000 1 0 0
4.549865 2.552042 17.446369 18.209612 0.511177 0.290553 -0.004134 0.008968 -1151690.000000 1 0 0
0.565465 -5.475758 13.229569 14.329172 -1.467894 0.394312 0.003161 0.000953 -1751960.000000 1 0 0
-4.101235 5.561842 20.797669 21.915685 -0.935416 0.320793 0.037153 -0.006231 -195856.000000 1 0 0
-10.994235 10.771042 8.954169 17.806339 -0.775144 1.043887 0.010621 -0.009540 290573.000000 1 0 0
0.670065 4.254142 12.990269 13.685533 1.414571 0.320122 0.006742 -0.001408 -1615000.000000 1 0 0
-3.139035 7.182042 13.282069 15.422342 -1.158749 0.533126 -0.005718 0.002968 -745219.000000 1 0 0
0.815465 8.967342 14.084969 16.717194 1.480109 0.568808 0.008304 -0.001699 231785.000000 1 0 0
-4.164335 -6.631258 13.121669 15.280493 1.010053 0.538029 0.016094 -0.006440 -20211.800000 1 0 0
-5.182535 8.168342 16.617669 19.228297 -1.005419 0.527179 0.007677 0.007022 103767.000000 1 0 0
1.655065 -10.705258 15.701769 19.075831 -1.417408 0.603906 -0.007570 -0.001508 -447750.000000 1 0 0
-15.101135 -1.027358 14.254269 20.791439 0.067927 0.815391 0.034242 -0.004895 360951.000000 1 0 0
-13.555735 -5.299858 8.433069 16.821507 0.372696 1.045665 0.026107 -0.010089 -235693.000000 1 0 0
-14.188035 -2.074158 12.152669 18.796006 0.145162 0.867735 0.026007 -0.001389 685073.000000 1 0 0
9.351665 1.942542 16.968069 19.471581 0.204809 0.512692 0.013175 0.005605 15108.700000 1 0 0
5.137565 -6.692758 16.807169 18.806076 -0.916107 0.465250 0.006449 -0.000295 -197138.000000 1 0 0
-6.051535 -2.682658 11.095569 12.920115 0.417270 0.537908 0.004467 0.001861 155598.000000 1 0 0
0.695065 -6.267958 18.103269 19.170257 -1.460356 0.335209 0.010212 -0.007327 -337149.000000 1 0 0
-8.309535 12.097642 11.948369 18.925244 -0.968935 0.887509 0.000298 -0.009381 256960.000000 1 0 0
-6.585935 -5.779758 15.017769 17.387165 0.720296 0.528177 0.016740 -0.007506 -849588.000000 1 0 0
-4.216935 -8.957858 17.070769 19.734156 1.130819 0.525573 0.029871 -0.016692 -355996.000000 1 0 0
2.549865 -6.155758 16.301869 17.610965 -1.178088 0.388005 0.001381 -0.002993 319979.000000 1 0 0
2.235265 5.215442 16.041269 17.015274 1.165892 0.339993 0.002102 0.002463 1954360.000000 1 0 0
0.920865 -8.871358 13.958069 16.564319 -1.467365 0.568594 -0.003167 -0.003410 -579827.000000 1 0 0
-9.865135 -2.785858 11.255469 15.223911 0.275228 0.738724 0.000938 0.001497 413959.000000 1 0 0
-1.282035 10.103042 12.365469 16.019360 -1.444575 0.688960 -0.000117 -0.003000 -200503.000000 1 0 0
-12.327935 -3.724958 11.266669 17.111140 0.293433 0.852051 0.015648 -0.004990 -1613520.000000 1 0 0
-1.838535 6.649242 19.923169 21.083769 -1.301033 0.333346 0.017748 0.000172 -235268.000000 1 0 0
0.434365 -13.362558 15.564269 20.518116 -1.538302 0.709692 -0.005531 -0.012067 -1159290.000000 1 0 0
4.179465 -8.687958 15.388969 18.159540 -1.122412 0.559668 0.001371 0.001407 -357750.000000 1 0 0
4.432565 -4.374558 16.233069 17.386688 -0.778812 0.366327 0.001641 0.004309 -82632.300000 1 0 0
8.139665 1.690442 14.724569 16.909307 0.204769 0.513976 0.003731 0.008390 535776.000000 1 0 0
-6.333535 -0.178558 11.813769 13.405621 0.028185 0.492286 0.001782 0.001295 236659.000000 1 0 0
-3.491635 -11.000358 18.518569 21.820559 1.263444 0.557321 0.031152 -0.015491 34146.900000 1 0 0
3.377165 -1.454458 13.561369 14.051029 -0.406667 0.264775 0.000708 0.004139 565692.000000 1 0 0
-2.616135 8.578342 15.832669 18.196305 -1.274786 0.515384 0.004285 -0.000993 395419.000000 1 0 0
-3.189835 3.977442 14.873269 15.722889 -0.894848 0.330245 -0.001153 -0.001785 -784058.000000 1 0 0
-4.590035 -8.966158 19.779569 22.196661 1.097651 0.471021 0.043131 -0.020837 157999.000000 1 0 0
-5.464035 -2.830058 19.193369 20.155652 0.477899 0.310250 0.017903 -0.013322 -1398200.000000 1 0 0
-6.611935 -8.817158 11.163869 15.687317 0.927363 0.778953 0.012094 -0.010127 177822.000000 1 0 0
-11.653035 2.479742 12.601669 17.341984 -0.209670 0.757353 0.009547 -0.006500 -770547.000000 1 0 0
-11.647535 -7.531558 11.627269 18.099249 0.573997 0.873148 0.020728 -0.008730 -1093110.000000 1 0 0
-11.058335 -7.323158 15.541469 20.431658 0.584925 0.706473 0.032038 -0.021908 -149113.000000 1 0 0
0.117865 5.526742 17.596169 18.444076 1.549473 0.304396 0.005166 0.001351 -38643.200000 1 0 0
-2.066335 -0.028858 13.242769 13.403041 0.013965 0.154802 0.002756 0.002687 151507.000000 1 0 0
-6.050935 -10.426258 18.236669 21.860850 1.044947 0.584087 0.044061 -0.024421 235061.000000 1 0 0
0.267965 2.759242 19.188169 19.387394 1.473985 0.143483 0.007350 -0.000432 -394855.000000 1 0 0
-0.847335 10.914442 14.766869 18.382150 -1.493317 0.637936 0.007314 -0.000868 801357.000000 1 0 0
-12.668335 -2.167158 14.213469 19.162619 0.169429 0.735152 0.019699 -0.003941 -427900.000000 1 0 0
-13.706035 8.412242 11.721169 19.899925 -0.550477 0.940968 0.009340 -0.008876 -279846.000000 1 0 0
-18.041535 -0.624958 6.993069 19.359509 0.034626 1.201219 0.042337 -0.011778 -144233.000000 1 0 0
-1.941335 -7.826658 17.691369 19.442476 1.327662 0.427672 0.022756 -0.014805 -46406.100000 1 0 0
5.769465 2.732742 14.543169 15.882644 0.442351 0.413639 -0.000157 0.005318 -1363220.000000 1 0 0
-14.179835 -6.907358 11.009069 19.234836 0.453295 0.961427 0.036798 -0.013861 513869.000000 1 0 0
3.110365 7.760942 16.051169 18.098249 1.189625 0.480226 0.003926 -0.009061 -396331.000000 1 0 0
1.071665 2.111342 14.502569 14.694582 1.101107 0.161836 0.007991 -0.002325 -1752480.000000 1 0 0
-14.365935 0.607442 9.863269 17.436546 -0.042258 0.969555 0.012802 -0.001171 -1958610.000000 1 0 0
-9.622335 -5.171658 15.625969 19.065841 0.493168 0.610120 0.012895 -0.006197 32904.400000 1 0 0
-2.389535 -0.231558 18.188469 18.346223 0.096603 0.131233 0.008967 -0.004378 370975.000000 1 0 0
6.720465 3.779442 17.732769 19.336492 0.512297 0.410147 0.012975 0.007142 -626641.000000 1 0 0
-4.034235 -0.929958 14.778969 15.347892 0.226559 0.273129 0.004443 0.002195 312736.000000 1 0 0
5.003865 -8.915658 17.810769 20.536580 -1.059361 0.521103 0.005751 0.003245 -179220.000000 1 0 0
1.899165 6.828742 13.420069 15.176851 1.299538 0.485919 0.006987 0.000474 -791953.000000 1 0 0
-3.682135 -0.726858 20.430969 20.772841 0.194895 0.181676 0.018388 -0.011353 -361175.000000 1 0 0
-10.645335 1.818742 16.185669 19.457823 -0.169215 0.588393 0.018637 -0.015112 -71191.500000 1 0 0
-3.987735 6.983942 18.561069 20.228464 -1.051984 0.408867 0.016000 0.003427 -79445.300000 1 0 0
-12.413735 1.005142 14.494869 19.110530 -0.080794 0.709826 0.019386 -0.012371 -281013.000000 1 0 0
-16.070235 -5.004558 8.385169 18.804497 0.301899 1.108602 0.042584 -0.018113 -1324280.000000 1 0 0
-2.216135 0.775642 15.796469 15.970013 -0.336673 0.147557 0.001097 0.002477 -266.287000 1 0 0
-13.521035 -8.858558 12.660769 20.532596 0.580000 0.906357 0.019908 -0.015288 281076.000000 1 0 0
6.053165 -3.101958 14.577569 16.086282 -0.473560 0.436561 -0.003910 0.004106 888261.000000 1 0 0
-15.758735 0.336142 7.666969 17.528067 -0.021327 1.118079 0.021569 -0.006079 121723.000000 1 0 0
-13.993435 5.894142 12.486369 19.658752 -0.398654 0.882586 0.010803 -0.006923 -26360.900000 1 0 0
0.520865 9.637942 16.684569 19.275271 1.516806 0.524460 0.005903 0.003042 -227934.000000 1 0 0
-10.425135 -5.518258 10.878869 16.046320 0.486829 0.825803 0.013043 -0.004106 72738.800000 1 0 0
-3.035135 -11.043258 15.274069 19.090908 1.302578 0.643384 0.016951 -0.010803 -996827.000000 1 0 0
-3.543735 2.709242 12.640969 13.404930 -0.652727 0.339237 0.000720 -0.001187 -2137940.000000 1 0 0
-12.450035 -7.723758 7.452469 16.437734 0.555270 1.100247 0.024141 -0.008384 115068.000000 1 0 0
-8.113735 -1.988458 13.256869 15.669436 0.240336 0.562295 0.007921 0.000662 165054.000000 1 0 0
-9.754035 6.469242 9.502569 15.076177 -0.585625 0.888852 -0.002136 -0.004761 -897926.000000 1 0 0
-17.960535 -3.520258 6.643969 19.470885 0.193546 1.222576 0.046417 -0.021663 134295.000000 1 0 0
-1.155335 -0.160658 20.622369 20.655331 0.138171 0.056502 0.012654 -0.000222 -867232.000000 1 0 0
-2.712635 2.552042 20.268169 20.607522 -0.754904 0.181730 0.022235 -0.002152 -306716.000000 1 0 0
-3.983835 11.370742 11.110469 16.389242 -1.233802 0.825877 0.004338 -0.006756 -281157.000000 1 0 0
-4.168235 -4.896158 15.009169 16.328554 0.865532 0.404758 0.011314 -0.007576 -20926.600000 1 0 0
-0.180235 -14.342958 13.220969 19.507612 1.558231 0.826120 0.003181 -0.009607 -39392.600000 1 0 0
-12.263535 0.304542 8.376869 14.854594 -0.024828 0.971666 0.006362 -0.003055 -438767.000000 1 0 0
-7.663735 1.953942 15.544469 17.440792 -0.249641 0.470656 -0.001541 0.001770 -811850.000000 1 0 0
3.394265 -2.094158 18.423169 18.849925 -0.552804 0.213193 0.006601 0.000161 -350966.000000 1 0 0
-2.192435 4.915442 12.527869 13.635096 -1.151249 0.405777 -0.002311 0.000274 -165048.000000 1 0 0
-10.264935 -6.313758 13.361969 17.993739 0.551434 0.733867 0.006990 -0.008199 -122832.000000 1 0 0
2.383265 -3.762058 14.228469 14.909137 -1.006108 0.303335 0.000988 0.002729 -603818.000000 1 0 0
6.839965 1.248842 17.022169 18.387468 0.180591 0.387786 0.001145 0.006393 -1620010.000000 1 0 0
-1.962035 -5.687258 13.826969 15.079110 1.238594 0.410399 0.005567 -0.002542 -315441.000000 1 0 0
-12.818835 3.650142 14.596969 19.766577 -0.277406 0.740002 0.010350 -0.006508 81862.300000 1 0 0
-13.315835 -6.320458 13.309369 19.859480 0.443169 0.836349 0.024403 -0.015277 -272911.000000 1 0 0
-9.493835 6.824042 11.983769 16.742496 -0.623224 0.773071 -0.003548 -0.004885 41743.000000 1 0 0
-0.961735 -2.398758 12.765169 13.024151 1.189488 0.199755 0.002751 0.004599 90575.300000 1 0 0
0.041065 6.732142 15.267569 16.685985 1.564697 0.415304 0.006841 -0.001155 722517.000000 1 0 0
-16.540035 -0.941558 9.923169 19.311359 0.056865 1.031128 0.036771 -0.000258 357267.000000 1 0 0
-1.266035 2.747142 13.693969 14.024066 -1.138952 0.217397 0.004481 -0.001222 -2125050.000000 1 0 0
-11.061235 -3.224758 16.146069 19.835461 0.283674 0.619790 0.014320 -0.008303 -1154830.000000 1 0 0
-5.076335 -1.461958 17.115369 17.912073 0.280407 0.299374 0.014477 -0.002184 79031.000000 1 0 0
-11.894635 6.606542 11.183069 17.612205 -0.506996 0.882838 0.008690 -0.005355 -1778260.000000 1 0 0
-2.845535 4.651942 18.681669 19.461305 -1.021827 0.284011 0.016458 -0.001625 132085.000000 1 0 0
5.182765 -1.898458 16.626469 17.518695 -0.351123 0.320525 0.001915 0.007931 -936349.000000 1 0 0
-7.941135 -4.259958 12.180169 15.151415 0.492374 0.636979 0.009686 0.001940 -1194640.000000 1 0 0
-11.493135 -0.674958 16.169269 19.849256 0.058660 0.618751 0.025962 -0.003554 354749.000000 1 0 0
2.063465 2.126242 17.347369 17.598580 0.800381 0.169166 -0.000556 0.001832 8260.000000 1 0 0
-8.943335 -7.508358 11.634869 16.484200 0.698395 0.787217 0.011366 -0.009330 385304.000000 1 0 0
-7.194435 6.807442 14.788269 17.798710 -0.757767 0.590142 -0.013476 -0.003725 -674746.000000 1 0 0
-5.675535 3.479342 15.680369 17.035008 -0.549954 0.401492 -0.007624 -0.003081 -3112.720000 1 0 0
-9.406035 4.234442 11.593969 15.518509 -0.423007 0.727099 -0.002564 -0.002763 -261795.000000 1 0 0
-9.891535 0.263642 14.285169 17.377515 -0.026647 0.605796 0.003731 -0.001330 -226103.000000 1 0 0
8.452165 -0.445158 16.193469 18.271992 -0.052619 0.481621 0.003825 0.013425 99124.800000 1 0 0
-8.562635 -7.410158 14.805069 18.639185 0.713370 0.652945 0.015635 -0.009522 -3684390.000000 1 0 0
-0.112335 4.185342 15.452769 16.009927 -1.543963 0.264592 0.007551 -0.005467 40412.000000 1 0 0
-8.069335 3.121842 9.675569 12.979858 -0.369143 0.729617 -0.002748 0.001028 -765278.000000 1 0 0
-2.156335 -9.675658 13.252469 16.549805 1.351518 0.642229 0.005899 -0.006483 238224.000000 1 0 0
-6.123835 10.276442 10.377069 15.836356 -1.033390 0.856258 0.005756 -0.008679 -2274730.000000 1 0 0
-8.509735 -2.796958 15.665069 18.045303 0.317554 0.519441 0.012693 -0.005533 228729.000000 1 0 0
4.242265 5.897842 17.675269 19.110115 0.947240 0.389979 0.001257 0.007502 220558.000000 1 0 0
-6.678135 -1.036358 15.232069 16.663957 0.153959 0.417581 0.005197 0.001045 -322123.000000 1 0 0
-0.781735 -9.897458 15.464369 18.377091 1.491977 0.570738 0.000259 -0.007315 -905742.000000 1 0 0
-4.296535 5.756642 16.235769 17.753854 -0.929628 0.416544 0.001003 -0.000599 99941.900000 1 0 0
3.789065 0.160342 17.294669 17.705601 0.042292 0.215868 -0.000985 0.002265 -379179.000000 1 0 0
1.551065 0.441942 19.382069 19.449054 0.277573 0.083020 0.006563 0.003841 -75654.900000 1 0 0
-6.411135 6.216442 17.751069 19.870764 -0.769981 0.466104 0.002969 -0.006103 -323881.000000 1 0 0
-12.075535 0.505142 10.908469 16.280922 -0.041808 0.836567 0.012044 -0.000782 -715084.000000 1 0 0
-5.250235 5.232642 13.895569 15.749043 -0.783720 0.490044 -0.008290 0.000519 -1124260.000000 1 0 0
-8.672235 -9.513158 9.894069 16.235776 0.831607 0.915494 0.014653 -0.007619 -928980.000000 1 0 0
6.975665 -3.730758 16.977969 18.730453 -0.491118 0.436027 0.001737 0.004005 380556.000000 1 0 0
-16.737135 1.658142 9.647369 19.389504 -0.098747 1.050017 0.025807 -0.006813 324410.000000 1 0 0
-4.071335 -9.558858 11.376169 15.406646 1.168144 0.740111 0.010655 -0.009423 -1396200.000000 1 0 0
-11.042135 -3.881358 9.183969 14.877465 0.338014 0.905481 0.010382 -0.002576 -405717.000000 1 0 0
3.633265 -5.419358 18.549269 19.663301 -0.980197 0.338227 0.000863 -0.001526 -384076.000000 1 0 0
2.579365 -1.763558 16.043269 16.344716 -0.599714 0.192354 0.003542 0.004106 -208272.000000 1 0 0
-3.012335 -4.645158 20.122869 20.870589 0.995484 0.268487 0.018305 -0.018493 -1216530.000000 1 0 0
-6.242635 -3.432158 14.473569 16.131782 0.502684 0.457390 0.010140 -0.000377 -623563.000000 1 0 0
-9.671135 5.208042 13.982669 17.781158 -0.493982 0.665877 -0.000330 -0.006643 214022.000000 1 0 0
-5.780235 -5.218458 11.694969 14.050470 0.734366 0.587454 0.009671 0.002472 -492688.000000 1 0 0
6.105665 1.898142 19.463169 20.486509 0.301410 0.317406 0.008031 -0.002449 256643.000000 1 0 0
-2.808535 11.925942 13.424769 18.175269 -1.339513 0.739763 0.008825 -0.014248 -1889970.000000 1 0 0
3.408665 1.451142 15.168169 15.614037 0.402482 0.239552 0.000364 0.004563 -1222100.000000 1 0 0
-5.742635 7.460342 12.751169 15.850138 -0.914772 0.635992 -0.011149 -0.003766 -806636.000000 1 0 0
-1.626035 -1.641258 15.269069 15.442868 0.790057 0.150170 0.004169 0.002178 -185553.000000 1 0 0
-7.291935 10.700842 13.865169 18.971643 -0.972639 0.751250 0.010774 -0.013098 -1069470.000000 1 0 0
-10.120435 2.056342 10.532569 14.750822 -0.200458 0.775555 0.001055 0.001994 -1330470.000000 1 0 0
-13.788135 5.213942 9.162269 17.356412 -0.361527 1.014683 0.003241 -0.003350 393884.000000 1 0 0
0.403965 -4.702758 20.189369 20.733782 -1.485107 0.229665 0.011356 -0.012994 -729905.000000 1 0 0
-14.552335 -3.087058 7.372669 16.602910 0.209036 1.110673 0.029100 -0.012522 995852.000000 1 0 0
-2.291635 2.352342 17.735369 18.036863 -0.798470 0.183097 0.006511 -0.000758 -539902.000000 1 0 0
-6.201735 -8.364558 14.473969 17.830399 0.932803 0.623640 0.018831 -0.012747 66729.400000 1 0 0
-7.985735 2.000242 12.035669 14.581847 -0.245427 0.599909 -0.000590 -0.000211 690463.000000 1 0 0
-14.605435 -3.635958 10.096469 18.123951 0.243986 0.979932 0.026630 -0.007698 645549.000000 1 0 0
-0.540035 7.055342 12.746869 14.579169 -1.494403 0.506762 0.007228 -0.001881 -283376.000000 1 0 0
-1.904435 -2.379058 19.585569 19.821233 0.895751 0.154358 0.011639 -0.000767 -305100.000000 1 0 0
-13.023235 10.442742 7.255369 18.201536 -0.675871 1.160792 0.007967 -0.011541 561585.000000 1 0 0
-19.542935 2.009742 6.748369 20.772719 -0.102477 1.239925 0.038860 -0.011898 270343.000000 1 0 0
-16.268935 8.347242 6.772969 19.499431 -0.474056 1.216061 0.016780 -0.000711 462646.000000 1 0 0
-12.290835 7.513042 13.617269 19.822725 -0.548666 0.813509 0.013222 -0.008110 -287223.000000 1 0 0
-15.911135 8.024742 10.353469 20.609586 -0.467120 1.044468 0.003801 -0.009945 -83607.400000 1 0 0
1.847665 11.043742 14.860369 18.606684 1.405027 0.645735 0.009518 -0.011693 -369557.000000 1 0 0
2.231665 14.401442 12.658069 19.303072 1.417058 0.855615 0.008354 -0.005084 -593044.000000 1 0 0
-3.285435 13.766042 11.585669 18.290045 -1.336517 0.884804 0.001622 -0.009506 203151.000000 1 0 0
8.841065 4.792442 15.858869 18.778596 0.496732 0.565131 0.015986 0.004217 15131.000000 1 0 0
-0.404835 12.600642 12.784969 17.955376 -1.538679 0.778395 0.005541 -0.005082 -8233.380000 1 0 0
3.623865 13.274542 14.551269 20.027114 1.304296 0.757467 0.018768 -0.004363 -118953.000000 1 0 0
-2.909035 -4.139458 -13.601231 14.511757 0.958222 2.785471 0.004596 -0.010765 -270016.000000 1 0 0
5.471265 -11.604458 16.337269 20.772687 -1.130224 0.665710 -0.007860 0.003401 61614.800000 1 0 0
7.833665 -13.432158 7.362569 17.204551 -1.042820 1.128581 0.010148 -0.014228 -415471.000000 1 0 0
-0.054935 15.471342 1.279269 15.524239 -1.567246 1.488298 -0.001878 -0.004060 -3896890.000000 1 0 0
-13.605735 8.127642 9.105369 18.277919 -0.538483 1.049318 -0.000687 -0.002590 528744.000000 1 0 0
-15.591935 -9.734958 5.004069 19.050421 0.558138 1.305003 0.033732 -0.010626 -964277.000000 1 0 0
9.646765 -11.234758 11.170469 18.548834 -0.861300 0.924518 0.022977 -0.001173 -114338.000000 1 0 0
-5.750135 -10.268258 -16.766231 20.484327 1.060315 2.529575 0.029708 -0.003595 118115.000000 1 0 0
-1.668535 -12.714858 -14.814031 19.593548 1.440315 2.428079 0.017031 0.002798 -33093.200000 1 0 0
5.646765 -15.764258 -12.168831 20.699715 -1.226835 2.199225 0.008833 0.001079 306021.000000 1 0 0
2.820165 -11.410758 -16.628631 20.363450 -1.328502 2.526278 0.001169 -0.004462 175034.000000 1 0 0
1.361365 -14.292458 -14.777431 20.603401 -1.475832 2.370619 0.040836 0.020217 336938.000000 1 0 0
-6.636635 -5.979858 -14.363031 16.914499 0.733388 2.585180 0.016872 -0.011923 -137264.000000 1 0 0
-6.215135 -8.083558 -17.276931 20.061509 0.915333 2.608418 0.011796 -0.004809 -38304.800000 1 0 0
-2.206335 -16.421458 -12.994831 21.057013 1.437239 2.235881 0.015805 0.000566 162574.000000 1 0 0
15.872865 -8.295358 -8.847731 19.976064 -0.481574 2.029646 0.025999 -0.010872 68001.500000 1 0 0
19.213165 -3.407558 -3.373331 19.802437 -0.175530 1.741980 0.027710 -0.005967 149780.000000 1 0 0
15.545465 -11.600658 -9.103031 21.426664 -0.641091 2.009588 0.029743 -0.013033 138968.000000 1 0 0
18.193665 -2.856158 -6.509431 19.533043 -0.155715 1.910547 0.112423 -0.000716 -243494.000000 1 0 0
8.660065 -9.962258 -15.702431 20.513645 -0.855211 2.442556 0.024126 0.000657 194598.000000 1 0 0
-4.791035 9.319742 -16.228331 19.317618 -1.095953 2.568226 0.005222 -0.012395 569853.000000 1 0 0
2.766765 -9.466758 -18.206431 20.706246 -1.286454 2.645129 0.006306 -0.005981 384097.000000 1 0 0
11.163865 8.201942 -15.212831 20.575081 0.633628 2.402947 0.044402 -0.026618 502333.000000 1 0 0
18.254765 -5.594258 -8.058531 20.723708 -0.297368 1.970185 0.030206 -0.017318 198405.000000 1 0 0
12.248565 4.896042 -14.246031 19.415148 0.380268 2.394634 0.012704 -0.001991 97113.500000 1 0 0
15.926165 6.178742 -10.485231 20.043943 0.370086 2.121295 0.008786 -0.018699 130136.000000 1 0 0
3.549865 -0.713358 -19.276631 19.613743 -0.198312 2.955921 0.029744 -0.005667 265469.000000 1 0 0
10.616465 -1.895458 -14.572631 18.129083 -0.176678 2.504496 0.023169 -0.005785 250222.000000 1 0 0
12.303565 -5.882058 -14.058531 19.586184 -0.445956 2.371402 0.032111 -0.000218 -78626.900000 1 0 0
10.202765 6.501742 -12.840831 17.642449 0.567362 2.385959 0.017001 -0.006118 545084.000000 1 0 0
10.733265 5.280142 -16.239031 20.169011 0.457180 2.506721 0.036408 -0.019195 473610.000000 1 0 0
11.594565 -10.667958 -15.177231 21.876645 -0.743800 2.337499 0.043847 -0.005836 349653.000000 1 0 0
-1.373635 1.929542 -17.639031 17.797343 -0.952131 3.008112 0.010794 -0.004429 227258.000000 1 0 0
6.515365 -1.228058 -17.295131 18.522410 -0.186301 2.775521 0.018431 0.011687 67789.300000 1 0 0
6.435965 -5.815558 -15.568231 17.821677 -0.734802 2.633257 -0.019845 -0.002452 254535.000000 1 0 0
-2.087035 -4.943958 -20.468531 21.160321 1.171352 2.885185 0.032102 -0.023058 385592.000000 1 0 0
16.045165 -0.309958 -13.338631 20.867738 -0.019315 2.264252 0.015758 0.000831 -3602.870000 1 0 0
-4.099635 -0.259058 -18.502031 18.952553 0.063106 2.923117 0.018733 -0.011501 176103.000000 1 0 0
3.380865 9.050442 -17.455831 19.951110 1.213290 2.636088 0.012614 -0.022495 -370059.000000 1 0 0
8.947565 0.898442 -15.900231 18.267005 0.100077 2.626881 0.014571 -0.047478 -164185.000000 1 0 0
4.199565 4.495242 -18.322831 19.327951 0.819391 2.817677 0.024750 -0.004245 411838.000000 1 0 0
-2.138835 -11.345258 -18.044231 21.421572 1.384461 2.572405 0.037954 -0.006768 193934.000000 1 0 0
5.730765 -9.587658 -16.090331 19.587333 -1.032053 2.534774 -0.006084 0.001214 145766.000000 1 0 0
10.193765 -12.527358 -10.692131 19.369285 -0.887745 2.155575 0.017817 0.000745 219197.000000 1 0 0
6.191565 6.993042 -17.092431 19.477919 0.846112 2.641480 0.024673 -0.010941 331454.000000 1 0 0
8.933965 1.638942 -20.089331 22.047292 0.181433 2.716966 0.049567 -0.010092 146869.000000 1 0 0
-0.684435 -1.159258 -20.346031 20.390520 1.037460 3.075522 0.025312 -0.009558 153.373000 1 0 0
-0.595135 6.449242 -19.723931 20.760067 -1.478777 2.824320 0.019403 -0.011752 -64701.200000 1 0 0
8.717465 5.797442 -18.137431 20.942085 0.586874 2.618094 0.036510 -0.019482 153812.000000 1 0 0
11.744565 0.045042 -12.539831 17.180925 0.003835 2.388927 -0.022338 -0.007409 -183161.000000 1 0 0
-3.897235 -2.464758 -19.671731 20.204962 0.563930 2.911341 -0.004290 -0.016876 441748.000000 1 0 0
6.120965 -11.661158 -14.413531 19.524310 -1.087426 2.401246 -0.007164 0.003133 123415.000000 1 0 0
11.803465 2.537242 -15.798031 19.883088 0.211735 2.489056 0.038446 -0.002108 -4560.660000 1 0 0
-2.886135 -4.614558 -17.165231 18.007473 1.011880 2.834539 0.007678 -0.008948 158043.000000 1 0 0
-6.799235 -4.719658 -17.145431 19.038660 0.606786 2.691849 0.023733 -0.022070 93850.700000 1 0 0
3.033665 10.567142 -15.623131 19.103661 1.291230 2.528388 -0.004025 -0.005930 313380.000000 1 0 0
16.967065 -6.400958 -10.755031 21.083744 -0.360749 2.106109 0.058623 -0.019120 -135357.000000 1 0 0
9.596565 -3.378458 -17.619631 20.345993 -0.338499 2.617943 0.009845 -0.002957 -12902.200000 1 0 0
-7.205235 -1.594658 -18.884331 20.275017 0.217808 2.769061 0.006379 0.000165 554723.000000 1 0 0
1.887565 -7.341358 -19.100731 20.549851 -1.319134 2.763804 0.015031 -0.019807 311383.000000 1 0 0
5.612865 9.847842 -14.203931 18.172394 1.052759 2.468057 0.008678 -0.017945 382528.000000 1 0 0
5.954165 -3.723858 -18.047031 19.365292 -0.558902 2.770486 0.012176 -0.008212 544474.000000 1 0 0
4.709165 13.415242 -14.080431 20.010085 1.233203 2.351341 0.003120 -0.025079 -138291.000000 1 0 0
8.996565 11.284042 -15.459231 21.148419 0.897715 2.390564 0.041693 -0.021641 139967.000000 1 0 0
17.132265 0.707042 -11.483931 20.637226 0.041246 2.160924 0.025481 -0.000247 133233.000000 1 0 0
14.641665 -3.132258 -12.486931 19.496483 -0.210751 2.265908 0.017031 0.000983 33541.600000 1 0 0
-8.794235 -0.152958 -17.440931 19.533255 0.017391 2.674506 0.012177 -0.007405 409538.000000 1 0 0
-3.469935 4.545542 -19.113931 19.951059 -0.918793 2.850884 0.018223 0.002002 160320.000000 1 0 0
3.923065 1.362542 -17.194731 17.689142 0.334282 2.904607 0.017646 0.004766 478031.000000 1 0 0
-4.879935 14.215942 -13.899731 20.472159 -1.240128 2.317138 0.016773 -0.013320 380917.000000 1 0 0
0.771065 9.637342 -17.819031 20.272908 1.490958 2.644469 0.006638 -0.001904 280755.000000 1 0 0
1.208165 -5.255258 -19.687331 20.412457 -1.344826 2.874250 0.018876 -0.003952 381863.000000 1 0 0
4.061265 -6.429858 -17.869531 19.420533 -1.007446 2.739224 0.012516 -0.017492 158418.000000 1 0 0
-6.515235 7.422442 -16.092031 18.881059 -0.850397 2.591133 -0.010065 0.006567 54288.900000 1 0 0
-11.558235 3.249742 -17.020531 20.829117 -0.274086 2.527247 0.020850 -0.018320 164421.000000 1 0 0
-4.562435 6.843442 -17.703431 19.520758 -0.982780 2.706671 -0.001689 0.019165 385303.000000 1 0 0
-8.399535 5.352042 -17.614331 20.235148 -0.567312 2.626977 0.015470 -0.009334 414034.000000 1 0 0
-8.489835 4.626642 -14.978931 17.828390 -0.498967 2.568398 -0.012511 -0.015241 432819.000000 1 0 0
9.553065 13.791442 -12.572431 20.964994 0.965000 2.213906 0.047225 -0.022471 492739.000000 1 0 0
14.259665 9.244742 -12.010131 20.809771 0.575189 2.186017 0.059018 -0.019868 77552.800000 1 0 0
8.245065 15.568642 -10.073431 20.293786 1.083754 2.090220 0.016475 -0.012073 -96372.200000 1 0 0
7.828765 12.970442 -14.438531 20.928285 1.027745 2.332154 0.036931 -0.029646 283804.000000 1 0 0
3.753365 16.091942 -12.450831 20.689649 1.341648 2.216537 0.013199 -0.015458 216781.000000 1 0 0
10.822165 11.854542 -11.418231 19.698361 0.830893 2.189100 0.036269 -0.011827 168233.000000 1 0 0
15.773465 10.455542 -9.241731 21.060156 0.585360 2.025087 0.046426 -0.033194 321899.000000 1 0 0
13.178565 11.301942 -10.207531 20.139567 0.708890 2.102311 0.056329 -0.014255 93643.700000 1 0 0
10.892765 11.459542 -8.118831 17.773263 0.810749 2.045191 0.030830 -0.005867 107647.000000 1 0 0
5.179065 16.982642 -10.493631 20.623995 1.274793 2.104595 0.025567 -0.001578 54212.500000 1 0 0
11.753665 14.186642 -10.273331 21.093857 0.878916 2.079482 0.065761 -0.012616 -123621.000000 1 0 0
8.226065 -19.470558 -1.610431 21.198213 -1.171056 1.646840 0.028749 0.000664 228663.000000 1 0 0
7.131365 -16.893058 -3.922231 18.751417 -1.171344 1.781522 0.016469 -0.006595 434657.000000 1 0 0
4.112465 -19.027658 5.950769 20.356222 -1.357939 1.274132 0.033095 -0.001893 348613.000000 1 0 0
10.167265 -17.801658 -2.484531 20.650549 -1.051867 1.691402 0.034227 -0.003844 633264.000000 1 0 0
-3.734635 -15.005658 7.975769 17.399142 1.326870 1.094602 0.025572 -0.019561 49363.600000 1 0 0
-15.389035 -12.646658 -4.412131 20.401648 0.687891 1.788782 0.008865 -0.004355 177054.000000 1 0 0
-9.696735 -12.480258 -7.091831 17.322747 0.910259 1.992586 0.032530 -0.013806 128139.000000 1 0 0
-11.478435 -15.246258 6.893869 20.291088 0.925462 1.224147 0.010479 -0.007441 146005.000000 1 0 0
-14.845035 -7.261558 -7.290831 18.062710 0.454936 1.986288 0.025747 -0.024877 -156232.000000 1 0 0
5.033065 -15.791858 5.299369 17.401087 -1.262262 1.261338 0.022902 -0.009093 242286.000000 1 0 0
2.819565 -14.167558 9.078469 17.061308 -1.374347 1.009707 0.012170 -0.001812 614965.000000 1 0 0
3.004965 -17.288358 10.656969 20.530175 -1.398701 1.025013 0.023448 -0.001301 201149.000000 1 0 0
-7.629235 -17.044858 -5.336831 19.422002 1.149942 1.849160 -0.011019 -0.013917 -221221.000000 1 0 0
2.224365 -19.880558 -4.005831 20.401741 -1.459373 1.768428 0.019260 -0.007739 49570.200000 1 0 0
-18.487935 -10.381358 -2.242331 21.321453 0.511645 1.676159 0.017448 -0.005929 -78300.500000 1 0 0
-4.162835 -14.564658 2.678069 15.382799 1.292401 1.395810 -0.002799 0.001201 131840.000000 1 0 0
-10.362235 -9.564258 -14.608531 20.304190 0.745373 2.373855 0.006616 -0.005499 292152.000000 1 0 0
0.400065 -20.330958 2.677469 20.510405 -1.551121 1.439881 0.021698 -0.010796 350881.000000 1 0 0
5.275965 -18.666558 0.801969 19.414410 -1.295339 1.529477 0.006866 0.005300 171201.000000 1 0 0
-8.022735 -18.893658 -3.633731 20.845589 1.169243 1.746008 0.023850 -0.011737 -42354.800000 1 0 0
-9.336435 -15.454558 -7.586531 19.584888 1.027352 1.968570 0.042639 -0.012280 -469.377000 1 0 0
-11.935835 -11.231058 -12.715031 20.743019 0.754986 2.230622 0.022486 0.014334 342267.000000 1 0 0
-13.320935 -15.057958 -3.345431 20.380905 0.846530 1.735688 0.012458 -0.006976 129346.000000 1 0 0
-0.316335 -20.586458 -2.634631 20.756772 1.555431 1.698068 0.030268 -0.008546 444816.000000 1 0 0
-12.414135 -16.496558 -0.513231 20.652132 0.925679 1.595650 0.031977 -0.013683 184644.000000 1 0 0
0.928065 -20.245858 5.228769 20.930745 -1.524989 1.318309 0.029276 -0.011762 125591.000000 1 0 0
-18.077835 -8.725258 2.595769 20.240461 0.449671 1.442196 0.029248 -0.003411 -19879.200000 1 0 0
-15.208735 -14.774558 -0.869031 21.221413 0.770919 1.611758 0.027647 -0.001854 -65498.000000 1 0 0
10.135565 -15.639258 -4.996431 19.294569 -0.995769 1.832737 0.023383 0.003572 -105989.000000 1 0 0
-0.140835 -19.166658 -6.889731 20.367842 1.563449 1.915869 0.009990 -0.006323 169713.000000 1 0 0
-10.027035 -17.044358 -2.671331 19.954638 1.039031 1.705070 0.023107 0.001524 608266.000000 1 0 0
-14.615335 -6.852158 -11.456331 19.794131 0.438405 2.188021 0.016851 -0.005862 -28509.400000 1 0 0
-12.538635 -14.355658 1.854869 19.150530 0.852857 1.473787 0.018303 -0.022067 270040.000000 1 0 0
-2.893035 -16.243658 10.290569 19.445356 1.394542 1.013134 0.013918 -0.008165 424952.000000 1 0 0
-13.078535 -14.217958 -6.391331 20.348157 0.827116 1.890304 0.043234 -0.007299 244477.000000 1 0 0
4.894465 -16.885958 -7.525631 19.123976 -1.288673 1.975252 0.004068 -0.003375 43326.500000 1 0 0
-17.472635 -7.113758 -2.797931 19.071627 0.386644 1.718034 -0.014515 -0.004079 -93087.800000 1 0 0
-12.759635 -13.387758 -8.598931 20.395636 0.809416 2.006012 0.060863 -0.033950 217852.000000 1 0 0
-7.934535 -13.772058 9.936869 18.744807 1.048111 1.012062 0.013088 -0.007479 579365.000000 1 0 0
-16.024235 -8.263858 -5.635031 18.889707 0.476136 1.873720 0.023789 -0.000894 252832.000000 1 0 0
-0.903435 -19.582958 0.131869 19.604229 1.524695 1.564070 0.012900 -0.010722 260306.000000 1 0 0
-15.208635 -11.245058 -1.574831 18.979831 0.636674 1.653866 0.008175 -0.000642 195932.000000 1 0 0
-6.861735 -19.102958 1.461569 20.350493 1.225951 1.498915 -0.013372 -0.000420 -50792.900000 1 0 0
-2.196335 -20.662058 -5.332431 21.451791 1.464896 1.822008 0.014218 -0.005864 177865.000000 1 0 0
-8.910535 -19.736658 -0.673831 21.665349 1.146720 1.601903 -0.000281 0.012105 204497.000000 1 0 0
-17.990935 -7.361058 5.184869 20.118195 0.388373 1.310134 0.054791 -0.010954 281896.000000 1 0 0
-2.728235 -15.765858 -10.731431 19.265751 1.399446 2.161591 0.014591 -0.001082 124865.000000 1 0 0
-2.750135 -18.246758 -8.263531 20.218639 1.421203 1.991835 0.007129 -0.000547 185344.000000 1 0 0
4.219565 -18.095358 -5.773731 19.457201 -1.341705 1.872073 0.003809 0.030978 518952.000000 1 0 0
0.660665 -17.474458 -9.295831 19.804182 -1.533007 2.059393 0.008237 0.007764 -69786.100000 1 0 0
-7.305735 -11.113058 -13.729431 19.114683 0.989236 2.372104 0.013119 -0.040274 191072.000000 1 0 0
-5.381135 -19.068158 -2.086931 19.922513 1.295744 1.675741 0.009693 -0.014215 331167.000000 1 0 0
-9.696935 -16.082058 8.414169 20.578177 1.028199 1.149561 -0.002253 -0.006697 367935.000000 1 0 0
-7.450335 -15.030558 -10.270831 19.670158 1.110611 2.120170 0.039179 -0.012154 344558.000000 1 0 0
-12.675335 -8.091258 -12.213231 19.372547 0.568139 2.252916 0.016764 -0.011279 235504.000000 1 0 0
-15.667335 -12.833758 3.792469 20.604697 0.686304 1.385682 0.027006 -0.007889 56637.600000 1 0 0
-6.247935 -14.394358 -13.063931 20.418142 1.161282 2.265060 0.020091 0.008725 520259.000000 1 0 0
-13.987035 -11.347258 -6.797031 19.250897 0.681575 1.931653 0.015290 -0.014452 139307.000000 1 0 0
-12.105035 -10.355558 -8.415531 18.016398 0.707664 2.056809 0.032160 -0.005696 224407.000000 1 0 0
-9.695635 -14.554758 3.719269 17.879577 0.983152 1.361248 -0.002391 -0.009341 511109.000000 1 0 0
4.600865 -17.948458 8.614769 20.433534 -1.319862 1.135588 0.040438 -0.011577 190719.000000 1 0 0
-4.907435 -16.793358 5.199369 18.251937 1.286488 1.281929 -0.011812 0.010720 348389.000000 1 0 0
-18.373735 -7.284958 -6.783131 20.896785 0.377475 1.901387 0.015219 -0.015613 -24241.500000 1 0 0
-17.163835 -4.699958 -10.831231 20.832724 0.267277 2.117547 0.025671 -0.003486 -277909.000000 1 0 0
-15.489535 -4.546258 -13.342931 20.943447 0.285488 2.261518 0.002880 -0.006886 218414.000000 1 0 0
-19.421335 -5.769358 -5.650631 21.033387 0.288760 1.842788 0.040807 -0.006521 97501.900000 1 0 0
5.661465 -13.537458 8.792769 17.106365 -1.174693 1.030948 0.033512 -0.004899 386529.000000 1 0 0
19.865465 -3.472458 2.689469 20.345218 -0.173050 1.438217 0.031514 -0.009246 -136126.000000 1 0 0
18.017765 -2.677858 -0.050531 18.215744 -0.147543 1.573570 0.024373 -0.009645 262719.000000 1 0 0
14.010265 -11.293558 0.356769 17.998868 -0.678444 1.550973 0.031289 -0.006516 2144.610000 1 0 0
11.185265 -14.170458 5.340369 18.826353 -0.902591 1.283183 0.035476 -0.004576 528185.000000 1 0 0
10.644465 -12.413558 8.070669 18.235590 -0.861972 1.112325 0.056504 -0.035648 -94632.900000 1 0 0
18.169765 5.440542 -5.129231 19.648126 0.290932 1.834911 0.014095 0.016653 -18136.700000 1 0 0
18.928065 -6.287358 -4.584231 20.465036 -0.320704 1.796716 0.050788 -0.010182 -39418.100000 1 0 0
17.565665 -10.206458 -0.073031 20.315750 -0.526366 1.574391 0.048186 -0.007278 247258.000000 1 0 0
17.315865 -9.035758 8.535569 21.315253 -0.480951 1.158795 0.046963 -0.013039 35868.700000 1 0 0
19.884465 0.259242 -1.979431 19.984426 0.013037 1.670008 0.027413 -0.000999 100677.000000 1 0 0
7.473565 -13.240358 11.715369 19.194038 -1.056924 0.914275 0.019092 -0.002391 401748.000000 1 0 0
16.225765 -6.441958 -3.404231 17.786598 -0.377935 1.763378 0.043388 -0.004732 -56723.000000 1 0 0
14.303765 -6.830458 11.550269 19.612791 -0.445509 0.941080 0.019317 -0.029164 231174.000000 1 0 0
16.445465 1.081542 10.810169 19.709967 0.065671 0.990272 0.043623 -0.005056 104163.000000 1 0 0
16.526165 -9.994758 2.669169 19.497019 -0.543930 1.433464 0.022967 -0.016493 344172.000000 1 0 0
16.123665 -7.365458 -5.915931 18.687450 -0.428503 1.892910 0.041164 -0.004703 125260.000000 1 0 0
17.496565 -4.219758 5.853069 18.926028 -0.236657 1.256381 0.023690 -0.013803 -80085.000000 1 0 0
13.849565 -13.331058 7.912269 20.787774 -0.766324 1.180328 0.057728 -0.022866 129333.000000 1 0 0
14.959865 -14.573758 -1.107831 20.914570 -0.772325 1.623790 0.026504 -0.000004 170785.000000 1 0 0
18.638265 -6.508158 8.302169 21.416513 -0.335946 1.172713 0.050580 -0.013806 251837.000000 1 0 0
19.724365 3.435742 2.398069 20.164465 0.172457 1.451589 0.034175 -0.004531 398141.000000 1 0 0
15.572965 -10.539658 8.130269 20.486652 -0.594980 1.162706 0.032830 -0.030030 145733.000000 1 0 0
14.139165 -4.303758 10.761669 18.282555 -0.295475 0.941433 0.018101 -0.008677 -24453.700000 1 0 0
18.712665 -7.819858 2.092169 20.388506 -0.395834 1.468000 0.050217 -0.014331 71281.800000 1 0 0
19.153165 -6.118758 -1.137531 20.138940 -0.309217 1.627311 0.046444 -0.013911 124008.000000 1 0 0
14.504765 -13.731558 -6.145631 20.897671 -0.758022 1.869291 0.050917 -0.008603 397841.000000 1 0 0
13.827065 -9.496958 10.493469 19.786177 -0.601838 1.011791 0.011228 -0.006091 337009.000000 1 0 0
14.189365 2.352642 0.406269 14.388817 0.164308 1.542558 0.000745 0.001401 -215899.000000 1 0 0
12.830565 2.295742 13.777269 18.965942 0.177054 0.757696 0.006253 0.004284 -87987.400000 1 0 0
18.220765 -3.670758 8.980269 20.642577 -0.198799 1.120718 0.041738 -0.017383 116807.000000 1 0 0
7.018465 -18.098658 5.290569 20.119900 -1.200861 1.304716 0.036382 -0.025325 95589.600000 1 0 0
12.251365 -2.796958 15.215969 19.734351 -0.224451 0.690324 -0.006823 0.010642 226687.000000 1 0 0
12.219965 -14.152458 -7.242031 20.051599 -0.858544 1.940318 0.048356 0.000856 297294.000000 1 0 0
10.617565 -17.579058 4.611969 21.048188 -1.027449 1.349889 0.053347 -0.021303 577265.000000 1 0 0
18.199965 -0.372158 -5.625631 19.053214 -0.020445 1.870523 0.015215 0.003761 75761.000000 1 0 0
4.380365 -13.414058 11.688269 18.323214 -1.255163 0.879036 0.010655 -0.009607 254185.000000 1 0 0
9.028665 -2.483558 14.247169 17.048949 -0.268436 0.581458 -0.009553 0.003099 215673.000000 1 0 0
8.863865 -9.394458 14.123069 19.138574 -0.814450 0.740787 0.005256 -0.001406 417504.000000 1 0 0
20.942465 5.640742 -3.593831 21.984550 0.263101 1.735004 0.037358 0.008911 398526.000000 1 0 0
14.575065 -13.440958 1.780569 19.906338 -0.744940 1.481229 0.026947 -0.011150 265392.000000 1 0 0
11.010065 -0.468758 15.637969 19.130795 -0.042550 0.613872 0.002629 0.010537 -127626.000000 1 0 0
19.837765 -0.170258 7.634469 21.256788 -0.008582 1.203435 0.103236 -0.013781 -27697.000000 1 0 0
19.896865 1.227242 0.496969 19.940871 0.061602 1.545872 0.032879 -0.002734 145688.000000 1 0 0
18.025065 0.462542 2.991469 18.277467 0.025655 1.406387 0.030509 -0.004098 35340.200000 1 0 0
10.159365 -8.314158 16.508369 21.091803 -0.685844 0.671818 0.009130 0.007524 131631.000000 1 0 0
19.542665 2.720142 5.277969 20.424786 0.138301 1.309420 0.063448 -0.005411 141586.000000 1 0 0
16.409365 1.723342 7.564169 18.150863 0.104638 1.140942 0.058093 -0.003867 -10819.900000 1 0 0
11.200665 -16.099658 1.962769 19.710564 -0.962957 1.471051 0.015505 -0.003128 278366.000000 1 0 0
8.247965 -16.146458 7.037969 19.449165 -1.098529 1.200529 0.036616 -0.013172 485012.000000 1 0 0
6.243165 6.505742 7.262169 11.577603 0.805991 0.892766 0.004753 0.000950 -1044570.000000 1 0 0
18.560265 2.367442 -6.390431 19.771844 0.126869 1.899914 0.009931 0.006835 365573.000000 1 0 0
14.439265 4.416642 -7.204031 16.730128 0.296840 2.015956 0.012634 -0.005431 235316.000000 1 0 0
-10.463635 -4.019958 -13.967931 17.909517 0.366798 2.465329 0.014075 -0.003415 -237527.000000 1 0 0
7.846865 -14.342058 -10.246531 19.294022 -1.070165 2.130663 0.008003 0.007612 84975.900000 1 0 0
1.931765 -15.899458 13.938869 21.232441 -1.449890 0.854641 0.007945 -0.003593 394948.000000 1 0 0
-9.423535 -7.838058 1.971669 12.414735 0.693805 1.411304 0.011793 -0.001250 225968.000000 1 0 0
-13.686335 3.040642 -9.774731 17.091128 -0.218616 2.179639 0.006915 -0.004212 338401.000000 1 0 0
-12.821435 -5.109458 -13.279031 19.152765 0.379220 2.336885 0.017440 -0.004146 143126.000000 1 0 0
-17.966035 -0.364358 -8.171431 19.740402 0.020278 1.997579 0.042733 -0.025221 521537.000000 1 0 0
-12.240235 15.264042 3.750569 19.921875 -0.894898 1.381402 0.020293 -0.015311 381749.000000 1 0 0
-17.472735 6.509142 9.165769 20.776831 -0.356605 1.113913 0.023513 -0.005371 146909.000000 1 0 0
-14.059135 15.489942 -0.191731 20.919712 -0.833782 1.579962 0.046077 -0.019974 36904.900000 1 0 0
-15.881535 5.221642 -10.790531 19.897846 -0.317653 2.143964 0.021143 -0.001706 137897.000000 1 0 0
-18.382635 3.002442 -0.040531 18.626260 -0.161901 1.572972 0.046626 -0.002823 -174355.000000 1 0 0
-9.797935 15.553842 -0.366531 18.386296 -1.008655 1.590733 0.025857 -0.009596 23928.800000 1 0 0
-18.732535 11.862842 2.581669 22.322632 -0.564528 1.454884 0.075926 -0.015860 -333356.000000 1 0 0
-8.577735 16.407842 -7.782931 20.084045 -1.089089 1.968734 0.044815 -0.023242 -42328.500000 1 0 0
-14.829235 -1.765358 -12.961131 19.774064 0.118488 2.285589 0.004324 -0.021257 236596.000000 1 0 0
-19.197735 5.170242 -4.596731 20.406234 -0.263073 1.798007 0.056366 -0.003397 45222.900000 1 0 0
-16.688835 9.635942 -5.968831 20.174131 -0.523627 1.871158 0.028023 0.008299 -203410.000000 1 0 0
-18.962735 1.397842 2.846969 19.226141 -0.073582 1.422172 0.034398 -0.017605 286889.000000 1 0 0
-13.460235 11.702642 -6.952531 19.143340 -0.715663 1.942478 0.015000 -0.009063 105574.000000 1 0 0
-13.475335 4.058442 -12.629631 18.909341 -0.292535 2.302186 0.039255 -0.027131 -74023.500000 1 0 0
-14.019735 9.142642 -6.607131 17.994306 -0.577869 1.946771 0.008529 -0.006206 69585.200000 1 0 0
-6.409135 11.327942 -15.368331 20.139138 -1.055918 2.438905 0.008173 -0.026946 44887.400000 1 0 0
-15.017235 13.870742 2.922069 20.650747 -0.745731 1.428820 0.020356 -0.018547 129654.000000 1 0 0
-18.558835 8.484242 -5.344731 21.094522 -0.428787 1.826959 0.040728 -0.005841 68230.400000 1 0 0
-3.742235 16.922842 -10.093531 20.056577 -1.353164 2.098155 0.014743 -0.003793 56039.600000 1 0 0
-19.106935 -2.451658 -6.554631 20.348189 0.127615 1.898768 0.006361 -0.013343 -86169.300000 1 0 0
-10.357135 13.708842 -6.152931 18.249964 -0.923780 1.914682 0.012294 -0.019522 -59235.600000 1 0 0
-19.638935 3.219242 4.553469 20.415322 -0.162476 1.345863 0.056239 -0.001002 72004.900000 1 0 0
-15.286335 12.125742 0.431669 19.516455 -0.670606 1.548676 0.020330 -0.009432 67076.700000 1 0 0
-17.217035 2.457542 -8.384831 19.307284 -0.141781 2.020039 0.003414 -0.008104 127046.000000 1 0 0
-16.943935 12.467242 -4.525331 21.517614 -0.634347 1.782687 0.038157 -0.008712 249435.000000 1 0 0
-10.583835 15.466142 -8.487431 20.573177 -0.970670 1.996046 0.030135 -0.018550 203022.000000 1 0 0
-19.027335 1.765942 -6.903531 20.317893 -0.092546 1.917475 0.030107 -0.011787 57041.300000 1 0 0
-17.153535 10.439842 -0.495531 20.086802 -0.546728 1.595468 0.027777 0.002183 -75138.400000 1 0 0
-11.482335 5.847342 -14.521031 19.413804 -0.471018 2.415802 0.006954 -0.021316 319708.000000 1 0 0
-13.940135 13.206042 -5.267931 19.911756 -0.758363 1.838548 0.036651 -0.004815 398493.000000 1 0 0
-18.739735 7.481542 -0.122931 20.178361 -0.379846 1.576889 0.034927 0.000379 56690.200000 1 0 0
-14.216735 9.203442 -10.814831 20.094265 -0.574522 2.139102 0.007414 0.008537 488049.000000 1 0 0
-18.490935 11.381942 5.041269 22.290753 -0.551769 1.342663 0.034903 -0.021027 190740.000000 1 0 0
-8.134235 11.946342 -13.611931 19.853603 -0.973006 2.326245 -0.009053 0.000454 551041.000000 1 0 0
-21.203735 -1.397258 -5.296031 21.899741 0.065802 1.815049 0.038082 -0.020110 394326.000000 1 0 0
-10.858235 13.551142 -3.126531 17.643977 -0.895276 1.748938 0.024414 -0.005026 550395.000000 1 0 0
-18.696535 -4.852758 3.648169 19.657538 0.253950 1.384128 0.035962 -0.016297 -39517.100000 1 0 0
-11.493235 11.316942 -13.363931 20.946654 -0.777670 2.262692 0.019381 0.002520 320910.000000 1 0 0
-14.670035 11.996242 -10.199731 21.521019 -0.685463 2.064559 0.026593 0.020739 124007.000000 1 0 0
-12.468535 9.149042 -14.228631 21.014835 -0.633033 2.314578 0.028289 -0.004837 297865.000000 1 0 0
-18.488835 -4.742258 -2.941431 19.312639 0.251080 1.723697 0.012264 -0.011278 -466617.000000 1 0 0
-9.420235 12.495142 -11.580931 19.467598 -0.924796 2.207916 0.018481 -0.004417 147362.000000 1 0 0
-14.950535 7.632142 -8.434631 18.785928 -0.472007 2.036427 -0.014675 0.000513 -67059.900000 1 0 0
-14.675035 9.174342 1.831169 17.403402 -0.558719 1.465382 0.015695 0.001820 -14210.700000 1 0 0
-19.898035 6.274642 8.130069 22.391984 -0.305470 1.199226 0.047847 -0.003883 222783.000000 1 0 0
-18.738535 5.933542 3.419369 19.950732 -0.306660 1.398555 0.016600 0.005028 263618.000000 1 0 0
-14.750335 13.082442 5.647869 20.509049 -0.725544 1.291807 0.019571 -0.008233 120642.000000 1 0 0
17.954765 6.346842 5.620769 19.855705 0.339781 1.283792 0.017334 -0.002167 165239.000000 1 0 0
18.227265 7.856242 0.549869 19.855883 0.406955 1.543100 0.020854 0.010691 -250811.000000 1 0 0
16.783165 4.152842 8.350669 19.200375 0.242569 1.120844 0.031636 -0.002402 47542.200000 1 0 0
12.101765 13.217142 10.446769 20.743205 0.829423 1.043008 0.041731 -0.021206 127446.000000 1 0 0
15.779965 12.321842 4.133269 20.443067 0.662957 1.367208 0.036844 -0.006205 62264.200000 1 0 0
5.168365 10.463742 14.420269 18.551174 1.112016 0.680396 0.016762 -0.001661 245979.000000 1 0 0
13.278665 13.253842 -5.319131 19.500780 0.784463 1.847062 0.053891 -0.004872 261648.000000 1 0 0
17.064465 9.552642 -2.550231 19.721882 0.510334 1.700469 -0.022810 -0.001779 -131993.000000 1 0 0
14.873665 7.415842 9.462369 19.124776 0.462518 1.053226 0.047045 0.003079 160820.000000 1 0 0
4.645465 19.250242 -1.473631 19.857587 1.334004 1.645075 0.001717 -0.006594 610819.000000 1 0 0
-4.500135 19.750342 3.799169 20.609729 -1.346770 1.385397 0.007073 0.011392 233947.000000 1 0 0
7.050365 12.984642 12.633969 19.440313 1.073361 0.863363 0.036119 -0.002078 9562.020000 1 0 0
-0.065635 16.971842 -10.220831 19.811944 -1.566929 2.112845 0.004446 0.005277 3253.970000 1 0 0
10.553465 9.269942 15.580069 20.977273 0.720741 0.733685 0.038622 -0.017950 120399.000000 1 0 0
-1.167035 12.001942 0.995269 12.099552 -1.473864 1.488447 0.001889 -0.001574 485533.000000 1 0 0
-4.700835 19.108042 -2.855131 19.883835 -1.329573 1.714885 0.014601 -0.001981 230428.000000 1 0 0
6.097965 18.365042 6.300469 20.350820 1.250208 1.256031 0.021512 -0.021038 58208.400000 1 0 0
11.346265 17.446942 -1.496131 20.865568 0.994189 1.642561 0.035594 -0.009086 436450.000000 1 0 0
18.826265 10.398242 3.156469 21.737410 0.504628 1.425072 0.043327 0.003783 220776.000000 1 0 0
11.831065 16.507742 6.897369 21.448854 0.948951 1.243406 0.042923 0.001716 -226307.000000 1 0 0
18.101065 7.529642 -6.231731 20.571304 0.394204 1.878565 0.021105 0.008778 552030.000000 1 0 0
0.020265 15.211942 11.150569 18.861039 1.569464 0.938256 0.001493 -0.004477 388429.000000 1 0 0
1.140965 20.176042 -2.181231 20.325655 1.514306 1.678318 0.004855 -0.004372 231776.000000 1 0 0
14.182165 9.676542 -1.441531 17.229257 0.598750 1.654562 0.021527 -0.002566 -211366.000000 1 0 0
9.458765 17.794142 1.765969 20.229147 1.082216 1.483387 0.015655 -0.008121 208943.000000 1 0 0
0.319465 17.599542 -0.475531 17.608864 1.552646 1.597805 -0.004124 -0.003255 79374.100000 1 0 0
0.048365 21.037542 0.915369 21.057503 1.568497 1.527313 0.012677 0.001023 232928.000000 1 0 0
6.277665 17.225242 -0.232231 18.334994 1.221311 1.583463 0.003291 -0.019845 -70685.100000 1 0 0
6.602465 18.567242 -2.766231 19.899424 1.229144 1.710259 -0.001624 -0.011532 114194.000000 1 0 0
10.167365 9.332642 12.619769 18.701125 0.742618 0.830085 0.026671 -0.010219 186782.000000 1 0 0
13.554665 14.758242 8.370069 21.716186 0.827882 1.175123 0.044017 -0.009196 219373.000000 1 0 0
0.354565 17.686442 6.915869 18.993820 1.550752 1.198118 -0.003839 -0.003759 231838.000000 1 0 0
7.593865 18.028342 -7.791031 21.056782 1.172133 1.949806 0.033855 -0.006773 103244.000000 1 0 0
-0.853735 18.521242 9.367969 20.773159 -1.524734 1.102950 0.017823 -0.016563 119282.000000 1 0 0
16.257765 6.898242 -8.009231 19.391969 0.401281 1.996562 0.037708 0.000960 -260649.000000 1 0 0
-5.219035 19.682642 -6.487831 21.371399 -1.311602 1.879239 0.009028 -0.013014 286578.000000 1 0 0
3.633865 15.998742 9.657969 19.037886 1.347451 1.038745 0.019056 -0.007382 163738.000000 1 0 0
9.203765 14.987842 7.625469 19.170094 1.020087 1.161701 0.029460 -0.001476 95356.800000 1 0 0
-2.714335 19.940342 6.212569 21.061360 -1.435505 1.271367 0.012066 -0.003842 41223.600000 1 0 0
4.842665 18.038742 8.290969 20.434965 1.308521 1.153025 0.019571 -0.015150 -65199.600000 1 0 0
13.634065 11.197942 -7.038131 18.995182 0.687607 1.950367 -0.039074 -0.028155 -80615.600000 1 0 0
11.627665 6.807142 15.721069 20.704874 0.529635 0.708570 0.038231 -0.010347 172663.000000 1 0 0
17.377865 9.623242 4.892469 20.458085 0.505729 1.329310 0.030640 -0.001319 26143.700000 1 0 0
5.128065 14.866342 11.890669 19.715304 1.238632 0.923391 0.012986 -0.023751 450222.000000 1 0 0
16.586165 11.473542 -5.247731 20.839427 0.605170 1.825354 0.082101 0.036528 72810.600000 1 0 0
14.849465 14.303542 5.290669 21.285890 0.766674 1.319610 0.019086 0.004828 160695.000000 1 0 0
12.529865 14.452042 -7.619431 20.589191 0.856518 1.949880 0.059631 -0.013112 493991.000000 1 0 0
-8.346135 15.861842 9.484269 20.278249 -1.086427 1.084102 0.022871 -0.010671 170834.000000 1 0 0
-4.219535 16.530042 -7.118831 18.485793 -1.320869 1.966110 0.004345 -0.009952 121440.000000 1 0 0
2.356765 20.157642 -4.418631 20.770392 1.454408 1.785172 0.007440 0.001214 67709.800000 1 0 0
6.851465 16.415142 9.423269 20.129517 1.175392 1.083621 0.022746 -0.011297 517709.000000 1 0 0
13.273265 15.568642 -1.265131 20.497872 0.864816 1.632556 0.051210 -0.016851 176315.000000 1 0 0
12.438265 16.701642 4.151669 21.234209 0.930675 1.374011 0.030856 -0.017273 375175.000000 1 0 0
3.187065 18.315942 0.537769 18.598934 1.398516 1.541878 0.018073 -0.010988 139390.000000 1 0 0
-6.463035 18.011742 1.822369 19.222766 -1.226283 1.475851 -0.019285 0.022654 273733.000000 1 0 0
0.570865 19.826942 -6.015731 20.727338 1.542012 1.865265 0.013348 -0.001588 277124.000000 1 0 0
-7.034335 17.996942 -6.230831 20.302588 -1.198192 1.882729 0.023983 -0.019232 -100232.000000 1 0 0
-7.445935 18.496742 -1.093431 19.969152 -1.188090 1.625580 0.038697 -0.012054 54249.000000 1 0 0
-14.413635 -8.779858 8.709269 18.991844 0.547110 1.094400 0.040311 -0.024273 198917.000000 1 0 0
-12.921235 -13.692158 7.592869 20.299881 0.814358 1.187440 0.017784 -0.009587 158929.000000 1 0 0
-3.472635 -15.663358 12.945869 20.615419 1.352621 0.891854 0.014154 0.000363 116354.000000 1 0 0
-1.901435 -14.132958 15.935969 21.384832 1.437060 0.729962 0.011915 -0.006916 457814.000000 1 0 0
-7.229435 -13.699758 13.764469 20.722179 1.085231 0.844322 -0.004435 -0.003744 175382.000000 1 0 0
-10.185835 -11.240658 11.812669 19.226096 0.834588 0.909161 0.033651 -0.002735 -53004.400000 1 0 0
-7.871535 -10.873458 13.445169 18.999098 0.944195 0.784596 0.028259 0.007046 568661.000000 1 0 0
-15.258635 -12.280558 7.542569 20.988768 0.677677 1.203212 0.039633 -0.005254 348961.000000 1 0 0
-4.797535 -12.437058 13.523769 18.989183 1.202639 0.778194 0.027535 -0.015101 326364.000000 1 0 0
3.623765 -12.437758 13.722269 18.871411 -1.287292 0.756641 0.001762 -0.007564 369786.000000 1 0 0
6.757465 -13.439858 15.000769 21.244203 -1.104917 0.786805 0.022812 0.006383 373905.000000 1 0 0
7.329165 -8.915558 16.452269 20.096790 -0.882745 0.611737 0.014142 -0.005775 471336.000000 1 0 0
-5.310035 13.684942 13.376269 19.859474 -1.200660 0.831801 0.003947 -0.001433 403825.000000 1 0 0
-13.182635 -2.031258 17.607769 22.089396 0.152883 0.648296 0.038565 -0.008352 95764.900000 1 0 0
-10.049835 11.065442 13.886669 20.403009 -0.833459 0.822190 -0.003286 0.041044 461423.000000 1 0 0
-7.502135 -8.422058 17.188069 20.558278 0.843103 0.580724 0.022889 -0.011515 -24933.500000 1 0 0
-4.950535 1.913942 18.536469 19.281381 -0.368913 0.278873 0.005405 0.000811 539129.000000 1 0 0
-15.701435 -3.840158 14.279269 21.568018 0.239865 0.847235 0.057844 -0.008508 58571.600000 1 0 0
-14.567735 2.944042 12.476669 19.404988 -0.199408 0.872437 0.016935 -0.003926 352324.000000 1 0 0
-13.846335 10.710242 9.651069 19.989333 -0.658377 1.066935 -0.046381 0.010861 -390505.000000 1 0 0
-4.019135 11.233742 15.870069 19.854710 -1.227213 0.644650 -0.012586 -0.001550 247810.000000 1 0 0
-13.211235 13.048942 7.704169 20.103876 -0.779218 1.177518 0.012371 -0.024810 160569.000000 1 0 0
-3.886435 -6.398758 18.611669 20.060974 1.024973 0.382445 0.027563 -0.013496 302228.000000 1 0 0
0.631365 -2.781458 17.779169 18.006498 -1.347588 0.159069 0.004413 -0.012833 145978.000000 1 0 0
-4.537435 6.317142 21.174069 22.557389 -0.947911 0.352028 0.032075 -0.003400 155023.000000 1 0 0
2.327765 -10.651558 16.370369 19.668837 -1.355641 0.587553 -0.001677 -0.007838 409988.000000 1 0 0
-15.010135 -0.228758 13.747869 20.355844 0.015239 0.829321 0.017737 -0.004887 98697.200000 1 0 0
-13.852435 -5.900958 7.759869 16.938914 0.402706 1.094930 0.025282 -0.010307 10826.200000 1 0 0
10.200565 1.917442 16.542369 19.528904 0.185806 0.560346 0.021786 0.008651 261453.000000 1 0 0
-7.993135 12.036442 11.054669 18.192632 -0.984588 0.917704 0.016377 -0.029150 62661.000000 1 0 0
-2.003835 7.502242 20.307369 21.741394 -1.309791 0.365230 0.020715 0.003235 610505.000000 1 0 0
1.326865 -13.418958 15.243469 20.351716 -1.472237 0.724242 -0.006314 -0.018861 497578.000000 1 0 0
-3.235835 -11.431958 17.711769 21.327612 1.294960 0.590860 0.020647 -0.026306 444518.000000 1 0 0
-2.438435 8.204042 16.687569 18.754392 -1.281889 0.473900 0.014700 -0.014839 400844.000000 1 0 0
-4.693035 -9.550758 20.521269 23.116315 1.114070 0.478385 0.057402 -0.024103 177031.000000 1 0 0
-6.397235 -2.702958 19.317969 20.528383 0.399768 0.345114 0.016008 -0.009533 209118.000000 1 0 0
-10.722335 -7.889758 16.226069 20.988141 0.634367 0.687072 0.041286 -0.016232 326487.000000 1 0 0
-0.826135 5.424342 17.625469 18.459771 -1.419656 0.301796 0.020051 -0.017333 -263125.000000 1 0 0
-6.543835 -10.581558 19.033769 22.739294 1.016944 0.578940 0.062077 -0.028177 477050.000000 1 0 0
-0.120035 3.384342 18.587169 18.893148 -1.535343 0.180217 0.008828 -0.007367 -164373.000000 1 0 0
-18.587835 -0.172058 7.624669 20.091610 0.009256 1.181546 0.042399 -0.009477 286766.000000 1 0 0
-1.755235 -8.752958 17.790069 19.904313 1.372891 0.465094 0.016757 -0.003438 203320.000000 1 0 0
5.854165 3.492742 15.106769 16.573623 0.537934 0.423893 0.001481 0.002891 272391.000000 1 0 0
-13.705235 -6.918858 10.186169 18.424497 0.467507 0.985004 0.023690 -0.011681 286997.000000 1 0 0
3.372065 8.319042 16.774069 19.024896 1.185692 0.491363 0.014215 0.001004 102233.000000 1 0 0
6.156765 4.483542 18.031269 19.573823 0.629422 0.399661 0.013533 -0.004710 111892.000000 1 0 0
5.698865 -9.465458 18.153169 21.251106 -1.028856 0.546743 0.019996 0.008413 264191.000000 1 0 0
-4.433835 -0.713758 19.850269 20.351941 0.159610 0.222494 0.017049 -0.011180 693380.000000 1 0 0
-10.626935 1.624742 17.115469 20.211650 -0.151714 0.560834 0.020007 -0.015362 160328.000000 1 0 0
-16.841035 -4.491058 8.596369 19.434187 0.260609 1.112599 0.050820 -0.022288 420140.000000 1 0 0
-13.214235 -9.547358 12.082969 20.292023 0.625671 0.932966 0.036713 -0.021582 68779.900000 1 0 0
-14.528035 6.099942 13.244269 20.583580 -0.397521 0.871815 0.010189 -0.008751 349134.000000 1 0 0
1.374665 9.563842 17.094369 19.636044 1.428038 0.514456 0.011129 -0.001320 90675.000000 1 0 0
-3.821235 -10.517958 15.181169 18.859935 1.222317 0.635217 0.024985 -0.013134 685704.000000 1 0 0
-18.753235 -3.000758 6.579069 20.099068 0.158668 1.237318 0.116028 -0.025570 -306046.000000 1 0 0
-0.487435 -0.797058 20.849169 20.870092 1.021932 0.044782 0.017996 -0.012655 380529.000000 1 0 0
-1.818235 2.805342 20.464369 20.735629 -0.995735 0.161929 0.011883 -0.002531 -18034.200000 1 0 0
-7.813935 2.237642 16.438569 18.338243 -0.278902 0.459196 -0.006652 0.011004 629823.000000 1 0 0
2.541865 -1.849758 18.764269 19.025784 -0.629087 0.165993 -0.003438 -0.004724 -51999.400000 1 0 0
-12.501435 4.481642 14.264869 19.489933 -0.344218 0.749676 0.007039 -0.006016 202461.000000 1 0 0
-13.352035 -5.452458 12.924969 19.366490 0.387694 0.840100 0.025123 -0.011405 -26029.300000 1 0 0
-17.041035 -1.367158 9.237369 19.431803 0.080056 1.075408 0.026485 -0.021488 216239.000000 1 0 0
-7.336135 7.744042 14.716269 18.175743 -0.812441 0.627215 -0.004042 -0.005037 -11580.400000 1 0 0
-9.308035 0.989442 14.097469 16.922090 -0.105902 0.586142 0.007488 -0.004668 151389.000000 1 0 0
8.006365 -0.815158 15.440569 17.411994 -0.101464 0.480470 0.004133 0.010535 148539.000000 1 0 0
4.010065 6.543242 18.332569 19.874047 1.020978 0.396450 0.002375 0.011583 80001.000000 1 0 0
1.935565 0.828342 20.160169 20.269804 0.404374 0.104055 0.009131 0.003994 195957.000000 1 0 0
-7.112735 6.611342 17.246769 19.792723 -0.748881 0.512810 0.004432 -0.015101 510461.000000 1 0 0
7.507365 -2.980058 17.215369 19.016051 -0.377875 0.438694 -0.011625 0.024140 495228.000000 1 0 0
-16.419335 2.518442 9.399769 19.086455 -0.152197 1.055855 0.023648 -0.005625 191373.000000 1 0 0
3.912465 -6.117158 19.130269 20.462018 -1.001775 0.362774 0.006967 -0.003470 146811.000000 1 0 0
-3.663635 -4.194758 20.647669 21.385613 0.852882 0.263465 0.019154 -0.015445 392670.000000 1 0 0
-9.410335 5.840442 14.641869 18.358908 -0.555459 0.647599 -0.006093 -0.005346 -322506.000000 1 0 0
6.599865 2.503742 20.002969 21.211924 0.362590 0.339246 0.020269 -0.007114 -30256.700000 1 0 0
-7.152235 11.603342 14.126769 19.630528 -1.018409 0.767523 0.004744 -0.016007 142689.000000 1 0 0
-14.258735 5.383142 9.969969 18.212359 -0.360989 0.991508 -0.000001 0.000904 377881.000000 1 0 0
0.733765 -5.493558 20.599569 21.332131 -1.438014 0.262828 0.008057 -0.005731 204864.000000 1 0 0
-6.547735 -8.547358 13.608269 17.352669 0.917100 0.669362 0.030159 -0.006801 350776.000000 1 0 0
-13.077235 10.399742 6.307869 17.859393 -0.671841 1.209811 -0.002550 -0.010023 248568.000000 1 0 0
-19.564135 1.951042 7.696369 21.113883 -0.099397 1.197682 0.014736 -0.009410 108621.000000 1 0 0
-15.727135 9.028442 6.392269 19.228017 -0.521133 1.231901 0.005682 -0.006842 52236.700000 1 0 0
-12.525135 8.354142 13.991769 20.553353 -0.588227 0.822005 0.001840 -0.006482 236982.000000 1 0 0
-16.600935 8.677842 10.352169 21.402416 -0.481668 1.065929 0.010520 -0.021665 285239.000000 1 0 0
2.285965 10.867042 14.036269 17.897907 1.363462 0.669325 0.006677 -0.051767 366535.000000 1 0 0
1.628165 14.301042 13.384769 19.655095 1.457435 0.821693 0.014615 -0.018618 543580.000000 1 0 0
8.350165 5.129542 16.599069 19.276062 0.550871 0.533321 0.005137 -0.003811 147216.000000 1 0 0
-0.600135 13.485042 13.071569 18.790222 -1.526322 0.801461 0.006452 0.000639 120547.000000 1 0 0
4.382565 12.789942 14.854869 20.086230 1.240678 0.738388 0.034422 0.003138 118711.000000 1 0 0
-3.456835 -4.566558 -12.953131 14.162866 0.922837 2.725275 -0.001665 -0.014625 51454.300000 1 0 0
4.857965 -12.030658 16.924369 21.325356 -1.187019 0.654050 -0.050173 0.027567 192055.000000 1 0 0
8.776665 -13.504958 7.451469 17.746496 -0.994502 1.137479 0.020390 -0.017666 161086.000000 1 0 0
-0.351035 15.127842 0.444569 15.138444 -1.547596 1.541425 -0.002848 -0.001866 -264013.000000 1 0 0
-14.155635 7.718542 8.447469 18.202133 -0.499199 1.088187 0.005042 -0.003736 84995.800000 1 0 0
-15.964535 -9.552858 5.858769 19.505093 0.539227 1.265714 0.026125 -0.009635 179205.000000 1 0 0
8.827265 -10.947158 11.555469 18.201366 -0.892194 0.882958 -0.003788 0.005141 93559.800000 1 0 0
-25.054995 6.133942 31.452792 40.677465 -0.240097 0.686887 0.046497 -0.011410 4377.380000 0 0 1
-24.115035 5.207342 30.913772 39.551392 -0.212672 0.673553 0.035150 -0.009893 679965.000000 0 0 1
-22.928135 5.241542 31.713522 39.483169 -0.224745 0.638121 0.021084 -0.001216 855166.000000 0 0 1
-21.707035 4.431142 31.149452 38.224583 -0.201367 0.618229 0.032048 -0.011830 -12632.400000 0 0 1
-21.672035 3.065042 31.557172 38.404774 -0.140497 0.606410 0.006714 -0.017273 322609.000000 0 0 1
-20.530235 2.385742 31.043282 37.294338 -0.115687 0.587397 0.024914 -0.018748 249019.000000 0 0 1
-20.125735 1.195842 31.965912 37.792787 -0.059349 0.562695 0.018048 -0.016372 -198034.000000 0 0 1
-20.919335 0.078942 31.698402 37.979119 -0.003774 0.583341 0.020200 -0.001261 103603.000000 0 0 1
-20.898135 -0.805958 32.794802 38.895767 0.038547 0.567689 0.017928 -0.002965 -125535.000000 0 0 1
-21.729535 -2.011758 32.372062 39.040623 0.092319 0.593141 0.025652 -0.023048 -557732.000000 0 0 1
-20.914835 -2.902058 31.709492 38.096511 0.137876 0.587469 0.048508 -0.028998 -188954.000000 0 0 1
-20.983535 -4.267858 32.063112 38.556018 0.200654 0.588817 0.053314 -0.038111 -778704.000000 0 0 1
-22.215935 -5.108758 31.561072 38.932614 0.226030 0.625520 0.052318 -0.027372 616491.000000 0 0 1
-23.392235 -4.930858 32.331902 40.210221 0.207749 0.636684 0.053402 -0.024174 44463.900000 0 0 1
-23.264335 -5.174058 33.764670 41.328599 0.218841 0.614641 0.046411 -0.018208 -981296.000000 0 0 1
-24.538935 -4.755358 -33.929891 42.142737 0.191416 2.506671 0.045068 -0.011196 240830.000000 0 0 1
-24.554835 -5.082358 -32.541071 41.081524 0.204098 2.485054 0.040652 -0.012388 -226837.000000 0 0 1
-25.780455 -4.673858 -32.009631 41.365363 0.179347 2.455657 0.032246 -0.009571 -516181.000000 0 0 1
-25.910425 -5.119858 -30.549361 40.383493 0.195085 2.428713 0.018388 0.000552 -723734.000000 0 0 1
-26.142065 -6.514258 -30.450311 40.657897 0.244213 2.417257 0.025236 -0.003066 470381.000000 0 0 1
-25.968125 -6.962058 -29.137231 39.645832 0.261940 2.396372 -0.001578 0.002780 -238299.000000 0 0 1
-26.149255 -8.470958 -28.939991 39.913203 0.313279 2.381937 0.005445 -0.005399 662723.000000 0 0 1
-27.513855 -8.917258 -28.990191 40.950713 0.313418 2.357358 0.023812 -0.006275 519899.000000 0 0 1
-27.599575 -10.291458 -28.619211 41.069574 0.356915 2.341788 0.025054 -0.005105 884555.000000 0 0 1
-29.079805 -10.791858 -28.458991 42.095290 0.355357 2.313200 0.048881 -0.011220 990549.000000 0 0 1
-29.268295 -11.534458 -27.260231 41.626878 0.375405 2.284808 0.054516 -0.017336 -350076.000000 0 0 1
-30.623165 -11.482458 -26.869711 42.327372 0.358735 2.258555 0.051247 -0.018409 -208882.000000 0 0 1
-30.946125 -12.209258 -25.566211 41.956642 0.375784 2.226035 0.046667 -0.011200 -506332.000000 0 0 1
-30.204855 -11.656058 -24.567431 40.641796 0.368293 2.219918 0.035791 -0.010808 -279209.000000 0 0 1
-30.307225 -12.270758 -23.293831 40.146008 0.384705 2.189805 0.026170 -0.004117 -243346.000000 0 0 1
-29.667505 -11.274558 -22.288831 38.782322 0.363174 2.183054 0.025563 -0.002028 92383.500000 0 0 1
-29.412995 -11.735758 -20.998431 37.997189 0.379643 2.156314 0.018177 0.003119 -97269.900000 0 0 1
-28.277665 -12.545558 -20.872831 37.318795 0.417566 2.164351 0.019766 -0.007575 -629837.000000 0 0 1
-28.101545 -12.991258 -19.425131 36.548671 0.433033 2.131151 0.017039 -0.013067 -127115.000000 0 0 1
-27.616385 -11.993058 -18.520031 35.348122 0.409699 2.122258 0.015773 -0.014018 247903.000000 0 0 1
-27.253125 -12.599558 -17.281931 34.643135 0.433049 2.093074 0.012944 -0.005848 21321.900000 0 0 1
-26.918745 -11.507958 -16.227031 33.471906 0.403992 2.076926 0.014454 -0.013837 317489.000000 0 0 1
-25.659985 -10.845458 -16.365431 32.309226 0.399887 2.101946 0.030552 -0.014380 543068.000000 0 0 1
-25.658865 -9.556558 -15.791031 31.607939 0.356530 2.093923 0.048387 -0.020801 -122973.000000 0 0 1
-24.274935 -8.866758 -15.828531 30.305680 0.350208 2.120337 0.047401 -0.021624 4618.260000 0 0 1
-23.337435 -9.415858 -14.935231 29.263550 0.383491 2.106411 0.028164 -0.021069 -272018.000000 0 0 1
-22.170335 -8.649358 -15.018031 28.140299 0.371971 2.133747 0.048718 -0.046795 20007.600000 0 0 1
-20.957535 -8.930258 -14.101831 26.792339 0.402812 2.125085 0.041223 -0.022156 409508.000000 0 0 1
-20.217335 -10.140758 -14.366931 26.795229 0.464917 2.136695 0.045824 -0.006490 309643.000000 0 0 1
-18.987935 -10.135558 -13.697231 25.512455 0.490312 2.137536 0.042978 -0.002334 105848.000000 0 0 1
-17.910735 -11.192458 -14.054931 25.369403 0.558529 2.157971 0.053478 0.003815 539871.000000 0 0 1
-17.180035 -11.043958 -15.284531 25.509596 0.571323 2.213258 0.050067 -0.013199 275061.000000 0 0 1
-17.971335 -11.227558 -16.426031 26.811218 0.558418 2.230212 0.052259 -0.019709 -101870.000000 0 0 1
-17.126535 -10.873158 -17.656431 26.894113 0.565667 2.286988 0.046905 -0.016742 301338.000000 0 0 1
-17.852835 -11.237158 -18.841431 28.284217 0.561781 2.299826 0.036644 -0.006718 311870.000000 0 0 1
-17.397035 -10.629458 -20.004631 28.562694 0.548463 2.346721 0.040270 -0.013902 -430657.000000 0 0 1
-18.253935 -10.974358 -21.237931 30.078105 0.541305 2.354761 0.060349 -0.012007 117358.000000 0 0 1
-19.438435 -10.185658 -21.205931 30.517075 0.482659 2.339060 0.045758 -0.015135 43233.800000 0 0 1
-20.418635 -10.759258 -22.036331 31.910534 0.484961 2.333068 0.061091 -0.003883 482332.000000 0 0 1
-21.480335 -9.726458 -22.561031 32.634474 0.425186 2.334118 0.032865 -0.006869 340686.000000 0 0 1
-20.972235 -8.927958 -23.633431 32.834161 0.402467 2.374284 0.022599 -0.010721 1046040.000000 0 0 1
-22.107335 -8.419158 -24.360131 33.956332 0.363873 2.370853 0.018301 -0.009134 809965.000000 0 0 1
-21.625435 -7.603858 -25.567061 34.338793 0.338114 2.410662 0.017660 -0.016716 -70872.500000 0 0 1
-20.910635 -8.350958 -26.500611 34.774639 0.379958 2.437296 0.036974 -0.021051 5229.780000 0 0 1
-20.275035 -7.569858 -27.513351 35.005204 0.357331 2.475074 0.028308 -0.031977 -230852.000000 0 0 1
-19.088135 -8.320658 -28.133231 35.000985 0.411073 2.504425 0.060549 -0.030585 -182288.000000 0 0 1
-19.413735 -9.463858 -28.875451 36.058971 0.453584 2.499400 0.064391 -0.022741 -503196.000000 0 0 1
-18.221435 -9.961858 -29.357381 35.959910 0.500314 2.525932 0.037396 -0.017059 -621589.000000 0 0 1
-18.377635 -11.128558 -30.355641 37.189343 0.544490 2.525679 0.039119 -0.016627 207258.000000 0 0 1
-19.174235 -10.862058 -31.529021 38.467061 0.515417 2.531573 0.045024 -0.014153 674445.000000 0 0 1
-19.145535 -11.993158 -32.334431 39.444933 0.559620 2.531746 0.031211 -0.011847 -45096.500000 0 0 1
-19.963535 -11.807458 -33.607191 40.833835 0.534110 2.537509 0.033010 -0.014374 -582201.000000 0 0 1
-19.358135 -10.942958 33.973884 40.604316 0.514506 0.579555 0.030367 -0.013438 -258891.000000 0 0 1
-19.818935 -11.075758 32.653583 39.770832 0.509610 0.607560 0.033157 -0.021570 -904046.000000 0 0 1
-19.389235 -12.293558 31.842592 39.255887 0.565074 0.624673 0.045646 -0.016132 -100105.000000 0 0 1
-17.989235 -12.256258 31.635222 38.400725 0.598072 0.602682 0.048397 -0.014670 143043.000000 0 0 1
-17.447235 -13.010358 30.583702 37.537158 0.640742 0.618485 0.041029 -0.019873 -40209.100000 0 0 1
-17.444335 -14.564658 30.704002 38.199081 0.695675 0.637159 0.039751 -0.012282 -782644.000000 0 0 1
-18.666235 -15.232658 30.525652 38.888014 0.684454 0.668160 0.035296 -0.017157 -298060.000000 0 0 1
-18.649735 -16.616758 31.032842 39.836748 0.727816 0.677726 0.048836 -0.018639 -281953.000000 0 0 1
-18.745335 -16.700558 32.554366 41.110618 0.727775 0.656927 0.019380 -0.019787 528623.000000 0 0 1
-17.523535 -16.296958 33.208285 40.932326 0.749147 0.624429 0.031226 -0.014521 521808.000000 0 0 1
-17.749235 -15.983258 -33.930151 41.494036 0.733093 2.528220 0.030082 -0.011040 484034.000000 0 0 1
-16.527835 -15.454858 -33.098201 40.093801 0.751862 2.541918 0.027990 -0.008764 477285.000000 0 0 1
-16.226635 -14.069858 -33.403451 39.712153 0.714329 2.570183 0.025781 -0.009626 -218053.000000 0 0 1
-15.030735 -13.614758 -32.802051 38.564999 0.736007 2.587856 0.031339 -0.006948 -271526.000000 0 0 1
-15.070935 -13.296458 -31.243341 37.149364 0.722926 2.569961 0.055815 -0.008164 -492507.000000 0 0 1
-15.044135 -14.451358 -30.422801 36.887865 0.765304 2.540534 0.046864 -0.010646 -119421.000000 0 0 1
-15.453135 -14.093858 -29.119511 35.852226 0.739427 2.518726 0.046592 -0.006548 -227864.000000 0 0 1
-15.688135 -15.332558 -28.212061 35.736890 0.773936 2.480689 0.059982 -0.003873 1131940.000000 0 0 1
-14.464735 -16.028958 -27.841761 35.232367 0.836650 2.481985 0.053361 -0.014624 969730.000000 0 0 1
-13.845835 -16.831158 -28.855321 36.161092 0.882407 2.494709 0.044528 -0.017567 -417891.000000 0 0 1
-12.398435 -17.198158 -28.530361 35.545454 0.946170 2.502512 0.030349 -0.014524 -120528.000000 0 0 1
-11.503435 -16.107958 -28.471511 34.675961 0.950639 2.534085 0.029023 -0.014898 66785.300000 0 0 1
-10.140735 -16.474458 -28.314381 34.292075 1.019027 2.542208 0.046180 -0.020781 361099.000000 0 0 1
-9.167335 -15.334258 -28.251601 33.426523 1.031971 2.577708 0.042657 -0.020324 -403024.000000 0 0 1
-9.154435 -14.595958 -27.001941 32.030462 1.010624 2.573648 0.039277 -0.021082 41945.200000 0 0 1
-8.102235 -13.622358 -26.895591 31.218387 1.034228 2.609073 0.040297 -0.020038 304102.000000 0 0 1
-8.230435 -12.274858 -27.666571 31.366405 0.980137 2.650981 0.028015 -0.028663 -133186.000000 0 0 1
-7.995635 -12.200658 -29.051281 32.507894 0.990673 2.676251 0.050833 -0.023349 66117.400000 0 0 1
-7.893135 -10.843358 -29.495531 32.401641 0.941575 2.714828 0.036672 -0.021808 161555.000000 0 0 1
-6.812335 -10.539458 -30.598811 33.072274 0.996981 2.752386 0.039762 -0.006700 -951645.000000 0 0 1
-5.540035 -10.883558 -30.145471 32.525271 1.099952 2.756683 0.049973 -0.011420 -732969.000000 0 0 1
-4.572335 -10.534758 -31.093861 33.146879 1.161307 2.787793 0.059100 -0.011686 -224120.000000 0 0 1
-4.192535 -9.087558 -31.402501 32.958734 1.138545 2.833067 0.047114 -0.010271 -1153330.000000 0 0 1
-3.083835 -8.857958 -32.237611 33.574351 1.235777 2.858462 0.037298 -0.015946 -87391.700000 0 0 1
-3.046335 -7.526658 -32.815691 33.805330 1.186211 2.899029 0.023885 -0.015950 -368858.000000 0 0 1
-1.648535 -7.101458 -33.243881 34.033865 1.342696 2.925713 0.036491 -0.017334 -131844.000000 0 0 1
-1.034735 -7.605958 34.051013 34.905483 1.435584 0.221721 0.046435 -0.023111 231073.000000 0 0 1
0.028965 -6.780058 33.589140 34.266607 -1.566524 0.199178 0.045254 -0.014876 324818.000000 0 0 1
0.584865 -7.224258 32.207602 33.013052 -1.490014 0.221349 0.034956 -0.010302 129918.000000 0 0 1
-0.210435 -6.895258 31.061832 31.818647 1.540287 0.218541 0.025670 -0.009781 372600.000000 0 0 1
0.210065 -7.691658 29.972462 30.944373 -1.543492 0.251293 0.013621 -0.006676 -3934.820000 0 0 1
-0.176135 -7.023758 28.654172 29.502979 1.545725 0.240455 0.019323 -0.010272 -58739.600000 0 0 1
0.642365 -5.891658 28.341152 28.954191 -1.462196 0.206145 0.019512 0.001426 128225.000000 0 0 1
0.453565 -5.269658 27.076842 27.588592 -1.484937 0.192909 0.018759 0.001667 -360189.000000 0 0 1
-0.763035 -4.316258 27.079972 27.432411 1.395822 0.160469 0.013340 0.006935 1229140.000000 0 0 1
-2.016435 -5.027558 26.909122 27.448920 1.189362 0.198647 0.007585 0.002659 639242.000000 0 0 1
-3.094935 -4.110358 26.763972 27.254061 0.925403 0.189928 0.012517 -0.009811 -495303.000000 0 0 1
-4.452435 -4.656858 27.104802 27.860021 0.807835 0.233371 0.019544 -0.006818 -677699.000000 0 0 1
-4.954835 -5.663158 26.206132 27.265053 0.852009 0.279614 0.022038 -0.005180 406786.000000 0 0 1
-6.257035 -6.055558 26.657622 28.043699 0.769036 0.315716 0.020416 -0.008574 941292.000000 0 0 1
-6.493135 -7.585958 26.457832 28.279399 0.862863 0.360879 0.025968 -0.010026 621950.000000 0 0 1
-5.613535 -8.250558 27.378882 29.140807 0.973358 0.349519 0.023214 -0.008786 232210.000000 0 0 1
-6.035535 -9.572458 27.613152 29.842014 1.008244 0.388941 0.025712 -0.012826 155556.000000 0 0 1
-5.321135 -10.356558 28.780662 31.046727 1.096175 0.384433 0.034364 -0.019384 16255.900000 0 0 1
-5.363335 -11.760358 28.664242 31.443762 1.142921 0.423628 0.046137 -0.024261 75198.900000 0 0 1
-5.036435 -12.406958 29.838722 32.705467 1.185183 0.421817 0.059682 -0.027845 -331269.000000 0 0 1
-5.014835 -13.921158 29.848582 33.314937 1.225036 0.460227 0.063782 -0.038381 669327.000000 0 0 1
-6.315835 -14.499258 29.620992 33.578586 1.159984 0.490411 0.069428 -0.036968 524296.000000 0 0 1
-6.485035 -15.905558 29.646992 34.263487 1.183651 0.525118 0.067582 -0.036497 -41029.900000 0 0 1
-6.495335 -16.523858 31.053072 35.770386 1.196262 0.519390 0.069335 -0.029528 57656.900000 0 0 1
-7.793435 -16.501558 31.608572 36.498505 1.129566 0.523602 0.074336 -0.035055 -224057.000000 0 0 1
-7.849235 -16.762058 32.968959 37.809117 1.132850 0.511555 0.078752 -0.030877 -553775.000000 0 0 1
-9.285635 -17.049058 33.407846 38.639068 1.072076 0.526416 0.072014 -0.023252 -154202.000000 0 0 1
-9.713635 -18.357658 33.047137 39.031674 1.084115 0.561091 0.063890 -0.022774 -560.471000 0 0 1
-10.415635 -18.394458 31.822042 38.203192 1.055572 0.586346 0.058033 -0.026239 -570417.000000 0 0 1
-10.896235 -19.826558 31.567922 38.837534 1.068277 0.621819 0.060748 -0.032253 -379526.000000 0 0 1
-11.992335 -20.174158 32.383342 39.993669 1.034475 0.627136 0.061112 -0.024716 19869.900000 0 0 1
-12.388035 -21.550858 32.281482 40.743060 1.049091 0.656196 0.047894 -0.025532 -144669.000000 0 0 1
-11.600835 -22.582958 33.117124 41.729046 1.096250 0.654056 0.047738 -0.023884 259855.000000 0 0 1
-10.190435 -22.581258 32.854475 41.148204 1.146880 0.646092 0.047630 -0.019502 756756.000000 0 0 1
-9.416335 -23.274058 33.862591 42.154765 1.186344 0.637994 0.053134 -0.021099 263361.000000 0 0 1
-9.623735 -24.776258 34.174585 43.294127 1.200307 0.661033 0.039669 -0.014262 -415536.000000 0 0 1
-9.321835 -25.655408 33.129282 42.926051 1.222280 0.689167 0.049893 -0.011729 -50037.000000 0 0 1
-9.414435 -26.929048 33.633424 44.102295 1.234477 0.703438 0.044061 -0.011062 -353945.000000 0 0 1
-8.766135 -27.977698 32.658973 43.888554 1.267159 0.731559 0.034964 -0.015977 693638.000000 0 0 1
-7.416835 -27.806028 32.248612 43.222189 1.310130 0.728592 0.037477 -0.016284 16488.000000 0 0 1
-6.457735 -28.212108 33.193432 44.038952 1.345773 0.717078 0.046001 -0.022353 -550965.000000 0 0 1
-5.112435 -27.525328 32.987592 43.266175 1.387153 0.703730 0.057845 -0.025520 -428958.000000 0 0 1
-5.070635 -26.352448 33.796751 43.155338 1.380704 0.671094 0.049370 -0.024086 163727.000000 0 0 1
-5.044535 -25.132878 33.050798 41.826596 1.372714 0.659684 0.058579 -0.022228 -14632.700000 0 0 1
-4.815835 -23.983258 34.053239 41.928654 1.372632 0.622933 0.059664 -0.022777 158885.000000 0 0 1
-3.493335 -23.828058 -33.934491 41.611650 1.425227 2.524397 0.044278 -0.023713 277472.000000 0 0 1
-3.272935 -22.524358 -33.392971 40.412242 1.426500 2.543317 0.041847 -0.029786 -79230.100000 0 0 1
34.859235 -14.623758 1.919469 37.851088 -0.397210 1.520064 0.098238 -0.035498 210926.000000 0 0 1
35.533755 -15.254658 3.042069 38.789257 -0.405508 1.492290 0.069612 -0.036557 706223.000000 0 0 1
34.742425 -16.281558 3.621369 38.538805 -0.438243 1.476691 0.080910 -0.026508 135044.000000 0 0 1
35.266025 -16.524058 5.033669 39.269260 -0.438176 1.442259 0.074661 -0.018142 985824.000000 0 0 1
-35.601873 -17.154458 5.009969 39.835519 0.449016 1.444696 0.091317 -0.021348 813182.000000 0 0 1
-35.108218 -17.138258 6.327569 39.577076 0.454127 1.410228 0.080381 -0.011335 484960.000000 0 0 1
-33.838075 -18.041358 6.508869 38.895646 0.489828 1.402663 0.057375 -0.009568 334863.000000 0 0 1
-34.046560 -19.458458 6.485769 39.747516 0.519219 1.406889 0.066665 -0.011675 34274.700000 0 0 1
-32.897985 -20.106058 6.987769 39.183669 0.548588 1.391504 0.040755 -0.003694 -28200.500000 0 0 1
-33.042115 -21.643358 7.264969 40.162122 0.579898 1.388904 0.042810 -0.002971 -248659.000000 0 0 1
-33.139405 -22.443358 6.136069 40.491676 0.595287 1.418671 0.057083 -0.005875 161566.000000 0 0 1
-33.276765 -23.808458 6.489469 41.428239 0.621032 1.413505 0.068200 -0.016929 -112576.000000 0 0 1
-32.712705 -24.795858 5.440469 41.407177 0.648594 1.439026 0.062911 -0.012824 137072.000000 0 0 1
-33.423505 -24.826558 4.219069 41.848407 0.638869 1.469807 0.072402 -0.006661 -20139.800000 0 0 1
-32.692515 -25.526158 3.226469 41.602829 0.662920 1.493164 0.052355 -0.008474 78575.700000 0 0 1
-33.128375 -25.247538 1.787369 41.690791 0.651208 1.527911 0.058820 -0.009063 -198632.000000 0 0 1
-34.230962 -25.829428 1.126869 42.897412 0.646415 1.544524 0.071361 -0.010382 10936.200000 0 0 1
-34.588733 -25.259458 -0.119731 42.830304 0.630760 1.573592 0.061726 -0.003967 49880.400000 0 0 1
-35.622297 -24.121358 -0.066031 43.020836 0.595220 1.572331 0.073900 -0.012676 -123313.000000 0 0 1
35.192055 -24.508758 0.083069 42.885508 -0.608325 1.568859 0.064569 -0.006576 -28073.800000 0 0 1
34.381515 -23.459958 0.517069 41.626020 -0.598777 1.558374 0.077225 -0.008361 -211567.000000 0 0 1
32.877675 -23.695958 0.318269 40.528276 -0.624504 1.562943 0.046329 -0.003788 -115201.000000 0 0 1
32.533085 -23.492658 -1.054431 40.142476 -0.625415 1.597067 0.047149 -0.014905 -339.937000 0 0 1
31.128445 -23.408658 -1.153331 38.965055 -0.644781 1.600400 0.037352 -0.006912 230629.000000 0 0 1
30.666955 -23.012658 -2.614931 38.430227 -0.643761 1.638893 0.030079 0.000338 47028.800000 0 0 1
31.200015 -21.773058 -3.018931 38.165703 -0.609284 1.649980 0.056348 -0.012634 149483.000000 0 0 1
30.743715 -21.443158 -4.287631 37.727560 -0.609033 1.684690 0.053336 -0.028437 48692.500000 0 0 1
30.941705 -19.934358 -4.615531 37.095429 -0.572326 1.695543 0.063535 -0.033975 333573.000000 0 0 1
30.042875 -19.138058 -3.847431 35.827954 -0.567200 1.678390 0.076044 -0.041268 215858.000000 0 0 1
30.090245 -17.711258 -4.106731 35.156460 -0.531998 1.687877 0.083981 -0.035119 -120638.000000 0 0 1
29.027545 -17.044258 -3.205831 33.813938 -0.530936 1.665747 0.091871 -0.034600 -493051.000000 0 0 1
29.363495 -16.930358 -1.834531 33.944327 -0.523020 1.624868 0.092790 -0.029978 120689.000000 0 0 1
29.815865 -18.089058 -1.055031 34.890011 -0.545326 1.601040 0.075832 -0.023495 88207.300000 0 0 1
28.887415 -19.331158 -0.803231 34.768111 -0.589747 1.593901 0.068343 -0.022364 23241.700000 0 0 1
27.921385 -19.141058 0.216369 33.853074 -0.600951 1.564405 0.063664 -0.010141 30932.500000 0 0 1
27.179625 -20.337058 0.281969 33.947127 -0.642378 1.562490 0.041968 -0.006147 -564155.000000 0 0 1
26.312805 -20.314758 1.529669 33.277514 -0.657463 1.524813 0.037091 -0.000018 -1329500.000000 0 0 1
25.469305 -21.398158 1.661269 33.306552 -0.698751 1.520897 0.032413 0.007003 -392643.000000 0 0 1
24.585005 -21.244958 2.739869 32.607937 -0.712648 1.486673 0.032107 0.003088 -76356.600000 0 0 1
23.187005 -20.660058 2.479769 31.154846 -0.727831 1.491117 0.026268 0.002283 -620232.000000 0 0 1
23.131505 -19.309858 1.895769 30.191572 -0.695595 1.507964 0.040934 -0.012800 211917.000000 0 0 1
23.164105 -18.309858 2.936269 29.672349 -0.668885 1.471678 0.048012 -0.003880 -220014.000000 0 0 1
22.894705 -16.927258 2.362569 28.570637 -0.636652 1.488010 0.048719 -0.006470 1021640.000000 0 0 1
21.528205 -16.602858 2.011369 27.261036 -0.656941 1.496947 0.056685 -0.010181 896227.000000 0 0 1
21.465605 -15.274558 1.623869 26.395478 -0.618458 1.509237 0.063464 -0.016971 154896.000000 0 0 1
20.116205 -14.912858 0.977769 25.060148 -0.637933 1.531770 0.053089 -0.011022 662683.000000 0 0 1
18.990105 -14.769558 1.874469 24.130428 -0.661026 1.493037 0.043278 -0.014794 914748.000000 0 1 0
18.009205 -13.822958 1.553369 22.755627 -0.654639 1.502480 0.040805 -0.016884 -146200.000000 0 1 0
18.403605 -12.363758 2.002269 22.261272 -0.591556 1.480731 0.055560 -0.016805 -881841.000000 0 1 0
19.429005 -11.778058 1.273469 22.755891 -0.544973 1.514805 0.056771 -0.021682 -188838.000000 0 1 0
19.787205 -10.575558 1.860069 22.513013 -0.490838 1.488080 0.049519 -0.022995 -501065.000000 0 1 0
20.776205 -9.830158 0.985469 23.005517 -0.441934 1.527947 0.059413 -0.022224 64949.600000 0 1 0
20.105205 -9.487358 -0.238331 22.232544 -0.440904 1.581516 0.065012 -0.018154 1134460.000000 0 1 0
21.099205 -8.972558 -1.117031 22.954977 -0.402087 1.619477 0.077223 -0.008601 -62984.500000 0 1 0
20.608705 -8.561258 -2.549631 22.461399 -0.393728 1.684553 0.100057 -0.010450 -623769.000000 0 1 0
21.456305 -7.847058 -3.425231 23.101548 -0.350612 1.719613 0.094147 -0.009659 141755.000000 0 1 0
22.508205 -8.524358 -4.071131 24.410204 -0.362030 1.738359 0.087964 -0.008030 -703694.000000 0 1 0
22.147305 -9.636758 -5.068931 24.679227 -0.410412 1.777661 0.088158 -0.014642 -454073.000000 0 1 0
21.575705 -9.092758 -6.251931 24.233776 -0.398847 1.831732 0.086889 -0.023545 1268660.000000 0 1 0
20.148205 -8.870358 -6.177131 22.864609 -0.414721 1.844357 0.084892 -0.015074 674551.000000 0 1 0
19.457405 -9.011758 -7.563531 22.737840 -0.433738 1.909899 0.076616 -0.008372 -368997.000000 0 1 0
19.371505 -10.318858 -8.115831 23.400870 -0.489450 1.924972 0.075300 -0.013425 315391.000000 0 1 0
20.502405 -10.769758 -8.820731 24.781880 -0.483676 1.934710 0.068198 -0.007982 -402022.000000 0 1 0
20.322805 -12.188058 -9.461731 25.516455 -0.540216 1.950676 0.054174 -0.013612 -231062.000000 0 0 1
19.306605 -12.444058 -10.407031 25.217174 -0.572534 1.996208 0.075806 -0.016728 238373.000000 0 0 1
19.376305 -13.739158 -10.901231 26.135081 -0.616787 2.001061 0.071963 -0.012573 368014.000000 0 0 1
18.095305 -14.063258 -11.758831 25.758210 -0.660669 2.044863 0.067001 -0.014265 635096.000000 0 0 1
17.997605 -15.456758 -12.000931 26.586603 -0.709594 2.039119 0.066845 -0.019055 -173898.000000 0 0 1
17.001705 -15.643358 -12.947631 26.484217 -0.743813 2.081603 0.067176 -0.017240 -615175.000000 0 0 1
16.823505 -17.067858 -13.475831 27.494365 -0.792608 2.083036 0.060417 -0.017669 -395173.000000 0 0 1
16.241405 -17.886158 -12.438231 27.173654 -0.833555 2.046238 0.055169 -0.016756 413205.000000 0 0 1
16.134905 -19.265358 -12.822131 28.211632 -0.873599 2.042605 0.060595 -0.011313 -463943.000000 0 0 1
15.133805 -20.111658 -12.020131 27.892550 -0.925704 2.016335 0.063637 -0.012478 74947.400000 0 0 1
13.788305 -19.846458 -12.349631 27.138766 -0.963603 2.043230 0.063134 -0.011377 -254758.000000 0 0 1
12.870205 -20.655058 -11.669731 26.989928 -1.013563 2.017920 0.059861 -0.012065 -235936.000000 0 0 1
11.404005 -20.310958 -11.951031 26.180402 -1.059189 2.044840 0.046534 -0.014242 -269307.000000 0 0 1
10.564505 -21.160858 -11.236031 26.184710 -1.107751 2.014300 0.058242 -0.016122 -146886.000000 0 0 1
9.182405 -20.864058 -11.336831 25.458774 -1.156200 2.032307 0.040228 -0.012018 757923.000000 0 0 1
8.252305 -21.661958 -10.351731 25.386990 -1.206812 1.990793 0.038366 -0.006066 -1224.260000 0 0 1
8.224705 -23.092758 -10.487431 26.662847 -1.228645 1.975053 0.048307 -0.018367 -241925.000000 0 0 1
7.451805 -23.677458 -9.489231 26.574365 -1.265889 1.935939 0.046758 -0.027795 -87429.300000 0 0 1
7.456705 -25.227388 -9.684331 28.032299 -1.283400 1.923536 0.054532 -0.022176 558911.000000 0 0 1
8.750905 -25.746528 -9.412231 28.775895 -1.243159 1.904016 0.057520 -0.017789 21633.000000 0 0 1
8.864105 -27.131278 -9.665131 30.134587 -1.255017 1.897299 0.045680 -0.016022 -829652.000000 0 0 1
10.290105 -27.600978 -9.556531 30.968169 -1.213941 1.884509 0.050009 -0.005036 -784927.000000 0 0 1
10.687105 -27.602378 -8.179031 30.708338 -1.201390 1.840396 0.060436 -0.015018 709236.000000 0 0 1
12.094005 -27.863138 -8.022431 31.416218 -1.161285 1.829016 0.064863 -0.003555 467219.000000 0 0 1
12.335305 -27.908178 -6.508431 31.199131 -1.154618 1.780949 0.060299 -0.012139 -149107.000000 0 0 1
11.888705 -28.878178 -5.573431 31.723076 -1.180258 1.747403 0.063654 -0.015498 507510.000000 0 0 1
10.458505 -28.974478 -5.556831 31.301422 -1.224395 1.749269 0.062338 -0.018117 575329.000000 0 0 1
9.900305 -30.025398 -4.548331 31.941006 -1.252291 1.713680 0.060884 -0.024107 174402.000000 0 0 1
10.243105 -31.369048 -4.890231 33.359447 -1.255176 1.717919 0.075214 -0.026544 -24246.300000 0 0 1
9.427405 -31.911758 -5.931131 33.799623 -1.283546 1.747189 0.081185 -0.027999 268959.000000 0 0 1
9.686705 -33.377488 -6.253931 35.312895 -1.288339 1.748836 0.073085 -0.025793 9181.500000 0 0 1
9.100105 -34.269118 -5.329831 35.855145 -1.311238 1.719998 0.064631 -0.018283 -34596.900000 0 0 1
9.515505 33.041482 -5.613731 34.839609 1.290397 1.732633 0.067115 -0.012918 100052.000000 0 0 1
9.033805 32.048732 -4.581831 33.611368 1.296048 1.707540 0.039916 -0.003094 -656736.000000 0 0 1
7.707705 31.689562 -4.734731 32.955345 1.332204 1.714966 0.041870 -0.011335 -1390590.000000 0 0 1
7.340005 30.717482 -3.740831 31.803038 1.336242 1.688694 0.019866 -0.003843 -77385.400000 0 0 1
5.981705 30.056652 -4.037031 30.910852 1.374349 1.701773 0.023462 -0.010701 -200289.000000 0 0 1
5.835505 29.414682 -5.273831 30.448152 1.374952 1.744881 0.033453 -0.016037 -35793.400000 0 0 1
5.421505 30.289182 -6.336831 31.416281 1.393680 1.773895 0.034721 -0.022095 -119560.000000 0 0 1
5.470005 29.526372 -7.709531 31.002653 1.387615 1.822107 0.048709 -0.027172 495533.000000 0 0 1
4.564205 28.412202 -7.861731 29.831058 1.411515 1.837488 0.041369 -0.031969 431849.000000 0 0 1
5.090105 27.281242 -7.202831 28.671521 1.386338 1.824736 0.045608 -0.026147 -223240.000000 0 0 1
4.299205 26.002942 -7.485031 27.398209 1.406943 1.847508 0.052288 -0.031020 -328692.000000 0 0 1
2.993305 25.866582 -7.001431 26.964050 1.455588 1.833464 0.048167 -0.031426 1101470.000000 0 0 1
1.909705 26.585892 -7.768331 27.763350 1.499088 1.854388 0.048831 -0.031066 1500080.000000 0 0 1
1.393505 25.881452 -9.075631 27.461947 1.517006 1.907609 0.051020 -0.028439 -505739.000000 0 0 1
2.405305 25.640002 -10.027431 27.635929 1.477259 1.942111 0.046045 -0.030444 -235988.000000 0 0 1
1.973905 25.012852 -11.213131 27.482238 1.492044 1.991074 0.039716 -0.023704 -454033.000000 0 0 1
1.806105 23.492852 -11.053031 26.025865 1.494068 2.009420 0.042910 -0.017915 5689.470000 0 0 1
0.660005 23.018352 -10.387031 25.262038 1.542131 1.994535 0.044931 -0.021419 -274928.000000 0 0 1
0.765305 21.612652 -10.337531 23.969918 1.535401 2.016697 0.032123 -0.015788 -201008.000000 0 1 0
-0.372595 20.840652 -9.627231 22.959861 -1.552920 2.003478 0.039910 -0.011830 716563.000000 0 1 0
-1.648495 20.808552 -10.301531 23.277348 -1.491739 2.029243 0.038632 -0.014853 -86604.500000 0 1 0
-2.501695 20.213052 -9.367031 22.418012 -1.447656 2.001857 0.032494 -0.013309 -701034.000000 0 1 0
-3.792295 19.951252 -10.162431 22.709227 -1.382959 2.034767 0.034917 -0.019774 -1297080.000000 0 1 0
-4.831595 19.532552 -9.382631 22.201322 -1.328303 2.007126 0.034393 -0.023819 -1027250.000000 0 1 0
-5.807495 19.003452 -10.255231 22.361305 -1.274208 2.047232 0.038701 -0.024572 -779945.000000 0 1 0
-6.748295 18.052652 -9.452531 21.465975 -1.213068 2.026784 0.038281 -0.025956 -563299.000000 0 1 0
-7.701995 18.614652 -8.627531 21.914842 -1.178485 1.975433 0.046836 -0.019847 -606388.000000 0 1 0
-8.895295 18.889152 -9.337531 22.871726 -1.130681 1.991340 0.051841 -0.021343 -94510.500000 0 1 0
-10.066695 19.043752 -8.311731 23.088693 -1.084524 1.939055 0.063175 -0.028933 261611.000000 0 1 0
-10.376395 17.831552 -7.639831 22.000020 -1.043783 1.925449 0.057698 -0.028233 -761958.000000 0 1 0
-11.418995 18.072352 -6.743631 22.416064 -1.007287 1.876369 0.069385 -0.027531 -711070.000000 0 1 0
-11.826595 16.926452 -5.856631 21.463301 -0.960940 1.847168 0.058148 -0.030514 -691770.000000 0 1 0
-12.805595 17.383452 -4.997731 22.161792 -0.935891 1.798264 0.070020 -0.023929 -562302.000000 0 1 0
-13.141095 16.491052 -4.005531 21.463632 -0.897972 1.758516 0.059920 -0.018335 -137972.000000 0 1 0
-14.400495 16.950552 -3.246731 22.477472 -0.866558 1.715747 0.048864 -0.016907 -21529.000000 0 1 0
-15.622495 16.823252 -3.949731 23.295591 -0.822389 1.741168 0.076175 -0.037905 -925598.000000 0 1 0
-16.621095 17.141252 -3.100831 24.076929 -0.800803 1.699944 0.064114 -0.031777 -1988440.000000 0 1 0
-17.974095 17.250752 -3.754531 25.194306 -0.764866 1.720376 0.063910 -0.038172 -1079790.000000 0 0 1
-18.077395 18.327352 -4.707131 26.169470 -0.792264 1.751652 0.069209 -0.036917 -267984.000000 0 0 1
-19.299395 18.393152 -5.393131 27.200378 -0.761360 1.770393 0.050752 -0.034917 -199450.000000 0 0 1
-19.273895 19.314652 -6.623831 28.078710 -0.786454 1.808943 0.044567 -0.018007 31490.100000 0 0 1
-18.965495 20.652452 -6.282731 28.734761 -0.827953 1.791223 0.053549 -0.027831 40514.800000 0 0 1
-18.616595 21.358952 -7.420531 29.289021 -0.853892 1.826944 0.042928 -0.013581 -107937.000000 0 0 1
-18.517395 22.894552 -7.027831 30.272841 -0.890705 1.805084 0.045230 -0.012508 -1223390.000000 0 0 1
-17.275895 23.154052 -6.544831 29.620964 -0.929778 1.793588 0.046248 -0.016874 -1146200.000000 0 0 1
-17.305095 24.396692 -5.894431 30.486214 -0.953842 1.765369 0.044723 -0.011002 442065.000000 0 0 1
-16.057295 24.635392 -4.991031 29.826996 -0.993158 1.738920 0.055528 -0.009381 308614.000000 0 0 1
-16.010095 26.004362 -4.590231 30.880742 -1.018935 1.719993 0.048178 -0.007743 266301.000000 0 0 1
-14.752995 26.419142 -4.053731 30.529571 -1.061511 1.703970 0.061316 -0.014903 646171.000000 0 0 1
-14.186195 27.620312 -4.843831 31.425984 -1.096316 1.725548 0.076828 -0.009781 305398.000000 0 0 1
-14.969295 28.784382 -4.511131 32.756233 -1.091238 1.708954 0.082583 -0.013504 237742.000000 0 0 1
-14.552495 29.928832 -5.206331 33.684062 -1.118220 1.725982 0.062859 -0.017688 -144201.000000 0 0 1
-15.280495 31.223532 -4.701731 35.078609 -1.115672 1.705235 0.074581 -0.028354 1922310.000000 0 0 1
-16.726495 31.213072 -4.941631 35.755437 -1.078858 1.709447 0.082447 -0.018787 1554480.000000 0 0 1
-17.271895 32.452152 -4.525431 37.039710 -1.081701 1.693280 0.100625 -0.032172 33545.200000 0 0 1
12.751065 -8.711058 19.083032 24.548611 -0.599336 0.680343 0.038730 0.007436 -365652.000000 0 1 0
12.811365 -10.106558 19.297032 25.271506 -0.667920 0.701944 0.047555 0.000043 -266926.000000 0 0 1
13.549565 -10.771758 18.340932 25.219264 -0.671678 0.756477 0.051969 0.000560 -377249.000000 0 0 1
14.020665 -12.159658 18.756132 26.386148 -0.714433 0.780115 0.079276 -0.013214 -979757.000000 0 0 1
15.072565 -12.168558 19.651132 27.593894 -0.679195 0.778233 0.072136 -0.016910 -298669.000000 0 0 1
15.420265 -13.450158 20.174032 28.734698 -0.717264 0.792483 0.080129 -0.023793 306605.000000 0 0 1
15.943165 -14.595458 19.207132 28.915840 -0.741296 0.844316 0.075201 -0.027222 -369579.000000 0 0 1
14.895065 -14.947158 18.337132 27.955874 -0.787144 0.855381 0.077607 -0.023990 38415.100000 0 0 1
15.226665 -15.993258 17.487732 28.168358 -0.809948 0.900997 0.081615 -0.021796 -515877.000000 0 0 1
14.258365 -16.220258 16.338632 27.080410 -0.849679 0.923117 0.073436 -0.018535 421745.000000 0 0 1
12.916765 -16.552858 16.752532 26.860514 -0.908162 0.897347 0.083544 -0.021889 449037.000000 0 0 1
12.046365 -16.759458 15.684032 25.922638 -0.947577 0.920990 0.084568 -0.020174 -196854.000000 0 0 1
12.019665 -18.249558 15.129932 26.578817 -0.988380 0.965206 0.081100 -0.010230 -318961.000000 0 0 1
13.150665 -18.661958 14.389032 26.986161 -0.956938 1.008417 0.072125 -0.016487 53939.900000 0 0 1
12.893165 -19.752858 13.510632 27.183566 -0.992509 1.050641 0.069462 -0.017647 334279.000000 0 0 1
14.212465 -20.458158 13.048432 28.121023 -0.963630 1.088280 0.071884 -0.018229 233797.000000 0 0 1
14.909265 -21.202258 14.008232 29.462730 -0.957931 1.075314 0.059326 -0.012888 -236134.000000 0 0 1
15.325565 -22.389458 13.354132 30.240595 -0.970550 1.113419 0.037010 -0.014385 -468350.000000 0 0 1
16.158065 -23.259058 14.284632 31.719356 -0.963636 1.103645 0.039177 -0.011909 82106.100000 0 0 1
17.521765 -22.858358 14.349732 32.178122 -0.916796 1.108564 0.018944 -0.012257 -108271.000000 0 0 1
18.181965 -23.480158 15.434632 33.468336 -0.911890 1.091482 0.012043 -0.015294 748964.000000 0 0 1
19.623065 -22.861458 15.583332 33.919775 -0.861476 1.093457 -0.014761 -0.010261 860719.000000 0 0 1
20.535665 -23.464458 14.675932 34.462694 -0.851863 1.130895 -0.012564 -0.009469 -176724.000000 0 0 1
21.761765 -22.722358 14.712732 34.732469 -0.806989 1.133379 -0.012271 -0.003755 590288.000000 0 0 1
22.868865 -23.600758 14.056532 35.743067 -0.801147 1.166615 -0.018618 -0.006371 -136044.000000 0 0 1
23.154765 -24.716858 14.823932 36.970463 -0.818017 1.158224 -0.016962 -0.009798 -358579.000000 0 0 1
24.194965 -25.514368 14.360832 37.981743 -0.811934 1.183055 -0.011417 -0.018215 -664273.000000 0 0 1
24.447265 -26.755938 15.250632 39.320869 -0.830456 1.172498 -0.007664 -0.012841 -112381.000000 0 0 1
25.076965 -26.431898 16.506532 39.999562 -0.811697 1.145415 -0.007466 -0.000695 238017.000000 0 0 1
25.248765 -27.617548 17.233132 41.197207 -0.830175 1.139214 0.022400 0.008596 54380.000000 0 0 1
25.779065 -27.300848 18.662132 41.930557 -0.814060 1.109541 0.016995 0.013688 532164.000000 0 0 1
24.740665 -26.757088 19.482432 41.323206 -0.824534 1.079845 0.016838 0.012983 571286.000000 0 0 1
25.246965 -26.556338 20.794232 42.131323 -0.810669 1.054621 0.030036 0.011077 267066.000000 0 0 1
24.130665 -26.270128 21.840132 41.825829 -0.827822 1.021405 0.020231 0.006699 -175622.000000 0 0 1
23.284965 -27.336098 22.013132 42.119233 -0.865257 1.020854 0.033489 0.007048 -438109.000000 0 0 1
22.265265 -27.043388 22.954232 41.880587 -0.881999 0.990720 0.040487 0.005801 -95353.500000 0 0 1
21.604765 -28.352348 23.365732 42.621343 -0.919653 0.990566 0.056866 0.008069 -187264.000000 0 0 1
22.493765 -29.264278 24.012412 44.033661 -0.915470 0.994026 0.060151 0.006739 541426.000000 0 0 1
21.964865 -30.628158 24.000982 44.683179 -0.948655 1.003757 0.058693 0.000027 -140397.000000 0 0 1
22.941865 -31.729768 24.447892 46.160662 -0.944775 1.012637 0.055799 0.006639 -111943.000000 0 0 1
23.059665 -31.802228 25.882482 47.042881 -0.943425 0.988206 0.056461 -0.002447 -146207.000000 0 0 1
24.301265 -32.331838 26.231552 48.207816 -0.926259 0.995439 0.059669 -0.003897 -853799.000000 0 0 1
24.206465 -32.973058 27.621342 49.357006 -0.937531 0.976865 0.058397 -0.015846 324327.000000 0 0 1
23.476065 -34.188213 27.833122 49.946393 -0.969072 0.979714 0.046916 -0.007444 -862084.000000 0 0 1
22.130265 -34.146696 27.581832 49.157938 -0.995762 0.975099 0.051317 -0.010043 -1833590.000000 0 0 1
21.487365 33.194674 28.034572 48.471956 0.996312 0.954071 0.071461 -0.020700 -421812.000000 0 0 1
20.957065 33.366772 29.316642 49.112173 1.009984 0.931124 0.050383 -0.015886 119269.000000 0 0 1
20.302665 32.200212 29.768052 48.323791 1.008242 0.907126 0.052415 -0.025049 -65818.200000 0 0 1
19.919365 32.310142 31.254052 49.168508 1.018329 0.881944 0.046976 -0.029897 607532.000000 0 0 1
21.118265 32.288612 32.050922 50.157723 0.991581 0.877595 0.034629 -0.013254 844097.000000 0 0 1
20.849365 32.519812 33.433862 51.088720 1.000683 0.857371 0.024657 -0.015030 648542.000000 0 0 1
22.135065 32.316722 -34.139689 51.960081 0.970248 2.287678 0.020372 -0.004327 919938.000000 0 0 1
22.479565 30.937932 -34.090574 51.231375 0.942439 2.298858 0.013493 0.000958 -555123.000000 0 0 1
23.711965 30.671682 -33.503871 51.239816 0.912681 2.283477 0.007716 0.015459 -477749.000000 0 0 1
24.109565 29.176642 -33.465021 50.521829 0.880205 2.294797 0.012360 0.006828 12327.300000 0 0 1
24.647765 28.707382 33.762274 50.710130 0.861339 0.842245 0.017255 0.005303 486297.000000 0 0 1
24.008265 27.468842 33.506750 49.534194 0.852523 0.827883 0.021948 -0.004630 -23459.800000 0 0 1
24.336665 26.732692 32.182182 48.400444 0.832281 0.843416 0.058721 -0.019865 207667.000000 0 0 1
25.590565 26.053742 32.232402 48.709365 0.794367 0.847674 0.059194 -0.028012 658320.000000 0 0 1
25.848965 25.302262 31.062902 47.678898 0.774711 0.861234 0.074794 -0.036198 -219911.000000 0 0 1
27.175565 24.529742 31.204592 48.103494 0.734272 0.864925 0.063948 -0.029113 -217796.000000 0 0 1
27.180865 23.670152 32.310582 48.405054 0.716468 0.839944 0.076530 -0.040873 417152.000000 0 0 1
27.865165 24.146942 33.483192 49.806289 0.714032 0.833528 0.070833 -0.036950 -779884.000000 0 0 1
27.554065 23.394752 -33.634611 49.374366 0.703942 2.320219 0.056238 -0.036716 703285.000000 0 0 1
26.359465 23.820742 -32.898551 48.420696 0.734849 2.317784 0.043681 -0.030384 1190800.000000 0 0 1
25.098465 23.643332 -33.469631 48.053682 0.755553 2.341312 0.048486 -0.027560 -661982.000000 0 0 1
24.672765 22.160252 -33.677331 47.265048 0.731801 2.363881 0.047218 -0.031978 -1230120.000000 0 0 1
24.569865 21.548852 -32.428221 46.039340 0.719986 2.352316 0.031939 -0.026351 480493.000000 0 0 1
24.208265 20.186452 -32.524411 45.292055 0.695053 2.371871 0.039849 -0.018068 -200145.000000 0 0 1
24.388865 19.509452 -31.133431 44.099048 0.674700 2.354615 0.036376 -0.023526 -265937.000000 0 0 1
23.317465 19.738952 -30.240801 42.986468 0.702477 2.351101 0.025173 -0.014994 398218.000000 0 0 1
23.561965 19.057352 -29.016991 41.956342 0.680095 2.334498 0.030720 -0.012544 151230.000000 0 0 1
22.328365 19.225752 -28.091141 40.709921 0.710872 2.332329 0.043037 -0.018255 148328.000000 0 0 1
22.345065 18.566752 -26.824311 39.542002 0.693307 2.316345 0.055465 -0.012648 232539.000000 0 0 1
22.999865 19.299752 -25.769621 39.567001 0.698146 2.280080 0.044586 -0.010102 24764.500000 0 0 1
23.020565 18.500352 -24.503531 38.374894 0.676959 2.263383 0.062129 -0.003898 144388.000000 0 0 1
24.072465 17.548752 -24.465531 38.548729 0.629923 2.258371 0.057895 -0.015310 380766.000000 0 0 1
23.820665 16.598652 -23.522231 37.366224 0.608587 2.251713 0.066536 -0.019229 -303634.000000 0 0 1
24.760665 15.381552 -23.642931 37.532264 0.555869 2.252267 0.075188 -0.023785 403755.000000 0 0 1
26.097365 15.770952 -23.300531 38.375906 0.543584 2.223285 0.092674 -0.026860 1181540.000000 0 0 1
27.062265 14.684752 -23.162031 38.529052 0.497166 2.215745 0.092441 -0.032602 692828.000000 0 0 1
26.922065 13.698752 -21.999031 37.368580 0.470687 2.200251 0.087621 -0.030780 106260.000000 0 0 1
25.774165 12.823252 -22.044431 36.258797 0.461664 2.224304 0.075447 -0.024306 545994.000000 0 0 1
25.422265 12.372152 -20.770131 35.082190 0.452924 2.204387 0.056729 -0.028141 -771619.000000 0 0 1
23.969765 11.976552 -20.624431 33.813527 0.463370 2.226789 0.056501 -0.026019 -171459.000000 0 0 1
23.035665 13.068052 -20.549331 33.521499 0.516026 2.230673 0.073613 -0.028426 89851.100000 0 0 1
21.711665 12.681152 -20.777231 32.617501 0.528625 2.261392 0.071287 -0.031161 -207450.000000 0 0 1
20.684265 13.815252 -20.762531 32.400351 0.588864 2.266352 0.072373 -0.030656 -663865.000000 0 0 1
20.974565 14.833652 -21.747331 33.658818 0.615556 2.273274 0.064950 -0.020792 403885.000000 0 0 1
20.137165 15.976652 -21.661931 33.615444 0.670698 2.271040 0.051742 -0.018179 -379322.000000 0 0 1
18.762365 15.907652 -22.306531 33.206341 0.703244 2.307372 0.054307 -0.007566 -41271.800000 0 0 1
17.813165 14.961652 -21.750531 31.847221 0.698614 2.322610 0.049921 -0.011464 197066.000000 0 0 1
16.650265 15.052052 -22.503631 31.783785 0.735028 2.357490 0.056355 -0.023719 -370276.000000 0 0 1
15.567165 13.970652 -22.260431 30.545745 0.731401 2.387302 0.039300 -0.017524 837442.000000 0 0 1
14.278565 14.329252 -22.761331 30.451323 0.787170 2.415036 0.040194 -0.016436 297814.000000 0 0 1
13.292065 13.358152 -22.497531 29.347200 0.787878 2.444324 0.051769 -0.014631 -55528.000000 0 0 1
12.067965 13.543652 -23.407831 29.614065 0.842952 2.482306 0.045490 -0.011403 -404721.000000 0 0 1
11.600765 14.859652 -23.310631 29.979535 0.907942 2.461559 0.032772 -0.008496 -9330.240000 0 0 1
10.969265 15.265852 -24.534531 30.908158 0.947729 2.487809 0.041864 -0.014420 -517691.000000 0 0 1
10.834765 16.853352 -24.566431 31.700744 0.999439 2.457429 0.039662 -0.015544 926197.000000 0 0 1
12.078965 17.588452 -24.381831 32.399518 0.969015 2.422702 0.037379 -0.016428 1009570.000000 0 0 1
13.219465 17.378952 -25.180581 33.329325 0.920508 2.427226 0.045214 -0.022829 -75830.100000 0 0 1
12.982565 17.478952 -26.725581 34.471981 0.931949 2.457961 0.051988 -0.024503 -746023.000000 0 0 1
14.147865 17.290352 -27.488151 35.421982 0.885025 2.459126 0.047155 -0.026740 -141655.000000 0 0 1
13.808865 17.084452 -28.810181 36.229681 0.891032 2.490149 0.051227 -0.031107 -182793.000000 0 0 1
14.936065 17.353252 -29.821911 37.597444 0.860119 2.486826 0.051012 -0.021029 430474.000000 0 0 1
16.083565 16.497352 -29.822011 37.685489 0.798098 2.483793 0.030268 -0.019335 34164.600000 0 0 1
16.913365 16.839452 -30.869251 39.019735 0.783208 2.483432 0.029137 -0.009849 -989189.000000 0 0 1
18.110965 15.938852 -31.019081 39.296787 0.721692 2.480553 0.036702 -0.006320 -1470580.000000 0 0 1
18.823365 15.769852 -29.826551 38.634576 0.697357 2.452805 0.039325 -0.003620 911556.000000 0 0 1
20.095665 15.132452 -30.062901 39.199552 0.645432 2.444823 0.050492 -0.000236 1542480.000000 0 0 1
21.304665 15.902652 -30.704221 40.614435 0.641219 2.427966 0.043979 -0.003399 -339554.000000 0 0 1
21.154665 16.236052 -32.077441 41.714404 0.654603 2.448037 0.040163 -0.000246 1126430.000000 0 0 1
22.311765 16.943452 -32.608971 42.991167 0.649487 2.431811 0.036977 0.003944 692310.000000 0 0 1
22.126465 17.330552 -34.077104 44.172135 0.664444 2.451931 0.023811 0.015957 -138326.000000 0 0 1
23.180865 18.095652 33.840363 44.832748 0.662817 0.715427 0.039572 0.000588 166071.000000 0 0 1
23.061265 18.384552 32.450181 43.850062 0.673034 0.737687 0.060333 -0.004066 -380991.000000 0 0 1
23.829465 19.637352 31.969202 44.446585 0.689252 0.768042 0.073170 -0.012548 283905.000000 0 0 1
25.233065 19.460252 32.060442 45.202665 0.656944 0.782348 0.067947 -0.018582 233916.000000 0 0 1
25.922565 20.707552 31.792402 45.951484 0.674023 0.806722 0.078491 -0.033915 591965.000000 0 0 1
27.452465 20.460752 31.656152 46.630378 0.640496 0.824568 0.070782 -0.038012 293086.000000 0 0 1
28.065365 19.790052 32.753584 47.456382 0.614168 0.809055 0.055973 -0.032707 -440855.000000 0 0 1
29.449765 19.846052 32.537213 48.164558 0.592990 0.829096 0.045578 -0.028561 -242721.000000 0 0 1
30.285365 19.245552 33.713088 49.235830 0.566096 0.816568 0.030403 -0.021595 75494.200000 0 0 1
30.321165 20.017252 -33.578291 49.472872 0.583494 2.316816 0.023237 -0.023634 -68462.500000 0 0 1
29.228165 19.755352 -32.742521 48.131406 0.594369 2.318932 0.025285 -0.023274 -230101.000000 0 0 1
29.635265 20.132252 -31.309791 47.580033 0.596721 2.289015 0.035302 -0.020100 905207.000000 0 0 1
30.691165 19.320752 -30.705631 47.519205 0.561844 2.273356 0.035589 -0.022392 840363.000000 0 0 1
30.941965 19.760052 -29.362451 47.010833 0.568331 2.245402 0.027968 -0.019840 -310559.000000 0 0 1
32.336265 19.236152 -28.999211 47.503872 0.536645 2.227437 0.033722 -0.011418 80988.100000 0 0 1
33.376565 20.007052 -29.591351 48.886862 0.540003 2.220942 0.001202 -0.008411 -693047.000000 0 0 1
34.621165 19.791852 -29.029271 49.325866 0.519327 2.200024 0.012625 -0.006125 -1229050.000000 0 0 1
35.642965 20.665052 -29.697051 50.787599 0.525419 2.195344 0.012190 -0.001308 -663656.000000 0 0 1
-36.053775 20.357852 -30.996561 51.721404 -0.514023 2.213421 -0.002107 -0.003350 485935.000000 0 0 1
-34.947275 21.185652 -31.360011 51.513049 -0.544979 2.225316 0.001860 -0.010387 162545.000000 0 0 1
-34.077175 20.672052 -32.509881 51.434229 -0.545276 2.255014 0.004977 -0.013990 543.063000 0 0 1
-33.333575 19.530952 -32.057251 50.202118 -0.530005 2.263427 0.026097 -0.007021 528916.000000 0 0 1
-32.401175 19.005852 -32.986091 49.991407 -0.530493 2.291396 0.028488 -0.001844 -47030.000000 0 0 1
-31.616075 17.784452 -32.561011 48.745075 -0.512399 2.302295 0.023850 0.006717 -284687.000000 0 0 1
-32.403375 16.637952 -32.572651 48.864893 -0.474360 2.300416 0.029940 0.001780 228829.000000 0 0 1
-31.627375 15.498252 -32.969851 48.244147 -0.455637 2.323200 0.026166 0.003681 233420.000000 0 0 1
-32.477875 14.206252 -33.140591 48.527608 -0.412338 2.322552 0.029702 0.002877 73587.900000 0 0 1
-31.777675 13.005352 -33.287781 47.822967 -0.388464 2.340695 0.047492 -0.007413 -171207.000000 0 0 1
-32.737575 12.012552 -33.547871 48.389150 -0.351681 2.336845 0.054940 -0.008636 24537.500000 0 0 1
-32.143675 10.592252 -33.581691 47.677475 -0.318322 2.352305 0.064123 -0.005433 171567.000000 0 0 1
-31.475775 10.206752 33.683990 47.217723 -0.313574 0.776492 0.038757 -0.009184 224871.000000 0 0 1
-31.806575 8.893252 33.430837 46.993287 -0.272642 0.779314 0.065386 -0.008551 151560.000000 0 0 1
-30.806575 8.179352 32.471080 45.500746 -0.259519 0.776118 0.073748 -0.006624 275592.000000 0 0 1
-29.561475 7.896052 33.054152 45.042262 -0.261013 0.746828 0.053173 -0.002698 -391963.000000 0 0 1
-28.637475 7.304752 32.189062 43.698971 -0.249751 0.742753 0.059177 -0.000713 -119947.000000 0 0 1
20.361865 -3.865058 -32.019121 38.141425 -0.187587 2.567129 0.066805 -0.033110 -363421.000000 0 0 1
21.638065 -4.201458 -32.513491 39.280850 -0.191783 2.545826 0.059026 -0.039351 836791.000000 0 0 1
22.797365 -3.379958 -32.267681 39.652834 -0.147189 2.521380 0.060172 -0.034091 899462.000000 0 0 1
22.700365 -1.829858 -32.594391 39.762410 -0.080435 2.531734 0.056430 -0.029227 -452675.000000 0 0 1
23.830365 -1.066658 -32.188511 40.064003 -0.044731 2.503826 0.064058 -0.025022 412529.000000 0 0 1
23.616065 0.292842 -32.472111 40.152737 0.012400 2.512760 0.042689 -0.032880 -356213.000000 0 0 1
24.621165 1.213042 -31.757461 40.202109 0.049228 2.481516 0.047479 -0.026689 -35866.100000 0 0 1
25.883365 1.257742 -32.381801 41.474227 0.048555 2.466692 0.047158 -0.026391 -714302.000000 0 0 1
26.704865 2.193342 -31.764351 41.556402 0.081949 2.440856 0.054528 -0.018801 -865869.000000 0 0 1
28.165565 2.091942 -32.187541 42.821876 0.074137 2.421373 0.058227 -0.021144 -538597.000000 0 0 1
28.410565 2.518142 -33.496161 43.994250 0.088403 2.436229 0.065137 -0.031546 -17122.200000 0 0 1
28.524565 1.439842 34.080784 44.465985 0.050434 0.697506 0.051497 -0.029774 -439658.000000 0 0 1
28.913365 1.934442 32.685961 43.681767 0.066805 0.725339 0.035230 -0.027768 -204015.000000 0 0 1
28.055065 2.829042 32.023252 42.668241 0.100499 0.721952 0.028155 -0.023393 180404.000000 0 0 1
28.409765 4.192442 32.414333 43.305661 0.146513 0.724998 0.039379 -0.018159 217570.000000 0 0 1
27.970665 5.133442 31.301792 42.290809 0.181510 0.737494 0.056879 -0.021386 -65714.600000 0 0 1
28.204565 6.490542 31.662942 42.897162 0.226186 0.740528 0.040906 -0.021410 -39201.000000 0 0 1
27.478565 7.427442 30.931012 42.035294 0.263991 0.743898 0.032948 -0.014787 -250165.000000 0 0 1
27.811065 8.892942 31.395782 42.874642 0.309488 0.749148 0.027277 -0.007685 1028330.000000 0 0 1
29.135365 9.302742 31.007042 43.552809 0.309062 0.778538 0.020401 -0.008803 703002.000000 0 0 1
29.570365 10.543942 31.465602 44.448457 0.342517 0.784259 0.023000 -0.000186 20351.800000 0 0 1
30.970165 10.928242 30.957442 45.132481 0.339224 0.814924 0.011330 0.002715 11706.100000 0 0 1
32.101565 10.374242 31.671412 46.273251 0.312575 0.816957 0.015056 -0.007338 859932.000000 0 0 1
33.344965 10.668042 31.088542 46.820842 0.309639 0.844655 0.021038 -0.005576 -150844.000000 0 0 1
33.796965 12.174542 31.252782 47.615026 0.345756 0.854807 0.028492 -0.004692 -1367990.000000 0 0 1
34.113365 12.407542 32.597113 48.787709 0.348840 0.839088 0.033451 -0.007760 174444.000000 0 0 1
34.365765 13.777742 33.008958 49.602654 0.381295 0.842676 0.030958 0.001175 -638533.000000 0 0 1
33.321165 14.865942 32.867042 49.107420 0.419640 0.837545 0.036802 -0.009314 -1747620.000000 0 0 1
33.100965 15.219042 31.490012 48.155103 0.430954 0.858030 0.032848 -0.017674 1067750.000000 0 0 1
31.990765 16.139242 31.372042 47.624460 0.467239 0.851656 0.032574 -0.022478 1679820.000000 0 0 1
30.533865 15.580742 31.643632 46.651858 0.471836 0.825359 0.032956 -0.019768 230881.000000 0 0 1
30.122765 14.913142 30.474892 45.370716 0.459703 0.834314 0.039076 -0.007854 -448504.000000 0 0 1
28.750465 14.666242 30.434942 44.361848 0.471712 0.814735 0.033797 -0.014261 -382478.000000 0 0 1
28.133165 14.139942 29.126692 42.892623 0.465732 0.824314 0.034294 -0.001173 -35577.300000 0 0 1
28.359665 12.742642 28.941192 42.476324 0.422291 0.821193 0.019334 0.003156 -126962.000000 0 0 1
27.281765 12.293842 28.170262 41.097408 0.423373 0.815573 0.019187 0.000046 -291156.000000 0 0 1
27.147165 10.786642 28.112992 40.542084 0.378211 0.804561 0.019004 0.005940 114137.000000 0 0 1
28.168965 10.048142 27.473802 40.611151 0.342640 0.827785 0.018384 0.004324 7974.630000 0 0 1
27.663165 8.751142 27.279732 39.824829 0.306385 0.816202 0.028108 0.000965 -514074.000000 0 0 1
28.749065 7.809042 26.871862 40.119657 0.265228 0.836866 0.027510 -0.006000 -654763.000000 0 0 1
29.124765 8.046042 25.527242 39.555415 0.269538 0.869310 0.023055 -0.003595 190947.000000 0 0 1
29.955565 7.022142 25.009512 39.649994 0.230261 0.888268 0.018696 0.003842 272809.000000 0 0 1
30.657265 7.214942 23.631272 39.374615 0.231136 0.927089 0.025564 0.008869 128629.000000 0 0 1
31.365665 8.432142 23.422092 40.043731 0.262624 0.946024 0.022576 0.001430 325666.000000 0 0 1
30.615665 9.561642 22.957732 39.443648 0.302714 0.949563 0.020646 0.002913 -193292.000000 0 0 1
30.175765 9.592742 21.480332 38.262281 0.307793 0.974723 0.023615 0.003110 307674.000000 0 0 1
31.240165 9.812042 20.534232 38.650728 0.304327 1.010689 0.024661 -0.002376 767467.000000 0 0 1
30.838965 9.802942 19.176832 37.615028 0.307774 1.035823 0.032837 -0.017137 -315079.000000 0 0 1
31.833065 10.641842 18.317832 38.237884 0.322622 1.071225 0.042652 -0.030702 976444.000000 0 0 1
33.147865 10.254642 17.945832 39.063942 0.300022 1.093481 0.049785 -0.024949 962791.000000 0 0 1
34.107565 10.072542 18.998232 40.320155 0.287155 1.080163 0.053780 -0.017141 164424.000000 0 0 1
35.476665 9.566242 18.494632 41.135850 0.263385 1.104480 0.068672 -0.021764 -65112.400000 0 0 1
35.346065 8.221142 18.034432 40.523724 0.228527 1.109584 0.072124 -0.020901 -405903.000000 0 0 1
-35.632275 7.689942 17.605532 40.481465 -0.212554 1.120865 0.079600 -0.014372 -1082660.000000 0 0 1
-35.778275 6.168842 17.434532 40.275333 -0.170740 1.123107 0.072586 -0.011718 -540567.000000 0 0 1
35.258765 5.931042 16.663532 39.446560 0.166654 1.134668 0.054093 -0.006168 -73524.500000 0 0 1
35.441965 4.756942 15.839432 39.110727 0.133420 1.153829 0.059666 -0.004166 783963.000000 0 0 1
34.195165 3.782142 16.026532 37.953440 0.110157 1.134850 0.037722 0.000205 938858.000000 0 0 1
34.117865 3.222442 17.304432 38.390835 0.094171 1.103198 0.032307 0.006603 -324847.000000 0 0 1
32.947365 2.456742 17.341132 37.313259 0.074428 1.087450 0.018359 0.007979 -202063.000000 0 0 1
32.813465 1.541642 18.585332 37.742744 0.046947 1.055927 0.023960 -0.005665 -10079.000000 0 0 1
33.472165 0.292842 18.534532 38.262259 0.008749 1.065110 0.024529 0.002981 -128112.000000 0 0 1
33.355865 -0.343358 19.783832 38.783136 -0.010293 1.035479 0.024339 0.000138 239018.000000 0 0 1
33.718865 -1.855158 19.757832 39.125125 -0.054963 1.041425 0.030037 0.004828 75598.700000 0 0 1
33.439165 -2.507758 20.977032 39.553792 -0.074854 1.011793 0.037979 0.002945 -36270.600000 0 0 1
33.784765 -3.873058 20.895632 39.912885 -0.114141 1.019806 0.028198 -0.002456 -380549.000000 0 0 1
33.186365 -4.683158 22.026232 40.105133 -0.140191 0.989375 0.020191 0.000766 -111770.000000 0 0 1
33.745665 -4.295958 23.278132 41.220099 -0.126623 0.970693 0.021974 -0.004089 496360.000000 0 0 1
33.111065 -4.937758 24.398922 41.425010 -0.148036 0.940988 0.024172 -0.006013 270086.000000 0 0 1
33.618365 -4.308958 25.685872 42.526763 -0.127478 0.922294 0.009300 -0.005465 207691.000000 0 0 1
32.855865 -4.751958 26.792562 42.660642 -0.143634 0.891765 0.021392 -0.012656 143389.000000 0 0 1
33.476965 -4.306558 28.002242 43.856347 -0.127940 0.878250 0.029255 -0.011794 -144830.000000 0 0 1
32.627565 -4.460958 29.257022 44.050329 -0.135881 0.844410 0.040555 -0.015951 -168505.000000 0 0 1
32.457565 -5.778658 29.743882 44.402533 -0.176191 0.836764 0.032114 -0.019387 -186811.000000 0 0 1
31.460065 -5.710058 30.726382 44.344684 -0.179547 0.805295 0.038436 -0.026649 -874324.000000 0 0 1
31.091565 -7.059458 31.369142 44.727446 -0.223268 0.793521 0.044964 -0.019068 57333.700000 0 0 1
32.193665 -7.568458 32.079822 46.074164 -0.230899 0.800616 0.040059 -0.022082 -57351.400000 0 0 1
33.084865 -8.414858 31.372442 46.364299 -0.249061 0.827592 0.044885 -0.021831 333624.000000 0 0 1
34.325065 -8.804658 32.225632 47.898053 -0.251095 0.832814 0.035105 -0.010287 195334.000000 0 0 1
34.011565 -9.465358 33.385458 48.589797 -0.271430 0.813323 0.034674 -0.014809 633704.000000 0 0 1
35.236465 -9.860058 34.039577 49.975214 -0.272847 0.821493 0.046596 -0.016813 686033.000000 0 0 1
35.204465 -10.129058 -32.912131 49.245919 -0.280154 2.302747 0.055146 -0.022148 -369166.000000 0 0 1
35.077865 -8.963058 -32.095901 48.383260 -0.250166 2.296107 0.038355 -0.014755 664409.000000 0 0 1
-35.998675 -8.029358 -32.129791 48.915219 0.219454 2.287425 0.046101 -0.009046 298660.000000 0 0 1
35.808765 -6.665258 -31.474481 48.138719 -0.184029 2.283430 0.039405 -0.013471 -175644.000000 0 0 1
35.828065 -6.742558 -30.058431 47.250625 -0.186016 2.260293 0.046057 -0.008718 483450.000000 0 0 1
35.050065 -5.730658 -29.409931 46.111729 -0.162065 2.262431 0.048620 -0.010291 154887.000000 0 0 1
35.383765 -5.753558 -27.894071 45.422389 -0.161194 2.232047 0.041257 -0.013200 548579.000000 0 0 1
-35.425675 -5.434758 -27.591841 45.230794 0.152226 2.226886 0.035061 -0.010464 175722.000000 0 0 1
-35.200875 -4.930658 -26.325711 44.231844 0.139167 2.208280 0.033249 -0.010388 -227820.000000 0 0 1
-33.795775 -5.233058 -25.819101 42.850499 0.153624 2.217475 0.053771 -0.013877 -598473.000000 0 0 1
-33.610975 -4.525158 -24.595231 41.893914 0.133829 2.198248 0.061634 -0.004207 1132650.000000 0 0 1
-32.239975 -4.403558 -24.134831 40.512928 0.135747 2.208973 0.073898 -0.004946 1291890.000000 0 0 1
-31.437475 -3.262158 -24.827731 40.191700 0.103396 2.236653 0.083813 0.002060 -322708.000000 0 0 1
-30.902075 -3.659058 -26.060241 40.588953 0.117859 2.267969 0.075774 0.005807 24945.300000 0 0 1
-29.959775 -2.715258 -26.553991 40.125742 0.090383 2.293973 0.074624 0.000568 159454.000000 0 0 1
-29.198875 -3.352358 -27.718381 40.399520 0.114311 2.326920 0.071622 0.010575 73174.600000 0 0 1
-30.047575 -3.554858 -28.842721 41.801870 0.117760 2.332267 0.064288 0.012921 83850.600000 0 0 1
-29.383275 -4.310558 -29.802351 42.073006 0.145662 2.357952 0.056439 0.002357 -995199.000000 0 0 1
-30.220775 -4.671658 -31.045131 43.576597 0.153370 2.363747 0.033039 0.004631 -494149.000000 0 0 1
-31.270275 -5.631958 -30.981891 44.378222 0.178195 2.343583 0.028229 0.001789 792773.000000 0 0 1
-32.441975 -5.221858 -30.271761 44.678060 0.159591 2.315227 0.043296 -0.001254 -392416.000000 0 0 1
-33.398175 -4.373058 -31.119901 45.858586 0.130196 2.316659 0.059500 -0.003713 -1207720.000000 0 0 1
-32.971375 -3.086658 -31.545101 45.735461 0.093344 2.331912 0.069968 0.002557 -130183.000000 0 0 1
-32.847075 -2.145858 -30.485831 44.865587 0.065236 2.317867 0.065701 0.012626 -375577.000000 0 0 1
-32.470575 -0.761258 -30.998711 44.898083 0.023440 2.332871 0.065153 0.013930 277840.000000 0 0 1
-33.509675 -0.004958 -31.630381 46.080140 0.000148 2.327352 0.078354 0.012567 131635.000000 0 0 1
-32.998175 1.009942 -32.449291 46.290993 -0.030596 2.347574 0.073732 0.019651 -63725.700000 0 0 1
-34.050575 2.058942 -32.838151 47.350027 -0.060394 2.337159 0.080680 0.013907 -129604.000000 0 0 1
-34.858075 1.622242 -33.894611 48.647320 -0.046505 2.341641 0.075291 0.015559 214913.000000 0 0 1
36.080065 2.368942 -33.900621 49.564454 0.065564 2.323988 0.074354 0.011647 835874.000000 0 0 1
35.061465 1.834242 33.517400 48.539539 0.052267 0.808592 0.050776 0.010310 160719.000000 0 0 1
35.392365 2.162942 32.150602 47.863964 0.061037 0.834285 0.045958 0.010536 486237.000000 0 0 1
-35.759175 1.351142 31.564662 47.716580 -0.037767 0.847975 0.040699 0.009859 -11185.400000 0 0 1
-35.686275 1.511342 30.039002 46.670505 -0.042326 0.871551 0.038225 0.001922 -317616.000000 0 0 1
-35.297575 2.814242 29.670002 46.196837 -0.079561 0.873364 0.043460 0.000249 269335.000000 0 0 1
-34.800875 2.842342 28.329312 44.963649 -0.081494 0.889180 0.032637 -0.006578 115052.000000 0 0 1
-34.235875 4.231542 27.967782 44.409435 -0.122976 0.889538 0.046134 -0.003819 -542455.000000 0 0 1
-33.659875 4.342242 26.736982 43.205421 -0.128295 0.903539 0.057364 -0.000844 71886.400000 0 0 1
-33.166275 5.674442 26.576752 42.878023 -0.169450 0.902280 0.069647 -0.002308 -369379.000000 0 0 1
-32.461575 6.003042 25.234832 41.552221 -0.182862 0.918134 0.066827 -0.008219 -803748.000000 0 0 1
-31.238875 5.321442 25.232702 40.507707 -0.168727 0.898338 0.072652 -0.003144 -42713.500000 0 0 1
-30.413275 5.650742 24.101012 39.214244 -0.183704 0.908920 0.069474 -0.006132 361320.000000 0 0 1
-30.948475 5.148942 22.756132 38.757725 -0.164861 0.943278 0.069563 -0.009994 -272745.000000 0 0 1
-30.803275 3.754942 22.532432 38.349078 -0.121302 0.942755 0.060368 -0.008641 39513.400000 0 0 1
-31.864175 3.308042 21.711732 38.699717 -0.103446 0.975166 0.059476 -0.007031 -30924.000000 0 0 1
-31.754575 1.818242 21.378232 38.323463 -0.057197 0.979019 0.054800 -0.003342 74784.300000 0 0 1
-30.635075 1.383042 20.617932 36.952939 -0.045115 0.978882 0.073717 -0.002372 157176.000000 0 0 1
-30.639775 1.807842 19.304932 36.259405 -0.058935 1.009349 0.078621 -0.008246 -351062.000000 0 0 1
-29.498675 1.235542 18.473432 34.827662 -0.041860 1.011696 0.064888 -0.013747 -332986.000000 0 0 1
-29.772675 -0.136858 18.206732 34.898653 0.004597 1.021950 0.080984 -0.008609 -40191.100000 0 0 1
-28.683275 -0.820258 17.661032 33.694438 0.028589 1.019076 0.091879 -0.007335 -148376.000000 0 0 1
-28.285875 -0.516558 16.186232 32.593736 0.018260 1.051113 0.076901 -0.001044 -127242.000000 0 0 1
-27.752375 0.762342 15.981832 32.034269 -0.027463 1.048470 0.090754 -0.005765 61134.200000 0 0 1
-27.563075 0.902542 14.580132 31.194838 -0.032733 1.084461 0.102046 -0.004202 -201284.000000 0 0 1
-26.991375 2.220742 14.095032 30.530901 -0.082091 1.090926 0.102084 -0.010030 228588.000000 0 0 1
-25.570675 2.266542 14.165232 29.319796 -0.088407 1.066572 0.087932 -0.020642 311363.000000 0 0 1
-25.122975 3.399242 13.487632 28.716457 -0.134487 1.081865 0.085634 -0.020810 334121.000000 0 0 1
-23.583975 3.629742 13.381932 27.357906 -0.152709 1.059689 0.066181 -0.017196 118205.000000 0 0 1
-23.068175 4.229642 14.531432 27.589728 -0.181340 1.016086 0.060677 -0.012885 -372329.000000 0 0 1
-21.760175 4.564842 14.150132 26.354681 -0.206781 1.004024 0.063689 -0.013486 -544174.000000 0 0 1
-20.874475 5.154842 15.266532 26.370117 -0.242101 0.953377 0.044434 -0.014718 -171611.000000 0 0 1
-21.329175 6.352742 15.899332 27.351047 -0.289477 0.950463 0.045303 -0.006680 499080.000000 0 0 1
-20.309375 6.834042 16.752832 27.199857 -0.324595 0.907248 0.028973 -0.006619 18176.400000 0 0 1
-20.453875 8.358842 17.029332 27.896763 -0.387956 0.914179 0.018736 -0.007273 -393078.000000 0 0 1
-19.738675 9.134142 16.090632 27.054690 -0.433409 0.933848 0.023316 -0.006392 425705.000000 0 0 1
-19.793975 10.572342 16.177032 27.663554 -0.490569 0.946190 0.029177 -0.010017 -203682.000000 0 0 1
-19.247175 11.296042 17.452832 28.331178 -0.530727 0.907105 0.045961 -0.009111 -456870.000000 0 0 1
-20.030575 11.073742 18.575432 29.477082 -0.505023 0.889030 0.049501 -0.011922 318198.000000 0 0 1
-19.480475 11.776442 19.699432 30.103839 -0.543740 0.857430 0.061904 -0.005765 -53284.200000 0 0 1
-12.060235 -33.833567 -20.790431 41.501826 1.228380 2.095495 0.084342 -0.025620 -252701.000000 0 0 1
-13.108835 -34.282867 -19.945231 41.772824 1.205578 2.068568 0.104221 -0.025308 -604519.000000 0 0 1
-14.165935 -33.380967 -19.914631 41.370947 1.169458 2.073011 0.089223 -0.041310 -701678.000000 0 0 1
-15.279635 -33.847267 -18.985831 41.708111 1.146755 2.043401 0.078938 -0.037245 -829305.000000 0 0 1
-15.973535 33.690842 -19.511131 42.082193 -1.128065 2.052899 0.072085 -0.043828 -456677.000000 0 0 1
-16.665635 32.945442 -18.569431 41.327586 -1.102475 2.036804 0.058670 -0.044966 264954.000000 0 0 1
-18.148635 33.269442 -18.229131 42.053894 -1.071411 2.019137 0.062287 -0.040198 -180183.000000 0 0 1
-18.328035 -34.188367 -17.473031 42.544896 1.078695 1.994014 0.069914 -0.034487 244072.000000 0 0 1
-19.609135 -34.075867 -16.861331 42.778352 1.048620 1.975945 0.050986 -0.026559 170467.000000 0 0 1
-19.763535 33.856642 -15.482931 42.149623 -1.042417 1.946936 0.057933 -0.027850 -570210.000000 0 0 1
-19.739535 32.452542 -15.531931 41.037271 -1.024327 1.958954 0.061008 -0.031047 31426.000000 0 0 1
-20.318835 31.943042 -14.370831 40.493627 -1.004258 1.933594 0.059782 -0.027220 -604021.000000 0 0 1
-20.318535 30.390642 -14.298731 39.254143 -0.981471 1.943635 0.056497 -0.028076 595516.000000 0 0 1
-19.015535 29.838642 -14.028431 38.062213 -1.003416 1.948262 0.059260 -0.032539 826029.000000 0 0 1
-19.059835 28.406242 -14.029131 36.973077 -0.979818 1.959989 0.061499 -0.032177 125049.000000 0 0 1
-17.821235 27.659042 -13.415731 35.533096 -0.998425 1.957952 0.057554 -0.028107 879913.000000 0 0 1
-16.683035 27.939242 -14.257631 35.527524 -1.032498 1.983745 0.082898 -0.039699 230200.000000 0 0 1
-15.581535 27.117342 -13.889931 34.220822 -1.049265 1.988750 0.091489 -0.047739 1228340.000000 0 0 1
-14.221135 27.599942 -14.546231 34.286883 -1.095016 2.008930 0.087363 -0.045958 748503.000000 0 0 1
-14.256235 27.516142 -15.949431 34.853446 -1.092770 2.046106 0.059792 -0.041769 176942.000000 0 0 1
-13.224035 28.355942 -16.484631 35.364921 -1.134422 2.055707 0.084415 -0.043384 277841.000000 0 0 1
-13.131535 28.322342 -18.023931 36.047946 -1.136653 2.094394 0.100397 -0.054493 -100612.000000 0 0 1
-12.832135 27.098042 -18.584131 35.275169 -1.128536 2.125667 0.079215 -0.053107 232086.000000 0 0 1
-13.361935 27.035042 -19.920831 36.142418 -1.111763 2.154569 0.065602 -0.049707 -99069.900000 0 0 1
-12.672435 26.012742 -20.826031 35.650764 -1.117471 2.194651 0.033362 -0.028799 411945.000000 0 0 1
-11.388935 26.474942 -21.285331 35.828700 -1.164548 2.206925 0.034036 -0.029940 151370.000000 0 0 1
-10.565035 25.458742 -21.688431 35.073574 -1.177438 2.237463 0.035656 -0.021711 30218.200000 0 0 1
-9.384735 25.965042 -22.585631 35.670260 -1.223969 2.256449 0.057699 -0.031891 214334.000000 0 0 1
-9.713635 26.545542 -23.829831 36.971359 -1.220007 2.271229 0.053931 -0.032941 -332267.000000 0 0 1
-8.608435 26.664742 -24.676231 37.336712 -1.258520 2.292828 0.050979 -0.036954 -493458.000000 0 0 1
-9.076535 27.385142 -25.972601 38.818881 -1.250751 2.303755 0.069020 -0.035512 -37288.200000 0 0 1
-10.035135 26.586542 -26.607691 38.929647 -1.209878 2.323318 0.053481 -0.033850 -427730.000000 0 0 1
-10.440035 27.150042 -27.840941 40.264589 -1.203696 2.334290 0.077525 -0.031279 55365.000000 0 0 1
-11.595335 26.354842 -28.477951 40.497200 -1.156315 2.350696 0.053644 -0.023793 49650.100000 0 0 1
-12.112735 26.907142 -29.703131 41.868707 -1.147803 2.359493 0.063442 -0.017832 -657080.000000 0 0 1
-13.274535 26.226242 -29.997731 41.998726 -1.102237 2.366353 0.045173 -0.018844 -972426.000000 0 0 1
-13.728235 26.345642 -31.484361 43.287669 -1.090426 2.385218 0.051470 -0.021345 -177114.000000 0 0 1
-12.837335 25.939342 -32.538641 43.547788 -1.111238 2.414626 0.049096 -0.013974 202936.000000 0 0 1
-12.517135 24.558142 -32.484321 42.602959 -1.099424 2.437949 0.035519 -0.019594 -78497.600000 0 0 1
-11.679335 24.175642 -33.724211 43.106739 -1.120757 2.469213 0.023855 -0.010766 162554.000000 0 0 1
-12.362535 24.190542 33.484100 43.118437 -1.098349 0.681607 0.021713 -0.008064 300186.000000 0 0 1
-11.475835 23.776842 32.440905 41.826371 -1.121127 0.683117 0.015443 -0.008988 33866.700000 0 0 1
-12.122335 23.860942 31.037192 40.982958 -1.100737 0.711598 0.014120 0.002957 -148681.000000 0 0 1
-13.270935 23.056742 30.949992 40.812168 -1.048528 0.710015 0.034361 -0.009342 -125447.000000 0 0 1
-13.788335 22.975142 29.615712 39.938274 -1.030273 0.735438 0.039128 -0.006411 301046.000000 0 0 1
-14.982035 21.989442 29.478142 39.710928 -0.972712 0.734273 0.036519 -0.013791 312196.000000 0 0 1
-14.589935 20.702542 29.736662 39.060601 -0.956895 0.705487 0.008556 -0.010949 -368878.000000 0 0 1
-15.700235 19.977542 30.180842 39.452285 -0.904716 0.699761 0.016101 -0.017382 -74872.200000 0 0 1
-15.456335 18.495042 30.160592 38.608629 -0.874662 0.674230 0.001400 -0.026330 -107902.000000 0 0 1
-15.087635 17.994642 28.865262 37.210848 -0.873045 0.682938 0.013294 -0.025774 203518.000000 0 0 1
-14.613235 16.680642 28.809372 36.356160 -0.851367 0.656029 0.000753 -0.031272 6225.690000 0 0 1
-14.211635 16.205142 27.420362 34.877693 -0.850844 0.666183 0.014943 -0.027402 -261298.000000 0 0 1
-13.235535 16.912642 26.732292 34.290411 -0.906767 0.676793 -0.014507 -0.019965 -296413.000000 0 0 1
-12.703035 16.171442 25.616042 32.849114 -0.904946 0.676435 -0.023190 -0.011268 738587.000000 0 0 1
-11.607335 16.847942 24.697062 32.070676 -0.967527 0.691826 -0.015451 -0.005355 384321.000000 0 0 1
-12.016335 17.951342 23.892922 32.210475 -0.980915 0.735083 -0.017351 -0.007481 -278168.000000 0 0 1
-12.431935 19.123642 24.563972 33.520970 -0.994363 0.748377 -0.013297 -0.013424 201857.000000 0 0 1
-11.343035 19.973242 25.305532 34.175500 -1.054306 0.737044 -0.016708 -0.012816 322237.000000 0 0 1
-10.971735 19.616842 26.630792 34.848222 -1.060840 0.701006 -0.020686 -0.007638 53077.200000 0 0 1
-11.968735 19.933242 27.593732 36.083221 -1.030053 0.700182 0.000615 -0.004994 -131029.000000 0 0 1
-11.721735 19.494442 29.036742 36.885834 -1.029432 0.664532 0.000245 -0.012545 -931880.000000 0 0 1
-10.584435 20.070242 29.569212 37.271748 -1.085494 0.654518 -0.015345 -0.010170 -741792.000000 0 0 1
-10.580435 19.853342 30.931922 38.247675 -1.081153 0.628812 -0.008289 -0.015428 -299099.000000 0 0 1
-9.527135 20.652842 31.692102 39.008916 -1.138586 0.622485 -0.011261 -0.011551 -19805.400000 0 0 1
-8.236835 20.072942 31.650762 38.373679 -1.181404 0.600941 -0.010250 -0.012155 -112822.000000 0 0 1
-7.315435 20.905242 32.304642 39.168031 -1.234181 0.601000 0.000895 -0.007962 -846877.000000 0 0 1
-6.048135 20.249242 32.797236 39.016284 -1.280547 0.572399 -0.001332 0.000180 -963469.000000 0 0 1
-6.171535 19.432842 33.935126 39.589342 -1.263288 0.541031 0.003040 -0.004101 699207.000000 0 0 1
-4.931035 18.955842 -33.983841 39.224234 -1.316304 2.618742 0.003926 -0.001131 1139580.000000 0 0 1
-4.155135 17.844742 33.709364 38.366928 -1.342024 0.497864 -0.004330 0.002620 296953.000000 0 0 1
-4.926035 16.643942 33.756387 37.957612 -1.283045 0.474945 -0.001223 0.005940 347456.000000 0 0 1
-4.806735 15.906942 32.573122 36.566977 -1.277342 0.471738 0.000346 0.007444 -147959.000000 0 0 1
-5.450935 14.515142 32.560900 36.064030 -1.211557 0.444412 0.011151 -0.000401 156647.000000 0 0 1
-4.769335 13.569142 33.459481 36.419844 -1.232800 0.405980 0.022246 0.002089 464248.000000 0 0 1
-5.365835 12.265142 33.370329 35.955595 -1.158397 0.381524 0.025090 0.001933 -17486.100000 0 0 1
-4.472335 11.129442 33.852297 35.914402 -1.188699 0.340515 0.033825 -0.012006 -213516.000000 0 0 1
-4.445435 10.879942 -33.254001 35.269869 -1.182907 2.801862 0.044808 -0.011550 -236301.000000 0 0 1
-3.405135 9.995842 -32.905261 34.558183 -1.242471 2.831057 0.060969 -0.015925 98090.800000 0 0 1
-3.506335 9.504242 -31.447721 33.039131 -1.217364 2.829955 0.063082 -0.016345 -186735.000000 0 0 1
-4.521135 8.576042 -31.224351 32.694790 -1.085640 2.840541 0.058844 -0.010407 -418499.000000 0 0 1
-4.794635 8.524242 -29.808581 31.372006 -1.058429 2.824561 0.070565 -0.011782 -451937.000000 0 0 1
-5.893035 7.517542 -29.528711 31.035239 -0.905947 2.828734 0.051724 -0.013392 -374792.000000 0 0 1
-5.892935 7.114942 -28.189041 29.664307 -0.879067 2.824892 0.052060 -0.010471 377702.000000 0 0 1
-6.797635 5.985542 -28.012411 29.440274 -0.721955 2.828871 0.052433 -0.018426 310893.000000 0 0 1
-6.664435 5.210442 -26.697171 28.005399 -0.663562 2.834732 0.048943 -0.020594 -257312.000000 0 0 1
-6.873035 5.940842 -25.448441 27.021387 -0.712777 2.798708 0.028637 -0.015439 362663.000000 0 0 1
-6.014535 7.061242 -25.164221 26.819280 -0.865277 2.788444 0.035162 -0.011363 -5554.700000 0 0 1
-6.630135 7.898842 -24.057831 26.174981 -0.872500 2.736626 0.010822 -0.006168 2879.720000 0 0 1
-6.674435 7.247142 -22.833131 24.868073 -0.826513 2.734234 0.003194 -0.006266 -864993.000000 0 1 0
-7.685435 7.823742 -22.143731 24.710761 -0.794316 2.681738 0.002999 -0.002402 -954343.000000 0 1 0
-7.376835 7.874842 -20.670731 23.317589 -0.818039 2.660493 -0.002593 -0.004874 -129672.000000 0 1 0
-6.618435 9.005142 -20.307031 23.179124 -0.936989 2.638491 -0.016009 -0.001902 -126595.000000 0 1 0
-6.495435 9.178442 -18.967731 22.050154 -0.954932 2.606475 -0.006370 -0.006473 -769407.000000 0 1 0
-7.760935 9.535242 -18.169331 21.938039 -0.887624 2.546705 -0.015279 0.003425 -483166.000000 0 1 0
-7.595235 9.555542 -16.769331 20.741419 -0.899203 2.512386 -0.019471 0.003174 1414200.000000 0 1 0
-8.835535 9.914842 -16.065131 20.843685 -0.842897 2.450803 -0.009995 0.001226 1564300.000000 0 1 0
-9.497535 11.312342 -16.251431 21.960903 -0.872387 2.403891 0.005565 -0.003455 -279911.000000 0 1 0
-8.594935 12.339742 -15.897631 21.883255 -0.962407 2.383974 -0.001907 -0.003793 -41373.200000 0 1 0
-9.050035 13.629942 -16.170531 23.003577 -0.984655 2.350343 0.018133 -0.013021 139575.000000 0 1 0
-7.974735 14.692842 -15.818031 23.014911 -1.073526 2.328555 0.036064 -0.013308 -41454.000000 0 1 0
-7.568335 14.772642 -14.491731 22.034540 -1.097341 2.288534 0.040449 -0.010686 537564.000000 0 1 0
-8.497435 15.296642 -13.526731 22.117100 -1.063733 2.228873 0.034031 -0.021474 646532.000000 0 1 0
-7.546035 15.974142 -12.458231 21.617664 -1.129479 2.184989 0.032962 -0.022704 1182820.000000 0 1 0
-6.984435 17.236242 -12.801631 22.577691 -1.185800 2.173660 0.047703 -0.025603 306909.000000 0 1 0
-5.929735 17.293042 -13.770631 22.887581 -1.240463 2.216379 0.052173 -0.022856 197265.000000 0 1 0
-5.725735 18.715242 -14.350031 24.268657 -1.273899 2.203465 0.062863 -0.015126 191700.000000 0 1 0
-5.117935 19.608642 -13.436131 24.315052 -1.315488 2.156259 0.054815 -0.020654 -69978.500000 0 1 0
-5.270235 20.944642 -13.882131 25.674248 -1.324287 2.142068 0.062560 -0.015152 227633.000000 0 0 1
-4.668935 21.922642 -12.815931 25.819553 -1.360958 2.090203 0.053949 -0.013068 -777431.000000 0 0 1
-4.549435 23.318542 -13.201931 27.179823 -1.378117 2.077989 0.037768 -0.011028 619722.000000 0 0 1
-5.814235 23.960742 -13.419331 28.071355 -1.332741 2.069222 0.041006 -0.019085 915663.000000 0 0 1
-6.869535 24.024742 -12.295531 27.848857 -1.292292 2.028076 0.036304 -0.023572 -434087.000000 0 0 1
-7.425935 22.771042 -12.004131 26.791119 -1.255558 2.035395 0.042106 -0.023644 -602385.000000 0 0 1
-8.252535 22.710242 -10.849631 26.487241 -1.222248 1.992831 0.041185 -0.020002 -10507.500000 0 0 1
-7.640935 22.967542 -9.467831 25.990993 -1.249630 1.943649 0.039977 -0.017712 -225927.000000 0 0 1
-7.579535 24.381842 -9.233731 27.151158 -1.269399 1.917805 0.030662 -0.018410 -138726.000000 0 0 1
-7.141035 24.678342 -7.913731 26.882003 -1.289125 1.869611 0.029724 -0.022128 -136415.000000 0 0 1
-7.074535 26.219142 -7.664531 28.217681 -1.307249 1.845874 0.042194 -0.018233 -420686.000000 0 0 1
-6.037735 26.948242 -8.224831 28.815098 -1.350387 1.860256 0.022657 -0.018743 -665523.000000 0 0 1
-6.001235 26.968042 -9.639231 29.260979 -1.351833 1.906488 0.020466 -0.019171 -94936.100000 0 0 1
-5.083835 28.121942 -10.116931 30.315694 -1.391950 1.911043 0.018054 -0.018633 246008.000000 0 0 1
-5.674435 29.441442 -10.132131 31.648978 -1.380395 1.896674 0.010788 -0.015502 -335594.000000 0 0 1
-6.561235 29.560742 -11.183231 32.279281 -1.352379 1.924583 0.013583 -0.016076 -1043720.000000 0 0 1
-7.602435 30.628542 -11.072331 33.444000 -1.327499 1.908234 0.020073 -0.011611 -514739.000000 0 0 1
-8.826935 30.178442 -10.538331 33.161870 -1.286242 1.894188 0.043797 -0.011080 235647.000000 0 0 1
-9.879535 31.140242 -10.598331 34.345954 -1.263581 1.884492 0.037452 -0.020447 950166.000000 0 0 1
-11.065935 30.771142 -9.643531 34.092753 -1.225577 1.857573 0.059340 -0.019089 686837.000000 0 0 1
-11.918835 29.698042 -10.045431 33.540171 -1.189140 1.874970 0.068053 -0.026522 556804.000000 0 0 1
-13.087435 29.698342 -9.202031 33.733513 -1.155721 1.847084 0.087643 -0.019282 647297.000000 0 0 1
-14.095335 28.581442 -9.553031 33.269171 -1.112633 1.862040 0.087085 -0.019037 -58445.500000 0 0 1
-13.801535 27.260542 -9.181331 31.904802 -1.102135 1.862697 0.064501 -0.013277 -620301.000000 0 0 1
-14.834635 26.432342 -9.623831 31.801781 -1.059372 1.878236 0.071961 -0.013637 -376426.000000 0 0 1
-14.912635 24.946842 -9.215031 30.490137 -1.032013 1.877827 0.066618 -0.011795 -441404.000000 0 0 1
-13.880335 24.093042 -9.605831 29.417858 -1.048125 1.903427 0.054511 -0.011143 -71006.000000 0 0 1
-14.210635 22.876542 -8.976831 28.387706 -1.014943 1.892541 0.061285 -0.011092 528996.000000 0 0 1
-13.210335 21.768942 -9.453631 27.161939 -1.025360 1.926283 0.061133 -0.011880 299897.000000 0 0 1
-13.322135 21.561542 -10.854531 27.571729 -1.017344 1.975431 0.060319 -0.007490 203421.000000 0 0 1
-12.662735 20.337042 -11.129831 26.416156 -1.013893 2.005704 0.060644 -0.011045 -158171.000000 0 0 1
-12.742235 19.842542 -12.582731 26.728565 -0.999947 2.060948 0.056092 -0.009771 44469.000000 0 0 1
-14.039635 19.604142 -13.093831 27.438698 -0.949309 2.068266 0.056512 0.000118 -168276.000000 0 0 1
-13.988535 19.226142 -14.451031 27.823658 -0.941800 2.116921 0.052775 0.002236 -430990.000000 0 0 1
-15.384335 18.909742 -14.936831 28.589597 -0.887838 2.120526 0.040494 0.002976 -578198.000000 0 0 1
-16.209035 20.014142 -15.156231 29.883274 -0.890061 2.102707 0.020193 -0.002643 -1008210.000000 0 0 1
-17.505935 19.616542 -15.462231 30.501592 -0.842192 2.102418 0.018983 0.006493 -469190.000000 0 0 1
-18.348535 20.810242 -16.016231 32.035209 -0.848180 2.094346 0.024263 0.002613 35853.300000 0 0 1
-18.511135 21.803142 -15.023031 32.306820 -0.866876 2.054444 0.028184 -0.015236 134550.000000 0 0 1
-18.972635 22.992842 -15.607331 33.648484 -0.880905 2.053115 0.039174 -0.017450 -150447.000000 0 0 1
-19.508635 24.178342 -14.780731 34.404202 -0.891884 2.014868 0.034165 -0.007618 -151412.000000 0 0 1
-20.798135 23.864142 -14.300731 34.735726 -0.853939 1.995116 0.047148 -0.007208 -75009.200000 0 0 1
-21.167035 24.953542 -13.474431 35.387610 -0.867315 1.961422 0.049595 -0.021354 -216324.000000 0 0 1
-25.893895 -0.507758 3.344069 26.113874 0.019607 1.442387 0.090246 -0.036876 -165905.000000 0 0 1
-26.247085 0.223642 4.488369 26.629024 -0.008520 1.401436 0.090310 -0.030481 -91138.200000 0 0 1
-27.517185 -0.148458 4.934569 27.956528 0.005395 1.393358 0.080970 -0.019084 -1452990.000000 0 0 1
-27.866605 0.609142 6.215169 28.557784 -0.021856 1.351406 0.081288 -0.002680 -549649.000000 0 0 1
-28.132075 1.994942 6.069769 28.848493 -0.070795 1.358811 0.098571 -0.008940 178374.000000 0 0 1
-28.522635 2.610042 7.258669 29.547272 -0.091254 1.322593 0.117479 -0.006299 27810.400000 0 0 1
-27.355295 3.080242 8.182569 28.718539 -0.112129 1.281870 0.118985 -0.009626 159215.000000 0 0 1
-26.713125 1.953942 8.798969 28.192744 -0.073015 1.253393 0.106587 -0.012233 260774.000000 0 0 1
-25.604975 2.469842 9.496269 27.420685 -0.096162 1.217153 0.100461 -0.022268 -13152.800000 0 0 1
-24.755235 1.443042 10.336769 26.865458 -0.058227 1.175848 0.084263 -0.013965 643578.000000 0 0 1
-23.897435 0.591342 9.524969 25.732511 -0.024740 1.191622 0.074761 -0.017674 925540.000000 0 0 1
-24.567935 -0.583658 9.075969 26.197277 0.023752 1.217015 0.060843 -0.013113 19488.600000 0 0 1
-23.654035 -1.430758 8.133569 25.054249 0.060413 1.240167 0.075168 -0.020549 126117.000000 0 0 1
-22.582135 -1.951758 8.875669 24.342138 0.086215 1.197570 0.073598 -0.026930 -613000.000000 0 1 0
-21.543235 -2.437958 8.094969 23.142669 0.112686 1.213454 0.087059 -0.027040 -98782.600000 0 1 0
-20.303435 -2.698858 9.009069 22.375805 0.132151 1.156413 0.070201 -0.017084 105562.000000 0 1 0
-19.625635 -1.583658 9.611569 21.910175 0.080519 1.116666 0.057723 -0.012530 264842.000000 0 1 0
-20.274135 -0.952458 10.666269 22.928520 0.046944 1.086940 0.064002 -0.015154 -708460.000000 0 1 0
-19.918935 0.526542 10.917369 22.720699 -0.026428 1.069568 0.042103 -0.005853 -112225.000000 0 1 0
-20.465035 1.493042 10.011069 22.831302 -0.072827 1.116890 0.044577 -0.004999 361489.000000 0 1 0
-20.428335 2.739042 10.582969 23.169343 -0.133286 1.096440 0.035166 -0.005498 -631854.000000 0 1 0
-21.398135 3.686542 9.929769 23.876162 -0.170609 1.141879 0.034551 -0.006696 -772171.000000 0 1 0
-21.369335 4.935642 10.598169 24.358371 -0.226988 1.120654 0.017892 -0.005714 892017.000000 0 1 0
-22.154135 5.956942 9.941169 25.002354 -0.262673 1.161886 0.024837 -0.008900 -141187.000000 0 0 1
-22.299635 7.219742 10.794169 25.805280 -0.313110 1.139231 0.025625 -0.007026 -173862.000000 0 0 1
-23.237535 6.933242 11.826369 26.979916 -0.289955 1.117046 0.030253 -0.008215 483114.000000 0 0 1
-23.334635 8.008942 12.794769 27.791266 -0.330623 1.092364 0.040855 -0.008665 -446974.000000 0 0 1
-23.992935 7.558342 14.073969 28.824748 -0.305182 1.060702 0.063818 -0.012008 -373400.000000 0 0 1
-25.367765 7.344942 13.853869 29.822833 -0.281832 1.087682 0.077339 -0.012665 -189078.000000 0 0 1
-25.989945 6.791442 15.012169 30.772815 -0.255595 1.061184 0.073230 -0.015937 706575.000000 0 0 1
-27.537375 6.692242 14.803069 31.972238 -0.238402 1.089422 0.073139 -0.011955 580004.000000 0 0 1
-27.943255 5.637542 13.930969 31.728210 -0.199077 1.116231 0.087465 -0.005201 -202789.000000 0 0 1
-29.132045 5.930142 13.250669 32.548777 -0.200817 1.151517 0.096213 0.000546 -750394.000000 0 0 1
-29.489765 4.841742 12.217769 32.285641 -0.162732 1.182700 0.120177 -0.001454 -192763.000000 0 0 1
-29.922905 3.628342 12.845669 32.765169 -0.120667 1.167935 0.106443 -0.004109 261499.000000 0 0 1
-30.307735 2.643042 11.946269 32.684214 -0.086987 1.196620 0.097402 0.001831 123518.000000 0 0 1
-31.493715 1.777342 12.457169 33.914511 -0.056375 1.194680 0.091299 0.010516 304443.000000 0 0 1
-31.064135 0.812042 13.341769 33.817787 -0.026135 1.165252 0.070887 0.012473 -142856.000000 0 0 1
-32.219515 0.176042 13.821869 35.059552 -0.005464 1.165556 0.073968 0.012542 -11363.300000 0 0 1
-32.084985 -1.048658 14.710869 35.312259 0.032672 1.141101 0.056501 0.003260 -176298.000000 0 0 1
-31.964145 -2.324558 14.101069 35.013573 0.072596 1.156297 0.056182 0.002252 142631.000000 0 0 1
-32.239135 -3.331758 15.052269 35.735602 0.102980 1.136015 0.052597 0.002777 -75456.900000 0 0 1
-32.145395 -4.761958 14.486469 35.578933 0.147069 1.151449 0.052325 0.003086 -412557.000000 0 0 1
-33.162235 -5.036058 13.590169 36.190999 0.150710 1.185847 0.036896 -0.001510 -287332.000000 0 0 1
-33.099445 -6.409658 13.249269 36.224303 0.191281 1.196351 0.047877 -0.003792 -242376.000000 0 0 1
-34.126265 -6.733858 12.108269 36.831467 0.194819 1.235819 0.051000 -0.000940 1171290.000000 0 0 1
-35.517107 -6.856058 12.437569 38.251321 0.190690 1.239622 0.038801 -0.000652 1022050.000000 0 0 1
36.038445 -5.595458 12.727769 38.627383 -0.154034 1.235021 0.045716 -0.000765 321782.000000 0 0 1
34.483685 -5.515958 12.500069 37.091805 -0.158615 1.227064 0.056012 -0.009027 622380.000000 0 0 1
33.629135 -6.167258 13.372869 36.712224 -0.181375 1.197956 0.050464 -0.007089 -990618.000000 0 0 1
32.355905 -6.166358 12.819169 35.344867 -0.188321 1.199645 0.060050 -0.008123 -452730.000000 0 0 1
31.437425 -7.282658 13.395069 34.939614 -0.227640 1.177346 0.047751 -0.009985 128162.000000 0 0 1
30.907025 -7.123758 14.719569 34.966524 -0.226534 1.136291 0.055124 -0.003988 -132210.000000 0 0 1
29.990985 -8.099358 15.025969 34.508528 -0.263768 1.120283 0.053078 -0.003040 -583570.000000 0 0 1
29.408575 -8.136158 16.440469 34.660501 -0.269908 1.076595 0.034835 0.001276 -351464.000000 0 0 1
30.269625 -8.590958 17.435769 35.973056 -0.276542 1.064788 0.021375 0.007878 -314703.000000 0 0 1
29.674185 -8.689258 18.709469 36.140070 -0.284859 1.026644 0.017540 0.004012 -370281.000000 0 0 1
30.646555 -9.362258 19.709969 37.621085 -0.296487 1.019364 0.015439 0.002924 683462.000000 0 0 1
31.682245 -8.496658 20.198369 38.521837 -0.262018 1.018862 0.019766 -0.000149 -36738.600000 0 0 1
32.875755 -8.734058 19.507769 39.212907 -0.259670 1.050101 0.010870 0.012021 -157376.000000 0 0 1
34.157005 -8.047258 20.077869 40.429941 -0.231377 1.051109 0.017405 0.004002 524878.000000 0 0 1
34.471025 -8.459858 21.382969 41.437327 -0.240663 1.028585 0.025004 -0.002565 74377.300000 0 0 1
35.795365 -8.196058 21.810569 42.710472 -0.225090 1.034843 0.022319 -0.002651 94838.300000 0 0 1
-36.014971 -8.958258 23.066069 43.696362 0.243790 1.014704 0.024496 -0.008149 -117304.000000 0 0 1
35.774495 -8.227758 24.231469 43.984935 -0.226058 0.987349 0.029568 -0.005824 206845.000000 0 0 1
35.318745 -9.190158 25.193569 44.346236 -0.254561 0.966588 0.027416 -0.006158 -207823.000000 0 0 1
34.861505 -8.536958 26.486069 44.606233 -0.240156 0.935054 0.040909 -0.008584 444266.000000 0 0 1
35.978395 -8.158158 27.291169 45.889087 -0.222981 0.933879 0.022621 -0.013796 276979.000000 0 0 1
35.586245 -7.310358 28.363869 46.090467 -0.202608 0.907909 0.016704 -0.015291 206100.000000 0 0 1
-35.410348 -6.731658 29.191869 46.382897 0.187863 0.890058 0.027511 -0.017272 347820.000000 0 0 1
-34.899200 -7.523458 30.233169 46.782487 0.212327 0.868137 0.026511 -0.014285 418903.000000 0 0 1
-33.516655 -7.304858 30.525569 45.918814 0.214591 0.843607 0.034868 -0.016119 553401.000000 0 0 1
-33.117575 -8.057858 31.850069 46.649006 0.238673 0.819263 0.019701 -0.011366 -207622.000000 0 0 1
-32.951265 -9.452158 31.699469 46.690315 0.279352 0.824492 0.027347 -0.008995 231238.000000 0 0 1
-32.690625 -10.133558 32.920069 47.487860 0.300591 0.804833 0.015686 -0.006990 -155233.000000 0 0 1
-32.910465 -11.643558 32.908169 47.975189 0.340052 0.814900 0.034661 -0.010741 279300.000000 0 0 1
-34.295523 -11.960358 32.934569 49.029775 0.335555 0.834260 0.023953 -0.010646 268667.000000 0 0 1
-34.491071 -13.309258 33.179169 49.675221 0.368271 0.839383 0.028968 -0.018805 -622079.000000 0 0 1
-35.933026 -13.667658 33.474569 50.975818 0.363466 0.854394 0.029958 -0.015294 -677495.000000 0 0 1
36.081735 -15.067458 33.612169 51.562561 -0.395580 0.860746 0.018821 -0.014929 -372416.000000 0 0 1
34.702075 -15.186258 33.822669 50.782175 -0.412510 0.841917 0.002143 -0.009301 -436478.000000 0 0 1
34.362895 -16.625358 34.109269 51.192316 -0.450618 0.841565 -0.007991 -0.005062 -401957.000000 0 0 1
34.799995 -17.031458 -33.100194 50.958150 -0.455140 2.277797 -0.000200 -0.014746 33097.300000 0 0 1
34.814295 -18.445458 -32.995194 51.390202 -0.487221 2.267968 -0.008544 -0.015156 -546443.000000 0 0 1
35.392255 -19.022458 -31.721294 51.192832 -0.493176 2.239084 -0.002265 -0.017556 -471369.000000 0 0 1
34.501635 -18.896358 -30.671194 49.881432 -0.501071 2.233033 -0.000096 -0.012314 -447994.000000 0 0 1
34.884695 -19.683758 -29.562294 49.782743 -0.513719 2.206602 -0.002932 -0.003717 -1220830.000000 0 0 1
33.855005 -19.656558 -28.435294 48.384993 -0.526040 2.198995 0.007004 -0.002026 519750.000000 0 0 1
32.633795 -20.362358 -28.688894 47.985860 -0.557855 2.211627 0.014586 -0.002929 427157.000000 0 0 1
31.763785 -19.722758 -29.579294 47.674520 -0.555660 2.240103 0.002472 0.001595 -1784410.000000 0 0 1
30.382615 -20.360958 -29.616494 47.061753 -0.590411 2.251463 0.001695 0.006444 -252445.000000 0 0 1
29.404075 -19.684558 -30.405794 46.653979 -0.589927 2.280659 -0.001375 0.006304 959480.000000 0 0 1
28.295545 -20.567858 -30.691994 46.536793 -0.628548 2.290978 0.011009 0.005159 -63197.400000 0 0 1
27.354165 -20.035058 -31.738694 46.443499 -0.632162 2.323183 0.013514 0.006043 -668546.000000 0 0 1
27.884065 -19.855558 -32.993694 47.543118 -0.618784 2.337790 -0.004437 0.007715 -516731.000000 0 0 1
26.886405 -19.670558 -33.960794 47.572525 -0.631632 2.365811 0.026477 -0.001198 -113099.000000 0 0 1
27.352245 -19.696858 33.025369 47.188838 -0.624101 0.795601 0.030504 0.001918 245555.000000 0 0 1
28.284535 -18.688358 32.611269 47.040030 -0.583879 0.804785 -0.001924 0.002149 413043.000000 0 0 1
28.391015 -18.514758 31.196169 46.065680 -0.577874 0.826831 0.004557 0.000975 959826.000000 0 0 1
27.126605 -17.876958 30.429069 44.512543 -0.582690 0.818103 -0.001786 0.002500 991186.000000 0 0 1
26.812905 -16.576258 30.784569 44.061251 -0.553709 0.797250 0.006316 -0.003745 -462783.000000 0 0 1
25.864505 -15.991558 30.001469 42.717568 -0.553754 0.792143 0.006967 -0.001537 -524317.000000 0 0 1
25.544905 -14.486358 30.427769 42.287656 -0.515872 0.767653 0.017465 -0.006479 -309925.000000 0 0 1
26.774605 -13.825358 30.345269 42.765118 -0.476650 0.781894 0.022022 -0.005489 17527.000000 0 0 1
26.649005 -12.540358 30.900169 42.687826 -0.439832 0.761410 0.031974 -0.013099 374203.000000 0 0 1
28.025135 -11.806758 30.943869 43.385835 -0.398726 0.776708 0.030225 -0.013702 -27920.100000 0 0 1
28.484495 -11.492458 29.705769 42.730267 -0.383489 0.802108 0.033584 -0.013733 -1084070.000000 0 0 1
29.713605 -10.923558 29.980969 43.601386 -0.352292 0.812597 0.039543 -0.012402 -745286.000000 0 0 1
30.458685 -10.285658 28.749369 43.128325 -0.325668 0.841157 0.053608 -0.019013 1236.310000 0 0 1
29.933525 -9.096558 28.240769 42.146225 -0.295024 0.836498 0.049046 -0.019018 -84476.200000 0 0 1
30.643505 -8.683758 27.083769 41.808642 -0.276140 0.866099 0.048087 -0.012922 33350.200000 0 0 1
30.689335 -7.127458 26.901669 41.428682 -0.228200 0.864068 0.045024 -0.013497 89341.000000 0 0 1
29.414245 -6.534658 26.729069 40.278315 -0.218609 0.845163 0.053711 -0.011808 -17532.300000 0 0 1
29.487535 -5.190358 26.456069 39.954700 -0.174234 0.847110 0.051224 -0.011478 845169.000000 0 0 1
28.035495 -4.593258 26.331669 38.735562 -0.162394 0.823333 0.058758 -0.010024 809433.000000 0 0 1
27.380505 -4.929858 25.127069 37.488200 -0.178141 0.836229 0.063532 -0.006309 -69866.700000 0 0 1
26.108805 -4.304258 25.119469 36.485395 -0.163389 0.811405 0.076107 -0.009435 -169674.000000 0 0 1
25.361305 -4.665358 23.863169 35.134202 -0.181922 0.824124 0.071812 -0.000032 -382060.000000 0 0 1
25.880705 -3.892158 22.789869 34.703572 -0.149270 0.854360 0.074341 0.002634 230975.000000 0 0 1
25.242005 -4.261058 21.593069 33.489939 -0.167232 0.870083 0.083817 -0.001746 -55936.300000 0 0 1
25.469705 -3.405058 20.336269 32.769866 -0.132902 0.901316 0.092522 -0.002425 -460614.000000 0 0 1
24.789105 -2.228258 20.327369 32.135133 -0.089648 0.885943 0.092614 0.002741 -369549.000000 0 0 1
24.992305 -1.445058 19.129769 31.506373 -0.057756 0.918300 0.097652 -0.012579 -212.828000 0 0 1
23.755405 -0.616558 18.683669 30.228776 -0.025949 0.904504 0.082743 -0.017154 -319258.000000 0 0 1
22.782605 -1.370958 18.048069 29.097412 -0.060103 0.901717 0.094031 -0.019568 -974999.000000 0 0 1
21.650005 -0.625058 17.752169 28.004516 -0.028863 0.884206 0.095165 -0.018411 -919969.000000 0 0 1
20.540905 -1.501558 17.254669 26.868328 -0.072971 0.873440 0.072284 -0.021558 -871440.000000 0 0 1
20.859605 -2.007058 15.982269 26.354967 -0.095922 0.919242 0.095486 -0.030071 172217.000000 0 0 1
19.803305 -2.773458 15.440369 25.263965 -0.139145 0.913269 0.082527 -0.033791 -32775.000000 0 0 1
20.138005 -3.379258 14.021869 24.770374 -0.166256 0.969061 0.091238 -0.045154 128032.000000 0 1 0
19.081505 -4.182958 13.502569 23.747006 -0.215802 0.965992 0.069581 -0.037712 852657.000000 0 1 0
19.429105 -4.696958 12.267769 23.453138 -0.237198 1.020340 0.064352 -0.032284 -534463.000000 0 1 0
18.372905 -5.665758 11.771269 22.543895 -0.299123 1.021428 0.038442 -0.028105 -328388.000000 0 1 0
18.455605 -6.860758 12.482469 23.312901 -0.355913 1.005777 0.058631 -0.027346 710725.000000 0 1 0
17.324705 -7.647658 12.154169 22.502353 -0.415705 1.000206 0.036799 -0.013039 -138566.000000 0 1 0
17.427505 -9.197558 12.459369 23.314134 -0.485609 1.006984 0.050443 -0.028627 -153152.000000 0 1 0
18.330805 -9.719858 11.495269 23.719933 -0.487552 1.064862 0.037675 -0.036137 479673.000000 0 1 0
18.486205 -11.111558 11.624769 24.501872 -0.541208 1.076464 0.068650 -0.031585 180221.000000 0 1 0
19.269305 -11.761958 10.441369 24.873117 -0.548031 1.137588 0.087050 -0.029156 140857.000000 0 1 0
18.524305 -11.467758 9.277269 23.679676 -0.554320 1.168229 0.065208 -0.021110 421148.000000 0 1 0
19.011005 -12.058958 8.100669 23.926086 -0.565269 1.225399 0.061089 -0.032408 -302643.000000 0 1 0
18.591305 -11.277758 6.870769 22.804208 -0.545269 1.264747 0.054753 -0.024452 -140451.000000 0 1 0
19.293105 -10.067958 6.736169 22.780773 -0.480968 1.270613 0.072680 -0.019078 622324.000000 0 1 0
19.341705 -9.598358 5.380369 22.252604 -0.460645 1.326590 0.030177 -0.023540 -221000.000000 0 1 0
20.063205 -8.219358 5.290369 22.317662 -0.388817 1.331470 0.068053 -0.021142 -289003.000000 0 1 0
20.391605 -7.798658 4.012669 22.197705 -0.365281 1.389028 0.054031 -0.025045 524395.000000 0 1 0
20.824105 -6.498058 4.002669 22.178581 -0.302470 1.389327 0.065345 -0.022049 -1015480.000000 0 1 0
21.548105 -6.093758 2.706369 22.556133 -0.275601 1.450523 0.070052 -0.021700 -425670.000000 0 1 0
20.773305 -6.177358 1.524069 21.725854 -0.289042 1.500589 0.059105 -0.024115 653829.000000 0 1 0
21.479905 -5.580658 0.440869 22.197396 -0.254188 1.550934 0.080374 -0.014922 156324.000000 0 1 0
-25.528885 -15.344858 -0.566531 29.791099 0.541212 1.589814 0.053646 -0.009446 -582859.000000 0 0 1
-24.469835 -14.774958 -1.291431 28.613633 0.543211 1.615945 0.046975 0.000182 -737193.000000 0 0 1
-23.224335 -15.289258 -0.997931 27.823138 0.582208 1.606671 0.050844 -0.000790 -251808.000000 0 0 1
-22.471735 -14.876258 0.335769 26.951710 0.584764 1.558338 0.053777 -0.008289 -109840.000000 0 0 1
-23.107835 -15.408758 1.512569 27.815278 0.588108 1.516390 0.059819 -0.002854 353549.000000 0 0 1
-22.419335 -14.925258 2.681069 27.066179 0.587355 1.471578 0.068883 0.009544 510568.000000 0 0 1
-22.994735 -15.498858 4.005069 28.018083 0.593075 1.427359 0.081351 0.012751 -257714.000000 0 0 1
-22.482235 -16.797058 4.240669 28.382659 0.641659 1.420824 0.083589 0.001920 168367.000000 0 0 1
-22.914235 -17.401258 5.454569 29.285120 0.649495 1.383445 0.074375 -0.002890 -6521.530000 0 0 1
-23.028235 -18.954858 5.361069 30.303915 0.688677 1.392950 0.048287 0.000478 115182.000000 0 0 1
-23.628235 -19.597858 6.464669 31.371348 0.692427 1.363240 0.044761 -0.000364 -50793.800000 0 0 1
-23.823235 -20.962958 6.152269 32.324024 0.721620 1.379297 0.044297 -0.008064 -95198.100000 0 0 1
-24.449035 -21.841058 7.201269 33.565539 0.729118 1.354572 0.030238 -0.006781 -52961.000000 0 0 1
-23.569535 -22.027258 8.284469 33.306988 0.751587 1.319427 0.033086 -0.005259 -22371.000000 0 0 1
-24.035935 -23.106558 9.114469 34.564617 0.765686 1.303947 0.028676 -0.007896 424048.000000 0 0 1
-22.990035 -23.419658 10.222169 34.373170 0.794655 1.268841 0.035471 -0.012046 363121.000000 0 0 1
-23.018135 -22.491858 11.290469 34.105614 0.773835 1.233386 0.039628 -0.006485 182928.000000 0 0 1
-22.171535 -22.902758 12.362069 34.189677 0.801619 1.200842 0.039098 -0.008745 30414.300000 0 0 1
-22.595935 -22.164058 13.661469 34.474011 0.775750 1.163331 0.033429 -0.005628 975591.000000 0 0 1
-23.773435 -22.725858 14.303569 35.864089 0.762873 1.160559 0.042153 -0.013206 812118.000000 0 0 1
-24.200335 -22.025858 15.454469 36.188883 0.738393 1.129568 0.042798 -0.004358 -389616.000000 0 0 1
-25.673965 -22.295158 15.798469 37.494242 0.715077 1.135855 0.018735 0.000346 -651591.000000 0 0 1
-26.599695 -21.894058 14.817369 37.502639 0.688665 1.164617 0.023641 -0.000620 -133366.000000 0 0 1
-27.013985 -22.931558 14.025169 38.109278 0.703842 1.193912 0.015002 -0.001955 -138935.000000 0 0 1
-28.082025 -23.983858 14.508669 39.677790 0.706849 1.196452 0.016304 -0.002961 -15578.400000 0 0 1
-27.690915 -24.891558 15.533869 40.344485 0.732211 1.175555 0.019780 0.004061 -279640.000000 0 0 1
-28.720355 -25.772218 15.920869 41.743743 0.731349 1.179491 0.010026 0.005959 -118599.000000 0 0 1
-28.589435 -27.162228 15.198469 42.262701 0.759804 1.202937 0.029016 0.005807 66075.700000 0 0 1
-29.151255 -27.298498 13.895969 42.285950 0.752589 1.235955 0.030591 -0.006038 -27766.000000 0 0 1
-30.446305 -27.855618 13.913069 43.548667 0.740992 1.245612 0.042444 -0.009080 -38138.600000 0 0 1
-31.088805 -28.241008 12.562169 43.839211 0.737436 1.280171 0.058092 -0.024796 -177352.000000 0 0 1
-30.433625 -29.329598 11.968069 43.927958 0.766927 1.294860 0.060275 -0.020961 -49005.400000 0 0 1
-30.760305 -29.588908 10.624869 43.983948 0.765990 1.326821 0.059229 -0.017656 316652.000000 0 0 1
-29.905065 -30.764788 9.964569 44.046313 0.799568 1.342591 0.046413 -0.028462 166964.000000 0 0 1
-30.024135 -31.963478 10.712669 45.142816 0.816674 1.331204 0.052474 -0.012090 75571.800000 0 0 1
-29.321755 -33.039968 10.089869 45.312363 0.844951 1.346240 0.058120 -0.015341 -109908.000000 0 0 1
-29.338355 34.284514 10.985469 46.441873 -0.862984 1.331991 0.069090 -0.009864 55831.900000 0 0 1
-30.660765 33.804855 11.006669 46.946752 -0.834131 1.334144 0.082420 -0.017652 -149963.000000 0 0 1
-30.689035 32.440152 11.368769 46.080682 -0.813130 1.321508 0.070118 -0.021247 184206.000000 0 0 1
-32.037855 32.050602 12.042569 46.890177 -0.785597 1.311061 0.075182 -0.030013 631292.000000 0 0 1
-33.258035 32.057682 11.351469 47.567297 -0.767023 1.329831 0.063910 -0.036096 -62741.000000 0 0 1
-33.799285 33.297219 10.999169 48.703986 -0.777916 1.342994 0.066006 -0.026811 581141.000000 0 0 1
-35.344838 33.199593 10.667369 49.651418 -0.754111 1.354263 0.064828 -0.010593 1021440.000000 0 0 1
-35.588956 32.617452 9.391869 49.180069 -0.741859 1.378647 0.046542 -0.017281 -57380.100000 0 0 1
35.186465 32.555012 9.193969 48.810298 0.746572 1.381303 0.038732 -0.013509 -266095.000000 0 0 1
34.731385 32.075022 7.801269 47.915926 0.745657 1.407257 0.043617 -0.017308 -73934.300000 0 0 1
35.107175 30.759302 7.500869 47.274850 0.719483 1.411458 0.052687 -0.021110 119871.000000 0 0 1
34.621745 30.423402 6.215369 46.506768 0.720943 1.436751 0.068586 -0.012078 127764.000000 0 0 1
34.679835 28.936152 5.844769 45.542872 0.695356 1.442106 0.069207 -0.005421 741397.000000 0 0 1
33.716165 28.112362 6.547169 44.384120 0.695011 1.422745 0.067580 -0.007202 459607.000000 0 0 1
34.388735 27.270702 7.465969 44.519849 0.670466 1.402300 0.054401 -0.021296 89012.700000 0 0 1
33.531745 26.113082 8.046369 43.255231 0.661653 1.383686 0.045206 -0.018625 -154770.000000 0 0 1
33.280855 25.061182 7.112569 42.264249 0.645432 1.401704 0.062180 -0.019884 471388.000000 0 0 1
32.216025 24.176042 7.477669 40.966679 0.643780 1.387237 0.056814 -0.014593 -101078.000000 0 0 1
32.233045 22.951252 6.550469 40.107827 0.618762 1.406740 0.057315 -0.008543 741946.000000 0 0 1
33.155995 21.848452 6.839469 40.292098 0.582648 1.400223 0.059049 -0.011465 1217430.000000 0 0 1
34.554875 22.117752 6.917369 41.606301 0.569367 1.403763 0.073776 -0.013238 151923.000000 0 0 1
35.450115 20.890752 7.033169 41.744456 0.532515 1.401507 0.050039 -0.010568 -440242.000000 0 0 1
35.563325 20.083652 5.891069 41.265092 0.514081 1.427545 0.062212 -0.015551 2516.060000 0 0 1
-35.881874 18.908552 6.147969 41.022430 -0.484988 1.420361 0.060397 -0.018906 -375907.000000 0 0 1
35.904125 17.728552 5.276869 40.388774 0.458655 1.439770 0.051337 -0.016329 -524896.000000 0 0 1
-35.733621 17.701452 3.972769 40.075129 -0.459939 1.471500 0.059629 -0.015180 -71248.300000 0 0 1
-36.061435 16.556752 3.264869 39.814727 -0.430417 1.488703 0.050435 -0.013107 -615770.000000 0 0 1
-35.220691 16.147852 1.985369 38.796803 -0.429880 1.519600 0.061001 0.000687 896218.000000 0 0 1
-34.065814 15.327052 2.273169 37.424130 -0.422791 1.510018 0.059356 -0.008533 139677.000000 0 0 1
-32.944015 16.120052 2.513069 36.762477 -0.455064 1.502383 0.072374 -0.015937 -1493410.000000 0 0 1
-31.709085 15.247252 2.647869 35.283934 -0.448209 1.495681 0.056777 -0.016902 -693800.000000 0 0 1
-31.785265 14.386052 3.792169 35.094759 -0.425015 1.462530 0.067361 -0.017527 744036.000000 0 0 1
-30.473845 13.983052 4.200769 33.790937 -0.430193 1.446157 0.062663 -0.017511 453471.000000 0 0 1
-30.421485 13.192052 5.541369 33.618503 -0.409168 1.405210 0.067422 -0.013841 -177559.000000 0 0 1
-30.591645 11.787152 5.435969 33.231543 -0.367776 1.406479 0.073470 -0.004623 301486.000000 0 0 1
-30.314355 11.075752 6.658169 32.953962 -0.350295 1.367351 0.065192 0.003355 -115064.000000 0 0 1
-30.376985 9.543252 6.597769 32.517156 -0.304397 1.366477 0.076982 -0.006767 -179219.000000 0 0 1
-31.658855 9.012752 6.406669 33.534433 -0.277346 1.378567 0.071918 0.008232 -352916.000000 0 0 1
-31.698365 7.633752 6.754669 33.296938 -0.236325 1.366517 0.082611 -0.005027 415651.000000 0 0 1
-33.145025 7.083052 6.546069 34.519753 -0.210532 1.380008 0.087172 -0.006882 683810.000000 0 0 1
-34.029742 7.450552 7.602769 35.655801 -0.215541 1.355920 0.088535 -0.002683 -897622.000000 0 0 1
-35.261143 6.869252 7.456169 36.689635 -0.192401 1.366148 0.053541 -0.003539 -744047.000000 0 0 1
-35.890788 6.271352 8.770069 37.475227 -0.172988 1.334583 0.051735 -0.006853 -155987.000000 0 0 1
35.801005 7.142052 9.809269 37.801357 0.196908 1.308297 0.049423 -0.006509 -434434.000000 0 0 1
-35.483999 7.826552 10.592669 37.849356 -0.217090 1.287144 0.066569 -0.011638 -1085200.000000 0 0 1
35.956745 8.713052 11.627669 38.781535 0.237738 1.266287 0.048774 -0.019341 -531193.000000 0 0 1
35.428365 8.050052 12.712869 38.491420 0.223427 1.234198 0.043074 -0.018588 469975.000000 0 0 1
34.797005 9.044552 13.501969 38.404930 0.254296 1.211550 0.060214 -0.025788 -572111.000000 0 0 1
34.093605 8.680952 14.812269 38.172452 0.249323 1.172297 0.052360 -0.027354 -586584.000000 0 0 1
32.831055 8.114252 14.582369 36.828857 0.242296 1.163695 0.060618 -0.031007 -137942.000000 0 0 1
32.350855 7.679452 15.841569 36.830790 0.233066 1.126173 0.049486 -0.019631 -686682.000000 0 0 1
30.894785 7.234952 15.927369 35.503709 0.230035 1.105585 0.056572 -0.016347 -968496.000000 0 0 1
30.104775 8.374152 16.180369 35.188467 0.271308 1.093004 0.035581 -0.019548 414513.000000 0 0 1
28.713205 8.070952 16.026869 33.859252 0.274018 1.077720 0.043294 -0.014301 606651.000000 0 0 1
27.906365 7.529452 17.204169 33.636903 0.263536 1.033905 0.038922 -0.014506 -615349.000000 0 0 1
27.771655 8.487552 18.262469 34.304826 0.296604 1.009412 0.045061 -0.020205 551358.000000 0 0 1
26.977005 8.177852 19.426969 34.235116 0.294337 0.967382 0.042066 -0.013606 1263.530000 0 0 1
27.404875 6.905752 20.194269 34.735070 0.246851 0.950373 0.037513 -0.010005 -127221.000000 0 0 1
26.935905 6.797752 21.535469 35.150090 0.247206 0.911360 0.028765 -0.003729 57583.000000 0 0 1
27.251425 5.560852 22.115969 35.534199 0.201294 0.899010 0.038581 -0.002305 -766548.000000 0 0 1
26.557805 5.295052 23.450569 35.822950 0.196798 0.857111 0.046292 0.005669 354083.000000 0 0 1
25.176105 4.992052 23.489069 34.792143 0.195746 0.829661 0.025329 -0.000671 509287.000000 0 0 1
24.316205 6.152752 23.333269 34.257490 0.247829 0.821513 0.030451 0.000241 796809.000000 0 0 1
22.782705 5.928152 23.583069 33.322001 0.254559 0.784513 0.044734 -0.007607 834745.000000 0 0 1
22.263805 4.935952 22.716469 32.188175 0.218174 0.787330 0.052823 -0.003125 -935521.000000 0 0 1
20.922405 5.151752 22.482769 31.141009 0.241429 0.764156 0.039704 -0.013148 -1867970.000000 0 0 1
20.236905 3.866652 21.966969 30.116956 0.188794 0.753368 0.049128 -0.014133 744781.000000 0 0 1
18.932205 3.973852 21.384969 28.836379 0.206896 0.735349 0.041972 -0.015314 275738.000000 0 0 1
17.867005 4.213952 22.225369 28.826277 0.231618 0.690370 0.059376 -0.019615 -1387730.000000 0 0 1
16.513105 4.108452 21.538469 27.449365 0.243848 0.668646 0.076837 -0.023710 -674482.000000 0 0 1
16.212305 2.747952 21.177169 26.811612 0.167902 0.660231 0.066245 -0.020034 1280610.000000 0 0 1
14.963705 2.713952 20.416169 25.457768 0.179419 0.640224 0.071194 -0.024444 966157.000000 0 0 1
13.915405 1.745152 20.981769 25.237248 0.124760 0.589208 0.058930 -0.023384 -731480.000000 0 0 1
14.253405 0.368352 20.847269 25.256758 0.025837 0.599862 0.039100 -0.014999 88290.700000 0 0 1
13.663305 -0.507848 21.796669 25.730110 -0.037152 0.560241 0.035260 -0.011651 -271771.000000 0 0 1
14.032505 -1.988848 21.754469 25.963891 -0.140794 0.577420 0.013727 -0.001835 23967.300000 0 0 1
13.467805 -2.664348 20.626869 24.777979 -0.195309 0.587250 0.005613 0.003702 394535.000000 0 1 0
14.029305 -3.975648 20.478869 25.139834 -0.276142 0.618760 0.018049 0.005422 -124033.000000 0 0 1
13.726405 -4.529848 19.042969 23.907496 -0.318756 0.649267 0.015958 0.002694 747617.000000 0 1 0
12.341805 -4.847248 18.780869 22.989932 -0.374241 0.614751 0.010675 -0.000795 722036.000000 0 1 0
12.059605 -5.297248 17.485369 21.891391 -0.413883 0.645610 0.015431 0.000265 -155620.000000 0 1 0
10.528805 -5.241148 17.382069 20.987179 -0.461879 0.594867 0.013450 0.004280 -35316.400000 0 1 0
9.966105 -6.234548 18.208469 21.673513 -0.559013 0.573282 0.020507 0.008835 -1035330.000000 0 1 0
8.580605 -6.294448 18.208769 21.090427 -0.632901 0.528892 0.015760 0.002902 -624347.000000 0 1 0
7.904705 -7.328148 19.099369 21.931074 -0.747567 0.513803 0.023559 -0.003882 -364620.000000 0 1 0
7.991005 -8.669648 18.604369 22.025928 -0.826109 0.564871 0.026348 -0.008996 969730.000000 0 1 0
9.251105 -9.315248 18.946669 23.050662 -0.788853 0.605957 0.050294 -0.020752 825822.000000 0 1 0
9.368905 -10.785348 18.417369 23.308787 -0.855563 0.659748 0.051928 -0.020690 107818.000000 0 1 0
9.326205 -10.905148 17.039169 22.276302 -0.863285 0.699908 0.043636 -0.021661 43611.300000 0 1 0
9.876105 -12.138848 16.630869 22.835824 -0.887821 0.754988 0.054670 -0.020766 250208.000000 0 1 0
9.858505 -12.351248 15.119169 21.870818 -0.897167 0.807518 0.045159 -0.010350 289568.000000 0 1 0
10.525905 -13.551548 14.668869 22.574650 -0.910406 0.863483 0.046623 -0.003626 152653.000000 0 1 0
10.378705 -13.690148 13.297069 21.724403 -0.922122 0.912108 0.044604 -0.005189 -171784.000000 0 1 0
11.303505 -14.720748 12.579369 22.421199 -0.915961 0.975145 0.075727 -0.009896 1892420.000000 0 1 0
12.692105 -14.343348 12.309169 22.767011 -0.846399 0.999577 0.075404 -0.016511 1497970.000000 0 1 0
12.875505 -13.288048 11.359869 21.711689 -0.801165 1.020178 0.056199 -0.017481 27053.100000 0 1 0
14.316905 -13.097348 10.777569 22.196177 -0.740941 1.063793 0.055401 -0.026153 710222.000000 0 1 0
14.764305 -14.264348 10.090969 22.875401 -0.768177 1.113942 0.063492 -0.024388 160232.000000 0 1 0
16.111405 -14.072748 9.673369 23.477514 -0.717960 1.146119 0.046713 -0.024085 283364.000000 0 1 0
16.743705 -15.406348 9.182469 24.536196 -0.743825 1.187217 0.052748 -0.024543 191268.000000 0 1 0
17.188605 -16.257048 10.260569 25.787962 -0.757553 1.161589 0.056892 -0.021940 95885.400000 0 0 1
16.124605 -17.000748 10.841669 25.818018 -0.811841 1.137432 0.077632 -0.024697 389236.000000 0 0 1
16.489405 -17.671548 12.223669 27.085091 -0.819989 1.102568 0.053755 -0.019272 29266.900000 0 0 1
17.498905 -18.649648 12.155369 28.315614 -0.817221 1.127099 0.069323 -0.024723 -205532.000000 0 0 1
17.729805 -19.306548 13.371769 29.426059 -0.827945 1.099076 0.033879 -0.026356 -101827.000000 0 0 1
19.099305 -20.045348 13.321569 30.725618 -0.809561 1.122351 0.008529 -0.026777 174158.000000 0 0 1
20.116905 -19.080448 13.398269 30.793943 -0.758962 1.120653 0.004362 -0.027290 193116.000000 0 0 1
21.433005 -19.613648 13.144169 31.887898 -0.741103 1.145930 -0.017336 -0.023662 1534560.000000 0 0 1
22.290905 -18.856648 12.058569 31.589028 -0.702129 1.179126 -0.003427 -0.017189 -188779.000000 0 0 1
21.994305 -19.092648 10.662769 31.015694 -0.714893 1.219850 -0.000750 -0.012621 -137471.000000 0 0 1
20.783105 -18.599548 10.122469 29.670608 -0.730010 1.222644 0.004698 -0.014515 232467.000000 0 0 1
20.483405 -17.095048 10.120469 28.534793 -0.695474 1.208234 0.038467 -0.017418 -246826.000000 0 0 1
21.477605 -16.397148 9.410169 28.613025 -0.652056 1.235682 0.038687 -0.010025 -120529.000000 0 0 1
21.301905 -15.008548 9.533069 27.747199 -0.613782 1.220082 0.051014 -0.024342 -26663.700000 0 0 1
-34.151558 25.335742 7.893369 43.249671 -0.638272 1.387261 0.071446 -0.015179 -193161.000000 0 0 1
-33.536295 24.605242 8.946369 42.545723 -0.632981 1.358938 0.079270 -0.020564 757937.000000 0 0 1
-32.427365 25.346942 9.490669 42.238304 -0.663453 1.344168 0.089424 -0.024992 -72157.200000 0 0 1
-31.426975 24.379942 10.149369 41.049312 -0.659788 1.320957 0.084958 -0.039102 -324003.000000 0 0 1
-30.552115 23.723542 9.262069 39.774667 -0.660243 1.335775 0.082369 -0.037275 388082.000000 0 0 1
-29.939785 22.541442 9.826569 38.743629 -0.645350 1.314365 0.077576 -0.037264 428266.000000 0 0 1
-29.137905 21.660942 8.806169 37.359906 -0.639260 1.332845 0.082507 -0.042996 219298.000000 0 0 1
-29.977435 20.956142 7.940869 37.428117 -0.610097 1.357008 0.079674 -0.041836 -39797.100000 0 0 1
-29.245465 20.024142 7.233969 36.174491 -0.600378 1.369465 0.069003 -0.038059 -244860.000000 0 0 1
-30.142595 19.286142 6.222169 36.321436 -0.569193 1.398639 0.062989 -0.030540 -30166.000000 0 0 1
-30.983185 18.282342 6.732569 36.599580 -0.533088 1.385791 0.064654 -0.025105 100030.000000 0 0 1
-31.913105 17.868642 5.775269 37.028211 -0.510424 1.414188 0.045116 -0.016095 -560555.000000 0 0 1
-32.686125 16.634942 6.154369 37.188444 -0.470766 1.404540 0.051670 -0.010784 -820371.000000 0 0 1
-33.637685 16.859542 7.155669 38.300674 -0.464615 1.382863 0.041085 -0.013378 -244991.000000 0 0 1
-34.159850 15.625842 7.520569 38.309545 -0.429018 1.373202 0.043120 -0.016917 -743365.000000 0 0 1
-35.061062 15.667042 8.746669 39.385765 -0.420231 1.346852 0.035990 -0.015177 -994889.000000 0 0 1
36.008215 16.446642 8.446769 40.477543 0.428451 1.360573 0.044997 -0.020796 -1246560.000000 0 0 1
35.178095 16.530942 9.530269 40.019950 0.439297 1.330348 0.053946 -0.022954 -991869.000000 0 0 1
34.452905 17.875642 9.612269 39.986710 0.478608 1.328032 0.033134 -0.013974 21641.100000 0 0 1
33.363725 17.886142 8.692169 38.840778 0.492105 1.345095 0.034788 -0.017948 336697.000000 0 0 1
32.619905 19.094242 8.672669 38.779678 0.529582 1.345249 0.035138 -0.015720 297470.000000 0 0 1
31.161545 18.922142 8.162869 37.359360 0.545717 1.350523 0.036183 -0.018423 177041.000000 0 0 1
30.413575 20.121442 8.429469 37.428785 0.584483 1.343634 0.032410 -0.015903 1052770.000000 0 0 1
29.002665 20.094642 8.148869 36.212612 0.605915 1.343824 0.022126 -0.013669 1041070.000000 0 0 1
28.586905 20.080442 6.636469 35.559499 0.612358 1.383066 0.017641 -0.005777 -758752.000000 0 0 1
28.715465 18.784942 6.063569 34.845643 0.579305 1.395894 0.032048 -0.004803 188373.000000 0 0 1
28.341385 18.723042 4.689869 34.289667 0.583809 1.433594 0.036983 -0.002631 675770.000000 0 0 1
26.889105 19.058242 4.210069 33.225972 0.616589 1.443745 0.055395 -0.002426 472006.000000 0 0 1
25.833205 18.239042 4.766569 31.980264 0.614762 1.421192 0.070755 -0.009397 808019.000000 0 0 1
24.506005 18.656642 4.578169 31.137986 0.650700 1.423233 0.063042 -0.010217 70869.300000 0 0 1
24.004705 20.026442 5.107569 31.676040 0.695292 1.408845 0.068067 -0.010077 -849770.000000 0 0 1
24.456705 21.026742 4.291969 32.537291 0.710129 1.438502 0.056882 -0.013781 2567.350000 0 0 1
23.931905 22.254342 4.632469 33.006841 0.749092 1.429983 0.038880 -0.013114 4240.440000 0 0 1
24.841205 23.427842 4.074069 34.388185 0.756126 1.452044 0.017094 0.001006 503116.000000 0 0 1
25.994405 23.579442 4.880569 35.433305 0.736722 1.432617 0.016035 -0.007037 174015.000000 0 0 1
26.860705 24.632842 4.512869 36.723839 0.742160 1.447598 0.016667 -0.004282 704336.000000 0 0 1
28.211415 24.640342 5.346869 37.836747 0.717933 1.429008 0.012425 -0.008360 1354840.000000 0 0 1
29.184595 23.560942 5.110369 37.854649 0.679181 1.435383 0.006333 -0.004284 1140060.000000 0 0 1
29.880825 23.580542 3.879669 38.261697 0.668092 1.469224 0.010847 -0.001836 -65751.200000 0 0 1
30.748665 24.844342 3.460769 39.682473 0.679589 1.483474 0.026818 -0.010844 -286707.000000 0 0 1
30.032495 26.057042 3.180669 39.887803 0.714640 1.490971 0.006000 -0.005113 -220847.000000 0 0 1
30.881535 27.059242 2.652769 41.144975 0.719525 1.506278 0.044172 -0.002650 -404466.000000 0 0 1
30.243665 28.477442 2.720169 41.629837 0.755329 1.505408 0.032828 0.004135 411845.000000 0 0 1
29.068185 28.772742 2.005369 40.949378 0.780290 1.521805 0.062233 -0.000249 571351.000000 0 0 1
27.865185 28.181642 2.546469 39.713448 0.791044 1.506631 0.039040 0.004206 -2688.730000 0 0 1
26.611405 28.850442 1.970369 39.298820 0.825747 1.520637 0.013630 0.002877 -378330.000000 0 0 1
26.433605 30.099442 2.586769 40.142288 0.850152 1.506312 0.021383 0.001691 207562.000000 0 0 1
25.218005 30.709342 2.188669 39.797007 0.883271 1.515773 0.025721 0.002350 220323.000000 0 0 1
25.086605 32.038642 2.969769 40.799900 0.906501 1.497943 0.041505 -0.001524 -73591.000000 0 0 1
24.988805 32.013142 4.397269 40.848716 0.908010 1.462940 0.037951 -0.019639 -86715.600000 0 0 1
26.229005 31.964542 5.044269 41.654979 0.883641 1.449402 0.040295 -0.018864 -518789.000000 0 0 1
26.085205 31.763342 6.581869 41.625339 0.883240 1.412008 0.053429 -0.028058 -145552.000000 0 0 1
25.685905 30.461642 7.081069 40.469975 0.870251 1.394920 0.054834 -0.032725 211859.000000 0 0 1
26.513905 29.375842 6.770269 40.146778 0.836560 1.401349 0.036100 -0.032558 -248694.000000 0 0 1
25.824405 28.089642 7.292169 38.847183 0.827389 1.381962 0.044090 -0.033072 -258509.000000 0 0 1
24.669405 27.806842 6.572769 37.749189 0.845115 1.395788 0.039072 -0.036375 -352122.000000 0 0 1
23.957905 26.672542 7.023769 36.534081 0.838964 1.377339 0.050713 -0.024734 1410690.000000 0 0 1
22.658805 26.255942 6.138369 35.220385 0.858805 1.395617 0.062869 -0.018518 1404230.000000 0 0 1
22.816205 25.991542 4.733069 34.907613 0.850365 1.434789 0.041455 -0.020338 -23636.700000 0 0 1
23.169805 27.131742 4.018069 35.904264 0.864000 1.458651 0.032712 -0.014742 -327565.000000 0 0 1
23.291605 26.867442 2.535669 35.648113 0.856568 1.499606 0.032265 -0.007176 109545.000000 0 0 1
24.386305 26.081942 2.055869 35.765712 0.818984 1.513283 0.004578 0.013601 436556.000000 0 0 1
24.360305 26.011042 0.590869 35.641940 0.818158 1.554218 0.013437 0.010179 244183.000000 0 0 1
25.645805 25.305342 0.050669 36.028742 0.778716 1.569390 0.027428 0.004517 116950.000000 0 0 1
26.815705 26.148742 0.131169 37.454719 0.772806 1.567294 0.039102 0.008242 1815230.000000 0 0 1
27.997625 25.521942 -0.463831 37.887355 0.739174 1.583039 0.035219 0.016664 1330780.000000 0 0 1
28.655015 24.367342 0.305969 37.616098 0.704708 1.562662 0.027170 0.016099 -537828.000000 0 0 1
27.847325 23.196542 0.078269 36.243057 0.694536 1.568637 0.022526 0.010171 577825.000000 0 0 1
28.347895 22.105442 0.812569 35.957113 0.662297 1.548196 0.023336 0.010239 -372904.000000 0 0 1
27.271855 21.154142 1.290969 34.538651 0.659733 1.533410 0.030803 0.006298 -83333.700000 0 0 1
26.477305 20.446442 0.324669 33.454597 0.657574 1.561091 0.049585 -0.007109 825788.000000 0 0 1
25.460505 19.737942 1.018269 32.231360 0.659459 1.539199 0.053156 -0.005428 -403309.000000 0 0 1
24.839505 18.677042 0.175369 31.078347 0.644722 1.565153 0.064878 -0.008207 -525560.000000 0 0 1
23.585505 18.231442 0.636669 29.817224 0.658055 1.549442 0.056745 -0.011076 -36498.600000 0 0 1
23.101905 17.258842 -0.228131 28.837782 0.641626 1.578707 0.060227 -0.023972 -657288.000000 0 0 1
21.706805 16.761142 0.124569 27.425112 0.657534 1.566254 0.063984 -0.013542 -1428100.000000 0 0 1
21.260605 15.817642 -0.811631 26.511693 0.639643 1.601415 0.067298 -0.017716 31633.800000 0 0 1
20.031205 15.304242 -0.364931 25.211152 0.652414 1.585272 0.084407 -0.025330 242170.000000 0 0 1
18.733205 16.101142 -0.747031 24.713110 0.709982 1.601029 0.082969 -0.037826 -468418.000000 0 1 0
18.543005 17.401542 -0.190931 25.430162 0.753653 1.578304 0.058079 -0.021878 268020.000000 0 0 1
17.599905 18.249642 -0.847431 25.367779 0.803520 1.604208 0.040902 -0.025479 265515.000000 0 0 1
17.691805 19.759742 -0.449131 26.526385 0.840559 1.587729 0.040234 -0.014116 -49953.000000 0 0 1
17.223905 19.904942 0.892969 26.337559 0.857482 1.536885 0.045410 -0.014502 124192.000000 0 0 1
17.434905 21.173742 1.517069 27.470070 0.881937 1.515542 0.053052 -0.019315 -277208.000000 0 0 1
16.488505 22.294642 1.045169 27.749131 0.934002 1.533122 0.048407 -0.023926 -560134.000000 0 0 1
15.167505 22.039942 1.405769 26.791574 0.968046 1.518302 0.032294 -0.023871 -741938.000000 0 0 1
14.373905 23.154342 1.075569 27.274339 1.015233 1.531351 0.018715 -0.013449 122508.000000 0 0 1
12.982705 23.143742 1.760769 26.594807 1.059578 1.504541 0.009373 -0.005864 145149.000000 0 0 1
12.835205 23.534042 3.107269 26.986084 1.071500 1.455397 0.008031 0.003302 -468730.000000 0 0 1
11.498805 23.707142 3.478469 26.577262 1.119192 1.439538 -0.008928 0.002065 -265264.000000 0 0 1
11.424805 23.987142 4.994769 27.034365 1.126297 1.384972 -0.000365 -0.008532 -3088.130000 0 0 1
11.824405 22.858342 5.806769 26.382550 1.093412 1.348881 0.012983 -0.025461 186110.000000 0 0 1
11.181805 22.822242 7.055569 26.375530 1.115219 1.299994 0.010594 -0.010753 -350543.000000 0 0 1
11.821705 21.745342 7.998569 26.011338 1.072847 1.258228 0.017502 -0.009341 424575.000000 0 0 1
13.032205 22.040742 8.645969 27.025645 1.036815 1.245154 0.029758 -0.006016 -517384.000000 0 0 1
14.203505 21.871142 7.937169 27.259587 0.994831 1.275347 0.028568 -0.007665 -716316.000000 0 0 1
15.512005 22.032642 8.737269 28.326657 0.957360 1.257236 0.042847 -0.009374 -89680.400000 0 0 1
15.676605 20.902042 9.558069 27.820999 0.927293 1.220096 0.042951 -0.007431 431920.000000 0 0 1
16.950305 20.818642 10.184269 28.713203 0.887463 1.208214 0.039628 -0.010476 276164.000000 0 0 1
17.113205 21.635442 11.502069 29.887317 0.901580 1.175753 0.029889 -0.004982 -840349.000000 0 0 1
16.235805 21.213942 12.464769 29.478860 0.917552 1.134222 0.031648 0.001051 -311224.000000 0 0 1
16.473705 21.801542 13.719669 30.576454 0.923707 1.105486 0.040088 0.007646 930721.000000 0 0 1
17.680405 21.211142 14.598569 31.235036 0.875934 1.084474 0.054958 0.001655 2701610.000000 0 0 1
19.009805 21.448042 14.026669 31.908285 0.845591 1.115650 0.069039 0.002419 605593.000000 0 0 1
20.019105 21.035142 14.870969 32.624952 0.810142 1.097508 0.058497 -0.001883 184432.000000 0 0 1
21.369005 21.734642 14.458269 33.735302 0.793881 1.127876 0.066635 -0.003121 603518.000000 0 0 1
21.923205 21.127442 13.302669 33.225844 0.766916 1.158875 0.071482 -0.006404 375682.000000 0 0 1
23.315405 21.398642 13.168469 34.277085 0.742557 1.176480 0.074802 -0.007715 518015.000000 0 0 1
23.922205 20.935942 11.815169 33.914359 0.718925 1.214951 0.066618 -0.006874 -43375.400000 0 0 1
23.476805 21.667942 10.705769 33.693821 0.745352 1.247455 0.070758 -0.007462 -647.028000 0 0 1
24.280305 21.450642 9.597469 33.790156 0.723601 1.282800 0.078847 -0.015393 -761427.000000 0 0 1
24.063205 22.461642 8.436169 33.981350 0.750988 1.319914 0.075435 -0.018098 50830.700000 0 0 1
24.698305 23.763642 8.592469 35.334791 0.766114 1.325161 0.063769 -0.020693 794103.000000 0 0 1
26.106705 23.705042 8.363869 36.241459 0.737221 1.337915 0.047254 -0.020116 -283951.000000 0 0 1
26.694205 24.781042 9.255969 37.581293 0.748249 1.321944 0.051048 -0.024333 -2063520.000000 0 0 1
27.986385 25.048542 8.939369 38.608024 0.730060 1.337134 0.029318 -0.016807 -1289340.000000 0 0 1
28.462355 26.043842 9.807269 39.806656 0.741056 1.321861 0.032994 -0.010763 20584.700000 0 0 1
29.718275 26.800942 9.341069 41.094062 0.733827 1.341482 0.038019 -0.020133 -58813.000000 0 0 1
29.442275 27.677742 8.286969 41.250198 0.754516 1.368525 0.045113 -0.022939 438108.000000 0 0 1
30.635915 28.109042 7.633769 42.272355 0.742410 1.389215 0.054927 -0.019056 -73582.300000 0 0 1
30.389095 28.990942 6.407969 42.485690 0.761857 1.419392 0.069120 -0.010923 -52132.200000 0 0 1
30.264165 30.338142 6.699569 43.372881 0.786619 1.415711 0.070178 -0.014156 67163.400000 0 0 1
30.002315 31.159642 5.585569 43.614915 0.804318 1.442378 0.078700 -0.000937 -57791.800000 0 0 1
30.279455 32.645542 5.805369 44.902997 0.822982 1.441147 0.045193 -0.002690 366094.000000 0 0 1
29.253185 33.234142 6.604769 44.764718 0.849020 1.422712 0.054206 -0.018136 404308.000000 0 0 1
29.318875 -33.954967 6.566269 45.339300 -0.858538 1.425460 0.050355 -0.011672 464828.000000 0 0 1
27.911265 -33.364067 6.900769 44.043391 -0.874153 1.413467 0.079525 -0.026176 271318.000000 0 0 1
26.974205 -33.537667 5.867469 43.437427 -0.893441 1.435303 0.074509 -0.025399 -640154.000000 0 0 1
25.795705 -32.925467 6.328869 42.303184 -0.906224 1.420625 0.062966 -0.029877 -132249.000000 0 0 1
24.611305 -33.011867 5.328969 41.519846 -0.930163 1.442094 0.081074 -0.028191 132502.000000 0 0 1
24.836805 -32.224867 4.167969 40.898422 -0.914157 1.468709 0.059328 -0.011599 230258.000000 0 0 1
23.715205 -32.292467 3.306369 40.201324 -0.937362 1.488458 0.063077 -0.015870 255487.000000 0 0 1
24.073805 -31.626067 1.932669 39.793108 -0.920165 1.522209 0.058740 0.001940 117235.000000 0 0 1
24.299905 -30.226767 2.005769 38.835112 -0.893670 1.519125 0.069508 0.006443 440863.000000 0 0 1
25.093505 -29.758367 0.887469 38.936256 -0.870239 1.548001 0.055783 0.005730 203199.000000 0 0 1
25.627905 -28.313267 1.052069 38.203893 -0.835140 1.543255 0.040651 0.004318 207335.000000 0 0 1
24.623905 -27.296867 0.946569 36.774334 -0.836834 1.545054 0.052443 0.003026 597449.000000 0 0 1
23.955405 -27.101467 -0.318031 36.172532 -0.846939 1.579589 0.048056 0.001225 793572.000000 0 0 1
22.629205 -26.253967 -0.252431 34.661440 -0.859414 1.578079 0.036905 0.005160 736602.000000 0 0 1
22.907805 -24.871167 -0.048231 33.813382 -0.826468 1.572223 0.036868 -0.004730 -40390.200000 0 0 1
23.063205 -24.438867 1.286869 33.627752 -0.814350 1.532519 0.028975 0.002485 638181.000000 0 0 1
21.710805 -24.131867 2.027769 32.524113 -0.838162 1.508409 0.029950 -0.000287 687082.000000 0 0 1
21.851605 -23.479867 3.235569 32.237644 -0.821302 1.470261 0.022205 -0.000684 621878.000000 0 0 1
20.552205 -23.379667 3.867169 31.368088 -0.849670 1.447198 0.022270 0.000342 985641.000000 0 0 1
20.428905 -22.659267 5.245569 30.956397 -0.837115 1.400525 0.014815 0.001318 -109443.000000 0 0 1
20.709305 -21.270367 5.257769 30.148764 -0.798762 1.395506 0.030138 0.003147 -510876.000000 0 0 1
19.621905 -20.473267 4.943469 28.785616 -0.806629 1.398207 0.021966 -0.003068 -925416.000000 0 0 1
19.607605 -19.089267 5.577969 27.927979 -0.772004 1.369717 0.026652 -0.002615 -12722.600000 0 0 1
19.251405 -19.106967 6.922669 27.993144 -0.781633 1.320905 0.035223 -0.004377 -646162.000000 0 0 1
17.904405 -18.826867 7.140769 26.944558 -0.810507 1.302575 0.033358 0.000215 -497056.000000 0 0 1
18.719165 -26.353328 -12.132531 34.526849 -0.953181 1.929856 0.092215 -0.020247 -47492.600000 0 0 1
19.029865 -24.994658 -12.381531 33.766418 -0.920066 1.946236 0.101014 -0.024556 -286872.000000 0 0 1
17.889165 -24.354058 -12.882331 32.849609 -0.937260 1.973776 0.077676 -0.023375 -136424.000000 0 0 1
18.213665 -22.868758 -13.377131 32.150666 -0.898228 1.999922 0.073158 -0.022775 68412.000000 0 0 1
18.381665 -21.882958 -12.403531 31.154406 -0.872137 1.980275 0.080535 -0.021856 283775.000000 0 0 1
19.528365 -21.838758 -11.538931 31.487066 -0.841191 1.946004 0.071833 -0.030015 -104208.000000 0 0 1
19.409765 -22.672158 -10.182031 31.534734 -0.862768 1.899570 0.069933 -0.023500 199290.000000 0 0 1
18.586065 -22.166258 -9.116831 30.329876 -0.873026 1.876107 0.070591 -0.021180 467055.000000 0 0 1
17.196165 -22.209758 -9.402531 29.620753 -0.911948 1.893815 0.072417 -0.004154 124664.000000 0 0 1
16.325465 -21.697658 -8.207731 28.366812 -0.925757 1.864336 0.065749 -0.013446 -784569.000000 0 0 1
16.301465 -20.279158 -8.061631 27.239161 -0.893710 1.871254 0.062097 -0.024017 217444.000000 0 0 1
15.260365 -19.860158 -7.201531 26.060826 -0.915629 1.850775 0.054126 -0.026867 1662100.000000 0 0 1
13.785465 -19.858858 -7.835231 25.412676 -0.963992 1.884223 0.049975 -0.008714 1222920.000000 0 0 1
13.231765 -21.150858 -8.012831 26.203890 -1.011773 1.881562 0.045282 -0.010387 -977300.000000 0 0 1
11.852065 -21.158458 -8.160431 25.587974 -1.060188 1.895383 0.048561 -0.012233 -353198.000000 0 0 1
11.074365 -22.486258 -7.888431 26.277380 -1.113171 1.875697 0.050264 -0.011071 -51654.700000 0 0 1
10.986565 -22.846758 -6.522031 26.176628 -1.122561 1.822604 0.049071 -0.011986 171541.000000 0 0 1
10.521865 -24.129258 -6.231231 27.051043 -1.159593 1.803235 0.036900 -0.009854 70793.400000 0 0 1
11.063965 -24.515558 -4.863531 27.332724 -1.146859 1.749687 0.045353 -0.013401 318780.000000 0 0 1
10.132265 -25.354798 -4.206831 27.626545 -1.190618 1.723666 0.053811 -0.014468 114669.000000 0 0 1
10.751565 -25.892718 -3.042231 28.200783 -1.177226 1.678884 0.047030 -0.013316 -376779.000000 0 0 1
9.895865 -26.732178 -2.131931 28.584657 -1.216253 1.645449 0.058294 -0.009042 -581884.000000 0 0 1
8.970665 -26.091888 -1.340731 27.623486 -1.239646 1.619351 0.038479 -0.001564 -659510.000000 0 0 1
8.134165 -27.026008 -0.689531 28.231989 -1.278445 1.595223 0.034627 -0.003018 -70150.700000 0 0 1
7.415865 -26.454458 0.505669 27.478884 -1.297486 1.552393 0.040137 0.002104 -183911.000000 0 0 1
6.224965 -25.773798 0.179569 26.515487 -1.333812 1.564024 0.042496 -0.006153 -213783.000000 0 0 1
5.616165 -25.280438 1.376469 25.933309 -1.352192 1.517694 0.047234 -0.008308 944668.000000 0 0 1
4.146465 -24.723558 1.216369 25.098347 -1.404630 1.522313 0.045250 -0.015825 687752.000000 0 0 1
3.283165 -25.740998 0.868569 25.964062 -1.443935 1.537337 0.047172 -0.016774 -807429.000000 0 0 1
2.017865 -25.221778 0.548069 25.308303 -1.490962 1.549139 0.049640 -0.014311 352959.000000 0 0 1
0.884065 -26.158198 0.016469 26.173138 -1.537012 1.570167 0.051417 -0.011898 705140.000000 0 0 1
0.323865 -27.181228 0.816669 27.195422 -1.558882 1.540762 0.050289 -0.006892 -233617.000000 0 0 1
1.098865 -28.350498 0.840769 28.384240 -1.532056 1.541171 0.040099 -0.014847 -430685.000000 0 0 1
0.533165 -29.530218 1.673669 29.582413 -1.552743 1.514190 0.046005 -0.008878 83939.500000 0 0 1
0.816865 -29.432488 3.048369 29.601202 -1.543050 1.467632 0.047313 -0.006501 -35250.100000 0 0 1
0.210665 -30.441298 3.853969 30.685013 -1.563876 1.444866 0.045423 0.000085 136099.000000 0 0 1
0.579265 -30.323308 5.392669 30.804535 -1.551696 1.394829 0.056333 -0.005253 442962.000000 0 0 1
1.973665 -30.332298 5.732169 30.932206 -1.505820 1.384405 0.028139 0.006703 557792.000000 0 0 1
2.061565 -30.351448 7.149469 31.250205 -1.502977 1.339971 0.043413 0.004204 -616937.000000 0 0 1
3.435965 -30.776758 7.589069 31.884301 -1.459615 1.330471 0.031373 -0.002262 -751493.000000 0 0 1
3.661665 -32.095748 7.314069 33.121600 -1.457202 1.348136 0.033795 -0.002576 -54651.100000 0 0 1
4.919965 -32.609898 7.724669 33.871551 -1.421052 1.340714 0.012091 -0.001573 340912.000000 0 0 1
5.049065 -34.114041 7.523669 35.296833 -1.423858 1.355994 0.014117 0.009321 -117317.000000 0 0 1
4.906665 34.189605 6.139169 35.081247 1.428256 1.394892 0.005389 0.005070 3787.190000 0 0 1
4.820965 32.758906 5.939669 33.640263 1.424680 1.393302 -0.005138 0.004610 -574260.000000 0 0 1
4.948065 32.199942 4.470569 32.883212 1.418322 1.434421 -0.003350 -0.001389 320886.000000 0 0 1
6.288465 32.147082 3.985069 32.997886 1.377620 1.449733 0.003085 -0.000626 523443.000000 0 0 1
7.008365 31.014272 4.477369 32.109953 1.348557 1.430902 -0.008858 -0.004146 995007.000000 0 0 1
8.503565 30.766202 4.023069 32.172269 1.301135 1.445420 -0.019467 0.003570 1243080.000000 0 0 1
9.511165 31.587112 4.569569 33.302986 1.278322 1.433150 -0.014934 -0.005834 -1056560.000000 0 0 1
10.709365 31.413302 3.917869 33.419093 1.242235 1.453292 -0.006510 -0.006027 232870.000000 0 0 1
11.965865 31.967532 4.728869 34.459647 1.212628 1.433133 0.003396 -0.012242 829891.000000 0 0 1
12.275265 31.070152 5.758769 33.899851 1.194537 1.400093 0.017516 -0.015145 -735141.000000 0 0 1
13.329265 31.528352 6.526269 34.846786 1.170815 1.382399 0.041666 -0.017862 -92358.800000 0 0 1
14.104965 30.466022 7.418669 34.382629 1.137206 1.353318 0.050668 -0.021951 399571.000000 0 0 1
13.367165 30.005852 8.534669 33.939252 1.151703 1.316599 0.033380 -0.016999 414532.000000 0 0 1
14.145265 29.056262 9.243569 33.612475 1.117746 1.292202 0.045428 -0.015641 332839.000000 0 0 1
13.747665 29.079932 10.736469 33.910360 1.129182 1.248639 0.029535 -0.008200 -53064.800000 0 0 1
14.514565 29.986842 11.481769 35.237967 1.120005 1.238901 0.050013 -0.009463 -128626.000000 0 0 1
14.027465 30.234502 12.767869 35.691923 1.136398 1.204967 0.049480 -0.006960 -212358.000000 0 0 1
14.834565 31.184622 13.676069 37.142696 1.126776 1.193720 0.048062 -0.007123 -550292.000000 0 0 1
16.020365 30.690832 14.180269 37.412021 1.089710 1.182049 0.057199 -0.008334 -325683.000000 0 0 1
16.787865 31.685492 14.842769 38.808641 1.083572 1.178339 0.048692 -0.002687 -220124.000000 0 0 1
17.973165 31.192992 15.669269 39.262749 1.048066 1.160275 0.052680 -0.003598 65383.000000 0 0 1
19.153265 30.863732 14.935969 39.274683 1.015385 1.180681 0.034811 0.001702 467410.000000 0 0 1
19.356565 29.464822 14.922769 38.282390 0.989559 1.170374 0.030886 0.008600 -33336.100000 0 0 1
20.736365 28.995232 14.388569 38.441530 0.949965 1.187157 0.058076 0.000167 349550.000000 0 0 1
21.739465 29.143532 15.373869 39.475380 0.929896 1.170757 0.062586 0.003125 -601880.000000 0 0 1
23.026165 29.049282 14.860469 39.936182 0.900548 1.189520 0.062726 0.001926 -249253.000000 0 0 1
24.191465 29.261172 15.860869 41.146207 0.879960 1.175073 0.060846 -0.002074 -53953.000000 0 0 1
24.439165 28.126172 16.685369 40.825922 0.855425 1.149772 0.059728 0.000824 557250.000000 0 0 1
25.297865 28.288442 17.859969 41.942776 0.841149 1.130931 0.046330 0.001675 577025.000000 0 0 1
26.178865 26.992622 18.058269 41.713735 0.800701 1.123079 0.035701 -0.004804 187075.000000 0 0 1
25.506965 25.814552 18.547569 40.755474 0.791391 1.098319 0.038288 -0.005876 286672.000000 0 0 1
25.389065 25.799412 19.979769 41.344957 0.793414 1.066438 0.059682 -0.011262 507716.000000 0 0 1
24.735165 24.453642 20.476869 40.362249 0.779675 1.038716 0.056876 -0.014311 524849.000000 0 0 1
25.825565 23.569252 20.565169 40.563477 0.739751 1.039110 0.068833 -0.012687 475841.000000 0 0 1
25.284465 22.283152 20.575569 39.486670 0.722386 1.022685 0.069055 -0.022447 167981.000000 0 0 1
26.390465 21.207652 20.647969 39.655514 0.676939 1.023145 0.053765 -0.018637 104875.000000 0 0 1
25.847665 19.921152 20.806569 38.702292 0.656627 1.003201 0.037314 -0.007380 -32822.700000 0 0 1
26.873265 18.956952 20.665469 38.840701 0.614355 1.009768 0.040035 -0.010770 196402.000000 0 0 1
27.480665 18.630552 22.061269 39.862062 0.595774 0.984307 0.040734 -0.003472 -497069.000000 0 0 1
26.617665 17.910452 22.888469 39.410232 0.592291 0.951116 0.042112 0.002984 -133632.000000 0 0 1
27.114965 17.705552 24.200869 40.427589 0.578468 0.929016 0.047859 0.006478 72472.300000 0 0 1
26.108665 17.089452 25.257369 40.145317 0.579568 0.890339 0.022199 0.006011 370428.000000 0 0 1
25.871365 15.690452 25.003469 39.251640 0.545170 0.880190 0.027260 0.007418 879915.000000 0 0 1
24.670365 15.136452 25.560869 38.614727 0.550322 0.847384 0.029548 0.004239 450110.000000 0 0 1
24.128965 13.880352 24.852569 37.316502 0.522027 0.841971 0.031843 0.004371 490389.000000 0 0 1
22.906165 13.399852 25.437069 36.759936 0.529309 0.806571 0.024169 0.002242 718637.000000 0 0 1
22.562565 12.207152 24.742969 35.641246 0.495935 0.803457 0.044222 -0.000850 658964.000000 0 0 1
21.146465 11.660352 25.164869 34.877033 0.503924 0.764785 0.037310 -0.008625 946172.000000 0 0 1
20.078765 12.567252 24.902269 34.368818 0.559245 0.760401 0.049591 -0.012372 -91685.400000 0 0 1
18.869665 11.876752 25.080969 33.558553 0.561764 0.726687 0.053916 -0.016893 302888.000000 0 0 1
17.606365 12.805252 25.165169 33.275281 0.628819 0.713200 0.043915 -0.024240 301474.000000 0 0 1
17.337265 13.365352 26.454869 34.337640 0.656745 0.691275 0.066620 -0.016918 613886.000000 0 0 1
16.080665 14.031252 26.611569 34.112160 0.717443 0.675939 0.082077 -0.025198 200095.000000 0 0 1
15.772165 14.376252 28.044869 35.241346 0.739130 0.650478 0.065351 -0.013105 -77803.600000 0 0 1
15.332065 13.203852 28.762569 35.166736 0.710956 0.613060 0.063132 -0.009220 47402.100000 0 0 1
15.516165 13.216252 30.166769 36.406794 0.705523 0.594189 0.051005 -0.007087 -165599.000000 0 0 1
16.947265 12.948352 30.707169 37.387161 0.652425 0.607059 0.050344 0.003214 448412.000000 0 0 1
17.871165 14.008352 30.463969 37.995603 0.664817 0.640535 0.066637 -0.003066 304471.000000 0 0 1
19.208265 13.540652 30.450569 38.464839 0.614033 0.657297 0.058315 0.006722 154390.000000 0 0 1
20.156365 14.702752 29.983669 39.006030 0.630209 0.694001 0.050182 0.005675 -251956.000000 0 0 1
19.976765 15.370052 28.737269 38.224865 0.655800 0.720016 0.070592 -0.003316 175905.000000 0 0 1
20.148965 14.550252 27.553369 37.106317 0.625427 0.733924 0.065213 -0.001306 -473268.000000 0 0 1
19.943565 15.400352 26.270969 36.401654 0.657556 0.764545 0.064968 -0.008503 -990745.000000 0 0 1
20.839565 16.394952 26.018069 37.148645 0.666592 0.794870 0.057456 -0.003308 -531798.000000 0 0 1
20.885165 16.637452 24.633669 36.329225 0.672674 0.825666 0.056198 -0.007987 -690383.000000 0 0 1
22.000465 17.576552 24.262569 37.170256 0.674080 0.859599 0.046057 -0.011083 -891587.000000 0 0 1
22.035265 17.953052 22.913069 36.508543 0.683665 0.892319 0.051206 -0.016583 -323270.000000 0 0 1
23.197465 18.587152 22.475869 37.266195 0.675507 0.923393 0.044108 -0.015545 -451519.000000 0 0 1
23.542765 20.030952 22.989769 38.523114 0.704977 0.931316 0.059027 -0.024313 -608857.000000 0 0 1
22.615665 21.036952 22.629169 38.289698 0.749249 0.938500 0.063847 -0.024630 175488.000000 0 0 1
22.767965 22.195252 23.390469 39.473073 0.772661 0.936554 0.067492 -0.024465 -5870.930000 0 0 1
21.633865 23.236152 23.121569 39.275308 0.821093 0.941341 0.052237 -0.024723 102436.000000 0 0 1
21.781565 23.926302 21.953269 39.100518 0.832286 0.974651 0.062262 -0.020534 -269468.000000 0 0 1
20.757965 24.851272 21.779069 39.023156 0.874906 0.978694 0.050033 -0.015601 -881968.000000 0 0 1
21.008265 25.957102 20.745469 39.312757 0.890383 1.014902 0.047923 -0.013419 -543273.000000 0 0 1
21.060365 25.455762 19.395569 38.310872 0.879610 1.039945 0.040232 -0.016804 253666.000000 0 0 1
21.377065 26.430502 18.362569 38.635920 0.890711 1.075523 0.044105 -0.007171 -538120.000000 0 0 1
21.492765 25.804732 16.961269 37.623235 0.876314 1.103114 0.041734 0.013089 257320.000000 0 0 1
20.287065 25.729632 16.185169 36.545023 0.903125 1.111985 0.036631 0.010358 101840.000000 0 0 1
20.470565 25.348722 14.840169 35.802687 0.891464 1.143404 0.041205 0.011564 -976408.000000 0 0 1
19.255565 24.912692 14.019869 34.467024 0.912786 1.151890 0.045589 0.015409 458612.000000 0 0 1
18.162365 25.836662 13.910569 34.509543 0.958081 1.155902 0.044321 0.019162 843421.000000 0 0 1
17.346465 26.047522 15.102569 34.748538 0.983287 1.121175 0.045341 0.013804 -2009900.000000 0 0 1
16.060465 26.740632 14.668369 34.469711 1.029935 1.131234 0.032797 0.016130 -30959.500000 0 0 1
15.038365 25.803352 14.154069 33.050009 1.043115 1.128228 0.036467 0.011755 1334620.000000 0 0 1
14.571565 24.786542 15.076569 32.465460 1.039335 1.087853 0.051162 -0.003280 -1182250.000000 0 0 1
13.828165 25.211662 16.338969 33.072768 1.069119 1.054076 0.056368 -0.007656 -495405.000000 0 0 1
14.624465 26.068992 17.168269 34.470521 1.059554 1.049440 0.047141 -0.002953 223479.000000 0 0 1
13.882165 26.599282 18.227669 35.106755 1.089783 1.024874 0.046646 -0.012928 -272295.000000 0 0 1
14.524765 27.847112 18.861969 36.636107 1.090027 1.029968 0.066394 -0.016457 -541210.000000 0 0 1
14.136965 29.018372 18.203069 37.057677 1.117463 1.057319 0.061572 -0.021309 520306.000000 0 0 1
14.685965 30.237892 18.811669 38.521249 1.118670 1.060604 0.048815 -0.023035 -121633.000000 0 0 1
14.292765 31.446762 18.031669 38.965665 1.144201 1.089693 0.047738 -0.023415 -705497.000000 0 0 1
12.949665 31.810112 18.089369 38.817552 1.184191 1.086020 0.040134 -0.020756 -469995.000000 0 0 1
12.666265 32.895925 17.248069 39.243752 1.203252 1.115742 0.027323 -0.014557 1166260.000000 0 0 1
11.377865 33.756407 17.663969 39.761371 1.245697 1.110460 0.042338 -0.023095 721409.000000 0 0 1
11.266765 -33.575818 17.040169 39.301945 -1.247041 1.122345 0.039924 -0.013815 626534.000000 0 0 1
12.209365 -32.458438 17.290769 38.750348 -1.211014 1.108271 0.033357 -0.015722 733641.000000 0 0 1
12.307265 -31.984178 18.790169 39.083588 -1.203468 1.069265 0.044032 -0.021517 22135.600000 0 0 1
13.044465 -32.992958 19.485869 40.477060 -1.194287 1.068539 0.048774 -0.023041 211376.000000 0 0 1
12.695865 -32.972288 20.848269 41.024469 -1.203247 1.037713 0.035128 -0.021522 -208354.000000 0 0 1
13.647365 -33.678698 21.862069 42.408198 -1.185796 1.029188 0.043501 -0.021373 582910.000000 0 0 1
14.866065 -32.918968 21.908469 42.244992 -1.146616 1.025578 0.046348 -0.017494 909407.000000 0 0 1
15.869565 -33.521258 22.781169 43.525848 -1.128640 1.019967 0.042989 -0.015729 1372920.000000 0 0 1
17.282265 -32.890158 22.582869 43.479019 -1.086993 1.024651 0.059619 -0.009829 534461.000000 0 0 1
17.157665 -31.542928 22.973869 42.627930 -1.072613 1.001619 0.053347 -0.008705 958159.000000 0 0 1
18.344165 -30.804198 22.580669 42.370905 -1.033686 1.008738 0.056327 -0.009484 812659.000000 0 0 1
-4.519235 13.577042 18.242132 23.184800 -1.249473 0.665166 -0.001468 0.015282 -113977.000000 0 1 0
-4.572635 14.546942 17.251232 23.024499 -1.266239 0.723859 0.004357 -0.000370 225965.000000 0 1 0
-5.888935 15.103442 17.194432 23.631378 -1.199021 0.755965 -0.000792 -0.000132 392242.000000 0 1 0
-5.838935 16.623942 17.130332 24.574314 -1.233020 0.799476 0.014188 -0.009255 -99053.000000 0 1 0
-5.412835 17.208642 18.325032 25.714645 -1.266053 0.777556 0.021503 0.001360 111313.000000 0 0 1
-5.031435 18.615042 18.240632 26.543470 -1.306815 0.813171 0.035654 -0.000623 -491345.000000 0 0 1
-4.245335 19.142742 19.446732 27.615989 -1.352556 0.789523 0.027645 -0.003123 -352033.000000 0 0 1
-4.978535 19.227042 20.647232 28.649139 -1.317427 0.765995 0.007270 -0.001563 483945.000000 0 0 1
-4.147735 19.744642 21.722432 29.646562 -1.363738 0.748496 0.003545 -0.003792 520156.000000 0 0 1
-5.054735 20.129942 22.901332 30.906891 -1.324778 0.736270 -0.010035 -0.003754 107511.000000 0 0 1
-5.740135 19.095242 23.550592 30.857865 -1.278784 0.702552 -0.006049 -0.005945 -241331.000000 0 0 1
-6.534735 19.483842 24.637292 32.083002 -1.247194 0.695203 -0.016393 -0.010887 -111152.000000 0 0 1
-5.760735 20.053942 25.832282 33.206226 -1.291066 0.679424 -0.021156 -0.009400 -990313.000000 0 0 1
-5.491335 21.449642 25.739202 33.952149 -1.320169 0.710398 -0.021195 -0.013030 96288.100000 0 0 1
-4.327635 21.916842 26.387752 34.574411 -1.375847 0.702520 -0.010974 -0.005096 -485291.000000 0 0 1
-2.959335 21.489042 25.921022 33.799941 -1.433943 0.696807 0.007798 0.000958 -1262250.000000 0 0 1
-2.675835 20.155342 26.280662 33.227566 -1.438808 0.658470 0.017550 0.004769 -1066250.000000 0 0 1
-1.337835 19.911142 26.020002 32.791522 -1.503707 0.654261 0.017247 0.009405 -577933.000000 0 0 1
-0.793535 18.630242 26.764202 32.619598 -1.528228 0.608521 0.015523 0.017990 -177651.000000 0 0 1
-1.022835 17.395042 26.105892 31.387120 -1.512064 0.588564 0.027756 0.009155 -288754.000000 0 0 1
-0.370935 16.328242 26.724122 31.319767 -1.548083 0.548578 0.026889 0.006551 26703.700000 0 0 1
1.116865 16.123942 26.310242 30.878111 1.501639 0.550873 0.027398 0.014068 101910.000000 0 0 1
1.249765 15.840142 24.943002 29.574066 1.492061 0.567201 0.024617 0.017039 -231214.000000 0 0 1
1.074565 14.463642 24.686262 28.631507 1.496638 0.531187 0.034530 0.016418 -469565.000000 0 0 1
1.308365 14.057342 23.209732 27.166383 1.477990 0.546488 0.033913 0.013237 584754.000000 0 0 1
2.664865 14.014442 22.759632 26.860881 1.382888 0.559887 0.023739 0.007422 268215.000000 0 0 1
2.815165 13.517542 21.446232 25.506665 1.365471 0.572020 0.019329 0.001700 133207.000000 0 0 1
4.270965 13.514342 20.930832 25.278021 1.264697 0.595220 0.017102 -0.001102 404782.000000 0 0 1
4.818765 14.692842 20.353132 25.560714 1.253883 0.649699 0.018305 0.002618 -399100.000000 0 0 1
6.209165 14.655942 20.194132 25.712902 1.170060 0.667503 0.032896 -0.001263 -543994.000000 0 0 1
6.672365 15.627742 19.094432 25.560597 1.167270 0.727219 0.043714 -0.011119 -176348.000000 0 0 1
6.386965 15.249142 17.727232 24.240141 1.174154 0.750545 0.041936 -0.024462 35729.400000 0 1 0
6.766965 16.252242 16.796332 24.331954 1.176257 0.808894 0.044168 -0.013442 -123946.000000 0 1 0
6.570865 15.693242 15.393032 22.943399 1.174268 0.835357 0.039912 -0.015564 -22092.400000 0 1 0
7.541365 14.757642 14.966432 22.330568 1.098376 0.836289 0.030508 -0.020314 -4240.120000 0 1 0
7.835765 13.584442 15.688732 22.182710 1.047596 0.785195 0.033523 -0.018095 126580.000000 0 1 0
9.032965 12.818142 15.028632 21.720014 0.956922 0.806644 0.038466 -0.020752 -122076.000000 0 1 0
10.273365 13.371142 15.329032 22.788346 0.915671 0.832985 0.038647 -0.023946 -491408.000000 0 1 0
11.195865 12.910142 14.345132 22.311476 0.856393 0.872454 0.044773 -0.020189 631017.000000 0 1 0
12.646365 13.481442 14.354632 23.403745 0.817349 0.910504 0.052333 -0.012681 39861.800000 0 1 0
13.321665 13.264942 15.574632 24.413001 0.783265 0.878944 0.048551 -0.016589 930686.000000 0 1 0
14.669465 13.744242 15.690832 25.500973 0.752847 0.908026 0.046600 -0.017946 968496.000000 0 0 1
15.757065 13.003242 14.886732 25.278137 0.689938 0.941078 0.052409 -0.018229 -940187.000000 0 0 1
17.046565 13.550842 14.960332 26.420111 0.671642 0.968850 0.045424 -0.028894 -604151.000000 0 0 1
17.830865 12.967542 14.006132 26.120273 0.628783 1.004848 0.041531 -0.026363 -114636.000000 0 0 1
19.296665 13.513042 14.132132 27.471453 0.610913 1.030454 0.039191 -0.029212 310075.000000 0 0 1
19.966265 13.118942 15.302732 28.371323 0.581319 1.001104 0.024299 -0.029484 -300822.000000 0 0 1
21.271465 13.614842 15.152632 29.452358 0.569350 1.030396 0.040622 -0.025882 -358880.000000 0 0 1
22.219665 13.419042 16.358332 30.681904 0.543302 1.008466 0.048827 -0.026638 28973.100000 0 0 1
22.621065 12.033842 16.446632 30.446965 0.488899 1.000154 0.043481 -0.025934 247171.000000 0 0 1
23.440465 11.757542 17.542332 31.550414 0.464920 0.981219 0.038584 -0.024282 -271792.000000 0 0 1
23.620465 10.199542 17.714132 31.236957 0.407624 0.967829 0.042427 -0.020451 -106310.000000 0 0 1
22.455965 9.616742 18.245032 30.489888 0.404619 0.929299 0.033166 -0.020119 419477.000000 0 0 1
22.540565 8.257342 17.892132 29.939759 0.351150 0.930286 0.022263 -0.013855 -766897.000000 0 0 1
21.354965 7.464742 18.360332 29.135180 0.336279 0.889015 0.046960 -0.010981 -822707.000000 0 0 1
21.331465 6.077442 18.029732 28.583876 0.277551 0.888257 0.055418 -0.015945 -586028.000000 0 0 1
20.126765 5.697342 18.577032 27.975927 0.275856 0.844592 0.049900 -0.010805 -921732.000000 0 0 1
19.703465 4.222042 18.196332 27.150666 0.211087 0.836320 0.066592 -0.005398 -413503.000000 0 0 1
19.045465 4.202942 16.939432 25.832902 0.217198 0.855646 0.064952 -0.013137 408297.000000 0 0 1
18.999965 2.903942 16.323532 25.216845 0.151666 0.866725 0.059127 -0.015020 -72904.400000 0 0 1
18.010365 1.830742 16.880732 24.752454 0.101301 0.820327 0.066484 -0.011453 -724.944000 0 1 0
18.375565 1.115942 18.011532 25.755038 0.060655 0.796322 0.071663 -0.016478 176357.000000 0 0 1
17.214665 0.432342 18.440832 25.230852 0.025109 0.751180 0.052476 -0.009702 -250397.000000 0 0 1
17.430865 -0.581958 19.578032 26.219708 -0.033374 0.727722 0.062381 -0.013359 -163981.000000 0 0 1
18.028965 -1.800058 19.194532 26.395338 -0.099513 0.756571 0.071762 -0.007970 22594.200000 0 0 1
17.536465 -2.878858 19.929632 26.702166 -0.162713 0.728209 0.057542 -0.009895 -264262.000000 0 0 1
17.553465 -4.187158 19.124432 26.294492 -0.234162 0.756392 0.042487 -0.003060 -362928.000000 0 0 1
16.787365 -3.944158 17.987032 24.917972 -0.230763 0.764325 0.026001 -0.006537 50921.800000 0 1 0
16.839565 -5.088358 17.209732 24.609697 -0.293443 0.796369 0.042018 -0.009948 -293789.000000 0 1 0
16.510365 -4.902458 15.731532 23.326109 -0.288640 0.830621 0.024856 -0.016475 480382.000000 0 1 0
15.111365 -4.707058 15.486232 22.143467 -0.301966 0.796296 0.009153 -0.016165 662854.000000 0 1 0
14.877765 -4.567458 14.089232 20.993237 -0.297865 0.835062 0.011036 -0.019290 159462.000000 0 1 0
15.443565 -3.361258 13.333732 20.678253 -0.214306 0.870010 0.014868 -0.016744 118206.000000 0 1 0
14.725665 -2.169058 13.664332 20.205543 -0.146246 0.828114 0.008024 -0.005911 387442.000000 0 1 0
15.423065 -1.053158 13.143132 20.290934 -0.068179 0.866190 0.016617 -0.007253 1770.890000 0 1 0
14.623565 0.239142 13.336232 19.792951 0.016352 0.831475 0.017014 0.001866 -295818.000000 0 1 0
15.182265 1.402942 12.731732 19.863696 0.092145 0.875055 0.031576 0.001389 307811.000000 0 1 0
15.905165 2.265542 13.590832 21.043233 0.141489 0.868657 0.045205 -0.005262 -79271.500000 0 1 0
15.975665 3.766642 12.995032 20.935146 0.231545 0.901125 0.037745 -0.006836 -929270.000000 0 1 0
14.949965 4.626942 13.228432 20.491497 0.300145 0.869044 0.038903 -0.004671 -621080.000000 0 1 0
15.171465 5.774242 12.453232 20.459673 0.363670 0.916410 0.047682 -0.006430 -77754.800000 0 1 0
14.187165 6.931442 12.666032 20.242256 0.454463 0.894739 0.052848 -0.007807 -338356.000000 0 1 0
14.402565 8.056642 11.912732 20.353293 0.510023 0.945549 0.042811 -0.019644 253678.000000 0 1 0
13.480365 9.122942 12.155332 20.315029 0.594956 0.929366 0.035953 -0.004615 -110163.000000 0 1 0
13.531765 9.875542 13.513032 21.522942 0.630450 0.892017 0.040608 -0.013985 -212421.000000 0 1 0
13.233965 9.127642 14.649932 21.750223 0.603789 0.831791 0.052792 -0.019910 745853.000000 0 1 0
13.853565 9.685842 15.836032 23.162830 0.610161 0.817999 0.076921 -0.026104 -17288.400000 0 1 0
13.251665 9.087042 17.097732 23.463022 0.601083 0.754360 0.066753 -0.029654 -992360.000000 0 1 0
11.976965 9.518342 17.430632 23.192099 0.671514 0.720348 0.054948 -0.035918 -596391.000000 0 1 0
11.328665 8.717742 18.375732 23.281005 0.655883 0.661126 0.059842 -0.032552 -192002.000000 0 1 0
11.758365 8.934942 19.838332 24.731594 0.649794 0.639917 0.066909 -0.028588 -211162.000000 0 1 0
13.090165 8.527942 20.099832 25.457444 0.577413 0.660727 0.085069 -0.032531 139238.000000 0 0 1
13.503265 8.716342 21.461332 26.812340 0.573204 0.642788 0.082952 -0.025295 -664498.000000 0 0 1
14.988565 8.366942 21.448432 27.471768 0.509134 0.674940 0.081123 -0.024819 -474564.000000 0 0 1
15.815965 9.402042 20.942332 27.876951 0.536340 0.720855 0.072612 -0.021209 -314860.000000 0 0 1
16.878365 8.815942 20.253332 27.799236 0.481345 0.754583 0.066874 -0.024953 -470815.000000 0 0 1
17.781965 9.796142 19.502432 28.151510 0.503536 0.805478 0.061656 -0.020318 -299431.000000 0 0 1
18.590665 10.652342 20.268432 29.493975 0.520326 0.813161 0.057052 -0.020259 44349.900000 0 0 1
19.342365 11.424442 19.380632 29.669073 0.533511 0.858958 0.054385 -0.021205 -321573.000000 0 0 1
20.471565 12.261842 19.972732 31.118287 0.539661 0.873911 0.046544 -0.016847 -706897.000000 0 0 1
19.980165 13.383542 20.645632 31.694926 0.590197 0.861387 0.053298 -0.018060 339469.000000 0 0 1
20.804065 14.038842 21.608732 33.118507 0.593621 0.859961 0.047897 -0.009238 -150652.000000 0 0 1
22.000965 14.931842 21.220332 34.019184 0.596281 0.897232 0.032514 -0.008100 -710613.000000 0 0 1
23.110265 14.178842 20.880832 34.221821 0.550309 0.914532 0.005812 0.002043 -152709.000000 0 0 1
24.228365 15.087242 20.802232 35.318146 0.556951 0.940981 0.010499 -0.004240 1177280.000000 0 0 1
25.657465 14.445142 20.738332 36.014526 0.512769 0.957174 0.006165 0.001308 565006.000000 0 0 1
25.921665 13.610942 19.634532 35.252026 0.483510 0.980056 0.012729 -0.006851 497841.000000 0 0 1
27.138565 12.871942 19.799732 35.975241 0.442881 0.987988 0.018974 -0.004717 475313.000000 0 0 1
27.485265 11.912442 18.602232 35.261723 0.408974 1.015085 0.037249 -0.013068 -302564.000000 0 0 1
28.013765 12.651742 17.554732 35.397828 0.424205 1.051895 0.042685 -0.019514 100186.000000 0 0 1
28.234165 11.809142 16.433432 34.737323 0.396146 1.078016 0.058405 -0.031040 728047.000000 0 0 1
26.972865 11.563442 15.492732 33.185439 0.405006 1.085067 0.060697 -0.044031 897108.000000 0 0 1
26.502665 12.722342 14.803932 32.915128 0.447553 1.104299 0.071376 -0.039509 468356.000000 0 0 1
25.307465 12.376942 14.111732 31.508689 0.454860 1.106417 0.070938 -0.035310 460784.000000 0 0 1
24.745665 13.351842 12.978532 30.968725 0.494795 1.138359 0.071687 -0.032718 39282.400000 0 0 1
24.030665 14.460842 13.438232 31.099436 0.541717 1.123970 0.058747 -0.030186 182148.000000 0 0 1
23.651165 15.214042 12.286932 30.688978 0.571628 1.158876 0.051275 -0.027449 370652.000000 0 0 1
22.821165 16.525142 12.664132 30.891198 0.626728 1.148387 0.049072 -0.012532 -89108.000000 0 0 1
21.485865 16.307442 13.072632 29.974469 0.649227 1.119508 0.053215 -0.019881 94113.200000 0 0 1
20.857365 17.486542 13.532632 30.396397 0.697713 1.109393 0.047944 -0.016837 -763828.000000 0 0 1
20.299065 18.316142 12.402432 30.022549 0.734092 1.144937 0.060113 -0.009653 -489967.000000 0 0 1
19.183165 17.704542 11.774732 28.637195 0.745335 1.147060 0.040194 -0.007280 996676.000000 0 0 1
17.884065 17.896742 12.351332 28.154726 0.785752 1.116651 0.027320 -0.009182 597435.000000 0 0 1
16.735365 17.205942 11.563332 26.642589 0.799262 1.121850 0.024644 -0.001673 -81449.600000 0 0 1
16.699265 15.786542 11.663832 25.770630 0.757310 1.101115 0.030919 -0.001718 334153.000000 0 0 1
15.563365 15.239142 11.022332 24.411915 0.774873 1.102334 0.034763 -0.011586 101252.000000 0 1 0
15.884765 13.940942 10.280332 23.502359 0.720317 1.118072 0.048060 -0.013954 -302947.000000 0 1 0
15.984565 12.795642 11.091032 23.286171 0.675046 1.074363 0.059748 -0.013734 370062.000000 0 1 0
16.496065 11.685942 10.397132 22.732835 0.616347 1.095770 0.057763 -0.004472 -33460.800000 0 1 0
16.856665 10.429242 11.271632 22.802762 0.554057 1.053755 0.058949 -0.006688 -790946.000000 0 1 0
17.554065 9.451242 10.587632 22.573638 0.493900 1.082608 0.058280 -0.003590 184426.000000 0 1 0
18.211565 8.402042 11.280432 23.010944 0.432259 1.058454 0.077394 0.000569 425513.000000 0 1 0
19.448465 8.749942 12.126732 24.532874 0.422774 1.053761 0.055855 -0.011258 -835294.000000 0 1 0
19.064765 9.433042 13.277232 25.074538 0.459470 1.012773 0.043236 -0.017978 -177876.000000 0 0 1
20.058765 9.698442 14.244032 26.444400 0.450362 1.001973 0.045257 -0.017070 -1578510.000000 0 0 1
19.648465 9.836242 15.740532 27.029210 0.464136 0.949177 0.038689 -0.015678 -293264.000000 0 0 1
19.088965 8.618342 16.243832 26.505216 0.424086 0.911129 0.059966 -0.022897 1309310.000000 0 0 1
17.694765 8.556142 15.880332 25.268503 0.450394 0.891220 0.066259 -0.025495 -19653.000000 0 0 1
16.961865 7.266742 16.253532 24.590399 0.404761 0.848685 0.054443 -0.010321 -1321790.000000 0 1 0
16.612365 7.205942 17.647832 25.285218 0.409275 0.798265 0.085714 -0.015116 412299.000000 0 0 1
15.978465 5.967642 17.994132 24.793404 0.357438 0.758654 0.084089 0.001498 224747.000000 0 1 0
14.635365 5.666442 17.286632 23.348022 0.369401 0.737147 0.092227 -0.022513 -965647.000000 0 1 0
14.047765 4.476842 17.700732 23.036878 0.308512 0.694514 0.082162 -0.009951 -100107.000000 0 1 0
13.348165 3.849142 16.660432 21.692381 0.280749 0.695035 0.055641 -0.010769 -44628.200000 0 1 0
13.034765 2.360742 16.904632 21.476610 0.179169 0.664673 0.030253 -0.004977 -160412.000000 0 1 0
14.193865 1.557442 16.771032 22.026324 0.109289 0.705313 0.024865 -0.003389 249163.000000 0 1 0
14.011665 0.155842 16.868332 21.929242 0.011122 0.693182 0.019188 0.000573 -680703.000000 0 1 0
13.253865 -0.617358 17.966732 22.334940 -0.046546 0.636093 0.019564 -0.001727 758956.000000 0 1 0
11.835565 -0.403358 17.845132 21.417097 -0.034067 0.585892 0.012556 0.008888 681545.000000 0 1 0
11.146165 -0.900758 18.966832 22.017926 -0.080638 0.532724 0.007853 0.001383 -5689.650000 0 1 0
-25.422365 13.949242 28.881242 40.926815 -0.501844 0.787414 0.071948 -0.013197 49839.000000 0 0 1
-24.451235 14.068942 29.929252 41.128557 -0.522126 0.755834 0.068530 -0.013498 227121.000000 0 0 1
-23.660135 12.923142 29.947972 40.295045 -0.499920 0.732930 0.054692 -0.011940 73925.200000 0 0 1
-22.544135 13.009242 31.051312 40.517433 -0.523379 0.697626 0.073232 -0.024178 164963.000000 0 0 1
-23.067435 13.071442 32.354142 41.830129 -0.515546 0.686507 0.067180 -0.022736 -15589.300000 0 0 1
-22.026535 13.220342 33.301248 42.058517 -0.540567 0.657073 0.056513 -0.021793 -110307.000000 0 0 1
-22.453935 13.367042 -33.699101 42.643715 -0.536964 2.482010 0.066231 -0.024878 -258022.000000 0 0 1
-23.015535 12.197542 -33.223311 42.217097 -0.487335 2.476668 0.036160 -0.015286 -369508.000000 0 0 1
-23.852935 12.513242 -32.168021 41.956231 -0.483133 2.444488 0.036167 -0.020707 -482373.000000 0 0 1
-24.714035 11.314342 -31.669281 41.734174 -0.429330 2.432316 0.020259 -0.022740 -273881.000000 0 0 1
-24.093035 10.220942 -31.004611 40.573734 -0.401217 2.440526 0.017036 -0.019325 39292.100000 0 0 1
-23.416735 9.247642 -31.778381 40.542914 -0.376116 2.471591 0.008012 -0.018457 -156727.000000 0 0 1
-22.582535 8.354142 -30.870571 39.150412 -0.354326 2.479182 0.011394 -0.006495 -172439.000000 0 0 1
-23.417235 7.551742 -30.026561 38.819970 -0.311957 2.455113 0.011370 -0.008001 799810.000000 0 0 1
-22.604935 6.758842 -29.150531 37.502247 -0.290538 2.461161 0.011651 0.001262 107185.000000 0 0 1
-23.357235 5.997642 -28.019441 36.967840 -0.251348 2.430947 0.011939 -0.002814 -213544.000000 0 0 1
-24.112235 4.924242 -28.494141 37.650553 -0.201452 2.429208 0.012886 -0.008337 -9297.770000 0 0 1
-24.459435 3.982442 -27.498861 37.017714 -0.161402 2.408124 0.043903 -0.003441 -424799.000000 0 0 1
-25.105165 2.686242 -28.086091 37.766569 -0.106594 2.409349 0.059735 0.000771 2833870.000000 0 0 1
-26.553355 2.781442 -28.438541 39.007278 -0.104369 2.387740 0.062606 -0.003322 2659850.000000 0 0 1
-26.797525 3.651742 -29.552391 40.059785 -0.135437 2.400464 0.052349 -0.000573 -761814.000000 0 0 1
-28.137335 3.441242 -30.287121 41.483267 -0.121697 2.389271 0.062946 0.003755 429804.000000 0 0 1
-29.327425 3.772042 -29.538101 41.795043 -0.127916 2.355672 0.057117 -0.001228 469214.000000 0 0 1
-30.424165 4.040442 -30.370671 43.177919 -0.132031 2.350944 0.058047 0.006060 -93246.400000 0 0 1
-30.511585 5.505442 -30.892311 43.767586 -0.178517 2.354385 0.058286 -0.015587 -1355830.000000 0 0 1
-29.485895 5.901942 -31.744241 43.725825 -0.197551 2.383260 0.063535 -0.011513 -163631.000000 0 0 1
-29.643745 7.202642 -32.302811 44.430860 -0.238355 2.384791 0.055752 -0.015796 -563519.000000 0 0 1
-29.367775 8.360542 -31.299891 43.726972 -0.277347 2.368569 0.045565 -0.028847 -12737.700000 0 0 1
-27.983745 8.560942 -31.064281 42.677503 -0.296884 2.386028 0.002107 -0.038558 377636.000000 0 0 1
-27.341255 7.839642 -30.023701 41.357307 -0.279241 2.383224 0.000680 -0.036059 -340020.000000 0 0 1
-27.518655 8.428042 -28.560101 40.546118 -0.297196 2.352354 0.000283 -0.025072 -624475.000000 0 0 1
-28.834215 8.604842 -28.113341 41.180277 -0.290011 2.322233 0.001543 -0.024380 -523713.000000 0 0 1
-29.271015 7.459142 -27.445861 40.813067 -0.249520 2.308347 0.010637 -0.023414 -398278.000000 0 0 1
-30.745375 7.805142 -27.066741 41.699003 -0.248612 2.277194 0.021430 -0.023795 161120.000000 0 0 1
-30.927295 8.697842 -25.983611 41.319464 -0.274154 2.250865 -0.006583 -0.018120 119923.000000 0 0 1
-30.612905 8.018642 -24.745831 40.172189 -0.256181 2.234444 -0.003712 -0.019096 -307852.000000 0 0 1
-30.147875 8.873942 -23.567931 39.282166 -0.286263 2.214254 -0.006567 -0.015862 -746165.000000 0 0 1
-31.097015 9.613742 -22.863331 39.776630 -0.299833 2.183148 -0.005807 -0.016215 -440400.000000 0 0 1
-30.566555 10.711742 -22.108731 39.215452 -0.337067 2.169747 0.001638 -0.017775 -910410.000000 0 0 1
-31.505095 11.685242 -21.409431 39.843188 -0.355171 2.138079 -0.005394 -0.012904 -816060.000000 0 0 1
-31.951295 11.044142 -20.246231 39.405180 -0.332799 2.110400 -0.005175 -0.015197 53666.500000 0 0 1
-32.533215 11.981942 -19.376231 39.716689 -0.352883 2.080434 -0.005583 -0.011951 -370901.000000 0 0 1
-31.499025 12.808542 -18.593731 38.755312 -0.386211 2.071192 0.000763 -0.013705 -236778.000000 0 0 1
-30.848395 12.205142 -17.481531 37.499239 -0.376750 2.055768 0.016569 -0.011233 751076.000000 0 0 1
-31.727815 11.766642 -16.401831 37.604896 -0.355138 2.022126 0.016636 -0.007057 469547.000000 0 0 1
-32.419245 12.900442 -15.581231 38.212611 -0.378717 1.990786 0.015184 -0.006440 -318829.000000 0 0 1
-33.196065 13.772242 -16.339031 39.479328 -0.393264 1.997490 0.010843 -0.008720 -120679.000000 0 0 1
-33.651845 14.883242 -15.582231 39.959523 -0.416408 1.971374 0.011509 -0.005365 -158195.000000 0 0 1
-34.278741 15.986542 -16.428631 41.237138 -0.436383 1.980562 0.014156 -0.016556 225915.000000 0 0 1
-35.405766 15.526442 -17.175031 42.303905 -0.413273 1.988860 0.010347 -0.019901 1085270.000000 0 0 1
35.852575 16.639942 -17.420331 43.194476 0.434535 1.985917 0.008836 -0.021012 527649.000000 0 0 1
35.133255 16.619942 -18.828231 43.186460 0.441860 2.021918 0.015256 -0.018599 322391.000000 0 0 1
34.125405 15.638542 -18.982131 42.064576 0.429707 2.038975 0.034904 -0.019583 499125.000000 0 0 1
32.805425 16.116642 -18.756531 41.082229 0.456647 2.044922 0.060720 -0.025585 -672581.000000 0 0 1
31.805235 15.070642 -19.129031 40.057671 0.442503 2.068646 0.079968 -0.028743 -893279.000000 0 0 1
31.708555 14.802642 -20.528531 40.570571 0.436765 2.101332 0.077809 -0.027352 360341.000000 0 0 1
30.981515 13.587142 -20.839331 39.733392 0.413297 2.122899 0.056961 -0.024187 119098.000000 0 0 1
31.526225 12.177842 -20.413631 39.483149 0.368620 2.114164 0.051291 -0.005682 -54261.500000 0 0 1
31.589435 11.994042 -19.001431 38.766014 0.362872 2.083066 0.062152 -0.009749 286388.000000 0 0 1
32.464485 10.957042 -18.560431 38.967796 0.325504 2.067240 0.051937 -0.006735 -43421.100000 0 0 1
32.419655 10.683542 -17.097031 38.176964 0.318332 2.035140 0.043648 -0.004562 29115.900000 0 0 1
31.325075 9.955242 -16.534831 36.793584 0.307710 2.036884 0.056032 -0.010975 231238.000000 0 0 1
31.376635 9.797542 -15.118831 36.180991 0.302663 2.001892 0.039817 -0.009032 -149255.000000 0 0 1
30.860885 10.965442 -14.286131 35.731340 0.341405 1.982118 0.054872 -0.016569 632571.000000 0 0 1
29.423915 11.031842 -14.162731 34.468119 0.358707 1.994230 0.051320 -0.012567 1043210.000000 0 0 1
29.126795 12.086842 -13.259731 34.209390 0.393347 1.968828 0.054057 -0.015179 -96063.800000 0 0 1
27.624785 12.439142 -13.274531 33.076792 0.423094 1.983759 0.070138 -0.013659 208695.000000 0 0 1
26.826405 11.439442 -12.620331 31.777187 0.403077 1.979206 0.063930 -0.017359 824419.000000 0 0 1
25.479205 11.274242 -13.082031 30.780480 0.416589 2.009770 0.065160 -0.012893 573098.000000 0 0 1
25.212505 10.526942 -14.427331 30.897165 0.395525 2.056631 0.066922 -0.020813 -451041.000000 0 0 1
25.578205 9.140442 -14.543631 30.810866 0.343210 2.062388 0.063243 -0.018196 474394.000000 0 0 1
26.940305 8.758042 -14.501831 31.824306 0.314314 2.043937 0.060970 -0.027056 -121492.000000 0 0 1
27.300935 7.616042 -13.511831 31.399279 0.272050 2.015647 0.057645 -0.025854 -264197.000000 0 0 1
26.956705 6.357642 -13.994531 31.031121 0.231614 2.038664 0.060997 -0.025150 112082.000000 0 0 1
25.926105 5.777842 -13.255331 29.685858 0.219275 2.033669 0.076180 -0.026330 -662355.000000 0 0 1
25.598905 4.359042 -13.593531 29.310224 0.168665 2.053055 0.069241 -0.018924 -691714.000000 0 0 1
24.794605 3.892342 -12.567831 28.069078 0.155713 2.035040 0.065089 -0.021193 -207279.000000 0 0 1
24.594605 2.493942 -12.585731 27.740133 0.101057 2.041711 0.048878 -0.022385 -429703.000000 0 0 1
23.737405 1.954642 -11.459131 26.430980 0.082159 2.019224 0.035638 -0.013425 -511469.000000 0 0 1
24.271005 2.114542 -10.170431 26.400580 0.086903 1.966259 0.034531 -0.008892 709648.000000 0 0 1
23.302705 1.771642 -9.182831 25.109344 0.075881 1.945196 0.028825 -0.001149 -486411.000000 0 0 1
23.998505 1.502342 -7.814831 25.283529 0.062520 1.885030 0.028692 0.008677 56033.200000 0 0 1
24.278505 0.177342 -7.504631 25.412531 0.007304 1.870579 0.019838 0.001929 791161.000000 0 0 1
25.177005 -0.513458 -8.380431 26.540098 -0.020391 1.892059 0.022454 -0.003304 -511464.000000 0 0 1
25.226205 -2.031958 -8.008931 26.544928 -0.080376 1.877284 0.039255 -0.014334 -606879.000000 0 0 1
25.922605 -2.331758 -6.803831 26.901871 -0.089709 1.826486 0.049589 -0.013188 661521.000000 0 0 1
25.913105 -3.716958 -6.592131 26.995573 -0.142468 1.817484 0.051370 -0.013350 -838031.000000 0 0 1
27.086805 -4.060058 -5.681431 27.972446 -0.148783 1.775328 0.051871 -0.015148 -1076530.000000 0 0 1
28.272305 -3.983258 -6.425531 29.265628 -0.139968 1.792159 0.058380 -0.016023 -283432.000000 0 0 1
29.293495 -4.464958 -5.559031 30.148756 -0.151257 1.756244 0.082590 -0.012956 1015.700000 0 0 1
30.657145 -4.615358 -6.291231 31.634501 -0.149425 1.771004 0.093319 -0.018881 86648.300000 0 0 1
30.498495 -5.505158 -7.360131 31.853359 -0.178583 1.803966 0.075861 -0.015696 579917.000000 0 0 1
31.581075 -5.371958 -8.275031 33.086226 -0.168488 1.823585 0.070425 -0.034965 -191127.000000 0 0 1
31.377095 -6.235258 -9.541831 33.383335 -0.196165 1.860665 0.062458 -0.030427 409549.000000 0 0 1
30.228635 -6.021758 -10.384631 32.524952 -0.196633 1.895768 0.064106 -0.025260 575923.000000 0 0 1
29.144935 -6.816058 -9.951131 31.542208 -0.229739 1.891765 0.060883 -0.027999 -313223.000000 0 0 1
27.838635 -6.045058 -9.650431 30.077618 -0.213827 1.897424 0.049904 -0.019200 -929785.000000 0 0 1
27.125505 -5.645058 -10.827831 29.747296 -0.205180 1.943349 0.027335 -0.016442 489848.000000 0 0 1
25.928405 -4.951758 -10.541431 28.424001 -0.188706 1.950735 0.033465 -0.011843 475609.000000 0 0 1
24.679305 -5.806158 -10.177731 27.319695 -0.231062 1.952543 0.050909 -0.005260 -926183.000000 0 0 1
24.902905 -6.562358 -8.960631 27.267418 -0.257660 1.905639 0.049809 -0.005010 1106340.000000 0 0 1
23.682105 -7.148058 -8.480331 26.150580 -0.293138 1.901056 0.060894 -0.009610 464647.000000 0 0 1
22.667105 -6.294058 -7.692031 24.750356 -0.270850 1.886815 0.080376 -0.006819 -401175.000000 0 1 0
22.227405 -5.289758 -8.549931 24.395499 -0.233638 1.928871 0.069793 -0.004101 187716.000000 0 1 0
21.862505 -4.030258 -8.024431 23.634796 -0.182299 1.917200 0.059349 -0.005889 -319974.000000 0 1 0
21.664705 -3.020358 -9.177631 23.721528 -0.138521 1.968053 0.051752 -0.000659 -365353.000000 0 1 0
22.843705 -2.595158 -9.833931 25.005517 -0.113120 1.974982 0.034728 -0.005936 268880.000000 0 0 1
22.629905 -2.087358 -11.130831 25.305435 -0.091979 2.026238 0.038847 -0.004851 -553788.000000 0 0 1
23.855405 -2.071258 -12.058631 26.810092 -0.086608 2.037315 0.031607 -0.015117 -130613.000000 0 0 1
24.910605 -1.247458 -11.554931 27.488376 -0.050036 2.004635 0.032303 -0.019040 372906.000000 0 0 1
26.044305 -1.415458 -12.349131 28.858454 -0.054295 2.012987 0.028980 -0.018182 -153180.000000 0 0 1
27.190285 -0.388758 -12.077431 29.754446 -0.014297 1.988763 0.019578 -0.016735 -106493.000000 0 0 1
28.393865 -0.684158 -12.734631 31.126363 -0.024091 1.992293 0.040434 -0.025035 1015180.000000 0 0 1
29.497065 0.245242 -12.523531 32.046463 0.008314 1.972289 0.060687 -0.027705 831593.000000 0 0 1
29.518425 1.540542 -13.276831 32.403471 0.052142 1.992960 0.067678 -0.030727 -491807.000000 0 0 1
29.575165 1.384342 -14.667131 33.041360 0.046773 2.030745 0.053582 -0.024101 371486.000000 0 0 1
29.433785 2.515542 -15.445031 33.335036 0.085257 2.052542 0.054287 -0.021673 -78261.800000 0 0 1
29.696555 2.210742 -16.902431 34.241275 0.074307 2.087052 0.060291 -0.024214 239909.000000 0 0 1
28.705765 1.352342 -17.447231 33.619275 0.047076 2.116436 0.049524 -0.010668 153558.000000 0 0 1
29.107915 1.073842 -18.749931 34.640782 0.036875 2.142740 0.040223 -0.012027 457541.000000 0 0 1
28.047095 0.277942 -19.625231 34.232535 0.009910 2.181314 0.027647 -0.006055 226655.000000 0 0 1
27.898545 -1.119058 -19.403831 34.001320 -0.040090 2.178129 0.039823 -0.000391 224811.000000 0 0 1
27.419305 -1.722458 -20.586431 34.330544 -0.062737 2.213864 0.014777 -0.002019 -236375.000000 0 0 1
27.121905 -3.215158 -20.423431 34.103541 -0.117994 2.212880 0.024614 -0.011791 -734218.000000 0 0 1
26.038605 -3.555258 -19.628431 32.801282 -0.135699 2.212304 0.034617 -0.008889 -365095.000000 0 0 1
25.800905 -4.972358 -19.434931 32.682221 -0.190386 2.207644 0.041056 -0.010417 -279800.000000 0 0 1
26.750405 -5.743858 -18.469131 33.010375 -0.211509 2.164572 0.040217 -0.016536 792367.000000 0 0 1
28.122865 -5.722258 -18.922531 34.375892 -0.200733 2.153711 0.043180 -0.020882 1133980.000000 0 0 1
28.897495 -5.957858 -17.701331 34.407824 -0.203323 2.111170 0.040598 -0.024469 -239912.000000 0 0 1
30.388325 -5.638258 -17.809431 35.670941 -0.183454 2.093552 0.066008 -0.020028 -289951.000000 0 0 1
31.029835 -6.598358 -18.685531 36.817632 -0.209525 2.103096 0.062156 -0.024415 -610822.000000 0 0 1
32.287715 -6.125758 -19.046831 37.984249 -0.187496 2.096059 0.069841 -0.020002 -819662.000000 0 0 1
33.097915 -7.278558 -19.630631 39.163900 -0.216464 2.095831 0.066673 -0.017035 -484573.000000 0 0 1
33.610345 -8.133758 -18.659431 39.293608 -0.237437 2.065615 0.076048 -0.017606 -24759.500000 0 0 1
34.487315 -9.047958 -19.298931 40.542436 -0.256574 2.066918 0.063405 -0.006282 183233.000000 0 0 1
35.335745 -9.798858 -18.234131 40.952607 -0.270510 2.032249 0.055839 -0.010000 -858621.000000 0 0 1
34.476195 -10.567458 -17.457131 40.062833 -0.297423 2.021661 0.060797 -0.010706 46451.900000 0 0 1
35.033625 -11.517358 -16.566131 40.428221 -0.317621 1.992994 0.068679 -0.009021 -434946.000000 0 0 1
35.945935 -10.985458 -15.422131 40.627978 -0.296596 1.960154 0.069905 -0.005783 122536.000000 0 0 1
-35.622228 -11.905758 -14.490431 40.257456 0.322551 1.939004 0.058042 -0.001401 595981.000000 0 0 1
-34.852303 -13.008358 -14.923431 40.082530 0.357229 1.952301 0.042042 -0.009114 -450550.000000 0 0 1
-33.418125 -12.730258 -15.390031 38.931781 0.363967 1.977199 0.028241 -0.008899 -502421.000000 0 0 1
-33.326135 -11.980458 -16.600031 39.111682 0.345105 2.009125 0.039077 -0.005196 596703.000000 0 0 1
-31.965965 -11.977758 -17.062831 38.163200 0.358511 2.034319 0.024690 -0.001594 718961.000000 0 0 1
-31.775275 -11.028258 -18.256931 38.270172 0.334063 2.068096 0.045933 -0.001293 159644.000000 0 0 1
-31.858315 -9.628658 -17.951431 37.814245 0.293505 2.065450 0.065814 -0.003714 200842.000000 0 0 1
-33.138275 -9.145558 -18.322031 38.954888 0.269279 2.060472 0.067545 -0.014088 -279146.000000 0 0 1
-33.584915 -7.917858 -17.627131 38.747319 0.231529 2.043085 0.078298 -0.019354 -274156.000000 0 0 1
-34.804007 -7.479858 -18.197931 39.980394 0.211694 2.043361 0.081813 -0.021711 -191144.000000 0 0 1
-35.279508 -6.353958 -17.509431 39.894820 0.178193 2.025159 0.089006 -0.025692 -4109.800000 0 0 1
24.785865 27.519142 -27.539801 46.152822 0.837607 2.210190 0.032805 0.021076 -72813.200000 0 0 1
25.208465 26.624742 -26.571361 45.281131 0.812715 2.197908 0.030109 0.014295 -342268.000000 0 0 1
26.385865 25.966542 -26.915741 45.770431 0.777389 2.199454 0.020688 0.008385 -872774.000000 0 0 1
26.985665 25.107142 -25.791741 44.986761 0.749353 2.181347 0.022913 -0.002986 -355137.000000 0 0 1
27.492665 25.882442 -24.675931 45.107084 0.755239 2.149635 0.037735 0.000422 439538.000000 0 0 1
27.899365 25.088442 -23.562731 44.305833 0.732399 2.131545 0.045571 -0.000904 52457.200000 0 0 1
28.433865 25.917942 -22.343631 44.491148 0.739142 2.096942 0.046784 -0.004468 -159892.000000 0 0 1
27.437265 26.478542 -21.516131 43.781967 0.767618 2.084537 0.055849 -0.008489 -248841.000000 0 0 1
27.913565 27.239542 -20.461831 44.043686 0.773178 2.053957 0.038021 -0.010450 -213861.000000 0 0 1
26.873565 28.169842 -19.770531 43.664659 0.808944 2.040678 0.046708 0.000196 5443.560000 0 0 1
25.971965 27.490342 -18.912731 42.284197 0.813791 2.034514 0.060802 -0.007156 93196.700000 0 0 1
25.249865 28.431542 -18.145531 42.132750 0.844599 2.016037 0.053910 -0.007560 -314974.000000 0 0 1
24.244265 27.852842 -17.143431 40.711945 0.854554 2.005444 0.050262 -0.006938 -155708.000000 0 0 1
23.226865 27.161942 -17.851631 39.949207 0.863334 2.034047 0.059545 -0.004581 -416262.000000 0 0 1
22.031765 27.301142 -17.138731 39.044682 0.891807 2.025228 0.033157 0.004423 -59940.400000 0 0 1
20.964465 26.200942 -17.435231 37.815149 0.895969 2.049991 0.019096 0.007552 327230.000000 0 0 1
20.501065 26.275642 -18.802131 38.265169 0.908227 2.084452 0.021046 0.003274 -575855.000000 0 0 1
19.726865 25.256242 -19.276631 37.398068 0.907706 2.112323 0.017979 0.013575 -809353.000000 0 0 1
18.950565 25.721942 -20.486831 37.953294 0.935831 2.140985 0.004449 0.018516 -118035.000000 0 0 1
17.966765 26.652642 -20.042631 37.879745 0.977660 2.128350 -0.005774 0.017619 -517138.000000 0 0 1
17.164465 27.036842 -21.104131 38.353540 1.005142 2.153463 0.001044 0.011829 -325538.000000 0 0 1
16.065065 28.057842 -20.710131 38.395812 1.050791 2.140503 0.001704 0.013627 -265697.000000 0 0 1
15.268165 27.557042 -19.686131 37.149041 1.064844 2.129306 0.005448 0.015722 -642302.000000 0 0 1
14.364065 28.566742 -19.330331 37.363710 1.104891 2.114555 0.005001 0.006651 -81738.700000 0 0 1
13.901765 28.456042 -17.845031 36.351761 1.116363 2.083917 0.011179 0.005651 297955.000000 0 0 1
12.960565 27.405042 -17.651531 35.079754 1.129041 2.098074 0.015009 0.007326 -52096.600000 0 0 1
12.459965 27.356342 -16.311231 34.200533 1.143404 2.067954 0.028194 0.008919 120930.000000 0 0 1
11.537465 26.147142 -16.131731 32.817966 1.155241 2.084667 0.043490 0.005024 -2079.330000 0 0 1
12.189265 24.939442 -15.835131 31.957868 1.116186 2.089207 0.034843 0.008866 -282317.000000 0 0 1
11.262165 23.909642 -15.834531 30.809734 1.130592 2.110575 0.046025 0.004072 -67799.300000 0 0 1
12.106565 22.663842 -16.004631 30.271552 1.080180 2.127867 0.042630 -0.000528 298317.000000 0 0 1
12.784865 22.667442 -17.241931 31.217782 1.057254 2.155930 0.045923 0.003080 -425300.000000 0 0 1
13.621965 21.555242 -17.486731 30.918800 1.007211 2.171920 0.051310 -0.001998 -117307.000000 0 0 1
12.974265 20.202742 -17.903331 29.950152 0.999922 2.211514 0.055542 -0.004556 196190.000000 0 0 1
12.357465 19.492142 -16.793931 28.542717 1.005772 2.199849 0.054951 -0.006133 -5027.550000 0 0 1
12.066465 18.106342 -17.000431 27.612567 0.982963 2.234042 0.049051 -0.011584 -641282.000000 0 0 1
13.235065 17.133042 -17.032731 27.546724 0.913058 2.237401 0.065317 -0.010686 -443249.000000 0 0 1
13.796365 16.931642 -15.735131 26.918666 0.887079 2.195114 0.068089 -0.017628 -64735.900000 0 0 1
14.709365 15.869142 -15.826531 26.808099 0.823308 2.202306 0.065372 -0.017566 -988599.000000 0 0 1
15.230365 15.332442 -14.428531 25.985194 0.788738 2.159472 0.088364 -0.011024 -515850.000000 0 0 1
16.072265 16.203042 -13.692231 26.614535 0.789450 2.111179 0.075548 -0.001938 627335.000000 0 0 1
17.340065 16.469642 -14.267831 27.847764 0.759659 2.108717 0.058920 -0.001639 -486178.000000 0 0 1
18.349765 15.409242 -14.755731 28.140544 0.698514 2.122758 0.052540 -0.008601 -713627.000000 0 0 1
18.872665 14.464142 -13.829031 27.506926 0.653919 2.097570 0.072972 -0.004732 863779.000000 0 0 1
19.809665 14.948342 -12.851831 27.947188 0.646438 2.048635 0.069388 -0.002943 -26865.200000 0 0 1
20.338465 13.776242 -11.978031 27.329677 0.595362 2.024480 0.072146 -0.004726 484205.000000 0 0 1
19.322965 13.116642 -11.191231 25.897238 0.596363 2.017661 0.096563 -0.012467 974283.000000 0 0 1
19.908765 12.002142 -10.537631 25.523558 0.542518 1.996387 0.102298 -0.007237 108015.000000 0 0 1
20.103465 10.688242 -11.319131 25.426572 0.488655 2.032160 0.085228 -0.011728 -355295.000000 0 0 1
21.298465 10.734742 -12.081131 26.735988 0.466854 2.039654 0.077958 -0.008748 538911.000000 0 0 1
21.378865 9.711142 -13.055331 26.866407 0.426375 2.078229 0.066838 -0.006081 -383381.000000 0 0 1
22.171465 8.499442 -12.594731 26.878274 0.366071 2.058484 0.064702 0.002693 -707803.000000 0 0 1
21.512465 7.806142 -11.536331 25.628284 0.348090 2.037719 0.068262 -0.009896 538951.000000 0 0 1
22.161065 6.717342 -10.912731 25.599281 0.294312 2.011184 0.065315 0.000081 -1224360.000000 0 0 1
22.180265 5.364342 -11.678931 25.634698 0.237295 2.043832 0.056263 -0.003741 117652.000000 0 0 1
20.976265 4.593042 -11.720331 24.463563 0.215562 2.070418 0.041973 -0.010795 913701.000000 0 1 0
19.936965 5.104142 -12.547331 24.103327 0.250631 2.118308 0.000959 -0.019875 -98437.800000 0 1 0
18.942865 4.035942 -12.987531 23.319454 0.209920 2.161493 0.000292 -0.029654 -243878.000000 0 1 0
19.623665 3.203542 -13.894931 24.257370 0.161821 2.180730 0.005594 -0.023419 399202.000000 0 1 0
18.993965 1.953542 -14.216731 23.805514 0.102490 2.210806 0.015399 -0.010224 -462571.000000 0 1 0
19.930065 0.996842 -14.973831 24.948283 0.049975 2.214541 0.038634 -0.005310 -156491.000000 0 1 0
20.999965 0.594342 -14.122731 25.314093 0.028295 2.162650 0.049767 -0.005991 581321.000000 0 0 1
22.075765 0.023742 -14.882031 26.623576 0.001075 2.163951 0.038086 -0.019380 119186.000000 0 0 1
22.024165 -1.467658 -15.345831 26.883311 -0.066540 2.178314 0.035459 -0.015946 -772653.000000 0 0 1
21.028465 -1.726258 -16.293131 26.657877 -0.081908 2.228364 0.026095 -0.011610 -178174.000000 0 0 1
21.477465 -2.675758 -17.203531 27.647833 -0.123946 2.242395 0.034924 -0.016067 305769.000000 0 0 1
20.321565 -3.411258 -17.982131 27.348852 -0.166313 2.288305 0.027146 -0.015504 371263.000000 0 0 1
19.689165 -4.330358 -17.079831 26.422260 -0.216489 2.273677 0.038596 -0.014913 135804.000000 0 0 1
18.674465 -5.025858 -17.777331 26.268391 -0.262901 2.314146 0.040290 -0.015765 -364415.000000 0 0 1
18.183165 -6.171158 -16.902731 25.581497 -0.327190 2.292601 0.048169 -0.023689 -776219.000000 0 0 1
19.137565 -7.123558 -16.543631 26.280852 -0.356339 2.251698 0.050789 -0.017652 220628.000000 0 0 1
18.615165 -8.140758 -15.697031 25.674756 -0.412258 2.228600 0.058019 -0.013310 513732.000000 0 0 1
19.776565 -9.131758 -15.326531 26.634640 -0.432579 2.183933 0.082813 -0.010954 731297.000000 0 0 1
20.347065 -9.921958 -16.389831 27.947717 -0.453707 2.197461 0.074791 -0.015810 630318.000000 0 0 1
21.285865 -10.860758 -15.900031 28.702876 -0.471801 2.157901 0.064184 -0.021802 -265123.000000 0 0 1
21.779165 -11.801358 -17.026631 30.058447 -0.496576 2.172989 0.054119 -0.016323 119209.000000 0 0 1
22.664765 -11.113458 -17.920631 30.957221 -0.455890 2.188155 0.054357 -0.019518 329430.000000 0 0 1
23.029365 -11.799458 -19.088031 32.154810 -0.473491 2.206357 0.052451 -0.021291 -402624.000000 0 0 1
22.014165 -11.686858 -20.264731 32.122662 -0.488045 2.253451 0.054861 -0.020635 570882.000000 0 0 1
20.677165 -12.137258 -20.124431 31.302570 -0.530797 2.269075 0.049509 -0.022924 305011.000000 0 0 1
20.507065 -13.504258 -19.927431 31.622890 -0.582340 2.252554 0.039671 -0.010176 -573249.000000 0 0 1
18.974065 -13.701658 -19.829831 30.675279 -0.625422 2.273710 0.041719 -0.001357 110668.000000 0 0 1
18.480665 -13.527758 -21.150231 31.174789 -0.631878 2.316434 0.043809 0.000678 1775.260000 0 0 1
17.056765 -13.496558 -21.081431 30.290544 -0.669397 2.340572 0.044301 0.010585 283133.000000 0 0 1
16.504865 -12.990458 -22.411431 30.715384 -0.666806 2.388604 0.053961 0.003861 -614425.000000 0 0 1
16.562365 -13.902958 -23.470231 31.913256 -0.698326 2.397110 0.043127 0.009181 280866.000000 0 0 1
15.964065 -13.401558 -24.623431 32.260912 -0.698356 2.439139 0.054752 -0.004021 -292029.000000 0 0 1
16.090865 -14.397958 -25.795371 33.639535 -0.729930 2.444664 0.052499 -0.007358 -279598.000000 0 0 1
15.245165 -15.526858 -25.684861 33.663191 -0.794552 2.438731 0.052486 -0.006350 147042.000000 0 0 1
15.194165 -16.338658 -26.841881 34.904168 -0.821678 2.448097 0.064510 -0.009215 -390983.000000 0 0 1
16.260365 -17.409758 -27.015241 36.018362 -0.819522 2.418920 0.062718 -0.018355 634752.000000 0 0 1
17.639665 -17.015058 -27.112211 36.547804 -0.767376 2.406590 0.057202 -0.014685 873064.000000 0 0 1
18.453365 -18.162258 -27.245161 37.585810 -0.777448 2.381655 0.065007 -0.017551 489080.000000 0 0 1
19.983965 -17.890358 -27.249631 38.235666 -0.730177 2.364102 0.049281 -0.014256 349099.000000 0 0 1
20.508565 -17.312858 -26.053321 37.404703 -0.701104 2.341340 0.046443 -0.013526 892643.000000 0 0 1
21.890965 -16.916658 -26.130071 38.054806 -0.657915 2.327658 0.049285 -0.013167 753587.000000 0 0 1
22.432465 -16.249058 -24.802431 37.180747 -0.626885 2.301075 0.043372 -0.011830 194751.000000 0 0 1
21.976865 -14.933658 -24.450531 36.108520 -0.596846 2.314666 0.049191 -0.019215 -273049.000000 0 0 1
20.625265 -14.566658 -24.558231 35.223512 -0.614910 2.342296 0.063023 -0.014449 -284380.000000 0 0 1
20.327965 -13.258258 -23.758731 33.962992 -0.577933 2.345561 0.062663 -0.005983 185755.000000 0 0 1
20.977465 -12.121758 -24.337731 34.341174 -0.523971 2.358456 0.072162 -0.021143 290031.000000 0 0 1
20.496665 -10.987458 -23.703331 33.206707 -0.492078 2.365722 0.072959 -0.019190 21336.200000 0 0 1
20.522265 -9.783658 -24.635731 33.523165 -0.444862 2.396296 0.090841 -0.022122 -176792.000000 0 0 1
20.068965 -8.626958 -24.012931 32.462418 -0.405985 2.403443 0.088370 -0.023865 41259.700000 0 0 1
19.948865 -7.611758 -24.992431 32.871229 -0.364512 2.434592 0.074878 -0.021084 -317277.000000 0 0 1
19.547365 -6.270958 -24.333631 31.836300 -0.310436 2.440807 0.064832 -0.020497 -467087.000000 0 0 1
18.320965 -6.404058 -23.688131 30.623476 -0.336272 2.455186 0.071075 -0.021851 -517958.000000 0 0 1
17.906165 -5.484758 -22.690131 29.420322 -0.297232 2.451583 0.064585 -0.015813 41393.000000 0 0 1
18.572765 -5.690658 -21.282631 28.814607 -0.297316 2.401796 0.048984 -0.021194 -34317.900000 0 0 1
18.089065 -6.695958 -20.393231 28.070162 -0.354526 2.384024 0.055181 -0.023610 313516.000000 0 0 1
18.325565 -8.040758 -20.876131 28.918730 -0.413478 2.377325 0.065676 -0.020399 2285.910000 0 0 1
17.969565 -9.085158 -19.722131 28.185241 -0.468106 2.345819 0.058755 -0.016414 1193820.000000 0 0 1
16.559665 -9.199658 -19.435731 27.140447 -0.507091 2.369019 0.057659 -0.015277 851441.000000 0 0 1
16.211865 -10.274658 -18.619831 26.741190 -0.564884 2.341023 0.061940 -0.007596 -9508.420000 0 0 1
14.701065 -10.297458 -18.291731 25.627063 -0.611032 2.365657 0.052692 -0.007370 153298.000000 0 0 1
14.228765 -9.551458 -17.180231 24.266199 -0.591188 2.357445 0.064265 -0.010731 201288.000000 0 1 0
14.027465 -8.172858 -17.458331 23.840275 -0.527551 2.392496 0.065195 -0.026344 210112.000000 0 1 0
12.652165 -7.513058 -17.107331 22.565108 -0.535860 2.431240 0.052662 -0.009499 690013.000000 0 1 0
11.618265 -7.558158 -18.097831 22.795643 -0.576755 2.488019 0.048909 -0.014100 534146.000000 0 1 0
10.600165 -6.656958 -17.646931 21.635451 -0.560757 2.524646 0.025119 -0.005773 212061.000000 0 1 0
9.172665 -6.885958 -18.172831 21.489672 -0.643952 2.578586 0.016397 0.000488 49017.500000 0 1 0
8.904565 -6.628758 -19.529331 22.463893 -0.639922 2.624713 0.019853 -0.006267 -969461.000000 0 1 0
7.586565 -6.318258 -19.793231 22.118959 -0.694436 2.678900 0.016847 -0.006290 -779621.000000 0 1 0
7.433265 -6.014558 -21.351531 23.394790 -0.680290 2.720546 0.026415 -0.011940 79810.000000 0 1 0
7.434365 -7.174058 -22.136931 24.429093 -0.767581 2.704936 0.028449 -0.014499 -108231.000000 0 1 0
6.690065 -6.851958 -23.280131 25.172819 -0.797352 2.751338 0.033616 -0.016452 -224524.000000 0 0 1
6.630265 -8.009858 -24.280731 26.413484 -0.879354 2.736981 0.032728 -0.016032 -36272.700000 0 0 1
5.942865 -9.161858 -23.820531 26.204484 -0.995369 2.711735 0.032658 -0.014759 72893.900000 0 0 1
5.983365 -10.157458 -24.802031 27.461161 -1.038459 2.697888 0.035859 -0.002797 -64760.100000 0 0 1
5.120465 -11.387058 -24.500331 27.498190 -1.148213 2.670295 0.043396 -0.008668 -126188.000000 0 0 1
5.733865 -12.203358 -23.557531 27.143257 -1.131550 2.621748 0.035025 -0.011656 -375187.000000 0 0 1
5.007865 -13.343658 -23.275731 27.292702 -1.211763 2.592156 0.041287 -0.011186 -77475.600000 0 0 1
5.863465 -14.383658 -22.422931 27.277420 -1.183715 2.535768 0.043705 -0.016726 483371.000000 0 0 1
6.965265 -15.161258 -22.931231 28.358773 -1.140143 2.512585 0.049943 -0.017528 260205.000000 0 0 1
8.129665 -14.412158 -23.194331 28.491731 -1.057205 2.521926 0.060910 -0.017598 466183.000000 0 0 1
8.933165 -13.838658 -21.916431 27.416051 -0.997575 2.497095 0.053326 -0.011604 -258773.000000 0 0 1
9.450465 -14.733858 -20.982131 27.324854 -1.000482 2.446317 0.060295 -0.009099 349140.000000 0 0 1
8.436865 -15.532658 -20.352331 26.956660 -1.073212 2.426453 0.059491 -0.013104 -31994.900000 0 0 1
8.660365 -15.879658 -18.880931 26.146797 -1.071511 2.377648 0.058192 -0.012327 -150888.000000 0 0 1
9.691165 -16.823458 -18.829431 27.046162 -1.048173 2.340881 0.064853 -0.011190 -638251.000000 0 0 1
10.127565 -17.198858 -17.541131 26.571781 -1.038615 2.291803 0.061007 -0.008005 -409250.000000 0 0 1
9.159465 -17.971758 -16.609131 26.129353 -1.099452 2.259647 0.043884 -0.014579 -204587.000000 0 0 1
8.819665 -19.305158 -17.007031 27.197697 -1.142256 2.246327 0.058847 -0.019524 469526.000000 0 0 1
8.035665 -19.423958 -18.215931 27.815143 -1.178537 2.284837 0.056242 -0.018843 1170960.000000 0 0 1
6.466065 -19.188958 -18.256931 27.264292 -1.245778 2.304504 0.054743 -0.016936 1253350.000000 0 0 1
6.135065 -17.890658 -17.746331 25.935437 -1.240443 2.324371 0.046763 -0.016646 -406708.000000 0 0 1
4.755965 -17.635258 -17.858231 25.544822 -1.307378 2.344926 0.034999 -0.016692 -606.822000 0 0 1
4.405065 -16.141358 -17.615731 24.295308 -1.304378 2.381928 0.016367 -0.007228 28658.400000 0 1 0
4.509165 -15.863258 -16.232131 23.139957 -1.293849 2.348263 -0.002722 -0.004580 126306.000000 0 1 0
4.560965 -14.439858 -16.003031 22.031997 -1.264854 2.383799 0.000872 0.000606 -55570.900000 0 1 0
10.603865 30.452142 -18.029531 36.943726 1.235713 2.080624 0.043770 -0.015361 -381353.000000 0 0 1
9.698465 29.871842 -18.914331 36.662503 1.256864 2.112859 0.064017 -0.015479 236524.000000 0 0 1
8.710965 29.056242 -18.221831 35.386173 1.279526 2.111736 0.065680 -0.017913 947126.000000 0 0 1
7.725965 28.322142 -19.187131 35.071075 1.304487 2.149684 0.064837 -0.016061 809444.000000 0 0 1
6.713565 29.241242 -19.646631 35.862408 1.345115 2.150569 0.075085 -0.029013 24038.100000 0 0 1
5.960265 28.713942 -20.700631 35.896119 1.366129 2.185457 0.056695 -0.025569 325563.000000 0 0 1
4.916765 29.689442 -21.301731 36.870060 1.406679 2.186767 0.058509 -0.026796 251917.000000 0 0 1
3.810365 30.087242 -20.528931 36.622371 1.444823 2.165855 0.050003 -0.022802 -208472.000000 0 0 1
2.915965 30.844742 -21.305231 37.600716 1.476540 2.173192 0.041686 -0.025593 -622251.000000 0 0 1
1.445365 30.634342 -20.897531 37.111438 1.523650 2.168931 0.033084 -0.013419 -209247.000000 0 0 1
0.938665 29.324442 -21.101131 36.139476 1.538798 2.194297 0.039220 -0.024874 -142310.000000 0 0 1
0.543165 29.055642 -22.379431 36.679208 1.552105 2.227033 0.063049 -0.036372 -277183.000000 0 0 1
-0.119135 27.629542 -22.619131 35.707575 -1.566484 2.256806 0.060699 -0.029547 561071.000000 0 0 1
-1.214535 27.273142 -21.802831 34.937986 -1.526293 2.244703 0.057652 -0.030988 302689.000000 0 0 1
-1.835935 26.034442 -22.177631 34.249236 -1.500393 2.275144 0.073183 -0.047432 203345.000000 0 0 1
-3.015335 25.532042 -21.297531 33.385061 -1.453241 2.262611 0.048912 -0.036926 -164381.000000 0 0 1
-4.057735 26.484842 -21.388631 34.283898 -1.418769 2.244479 0.055077 -0.035226 -420752.000000 0 0 1
-5.074435 26.029042 -20.536231 33.540986 -1.378259 2.229728 0.051448 -0.035699 -736000.000000 0 0 1
-6.123035 27.085742 -20.204631 34.341755 -1.348472 2.199801 0.073475 -0.044216 -103292.000000 0 0 1
-7.201335 26.416042 -19.564331 33.651591 -1.304651 2.191219 0.074541 -0.034002 -710476.000000 0 0 1
-8.060135 27.326442 -18.959631 34.222330 -1.283972 2.157974 0.075667 -0.041198 323215.000000 0 0 1
-9.357735 26.659942 -18.423031 33.730221 -1.233228 2.148603 0.085239 -0.035663 551341.000000 0 0 1
-8.978635 25.770842 -17.397231 32.363805 -1.235545 2.138328 0.085092 -0.039815 -5052.780000 0 0 1
-10.159135 25.109942 -16.971831 31.964985 -1.186343 2.130518 0.060029 -0.041742 152746.000000 0 0 1
-10.169535 24.365942 -15.617031 30.675890 -1.175409 2.104933 0.067075 -0.033417 -84720.200000 0 0 1
-9.399635 23.178242 -15.576631 29.465497 -1.185526 2.127794 0.070462 -0.031613 -150315.000000 0 0 1
-9.741035 22.446142 -14.395831 28.389382 -1.161350 2.102596 0.068818 -0.022014 -23608.300000 0 0 1
-9.355035 20.967042 -14.208231 27.000137 -1.151125 2.124955 0.082340 -0.016775 518349.000000 0 0 1
-10.215035 19.980642 -14.854731 26.911634 -1.098192 2.155535 0.062825 -0.014956 165401.000000 0 0 1
-10.530035 20.036642 -16.240731 27.858751 -1.086927 2.193172 0.074659 -0.013533 -200699.000000 0 0 1
-9.340935 19.905542 -17.201531 27.917313 -1.132039 2.234654 0.058298 -0.016384 19722.900000 0 0 1
-8.613335 18.673442 -17.071331 26.726716 -1.138617 2.263651 0.047597 -0.015001 -277682.000000 0 0 1
-7.607535 18.561942 -18.025931 26.969510 -1.181831 2.302828 0.053581 -0.012175 -46286.300000 0 0 1
-6.887635 17.193842 -18.012531 25.836389 -1.189784 2.342248 0.057288 -0.014566 223960.000000 0 0 1
-7.752135 16.171942 -18.478931 25.750694 -1.123799 2.371159 0.036858 -0.017343 -279871.000000 0 0 1
-7.528135 15.661542 -19.770031 26.321301 -1.122727 2.420529 0.041153 -0.017209 249093.000000 0 0 1
-6.373035 14.619642 -19.862431 25.472842 -1.159710 2.465062 0.036225 -0.012718 52198.500000 0 0 1
-6.633535 13.487342 -19.002831 24.228491 -1.113703 2.472392 0.020345 -0.011513 -396019.000000 0 1 0
-5.504935 12.714742 -18.720031 23.289666 -1.162205 2.504437 0.018814 -0.009671 -364218.000000 0 1 0
-4.683735 13.190142 -17.545631 22.444741 -1.229591 2.468225 0.031809 -0.006011 -399431.000000 0 1 0
-4.050135 14.419942 -17.705131 23.190731 -1.296981 2.439446 0.036255 -0.013438 -793886.000000 0 1 0
-3.451435 14.785042 -16.510031 22.429690 -1.341462 2.398056 0.031435 -0.007363 333168.000000 0 1 0
-2.573735 16.082242 -16.642731 23.286115 -1.412106 2.367000 0.044979 -0.009600 866052.000000 0 1 0
-3.375535 17.256842 -16.834631 24.343329 -1.377630 2.334429 0.053893 -0.009034 86772.700000 0 1 0
-2.490335 18.357842 -16.880031 25.062873 -1.435964 2.309740 0.059820 -0.015242 92754.000000 0 0 1
-2.963235 19.756842 -17.344131 26.456237 -1.421921 2.285744 0.064894 -0.020634 -77362.400000 0 0 1
-3.130035 19.711342 -18.779231 27.404264 -1.413318 2.325766 0.086032 -0.020000 -70225.900000 0 0 1
-3.752835 20.889142 -19.349931 28.720374 -1.393038 2.310048 0.086459 -0.014165 274188.000000 0 0 1
-2.825835 22.105842 -19.670231 29.724932 -1.443654 2.293936 0.063150 -0.019732 -1104460.000000 0 0 1
-1.977735 21.743442 -20.712531 30.094811 -1.480088 2.329860 0.081273 -0.021488 104493.000000 0 0 1
-0.779635 22.529442 -20.774831 30.655786 -1.536205 2.315400 0.067268 -0.021395 1207320.000000 0 0 1
0.364565 22.184742 -19.760431 29.711451 1.554365 2.298395 0.059186 -0.021618 -179419.000000 0 0 1
-0.089435 22.301042 -18.434231 28.933810 -1.566786 2.261549 0.050636 -0.016181 -475864.000000 0 0 1
0.974565 21.995242 -17.545731 28.153031 1.526517 2.243659 0.039165 -0.014333 66463.000000 0 0 1
0.547765 21.990742 -16.047731 27.229074 1.545893 2.201063 0.037417 -0.013594 291723.000000 0 0 1
-0.412935 21.023742 -15.607131 26.186844 -1.551157 2.209296 0.038776 -0.008588 108088.000000 0 0 1
-0.338735 21.010042 -14.211331 25.367273 -1.554675 2.165451 0.038140 -0.008562 218156.000000 0 0 1
-1.365835 20.032242 -13.651231 24.279876 -1.502720 2.167894 0.033695 -0.003049 -88456.300000 0 1 0
-0.840635 18.732642 -13.719831 23.234722 -1.525951 2.202460 0.025379 -0.002776 302443.000000 0 1 0
-1.689535 17.758442 -13.084531 22.122879 -1.475942 2.203650 0.024080 -0.001077 253387.000000 0 1 0
-1.127435 16.369342 -13.210231 21.065059 -1.502030 2.248641 0.011114 0.007110 -709464.000000 0 1 0
-0.053235 16.168842 -12.330131 20.333874 -1.567504 2.222301 0.010717 0.004677 -103285.000000 0 1 0
0.425565 14.872342 -12.156131 19.212996 1.542190 2.255836 0.019350 0.003296 202912.000000 0 1 0
0.991665 14.145142 -13.435031 19.533779 1.500804 2.329229 0.000494 0.002977 -293313.000000 0 1 0
0.052965 13.770542 -14.425931 19.943373 1.566950 2.379430 0.006221 -0.012216 -54353.300000 0 1 0
0.765265 12.981742 -15.364731 20.129238 1.511915 2.439209 0.006307 -0.011918 -235725.000000 0 1 0
0.087965 12.545142 -16.682731 20.873473 1.563785 2.496811 0.021453 -0.015377 -188982.000000 0 1 0
-0.034335 13.751542 -17.411831 22.187338 -1.568300 2.473112 0.024952 -0.021272 4915.810000 0 1 0
-0.329435 13.477142 -18.787431 23.123786 -1.546357 2.519176 0.039325 -0.022202 -177481.000000 0 1 0
-0.979935 14.621642 -19.566231 24.445656 -1.503877 2.498754 0.053247 -0.016185 404473.000000 0 1 0
-0.081035 15.768142 -19.592031 25.149325 -1.565657 2.463911 0.042738 -0.025924 571591.000000 0 0 1
-0.737135 16.983142 -19.946931 26.207834 -1.527420 2.435812 0.075039 -0.026091 -121705.000000 0 0 1
0.284365 18.093342 -20.173831 27.100431 1.555081 2.410447 0.079171 -0.028199 -54765.100000 0 0 1
0.856265 18.033842 -21.440331 28.029279 1.523351 2.441723 0.086065 -0.032758 -243186.000000 0 0 1
1.878865 18.993742 -21.563831 28.797417 1.472197 2.417063 0.090887 -0.033602 -123722.000000 0 0 1
2.423065 19.093142 -22.991231 29.983596 1.444564 2.444627 0.101293 -0.031677 -296058.000000 0 0 1
3.170065 18.016042 -23.415731 29.714030 1.396621 2.478409 0.074628 -0.027433 -421472.000000 0 0 1
3.500265 18.012142 -24.786531 30.839281 1.378860 2.504338 0.075679 -0.035748 411854.000000 0 0 1
4.432765 16.775342 -25.044831 30.468100 1.312458 2.535714 0.054906 -0.022396 640980.000000 0 0 1
5.731565 16.844142 -24.436131 30.227479 1.242815 2.512239 0.041566 -0.015838 1229380.000000 0 0 1
6.661565 15.796142 -24.836331 30.178435 1.171706 2.537438 0.034104 -0.015801 793955.000000 0 0 1
7.156565 15.768242 -26.324671 31.509399 1.144738 2.559756 0.033611 -0.020924 -1158790.000000 0 0 1
8.150365 16.758842 -26.406371 32.320020 1.118143 2.527035 0.024207 -0.018604 -118401.000000 0 0 1
8.586265 17.144942 -27.716371 33.702674 1.106505 2.536376 0.037597 -0.032549 488708.000000 0 0 1
9.347865 16.045142 -28.559781 34.065969 1.043271 2.565077 0.029984 -0.031588 -129001.000000 0 0 1
10.606065 15.595242 -28.107201 33.848411 0.973563 2.550594 0.038475 -0.027381 -27085.000000 0 0 1
10.885965 14.252142 -28.430311 33.614140 0.918514 2.578830 0.033253 -0.022899 -162717.000000 0 0 1
10.370065 13.209042 -27.427241 32.160078 0.905224 2.592187 0.031920 -0.018613 37238.600000 0 0 1
8.990465 12.929842 -27.557551 31.740005 0.963214 2.622415 0.044238 -0.031049 -210138.000000 0 0 1
8.525865 12.177342 -26.432881 30.326148 0.959975 2.629294 0.043033 -0.023063 900491.000000 0 0 1
7.016265 11.781642 -26.528981 29.863388 1.033674 2.664524 0.038952 -0.030677 1172280.000000 0 0 1
6.026065 12.807442 -26.651371 30.176806 1.131016 2.653383 0.045824 -0.033904 459497.000000 0 0 1
4.722265 12.242742 -26.575761 29.638752 1.202661 2.682954 0.066761 -0.036135 214320.000000 0 0 1
3.637165 13.155642 -27.135981 30.375341 1.301062 2.675555 0.083795 -0.036588 -502416.000000 0 0 1
3.492065 13.081142 -28.549381 31.597120 1.309926 2.698765 0.092843 -0.048031 471123.000000 0 0 1
4.056865 14.279442 -29.161471 32.722348 1.293985 2.670734 0.096523 -0.058375 237137.000000 0 0 1
4.162465 14.113742 -30.708741 34.052175 1.284004 2.694746 0.112687 -0.058118 -784030.000000 0 0 1
5.163665 13.245542 -31.045641 34.145859 1.199078 2.712171 0.108940 -0.054174 -843377.000000 0 0 1
5.365965 13.359442 -32.456191 35.505952 1.188859 2.724093 0.103471 -0.052010 -1239580.000000 0 0 1
6.494865 12.457342 -32.930741 35.802268 1.090200 2.738354 0.096011 -0.046190 1604610.000000 0 0 1
7.877965 12.902742 -32.641381 35.972251 1.022645 2.707863 0.095432 -0.039782 2027480.000000 0 0 1
8.220065 12.952942 -31.249531 34.812087 1.005316 2.685234 0.077886 -0.036316 -1040160.000000 0 0 1
8.129465 11.706142 -30.337821 33.518732 0.963797 2.702412 0.084587 -0.038928 343146.000000 0 0 1
9.252365 10.831842 -30.546191 33.704671 0.863879 2.705217 0.063597 -0.031388 387028.000000 0 0 1
9.186965 9.767142 -29.660271 32.550408 0.815998 2.717009 0.062590 -0.032692 395239.000000 0 0 1
10.153465 8.587242 -30.019381 32.832862 0.702019 2.724595 0.043632 -0.030602 656909.000000 0 0 1
11.442765 8.622642 -29.424761 32.727716 0.645766 2.688455 0.041469 -0.029661 75418.600000 0 0 1
12.029565 7.340542 -29.497911 32.691295 0.547892 2.695911 0.026117 -0.021059 -83465.100000 0 0 1
13.311065 7.319842 -28.597471 32.381783 0.502772 2.653299 0.036055 -0.016502 609028.000000 0 0 1
13.949765 6.059542 -28.325371 32.150282 0.409791 2.648832 0.046798 -0.021241 857120.000000 0 0 1
14.888165 5.671242 -29.357421 33.401776 0.363953 2.644385 0.033931 -0.019739 -12522.600000 0 0 1
15.756465 4.427242 -29.016661 33.314160 0.273917 2.628032 0.055226 -0.026170 487100.000000 0 0 1
16.617065 4.722242 -27.898871 32.814226 0.276881 2.587174 0.024964 -0.021818 1102650.000000 0 0 1
17.581065 3.702042 -27.545991 32.887393 0.207538 2.563644 0.030094 -0.011322 360357.000000 0 0 1
18.261665 4.014442 -26.228401 32.210762 0.216387 2.522275 0.017808 -0.003851 883.565000 0 0 1
19.179565 5.107542 -26.287631 32.939069 0.260261 2.494879 0.043298 -0.014710 346236.000000 0 0 1
19.684665 5.431742 -25.027231 32.300962 0.269238 2.457217 0.049993 -0.012206 -188132.000000 0 0 1
20.721965 6.565342 -25.073431 33.184040 0.306825 2.427346 0.042119 -0.006133 -255769.000000 0 0 1
20.169865 7.828842 -25.518701 33.456215 0.370245 2.438350 0.052515 -0.007824 785553.000000 0 0 1
21.043565 8.613942 -26.356881 34.809723 0.388531 2.429766 0.061491 -0.011897 25997.900000 0 0 1
21.421065 8.011942 -27.774781 35.979045 0.357913 2.452732 0.055461 -0.008658 377305.000000 0 0 1
20.309965 8.179042 -28.640681 36.051075 0.382841 2.488893 0.060074 -0.010618 1583500.000000 0 0 1
19.188965 7.244142 -28.450001 35.072732 0.360975 2.516949 0.053922 -0.007193 898322.000000 0 0 1
17.858365 7.763642 -29.053291 34.975550 0.410087 2.551114 0.049853 -0.008091 -125028.000000 0 0 1
17.970165 7.766942 -30.464691 36.212562 0.407964 2.570432 0.045119 -0.012670 89426.900000 0 0 1
17.028265 8.679842 -30.948091 36.374247 0.471402 2.588348 0.017002 -0.010575 -574268.000000 0 0 1
16.571365 8.345342 -32.442191 37.373127 0.466524 2.622082 0.007161 -0.002516 -138345.000000 0 0 1
15.628165 7.287942 -32.421491 36.722020 0.436354 2.652777 0.022668 -0.010028 199916.000000 0 0 1
14.330265 7.755942 -32.746771 36.576798 0.496084 2.679874 0.009794 -0.002257 -276933.000000 0 0 1
13.378665 6.676642 -33.213331 36.423778 0.462889 2.718585 0.008558 -0.008148 -252413.000000 0 0 1
13.005165 5.707642 -32.184881 35.179228 0.413564 2.726015 0.025486 -0.014288 255451.000000 0 0 1
12.007365 4.827042 -32.656121 35.126904 0.382235 2.764289 0.021019 -0.016242 103344.000000 0 0 1
11.611365 3.739642 -31.591361 33.864773 0.311577 2.773091 0.030480 -0.023988 61303.700000 0 0 1
12.582665 2.718242 -31.358431 33.897839 0.212761 2.752059 0.048908 -0.035339 359156.000000 0 0 1
12.158165 1.671542 -30.489051 32.866355 0.136627 2.758914 0.034004 -0.029327 -119889.000000 0 0 1
11.478465 0.456442 -31.129741 33.181686 0.039744 2.788074 0.031226 -0.021794 395582.000000 0 0 1
12.407765 -0.483458 -31.716971 34.061013 -0.038944 2.768436 0.031537 -0.019782 484257.000000 0 0 1
13.196065 -1.211958 -30.785571 33.516509 -0.091585 2.735116 0.031202 -0.024324 222863.000000 0 0 1
13.915865 -2.362758 -31.454721 34.476563 -0.168185 2.719786 0.038385 -0.025034 117615.000000 0 0 1
13.022365 -3.444258 -31.548411 34.303748 -0.258567 2.738057 0.042461 -0.023112 124217.000000 0 0 1
13.645065 -4.457458 -32.282251 35.329881 -0.315743 2.723187 0.065647 -0.025045 291878.000000 0 0 1
12.770965 -5.752558 -32.547331 35.433293 -0.423220 2.735199 0.055450 -0.014236 142281.000000 0 0 1
12.658465 -6.477158 -31.311551 34.389003 -0.472953 2.715314 0.066169 -0.016893 160508.000000 0 0 1
12.348465 -7.870558 -31.468411 34.708661 -0.567446 2.706057 0.085845 -0.016436 -36444.300000 0 0 1
12.319665 -8.462758 -30.067011 33.577039 -0.601901 2.680268 0.071869 -0.014365 1271440.000000 0 0 1
13.643865 -8.523758 -29.449171 33.556865 -0.558406 2.641608 0.067973 -0.007377 1431390.000000 0 0 1
13.624365 -9.224358 -28.278111 32.716413 -0.595156 2.614633 0.072644 -0.010464 -3445.390000 0 0 1
13.582165 -10.825458 -28.364311 33.259583 -0.672930 2.592151 0.073612 -0.012312 284937.000000 0 0 1
12.279865 -11.375958 -28.535521 33.082978 -0.747206 2.611072 0.053746 -0.012726 379658.000000 0 0 1
12.361065 -12.812958 -28.649751 33.730936 -0.803347 2.585570 0.046681 -0.020059 -188610.000000 0 0 1
-10.174135 -3.070558 -17.679031 20.627397 0.293108 2.600343 0.019173 -0.008097 -43952.100000 0 1 0
-10.800135 -2.744858 -18.871731 21.916190 0.248881 2.608199 0.016702 -0.012312 37380.600000 0 1 0
-11.755035 -3.770958 -19.167631 22.799102 0.310424 2.569405 0.018027 -0.012187 50513.800000 0 1 0
-12.673035 -3.328558 -20.358931 24.210972 0.256848 2.569735 0.025784 -0.020364 -238807.000000 0 1 0
-13.421835 -2.148258 -20.062031 24.233154 0.158711 2.546106 0.015465 -0.017327 -97055.200000 0 1 0
-14.039635 -1.806858 -21.278231 25.556588 0.127993 2.554569 0.013198 -0.016092 -60196.400000 0 0 1
-14.927235 -0.548658 -21.082331 25.837725 0.036739 2.525169 0.019864 -0.011827 194397.000000 0 0 1
-14.262835 0.708042 -21.295331 25.640221 -0.049602 2.550880 0.023509 -0.020016 210752.000000 0 0 1
-15.134335 1.781942 -20.971031 25.923109 -0.117202 2.513195 0.022836 -0.016319 -87541.800000 0 0 1
-14.768835 3.089242 -21.599631 26.347789 -0.206200 2.531839 0.038792 -0.021169 -232069.000000 0 0 1
-13.613635 3.732742 -21.120331 25.403402 -0.267614 2.552415 0.046782 -0.020425 36940.800000 0 0 1
-13.388035 4.934342 -21.832631 26.081622 -0.353116 2.562736 0.052329 -0.025467 783063.000000 0 0 1
-12.014535 5.546242 -21.336931 25.107260 -0.432481 2.586461 0.035140 -0.017848 625792.000000 0 0 1
-12.166635 6.048642 -20.047731 24.218270 -0.461365 2.545960 0.040683 -0.019117 778214.000000 0 1 0
-10.903735 6.277742 -19.420331 23.139809 -0.522392 2.566718 0.020931 -0.009645 178248.000000 0 1 0
-10.962235 6.962342 -18.018231 22.210391 -0.565844 2.517087 0.016535 -0.008462 -267438.000000 0 1 0
-11.524235 8.239642 -18.036431 22.934963 -0.620712 2.475782 0.014343 -0.008369 -236842.000000 0 1 0
-12.788435 8.207342 -17.428431 23.122603 -0.570574 2.424531 0.051841 0.000386 -606886.000000 0 1 0
-13.374035 9.630142 -17.400031 23.965925 -0.624064 2.383330 0.058319 -0.001413 -491680.000000 0 1 0
-12.927935 10.503442 -16.408531 23.381482 -0.682293 2.348682 0.041168 0.000996 -31271.500000 0 1 0
-13.501735 11.748242 -16.605231 24.414171 -0.716064 2.318760 0.044952 0.000413 -151050.000000 0 1 0
-12.920635 12.971942 -15.756131 24.155119 -0.787380 2.281397 0.039051 0.003012 -152374.000000 0 1 0
-13.315535 13.058542 -14.415331 23.571822 -0.775654 2.228814 0.043216 0.006953 74633.800000 0 1 0
-12.753635 14.221242 -13.876631 23.610587 -0.839751 2.199046 0.042555 -0.001836 -732713.000000 0 1 0
-13.152035 14.376242 -12.378131 23.083988 -0.829840 2.136751 0.035335 -0.002563 400565.000000 0 1 0
-14.460035 14.758342 -11.993431 23.890242 -0.795607 2.096732 0.037510 -0.002309 334674.000000 0 1 0
-15.469835 13.812242 -12.345431 24.135109 -0.728851 2.107741 0.040066 0.001346 -2068790.000000 0 1 0
-16.827535 14.289542 -12.025131 25.138829 -0.704016 2.069570 0.024957 0.010942 -1750460.000000 0 0 1
-17.816535 13.397242 -12.463531 25.539276 -0.644751 2.080610 0.022370 0.005512 -152366.000000 0 0 1
-19.086735 13.851442 -12.037031 26.477463 -0.627774 2.042735 0.044015 -0.002092 -489791.000000 0 0 1
-20.278135 13.277242 -12.759231 27.391347 -0.579712 2.055349 0.038167 -0.004436 -693087.000000 0 0 1
-20.494035 11.909642 -12.474431 26.785378 -0.526427 2.055242 0.051138 -0.005532 696682.000000 0 0 1
-21.662435 11.381342 -13.121331 27.766263 -0.483757 2.062994 0.062789 -0.006399 310868.000000 0 0 1
-22.220935 10.158442 -12.376331 27.388638 -0.428789 2.039666 0.059361 -0.009153 94208.000000 0 0 1
-21.373535 9.012842 -12.501831 26.350619 -0.399057 2.065126 0.073319 -0.016526 402848.000000 0 0 1
-21.690035 8.083242 -11.524831 25.857652 -0.356727 2.032756 0.064489 -0.010038 -372950.000000 0 0 1
-20.737935 6.915642 -11.610131 24.752438 -0.321881 2.059011 0.078026 -0.012568 -440089.000000 0 1 0
-20.739735 6.084342 -12.779631 25.109257 -0.285360 2.104774 0.094836 -0.017910 -269884.000000 0 0 1
-19.664735 5.196742 -12.807731 24.036346 -0.258361 2.132760 0.091790 -0.021991 -390864.000000 0 1 0
-19.742435 4.096542 -13.852031 24.462710 -0.204596 2.172746 0.096898 -0.035256 -395724.000000 0 1 0
-20.572435 3.014942 -13.524631 24.803843 -0.145517 2.147500 0.083928 -0.038748 -47261.000000 0 1 0
-20.298435 1.882442 -14.237131 24.864954 -0.092474 2.180443 0.068145 -0.045216 446502.000000 0 1 0
-21.337335 0.700642 -14.007931 25.534191 -0.032825 2.151479 0.083364 -0.034921 671142.000000 0 0 1
-22.598235 0.706242 -14.629131 26.929361 -0.031242 2.145089 0.061400 -0.030403 93496.000000 0 0 1
-23.076935 -0.589058 -14.861231 27.454473 0.025520 2.142784 0.063173 -0.039551 -898500.000000 0 0 1
-24.477635 -0.592058 -15.412731 28.931945 0.024183 2.132612 0.070293 -0.034794 -391195.000000 0 0 1
-25.548245 -0.126558 -14.585831 29.418962 0.004954 2.089549 0.090022 -0.044094 112781.000000 0 0 1
-26.766705 -0.228558 -15.266331 30.815087 0.008539 2.089112 0.082132 -0.039701 -1057360.000000 0 0 1
-27.952755 0.234242 -14.490131 31.486113 -0.008380 2.049025 0.087544 -0.034710 -992083.000000 0 0 1
-28.296425 -0.642658 -13.366631 31.301238 0.022708 2.012004 0.094729 -0.039876 242792.000000 0 0 1
-29.459745 -0.168458 -12.711631 32.085675 0.005718 1.978147 0.104812 -0.039166 261577.000000 0 0 1
-29.657125 -0.734058 -11.271131 31.735190 0.024746 1.933884 0.107847 -0.047929 -151398.000000 0 0 1
-29.907555 -2.141558 -11.115031 31.977993 0.071484 1.925789 0.117902 -0.046772 -208349.000000 0 0 1
-28.904315 -2.996458 -11.521531 31.259940 0.103299 1.948268 0.113590 -0.047276 -718892.000000 0 0 1
-29.042245 -4.391458 -10.860231 31.315835 0.150072 1.924950 0.113302 -0.043072 -211522.000000 0 0 1
-30.230695 -5.025958 -11.308631 32.665583 0.164747 1.924308 0.112572 -0.042866 435413.000000 0 0 1
-30.396075 -6.364658 -10.789831 32.876294 0.206409 1.905188 0.108029 -0.039540 -26733.600000 0 0 1
-29.594765 -7.485858 -11.513531 32.625903 0.247749 1.931460 0.094068 -0.034951 158961.000000 0 0 1
-28.188225 -7.411058 -11.368431 31.284837 0.257095 1.942695 0.081550 -0.033140 -13504.600000 0 0 1
-27.560465 -8.283658 -12.259031 31.280698 0.291973 1.973497 0.079042 -0.032102 -54530.000000 0 0 1
-26.037355 -8.398058 -12.009531 29.878087 0.312004 1.984443 0.071749 -0.036134 -482703.000000 0 0 1
-25.309185 -7.238358 -12.239531 29.030239 0.278561 2.006020 0.056290 -0.030634 654213.000000 0 0 1
-23.942335 -7.280958 -11.827231 27.679074 0.295218 2.012299 0.061155 -0.040825 398250.000000 0 0 1
-23.780135 -7.109658 -10.254831 26.855234 0.290516 1.962600 0.067194 -0.040378 -653530.000000 0 0 1
-24.127235 -5.876558 -9.691231 26.656657 0.238913 1.942880 0.067105 -0.032086 1415060.000000 0 0 1
-25.545255 -5.651058 -9.536331 27.846654 0.217711 1.920329 0.079545 -0.034448 581689.000000 0 0 1
-25.813685 -4.303358 -8.833831 27.620677 0.165189 1.896343 0.085523 -0.039195 -464207.000000 0 0 1
-25.690325 -4.290758 -7.428531 27.084802 0.165491 1.848626 0.082725 -0.036545 481771.000000 0 0 1
-25.951785 -3.020758 -6.856931 27.011805 0.115877 1.827454 0.099984 -0.037117 -31095.500000 0 0 1
-25.738545 -3.053158 -5.327131 26.460778 0.118070 1.773503 0.094329 -0.033134 680886.000000 0 0 1
-24.353935 -2.976358 -4.956131 25.030703 0.121610 1.770116 0.065380 -0.026709 930138.000000 0 0 1
-24.161635 -2.646558 -3.610731 24.572876 0.109101 1.718270 0.047446 -0.019603 -1456000.000000 0 1 0
-22.855135 -3.132258 -3.125131 23.279491 0.136200 1.705447 0.040914 -0.013904 -1456910.000000 0 1 0
-22.716235 -4.558758 -3.124831 23.378926 0.198052 1.704858 0.052218 -0.014478 -22427.100000 0 1 0
-21.430435 -4.883058 -2.695131 22.144334 0.224031 1.692806 0.038305 -0.011785 -786712.000000 0 1 0
-21.167635 -6.389858 -2.730031 22.278961 0.293171 1.693644 0.035317 -0.010078 -264052.000000 0 1 0
-21.657035 -7.047258 -1.602231 22.831079 0.314596 1.641032 0.040531 -0.007105 910108.000000 0 1 0
-22.481935 -8.216858 -1.830931 24.006384 0.350405 1.647139 0.049798 -0.012130 368316.000000 0 1 0
-22.798935 -9.043158 -0.528131 24.532612 0.377614 1.592326 0.053805 -0.017860 -199953.000000 0 1 0
-21.660435 -9.598158 0.077669 23.691878 0.417117 1.567518 0.029448 -0.002528 106122.000000 0 1 0
-22.015335 -10.623658 0.967669 24.463717 0.449596 1.531231 0.014732 0.006557 -271655.000000 0 1 0
-20.821835 -11.159858 1.765469 23.689831 0.492007 1.496203 0.024660 0.000259 325611.000000 0 1 0
-20.085635 -12.163458 0.983969 23.502141 0.544512 1.528917 0.023004 0.005961 211018.000000 0 1 0
-19.005835 -12.662658 1.711669 22.901844 0.587715 1.495987 0.004610 0.002612 -414125.000000 0 1 0
-18.269735 -13.730658 0.871969 22.870822 0.644494 1.532661 0.005794 0.003941 -294634.000000 0 1 0
-19.123035 -14.853358 0.719269 24.224575 0.660387 1.541100 0.023992 0.003611 463485.000000 0 1 0
-18.501435 -16.012258 0.178369 24.468905 0.713401 1.563507 0.019089 -0.001525 -496220.000000 0 1 0
-17.413235 -16.733858 0.961869 24.169566 0.765505 1.530989 0.029748 -0.001934 -150741.000000 0 1 0
-16.170035 -16.021458 0.877369 22.779967 0.780783 1.532272 0.027826 -0.001145 -13396.600000 0 1 0
-15.119435 -16.555658 1.617369 22.478946 0.830709 1.498784 0.034398 -0.010949 -195149.000000 0 1 0
-15.182835 -16.493158 3.149869 22.637677 0.826741 1.431201 0.047731 -0.014592 -696183.000000 0 1 0
-14.728835 -15.277058 3.630669 21.529255 0.803667 1.401348 0.021874 -0.014038 -364221.000000 0 1 0
-13.902235 -15.403258 4.772869 21.291143 0.836573 1.344703 -0.000562 -0.005388 -296784.000000 0 1 0
-14.430935 -15.809858 6.145769 22.270473 0.830965 1.291208 0.048015 -0.009667 -1055170.000000 0 1 0
-15.148235 -14.781658 6.849169 22.245843 0.773151 1.257827 0.037565 -0.006433 294431.000000 0 1 0
-15.534235 -15.150358 8.189369 23.192920 0.772888 1.209916 0.046137 -0.008965 124150.000000 0 1 0
-16.623935 -16.269258 8.339469 24.710133 0.774616 1.226545 0.045046 -0.006923 -276228.000000 0 1 0
-16.220935 -17.550358 7.931069 25.180064 0.824743 1.250367 0.043449 -0.001693 -211411.000000 0 0 1
-16.843435 -18.678758 8.561169 26.568607 0.837019 1.242713 0.038401 -0.004215 -48299.800000 0 0 1
-16.695735 -18.866758 10.068469 27.130724 0.846371 1.190593 0.041586 -0.014345 348458.000000 0 0 1
-15.352835 -19.110258 10.456969 26.650698 0.893997 1.167588 0.041720 -0.011816 138123.000000 0 0 1
-15.242035 -19.373958 11.845169 27.349184 0.904201 1.122857 0.048363 -0.017187 479175.000000 0 0 1
-13.945735 -20.227058 12.141369 27.404931 0.967180 1.111814 0.044281 -0.016368 626648.000000 0 0 1
-12.824435 -19.349358 12.118569 26.186322 0.985487 1.089665 0.041666 -0.020595 -1125450.000000 0 0 1
-11.702535 -20.145958 12.250169 26.322530 1.044549 1.086724 0.023950 -0.017676 -802613.000000 0 0 1
-10.417235 -19.428658 12.646269 25.414949 1.078626 1.049976 0.030321 -0.015131 -62860.800000 0 0 1
-9.844635 -18.641458 11.605769 24.064801 1.084919 1.067550 0.023303 -0.016390 -626509.000000 0 1 0
-8.681835 -18.040358 12.114869 23.400829 1.122265 1.026623 0.021286 -0.007799 -61373.000000 0 1 0
-7.881035 -17.333058 11.010169 21.994759 1.144055 1.046526 0.005000 -0.009325 -475314.000000 0 1 0
-7.008235 -18.118358 10.308169 21.992012 1.201718 1.082951 0.011119 -0.006045 -568844.000000 0 1 0
-6.227935 -17.411258 9.370669 20.730376 1.227282 1.101761 0.007797 -0.002151 526762.000000 0 1 0
-5.115035 -18.193258 8.580969 20.755511 1.296722 1.144578 0.005246 -0.006998 29197.300000 0 1 0
-3.935835 -18.438858 9.251169 21.001581 1.360499 1.114642 0.025173 0.002029 -1094850.000000 0 1 0
-2.940135 -18.932258 8.402069 20.920553 1.416729 1.157514 0.032384 -0.008059 571536.000000 0 1 0
-1.556435 -19.194858 9.068169 21.286069 1.489887 1.130714 0.028250 -0.008313 358114.000000 0 1 0
-0.614835 -19.922458 8.320969 21.599094 1.539945 1.175322 0.036409 0.005563 -938762.000000 0 1 0
0.534365 -19.973558 9.092969 21.952463 -1.544049 1.143720 0.043283 -0.003813 -111394.000000 0 1 0
1.857365 -20.363158 8.345569 22.085210 -1.479836 1.183290 0.050489 -0.019768 717492.000000 0 1 0
2.088865 -21.697858 7.917469 23.191522 -1.474822 1.222396 0.046476 -0.012137 -333325.000000 0 1 0
2.270565 -22.615758 9.009769 24.450028 -1.470734 1.193404 0.053854 -0.015079 -182784.000000 0 1 0
2.138465 -24.102058 8.483869 25.640948 -1.482303 1.233569 0.058468 -0.014132 176709.000000 0 0 1
2.207965 -25.042858 9.507269 26.877648 -1.482856 1.209247 0.058028 -0.018690 -215130.000000 0 0 1
1.850665 -26.313328 9.026469 27.879980 -1.500580 1.241094 0.063399 -0.018663 -723220.000000 0 0 1
2.061665 -27.506768 10.044969 29.355990 -1.495985 1.221563 0.065030 -0.021647 -100050.000000 0 0 1
1.176765 -27.598018 11.126069 29.779603 -1.528183 1.187894 0.066175 -0.024186 -183841.000000 0 0 1
-0.163335 -27.824048 10.734669 29.823437 1.564926 1.202592 0.040897 -0.018159 -165586.000000 0 0 1
-1.195635 -27.947728 11.867569 30.386579 1.528041 1.169564 0.044147 -0.019737 259338.000000 0 0 1
-0.904735 -29.125678 12.626369 31.757658 1.539743 1.161913 0.038622 -0.019585 -193811.000000 0 0 1
-1.074135 -28.845508 13.989469 32.076819 1.533576 1.119509 0.037719 -0.017510 -101467.000000 0 0 1
-0.843635 -30.026808 14.940969 33.549269 1.542708 1.109238 0.015962 0.000346 217658.000000 0 0 1
-0.986335 -29.675788 16.294769 33.869525 1.537572 1.068883 0.021805 -0.001092 -59428.700000 0 0 1
-0.482535 -30.660348 17.199669 35.158475 1.555060 1.059619 0.008611 0.004953 76809.200000 0 0 1
-0.795835 -30.246288 18.646169 35.540834 1.544491 1.018503 0.006314 0.004383 312790.000000 0 0 1
-2.174135 -30.367628 18.958069 35.865416 1.499324 1.013859 -0.002875 0.004604 81306.000000 0 0 1
-2.526435 -30.130018 20.293569 36.414692 1.487141 0.979677 0.016982 -0.002721 19903.000000 0 0 1
-4.043635 -30.313588 20.501769 36.818298 1.438186 0.980224 0.039799 -0.008574 -188542.000000 0 0 1
-4.865135 -29.312808 19.959569 35.795176 1.406323 0.979299 0.031346 -0.011186 190763.000000 0 0 1
-6.022435 -29.068938 20.765169 36.227960 1.366509 0.960414 0.036020 -0.018686 377870.000000 0 0 1
-6.009235 -27.964148 21.853469 35.995535 1.359125 0.918370 0.044830 -0.021655 -689547.000000 0 0 1
-5.060935 -28.252528 22.811369 36.663018 1.393544 0.899259 0.042441 -0.019259 -395632.000000 0 0 1
-5.157835 -27.354398 23.866869 36.667339 1.384428 0.862023 0.042472 -0.021997 -123806.000000 0 0 1
-4.228135 -27.687998 25.067769 37.588500 1.419261 0.840756 0.048718 -0.020904 153437.000000 0 0 1
-4.621235 -28.838958 25.842769 38.998590 1.411904 0.846433 0.052226 -0.021363 70317.600000 0 0 1
-4.066035 -30.032428 25.360069 39.517242 1.436226 0.874022 0.051631 -0.018919 -137512.000000 0 0 1
-4.300635 -31.308018 26.226869 41.067458 1.434285 0.878081 0.060285 -0.015142 -50488.500000 0 0 1
-3.664035 -31.346558 27.484569 41.850130 1.454436 0.854311 0.067058 -0.030239 78620.700000 0 0 1
-3.950235 -32.557758 28.158869 43.226541 1.450056 0.861335 0.071476 -0.036076 20274.700000 0 0 1
-3.446735 -32.493118 29.663669 44.131802 1.465116 0.833673 0.081618 -0.033559 -77206.000000 0 0 1
-2.061635 -32.648178 29.824269 44.267831 1.507733 0.831561 0.076410 -0.036621 -170964.000000 0 0 1
-1.550835 -32.471918 31.141969 45.018360 1.523073 0.806871 0.079931 -0.042921 71485.400000 0 0 1
-28.307525 3.007242 -10.286231 30.268235 -0.105838 1.917539 0.090475 -0.026887 -446486.000000 0 0 1
-29.380625 2.642742 -11.100731 31.518748 -0.089707 1.930711 0.073856 -0.037925 -331398.000000 0 0 1
-29.978415 3.780542 -11.643431 32.381590 -0.125447 1.938603 0.052558 -0.036982 43924.500000 0 0 1
-30.738945 3.492342 -12.974531 33.547245 -0.113128 1.967905 0.061854 -0.038350 710035.000000 0 0 1
-31.830785 2.573042 -12.773031 34.394327 -0.080660 1.951281 0.085719 -0.040776 608435.000000 0 0 1
-32.609735 2.355542 -13.929231 35.538245 -0.072109 1.973547 0.081700 -0.035700 -487867.000000 0 0 1
-33.797495 1.451442 -13.644831 36.476825 -0.042919 1.954188 0.081227 -0.039696 -439814.000000 0 0 1
-33.420685 0.255842 -13.083131 35.891168 -0.007655 1.943916 0.113347 -0.043741 -699668.000000 0 0 1
-34.515076 -0.452858 -12.646731 36.761874 0.013120 1.921989 0.095878 -0.043674 -484162.000000 0 0 1
-34.130627 -1.883558 -12.337931 36.341052 0.055131 1.917186 0.114005 -0.046718 61654.400000 0 0 1
-33.932595 -2.684858 -13.478731 36.610185 0.078959 1.947835 0.109551 -0.042305 259280.000000 0 0 1
-33.196975 -3.831458 -13.049631 35.874951 0.114907 1.943090 0.122533 -0.042446 270710.000000 0 0 1
-33.682865 -5.089758 -13.812931 36.759191 0.149974 1.956022 0.108649 -0.035776 77503.800000 0 0 1
-33.134055 -6.302258 -13.350831 36.274354 0.187960 1.947709 0.102448 -0.038400 85846.800000 0 0 1
-33.624515 -7.471258 -13.979431 37.173273 0.218645 1.956338 0.097079 -0.024376 -751720.000000 0 0 1
-33.183685 -8.735758 -13.157831 36.750496 0.257414 1.936955 0.070481 -0.023082 1138350.000000 0 0 1
-31.772045 -9.046758 -13.118531 35.544374 0.277398 1.948810 0.076701 -0.027221 1300580.000000 0 0 1
-31.171195 -9.291958 -14.382631 35.564645 0.289708 1.987128 0.068531 -0.018466 -1027850.000000 0 0 1
-30.010825 -10.264458 -14.235131 34.765610 0.329553 1.992659 0.051541 -0.018104 -642212.000000 0 0 1
-30.439845 -11.590758 -14.028431 35.464443 0.363825 1.977477 0.036722 -0.013179 -99590.200000 0 0 1
-29.411895 -12.475358 -13.697231 34.760729 0.401159 1.975823 0.028974 -0.011520 -570388.000000 0 0 1
-29.755935 -13.891158 -14.208131 35.780594 0.436767 1.979141 0.033789 -0.011940 -43980.900000 0 0 1
-29.783535 -13.988758 -15.642831 36.434084 0.439099 2.014565 0.024871 -0.010643 212282.000000 0 0 1
-30.246505 -15.253658 -16.098031 37.505623 0.467091 2.014421 0.027647 -0.008659 801491.000000 0 0 1
-29.204895 -16.430358 -15.696531 37.003562 0.512457 2.008863 0.005885 -0.002092 1575980.000000 0 0 1
-27.882975 -16.261158 -16.192831 36.112232 0.527970 2.035774 0.004013 -0.005625 452427.000000 0 0 1
-27.157355 -17.470158 -16.538731 36.280270 0.571646 2.044135 0.005668 -0.008839 831977.000000 0 0 1
-25.714025 -17.097358 -16.992531 35.245948 0.586781 2.073861 0.010053 -0.021449 493787.000000 0 0 1
-25.819775 -16.412658 -18.232431 35.615413 0.566230 2.108221 0.012264 -0.014572 -974289.000000 0 0 1
-24.582235 -15.966858 -18.662331 34.749236 0.576044 2.137741 0.024597 -0.006298 -945507.000000 0 0 1
-24.426635 -15.311358 -20.071731 35.127946 0.559914 2.178994 0.030535 -0.008695 71848.200000 0 0 1
-24.875035 -16.115158 -21.162831 36.418829 0.574859 2.190871 0.024869 -0.012193 -759424.000000 0 0 1
-26.244165 -16.076758 -21.340331 37.451676 0.549621 2.177071 0.032635 -0.018688 -1081510.000000 0 0 1
-26.821425 -17.334258 -22.035531 38.799871 0.573758 2.174783 0.030911 -0.014565 -175977.000000 0 0 1
-26.331395 -17.502858 -23.318931 39.286956 0.586650 2.206264 0.031166 -0.004503 -178286.000000 0 0 1
-26.849465 -18.663558 -23.952931 40.533505 0.607442 2.203022 0.022512 0.001817 -370199.000000 0 0 1
-26.162455 -18.998358 -25.289441 41.048355 0.628074 2.234564 0.034063 -0.003463 400394.000000 0 0 1
-24.848235 -19.525458 -25.137401 40.380282 0.666015 2.242751 0.045954 -0.008170 86195.000000 0 0 1
-24.722235 -20.963158 -25.048831 40.964458 0.703301 2.228722 0.042339 -0.007519 411308.000000 0 0 1
-23.204335 -21.335058 -24.845031 40.136036 0.743454 2.238291 0.049032 0.004039 972019.000000 0 0 1
-22.560135 -21.071958 -26.070691 40.406287 0.751304 2.272099 0.057149 -0.005062 -331573.000000 0 0 1
-21.179235 -21.346458 -26.054421 39.787738 0.789330 2.284761 0.054031 0.001574 -22518.600000 0 0 1
-20.576735 -21.333858 -27.467731 40.410540 0.803461 2.318173 0.056316 -0.001580 -175327.000000 0 0 1
-21.076435 -22.375558 -28.344981 41.812912 0.815287 2.315699 0.093340 -0.000200 176287.000000 0 0 1
-21.159635 -21.956958 -29.673541 42.548292 0.803888 2.342571 0.081280 -0.010061 -28086.600000 0 0 1
-19.879635 -22.181458 -30.522531 42.647882 0.840069 2.368403 0.081989 -0.017998 283640.000000 0 0 1
-19.621235 -23.486158 -30.921841 43.505778 0.874817 2.361364 0.078904 -0.023582 -24799.800000 0 0 1
-18.803535 -23.527158 -32.096051 44.014277 0.896527 2.387976 0.067155 -0.023816 78759.700000 0 0 1
-18.583835 -24.939658 -32.714211 45.139396 0.930405 2.381450 0.069700 -0.022732 257479.000000 0 0 1
-17.976235 -24.948758 -34.024161 45.860975 0.946427 2.406693 0.064479 -0.024775 96009.700000 0 0 1
-18.968535 -24.837158 33.423975 45.758626 0.918575 0.751829 0.071879 -0.026717 -230486.000000 0 0 1
-18.429135 -24.681658 32.014462 44.426828 0.929428 0.766113 0.061155 -0.024229 -29679.700000 0 0 1
-17.639935 -23.477858 31.889162 43.350845 0.926436 0.744235 0.059168 -0.023814 80081.300000 0 0 1
-16.745535 -23.484758 30.803132 42.199286 0.951373 0.752556 0.058705 -0.020413 49927.800000 0 0 1
-16.092135 -22.082858 30.516812 40.961997 0.941057 0.730257 0.040585 -0.014944 555826.000000 0 0 1
-16.942935 -21.040858 29.976522 40.353099 0.892869 0.733471 0.038914 -0.018543 468848.000000 0 0 1
-16.218335 -19.820458 29.854102 39.333857 0.885019 0.709032 0.037921 -0.017727 38865.300000 0 0 1
-15.778935 -19.134958 31.109502 39.785959 0.881227 0.673054 0.041743 -0.021984 259023.000000 0 0 1
-14.905535 -18.039058 30.842772 38.715102 0.880228 0.649047 0.046888 -0.021173 53763.600000 0 0 1
-14.617535 -17.368858 32.014112 39.246056 0.871202 0.616809 0.042193 -0.019712 149199.000000 0 0 1
-13.853835 -16.031258 31.713482 38.140201 0.858129 0.588998 0.045503 -0.023898 346430.000000 0 0 1
-12.584135 -16.145558 31.095622 37.228715 0.908732 0.582193 0.049588 -0.028405 -172969.000000 0 0 1
-12.227735 -14.862358 30.749922 36.276230 0.882347 0.559237 0.051918 -0.032098 -765395.000000 0 0 1
-10.753935 -14.674158 30.435942 35.458773 0.938363 0.538757 0.068076 -0.033817 -568429.000000 0 0 1
-10.521035 -13.314458 30.242782 34.678420 0.902062 0.511334 0.075861 -0.029936 -240626.000000 0 0 1
-9.163635 -13.061458 30.514582 34.434192 0.959012 0.481781 0.064844 -0.028602 -257763.000000 0 0 1
-8.763535 -11.585058 30.382482 33.676525 0.923179 0.445986 0.059124 -0.024695 -206992.000000 0 0 1
-9.500935 -10.680958 31.200832 34.319711 0.843801 0.429623 0.058760 -0.022555 256008.000000 0 0 1
-9.163635 -9.324958 30.952942 33.600769 0.794123 0.399649 0.034719 -0.010960 243710.000000 0 0 1
-9.962235 -8.378858 31.937362 34.488353 0.699282 0.387032 0.025580 -0.013232 261631.000000 0 0 1
-11.355435 -8.299658 31.733082 34.710499 0.631163 0.417214 0.031639 -0.018010 69442.400000 0 0 1
-12.088235 -7.644158 32.795525 35.778555 0.563877 0.411242 0.027837 -0.018001 138937.000000 0 0 1
-11.813635 -6.149358 33.181021 35.754115 0.479937 0.381698 0.003884 -0.012113 -434137.000000 0 0 1
-11.919435 -5.220058 32.163322 34.695839 0.412784 0.384441 0.018487 -0.015164 196421.000000 0 0 1
-12.103635 -3.953758 32.750206 35.138386 0.315731 0.370808 0.012638 -0.016234 -584211.000000 0 0 1
-11.727335 -2.828758 31.788362 34.000474 0.236689 0.362710 0.019892 -0.004447 -356691.000000 0 0 1
-10.340135 -2.643558 31.721352 33.468656 0.250298 0.324555 0.023278 -0.007778 -222992.000000 0 0 1
-9.994135 -1.551958 30.882442 32.496408 0.154056 0.316489 0.016762 -0.005805 472068.000000 0 0 1
-8.496935 -1.115758 31.003802 32.166420 0.130566 0.269680 0.022326 -0.004781 600221.000000 0 0 1
-8.185335 -0.400458 32.156692 33.184528 0.048885 0.249538 0.027044 -0.015018 699631.000000 0 0 1
-6.774635 -0.125458 32.189972 32.895375 0.018517 0.207465 0.038591 -0.010525 746757.000000 0 0 1
-6.491735 0.619342 33.545268 34.173253 -0.095117 0.192006 0.063917 -0.021645 -414078.000000 0 0 1
-7.151435 1.843942 33.756147 34.554603 -0.252346 0.215391 0.059523 -0.023061 -97247.700000 0 0 1
-6.739135 2.881942 32.899227 33.705796 -0.404107 0.219206 0.063867 -0.018481 314003.000000 0 0 1
-7.587635 4.198242 33.117406 34.233902 -0.505374 0.256096 0.065611 -0.020088 1165680.000000 0 0 1
-8.962635 4.120542 32.713964 34.168862 -0.430930 0.292866 0.031170 -0.010629 633094.000000 0 0 1
-9.471435 5.443542 32.675666 34.453438 -0.521633 0.322643 0.020821 -0.008081 633112.000000 0 0 1
-10.967435 5.393842 32.200302 34.441800 -0.457070 0.362765 0.002249 0.004888 964522.000000 0 0 1
-11.712935 6.619342 32.289002 34.979825 -0.514386 0.394796 0.007646 0.002016 375930.000000 0 0 1
-12.916635 6.633742 31.536042 34.718409 -0.474454 0.431504 -0.003389 0.008312 64033.100000 0 0 1
-13.760735 7.858242 31.900112 35.619194 -0.518870 0.461046 0.002996 0.000490 -475912.000000 0 0 1
-14.289935 7.755742 33.168129 36.938849 -0.497253 0.455776 0.004321 -0.000425 987.491000 0 0 1
-15.068135 8.923942 33.429566 37.738857 -0.534694 0.482553 0.013019 -0.003318 463434.000000 0 0 1
-15.688835 8.961842 -33.583571 38.135422 -0.518992 2.648007 0.017751 0.005363 558441.000000 0 0 1
-14.711235 9.278442 -32.595501 36.945590 -0.562691 2.651431 0.013676 0.003998 87533.400000 0 0 1
-15.330935 9.756842 -31.429301 36.304745 -0.566766 2.617359 0.009835 0.005679 -1360320.000000 0 0 1
-14.433135 9.986442 -30.243181 34.967048 -0.605276 2.615758 0.012902 0.000341 -273186.000000 0 0 1
-13.618535 11.125042 -30.367041 35.091142 -0.684964 2.616697 0.024658 -0.002855 594795.000000 0 0 1
-12.389735 10.914442 -31.090311 35.202813 -0.722177 2.653389 0.027129 -0.010608 344718.000000 0 0 1
-11.574135 12.217042 -31.352811 35.583922 -0.812415 2.648969 0.027606 -0.009766 78328.600000 0 0 1
-12.263335 13.075942 -32.271091 36.916026 -0.817456 2.634532 0.016456 -0.013082 370390.000000 0 0 1
-11.527735 14.249142 -32.642141 37.435760 -0.890584 2.629969 0.022729 -0.018655 84872.900000 0 0 1
-11.620535 15.484042 -31.738931 37.177307 -0.926985 2.593880 0.021367 -0.020717 -1040870.000000 0 0 1
-12.883035 16.018842 -31.727231 37.804670 -0.893474 2.566682 0.021619 -0.019682 -958944.000000 0 0 1
-12.998235 17.219342 -31.020571 37.785390 -0.924191 2.533899 0.006619 -0.009323 62418.000000 0 0 1
-14.440535 17.771542 -30.860851 38.428491 -0.888441 2.503229 -0.002638 -0.022053 48887.600000 0 0 1
-14.882035 18.407542 -32.078591 39.866635 -0.890909 2.505878 0.013038 -0.031431 284103.000000 0 0 1
-16.244535 18.800042 -32.064691 40.564405 -0.858191 2.482362 0.020279 -0.036144 369475.000000 0 0 1
-16.647235 20.089142 -31.285311 40.736651 -0.878818 2.446492 -0.000029 -0.032691 -425134.000000 0 0 1
-15.930635 21.236442 -31.776771 41.406942 -0.927196 2.445613 0.004694 -0.032261 328163.000000 0 0 1
-16.263635 22.501942 -31.222161 41.781175 -0.944954 2.414753 -0.005185 -0.018494 769609.000000 0 0 1
-17.693635 22.989242 -31.701611 42.971643 -0.914838 2.400503 0.008339 -0.023023 1016170.000000 0 0 1
-18.772235 22.271842 -31.099691 42.610123 -0.870457 2.388923 0.019918 -0.025722 -320016.000000 0 0 1
-19.926835 22.563842 -31.837601 43.815963 -0.847380 2.384187 0.053333 -0.028540 -738192.000000 0 0 1
-21.157635 21.693042 -31.399831 43.636945 -0.797892 2.373979 0.070797 -0.033409 -182709.000000 0 0 1
-22.010935 22.313742 -30.487461 43.724932 -0.792230 2.342358 0.094136 -0.026701 130075.000000 0 0 1
-22.915735 23.255642 -31.048661 45.055246 -0.792760 2.331076 0.090826 -0.023901 -697684.000000 0 0 1
-24.275035 22.717242 -31.506491 45.804033 -0.752260 2.329325 0.098400 -0.036238 -718297.000000 0 0 1
-24.151935 21.888542 -32.667131 46.147218 -0.736277 2.357302 0.116816 -0.033567 659117.000000 0 0 1
-25.415595 21.428942 -33.175411 46.965519 -0.700499 2.355164 0.129190 -0.031199 526153.000000 0 0 1
-25.364845 20.543742 34.059620 47.174977 -0.680766 0.764130 0.126160 -0.021325 -260183.000000 0 0 1
-24.926035 19.266342 -34.177386 46.482178 -0.658022 2.396875 0.124602 -0.023418 4517.700000 0 0 1
-24.680035 18.592242 33.104548 45.284508 -0.645630 0.750959 0.106573 -0.024307 -422402.000000 0 0 1
-24.059435 17.191242 33.375915 44.590884 -0.620413 0.725011 0.102627 -0.022532 -119447.000000 0 0 1
-24.971335 16.176442 33.754563 44.995726 -0.574827 0.722473 0.097666 -0.020945 473488.000000 0 0 1
-25.437665 15.455442 32.588989 44.136014 -0.545975 0.740137 0.087136 -0.019719 -314742.000000 0 0 1
-26.421815 14.322942 32.793758 44.482463 -0.496748 0.741837 0.052233 -0.011740 -235084.000000 0 0 1
-27.669215 14.665142 33.357914 45.753713 -0.487372 0.753826 0.060413 -0.007800 750154.000000 0 0 1
-28.712565 13.647542 33.331739 46.061607 -0.443706 0.761743 0.048947 -0.006530 786217.000000 0 0 1
-28.551135 12.301642 34.088087 46.135620 -0.406827 0.739409 0.036357 -0.007526 -464044.000000 0 0 1
-27.562845 11.409642 33.602231 44.933287 -0.392474 0.726017 0.027679 -0.012597 -205460.000000 0 0 1
-27.745065 10.148842 34.168429 45.169339 -0.350671 0.712925 0.039909 -0.009808 -298862.000000 0 0 1
-26.408545 9.404442 -33.999251 44.065904 -0.342111 2.452078 0.027058 -0.016376 208301.000000 0 0 1
-25.522325 9.130742 33.419225 43.030270 -0.343567 0.681475 0.017204 -0.003037 -116335.000000 0 0 1
-24.766735 10.230442 32.991099 42.502538 -0.391724 0.682157 0.002729 -0.004716 -1103280.000000 0 0 1
-23.624935 9.696842 32.107832 41.025348 -0.389482 0.671910 0.011878 -0.004463 -232380.000000 0 0 1
-23.950235 9.438542 30.706762 40.070002 -0.375401 0.697691 0.023152 -0.001222 314112.000000 0 0 1
-22.754135 9.083542 29.996552 38.730538 -0.379820 0.684882 0.024995 -0.001131 574830.000000 0 0 1
-22.842235 9.151842 28.426612 37.597822 -0.381070 0.713508 0.049749 -0.011538 -390865.000000 0 0 1
-23.075735 10.420242 27.967872 37.726289 -0.424156 0.735737 0.053861 -0.018128 228321.000000 0 0 1
-23.411835 10.258942 26.586582 36.880974 -0.412993 0.765732 0.047330 -0.020155 -566688.000000 0 0 1
-23.701035 11.558942 25.823902 36.908293 -0.453757 0.795850 0.055993 -0.016625 405985.000000 0 0 1
-24.898035 12.222842 26.223242 38.170256 -0.456354 0.813434 0.064827 -0.017042 699532.000000 0 0 1
-26.011735 11.863242 25.383562 38.231821 -0.427893 0.844723 0.077013 -0.013603 181989.000000 0 0 1
-27.292345 12.622042 25.763792 39.597488 -0.433180 0.862367 0.065974 -0.012804 -382860.000000 0 0 1
-27.248905 13.983042 25.478672 39.839566 -0.474120 0.876907 0.080413 -0.012985 335198.000000 0 0 1
-28.446195 14.760142 25.655212 41.051647 -0.478637 0.895729 0.055805 -0.011179 488515.000000 0 0 1
-28.310785 16.068442 24.888952 40.977498 -0.516235 0.918037 0.051902 -0.009548 319695.000000 0 0 1
-27.280405 16.948042 25.351362 40.916356 -0.555901 0.902576 0.071035 -0.012108 460415.000000 0 0 1
-27.047495 18.013242 24.451012 40.668119 -0.587531 0.925753 0.051967 -0.020733 -416336.000000 0 0 1
-22.329135 -9.053358 31.916292 39.990039 0.385196 0.646651 0.029069 -0.022488 -1110090.000000 0 0 1
-21.498135 -8.852458 30.828292 38.612425 0.390618 0.646157 0.032898 -0.025159 -543151.000000 0 0 1
-22.111535 -8.833258 29.558862 37.956195 0.380064 0.678106 0.030910 -0.023872 -773572.000000 0 0 1
-21.182435 -8.493658 28.399292 36.432919 0.381348 0.676936 0.040823 -0.018665 -642485.000000 0 0 1
-20.693635 -7.136258 28.418482 35.871476 0.332082 0.656341 0.044897 -0.018050 724222.000000 0 0 1
-19.441235 -6.939458 29.087402 35.667838 0.342849 0.617190 0.040135 -0.011636 119051.000000 0 0 1
-18.141035 -7.486658 28.488562 34.594008 0.391400 0.603223 0.042507 -0.008939 -1297670.000000 0 0 1
-17.886335 -8.835158 28.445872 34.744044 0.458805 0.611607 0.045229 -0.013136 -116136.000000 0 0 1
-17.581435 -9.432158 29.701242 35.780389 0.492407 0.591512 0.053200 -0.017326 -445531.000000 0 0 1
-16.190735 -9.126958 30.286782 35.534918 0.513312 0.550409 0.052383 -0.016857 -533313.000000 0 0 1
-15.098335 -9.609858 29.561822 34.557349 0.566815 0.544392 0.043091 -0.015493 -1215200.000000 0 0 1
-13.896135 -9.280058 30.143352 34.465109 0.588798 0.506176 0.045057 -0.018012 463885.000000 0 0 1
-12.639135 -10.131058 29.613812 33.754465 0.675693 0.500526 0.048475 -0.020091 782698.000000 0 0 1
-12.281035 -9.757658 28.332812 32.384934 0.671397 0.505616 0.061298 -0.019997 -87046.700000 0 0 1
-11.376135 -10.733658 27.830452 31.924315 0.756348 0.512006 0.058060 -0.028425 -207025.000000 0 0 1
-10.788335 -10.344958 26.460922 30.390569 0.764421 0.514182 0.050301 -0.027121 167064.000000 0 0 1
-11.698135 -10.469458 25.374232 29.838022 0.730028 0.554053 0.044611 -0.021988 111119.000000 0 0 1
-11.080935 -10.086558 24.117422 28.393235 0.738456 0.555935 0.036317 -0.018005 143724.000000 0 0 1
-11.860635 -10.478558 22.853032 27.798128 0.723609 0.605695 0.034552 -0.017376 -599336.000000 0 0 1
-11.859535 -11.848458 22.555932 28.103462 0.784931 0.639150 0.033698 -0.013346 732249.000000 0 0 1
-13.146735 -12.263758 22.070632 28.466633 0.750664 0.683581 0.028034 -0.009623 825542.000000 0 0 1
-14.196235 -12.478858 23.186632 29.914459 0.721106 0.683926 0.042630 -0.010297 164366.000000 0 0 1
-15.452135 -12.987258 22.725132 30.395213 0.698943 0.726273 0.025887 0.001965 329002.000000 0 0 1
-16.455335 -13.039458 23.666492 31.637136 0.670099 0.725662 0.024118 0.001333 -18833.500000 0 0 1
-17.818435 -13.686958 23.318032 32.381477 0.655007 0.766844 0.041782 -0.000628 12037.300000 0 0 1
-17.691235 -15.121658 23.159032 32.832683 0.707248 0.787858 0.038716 -0.006638 91512.200000 0 0 1
-18.973935 -15.683558 22.961132 33.663003 0.690742 0.820182 0.050317 -0.000648 797324.000000 0 0 1
-19.923435 -15.789758 24.262582 35.141608 0.670164 0.808722 0.037415 -0.000877 153311.000000 0 0 1
-19.475435 -16.626458 25.315522 36.008434 0.706646 0.791127 0.038207 0.000596 -91404.200000 0 0 1
-20.385535 -16.563658 26.378092 37.225375 0.682329 0.783277 0.030587 -0.005041 -172748.000000 0 0 1
-20.026535 -17.507458 27.590262 38.324871 0.718384 0.767131 0.035987 -0.007099 -54669.800000 0 0 1
-20.127035 -18.849758 27.292442 38.798045 0.752640 0.790558 0.039325 -0.000263 173628.000000 0 0 1
-19.740035 -19.556258 28.473882 39.785401 0.780721 0.773190 0.035581 -0.008214 -286822.000000 0 0 1
-19.773835 -21.107758 28.454782 40.573595 0.818016 0.793559 0.043706 0.001614 -660911.000000 0 0 1
-21.013835 -21.689658 28.230572 41.339904 0.801223 0.819086 0.044514 0.000734 -720280.000000 0 0 1
-20.862035 -23.078158 28.037112 41.879655 0.835790 0.837303 0.058506 0.010104 200836.000000 0 0 1
-22.145435 -23.828158 27.592582 42.656207 0.821984 0.867337 0.061608 0.016301 -10389.100000 0 0 1
-23.059735 -23.967458 28.638562 43.890291 0.804698 0.859913 0.057338 0.008255 -1233270.000000 0 0 1
-24.107835 -24.732058 28.241472 44.614382 0.798178 0.885358 0.046975 0.012760 -900499.000000 0 0 1
-24.933835 -25.359348 29.406082 46.146617 0.793859 0.879896 0.029194 -0.001014 77519.900000 0 0 1
-25.979495 -24.591158 29.978652 46.673105 0.757952 0.873287 0.019364 0.010068 396281.000000 0 0 1
-26.514495 -25.230978 31.140922 48.055985 0.760599 0.865823 0.029896 0.008319 -253714.000000 0 0 1
-27.801995 -24.588358 31.630632 48.765102 0.724135 0.865010 0.015492 0.005187 -542767.000000 0 0 1
-28.935455 -24.669058 30.815412 48.942952 0.705975 0.889734 0.025263 0.003423 141720.000000 0 0 1
-29.868535 -23.639058 31.041102 49.137404 0.669498 0.887026 0.023247 -0.004513 -77711.300000 0 0 1
-31.059315 -23.584458 30.064662 49.242173 0.649449 0.914045 0.014509 -0.010126 -183714.000000 0 0 1
-31.981635 -24.638358 30.097512 50.356071 0.656424 0.930175 0.010369 -0.006010 -695145.000000 0 0 1
-32.929355 -24.593558 29.100592 50.359011 0.641487 0.954689 0.004793 -0.012025 -546308.000000 0 0 1
-34.099404 -25.474558 29.609252 51.850075 0.641622 0.963006 0.002677 -0.008792 -269811.000000 0 0 1
-33.746605 -26.821928 29.712762 52.355490 0.671564 0.967306 0.006274 -0.012027 -20907.300000 0 0 1
-34.716036 -27.530598 30.450552 53.762190 0.670472 0.968673 0.008305 -0.012916 -84699.900000 0 0 1
-34.218366 -28.951858 30.908182 54.446509 0.702220 0.967112 0.011105 -0.018988 -234126.000000 0 0 1
-33.358595 -28.935158 32.002302 54.536103 0.714508 0.943683 0.016789 -0.013918 -81288.900000 0 0 1
-32.848065 -30.220328 32.344032 55.121683 0.743757 0.943726 0.023585 -0.022225 442266.000000 0 0 1
-31.936595 -30.331198 33.623393 55.411733 0.759622 0.918778 0.025381 -0.021963 732110.000000 0 0 1
-32.667495 -30.302228 -33.614221 55.814927 0.747854 2.217106 0.021027 -0.007396 100037.000000 0 0 1
-31.782175 -30.621088 -32.588541 54.861377 0.766794 2.206838 0.026978 -0.009022 -131836.000000 0 0 1
-32.250905 -30.307018 -31.131721 54.109336 0.754335 2.183826 0.023765 -0.013336 -195091.000000 0 0 1
-32.454775 -28.931728 -30.787881 53.275237 0.728070 2.186952 0.011482 -0.011662 -556214.000000 0 0 1
-31.289725 -28.171488 -30.705361 52.110448 0.733005 2.200909 0.023553 -0.006567 -632579.000000 0 0 1
-31.408665 -26.659918 -30.859451 51.473888 0.703801 2.213693 0.015720 0.003460 -118302.000000 0 0 1
-32.117905 -26.073618 -29.729031 50.943190 0.681900 2.193917 0.001355 -0.009027 323479.000000 0 0 1
-32.038645 -24.646758 -29.632751 50.120229 0.655728 2.203384 0.008147 -0.006063 -556387.000000 0 0 1
-30.883495 -24.257558 -28.735101 48.661334 0.665808 2.202489 0.012064 -0.008098 -520144.000000 0 0 1
-30.597355 -22.908458 -29.064411 48.018075 0.642673 2.220915 0.014735 -0.003421 968782.000000 0 0 1
-29.401255 -22.429358 -28.394851 46.623786 0.651688 2.225622 0.028175 -0.006166 859629.000000 0 0 1
-29.228825 -20.904058 -28.697411 45.987447 0.620846 2.244682 0.029804 -0.010991 -104601.000000 0 0 1
-28.904185 -20.550158 -30.031051 46.471765 0.618054 2.273419 0.049698 -0.004751 375316.000000 0 0 1
-28.699665 -19.171058 -30.027811 45.747892 0.588917 2.286801 0.041217 -0.014031 -602154.000000 0 0 1
-28.113565 -18.609258 -31.323431 46.019934 0.584717 2.319445 0.065602 -0.009710 311217.000000 0 0 1
-29.018155 -18.415658 -32.424521 47.249755 0.565491 2.327099 0.062171 -0.017358 268646.000000 0 0 1
-29.976415 -17.415458 -32.154551 47.284234 0.526311 2.318596 0.047555 -0.018712 -252169.000000 0 0 1
-30.708985 -16.797858 -33.420361 48.395561 0.500538 2.333069 0.050666 -0.022513 898605.000000 0 0 1
-31.703915 -17.661558 -33.996771 49.727752 0.508261 2.323559 0.052697 -0.023473 1087580.000000 0 0 1
-33.056835 -17.243258 -33.828491 50.343332 0.480797 2.307643 0.046349 -0.020406 895466.000000 0 0 1
-34.070795 -17.971258 33.707892 51.186005 0.485380 0.851923 0.044397 -0.026890 4321.600000 0 0 1
-34.380156 -19.300858 34.015476 52.072746 0.511550 0.858954 0.015790 -0.022628 -168964.000000 0 0 1
-35.135286 -19.861858 32.997476 52.132669 0.514511 0.885436 0.016084 -0.019483 -361983.000000 0 0 1
-35.412130 -21.371158 33.092240 52.970196 0.542988 0.896007 -0.001628 -0.017366 13376.600000 0 0 1
-34.220375 -22.123758 32.946920 52.402235 0.573917 0.890876 0.009287 -0.018329 295076.000000 0 0 1
-34.488817 -23.469858 33.179336 53.302730 0.597523 0.898902 -0.002793 -0.015095 -242845.000000 0 0 1
-33.168165 -24.271258 33.258430 52.871015 0.631727 0.890468 0.000591 -0.004737 373242.000000 0 0 1
-32.431095 -24.054358 -33.990471 52.780111 0.638172 2.270514 -0.008280 -0.010901 381869.000000 0 0 1
-31.569275 -22.920658 -33.980181 51.736142 0.627992 2.287361 0.006230 -0.014370 -477242.000000 0 0 1
-30.399235 -23.022858 -32.978171 50.415526 0.648188 2.283825 0.015257 -0.007499 -1068300.000000 0 0 1
-29.339105 -23.746458 -33.476241 50.451324 0.680434 2.296331 0.022784 -0.008715 -458810.000000 0 0 1
-28.130825 -23.679758 -32.739111 49.233359 0.699698 2.298261 0.042389 -0.007485 165408.000000 0 0 1
-28.015705 -24.192658 -31.285181 48.465730 0.712302 2.272489 0.039122 0.009094 -826206.000000 0 0 1
-28.045975 -25.592238 -31.169411 49.123024 0.739684 2.258180 0.026012 -0.003530 -82514.900000 0 0 1
-27.540925 -25.932728 -29.916711 48.228814 0.755333 2.239931 0.027536 -0.012279 -76977.600000 0 0 1
-27.011985 -27.388188 -29.747951 48.628189 0.792314 2.229058 0.024573 -0.014371 -285687.000000 0 0 1
-28.003735 -28.366418 -29.911291 49.835210 0.791832 2.214552 0.016484 -0.004948 -75305.300000 0 0 1
-27.735895 -29.600728 -29.275891 50.025601 0.817911 2.195945 0.019707 -0.006758 9253.790000 0 0 1
-28.496875 -30.774078 -29.937481 51.530268 0.823799 2.190715 0.023828 0.003208 14108.700000 0 0 1
-27.867785 -31.102598 -31.130721 52.087492 0.840198 2.211378 0.025630 -0.012020 269959.000000 0 0 1
-28.417225 -32.303718 -31.598051 53.380761 0.849317 2.204256 0.045210 -0.006549 -146711.000000 0 0 1
-27.913535 -32.628168 -33.024461 54.169897 0.863115 2.226410 0.036744 -0.020286 -428414.000000 0 0 1
-26.612065 -33.144308 -32.934691 53.772121 0.894280 2.229998 0.035616 -0.021395 -527003.000000 0 0 1
-26.213045 -33.475578 34.222692 54.579581 0.906477 0.893070 0.040730 -0.019640 111655.000000 0 0 1
-24.694435 -33.772718 34.098639 53.973408 0.939440 0.886965 0.038703 -0.022637 241257.000000 0 0 1
-24.325035 -34.094184 32.803690 53.199650 0.951090 0.906361 0.040664 -0.011242 22109.900000 0 0 1
-23.300235 33.570228 32.796068 52.396977 -0.964058 0.894492 0.024929 -0.000919 -229617.000000 0 0 1
-23.204435 32.815577 31.431912 51.022280 -0.955310 0.907087 0.029575 -0.002812 -537196.000000 0 0 1
-24.369135 32.087002 31.190252 50.953531 -0.921262 0.912043 0.045661 -0.028548 -306236.000000 0 0 1
-24.357635 31.293172 30.043442 49.751034 -0.909385 0.922442 0.038849 -0.021417 97672.400000 0 0 1
-25.787095 30.716822 29.890522 50.019404 -0.872424 0.930319 0.051772 -0.021483 22994.000000 0 0 1
-26.224085 29.799982 30.833592 50.263824 -0.849140 0.910393 0.049300 -0.023624 602987.000000 0 0 1
-27.450085 29.171792 30.421472 50.298773 -0.815796 0.921262 0.046920 -0.027818 773989.000000 0 0 1
-27.968685 28.108102 31.412792 50.587313 -0.787884 0.900827 0.049768 -0.045245 344190.000000 0 0 1
-27.043105 26.994332 31.373822 49.440269 -0.784496 0.883331 0.049950 -0.039658 520491.000000 0 0 1
-27.375705 25.777602 32.057322 49.412406 -0.755341 0.864828 0.041590 -0.030350 477094.000000 0 0 1
-28.444315 24.931832 31.279342 49.082304 -0.719687 0.879828 0.041687 -0.029023 908374.000000 0 0 1
-27.872815 24.743422 29.996362 47.842580 -0.725992 0.893125 0.034921 -0.017297 248102.000000 0 0 1
-28.861505 24.176932 29.155092 47.618588 -0.697303 0.911877 0.038373 -0.006328 392272.000000 0 0 1
-28.340845 24.034272 27.714572 46.356739 -0.703357 0.929975 0.051496 -0.020057 268471.000000 0 0 1
-27.295235 23.081152 27.515752 45.109711 -0.701941 0.914769 0.050588 -0.014462 279289.000000 0 0 1
-26.937765 22.886752 26.165172 43.977981 -0.704271 0.933580 0.042879 -0.013819 35747.500000 0 0 1
-25.562695 22.180252 26.098292 42.737990 -0.714669 0.913905 0.052618 -0.015871 -350982.000000 0 0 1
-25.603465 20.891052 26.649022 42.451665 -0.684389 0.892137 0.072733 -0.022070 -180794.000000 0 0 1
-24.380835 20.363752 27.075292 41.739417 -0.695860 0.864955 0.079542 -0.015586 -727299.000000 0 0 1
-24.393635 18.959852 27.793722 41.557387 -0.660712 0.838198 0.089415 -0.019979 1476270.000000 0 0 1
-23.065635 18.382552 28.052392 40.704772 -0.672889 0.810457 0.089312 -0.014435 1673900.000000 0 0 1
-23.208235 17.306452 29.010492 40.984681 -0.640745 0.784364 0.086375 -0.014338 80549.700000 0 0 1
-22.008435 16.342452 28.976862 39.888664 -0.638719 0.757664 0.084881 -0.020739 128316.000000 0 0 1
-20.884035 16.719152 29.757212 40.014555 -0.675089 0.732268 0.112289 -0.018950 102058.000000 0 0 1
-19.815435 15.826852 29.464232 38.875207 -0.673956 0.710680 0.092206 -0.026487 346948.000000 0 0 1
-18.531635 16.238752 30.255142 39.019126 -0.719550 0.683460 0.067314 -0.028567 -29255.300000 0 0 1
-18.514535 15.926252 31.633502 39.963883 -0.710387 0.657451 0.054275 -0.017928 381519.000000 0 0 1
-17.601435 16.753352 32.360122 40.468047 -0.760717 0.644090 0.043722 -0.032834 -686237.000000 0 0 1
-17.504235 16.545452 33.952167 41.628114 -0.757247 0.617019 0.039372 -0.039429 60448.900000 0 0 1
-18.491735 17.100752 -33.663181 42.042714 -0.746337 2.499242 0.064435 -0.039132 520720.000000 0 0 1
-19.802835 16.566552 -33.874051 42.591716 -0.696648 2.490332 0.082497 -0.030039 29618.500000 0 0 1
-20.831335 17.361152 -33.039531 42.743008 -0.694787 2.454323 0.089179 -0.043356 -270938.000000 0 0 1
-20.745035 17.130852 -31.637811 41.530395 -0.690264 2.436882 0.080216 -0.038672 259639.000000 0 0 1
-21.701535 17.904352 -30.929051 41.810629 -0.689816 2.403482 0.070308 -0.028011 -284696.000000 0 0 1
-21.963735 17.467452 -29.509141 40.722315 -0.671860 2.381313 0.072362 -0.026493 206803.000000 0 0 1
-22.833335 16.348052 -29.195911 40.509520 -0.621366 2.375633 0.083274 -0.033323 244697.000000 0 0 1
-24.212335 16.574252 -29.348471 41.500310 -0.600273 2.356308 0.092652 -0.028911 -105882.000000 0 0 1
-25.054055 15.611752 -28.451591 40.999092 -0.557248 2.337766 0.086779 -0.024691 92550.700000 0 0 1
-24.870735 14.245752 -28.741931 40.590560 -0.520173 2.357592 0.053239 -0.018906 204375.000000 0 0 1
-25.682175 13.424752 -27.916711 40.238549 -0.481663 2.337521 0.023763 -0.011693 211931.000000 0 0 1
-25.297105 11.913852 -28.113491 39.651630 -0.440145 2.358893 0.029751 -0.016919 -55667.600000 0 0 1
-24.220535 11.509652 -27.318201 38.280420 -0.443613 2.365468 0.024150 -0.014796 -251634.000000 0 0 1
-23.673635 10.317452 -27.797361 37.941852 -0.411000 2.392975 0.011700 -0.005572 -342321.000000 0 0 1
-22.605635 9.682652 -26.891441 36.440611 -0.404687 2.400828 0.039410 -0.005061 -382122.000000 0 0 1
-22.955535 8.779352 -25.841101 35.662251 -0.365286 2.381260 0.025429 -0.006858 -18557.500000 0 0 1
-21.852435 8.186352 -25.138331 34.299868 -0.358437 2.393369 0.050587 0.001669 -91672.200000 0 0 1
-22.243735 7.129152 -24.049231 33.525723 -0.310158 2.370768 0.051385 0.001908 -91585.400000 0 0 1
-22.860135 6.016452 -24.608531 34.122768 -0.257349 2.376295 0.046442 -0.014749 196720.000000 0 0 1
-23.239535 5.044652 -23.644331 33.534742 -0.213756 2.353318 0.054543 -0.010865 -305875.000000 0 0 1
34.474365 24.807942 -10.979831 43.868810 0.623763 1.823774 0.046774 -0.006746 -239.932000 0 0 1
35.451835 24.364042 -10.070831 44.179869 0.602113 1.800769 0.060207 -0.008914 -514996.000000 0 0 1
-35.903850 23.438742 -10.712831 44.195315 -0.578355 1.815633 0.075608 -0.007351 -392158.000000 0 0 1
-34.865750 22.829942 -9.776431 42.806605 -0.579739 1.801216 0.057509 -0.010539 191568.000000 0 0 1
-35.485032 21.943142 -8.801431 42.639819 -0.553823 1.778704 0.023304 -0.002038 607016.000000 0 0 1
-34.474909 21.601742 -7.866231 41.437088 -0.559744 1.761791 0.044929 0.004066 237852.000000 0 0 1
-34.972721 20.715042 -6.694831 41.194963 -0.534753 1.734036 0.025621 0.011421 -121242.000000 0 0 1
-35.170264 19.358842 -7.090331 40.767451 -0.503175 1.745607 0.020605 0.008302 344295.000000 0 0 1
-35.732288 18.620642 -6.041331 40.743373 -0.480397 1.719623 0.014558 0.000175 -389172.000000 0 0 1
35.703165 17.332242 -6.423831 40.204331 0.451943 1.731264 0.013888 0.011980 679014.000000 0 0 1
34.380335 17.624342 -6.916631 39.248753 0.473699 1.747947 0.019573 0.005054 860291.000000 0 0 1
33.770865 16.462142 -7.482231 38.307404 0.453570 1.767381 0.040633 0.009748 -280895.000000 0 0 1
32.874485 16.780142 -8.640931 37.907395 0.471957 1.800766 0.029794 -0.003353 -508379.000000 0 0 1
32.374025 15.630242 -9.263031 37.123923 0.449795 1.822977 0.044866 -0.010223 20814.600000 0 0 1
31.734935 16.018142 -10.465531 37.056906 0.467439 1.857110 0.054940 -0.012303 -577991.000000 0 0 1
31.220065 14.828042 -11.285931 36.358431 0.443409 1.886418 0.049689 -0.008930 1378820.000000 0 0 1
29.931185 14.212742 -10.943931 34.894806 0.443324 1.889806 0.038853 -0.007281 1761450.000000 0 0 1
29.937195 13.633342 -9.667531 34.286511 0.427334 1.856636 0.037301 -0.007374 -487077.000000 0 0 1
28.781575 12.622542 -9.455631 32.819454 0.413303 1.863049 0.042851 -0.006580 274513.000000 0 0 1
29.184865 11.402942 -10.063731 32.909909 0.372476 1.881571 0.055479 -0.009871 217673.000000 0 0 1
28.168025 10.460242 -10.039031 31.680221 0.355568 1.893241 0.065024 -0.008282 -553306.000000 0 0 1
28.806905 9.138542 -10.537031 32.005933 0.307192 1.906275 0.074469 -0.011814 -639229.000000 0 0 1
29.778585 8.693442 -9.656131 32.489705 0.284042 1.872561 0.060432 -0.009774 -105114.000000 0 0 1
29.774695 7.272342 -9.618331 32.123694 0.239556 1.874876 0.069086 -0.007491 -573201.000000 0 0 1
30.905845 6.615942 -8.801631 32.808698 0.210885 1.842394 0.081312 -0.008523 824665.000000 0 0 1
32.222175 6.799542 -9.356631 34.235199 0.207969 1.847623 0.075280 -0.012655 483185.000000 0 0 1
33.204345 6.367642 -8.484231 34.857676 0.189471 1.816662 0.073647 -0.011904 87147.900000 0 0 1
34.675405 6.603542 -8.950931 36.415788 0.188185 1.819139 0.071940 -0.013101 658724.000000 0 0 1
35.110825 5.654642 -9.964331 36.932816 0.159680 1.843978 0.079758 -0.019257 -87059.300000 0 0 1
-35.760586 5.947742 -10.393231 37.712258 -0.164812 1.850003 0.082060 -0.026103 -1364970.000000 0 0 1
-35.204433 5.019942 -11.458631 37.361105 -0.141639 1.882520 0.079722 -0.029464 681029.000000 0 0 1
-33.811345 5.081542 -11.792831 36.167665 -0.149175 1.902929 0.077230 -0.029291 1175210.000000 0 0 1
-33.268835 6.322542 -12.288731 36.025031 -0.187804 1.918901 0.056763 -0.022619 -694017.000000 0 0 1
-32.481065 7.172542 -11.309331 35.133544 -0.217334 1.898527 0.061216 -0.015116 -1235340.000000 0 0 1
-33.239005 8.030042 -10.502931 35.771841 -0.237043 1.868796 0.073048 -0.017837 108253.000000 0 0 1
-33.562315 9.282542 -11.205331 36.580788 -0.269831 1.882118 0.078591 -0.018450 -94685.200000 0 0 1
-34.662623 10.102242 -10.535731 37.610562 -0.283590 1.854723 0.075908 -0.012245 125445.000000 0 0 1
-34.109189 10.723242 -9.392131 36.968052 -0.304597 1.827673 0.065721 -0.004252 483270.000000 0 0 1
-34.999589 11.746342 -8.929031 37.982567 -0.323802 1.808100 0.064629 -0.005472 158672.000000 0 0 1
-34.390329 12.694742 -7.896631 37.499440 -0.353621 1.782965 0.061620 0.001875 103873.000000 0 0 1
-33.401375 13.533642 -8.472131 37.021458 -0.384966 1.801686 0.070855 -0.007265 -75366.800000 0 0 1
-32.840465 14.347142 -7.493831 36.612759 -0.411885 1.776931 0.080364 -0.007906 -317056.000000 0 0 1
-31.894355 15.366542 -8.134431 36.325604 -0.448978 1.796642 0.063296 -0.004217 -119869.000000 0 0 1
-32.540575 16.255542 -9.049731 37.483721 -0.463285 1.814637 0.048639 -0.001651 66215.500000 0 0 1
-31.837945 17.485442 -9.121031 37.451150 -0.502230 1.816815 0.042269 0.006972 394469.000000 0 0 1
-32.434725 18.470942 -10.210531 38.696796 -0.517676 1.837818 0.018434 -0.001840 190105.000000 0 0 1
-32.133895 18.252042 -11.545831 38.717315 -0.516557 1.873611 0.011286 -0.005039 -73904.900000 0 0 1
-33.147735 18.823842 -12.376031 40.078367 -0.516465 1.884723 0.011567 -0.009041 349844.000000 0 0 1
-32.679505 18.907142 -13.878831 40.225018 -0.524508 1.923067 0.011326 -0.003427 -143013.000000 0 0 1
-32.058395 20.143942 -14.127631 40.411744 -0.561006 1.927932 0.008106 -0.006676 13481.700000 0 0 1
-31.652265 20.146742 -15.500531 40.595857 -0.566828 1.962567 -0.000282 -0.009581 -620692.000000 0 0 1
-30.808505 21.367442 -15.912531 40.730090 -0.606388 1.972169 0.012414 -0.017846 -677955.000000 0 0 1
-29.494215 21.153642 -15.454931 39.449210 -0.622185 1.973349 0.010945 -0.014856 -101022.000000 0 0 1
-28.654565 22.275142 -15.421031 39.434430 -0.660788 1.972574 0.017119 -0.014925 -219216.000000 0 0 1
-28.181345 22.935742 -16.767731 40.017412 -0.683137 2.003152 0.015961 -0.019045 -997411.000000 0 0 1
-29.132645 23.608442 -17.570331 41.409976 -0.681037 2.008987 0.018383 -0.008375 166615.000000 0 0 1
-28.542435 24.442342 -18.641731 41.947739 -0.708170 2.031305 0.012044 -0.015319 493996.000000 0 0 1
-27.758545 25.710342 -18.118231 41.950314 -0.747110 2.017392 0.020529 -0.013456 572479.000000 0 0 1
-28.619025 26.685042 -17.583531 42.898959 -0.750442 1.993122 0.030612 -0.007385 -193658.000000 0 0 1
-27.875835 27.856042 -17.540331 43.135652 -0.785043 1.989561 0.032074 -0.007844 -243082.000000 0 0 1
-28.554605 29.170242 -17.148231 44.275618 -0.796063 1.968505 0.022909 -0.005593 -632196.000000 0 0 1
-28.668215 29.494042 -15.791831 44.058450 -0.799596 1.937381 0.020949 -0.013131 759216.000000 0 0 1
-27.463735 29.562442 -14.976131 43.040437 -0.822184 1.926185 0.016593 -0.005538 744611.000000 0 0 1
-27.684055 30.251442 -13.609231 43.206109 -0.829684 1.891236 0.023070 -0.002910 -111867.000000 0 0 1
-27.840555 31.677442 -13.648531 44.326508 -0.849775 1.883791 0.024794 -0.000559 69000.300000 0 0 1
-28.164375 32.249642 -12.433831 44.585554 -0.852917 1.853420 0.011966 -0.004010 -111250.000000 0 0 1
-27.673495 33.713942 -12.247531 45.304020 -0.883481 1.844543 -0.010755 0.001358 43627.600000 0 0 1
-28.263745 -33.948067 -13.061931 46.064353 0.876516 1.858299 -0.023597 -0.006288 214004.000000 0 0 1
-27.261015 -33.006767 -13.505831 44.888942 0.880448 1.876403 0.011868 -0.012109 448163.000000 0 0 1
-27.451175 -32.244467 -14.804931 44.860436 0.865522 1.907123 0.015845 -0.018851 -362638.000000 0 0 1
-26.992225 -32.991767 -15.914831 45.500756 0.885086 1.928123 0.009177 -0.021761 -179164.000000 0 0 1
-26.978215 -32.240467 -17.128531 45.394476 0.874027 1.957704 0.018103 -0.011999 -417556.000000 0 0 1
-26.054825 -32.861167 -18.161731 45.700752 0.900415 1.979484 0.015472 -0.010583 -505480.000000 0 0 1
-26.414455 -34.141267 -18.665031 47.029065 0.912311 1.978915 0.012966 -0.002827 -123290.000000 0 0 1
-25.794195 33.408542 -17.990131 45.881543 -0.913311 1.973709 -0.003256 -0.018004 -581293.000000 0 0 1
-25.931315 32.049542 -18.685231 45.263055 -0.890531 1.996338 0.008728 -0.026165 579190.000000 0 0 1
-27.271955 31.591842 -18.866731 45.801284 -0.858655 1.995363 0.023843 -0.016787 565950.000000 0 0 1
-28.005805 32.227242 -19.907631 47.108747 -0.855369 2.007096 0.023551 -0.007560 -730765.000000 0 0 1
-29.495895 31.944842 -20.020031 47.867342 -0.825236 2.002303 0.020192 -0.014270 -442944.000000 0 0 1
-29.837045 30.719242 -20.602431 47.522429 -0.799965 2.019203 0.018162 -0.015597 700555.000000 0 0 1
-31.253445 30.510242 -20.586731 48.285259 -0.773366 2.011257 0.022256 -0.011518 549148.000000 0 0 1
-31.540985 29.115942 -21.121931 47.840441 -0.745440 2.028075 0.025703 -0.015175 -957014.000000 0 0 1
-32.873485 28.764442 -21.264931 48.582471 -0.718832 2.023844 0.028971 -0.021228 -616448.000000 0 0 1
-32.973835 27.539842 -22.039231 48.285033 -0.695841 2.044787 0.028330 -0.011246 -1195660.000000 0 0 1
-34.321257 26.902742 -22.170131 48.920558 -0.664816 2.041133 0.042644 -0.010990 -670987.000000 0 0 1
-35.248312 27.642542 -22.984331 50.347126 -0.665047 2.044873 0.032256 -0.004809 505968.000000 0 0 1
35.974665 26.737042 -23.585531 50.649020 0.639147 2.055183 0.030523 -0.006630 508740.000000 0 0 1
34.969025 27.383242 -24.562431 50.754189 0.664333 2.075958 0.040865 -0.014894 86537.600000 0 0 1
35.580185 27.811342 -25.719691 51.970403 0.663453 2.088506 0.053611 -0.015351 786928.000000 0 0 1
34.504345 28.013742 -26.681191 51.838263 0.681949 2.111455 0.052221 -0.018560 743427.000000 0 0 1
35.003985 28.273642 -28.095811 53.047643 0.679434 2.128965 0.054094 -0.016825 42267.700000 0 0 1
35.492025 27.114942 -28.743391 53.113901 0.652384 2.142618 0.057000 -0.003424 32554.500000 0 0 1
-36.045815 27.406142 -29.970241 54.301131 -0.650070 2.155469 0.030782 -0.005162 -449664.000000 0 0 1
-35.434830 26.211542 -30.743461 53.738557 -0.636884 2.179852 0.018981 -0.004650 408301.000000 0 0 1
-34.441915 25.449842 -30.064741 52.324264 -0.636373 2.182893 0.026533 -0.004259 735345.000000 0 0 1
-33.132355 26.030842 -30.183491 51.830501 -0.665937 2.192413 -0.000892 0.010684 1190880.000000 0 0 1
-32.006445 25.284742 -29.346381 50.248789 -0.668607 2.194471 -0.010059 0.003506 592773.000000 0 0 1
-31.649865 23.920442 -29.644171 49.524523 -0.647192 2.212518 0.007792 0.000963 175091.000000 0 0 1
-32.093445 22.909242 -28.793381 48.825008 -0.619947 2.201516 0.012682 0.000481 -148231.000000 0 0 1
-31.779715 21.462542 -29.335171 48.281915 -0.593992 2.223808 -0.001010 -0.001796 -265641.000000 0 0 1
-30.420655 21.120742 -29.379151 47.271942 -0.606883 2.241443 0.047048 0.001062 -161614.000000 0 0 1
-30.444065 19.750742 -29.615811 46.840465 -0.575500 2.255276 0.036705 -0.006449 50087.100000 0 0 1
-29.010855 19.167342 -29.641781 45.690830 -0.583857 2.276733 0.072541 -0.011231 158355.000000 0 0 1
-28.279515 19.602942 -30.807341 46.185480 -0.606138 2.301019 0.094906 -0.020418 1213670.000000 0 0 1
-26.991275 19.000942 -31.048221 45.316187 -0.613383 2.325601 0.103513 -0.029158 787228.000000 0 0 1
-26.999255 17.603242 -31.743871 45.238339 -0.577773 2.348581 0.105592 -0.024615 -324303.000000 0 0 1
-27.539635 16.496142 -31.053421 44.663958 -0.539681 2.339589 0.077891 -0.021719 241711.000000 0 0 1
-27.359745 15.283842 -31.772881 44.628102 -0.509441 2.363064 0.049521 -0.017722 -31738.600000 0 0 1
-27.832075 13.982542 -31.080921 44.001813 -0.465557 2.355133 0.050973 -0.013857 -104560.000000 0 0 1
-29.232185 13.810342 -31.061841 44.833962 -0.441354 2.336188 0.025206 -0.014170 114995.000000 0 0 1
-29.799565 12.542642 -30.786571 44.644652 -0.398393 2.331721 0.018065 -0.004917 55047.300000 0 0 1
-29.295405 11.762942 -29.476161 43.190643 -0.381823 2.321928 -0.003093 -0.019029 -299006.000000 0 0 1
-29.717605 12.361642 -28.256501 42.829617 -0.394198 2.291272 -0.003199 -0.011589 379657.000000 0 0 1
-29.648665 11.467242 -27.204171 41.840267 -0.369050 2.278632 -0.001581 -0.012410 -109467.000000 0 0 1
-29.599315 12.149742 -25.831511 41.121803 -0.389503 2.249996 -0.007640 -0.016490 382258.000000 0 0 1
-28.285485 12.540842 -25.441061 40.057321 -0.417324 2.258956 0.001250 -0.018443 285050.000000 0 0 1
-28.208175 13.064442 -24.118331 39.345580 -0.433730 2.230632 -0.000174 -0.006969 736154.000000 0 0 1
-26.716315 13.341942 -23.690231 38.118184 -0.463162 2.241445 0.011052 -0.004294 44221.400000 0 0 1
-26.102945 14.190642 -24.609631 38.579425 -0.497948 2.262558 0.022951 -0.003764 908828.000000 0 0 1
-24.681235 14.320042 -24.379231 37.530972 -0.525733 2.277823 0.041732 -0.008867 1372050.000000 0 0 1
-24.147735 15.033542 -23.076231 36.628308 -0.556847 2.252363 0.036309 -0.006044 -739074.000000 0 0 1
-24.556735 16.377342 -22.942031 37.384320 -0.588177 2.231510 0.048957 -0.011518 88116.300000 0 0 1
-24.662035 16.729442 -21.548231 36.775216 -0.596046 2.196841 0.042915 -0.004518 -973994.000000 0 0 1
-26.043085 16.910642 -20.974831 37.472065 -0.575906 2.164875 0.032434 -0.012524 -822816.000000 0 0 1
-26.845085 15.719842 -21.079031 37.577887 -0.529746 2.166320 0.033918 -0.009390 182742.000000 0 0 1
-28.062105 16.005742 -20.426931 38.222049 -0.518347 2.134627 0.030934 -0.010769 -781014.000000 0 0 1
-29.136235 14.858942 -20.625231 38.666633 -0.471601 2.133425 0.001856 -0.019122 327338.000000 0 0 1
-29.748165 14.819542 -21.900031 39.801803 -0.462180 2.153433 -0.002485 -0.012221 385504.000000 0 0 1
-30.541705 15.973042 -22.186531 40.989950 -0.481871 2.142740 0.000715 -0.016620 -654232.000000 0 0 1
-31.089895 16.008442 -23.669831 42.226919 -0.475503 2.165833 -0.010273 -0.004704 -275059.000000 0 0 1
-32.023635 15.017042 -23.972131 42.728068 -0.438489 2.166437 -0.001556 -0.004407 -159536.000000 0 0 1
-32.189015 14.963342 -25.403131 43.650354 -0.435141 2.191944 0.013572 -0.012007 -232291.000000 0 0 1
-33.437215 14.220942 -25.932731 44.640666 -0.402127 2.190657 -0.005302 -0.008183 33247.900000 0 0 1
-33.342215 12.796542 -25.749161 44.028106 -0.366458 2.195473 0.012287 -0.012961 275659.000000 0 0 1
-33.640775 12.327642 -24.441031 43.370918 -0.351253 2.169455 0.009783 -0.010134 -430950.000000 0 0 1
-33.845065 10.755342 -24.342031 43.054620 -0.307689 2.171685 0.009101 -0.008851 -179814.000000 0 0 1
-35.048721 10.216842 -24.859231 44.167613 -0.283644 2.168612 0.021062 -0.014306 133078.000000 0 0 1
-34.786478 9.458942 -26.055771 44.480039 -0.265495 2.196645 0.019474 -0.012602 -4921.290000 0 0 1
36.017455 8.972742 -26.557661 45.640733 0.244152 2.191841 0.043358 -0.008821 192253.000000 0 0 1
35.273525 8.137542 -25.657251 44.370437 0.226732 2.187380 0.030910 -0.008377 -558750.000000 0 0 1
34.208765 7.539742 -26.310031 43.809874 0.216935 2.214985 0.040233 -0.006065 -751305.000000 0 0 1
33.351865 6.675342 -25.368331 42.431819 0.197539 2.211626 0.042055 -0.011727 -453175.000000 0 0 1
34.033125 5.578642 -24.857031 42.511726 0.162473 2.195319 0.033018 -0.014779 -182603.000000 0 0 1
33.236975 4.711142 -24.034531 41.286197 0.140806 2.192160 0.027832 -0.008828 154331.000000 0 0 1
33.987405 3.714842 -23.108731 41.266902 0.108868 2.165161 0.016745 -0.005098 -53595.600000 0 0 1
34.516635 2.594342 -23.779531 41.995176 0.075021 2.172739 0.017272 -0.011685 412896.000000 0 0 1
35.485545 1.899342 -22.990031 42.324614 0.053473 2.145020 0.039081 -0.010870 158305.000000 0 0 1
36.018145 0.660242 -23.663331 43.100997 0.018329 2.151988 0.060662 -0.006278 79218.900000 0 0 1
35.103525 -0.428658 -23.767431 42.394952 -0.012211 2.165930 0.017971 -0.007077 90712.300000 0 0 1
35.774425 -1.564058 -24.267731 43.257121 -0.043692 2.166403 0.041163 -0.010885 152153.000000 0 0 1
-22.751635 29.261642 27.361372 46.070873 -0.909911 0.934902 0.021724 -0.015780 -28183.000000 0 0 1
-24.014135 29.779142 26.879142 46.754297 -0.892160 0.958312 0.018012 -0.023318 1159570.000000 0 0 1
-24.273735 29.350042 25.549702 45.863128 -0.879782 0.979924 0.018220 -0.019155 -316099.000000 0 0 1
-24.882635 27.901242 25.526262 45.268255 -0.842524 0.971709 0.017697 -0.017914 340451.000000 0 0 1
-26.132105 27.752242 26.238232 46.276546 -0.815456 0.967952 0.027154 -0.016259 931018.000000 0 0 1
-25.988025 27.465342 27.580902 46.802015 -0.813029 0.940592 0.032425 -0.017863 -1065130.000000 0 0 1
-25.318755 26.089642 27.980932 45.876370 -0.800392 0.914836 0.032965 -0.019676 -247053.000000 0 0 1
-23.923835 26.136742 28.091002 45.217072 -0.829574 0.900462 0.032068 -0.023355 -574561.000000 0 0 1
-23.521035 26.470642 29.380432 46.012431 -0.844332 0.878206 0.026709 -0.019025 991847.000000 0 0 1
-22.037235 26.062542 29.768732 45.288776 -0.868890 0.853554 0.045044 -0.014538 1076000.000000 0 0 1
-20.971035 26.660642 29.021062 44.640746 -0.904285 0.863077 0.048957 -0.022982 415133.000000 0 0 1
-19.735835 26.499942 29.687902 44.419834 -0.930664 0.838811 0.059595 -0.023802 141900.000000 0 0 1
-18.980135 25.147042 29.548882 43.194394 -0.924252 0.817440 0.066947 -0.020859 -713340.000000 0 0 1
-18.521135 25.053542 28.228712 42.042510 -0.934203 0.834656 0.064929 -0.014040 -122313.000000 0 0 1
-19.261235 24.221742 27.351682 41.301362 -0.898986 0.846983 0.067878 -0.016058 -245142.000000 0 0 1
-19.270935 22.731742 27.484132 40.539839 -0.867607 0.825821 0.064171 -0.008331 24159.000000 0 0 1
-19.950635 22.259642 28.631712 41.391961 -0.840046 0.806926 0.072605 -0.005667 82895.400000 0 0 1
-20.084235 20.843342 28.514552 40.631282 -0.803944 0.792892 0.077071 -0.009830 242185.000000 0 0 1
-20.549435 20.225742 29.858762 41.507898 -0.777460 0.767928 0.081438 -0.012144 214240.000000 0 0 1
-19.501835 20.211042 30.810672 41.690590 -0.803255 0.739164 0.072328 -0.015075 236422.000000 0 0 1
-19.966735 19.812242 32.091082 42.673563 -0.781514 0.719685 0.076449 -0.015407 -217063.000000 0 0 1
-19.036935 20.199442 33.262331 43.322108 -0.815018 0.695410 0.076951 -0.014802 -391407.000000 0 0 1
-19.003335 21.576242 33.654014 44.263457 -0.848717 0.707004 0.049086 -0.013349 -24449.300000 0 0 1
-18.218735 22.380042 32.813770 43.698193 -0.887540 0.721345 0.058248 -0.008998 -1175190.000000 0 0 1
-16.764935 22.484842 33.191310 43.454508 -0.930110 0.701589 0.038626 -0.001827 -1086540.000000 0 0 1
-16.005235 21.301942 33.064608 42.464204 -0.926431 0.678290 0.039873 -0.021710 139659.000000 0 0 1
-14.703135 21.552242 33.604368 42.543329 -0.972111 0.660174 0.024259 -0.019898 -82565.200000 0 0 1
-13.760435 20.353542 33.291875 41.375901 -0.976311 0.635761 0.018203 -0.025071 139098.000000 0 0 1
-12.387735 20.394542 33.628034 41.233942 -1.024950 0.617130 0.012217 -0.026093 222089.000000 0 0 1
-12.135935 20.467042 -33.456311 41.054908 -1.035577 2.523381 0.021075 -0.032971 430182.000000 0 0 1
-10.602735 20.314542 -33.121991 40.276109 -1.089760 2.536366 0.016874 -0.023111 997769.000000 0 0 1
-9.880635 21.512842 -33.243461 40.811237 -1.140244 2.522778 0.025091 -0.024799 -300120.000000 0 0 1
-8.564035 21.323942 -32.759021 40.015081 -1.188898 2.529882 0.015898 -0.014440 190343.000000 0 0 1
-7.662135 22.595442 -32.710131 40.487220 -1.243864 2.511397 0.020653 -0.013834 206519.000000 0 0 1
-7.831235 23.490642 -31.560601 40.114961 -1.249007 2.476329 0.036309 -0.017629 -143756.000000 0 0 1
-7.260235 22.996042 -30.430091 38.826788 -1.264984 2.471461 0.040425 -0.016741 -444578.000000 0 0 1
-7.144835 24.108742 -29.331641 38.634509 -1.282684 2.432892 0.054088 -0.019914 337940.000000 0 0 1
-6.118835 25.034342 -29.706781 39.327488 -1.331079 2.427014 0.048740 -0.013474 462260.000000 0 0 1
-5.776935 26.055042 -28.796161 39.261395 -1.352606 2.394176 0.069037 -0.018421 207368.000000 0 0 1
-4.488835 26.829242 -29.191451 39.901112 -1.405021 2.391455 0.058272 -0.022651 577534.000000 0 0 1
-3.261535 26.237042 -28.707611 39.027515 -1.447120 2.397309 0.056230 -0.008367 1005990.000000 0 0 1
-2.116635 26.551642 -29.484391 39.734106 -1.491247 2.406908 0.056980 -0.011362 238850.000000 0 0 1
-1.463235 27.912142 -29.259771 40.464342 -1.518421 2.379076 0.058870 -0.015595 -435502.000000 0 0 1
-0.757535 27.970142 -28.002101 39.585608 -1.543719 2.356582 0.065471 -0.025784 545780.000000 0 0 1
0.039365 29.131742 -27.827131 40.286588 1.569445 2.333294 0.069776 -0.017984 -638226.000000 0 0 1
0.630465 29.122742 -26.395251 39.309552 1.549151 2.306989 0.072452 -0.032278 -96428.600000 0 0 1
1.530265 28.112242 -26.058951 38.362857 1.516416 2.317571 0.090577 -0.037209 -338841.000000 0 0 1
2.757165 28.080742 -26.725961 38.863956 1.472923 2.329085 0.075872 -0.034659 -891699.000000 0 0 1
3.994165 28.176042 -25.817671 38.423884 1.429977 2.307591 0.074545 -0.035819 -229226.000000 0 0 1
4.184065 27.048542 -24.942731 37.030661 1.417325 2.309824 0.092955 -0.033363 325916.000000 0 0 1
5.306265 27.252142 -24.090831 36.758725 1.378492 2.285478 0.071752 -0.027690 138097.000000 0 0 1
6.069265 26.046742 -23.587331 35.659935 1.341867 2.293549 0.069566 -0.031188 808742.000000 0 0 1
7.228565 26.421642 -22.799531 35.639500 1.303746 2.264939 0.063034 -0.034395 242962.000000 0 0 1
8.078765 25.349042 -22.575831 34.892815 1.262272 2.274446 0.049016 -0.024364 63777.400000 0 0 1
9.482065 25.685142 -22.023631 35.137963 1.217151 2.248205 0.035536 -0.010542 -366592.000000 0 0 1
9.748765 26.081742 -20.718531 34.706674 1.213098 2.210504 0.046315 -0.006871 -697737.000000 0 0 1
11.073665 26.274542 -20.334931 35.021237 1.171928 2.190318 0.069843 -0.015299 -192917.000000 0 0 1
11.943165 25.043942 -20.005831 34.206308 1.125808 2.195501 0.043399 0.000586 -162430.000000 0 0 1
12.091065 24.164442 -21.067131 34.262781 1.106856 2.233017 0.041573 0.001669 -77184.900000 0 0 1
12.178365 22.839142 -20.581331 33.068568 1.080925 2.242581 0.023083 0.010752 -322457.000000 0 0 1
12.424665 21.972742 -21.806031 33.356809 1.056163 2.283287 0.034355 -0.002798 -277815.000000 0 0 1
11.292165 22.009742 -22.639431 33.533351 1.096761 2.311940 0.039173 -0.016388 133585.000000 0 0 1
11.419265 20.984242 -23.555331 33.549839 1.072430 2.349138 0.035187 -0.020993 -171149.000000 0 0 1
10.505165 21.031942 -24.792731 34.166952 1.107560 2.382753 0.052662 -0.017760 -1212950.000000 0 0 1
9.251065 20.570342 -24.476731 33.284104 1.148168 2.397035 0.040214 -0.018956 -1276720.000000 0 0 1
8.585265 20.324942 -25.703611 33.874558 1.171130 2.432247 0.045042 -0.021741 407980.000000 0 0 1
7.061965 19.913842 -25.595551 33.189828 1.230006 2.451499 0.045877 -0.025853 1540470.000000 0 0 1
6.161065 21.044442 -25.433201 33.580873 1.285991 2.430075 0.064424 -0.027655 448553.000000 0 0 1
6.244465 21.679742 -24.134731 33.037703 1.290355 2.389881 0.067941 -0.031289 -482336.000000 0 0 1
4.834565 22.064542 -23.618631 32.681138 1.355095 2.378496 0.080234 -0.033915 454390.000000 0 0 1
4.218965 23.216042 -24.207931 33.805447 1.391032 2.368989 0.079622 -0.034490 -592050.000000 0 0 1
2.861265 23.276642 -23.907031 33.489328 1.448486 2.365806 0.090210 -0.029663 -408235.000000 0 0 1
2.160365 24.440142 -24.662631 34.788405 1.482631 2.358780 0.077106 -0.020225 -744810.000000 0 0 1
0.773465 24.410242 -24.643931 34.695555 1.539121 2.360707 0.085551 -0.042494 -807652.000000 0 0 1
0.268665 25.259742 -25.676331 36.019450 1.560161 2.364345 0.079227 -0.030864 -583625.000000 0 0 1
-1.232835 25.108642 -25.844731 36.054319 -1.521736 2.370038 0.091705 -0.033872 -673251.000000 0 0 1
-1.484735 23.772842 -26.331551 35.506381 -1.508422 2.406249 0.100484 -0.037707 -279255.000000 0 0 1
-2.784435 23.767742 -26.872131 35.982914 -1.454176 2.414037 0.097970 -0.026782 -268518.000000 0 0 1
-3.212535 22.386942 -27.382951 35.515090 -1.428269 2.451242 0.075156 -0.022933 -549503.000000 0 0 1
-2.526335 21.936742 -28.521391 36.070387 -1.456137 2.482772 0.081821 -0.027330 -170948.000000 0 0 1
-2.933235 20.652842 -28.945961 35.679300 -1.429714 2.517137 0.060594 -0.020883 -743350.000000 0 0 1
-3.992035 20.733242 -30.009031 36.692583 -1.380581 2.528461 0.050873 -0.018739 -645074.000000 0 0 1
-3.591835 21.095142 -31.326111 37.937205 -1.402145 2.542302 0.029026 -0.016454 -27249.400000 0 0 1
-3.231635 22.471242 -31.478751 38.811235 -1.427964 2.516781 0.038409 -0.017473 -46142.400000 0 0 1
-2.851135 22.783542 -32.950891 40.161922 -1.446303 2.532996 0.014536 -0.005584 -163959.000000 0 0 1
-1.697935 22.101242 -33.365611 40.057607 -1.494122 2.555197 0.019682 -0.009068 -56047.600000 0 0 1
-1.503835 22.334442 33.772275 40.517347 -1.503565 0.585336 0.012867 -0.000007 -150432.000000 0 0 1
-0.389935 21.418142 33.260603 39.562060 -1.552593 0.572185 0.020429 -0.000122 -110482.000000 0 0 1
-0.915535 20.159442 32.849728 38.553158 -1.525413 0.550882 0.017285 0.002060 -668898.000000 0 0 1
0.104665 19.410142 32.391932 37.762440 1.565404 0.539858 0.031677 0.002765 -1031040.000000 0 0 1
-0.339835 18.040542 31.948402 36.691648 -1.551961 0.514118 0.025926 0.007748 -156711.000000 0 0 1
-1.086935 18.036842 30.777002 35.689396 -1.510607 0.530890 0.011566 0.009883 -175595.000000 0 0 1
-1.560935 16.759542 30.487192 34.825101 -1.477927 0.504457 0.015418 0.007324 219200.000000 0 0 1
-2.609835 16.649042 29.324192 33.821740 -1.415306 0.521602 0.020326 0.011292 -295059.000000 0 0 1
-3.872935 17.149042 29.631552 34.454581 -1.348683 0.535492 0.002524 0.005674 -679349.000000 0 0 1
-4.266135 18.120342 28.778212 34.274367 -1.339574 0.574172 0.008235 0.005075 -369278.000000 0 0 1
-5.725035 18.561242 28.990132 34.895895 -1.271614 0.590324 -0.019063 0.007471 -339019.000000 0 0 1
-6.639635 17.684642 28.451142 34.151117 -1.211634 0.586116 -0.021679 0.006283 -1212770.000000 0 0 1
-7.962935 18.055942 28.665102 34.801056 -1.155440 0.602917 -0.032477 0.005196 -402796.000000 0 0 1
-8.980535 17.184942 27.826792 33.916111 -1.089247 0.608582 -0.023154 -0.000376 221204.000000 0 0 1
-9.197035 15.796242 28.121102 33.539575 -1.043546 0.576372 -0.010394 -0.007795 22134.600000 0 0 1
-9.979435 15.537142 29.257152 34.597296 -0.999856 0.563017 -0.012315 -0.010270 -475070.000000 0 0 1
-10.431135 14.056342 29.527992 34.326253 -0.932374 0.535103 -0.007728 -0.008268 396911.000000 0 0 1
-9.375435 13.091342 29.717962 33.799990 -0.949310 0.496553 0.004446 -0.009814 692224.000000 0 0 1
-8.613535 13.223942 30.939702 34.732273 -0.993466 0.471681 -0.000791 -0.005627 -186122.000000 0 0 1
-9.217235 12.814142 32.287962 35.939841 -0.947233 0.454708 0.024721 -0.014150 -421075.000000 0 0 1
-9.474435 11.413142 32.467110 35.695069 -0.877949 0.428552 0.017947 -0.015727 308908.000000 0 0 1
-10.087935 11.164042 33.719080 36.923957 -0.835991 0.419719 0.018311 -0.007129 -247545.000000 0 0 1
-10.550235 9.635342 33.792038 36.688542 -0.740105 0.400024 0.024294 -0.003556 -705372.000000 0 0 1
-9.572635 8.653042 33.886596 36.260335 -0.734985 0.363843 0.026890 -0.000513 -435500.000000 0 0 1
-9.098535 8.182142 -33.368631 35.541474 -0.732418 2.790114 0.050010 -0.009617 -26767.500000 0 0 1
-8.262935 9.049742 -32.411441 34.650764 -0.830814 2.780113 0.048035 -0.011723 -394931.000000 0 0 1
-9.012535 9.999342 -31.679641 34.421103 -0.837256 2.739784 0.035189 -0.006365 -147527.000000 0 0 1
-8.295535 10.747842 -30.715281 33.582146 -0.913468 2.725391 0.033230 -0.004981 -265522.000000 0 0 1
-7.406135 11.882242 -31.343421 34.328539 -1.013424 2.721479 0.020705 0.000303 212228.000000 0 0 1
-8.027135 13.066242 -31.863851 35.361937 -1.019898 2.693044 0.016328 -0.001145 -68568.600000 0 0 1
-7.050635 14.032942 -32.155791 35.785889 -1.105203 2.687275 0.011032 -0.001827 -202511.000000 0 0 1
-7.605635 15.336342 -32.649291 36.864960 -1.110416 2.658679 0.009462 0.002010 -324362.000000 0 0 1
-8.022035 15.360942 -33.999121 38.160868 -1.089519 2.670212 0.005546 -0.000593 -108147.000000 0 0 1
-8.464835 16.675042 -34.180165 38.961445 -1.101059 2.640966 0.024228 -0.004747 -1185860.000000 0 0 1
-8.922635 16.994342 32.815430 38.016753 -1.087321 0.529255 0.016706 -0.010373 281272.000000 0 0 1
-10.134535 16.449542 32.342952 37.674432 -1.018624 0.538487 -0.008322 -0.011571 271295.000000 0 0 1
-11.288735 16.854342 33.094032 38.816483 -0.980640 0.549900 -0.000842 -0.022988 -621929.000000 0 0 1
-12.593235 16.318742 32.497390 38.483390 -0.913549 0.565254 0.013113 -0.032236 -373646.000000 0 0 1
-12.615535 14.923642 32.433184 37.865264 -0.869015 0.542265 0.002477 -0.029060 -317174.000000 0 0 1
-13.895135 14.427942 32.661385 38.314571 -0.804208 0.550136 0.001163 -0.022971 -606957.000000 0 0 1
-13.957535 12.885942 32.484410 37.631067 -0.745499 0.529155 -0.002403 -0.013330 -38590.300000 0 0 1
-13.758535 12.430842 31.150472 36.251552 -0.734746 0.536923 -0.017762 -0.016078 252427.000000 0 0 1
-12.810435 11.360442 31.199722 35.589177 -0.725481 0.501914 -0.000968 -0.017243 91426.800000 0 0 1
-12.596035 10.797842 29.798522 34.105797 -0.708683 0.508022 0.002294 -0.013785 -234783.000000 0 0 1
-13.753535 10.121542 29.403462 34.002484 -0.634431 0.526155 -0.008868 -0.004181 -181268.000000 0 0 1
-13.592035 9.603142 28.139222 32.692194 -0.615093 0.534090 -0.014357 0.001214 -63792.000000 0 0 1
-14.483435 8.419742 27.816672 32.471976 -0.526583 0.542082 0.002322 0.003031 123288.000000 0 0 1
-13.971635 7.247742 28.472342 32.533223 -0.478532 0.504994 -0.025976 0.007933 431332.000000 0 0 1
-14.776735 6.123642 28.172402 32.396530 -0.392868 0.516381 -0.008748 0.008029 916919.000000 0 0 1
-13.803435 4.843542 28.135832 31.711508 -0.337471 0.479461 -0.004137 0.007618 1728730.000000 0 0 1
-12.842935 4.676842 27.051722 30.308571 -0.349231 0.467842 -0.001283 -0.002850 541689.000000 0 0 1
-13.445635 4.802442 25.745512 29.439428 -0.343052 0.506341 0.020818 -0.006409 -586372.000000 0 0 1
-12.606535 4.507642 24.506142 27.924802 -0.343397 0.500013 0.010708 -0.001636 -789944.000000 0 0 1
-12.089435 3.231042 24.595042 27.595474 -0.261158 0.470656 0.013753 -0.008194 -349366.000000 0 0 1
-11.416935 2.841542 23.440572 26.227489 -0.243932 0.465181 0.020879 -0.014545 -213361.000000 0 0 1
-10.459435 1.638442 23.690072 25.948098 -0.155385 0.420269 0.021290 -0.018040 -180850.000000 0 0 1
-9.239835 2.040142 24.260552 26.040567 -0.217312 0.371884 0.017283 -0.018905 -76739.400000 0 0 1
-8.499335 0.962742 24.839862 26.271359 -0.112792 0.331635 0.011775 -0.007064 -137085.000000 0 0 1
-6.996035 1.260742 24.810062 25.808393 -0.178295 0.279050 0.035106 -0.016885 -1155680.000000 0 0 1
-6.473935 1.128442 23.492452 24.394272 -0.172572 0.272758 0.033624 -0.011092 905021.000000 0 1 0
-5.090335 1.434242 23.240932 23.835047 -0.274638 0.223743 0.031645 -0.009312 1137090.000000 0 1 0
-4.554235 2.841542 23.711362 24.311399 -0.557832 0.222636 0.055831 -0.011806 -648972.000000 0 1 0
-4.475335 3.031542 25.124762 25.699660 -0.595389 0.211914 0.055276 -0.012056 10617.600000 0 0 1
-3.968735 4.295642 25.523602 26.185066 -0.824934 0.225247 0.054672 -0.020239 175635.000000 0 0 1
3.882965 -23.402258 12.941769 27.022814 -1.406372 1.071372 0.075025 -0.017056 197538.000000 0 0 1
3.795665 -24.631458 13.639569 28.410449 -1.417901 1.070039 0.080554 -0.023837 -288176.000000 0 0 1
2.551565 -25.205128 13.326369 28.625182 -1.469908 1.086544 0.073599 -0.022491 -64159.400000 0 0 1
2.240365 -26.447068 14.152369 30.079165 -1.486287 1.080934 0.060315 -0.017592 -26388.000000 0 0 1
1.962365 -26.136808 15.514969 30.458133 -1.495856 1.036324 0.069220 -0.020780 -633.339000 0 0 1
1.765465 -27.401898 16.150569 31.856267 -1.506457 1.039116 0.066812 -0.013288 -106237.000000 0 0 1
1.519965 -27.284318 17.677669 32.546033 -1.515145 0.996601 0.037004 -0.006123 1021850.000000 0 0 1
2.653565 -26.765798 18.442969 32.612765 -1.471979 0.969740 0.063046 -0.023896 1043070.000000 0 0 1
2.476865 -27.082498 19.755769 33.613791 -1.479594 0.942548 0.050568 -0.018982 398161.000000 0 0 1
3.421365 -26.247178 20.643869 33.567684 -1.441175 0.908420 0.059322 -0.020280 -106439.000000 0 0 1
2.657765 -25.222498 21.189769 33.049121 -1.465811 0.874788 0.049746 -0.019103 -197356.000000 0 0 1
3.343765 -24.304358 21.989369 32.945636 -1.434076 0.840025 0.059596 -0.030882 30099.500000 0 0 1
2.423065 -23.125758 22.507969 32.361715 -1.466399 0.801664 0.070990 -0.031428 397979.000000 0 0 1
1.847465 -22.144658 21.646869 31.022345 -1.487562 0.798498 0.059388 -0.030587 4440.710000 0 0 1
2.648265 -21.661858 20.598269 30.008966 -1.449145 0.814264 0.041592 -0.020383 -113037.000000 0 0 1
1.825265 -20.572958 19.885869 28.670995 -1.482306 0.804338 0.023319 -0.023911 326598.000000 0 0 1
1.598365 -19.492858 20.773469 28.531794 -1.488982 0.755277 0.027821 -0.023445 -125046.000000 0 0 1
0.801365 -18.528058 20.111769 27.357163 -1.527572 0.744900 0.031921 -0.022783 50544.000000 0 0 1
0.491265 -17.221958 20.931669 27.110366 -1.542279 0.688671 0.023028 -0.025055 -79840.500000 0 0 1
1.578165 -16.346858 21.132669 26.763782 -1.474552 0.660640 0.003784 -0.002949 -480518.000000 0 0 1
1.247965 -15.038458 21.565969 26.321163 -1.488001 0.610538 0.005506 -0.000009 -50509.500000 0 0 1
2.377865 -14.030558 21.254869 25.578902 -1.402914 0.589978 -0.005052 0.003901 -115155.000000 0 0 1
2.751565 -13.811958 19.831569 24.323495 -1.374155 0.617505 -0.014832 0.012555 -327657.000000 0 1 0
1.809265 -13.297358 18.926469 23.201387 -1.435565 0.616776 -0.009065 0.017287 -261879.000000 0 1 0
1.110665 -11.972058 19.306469 22.744306 -1.478290 0.556993 -0.007303 0.007868 -229087.000000 0 1 0
1.783165 -10.807858 18.856569 21.807330 -1.407282 0.526264 -0.007029 -0.001286 -233533.000000 0 1 0
1.616365 -9.731358 19.721769 22.051307 -1.406200 0.463802 -0.005782 -0.012207 949834.000000 0 1 0
0.157265 -9.147458 19.896969 21.899545 -1.553606 0.430981 0.011451 -0.014575 865902.000000 0 1 0
-0.170935 -8.355058 21.036969 22.636039 1.550340 0.378128 0.011580 -0.016471 -683960.000000 0 1 0
-1.540035 -8.140758 21.199969 22.761422 1.383830 0.372558 0.018598 -0.010950 -368296.000000 0 1 0
-1.927735 -7.314058 22.446969 23.687085 1.313091 0.325015 0.016519 -0.013001 -381687.000000 0 1 0
-1.975735 -8.159258 23.529869 24.982629 1.333223 0.342705 0.019683 -0.011298 62420.200000 0 1 0
-1.784035 -7.468258 24.737569 25.901833 1.336308 0.300965 0.014855 -0.002804 -335588.000000 0 0 1
-1.997035 -8.326858 26.027469 27.399888 1.335412 0.317844 0.020567 -0.006286 -32614.300000 0 0 1
-0.948535 -9.251858 26.238869 27.838370 1.468630 0.340633 0.021923 -0.005007 -210005.000000 0 0 1
-1.215735 -10.299158 27.140369 29.054264 1.453298 0.364991 0.031197 -0.010812 7401.000000 0 0 1
0.009365 -11.234258 27.296969 29.518353 -1.569963 0.390430 0.038727 -0.016115 532209.000000 0 0 1
0.952065 -10.785958 28.265569 30.268559 -1.482756 0.365833 0.020667 -0.013839 595344.000000 0 0 1
2.179565 -11.536858 28.330269 30.666818 -1.384075 0.392885 0.036935 -0.021328 728247.000000 0 0 1
3.000365 -10.966358 29.503569 31.618409 -1.303735 0.367819 0.036766 -0.020665 -90350.900000 0 0 1
2.423765 -11.162758 30.792769 32.843209 -1.356986 0.355223 0.035191 -0.016006 179850.000000 0 0 1
2.989665 -10.177258 31.690269 33.418375 -1.285075 0.322996 0.041042 -0.014827 284103.000000 0 0 1
2.461165 -10.331758 33.132469 34.793146 -1.336941 0.310208 0.031261 -0.005541 -141885.000000 0 0 1
3.199765 -11.319058 33.824469 35.811370 -1.295297 0.334674 0.026436 -0.015647 61526.700000 0 0 1
2.893165 -11.403758 -33.269894 35.288836 -1.322336 2.801693 0.018764 -0.011315 -284422.000000 0 0 1
3.448865 -10.297558 -32.361594 34.135131 -1.247618 2.817825 0.011019 -0.000632 -271246.000000 0 0 1
3.022265 -8.977258 -32.606194 33.954221 -1.246057 2.858867 0.022558 -0.003673 35527.400000 0 0 1
3.102865 -8.257758 -31.381194 32.597510 -1.211367 2.867558 0.028174 -0.003036 -85311.100000 0 0 1
2.412465 -6.882458 -31.518294 32.351060 -1.233655 2.914204 0.003214 -0.012598 172544.000000 0 0 1
3.082765 -5.993558 -32.410694 33.104067 -1.095738 2.936562 0.039705 -0.009106 128308.000000 0 0 1
3.232065 -4.727658 -31.766794 32.278882 -0.971128 2.963230 0.026673 -0.005369 171658.000000 0 0 1
3.353365 -3.620458 -32.834594 33.203364 -0.823679 2.992415 0.029631 0.003012 -372125.000000 0 0 1
2.112665 -3.410258 -33.434394 33.674203 -1.016160 3.022178 0.039508 -0.000404 -565091.000000 0 0 1
2.258765 -2.566958 33.919669 34.091571 -0.849176 0.100465 0.055426 0.001168 136197.000000 0 0 1
1.702665 -3.010258 32.540569 32.723834 -1.056039 0.105883 0.045788 -0.004822 1381060.000000 0 0 1
0.259565 -2.985158 32.396869 32.535145 -1.484063 0.092229 0.043411 -0.007979 986115.000000 0 0 1
-0.080435 -3.377358 31.097769 31.280733 1.546985 0.108211 0.029608 0.002661 1968570.000000 0 0 1
-1.646235 -3.709358 30.858469 31.124179 1.153105 0.130761 0.034697 -0.006007 2140270.000000 0 0 1
-2.332735 -2.490258 30.667169 30.856414 0.818047 0.110809 0.041975 -0.008938 -390966.000000 0 0 1
-3.724535 -2.672158 30.558769 30.900662 0.622340 0.148894 0.026794 -0.006199 -160336.000000 0 0 1
-4.446035 -1.550158 29.810969 30.180525 0.335481 0.156652 0.031614 -0.016859 -323297.000000 0 0 1
-4.209935 -1.531258 28.392569 28.743804 0.348849 0.156489 0.028308 -0.011838 -86707.400000 0 0 1
-5.016835 -0.669858 27.602169 28.062378 0.132737 0.181353 0.029647 -0.012094 -19735.600000 0 0 1
-5.099435 0.848342 27.863769 28.339258 -0.164850 0.183443 0.045928 -0.015525 -399962.000000 0 0 1
-6.207235 1.055842 28.688469 29.371292 -0.168486 0.216049 0.041215 -0.012521 -476951.000000 0 0 1
-6.661235 2.410142 28.727469 29.587976 -0.347162 0.241765 0.038026 -0.013572 -750057.000000 0 0 1
-8.053435 2.492042 29.320169 30.508038 -0.300093 0.279970 0.019124 -0.011180 -924582.000000 0 0 1
-9.062535 2.266342 28.385869 29.883497 -0.245052 0.317930 0.003768 -0.007329 -991753.000000 0 0 1
-10.309335 2.554042 28.931969 30.819869 -0.242851 0.351829 -0.005659 0.000233 -453095.000000 0 0 1
-11.460335 1.905142 28.122669 30.427838 -0.164732 0.391752 0.000854 0.005442 -129507.000000 0 0 1
-11.572435 0.534942 28.475269 30.741639 -0.046193 0.386386 0.010410 0.008351 123812.000000 0 0 1
-11.859735 -0.184258 27.280069 29.747091 0.015535 0.410136 0.016834 0.008141 -881508.000000 0 0 1
-11.940735 -1.711658 27.592869 30.114404 0.142376 0.412134 0.023348 0.003314 258852.000000 0 0 1
-10.746135 -2.378958 28.028869 30.112395 0.217864 0.374178 0.027947 -0.006875 1296570.000000 0 0 1
-9.599735 -2.323358 27.150669 28.891378 0.237457 0.348898 0.026449 -0.007839 249215.000000 0 0 1
-9.683235 -3.143858 25.822869 27.757331 0.313934 0.375544 0.026662 -0.007051 -497503.000000 0 0 1
-10.558535 -2.585958 24.844369 27.118490 0.240188 0.412450 0.020292 -0.001234 309968.000000 0 0 1
-10.367935 -3.041858 23.503969 25.868582 0.285382 0.430897 0.023407 -0.008189 39070.500000 0 0 1
-9.218835 -2.315458 22.752769 24.658401 0.246076 0.395721 0.018253 -0.010333 866186.000000 0 1 0
-7.911035 -2.665458 23.214169 24.669552 0.324983 0.345209 0.018588 -0.014674 28079.600000 0 1 0
-6.950735 -2.010258 22.413469 23.552440 0.281533 0.312262 0.013666 -0.012354 380585.000000 0 1 0
-5.502835 -2.364058 22.885169 23.655885 0.405767 0.255964 0.016272 -0.007382 408656.000000 0 1 0
-5.058835 -3.662258 22.550269 23.399115 0.626608 0.270179 0.024382 -0.016343 -155140.000000 0 1 0
-5.412835 -4.697258 23.445469 24.516383 0.714737 0.296659 0.023105 -0.012585 -138046.000000 0 1 0
-5.249835 -6.089958 22.810769 24.186350 0.859349 0.338886 0.030172 -0.019268 -260980.000000 0 1 0
-6.244835 -6.456358 21.870069 23.642809 0.802050 0.389708 0.031207 -0.025900 49280.000000 0 1 0
-6.074935 -5.926558 20.546869 22.230671 0.773036 0.391710 0.037770 -0.033949 -1187240.000000 0 1 0
-7.337735 -6.015858 19.712969 21.877706 0.686729 0.448605 0.031251 -0.025970 -1112860.000000 0 1 0
-8.153035 -4.966758 20.056269 22.212487 0.547150 0.444263 0.026615 -0.023606 -935324.000000 0 1 0
-9.152335 -4.814658 19.060769 21.685458 0.484276 0.497108 0.031979 -0.019298 268699.000000 0 1 0
-9.694435 -3.373458 19.192869 21.765305 0.334873 0.491109 0.020504 -0.018151 39011.700000 0 1 0
-8.653335 -2.498558 18.889969 20.927349 0.281094 0.444920 0.014187 -0.014525 123462.000000 0 1 0
-9.209135 -1.186958 18.706369 20.884091 0.128182 0.460741 0.010540 -0.011461 -43520.200000 0 1 0
-8.138735 -0.245958 18.147869 19.890818 0.030211 0.421749 -0.003546 -0.012783 -150322.000000 0 1 0
-7.043735 0.131042 18.978869 20.244230 -0.018602 0.355435 0.004737 -0.007794 533467.000000 0 1 0
-7.395635 0.840442 20.151469 21.482166 -0.113155 0.353821 0.017087 -0.011131 -535919.000000 0 1 0
-7.489035 2.366042 20.123369 21.601708 -0.306010 0.372106 0.019432 -0.013379 -857662.000000 0 1 0
-8.585335 2.783542 19.394369 21.391532 -0.313527 0.435551 0.013895 -0.014656 -364002.000000 0 1 0
-8.499435 4.183842 19.255369 21.459594 -0.457428 0.457216 0.012691 -0.010284 -153678.000000 0 1 0
-9.265735 4.669142 18.032569 20.804525 -0.466775 0.522124 0.008490 -0.008091 -1120750.000000 0 1 0
-10.648335 4.487942 18.193969 21.553403 -0.398876 0.565848 0.012574 -0.008197 -423188.000000 0 1 0
-11.415435 4.988842 17.137469 21.187108 -0.412013 0.628580 0.016226 -0.002421 -207968.000000 0 1 0
-11.490535 6.515142 16.961369 21.498082 -0.515802 0.661663 0.020494 -0.004160 -1509150.000000 0 1 0
-10.258035 7.108142 16.643969 20.803237 -0.605968 0.643391 0.011358 -0.007652 -48730.900000 0 1 0
-10.396335 8.471442 16.528969 21.285111 -0.683730 0.681624 0.007306 -0.010249 548674.000000 0 1 0
-9.058035 9.296142 16.499869 20.993140 -0.798370 0.666541 -0.000588 -0.009238 567989.000000 0 1 0
-8.462535 9.618342 17.750569 21.890859 -0.849236 0.625165 0.009743 0.002417 162327.000000 0 1 0
-7.592935 10.793642 17.693769 22.073170 -0.957750 0.640836 0.016011 -0.006780 437088.000000 0 1 0
-8.108535 12.199442 17.275169 22.649640 -0.984181 0.703299 0.012565 -0.003982 -300095.000000 0 1 0
-8.389535 12.439342 15.909969 21.868897 -0.977435 0.756102 0.019331 -0.016645 27816.400000 0 1 0
-9.181735 13.606042 15.733469 22.736990 -0.977165 0.806573 0.031292 -0.023082 20063.100000 0 1 0
-8.822635 14.281842 14.399469 22.116840 -1.017426 0.861811 0.015406 -0.016399 -207172.000000 0 1 0
-7.625935 14.987242 14.402469 22.140538 -1.100111 0.862551 0.019819 -0.005874 -606826.000000 0 1 0
-7.447935 15.635842 13.112269 21.722866 -1.126257 0.922768 0.009899 -0.012720 -142185.000000 0 1 0
-6.510235 16.862242 13.191669 22.377187 -1.202344 0.940339 -0.010843 -0.004718 -334191.000000 0 1 0
-5.159235 16.540242 13.245069 21.808924 -1.268440 0.918109 -0.004776 -0.007855 -766380.000000 0 1 0
-4.359835 17.689842 13.497569 22.674282 -1.329152 0.933181 -0.003452 -0.004110 1308530.000000 0 1 0
-2.848735 17.423042 13.893769 22.465852 -1.408727 0.904041 0.006687 -0.001806 1003230.000000 0 1 0
-2.525035 16.686442 15.073669 22.628050 -1.420613 0.841762 0.014510 -0.006799 -74974.200000 0 1 0
-2.744435 15.292742 14.903369 21.529289 -1.393227 0.806212 0.005883 -0.011459 -660125.000000 0 1 0
-1.793835 14.566642 15.841069 21.595008 -1.448266 0.747262 0.011430 -0.003017 -495603.000000 0 1 0
-0.531635 14.360042 15.233469 20.941634 -1.533791 0.756234 0.020808 -0.013498 -79442.500000 0 1 0
0.461365 13.952842 16.191069 21.378620 1.537742 0.711553 0.022698 -0.000351 308913.000000 0 1 0
1.370665 15.028442 16.715669 22.519911 1.479843 0.734357 0.015117 -0.004570 -532914.000000 0 1 0
0.785065 15.829442 17.731369 23.782116 1.521242 0.729398 0.011403 0.000881 -599906.000000 0 1 0
1.657165 16.835942 18.124969 24.793339 1.472682 0.750949 0.027747 -0.003132 -689118.000000 0 1 0
0.955865 17.928342 18.986469 26.130923 1.517531 0.757451 0.034753 -0.002049 603299.000000 0 0 1
0.108165 18.927242 18.441069 26.425844 1.565082 0.798416 0.023483 0.000633 -228085.000000 0 0 1
-0.883635 18.511442 17.567269 25.535529 -1.523098 0.812130 0.022385 0.003026 -815766.000000 0 0 1
-1.504835 19.720542 16.737369 25.909532 -1.494636 0.868473 0.021511 0.000083 176679.000000 0 0 1
-2.160835 20.732342 17.471469 27.198372 -1.466946 0.873207 0.014211 -0.005050 100812.000000 0 0 1
-2.867235 21.578442 16.587669 27.367882 -1.438695 0.919648 0.029213 -0.011682 -496215.000000 0 0 1
-3.563335 22.715842 17.373269 28.819045 -1.415199 0.923741 0.023352 -0.004875 -517230.000000 0 0 1
-4.713035 22.274342 18.018569 29.034942 -1.362281 0.901311 0.031162 -0.002916 -452007.000000 0 0 1
-4.846935 23.012842 19.198469 30.358935 -1.363212 0.886171 0.027036 0.003647 420384.000000 0 0 1
-5.994435 22.529442 20.153469 30.816738 -1.310750 0.857965 0.016338 0.001746 1058720.000000 0 0 1
-7.296035 22.992942 19.785469 31.198915 -1.263530 0.883860 0.011465 0.003408 258208.000000 0 0 1
-8.336135 22.238342 20.342069 31.270350 -1.212154 0.862524 -0.008512 -0.005862 -342565.000000 0 0 1
-9.725235 22.533442 19.791269 31.528250 -1.163356 0.892161 -0.003203 -0.010460 -587871.000000 0 0 1
-10.173835 23.813042 20.199369 32.841778 -1.167032 0.908346 0.013845 -0.007759 148931.000000 0 0 1
-11.307235 24.176942 19.411569 33.002835 -1.133332 0.941991 0.007218 -0.010075 275914.000000 0 0 1
-11.763035 25.655742 19.686869 34.411610 -1.140900 0.961733 0.015035 -0.006958 -210535.000000 0 0 1
-12.487535 25.841642 20.852769 35.476288 -1.120652 0.942466 0.014038 -0.010994 -179135.000000 0 0 1
-12.879135 27.214942 20.982969 36.698913 -1.128787 0.962147 0.018701 -0.018634 -833088.000000 0 0 1
-13.810835 27.215542 22.142369 37.705562 -1.101197 0.943147 0.039465 -0.030383 -980436.000000 0 0 1
-15.063835 26.592342 22.003569 37.659379 -1.055394 0.946805 0.036923 -0.028385 -157937.000000 0 0 1
-15.739635 26.650442 23.229469 38.698713 -1.037320 0.926964 0.030804 -0.024889 -92642.500000 0 0 1
-17.180835 26.109542 23.241669 38.949512 -0.988798 0.931398 0.048306 -0.027159 -91571.400000 0 0 1
-17.296135 24.721242 23.053069 37.970253 -0.960308 0.918346 0.051304 -0.024901 -1129170.000000 0 0 1
-18.535935 24.207042 23.355969 38.406550 -0.917307 0.917100 0.062647 -0.018373 -1002250.000000 0 0 1
27.071565 24.441542 23.586152 43.434608 0.734387 0.996759 0.074299 -0.037057 -37333.600000 0 0 1
26.814865 23.575242 24.691272 43.410689 0.721196 0.965771 0.080440 -0.045051 317667.000000 0 0 1
26.471665 22.262042 24.193282 42.209744 0.699232 0.960429 0.083049 -0.035137 -239559.000000 0 0 1
26.209165 21.226742 25.375352 42.206675 0.680747 0.925774 0.081536 -0.033612 -219317.000000 0 0 1
25.139465 21.496642 26.251352 42.228330 0.707445 0.899946 0.083449 -0.031241 71207.700000 0 0 1
25.233465 20.935142 27.508252 42.798503 0.692565 0.872729 0.084721 -0.029431 -385486.000000 0 0 1
23.857765 21.055942 28.153492 42.487231 0.723097 0.846466 0.081164 -0.026453 -507634.000000 0 0 1
23.573965 22.340742 28.634072 43.298391 0.758546 0.848220 0.082782 -0.031373 40670.500000 0 0 1
22.290965 22.448342 29.210482 43.058884 0.788916 0.825235 0.095420 -0.031239 -151465.000000 0 0 1
21.978765 23.749042 30.013712 44.135088 0.824092 0.822976 0.080590 -0.035945 -309746.000000 0 0 1
21.596365 24.774542 29.150972 43.931311 0.853829 0.845232 0.064911 -0.037418 5656.280000 0 0 1
21.216665 25.901342 29.916892 44.900410 0.884497 0.841568 0.070766 -0.040519 669268.000000 0 0 1
19.767165 26.058542 30.502372 44.723407 0.921834 0.820272 0.075257 -0.037887 -532792.000000 0 0 1
18.777265 26.216342 29.523332 43.720812 0.949252 0.829466 0.078457 -0.039326 937091.000000 0 0 1
17.535565 26.750842 30.060442 43.894576 0.990554 0.816422 0.067015 -0.035906 1199720.000000 0 0 1
16.601765 25.738942 30.765072 43.411996 0.997940 0.783175 0.047191 -0.017617 -803394.000000 0 0 1
17.144665 25.276442 31.953652 44.202646 0.974792 0.762821 0.048311 -0.025749 -437195.000000 0 0 1
16.195365 24.552642 32.669228 43.959078 0.987689 0.732995 0.033333 -0.018997 -46651.600000 0 0 1
16.730765 23.946142 34.053394 44.866133 0.960955 0.709021 0.042391 -0.019734 -34152.100000 0 0 1
17.202165 24.984842 -33.588121 45.258355 0.967828 2.407057 0.051169 -0.021512 110943.000000 0 0 1
17.421565 24.531142 -32.272071 44.122267 0.953270 2.391204 0.019850 -0.008927 -100627.000000 0 0 1
17.797565 25.658342 -31.289271 44.205456 0.964354 2.357196 0.026212 0.009364 638141.000000 0 0 1
16.715665 26.594142 -31.149081 44.237169 1.009651 2.352005 0.039979 -0.010933 880470.000000 0 0 1
17.295365 27.752342 -30.579001 44.770498 1.013490 2.322681 0.048758 -0.010345 230982.000000 0 0 1
16.713865 28.270242 -29.217331 43.956937 1.036859 2.297863 0.061279 -0.000721 -188977.000000 0 0 1
16.929165 27.388642 -28.110751 42.742820 1.017168 2.288520 0.045284 0.008785 258854.000000 0 0 1
16.590465 27.988342 -26.860241 42.190798 1.035715 2.260926 0.035960 0.011634 -410701.000000 0 0 1
17.170965 27.184042 -25.734911 41.183733 1.007425 2.245775 0.025547 0.014312 341010.000000 0 0 1
18.558865 27.523042 -25.638961 41.944078 0.977526 2.228455 0.036498 0.016231 196321.000000 0 0 1
19.211665 26.742242 -24.683831 41.152486 0.947827 2.214065 0.032668 0.011624 -199212.000000 0 0 1
20.743965 26.899742 -24.649431 41.970260 0.913891 2.198524 0.024836 0.011830 -39629.000000 0 0 1
21.183065 26.316342 -23.477131 41.139371 0.893051 2.178122 0.023716 0.018354 -1413860.000000 0 0 1
22.547065 26.446542 -23.362531 41.875979 0.864822 2.162647 0.026644 0.015420 -858807.000000 0 0 1
23.117665 26.274542 -21.916731 41.293112 0.849226 2.130293 0.027078 0.011223 180553.000000 0 0 1
23.089165 24.899842 -21.539831 40.212884 0.823111 2.136068 0.041870 0.009865 -108267.000000 0 0 1
23.722265 24.681842 -20.305231 39.802533 0.805220 2.106155 0.045569 -0.002088 -684111.000000 0 0 1
23.203665 23.620542 -19.324731 38.337779 0.794301 2.099095 0.041314 -0.005990 -739213.000000 0 0 1
23.510965 22.266642 -19.560431 37.830931 0.758223 2.114196 0.038097 0.001010 289147.000000 0 0 1
23.179665 21.491842 -18.371131 36.560835 0.747633 2.097262 0.039340 0.001570 -702364.000000 0 0 1
23.259165 19.910542 -18.502131 35.773556 0.707984 2.114374 0.051045 -0.005481 139863.000000 0 0 1
22.532365 19.223042 -19.515231 35.469382 0.706309 2.153399 0.053694 -0.011560 -806037.000000 0 0 1
21.177765 19.494142 -19.546931 34.793704 0.744027 2.167350 0.051683 -0.016654 -1388150.000000 0 0 1
20.545365 19.319442 -20.959531 35.137655 0.754656 2.209927 0.040235 -0.008721 78607.400000 0 0 1
21.029565 20.170742 -22.026431 36.527594 0.764556 2.218063 0.033369 -0.004745 146592.000000 0 0 1
20.790665 21.584942 -21.744131 37.026595 0.804140 2.198462 0.032633 0.002912 94162.900000 0 0 1
20.526565 22.525042 -22.960831 38.156483 0.831785 2.216492 0.038914 0.007123 867693.000000 0 0 1
19.178765 22.413442 -23.441331 37.678687 0.863013 2.242267 0.047524 0.003355 423767.000000 0 0 1
18.848065 23.092242 -24.644131 38.676019 0.886251 2.261648 0.034104 0.002100 1641690.000000 0 0 1
17.277265 23.016742 -24.959031 38.094981 0.926886 2.285216 0.034087 -0.000983 1817880.000000 0 0 1
16.562365 23.789942 -23.970831 37.614811 0.962631 2.261748 0.026869 0.001519 24832.700000 0 0 1
15.182065 23.782142 -24.260331 37.210873 1.002633 2.280974 0.034258 -0.000131 287247.000000 0 0 1
14.382265 24.923342 -23.537931 37.176024 1.047415 2.256410 0.023645 0.000330 257368.000000 0 0 1
14.555765 26.195942 -24.150931 38.488507 1.063626 2.249114 0.009784 0.005240 648816.000000 0 0 1
13.541365 27.077242 -23.606731 38.390407 1.107068 2.233071 0.019338 0.004881 813178.000000 0 0 1
13.511465 28.515142 -24.205031 39.768789 1.128299 2.225147 0.013547 0.002488 -53470.000000 0 0 1
13.214465 28.451542 -25.573971 40.473947 1.135987 2.254750 0.023018 -0.003030 97859.200000 0 0 1
12.576365 29.585342 -26.192711 41.467042 1.168851 2.254478 0.037665 -0.005731 107124.000000 0 0 1
13.345365 30.938642 -26.099051 42.619935 1.163560 2.229848 0.057404 -0.005003 -898199.000000 0 0 1
14.607365 30.914742 -26.630041 43.338845 1.129386 2.232499 0.047436 0.000550 -1025100.000000 0 0 1
15.243265 32.183242 -26.563901 44.427008 1.128458 2.211703 0.047236 -0.000908 -85744.100000 0 0 1
16.654065 32.210742 -27.162081 45.306384 1.093614 2.213698 0.040629 0.017316 -310213.000000 0 0 1
17.614065 31.520242 -26.401291 44.730405 1.061209 2.202142 0.015752 0.018291 874617.000000 0 0 1
18.907265 31.598542 -27.059661 45.696584 1.031584 2.204532 0.025701 0.021009 1058360.000000 0 0 1
20.025865 30.836742 -26.254521 45.180082 0.994832 2.190886 0.011943 0.025517 -740139.000000 0 0 1
20.372565 31.637742 -25.118971 45.243241 0.998698 2.159398 0.020789 0.021449 671443.000000 0 0 1
21.515565 32.488042 -25.280681 46.448953 0.985850 2.146313 0.031111 0.009638 -338840.000000 0 0 1
22.860565 31.831742 -25.542191 46.778935 0.947980 2.148401 0.024799 0.019589 -1394960.000000 0 0 1
23.084465 31.407742 -26.910981 47.366019 0.936969 2.175052 0.027454 0.022716 270805.000000 0 0 1
23.958365 32.291442 -27.610391 48.775754 0.932473 2.172524 0.012322 0.032054 -814878.000000 0 0 1
24.143265 31.817642 -29.072891 49.401342 0.921686 2.200004 0.008454 0.028438 -219547.000000 0 0 1
23.153365 32.140442 -30.027001 49.706208 0.946522 2.219419 0.026710 0.010752 -221711.000000 0 0 1
21.915765 31.506842 -29.753621 48.561918 0.963038 2.230262 0.021079 0.019411 -935219.000000 0 0 1
20.824065 32.049242 -30.659601 48.998028 0.994595 2.246865 0.017075 0.011784 -1160640.000000 0 0 1
20.299165 33.283742 -30.143961 49.280037 1.023142 2.228988 0.034618 0.015484 451681.000000 0 0 1
19.315565 33.740842 -31.082651 49.776166 1.050867 2.245222 0.034951 0.000100 883786.000000 0 0 1
17.802465 33.379042 -30.860571 48.820724 1.080832 2.255083 0.039650 -0.002188 299160.000000 0 0 1
17.516065 32.016842 -31.121031 47.962582 1.070191 2.276882 0.041998 -0.003278 6175.250000 0 0 1
17.741365 31.433142 -32.401171 48.503962 1.056953 2.302329 0.048084 -0.012149 -436894.000000 0 0 1
17.028565 32.086042 -33.655921 49.519765 1.082879 2.318077 0.050405 -0.017990 -25773.900000 0 0 1
17.502465 33.405942 -33.842561 50.671612 1.088186 2.302153 0.040360 -0.016210 167821.000000 0 0 1
17.253665 33.803242 33.293175 50.485480 1.098852 0.850696 0.034025 -0.018953 69825.500000 0 0 1
15.876465 -34.191567 32.934765 50.058208 -1.136083 0.852730 0.041823 -0.020593 -1245310.000000 0 0 1
14.864465 33.503442 32.970186 49.299758 1.153219 0.838244 0.051268 -0.019397 -796330.000000 0 0 1
13.566665 34.030742 32.840392 49.199971 1.191446 0.839966 0.047413 -0.019047 -130076.000000 0 0 1
13.232365 -33.967667 31.469032 48.158051 -1.199324 0.858659 0.040753 -0.016762 -1776100.000000 0 0 1
13.924265 -32.860867 31.089572 47.331631 -1.169999 0.854169 0.037141 -0.011643 -102539.000000 0 0 1
13.304865 -32.326967 29.908512 46.006210 -1.180354 0.863084 0.035899 -0.014913 409643.000000 0 0 1
13.937465 -30.967167 29.446152 44.947684 -1.147882 0.856454 0.023580 -0.011050 153754.000000 0 0 1
13.567165 -29.919667 30.361632 44.733468 -1.145075 0.824774 0.022929 -0.009997 219980.000000 0 0 1
14.067865 -28.657967 30.026872 43.826898 -1.114464 0.816022 0.030726 -0.017811 -397111.000000 0 0 1
13.639165 -27.607567 31.063092 43.739231 -1.111930 0.781031 0.044167 -0.016774 -587197.000000 0 0 1
12.279465 -27.284267 30.995082 43.080293 -1.147895 0.767754 0.052368 -0.016149 -277333.000000 0 0 1
11.916565 -26.216267 30.120472 41.671813 -1.144166 0.762948 0.047987 -0.012867 -304284.000000 0 0 1
12.186065 -24.794067 30.643882 41.258859 -1.113979 0.733669 0.058609 -0.016045 -359048.000000 0 0 1
11.196665 -24.361867 31.541052 41.396906 -1.139989 0.704527 0.046908 -0.023412 -22949.700000 0 0 1
11.594765 -23.254567 32.318872 41.469543 -1.108268 0.677185 0.053887 -0.023869 634779.000000 0 0 1
10.479865 -22.859367 33.378434 41.791125 -1.140938 0.645670 0.061299 -0.021855 274928.000000 0 0 1
10.448965 -23.503367 -33.817781 42.488016 -1.152465 2.491350 0.068440 -0.018266 743511.000000 0 0 1
11.661165 -23.663767 -33.051751 42.289182 -1.112937 2.467967 0.066456 -0.016720 682606.000000 0 0 1
12.287665 -22.402367 -32.422421 41.280336 -1.069107 2.474171 0.069995 -0.023669 -186314.000000 0 0 1
12.750265 -21.494167 -33.406421 41.719989 -1.035394 2.499308 0.061462 -0.022833 -24301.100000 0 0 1
13.600365 -20.575667 -32.776221 41.019613 -0.986732 2.496490 0.058894 -0.023886 -328059.000000 0 0 1
14.090565 -19.346867 -33.586671 41.242087 -0.941320 2.522454 0.041097 -0.022593 -271175.000000 0 0 1
14.927765 -19.688567 33.794107 41.863105 -0.922071 0.631314 0.042270 -0.011536 429989.000000 0 0 1
14.716865 -18.797467 32.696982 40.484856 -0.906559 0.630666 0.032090 -0.006444 2052.520000 0 0 1
15.405565 -17.363067 32.734738 40.129423 -0.845064 0.616808 0.041473 -0.010475 -583869.000000 0 0 1
15.034365 -16.470567 33.777218 40.474834 -0.830953 0.583528 0.034045 -0.009280 260856.000000 0 0 1
15.760465 -15.250267 33.774461 40.270053 -0.768947 0.575906 0.059454 -0.010990 288368.000000 0 0 1
17.267065 -15.323067 34.138642 41.211586 -0.725819 0.594596 0.066464 -0.007034 93189.000000 0 0 1
18.102165 -15.836867 33.089279 40.907153 -0.718751 0.628539 0.061638 -0.004092 -315683.000000 0 0 1
19.433165 -15.743567 33.513446 41.816969 -0.680893 0.641111 0.065290 -0.001934 -580147.000000 0 0 1
20.440465 -16.357267 32.522401 41.750202 -0.674887 0.677765 0.070306 -0.007414 -270803.000000 0 0 1
20.696665 -15.710867 31.315212 40.691839 -0.649301 0.692629 0.059015 -0.000582 551421.000000 0 0 1
21.581665 -16.371067 30.411622 40.726488 -0.648959 0.727667 0.046289 -0.002126 74816.500000 0 0 1
21.759665 -15.682467 28.987012 39.492653 -0.624492 0.746625 0.040552 0.006742 7312.120000 0 0 1
22.541965 -14.485067 29.060292 39.527939 -0.571143 0.744859 0.020737 -0.001271 348020.000000 0 0 1
22.758065 -13.907567 27.805232 38.528962 -0.548545 0.764583 0.019180 -0.003418 -92366.500000 0 0 1
23.311965 -12.498267 27.907542 38.451077 -0.492133 0.758609 0.013349 0.001554 11124.900000 0 0 1
22.353365 -11.528267 28.242632 37.818251 -0.476151 0.727561 0.025181 -0.006437 200945.000000 0 0 1
23.026165 -10.337067 28.652652 38.184208 -0.421961 0.722160 0.028915 -0.009296 -229803.000000 0 0 1
22.172065 -9.112567 28.631512 37.341704 -0.389947 0.697043 0.045715 -0.006902 462338.000000 0 0 1
21.130065 -9.167067 29.653112 37.547594 -0.409334 0.660399 0.049826 -0.015312 481777.000000 0 0 1
20.307365 -8.037667 29.617642 36.799428 -0.376881 0.635391 0.055532 -0.015838 423327.000000 0 0 1
19.199465 -7.970867 30.739672 37.109050 -0.393507 0.594622 0.042118 -0.000774 482967.000000 0 0 1
19.622765 -7.544267 32.035382 38.317549 -0.367043 0.580753 0.053465 -0.007892 198748.000000 0 0 1
19.903965 -8.617867 32.935771 39.436030 -0.408604 0.582355 0.066627 -0.011701 -302823.000000 0 0 1
19.908665 -8.207167 -34.047741 40.285993 -0.391014 2.577644 0.076569 -0.015610 695577.000000 0 0 1
18.575865 -7.939867 -33.592481 39.198967 -0.403926 2.600165 0.077418 -0.022567 785586.000000 0 0 1
18.682665 -7.128167 -32.430331 38.099595 -0.364491 2.589062 0.078889 -0.024842 487879.000000 0 0 1
17.342065 -6.879567 -31.659741 36.747991 -0.377657 2.609085 0.078461 -0.028262 572820.000000 0 0 1
17.502665 -6.089367 -30.477891 35.669672 -0.334812 2.595284 0.068041 -0.024664 575619.000000 0 0 1
16.222065 -5.935867 -29.870861 34.505916 -0.350780 2.617291 0.061089 -0.017093 533008.000000 0 0 1
16.176165 -4.831067 -28.760101 33.348927 -0.290221 2.610787 0.045273 -0.014877 14992.600000 0 0 1
17.015865 -5.093267 -27.624821 32.842226 -0.290837 2.570179 0.053919 -0.011919 347300.000000 0 0 1
16.573165 -6.149567 -26.708821 32.028864 -0.355308 2.556930 0.068043 -0.018154 -445762.000000 0 0 1
15.331565 -5.838567 -25.876451 30.638807 -0.363863 2.576548 0.061282 -0.019365 -286161.000000 0 0 1
15.353665 -4.604367 -25.122931 29.800955 -0.291353 2.573678 0.039151 -0.009494 -1218520.000000 0 0 1
14.185965 -4.480967 -24.419831 28.594559 -0.305955 2.594427 0.032638 -0.021614 -757005.000000 0 0 1
14.144765 -3.276967 -23.456031 27.586197 -0.227657 2.587316 0.031228 -0.018751 -29725.300000 0 0 1
14.000365 -2.034967 -24.149331 27.988239 -0.144340 2.611655 0.018452 -0.020300 -94739.500000 0 0 1
13.516465 -0.956967 -23.435131 27.070574 -0.070682 2.617353 0.022371 -0.014408 -56543.800000 0 0 1
14.049165 0.398033 -23.998531 27.811274 0.028324 2.611790 0.021661 -0.023248 20702.700000 0 0 1
13.518565 0.807033 -25.268431 28.668738 0.059627 2.649600 0.032850 -0.030617 -76104.700000 0 0 1
13.951765 2.108033 -25.512181 29.154192 0.149960 2.636392 0.026754 -0.014473 -376823.000000 0 0 1
13.385765 2.748033 -26.780071 30.064973 0.202482 2.669767 0.025254 -0.019266 387212.000000 0 0 1
11.989265 3.017033 -26.671781 29.397770 0.246526 2.707548 0.043895 -0.035460 299989.000000 0 0 1
11.418365 3.583033 -27.795451 30.262258 0.304065 2.735030 0.051312 -0.036379 -505645.000000 0 0 1
10.092865 4.285033 -27.555471 29.656895 0.401498 2.762882 0.054965 -0.036059 -547743.000000 0 0 1
10.150165 5.498033 -26.815951 29.195024 0.496425 2.735094 0.050211 -0.041133 -108517.000000 0 0 1
9.004565 6.287033 -27.041561 29.186555 0.609520 2.755819 0.051826 -0.045446 54278.400000 0 0 1
8.162665 5.542742 -30.940291 32.475417 0.596517 2.832894 0.047646 -0.019596 -63703.500000 0 0 1
7.738865 4.529942 -30.024181 31.334675 0.529578 2.851361 0.042428 -0.014829 452606.000000 0 0 1
7.739665 3.282642 -30.724331 31.853770 0.401136 2.874503 0.020142 -0.008952 -307144.000000 0 0 1
7.422565 2.140142 -29.829161 30.813204 0.280716 2.888187 0.021833 -0.012910 315453.000000 0 0 1
8.525165 1.837842 -28.955051 30.239892 0.212329 2.849043 0.038237 -0.022069 732576.000000 0 0 1
8.134165 0.843342 -28.053391 29.221030 0.103310 2.857945 0.030244 -0.023961 338552.000000 0 0 1
9.289665 0.394842 -27.086791 28.638227 0.042478 2.810927 0.028704 -0.032901 401488.000000 0 0 1
10.274065 -0.291858 -27.827841 29.665305 -0.028400 2.787785 0.025880 -0.016966 -133328.000000 0 0 1
11.369065 -0.590258 -26.963771 29.268567 -0.051871 2.742087 0.032692 -0.022342 307812.000000 0 0 1
12.220065 -1.791958 -27.461181 30.110755 -0.145603 2.718944 0.015045 -0.016962 316089.000000 0 0 1
11.425065 -2.963158 -27.580391 29.999840 -0.253765 2.737225 0.017172 -0.019422 203765.000000 0 0 1
12.274865 -4.090858 -27.802891 30.666075 -0.321695 2.706032 0.036659 -0.023488 275974.000000 0 0 1
11.670465 -5.544858 -27.523661 30.405544 -0.443545 2.702690 0.032073 -0.016500 -44509.100000 0 0 1
11.321965 -5.658458 -26.191681 29.089675 -0.463469 2.691432 0.031123 -0.015739 134006.000000 0 0 1
10.750365 -6.880258 -25.752171 28.741653 -0.569315 2.681447 0.030409 -0.019065 39138.300000 0 0 1
10.465865 -6.785858 -24.203231 27.228268 -0.575236 2.665737 0.031620 -0.018970 -18843.400000 0 0 1
11.602665 -6.889958 -23.362431 26.979558 -0.535867 2.617805 0.035155 -0.013273 78100.100000 0 0 1
11.282365 -6.766758 -22.027431 25.657133 -0.540246 2.603193 0.038791 -0.015534 473191.000000 0 0 1
12.571265 -6.914158 -21.145331 25.553225 -0.502841 2.545439 0.045139 -0.014376 890429.000000 0 0 1
13.243065 -5.688658 -20.921831 25.405956 -0.405725 2.538351 0.038877 -0.011667 -340433.000000 0 0 1
14.422865 -5.789358 -20.170731 25.463584 -0.381714 2.485104 0.036367 -0.012697 245634.000000 0 0 1
14.966065 -4.380858 -19.731331 25.149561 -0.284764 2.472782 0.042623 -0.007458 357047.000000 0 0 1
15.764765 -3.623958 -20.654231 26.234675 -0.225952 2.477194 0.034266 -0.010947 614780.000000 0 0 1
16.312665 -2.440558 -19.988031 25.914875 -0.148510 2.451671 0.033931 -0.004491 251051.000000 0 0 1
17.233565 -1.677758 -20.980331 27.202664 -0.097048 2.451615 0.010590 -0.005182 452039.000000 0 0 1
18.466565 -2.342358 -21.213431 28.222514 -0.126169 2.421355 0.028630 -0.012710 147553.000000 0 0 1
19.392065 -1.605658 -21.966031 29.345133 -0.082611 2.416655 0.034324 -0.007568 438816.000000 0 0 1
20.749765 -2.330758 -22.207931 30.482411 -0.111858 2.386998 0.035149 -0.012829 -650387.000000 0 0 1
21.535865 -2.425158 -21.023031 30.193422 -0.112138 2.340996 0.029706 -0.009919 1940760.000000 0 0 1
22.872765 -3.012058 -21.253231 31.367749 -0.130934 2.315223 0.027450 -0.011542 2219350.000000 0 0 1
23.887665 -2.190858 -22.092431 32.611285 -0.091459 2.315083 0.036566 -0.015018 -1174610.000000 0 0 1
23.531365 -2.160658 -23.460831 33.298711 -0.091564 2.352595 0.044596 -0.016815 404661.000000 0 0 1
24.468365 -1.458758 -24.280631 34.501854 -0.059548 2.351457 0.043751 -0.012412 916437.000000 0 0 1
25.802265 -2.113658 -24.768031 35.828477 -0.081735 2.334075 0.054458 -0.021137 855467.000000 0 0 1
26.860365 -2.269758 -23.792631 35.954420 -0.084302 2.293939 0.050550 -0.014691 1346500.000000 0 0 1
28.094265 -2.827658 -24.242431 37.215304 -0.100311 2.280238 0.041358 -0.009718 728031.000000 0 0 1
29.018865 -1.919058 -25.088961 38.408766 -0.066035 2.282611 0.036269 -0.015663 -908514.000000 0 0 1
28.525465 -1.745858 -26.418111 38.918720 -0.061127 2.316927 0.045450 -0.018016 267305.000000 0 0 1
29.164465 -0.797358 -27.226941 39.906242 -0.027333 2.321663 0.048172 -0.022361 -681826.000000 0 0 1
28.458565 -0.760058 -28.680081 40.410576 -0.026701 2.359893 0.061711 -0.024632 -541957.000000 0 0 1
27.117665 -0.464858 -28.714051 39.497855 -0.017141 2.384706 0.059414 -0.019602 -1035320.000000 0 0 1
26.797965 0.848442 -28.356191 39.024663 0.031650 2.384189 0.041531 -0.018398 -723651.000000 0 0 1
25.320465 1.299142 -28.366001 38.045285 0.051263 2.412209 0.040268 -0.005022 334073.000000 0 0 1
24.558365 0.761442 -27.260111 36.698866 0.030995 2.408047 0.044679 -0.006841 533095.000000 0 0 1
23.182165 1.056542 -27.363271 35.878652 0.045544 2.438215 0.037694 -0.006601 205655.000000 0 0 1
22.211165 0.804142 -26.196141 34.354335 0.036189 2.438008 0.034759 -0.002285 97543.100000 0 0 1
22.468965 1.654042 -25.108691 33.734798 0.073482 2.410277 0.030574 0.000992 301413.000000 0 0 1
21.649965 1.256542 -24.028031 32.367363 0.057974 2.407373 0.021182 0.003370 -478024.000000 0 0 1
21.781165 2.094542 -22.723631 31.546310 0.095868 2.375069 0.023982 0.002441 -319314.000000 0 0 1
21.239965 3.436142 -22.726531 31.295981 0.160388 2.383546 0.033981 -0.006740 558348.000000 0 0 1
21.476765 3.903242 -21.450931 30.604398 0.179780 2.347469 0.028488 -0.009203 -128546.000000 0 0 1
20.957765 5.304142 -21.095831 30.205892 0.247882 2.343957 0.043255 -0.009607 20162.700000 0 0 1
21.764665 6.302442 -21.746231 31.405732 0.281863 2.335646 0.037622 -0.007130 622024.000000 0 0 1
21.626065 7.614942 -21.240831 31.254551 0.338561 2.318024 0.039948 -0.013671 -604358.000000 0 0 1
22.042665 7.831742 -19.743731 30.610949 0.341388 2.271805 0.045535 -0.019361 -328192.000000 0 0 1
23.442265 7.893342 -19.548131 31.527354 0.324790 2.239586 0.030992 -0.015448 187059.000000 0 0 1
23.803765 8.195542 -18.242231 31.089631 0.331584 2.197851 0.047969 -0.021981 -104965.000000 0 0 1
23.643465 9.669242 -17.696331 31.075196 0.388207 2.176655 0.052923 -0.028799 548213.000000 0 0 1
22.328865 10.038442 -17.240931 29.943250 0.422498 2.184363 0.050026 -0.032181 635611.000000 0 0 1
22.185965 11.444042 -17.217031 30.325061 0.476226 2.174565 0.047295 -0.023822 -360514.000000 0 0 1
20.790965 12.030142 -16.822331 29.325405 0.524553 2.181744 0.039664 -0.029075 1335650.000000 0 0 1
19.769065 11.864642 -17.854731 29.161226 0.540539 2.229733 0.039990 -0.031192 1213160.000000 0 0 1
19.260065 10.461542 -17.884531 28.288698 0.497586 2.255205 0.039853 -0.029686 -596058.000000 0 0 1
18.473365 10.074642 -19.165031 28.461589 0.499274 2.309547 0.059659 -0.019822 -53820.700000 0 0 1
19.225965 10.106542 -20.363331 29.773229 0.483973 2.323957 0.070393 -0.018661 -31503.100000 0 0 1
18.508465 9.716242 -21.479531 29.972302 0.483417 2.369778 0.059884 -0.022816 -459924.000000 0 0 1
19.358965 9.907042 -22.741331 31.465650 0.473007 2.378548 0.078943 -0.023925 -288355.000000 0 0 1
19.309165 11.262642 -23.165131 32.191835 0.528034 2.374017 0.079257 -0.022731 307149.000000 0 0 1
20.175165 11.604242 -24.226831 33.595164 0.521965 2.376243 0.081840 -0.021984 -71947.600000 0 0 1
20.166865 13.132942 -24.559731 34.385419 0.577228 2.366346 0.096622 -0.023080 -69503.700000 0 0 1
21.127565 13.592542 -25.494931 35.792775 0.571690 2.363556 0.082116 -0.021494 200048.000000 0 0 1
20.976065 14.974542 -25.854781 36.506190 0.619985 2.357784 0.085912 -0.017537 424996.000000 0 0 1
19.688065 15.434742 -26.606391 36.520559 0.664886 2.386973 0.081599 -0.017889 857783.000000 0 0 1
18.437465 15.324642 -25.949111 35.329041 0.693459 2.395723 0.082747 -0.021264 472933.000000 0 0 1
17.348465 15.414842 -26.850871 35.490222 0.726449 2.428850 0.069206 -0.019803 528137.000000 0 0 1
15.981565 14.861842 -26.369491 34.229152 0.749111 2.450235 0.067560 -0.021081 249168.000000 0 0 1
15.934265 13.466542 -26.409031 33.655393 0.701661 2.472991 0.065410 -0.015979 40967.000000 0 0 1
14.627365 13.081542 -26.065801 32.626869 0.729668 2.496270 0.042900 -0.020318 -220603.000000 0 0 1
14.234365 11.565042 -26.145681 31.936875 0.682301 2.529883 0.041934 -0.027526 -202339.000000 0 0 1
12.876365 11.252942 -25.965881 31.091100 0.718219 2.559211 0.041486 -0.018034 -91551.400000 0 0 1
12.644065 9.833542 -25.968221 30.510973 0.661007 2.588894 0.062421 -0.026474 553031.000000 0 0 1
11.158365 9.498942 -25.621871 29.516424 0.705239 2.622067 0.054646 -0.033635 448695.000000 0 0 1
10.755465 9.759642 -24.272731 28.285970 0.736895 2.602391 0.057068 -0.036594 -155791.000000 0 0 1
9.422265 9.333042 -24.113931 27.520291 0.780641 2.638766 0.048249 -0.034618 -199268.000000 0 0 1
8.739765 10.087342 -22.934631 26.535547 0.856853 2.614550 0.048281 -0.030648 -163396.000000 0 0 1
8.243465 11.361442 -23.360431 27.253382 0.943118 2.600521 0.048171 -0.024880 159867.000000 0 0 1
7.689165 12.178142 -22.281831 26.531310 1.007615 2.567769 0.040941 -0.011117 764116.000000 0 0 1
8.753265 12.983342 -21.443431 26.551979 0.977602 2.510871 0.039327 -0.018828 446217.000000 0 0 1
9.492365 12.158142 -20.584031 25.722126 0.907909 2.498502 0.056226 -0.025500 -261418.000000 0 0 1
10.396865 12.734542 -19.670231 25.635549 0.886117 2.445421 0.065808 -0.026936 46504.800000 0 0 1
11.333865 11.692742 -19.021631 25.039952 0.800982 2.433573 0.078614 -0.031974 -290024.000000 0 0 1
12.364565 11.037942 -19.720431 25.760707 0.728772 2.442651 0.081803 -0.033807 -45317.000000 0 0 1
11.971165 10.242642 -20.834331 26.120679 0.707742 2.494132 0.079550 -0.033196 -1052040.000000 0 0 1
13.094165 9.582542 -21.609031 27.022814 0.631763 2.497523 0.084487 -0.030951 -515346.000000 0 0 1
13.917965 8.811942 -20.771431 26.510610 0.564427 2.471097 0.100379 -0.043699 -256842.000000 0 0 1
14.803465 8.073842 -21.552431 27.364883 0.499306 2.477692 0.081284 -0.042487 -254004.000000 0 0 1
15.444965 6.896942 -20.731431 26.756438 0.419981 2.457227 0.101528 -0.044902 412223.000000 0 0 1
16.261765 7.227042 -19.591831 26.467244 0.418203 2.404208 0.079053 -0.036902 635930.000000 0 0 1
16.913565 6.018342 -19.135031 26.238112 0.341859 2.388071 0.057944 -0.041335 -61044.900000 0 0 1
17.739665 6.357842 -17.892131 25.985500 0.344136 2.330274 0.072076 -0.034247 -1755380.000000 0 0 1
18.955665 6.952242 -18.154431 27.152058 0.351530 2.303149 0.056833 -0.034262 -791686.000000 0 0 1
19.713865 7.221142 -17.017831 27.025691 0.351119 2.251952 0.052836 -0.036171 -21737.400000 0 0 1
20.312265 6.016842 -16.211831 26.676094 0.287983 2.223994 0.042380 -0.033135 -923781.000000 0 0 1
21.271765 5.270842 -16.899831 27.674430 0.242894 2.227698 0.038254 -0.034633 277648.000000 0 0 1
21.832365 4.180242 -16.124931 27.461609 0.189180 2.198368 0.044862 -0.034378 -36765.900000 0 0 1
23.176065 3.704142 -16.708031 28.809876 0.158486 2.189453 0.028160 0.001051 -336168.000000 0 0 1
23.842765 2.760442 -15.914031 28.798505 0.115264 2.156276 0.030744 -0.001644 52893.600000 0 0 1
24.924065 2.299042 -16.702531 30.091015 0.091982 2.159240 0.037344 -0.007468 -63945.400000 0 0 1
25.776765 1.112942 -16.214231 30.472636 0.043149 2.131865 0.054962 -0.022978 -361387.000000 0 0 1
25.159165 -0.134958 -16.131031 29.886652 -0.005364 2.140925 0.049003 -0.021582 -436733.000000 0 0 1
26.106965 -1.166158 -16.072831 30.680115 -0.044639 2.122201 0.042794 -0.021555 -403574.000000 0 0 1
25.595865 -2.602758 -16.240231 30.424789 -0.101338 2.133864 0.030946 -0.025448 -435483.000000 0 0 1
25.116565 -3.225958 -15.060931 29.463202 -0.127740 2.107351 0.036606 -0.026532 495506.000000 0 0 1
25.030265 -4.639358 -15.177231 29.637580 -0.183270 2.108417 0.030268 -0.025000 -1255810.000000 0 0 1
24.520365 -5.411958 -13.933431 28.717209 -0.217230 2.077382 0.032423 -0.021179 1192400.000000 0 0 1
23.168165 -5.055858 -13.546031 27.309715 -0.214856 2.089800 0.043056 -0.014045 1562570.000000 0 0 1
22.139665 -5.538458 -14.379931 26.974464 -0.245129 2.133050 0.045626 -0.015898 -792020.000000 0 0 1
20.682465 -5.487458 -13.923931 25.529442 -0.259344 2.147671 0.054192 -0.017120 -320688.000000 0 0 1
20.348865 -6.458358 -12.941831 24.965530 -0.307326 2.115761 0.062625 -0.014491 412912.000000 0 1 0
20.246865 -5.904758 -11.637431 24.087995 -0.283768 2.075013 0.061265 -0.013678 -354135.000000 0 1 0
20.147365 -7.005458 -10.541831 23.793338 -0.334634 2.029803 0.077934 -0.017123 1117930.000000 0 1 0
18.918765 -7.822758 -10.505731 23.010554 -0.392083 2.044923 0.080823 -0.018900 1936950.000000 0 1 0
18.867665 -8.768058 -11.584231 23.813064 -0.435022 2.078836 0.080518 -0.021461 -439035.000000 0 1 0
17.460365 -9.418058 -11.567231 22.964429 -0.494666 2.098675 0.092694 -0.027735 -126133.000000 0 1 0
16.526965 -8.410158 -11.906031 22.036899 -0.470722 2.141563 0.078506 -0.023368 431977.000000 0 1 0
15.239565 -9.070458 -12.038131 21.434415 -0.536876 2.167146 0.065739 -0.022118 1225230.000000 0 1 0
14.079365 -8.041158 -12.291131 20.346023 -0.518922 2.219438 0.044732 -0.018569 -104274.000000 0 1 0
14.113265 -7.192658 -13.453731 20.782720 -0.471328 2.274901 0.039190 -0.017688 392872.000000 0 1 0
15.217465 -6.288058 -13.520531 21.305297 -0.391845 2.258299 0.037404 -0.016423 64134.400000 0 1 0
15.124965 -5.293958 -14.683331 21.734552 -0.336688 2.312541 0.032899 -0.008896 297927.000000 0 1 0
14.009465 -4.426058 -14.403931 20.574944 -0.306010 2.346294 0.030293 -0.005714 641392.000000 0 1 0
13.749765 -3.511358 -15.401731 20.942755 -0.250032 2.397083 0.029280 -0.004313 -248810.000000 0 1 0
14.733065 -2.317058 -15.504731 21.513453 -0.155992 2.375607 0.026150 -0.010895 172689.000000 0 1 0
15.898965 -2.655958 -16.296931 22.922067 -0.165524 2.361675 0.024320 -0.006612 443005.000000 0 1 0
16.879165 -1.658558 -16.200231 23.454307 -0.097946 2.333273 0.026894 0.000461 -324934.000000 0 1 0
17.968765 -2.070458 -15.211131 23.633489 -0.114719 2.270023 0.034844 -0.004691 -1117250.000000 0 1 0
17.483265 -2.175058 -13.877131 22.426997 -0.123772 2.237971 0.030476 -0.002949 -32809.900000 0 1 0
18.525365 -2.478458 -13.000431 22.767150 -0.132997 2.178541 0.032717 -0.005349 -436069.000000 0 1 0
18.053065 -2.845758 -11.609531 21.651621 -0.156346 2.136721 0.035002 -0.001547 -351599.000000 0 1 0
17.811865 -1.654958 -10.901131 20.948415 -0.092647 2.118092 0.024681 -0.000472 718146.000000 0 1 0
17.510965 -1.960958 -9.522331 20.028830 -0.111520 2.066250 0.032325 -0.002218 -1019940.000000 0 1 0
17.528265 -0.699858 -8.593931 19.534214 -0.039906 2.026331 0.024896 0.002094 -376799.000000 0 1 0
18.804065 -0.408858 -8.094631 20.476403 -0.021740 1.977207 0.024219 0.004830 797816.000000 0 1 0
19.837765 0.153842 -8.915031 21.749445 0.007755 1.993137 0.027199 0.006501 42554.800000 0 1 0
19.570165 1.525942 -9.603731 21.852952 0.077815 2.025806 0.030955 0.003210 -829671.000000 0 1 0
19.408665 2.549642 -8.687031 21.416383 0.130618 1.988459 0.024045 0.001687 675045.000000 0 1 0
19.031165 3.752942 -9.357531 21.536787 0.194702 2.020269 0.028654 -0.008688 -183869.000000 0 1 0
18.551865 4.941842 -8.481231 20.988682 0.260335 1.986776 0.021662 -0.011290 -941316.000000 0 1 0
17.973965 5.970942 -9.178331 21.046552 0.320730 2.022053 0.027460 -0.024200 -105800.000000 0 1 0
18.822665 7.049142 -9.526731 22.242791 0.358335 2.013414 0.079485 -0.010383 -409425.000000 0 1 0
-26.392515 -29.611618 5.614069 40.061584 0.842815 1.430198 0.036338 -0.012605 -575896.000000 0 0 1
-26.484245 -28.374628 6.345569 39.329391 0.819844 1.408744 0.006871 -0.011851 432434.000000 0 0 1
-25.252455 -27.620968 6.342569 37.958300 0.830164 1.402916 0.039642 -0.009523 261686.000000 0 0 1
-25.309855 -26.460978 7.333269 37.343660 0.807629 1.373139 0.024168 -0.003896 38673.100000 0 0 1
-26.272435 -25.388958 7.131869 37.225039 0.768299 1.378017 0.018343 -0.016212 615286.000000 0 0 1
-27.601235 -25.736478 7.484369 38.473500 0.750451 1.375015 0.014921 -0.016346 -3153.960000 0 0 1
-27.913935 -25.872368 9.053869 39.122113 0.747459 1.337253 0.027685 -0.015007 -84595.000000 0 0 1
-27.082585 -26.819458 9.762969 39.345461 0.780517 1.320042 0.022402 -0.014095 423180.000000 0 0 1
-27.518275 -27.020998 11.134469 40.141826 0.776281 1.289732 0.026144 -0.015262 -337085.000000 0 0 1
-26.505715 -27.914368 11.855469 40.277996 0.811277 1.272030 0.022657 -0.008694 800451.000000 0 0 1
-25.238385 -27.351068 12.210869 39.168384 0.825550 1.253759 0.024954 -0.006288 451006.000000 0 0 1
-25.368465 -26.523858 13.354269 39.056504 0.807660 1.221835 0.036773 -0.005495 -723092.000000 0 0 1
-24.029035 -25.994158 13.897669 38.029409 0.824662 1.196685 0.040278 -0.005654 -74389.100000 0 0 1
-23.175835 -27.031678 14.342069 38.386532 0.862046 1.187885 0.041698 -0.002894 -436993.000000 0 0 1
-22.123235 -26.487518 15.085169 37.664153 0.874938 1.158714 0.043499 -0.004574 -351062.000000 0 0 1
-21.254235 -27.568398 15.755769 38.209990 0.914013 1.145768 0.059186 -0.008929 -221058.000000 0 0 1
-21.971135 -28.404098 16.696469 39.601712 0.912412 1.135576 0.069086 0.000670 148182.000000 0 0 1
-21.247835 -29.555428 16.991469 40.170932 0.947488 1.134066 0.060859 0.004158 -328702.000000 0 0 1
-21.888735 -30.588038 17.980569 41.689874 0.949679 1.124870 0.055588 0.000458 344381.000000 0 0 1
-23.142335 -31.153418 17.613869 42.618675 0.931887 1.144732 0.049119 0.006066 457333.000000 0 0 1
-23.468635 -32.175978 18.507169 43.915665 0.940621 1.135780 0.039122 0.007905 -152592.000000 0 0 1
-24.627535 -33.065648 18.029169 44.998927 0.930627 1.158562 0.026350 0.004983 -73679.800000 0 0 1
-24.318735 -33.888868 16.915969 45.011179 0.948354 1.185518 0.030301 -0.000358 -382331.000000 0 0 1
-25.360005 33.873202 16.633869 45.466573 -0.928144 1.196252 0.029066 0.001269 -967628.000000 0 0 1
-25.257635 33.205003 15.232069 44.413245 -0.920509 1.220728 0.019751 -0.005385 296842.000000 0 0 1
-24.188235 32.269902 14.996069 43.026729 -0.927577 1.214795 0.009345 -0.010264 234745.000000 0 0 1
-23.013935 32.981207 14.688469 42.815329 -0.961556 1.220618 0.011391 -0.000565 -1044690.000000 0 0 1
-21.784535 32.097012 14.521269 41.420423 -0.974503 1.212603 0.029104 -0.014728 -347637.000000 0 0 1
-21.664435 31.479072 13.238269 40.441705 -0.968022 1.237307 0.031613 -0.009056 922394.000000 0 0 1
-20.478935 30.645692 13.234169 39.162335 -0.981699 1.226079 0.040158 -0.012799 819692.000000 0 0 1
-20.306435 29.847362 11.911469 38.014464 -0.973385 1.252088 0.043693 -0.001486 -58046.200000 0 0 1
-19.815135 30.634012 10.905169 38.078931 -0.996650 1.280346 0.037840 -0.000206 -173997.000000 0 0 1
-19.860235 29.954072 9.667469 37.217406 -0.985321 1.308026 0.047134 0.001726 -32939.700000 0 0 1
-19.226735 30.807792 8.539369 37.305606 -1.012854 1.339846 0.027368 0.005358 -889355.000000 0 0 1
-17.829935 30.807182 8.612169 36.621831 -1.046142 1.333408 0.032953 0.003125 -790452.000000 0 0 1
-17.384235 31.467312 7.472669 36.718444 -1.066071 1.365852 0.041669 0.002196 -213584.000000 0 0 1
-16.633735 30.543512 6.496069 35.380591 -1.072115 1.386143 0.041496 0.003129 -894644.000000 0 0 1
-17.332335 29.472172 5.915069 34.698802 -1.039179 1.399491 0.045711 0.009054 -244382.000000 0 0 1
-17.511435 28.330862 6.761369 33.985353 -1.017171 1.370510 0.035704 0.011084 -871380.000000 0 0 1
-18.676935 27.501482 6.300269 33.835674 -0.974218 1.383501 0.031792 0.016482 -653373.000000 0 0 1
-18.399735 26.853022 5.070769 32.944617 -0.970071 1.416264 0.035468 0.005861 -223752.000000 0 0 1
-19.496135 26.131372 4.580569 32.923085 -0.929808 1.431214 0.027648 0.003196 -1200130.000000 0 0 1
-19.316835 25.071072 3.492169 31.841703 -0.914314 1.460902 0.033480 -0.005177 -1125200.000000 0 0 1
-19.060135 25.613742 2.186669 32.002095 -0.931058 1.502414 0.039007 -0.007332 765886.000000 0 0 1
-17.807435 26.295242 2.053069 31.823884 -0.975529 1.506238 0.039203 -0.007784 -765553.000000 0 0 1
-16.503235 25.540302 2.065769 30.478373 -0.997122 1.502966 0.044126 -0.005337 -1257150.000000 0 0 1
-16.325935 24.488222 1.134469 29.453289 -0.982781 1.532269 0.060751 -0.010530 -47484.200000 0 0 1
-16.211835 24.937482 -0.225331 29.744788 -0.994351 1.578372 0.053785 -0.013260 -292187.000000 0 0 1
-15.978435 23.718152 -1.156731 28.621656 -0.977954 1.611222 0.063390 -0.019807 754603.000000 0 0 1
-17.122435 22.834452 -1.259131 28.568784 -0.927391 1.614884 0.057698 -0.031771 718196.000000 0 0 1
-16.898835 21.710052 -2.071231 27.589618 -0.909373 1.645940 0.062502 -0.030164 -10500.400000 0 0 1
-15.860135 20.657052 -1.545931 26.089224 -0.916011 1.630087 0.071413 -0.031795 382415.000000 0 0 1
-16.293235 19.839452 -0.482331 25.676955 -0.883229 1.589582 0.075299 -0.037286 -281344.000000 0 0 1
-15.285735 18.937552 -0.200231 24.337721 -0.891702 1.579024 0.097774 -0.040136 -393443.000000 0 1 0
-15.821635 17.921752 0.805369 23.919907 -0.847556 1.537121 0.068333 -0.027243 342676.000000 0 1 0
-16.402735 16.775452 0.136469 23.462399 -0.796631 1.564980 0.048899 -0.027806 206090.000000 0 1 0
-16.928035 15.863452 0.997969 23.220754 -0.752944 1.527806 0.050427 -0.039016 -238029.000000 0 1 0
-17.649235 14.681352 0.280369 22.959012 -0.693857 1.558584 0.061427 -0.034384 -885508.000000 0 1 0
-18.877335 14.953252 -0.300831 24.084103 -0.669922 1.583288 0.077214 -0.040547 -641451.000000 0 1 0
-19.385635 13.790652 -0.819331 23.804543 -0.618326 1.605222 0.068306 -0.032453 -1055000.000000 0 1 0
-20.544735 14.140052 -1.744631 25.001419 -0.602801 1.640634 0.069714 -0.021623 -1586740.000000 0 0 1
-21.350135 13.106552 -2.222231 25.150513 -0.550567 1.659269 0.068608 -0.023108 157702.000000 0 0 1
-22.292435 12.595352 -1.321531 25.638682 -0.514291 1.622364 0.074428 -0.022284 -576034.000000 0 0 1
-23.556935 13.465152 -1.097031 27.155902 -0.519276 1.611205 0.078172 -0.017165 -716393.000000 0 0 1
-23.210435 14.633452 -0.430131 27.441706 -0.562522 1.586471 0.072491 -0.021281 357073.000000 0 0 1
-24.354235 15.450552 -0.222131 28.842636 -0.565337 1.578498 0.065125 -0.017077 139547.000000 0 0 1
-23.965935 16.676352 0.646369 29.204187 -0.607926 1.548662 0.060916 -0.024067 20808.400000 0 0 1
-23.636935 16.310952 1.940469 28.783976 -0.604025 1.503330 0.065533 -0.024520 118529.000000 0 0 1
-23.279035 17.439452 2.693269 29.211328 -0.642956 1.478466 0.057096 -0.032450 192104.000000 0 0 1
-24.487735 18.273252 3.203369 30.721694 -0.641078 1.466336 0.066776 -0.036448 -224131.000000 0 0 1
-25.289215 17.670852 4.216669 31.138139 -0.609887 1.434961 0.068501 -0.037761 757512.000000 0 0 1
-26.584315 18.228352 4.419169 32.535023 -0.601051 1.434547 0.061654 -0.040756 322459.000000 0 0 1
-27.636365 18.031352 3.343969 33.167461 -0.578096 1.469804 0.067346 -0.026697 -1631480.000000 0 0 1
-28.748785 18.867752 3.400069 34.554959 -0.580789 1.472241 0.069472 -0.021365 -380561.000000 0 0 1
-29.522885 18.526752 2.286769 34.929509 -0.560423 1.505281 0.075255 -0.009814 127803.000000 0 0 1
-30.767885 19.408352 1.918469 36.428388 -0.562759 1.518108 0.077668 -0.019007 227128.000000 0 0 1
-31.921255 19.090152 2.636969 37.287452 -0.538976 1.500017 0.084403 -0.015910 -333233.000000 0 0 1
-33.009535 19.935352 2.357369 38.634245 -0.543302 1.509741 0.071898 -0.014976 79541.300000 0 0 1
-33.565075 20.605752 3.644769 39.553706 -0.550581 1.478518 0.065641 -0.013514 -310405.000000 0 0 1
-32.647875 21.556252 4.100869 39.336661 -0.583558 1.466356 0.074824 -0.020041 172981.000000 0 0 1
-33.051075 22.127252 5.326569 40.129306 -0.589952 1.437668 0.061123 -0.023290 253187.000000 0 0 1
-31.977075 23.122252 5.882469 39.897059 -0.626054 1.422816 0.073011 -0.027594 202504.000000 0 0 1
-31.920945 24.365662 5.238669 40.497850 -0.651967 1.441076 0.065210 -0.017262 365097.000000 0 0 1
-30.926565 25.212602 5.792769 40.319771 -0.683965 1.426627 0.056421 -0.021386 -131490.000000 0 0 1
-31.093495 26.696742 5.466569 41.344950 -0.709463 1.438189 0.056709 -0.017203 -15195.500000 0 0 1
-32.344125 27.189102 5.920769 42.666676 -0.699023 1.431579 0.060388 -0.019506 235917.000000 0 0 1
-32.406415 28.561302 6.023169 43.614244 -0.722414 1.432253 0.057733 -0.017013 -364820.000000 0 0 1
-33.373465 29.082042 7.047469 44.824326 -0.716794 1.412917 0.054746 -0.015082 -639775.000000 0 0 1
-32.733375 29.064242 8.322169 44.558529 -0.726094 1.382924 0.065422 -0.027659 516299.000000 0 0 1
-33.519615 29.719602 9.294969 45.751675 -0.725381 1.366211 0.071451 -0.025646 -528013.000000 0 0 1
-34.880786 29.138192 9.679969 46.469402 -0.695936 1.360951 0.061874 -0.026025 -692825.000000 0 0 1
-34.770986 27.841622 10.116069 45.678357 -0.675176 1.347482 0.075250 -0.038363 -284041.000000 0 0 1
-35.907326 27.341792 10.731769 46.390522 -0.650792 1.337346 0.065935 -0.037648 -521227.000000 0 0 1
-35.481567 26.051212 11.488369 45.492745 -0.633324 1.315500 0.075901 -0.027521 -342034.000000 0 0 1
-34.662931 26.403552 12.563169 45.348645 -0.650962 1.290089 0.090858 -0.033629 -304328.000000 0 0 1
-34.310657 25.170932 13.131269 44.533440 -0.632934 1.271484 0.085089 -0.030678 -549104.000000 0 0 1
-33.103725 25.310802 14.057269 43.978405 -0.652774 1.245447 0.078530 -0.031748 -405892.000000 0 0 1
-33.348045 26.164532 15.169069 45.019724 -0.665274 1.227128 0.077065 -0.020785 10562.000000 0 0 1
-32.154165 26.461532 15.862969 44.561607 -0.688584 1.206836 0.090777 -0.017897 104185.000000 0 0 1
-32.365435 27.612812 16.886569 45.772754 -0.706324 1.192948 0.084135 -0.008323 -105503.000000 0 0 1
-32.592245 28.835392 16.208669 46.437649 -0.724315 1.214248 0.088063 -0.015800 42779.600000 0 0 1
-32.876795 29.857972 17.114869 47.595177 -0.737315 1.202965 0.081410 -0.015171 -113095.000000 0 0 1
-32.351625 31.184352 16.568069 47.891465 -0.767028 1.217545 0.068289 -0.005035 860042.000000 0 0 1
-30.925465 31.097842 16.408569 46.826289 -0.788177 1.212784 0.064095 -0.006626 490599.000000 0 0 1
-30.393065 32.340592 15.956369 47.162040 -0.816433 1.225654 0.062073 0.007845 55585.900000 0 0 1
-28.909045 32.076862 15.595969 45.911788 -0.837295 1.224205 0.064316 0.001299 -78698.600000 0 0 1
-28.707135 31.475732 14.344469 44.950919 -0.831369 1.246002 0.048761 -0.001670 316338.000000 0 0 1
-28.190325 30.101202 14.411869 43.686139 -0.818168 1.234603 0.055346 -0.009760 306951.000000 0 0 1
-29.238695 29.067592 13.957669 43.527494 -0.782464 1.244367 0.072597 -0.018975 122249.000000 0 0 1
-29.416605 29.044122 12.617069 43.221385 -0.779027 1.274566 0.072901 -0.030664 -300702.000000 0 0 1
-30.576675 28.390582 12.180069 43.466220 -0.748342 1.286774 0.074533 -0.031978 -60821.200000 0 0 1
-30.589895 28.158922 10.642369 42.917672 -0.744043 1.320210 0.074023 -0.028064 -613492.000000 0 0 1
-29.598365 27.303342 10.174469 41.533788 -0.745087 1.323309 0.052112 -0.013779 -445955.000000 0 0 1
-29.424295 27.572752 8.807469 41.274899 -0.752925 1.355757 0.044266 -0.019184 237357.000000 0 0 1
-28.209885 26.768582 8.228869 39.750081 -0.759188 1.362273 0.044769 -0.015406 452252.000000 0 0 1
-28.047925 27.149452 6.872769 39.636017 -0.769122 1.396518 0.034897 -0.011122 15783.400000 0 0 1
-27.039085 26.386902 6.206569 38.287103 -0.773192 1.407972 0.029439 -0.007635 44579.900000 0 0 1
-26.859555 26.743152 4.733969 38.197413 -0.783227 1.446543 0.037695 -0.009794 -347492.000000 0 0 1
-26.196075 27.951882 4.595769 38.583198 -0.817813 1.451400 0.033835 -0.006189 2597.310000 0 0 1
-25.984745 28.372532 3.281969 38.613196 -0.829298 1.485698 0.032153 -0.005588 -418775.000000 0 0 1
-24.963235 29.511782 3.137269 38.780805 -0.868703 1.489810 0.027675 -0.002943 181053.000000 0 0 1
-23.632335 29.061772 3.452669 37.616417 -0.888073 1.478881 0.031343 -0.002957 516918.000000 0 0 1
-22.721835 30.010762 2.952769 37.757734 -0.922752 1.492513 0.018735 0.010961 279658.000000 0 0 1
-21.222235 29.748322 3.251669 36.686773 -0.951138 1.482047 0.012671 0.009496 798385.000000 0 0 1
-20.333235 30.676462 2.627369 36.897003 -0.985456 1.499528 0.015553 0.011284 416226.000000 0 0 1
-18.984535 30.479022 3.056069 36.037799 -1.013729 1.485893 0.023054 -0.003721 1565150.000000 0 0 1
-17.866835 31.439932 2.451169 36.245019 -1.054023 1.503117 0.026975 -0.003667 680194.000000 0 0 1
-17.932935 32.817943 2.773469 37.500663 -1.070693 1.496771 0.024810 0.002443 -649330.000000 0 0 1
-16.748435 33.519878 2.570569 37.559288 -1.107423 1.502302 0.055584 -0.012783 -570763.000000 0 0 1
-16.521235 -33.962858 3.540069 37.933613 1.118047 1.477338 0.051575 -0.012138 220415.000000 0 0 1
-17.322935 -32.778478 3.290469 37.220154 1.084621 1.482275 0.051636 -0.007939 378688.000000 0 0 1
-17.306735 -31.782818 4.244769 36.437462 1.072162 1.454037 0.039557 -0.005378 -194809.000000 0 0 1
-18.565135 -30.888478 4.183769 36.280383 1.029614 1.455222 0.040658 -0.004586 -94533.000000 0 0 1
-18.683635 -30.050178 3.094569 35.519963 1.014539 1.483564 0.048561 -0.017634 259941.000000 0 0 1
-19.645335 -29.026428 3.366969 35.210924 0.975805 1.475027 0.050364 -0.018131 70224.500000 0 0 1
-19.865735 -27.965788 2.205469 34.374362 0.953152 1.506592 0.050159 -0.016727 12425.500000 0 0 1
-18.791435 -27.068388 2.120469 33.019873 0.963960 1.506534 0.062847 -0.029317 -182504.000000 0 0 1
-18.943835 -26.228388 0.944669 32.368034 0.945283 1.541607 0.044891 -0.028886 401583.000000 0 0 1
-17.895435 -25.073678 0.994969 30.820867 0.950926 1.538508 0.040287 -0.021512 1013920.000000 0 0 1
-16.551435 -25.481288 0.773669 30.394812 0.994736 1.545340 0.051931 -0.018958 -253413.000000 0 0 1
-15.649435 -24.412558 0.914969 29.012324 1.000745 1.539254 0.057410 -0.010002 196740.000000 0 0 1
-14.314235 -24.735958 0.191569 28.579741 1.046200 1.564093 0.063009 -0.006881 -217163.000000 0 0 1
-14.443535 -24.741058 -1.225231 28.674672 1.042383 1.613538 0.049203 -0.008712 52677.700000 0 0 1
-14.459735 -23.518458 -1.917231 27.674493 1.019547 1.640130 0.041745 -0.006566 -350601.000000 0 0 1
-14.755635 -23.671958 -3.412431 28.102225 1.013393 1.692526 0.033529 -0.008310 -613901.000000 0 0 1
-13.743135 -24.346758 -4.059831 28.251028 1.056908 1.715001 0.037106 -0.010662 -754723.000000 0 0 1
-13.850035 -24.373758 -5.474731 28.563547 1.054061 1.763658 0.051184 -0.016295 175262.000000 0 0 1
-12.612835 -24.966058 -6.189131 28.647740 1.102998 1.788556 0.051612 -0.014930 -11107.700000 0 0 1
-12.649735 -26.401438 -6.165531 29.917645 1.123983 1.778367 0.029173 -0.015698 -129542.000000 0 0 1
-11.575635 -26.914948 -6.932831 30.107705 1.164629 1.803149 0.039296 -0.008839 -44639.400000 0 0 1
23.256565 12.935442 28.648442 39.101492 0.507595 0.748561 0.030763 0.003323 -321830.000000 0 0 1
23.924465 11.674442 28.626812 39.091777 0.453978 0.749107 0.019871 -0.000168 437888.000000 0 0 1
23.254665 10.588142 29.271662 38.855095 0.427263 0.717648 0.023115 -0.007175 -410236.000000 0 0 1
23.184565 10.543342 30.851832 40.006520 0.426803 0.690119 0.033541 -0.007193 -6985.610000 0 0 1
22.421965 11.598642 31.405292 40.293491 0.477383 0.677067 0.031775 0.003718 216063.000000 0 0 1
22.804565 11.827442 32.760173 41.631304 0.478451 0.665008 0.045450 0.000348 -200446.000000 0 0 1
21.963965 12.930642 33.468149 42.068210 0.532085 0.650851 0.033862 0.011869 -291539.000000 0 0 1
20.700465 12.494542 33.879921 41.622973 0.543053 0.619840 0.041267 0.010951 -396041.000000 0 0 1
20.043965 13.508842 -33.889821 41.626546 0.593035 2.522042 0.035188 0.017347 -226319.000000 0 0 1
18.694465 12.984742 -33.362031 40.387024 0.607077 2.542874 0.030050 0.016824 133679.000000 0 0 1
17.673265 12.667942 34.165890 40.498507 0.621903 0.566782 0.022687 0.012640 1346070.000000 0 0 1
16.543965 12.104642 -33.584581 39.346528 0.631663 2.593575 0.021073 0.006067 531757.000000 0 0 1
15.193465 11.959342 34.214016 39.299696 0.666848 0.514391 0.016594 0.007408 -247996.000000 0 0 1
15.235965 11.086842 33.134045 38.117157 0.629060 0.517076 0.026338 0.010281 -1045040.000000 0 0 1
13.955265 10.714442 32.809468 37.229154 0.654778 0.492223 0.012985 0.012091 -1190580.000000 0 0 1
13.821165 9.638442 31.727122 35.924009 0.608958 0.488211 0.021974 0.014401 -424941.000000 0 0 1
14.022665 8.297742 32.178682 36.068757 0.534322 0.468718 0.002732 0.008690 -250184.000000 0 0 1
14.938565 7.713242 31.322982 35.549740 0.476627 0.492607 0.007143 -0.002431 -223575.000000 0 0 1
15.480565 6.321642 31.761182 35.894063 0.387692 0.484605 0.039662 -0.014184 -564868.000000 0 0 1
14.450765 5.410042 31.786092 35.333395 0.358225 0.451933 0.036032 -0.012402 -643546.000000 0 0 1
14.840565 4.122942 32.214012 35.706912 0.270982 0.446003 0.049445 -0.024861 346041.000000 0 0 1
13.652465 3.163342 32.557682 35.445722 0.227687 0.406470 0.031999 -0.013043 442090.000000 0 0 1
14.112665 1.892842 32.897289 35.846643 0.133328 0.408487 0.049152 -0.022949 -15420.600000 0 0 1
12.973965 1.178942 33.306504 35.763625 0.090621 0.372843 0.050300 -0.020522 30730.000000 0 0 1
13.384265 -0.239458 33.792341 36.347190 -0.017889 0.377172 0.029985 -0.023200 249320.000000 0 0 1
13.968665 -1.047458 32.725853 35.597784 -0.074846 0.404440 0.028535 -0.012840 174844.000000 0 0 1
14.407665 -2.255458 33.248500 36.306069 -0.155285 0.413342 0.054925 -0.022098 -47207.200000 0 0 1
14.702565 -3.377558 32.129892 35.495116 -0.225808 0.438965 0.060767 -0.023862 -936420.000000 0 0 1
15.015965 -4.703658 32.580343 36.181243 -0.303562 0.449933 0.068859 -0.026471 400489.000000 0 0 1
16.253165 -5.007558 33.233335 37.332232 -0.298869 0.473002 0.064158 -0.024852 479285.000000 0 0 1
17.523865 -4.790658 32.386262 37.133626 -0.266859 0.511207 0.060243 -0.024412 -687545.000000 0 0 1
17.678865 -3.418858 32.118422 36.821514 -0.191029 0.510964 0.061547 -0.030046 -907197.000000 0 0 1
18.642465 -3.157858 31.168362 36.455183 -0.167798 0.545289 0.083103 -0.041632 -578734.000000 0 0 1
18.917365 -1.643058 31.181042 36.507858 -0.086637 0.546995 0.079065 -0.043647 -406095.000000 0 0 1
19.256365 -1.148758 32.461602 37.760864 -0.059585 0.536187 0.068394 -0.044436 -99700.900000 0 0 1
19.255365 0.269242 32.448895 37.732908 0.013982 0.535600 0.059707 -0.036618 510057.000000 0 0 1
20.367665 1.192142 31.768802 37.756056 0.058464 0.570886 0.080315 -0.040355 9592.530000 0 0 1
20.494665 0.977542 30.367902 36.649643 0.047661 0.594194 0.091289 -0.040935 -411903.000000 0 0 1
21.297165 1.939642 29.764352 36.650349 0.090825 0.623026 0.077140 -0.036173 -278955.000000 0 0 1
20.696565 3.392842 29.655162 36.322002 0.162487 0.615557 0.064825 -0.028858 -80281.300000 0 0 1
20.512365 3.953542 30.912882 37.309434 0.190405 0.594276 0.070783 -0.035222 271443.000000 0 0 1
19.785365 5.148342 30.780182 36.951126 0.254564 0.586293 0.058784 -0.027839 -215912.000000 0 0 1
19.607065 5.743342 32.185552 38.122601 0.284951 0.565605 0.053911 -0.020328 -446444.000000 0 0 1
18.781665 4.962042 32.999527 38.292840 0.258294 0.532053 0.059305 -0.021356 56815.700000 0 0 1
18.582665 5.547042 -34.231609 39.343210 0.290086 2.626154 0.060097 -0.016515 -608442.000000 0 0 1
17.312965 4.990142 -33.608731 38.133805 0.280625 2.649481 0.065599 -0.019655 -626078.000000 0 0 1
17.440565 3.703242 -33.146791 37.637708 0.209228 2.648093 0.059859 -0.025764 98881.800000 0 0 1
16.180565 3.257242 -32.678121 36.609834 0.198651 2.673887 0.057862 -0.035336 254162.000000 0 0 1
16.110665 1.734642 -32.921731 36.693363 0.107257 2.684212 0.047629 -0.039145 -105697.000000 0 0 1
17.201565 0.977542 -32.441771 36.733063 0.056768 2.653388 0.039174 -0.032778 101713.000000 0 0 1
17.018265 -0.404058 -32.793931 36.948972 -0.023738 2.662789 0.051823 -0.032123 -1051680.000000 0 0 1
18.055565 -1.335858 -32.256941 36.990515 -0.073851 2.630137 0.049947 -0.030105 -1078950.000000 0 0 1
18.066065 -1.588158 -30.866381 35.799978 -0.087683 2.610373 0.050714 -0.024778 307704.000000 0 0 1
18.380765 -0.463358 -30.063431 35.240277 -0.025203 2.592692 0.047990 -0.019842 -678721.000000 0 0 1
17.982065 -0.578158 -28.611081 33.797676 -0.032141 2.580248 0.036806 -0.012275 190636.000000 0 0 1
16.574765 -0.639558 -28.396391 32.885968 -0.038567 2.612926 0.045568 -0.020834 533841.000000 0 0 1
16.117665 -0.754258 -27.027081 31.477153 -0.046763 2.603378 0.040072 -0.017881 -78828.800000 0 0 1
16.683965 -1.816758 -26.036781 30.976915 -0.108465 2.569042 0.047640 -0.012087 -939159.000000 0 0 1
18.011065 -1.564958 -25.648531 31.379845 -0.086671 2.527605 0.051247 -0.007632 -271121.000000 0 0 1
18.675765 -2.814158 -25.466851 31.705901 -0.149560 2.503480 0.045008 -0.009017 86317.100000 0 0 1
19.480365 -3.386958 -26.627731 33.166130 -0.172144 2.502872 0.061161 -0.016745 -1073370.000000 0 0 1
20.672865 -2.746358 -26.924981 34.056783 -0.132075 2.482570 0.077098 -0.009994 -765824.000000 0 0 1
21.012965 -3.193358 -28.241621 35.345882 -0.150817 2.496439 0.086193 -0.015864 -483365.000000 0 0 1
22.333365 -2.639458 -28.752341 36.502644 -0.117639 2.477828 0.076317 -0.019801 -260405.000000 0 0 1
23.435765 -3.399458 -28.311481 36.909773 -0.144050 2.445020 0.063147 -0.020196 533059.000000 0 0 1
24.710565 -2.835658 -28.676681 37.960572 -0.114255 2.427112 0.042636 -0.017030 425008.000000 0 0 1
25.904365 -3.684958 -28.324681 38.560376 -0.141304 2.395806 0.053626 -0.014374 -717135.000000 0 0 1
26.214765 -4.774558 -29.169181 39.507612 -0.180158 2.401369 0.064176 -0.018441 379534.000000 0 0 1
27.473165 -5.403758 -28.988951 40.303036 -0.194213 2.373554 0.064453 -0.016854 121342.000000 0 0 1
27.591065 -6.538558 -27.948201 39.813585 -0.232688 2.348965 0.054956 -0.014160 -217301.000000 0 0 1
27.582265 -6.106158 -26.603381 38.804721 -0.217866 2.326184 0.050752 -0.003721 306740.000000 0 0 1
27.452265 -7.204058 -25.699301 38.288110 -0.256635 2.306634 0.031279 -0.005021 -101942.000000 0 0 1
27.414465 -6.795958 -24.198131 37.192573 -0.242998 2.279193 0.027056 -0.006488 -197149.000000 0 0 1
28.719865 -6.478858 -23.769531 37.839092 -0.221874 2.250000 0.021112 -0.003800 213934.000000 0 0 1
28.756165 -6.069858 -22.398831 36.952237 -0.208027 2.222015 0.028672 -0.007849 -10174.200000 0 0 1
30.156165 -5.590858 -21.946831 37.713597 -0.183315 2.191901 0.022105 -0.005202 -200390.000000 0 0 1
30.498165 -4.409258 -22.588231 38.207431 -0.143580 2.203342 0.017086 -0.006958 86606.300000 0 0 1
31.830565 -4.068958 -22.240231 39.043170 -0.127142 2.176854 0.025048 -0.005774 239438.000000 0 0 1
32.239165 -2.726858 -22.919231 39.649599 -0.084381 2.187127 0.034673 -0.013481 1871.000000 0 0 1
31.659965 -1.578958 -22.278431 38.744999 -0.049831 2.183402 0.028974 -0.013060 253324.000000 0 0 1
32.078865 -0.358658 -22.874531 39.400842 -0.011180 2.190212 0.021931 -0.014479 -525428.000000 0 0 1
31.069565 0.763242 -22.654731 38.459553 0.024561 2.200683 0.020794 -0.006859 -30423.100000 0 0 1
29.970965 0.685842 -23.552531 38.124150 0.022880 2.236719 0.012772 -0.006063 -79730.200000 0 0 1
28.913065 1.466042 -23.100631 37.037194 0.050662 2.244282 0.008022 0.000353 175258.000000 0 0 1
27.689565 1.556842 -24.090031 36.735070 0.056166 2.286008 0.017583 0.002370 1142450.000000 0 0 1
26.619265 2.400942 -23.590431 35.649099 0.089952 2.293933 0.017766 0.008036 511250.000000 0 0 1
25.818065 2.749042 -24.682531 35.823973 0.106078 2.330898 0.033621 0.008269 -63183.000000 0 0 1
24.719565 3.785742 -24.368331 34.917106 0.151967 2.343245 0.026382 0.007175 105406.000000 0 0 1
25.376165 4.912842 -23.789531 35.128728 0.191235 2.314761 0.021104 0.005683 -215099.000000 0 0 1
24.461965 5.874742 -23.469531 34.405221 0.235695 2.321496 0.030661 -0.004140 -823565.000000 0 0 1
25.024665 7.160142 -22.756531 34.573996 0.278678 2.289219 0.045077 -0.003389 -238046.000000 0 0 1
25.801465 7.965042 -23.623831 35.878167 0.299424 2.289548 0.039271 -0.004257 169520.000000 0 0 1
26.138965 9.216842 -22.993131 36.012217 0.338997 2.263320 0.051659 -0.010988 -334016.000000 0 0 1
26.946965 10.191042 -23.867631 37.412031 0.361563 2.262651 0.074156 -0.011760 -440004.000000 0 0 1
26.438765 10.534642 -25.150151 37.980483 0.379173 2.294529 0.069020 -0.009560 952960.000000 0 0 1
25.183565 11.256742 -25.169861 37.342310 0.420346 2.310448 0.080414 -0.013033 992096.000000 0 0 1
24.739965 11.627042 -26.641751 38.171153 0.439336 2.343334 0.073253 -0.015481 -133386.000000 0 0 1
24.325765 10.524442 -27.458371 38.163712 0.408329 2.373863 0.060880 -0.012327 247597.000000 0 0 1
25.305165 9.588642 -27.861811 38.840365 0.362203 2.370776 0.048214 -0.011652 -393521.000000 0 0 1
26.073965 9.955742 -29.137191 40.347793 0.364742 2.377703 0.038135 -0.002649 -872978.000000 0 0 1
27.049365 10.924142 -28.892111 41.057997 0.383829 2.351374 0.027716 0.002372 591208.000000 0 0 1
27.873065 11.408442 -29.962581 42.483133 0.388498 2.353617 0.013446 0.011032 559104.000000 0 0 1
28.889865 10.454142 -30.637141 43.388337 0.347203 2.354792 0.017534 0.002094 -156611.000000 0 0 1
28.224165 9.446642 -31.422611 43.280747 0.322981 2.383310 0.015986 -0.003798 1016920.000000 0 0 1
29.131065 8.373842 -31.743401 43.890588 0.279907 2.379278 0.015893 -0.000418 226910.000000 0 0 1
28.507065 7.491142 -32.857691 44.140660 0.256972 2.410411 0.027472 -0.010320 117113.000000 0 0 1
27.349665 6.812742 -32.399751 42.943702 0.244129 2.425643 0.037732 -0.010632 102106.000000 0 0 1
26.809365 6.018742 -33.441471 43.281628 0.220840 2.453798 0.045681 -0.016435 -293602.000000 0 0 1
25.603165 5.145242 -33.071271 42.139110 0.198320 2.473189 0.033393 -0.017854 1655430.000000 0 0 1
24.238365 5.661842 -32.919201 41.270190 0.229475 2.494186 0.043932 -0.019960 1834110.000000 0 0 1
24.026665 6.452442 -31.796321 40.372276 0.262363 2.477665 0.041738 -0.009722 948492.000000 0 0 1
22.491865 6.846642 -31.638151 39.417421 0.295493 2.502511 0.040802 -0.011587 1456910.000000 0 0 1
22.014565 7.807442 -32.596581 40.101550 0.340810 2.519826 0.043710 -0.007298 421309.000000 0 0 1
20.650865 8.148142 -32.380601 39.260079 0.375814 2.540595 0.050458 -0.013839 178864.000000 0 0 1
20.037465 9.211742 -33.380841 40.007959 0.430913 2.557758 0.044154 -0.005590 -289873.000000 0 0 1
19.792465 8.723442 33.760329 40.094887 0.415131 0.569796 0.045164 -0.009369 198195.000000 0 0 1
19.438565 9.747142 32.841748 39.388387 0.464794 0.584854 0.038458 -0.002859 -583880.000000 0 0 1
18.405365 9.420442 31.785812 37.918861 0.473068 0.576715 0.028718 -0.006575 -701749.000000 0 0 1
18.711165 8.468942 30.771832 36.996437 0.425026 0.588542 0.039904 -0.014211 -162746.000000 0 0 1
19.783865 8.710442 29.890342 36.887744 0.414742 0.626123 0.049217 -0.013037 -791071.000000 0 0 1
19.619465 9.872742 28.887312 36.288721 0.466214 0.650071 0.060271 -0.014337 -227407.000000 0 0 1
18.642765 9.695442 27.865792 34.900668 0.479570 0.646111 0.041211 -0.007095 460224.000000 0 0 1
17.332565 10.014342 28.286252 34.652805 0.523918 0.615862 0.035874 -0.013149 -462504.000000 0 0 1
16.188265 9.347742 27.526652 33.273966 0.523666 0.596560 0.043940 -0.015449 -487293.000000 0 0 1
16.131165 9.685442 26.173412 32.234605 0.540727 0.623283 0.053487 -0.019955 117237.000000 0 0 1
14.938765 9.394042 25.479782 30.994097 0.561353 0.605733 0.060254 -0.020823 -25891.500000 0 0 1
14.756065 7.862142 25.047212 30.115072 0.489548 0.588604 0.048605 -0.016587 -47543.800000 0 0 1
14.493265 7.028842 26.161452 30.722645 0.451554 0.551887 0.035333 -0.010982 230619.000000 0 0 1
13.934965 5.771342 25.763712 29.853986 0.392656 0.529637 0.041392 -0.015795 23526.800000 0 0 1
13.944265 4.720142 26.883882 30.650700 0.326394 0.500995 0.065968 -0.013855 28265.400000 0 0 1
15.257565 4.221542 27.054022 31.345411 0.269932 0.529433 0.036584 -0.015087 355186.000000 0 0 1
15.576265 4.092242 28.433582 32.677746 0.256917 0.515349 0.031300 -0.017512 549812.000000 0 0 1
16.734565 3.093242 28.818562 33.468244 0.182779 0.533422 0.059306 -0.031403 464530.000000 0 0 1
16.436765 1.712342 28.724122 33.138717 0.103803 0.522079 0.059094 -0.024393 -169348.000000 0 0 1
15.807565 1.263842 29.864802 33.813944 0.079782 0.488134 0.050183 -0.014430 -141251.000000 0 0 1
15.489865 -0.261658 30.021092 33.782693 -0.016891 0.476397 0.055425 -0.018680 224131.000000 0 0 1
14.551265 -0.782158 29.065222 32.513662 -0.053700 0.464739 0.041766 -0.008266 696406.000000 0 0 1
15.064965 -0.981458 27.733602 31.576401 -0.065056 0.498498 0.050333 -0.009665 -1253510.000000 0 0 1
16.194265 -1.997258 27.396332 31.887337 -0.122711 0.537170 0.048020 -0.011622 429545.000000 0 0 1
17.491365 -1.733158 27.900342 32.975457 -0.098764 0.562182 0.063272 -0.024580 -55453.100000 0 0 1
18.021865 -0.672858 27.153862 32.597125 -0.037318 0.586263 0.067413 -0.024732 -2715960.000000 0 0 1
19.481465 -0.465858 27.446692 33.661037 -0.023908 0.617403 0.097444 -0.033609 -572830.000000 0 0 1
20.369865 -1.422258 26.819982 33.708540 -0.069709 0.650727 0.083368 -0.024346 1041930.000000 0 0 1
21.730265 -1.072158 27.123912 34.771548 -0.049299 0.676034 0.071777 -0.024631 839654.000000 0 0 1
22.871365 -1.613758 26.246612 34.850942 -0.070441 0.718019 0.073898 -0.012652 -191926.000000 0 0 1
22.928165 -1.420158 24.814482 33.815324 -0.061860 0.746863 0.085094 -0.001033 377918.000000 0 0 1
21.913365 -2.096458 24.064832 32.614519 -0.095380 0.740907 0.094206 0.003282 101805.000000 0 0 1
21.713865 -1.506458 22.668232 31.426264 -0.069267 0.765097 0.090438 -0.012281 -158822.000000 0 0 1
21.160765 -0.221758 22.548132 30.923218 -0.010479 0.753695 0.077003 -0.011607 52989.600000 0 0 1
21.040165 0.281242 21.287532 29.932034 0.013366 0.779599 0.068311 -0.007875 108048.000000 0 0 1
-30.454745 -27.416367 -10.453931 42.289873 0.732944 1.820583 -0.024034 0.019039 124433.000000 0 0 1
-30.094895 -26.365367 -9.530831 41.129941 0.719438 1.804647 -0.004782 0.018092 -456590.000000 0 0 1
-30.866945 -26.395667 -8.386831 41.470936 0.707473 1.774435 0.014078 0.009312 -903688.000000 0 0 1
-31.016045 -24.964367 -7.744631 40.560991 0.677713 1.762914 0.042341 -0.003897 -27742.400000 0 0 1
-29.886515 -24.354167 -7.155031 39.211270 0.683753 1.754298 0.030044 -0.009301 -516417.000000 0 0 1
-29.430055 -24.916567 -5.937231 39.015563 0.702538 1.723566 0.024003 -0.007086 646353.000000 0 0 1
-28.049035 -24.327167 -5.505331 37.534892 0.714457 1.718000 0.024361 -0.005520 190315.000000 0 0 1
-28.148355 -23.205067 -4.626031 36.772343 0.689434 1.696932 0.036485 -0.012182 -186119.000000 0 0 1
-28.687385 -22.030467 -5.113331 36.530175 0.654890 1.711233 0.039330 -0.015010 -259490.000000 0 0 1
-28.613315 -20.929067 -4.002231 35.675839 0.631520 1.683216 0.036919 -0.018405 -133128.000000 0 0 1
-27.489385 -20.135967 -4.284031 34.343506 0.632207 1.695863 0.045270 -0.024081 77798.800000 0 0 1
-27.387165 -19.097467 -3.286531 33.549536 0.608921 1.668914 0.053463 -0.016283 -273522.000000 0 0 1
-26.319645 -18.035767 -3.526031 32.100553 0.600764 1.680862 0.050592 -0.014088 -124504.000000 0 0 1
-26.696495 -17.081967 -4.484931 32.009546 0.569212 1.711371 0.050841 -0.021302 960952.000000 0 0 1
-25.655195 -16.079567 -4.636031 30.630611 0.559862 1.722733 0.056513 -0.021491 788962.000000 0 0 1
-26.125765 -15.014667 -5.687831 30.665082 0.521614 1.757359 0.049725 -0.033355 199434.000000 0 0 1
-27.235805 -14.243667 -5.262131 31.182706 0.481859 1.740359 0.047783 -0.029926 73494.300000 0 0 1
-27.605245 -13.344467 -6.272131 31.296389 0.450282 1.772573 0.070914 -0.045719 -316464.000000 0 0 1
-28.953485 -12.612667 -6.163031 32.177113 0.410830 1.763522 0.062570 -0.034617 128096.000000 0 0 1
-30.049455 -13.389667 -6.626731 33.558404 0.419179 1.769571 0.062221 -0.031267 -40391.600000 0 0 1
-31.267055 -12.738267 -6.409831 34.365362 0.386871 1.758415 0.046797 -0.033368 483534.000000 0 0 1
-32.515315 -13.462367 -7.082131 35.897599 0.392544 1.769386 0.024449 -0.025055 591970.000000 0 0 1
-32.964545 -14.566567 -6.274731 36.581667 0.416086 1.743175 0.026268 -0.026034 196437.000000 0 0 1
-32.866535 -15.686367 -7.103031 37.104236 0.445303 1.763420 0.034865 -0.033329 -741492.000000 0 0 1
-33.750185 -16.910867 -6.763431 38.350964 0.464495 1.748080 0.025454 -0.028030 382503.000000 0 0 1
-35.157303 -16.743267 -6.835831 39.536079 0.444459 1.744571 0.015445 -0.026478 275987.000000 0 0 1
-35.709995 -16.059467 -5.742231 39.573772 0.422620 1.716412 0.010134 -0.028305 -264947.000000 0 0 1
34.914115 -16.206067 -5.605431 38.897980 -0.434575 1.715406 0.028443 -0.033028 -89689.900000 0 0 1
34.138005 -15.397367 -6.543231 38.017051 -0.423713 1.743771 0.046685 -0.030066 386952.000000 0 0 1
32.751705 -15.445367 -6.337831 36.761415 -0.440662 1.744066 0.066473 -0.037302 -222824.000000 0 0 1
32.294565 -14.630067 -5.089031 35.817259 -0.425362 1.713362 0.084602 -0.042303 -927795.000000 0 0 1
32.738105 -15.189067 -3.825331 36.292209 -0.434400 1.676396 0.070030 -0.040099 387321.000000 0 0 1
32.220025 -14.415967 -2.788731 35.408009 -0.420708 1.649638 0.109727 -0.042018 -896643.000000 0 0 1
32.024955 -15.126667 -1.369931 35.444188 -0.441276 1.609456 0.102068 -0.042748 -305647.000000 0 0 1
33.195665 -15.391767 -0.623331 36.595726 -0.434162 1.587830 0.108811 -0.039733 256001.000000 0 0 1
34.226265 -16.134067 -1.277131 37.859958 -0.440502 1.604536 0.084442 -0.039492 -760664.000000 0 0 1
33.994455 -17.597167 -1.745931 38.318814 -0.477666 1.616375 0.075219 -0.034823 -921311.000000 0 0 1
34.125895 -18.545167 -0.684431 38.845442 -0.497788 1.588417 0.082363 -0.027591 363269.000000 0 0 1
33.811385 -19.869267 -1.094531 39.232582 -0.531289 1.598698 0.065934 -0.026773 98013.600000 0 0 1
34.877595 -20.499567 -2.026531 40.506613 -0.531369 1.620847 0.055702 -0.026962 60952.200000 0 0 1
34.801135 -19.916267 -3.302531 40.232865 -0.519794 1.652974 0.029764 -0.028741 87246.300000 0 0 1
35.664055 -20.579967 -4.206331 41.390253 -0.523374 1.672598 0.041928 -0.028367 -286991.000000 0 0 1
35.725465 -19.835967 -5.598131 41.244557 -0.506852 1.706947 0.047194 -0.032510 673295.000000 0 0 1
34.529105 -19.857067 -6.446231 40.349921 -0.521896 1.731242 0.037158 -0.035706 1238320.000000 0 0 1
34.666755 -19.147767 -7.668631 40.338924 -0.504636 1.762065 0.037074 -0.038462 -183674.000000 0 0 1
33.618085 -19.369567 -8.781431 39.780263 -0.522709 1.793378 0.031879 -0.045549 -9634.490000 0 0 1
33.933655 -20.551067 -9.486731 40.790163 -0.544545 1.805520 0.038734 -0.047535 840729.000000 0 0 1
32.898385 -20.731067 -10.465231 40.269119 -0.562297 1.833697 0.046068 -0.052445 235463.000000 0 0 1
32.795745 -22.196867 -11.013031 41.104120 -0.595000 1.842040 0.046687 -0.047268 -150203.000000 0 0 1
32.318845 -23.014567 -9.979331 40.911674 -0.618807 1.817206 0.036744 -0.040914 4935.920000 0 0 1
32.100785 -24.347967 -10.455131 41.624436 -0.648910 1.824693 0.029209 -0.027735 55803.200000 0 0 1
31.231905 -25.182667 -9.441331 41.215741 -0.678578 1.801920 0.034074 -0.019443 673393.000000 0 0 1
29.891735 -24.708967 -9.388531 39.902298 -0.690760 1.808311 0.034551 -0.017864 1005490.000000 0 0 1
28.964055 -25.615167 -8.721131 39.637248 -0.724117 1.792635 0.015560 -0.004072 666868.000000 0 0 1
27.520985 -25.124167 -8.582431 38.239855 -0.739902 1.797161 0.023263 -0.014566 -86050.400000 0 0 1
26.896605 -24.878067 -9.834331 37.934940 -0.746431 1.833034 0.030981 -0.012322 122363.000000 0 0 1
25.600405 -24.329167 -9.656731 36.613407 -0.759943 1.837703 0.050930 -0.020826 260441.000000 0 0 1
24.835805 -23.997667 -10.987631 36.241320 -0.768237 1.878824 0.079584 -0.034536 76482.200000 0 0 1
24.384805 -25.160967 -11.696431 36.939132 -0.801062 1.892982 0.072361 -0.025863 207502.000000 0 0 1
23.546605 -24.885567 -12.772531 36.563255 -0.813037 1.927649 0.079388 -0.013232 -359077.000000 0 0 1
22.811605 -26.104767 -13.296031 37.129673 -0.852619 1.937025 0.083935 -0.012289 -96029.800000 0 0 1
23.655105 -27.013567 -14.000831 38.539850 -0.851584 1.942584 0.074835 -0.011465 443708.000000 0 0 1
23.117605 -28.314967 -14.071131 39.168326 -0.886108 1.938258 0.085857 -0.017210 135300.000000 0 0 1
24.192405 -29.272767 -14.667331 40.709925 -0.880136 1.939374 0.077965 -0.022795 202111.000000 0 0 1
24.427505 -29.114467 -16.066831 41.261341 -0.872714 1.970768 0.074769 -0.014026 244109.000000 0 0 1
24.654605 -30.425467 -16.594331 42.531523 -0.889790 1.971608 0.080203 -0.009325 -424385.000000 0 0 1
24.466105 -30.649267 -18.083931 43.185605 -0.897117 2.002864 0.070858 -0.005110 -60978.000000 0 0 1
23.098105 -30.598367 -18.431931 42.538437 -0.924179 2.018948 0.065395 -0.006651 101274.000000 0 0 1
22.936305 -30.478567 -19.808431 42.981288 -0.925672 2.049762 0.056392 -0.005540 -884597.000000 0 0 1
21.531605 -30.158267 -20.245131 42.225542 -0.950767 2.070827 0.044141 -0.003370 -886529.000000 0 0 1
21.413705 -30.053967 -21.670031 42.794602 -0.951725 2.101770 0.041906 -0.000669 406078.000000 0 0 1
20.042305 -29.907767 -22.042631 42.214288 -0.980395 2.120179 0.048445 -0.007121 242492.000000 0 0 1
19.837605 -30.123467 -23.581731 43.093525 -0.988439 2.149838 0.046034 -0.006907 -470847.000000 0 0 1
20.205405 -29.057367 -24.393831 42.984276 -0.963190 2.174270 0.052808 -0.007878 311448.000000 0 0 1
20.179405 -29.459067 -25.730981 44.012821 -0.970210 2.195214 0.045361 -0.010864 -545289.000000 0 0 1
20.673105 -28.362967 -26.712031 44.106324 -0.940952 2.221351 0.048294 -0.018949 129755.000000 0 0 1
19.844005 -27.206067 -26.918461 43.110998 -0.940613 2.245158 0.065488 -0.025863 -203433.000000 0 0 1
18.719305 -27.478167 -27.693381 43.271069 -0.972770 2.265291 0.082475 -0.032501 -759965.000000 0 0 1
17.955705 -26.213067 -28.121311 42.430418 -0.970215 2.295299 0.083595 -0.032869 -290578.000000 0 0 1
17.116005 -25.749367 -27.096211 41.111947 -0.984146 2.290396 0.061444 -0.012670 -143925.000000 0 0 1
16.598605 -24.433067 -27.310011 40.228412 -0.974064 2.317024 0.050855 -0.001222 -105490.000000 0 0 1
15.471905 -24.125767 -26.324551 38.915479 -1.000560 2.313734 0.054978 -0.000779 -467952.000000 0 0 1
14.279505 -24.847867 -26.559641 39.073460 -1.049205 2.318199 0.074047 -0.021805 -339618.000000 0 0 1
13.219405 -24.515967 -25.677311 37.882841 -1.076270 2.315574 0.048300 -0.014298 187023.000000 0 0 1
13.274205 -24.774367 -24.156631 37.060985 -1.078917 2.280762 0.044538 -0.012519 -240480.000000 0 0 1
14.250305 -24.034967 -23.412731 36.454174 -1.035615 2.268228 0.035529 -0.006015 115870.000000 0 0 1
14.009005 -24.143767 -22.012531 35.548913 -1.045038 2.238543 0.047362 -0.014853 631780.000000 0 0 1
15.291605 -23.684867 -21.227831 35.290607 -0.997501 2.216193 0.023900 -0.018875 696343.000000 0 0 1
15.475105 -22.282467 -21.266931 34.471286 -0.963773 2.235653 0.024555 -0.020455 636947.000000 0 0 1
16.694905 -21.882967 -20.629531 34.397117 -0.919079 2.213980 0.038075 -0.014226 115215.000000 0 0 1
16.643805 -20.445867 -20.039231 33.115261 -0.887551 2.220733 0.049436 -0.000854 -124409.000000 0 0 1
15.908105 -20.340567 -18.864831 31.979499 -0.907073 2.201736 0.048679 -0.010048 -495439.000000 0 0 1
14.547505 -20.056167 -18.985031 31.213958 -0.943266 2.224616 0.038178 -0.016234 -957656.000000 0 0 1
13.783905 -20.190767 -17.695031 30.179086 -0.971787 2.197322 0.048739 -0.019628 -380783.000000 0 0 1
14.083105 -19.266967 -16.657331 29.103549 -0.939602 2.180162 0.061541 -0.009259 659621.000000 0 0 1
13.028605 -19.171367 -15.681231 27.985476 -0.973902 2.165586 0.074134 -0.011626 454923.000000 0 0 1
13.176805 -17.922967 -14.775631 26.705434 -0.936841 2.157095 0.070377 -0.013769 -264180.000000 0 0 1
12.865505 -16.695267 -15.466631 26.143256 -0.914236 2.203852 0.090685 -0.018626 311640.000000 0 0 1
12.857705 -15.506667 -14.687731 24.930037 -0.878519 2.200813 0.077263 -0.018540 528734.000000 0 1 0
11.424405 -15.024767 -14.273031 23.663898 -0.920690 2.218249 0.063776 -0.008892 607994.000000 0 1 0
10.649805 -14.437967 -15.294331 23.575195 -0.935262 2.276733 0.063337 -0.003911 -461090.000000 0 1 0
9.462505 -13.867467 -14.842231 22.408424 -0.972013 2.294748 0.059093 -0.010397 -50181.900000 0 1 0
8.512405 -13.348667 -15.974031 22.490390 -1.003119 2.360664 0.043810 -0.003725 192106.000000 0 1 0
8.879905 -12.164667 -16.690631 22.481304 -0.940235 2.407476 0.036992 -0.000035 138813.000000 0 1 0
10.045705 -12.285867 -17.504331 23.627533 -0.885377 2.405123 0.051561 -0.001614 178093.000000 0 1 0
10.197905 -11.218167 -18.597031 23.993626 -0.833002 2.457641 0.048742 -0.002118 -120653.000000 0 1 0
9.251105 -11.207767 -19.643831 24.435161 -0.880747 2.504648 0.043441 -0.003151 80928.400000 0 1 0
9.148505 -9.912767 -20.180631 24.273771 -0.825472 2.552376 0.023882 -0.007830 -132292.000000 0 1 0
8.929505 -10.054067 -21.713631 25.540206 -0.844568 2.587113 0.033576 -0.006084 466869.000000 0 0 1
10.073105 -10.634567 -22.329831 26.705483 -0.812505 2.561025 0.024252 -0.002928 -15059.600000 0 0 1
9.794205 -10.712267 -23.713331 27.802899 -0.830138 2.592328 0.022065 -0.001399 -28771.900000 0 0 1
10.861905 -11.391667 -24.569331 29.178812 -0.809199 2.571825 0.042740 -0.002859 -336331.000000 0 0 1
10.862805 -12.767167 -24.426931 29.625598 -0.865815 2.540152 0.042180 -0.001649 225248.000000 0 0 1
11.939205 -13.418067 -25.109931 30.872282 -0.843653 2.520682 0.041742 -0.005944 287148.000000 0 0 1
11.989705 -14.962367 -24.763431 31.318572 -0.895249 2.482739 0.034748 -0.006926 479395.000000 0 0 1
10.959205 -15.721467 -25.418761 31.833663 -0.962029 2.495574 0.040124 -0.006590 192649.000000 0 0 1
10.834505 -17.041167 -24.907231 32.064904 -1.004480 2.460326 0.041970 -0.011027 408817.000000 0 0 1
9.625805 -17.846267 -25.479131 32.562732 -1.076148 2.469408 0.047203 -0.010492 552959.000000 0 0 1
9.773305 -18.431867 -26.768481 33.938220 -1.083251 2.479555 0.044342 -0.021283 210851.000000 0 0 1
8.521105 -19.075167 -26.984821 34.126995 -1.150680 2.482777 0.052333 -0.021713 350393.000000 0 0 1
8.554705 -20.107567 -28.169121 35.651040 -1.168547 2.481825 0.058089 -0.025148 162835.000000 0 0 1
9.399805 -21.237867 -27.876011 36.283265 -1.154116 2.446959 0.047428 -0.025402 349007.000000 0 0 1
9.444105 -22.115067 -29.006561 37.678215 -1.167196 2.449402 0.050563 -0.024363 154919.000000 0 0 1
10.195005 -23.445867 -28.693051 38.430951 -1.160628 2.413753 0.049378 -0.020823 174659.000000 0 0 1
10.134905 -24.421267 -29.712351 39.773589 -1.177423 2.414390 0.060192 -0.019355 -121661.000000 0 0 1
10.564905 -25.703367 -29.321671 40.398524 -1.180816 2.383008 0.071274 -0.020533 68545.300000 0 0 1
9.885205 -26.412267 -28.120111 39.825442 -1.212670 2.354749 0.065065 -0.024193 -90363.400000 0 0 1
10.609205 -26.298767 -26.948551 39.120389 -1.187353 2.330714 0.055869 -0.016772 -645801.000000 0 0 1
9.803305 -26.573867 -25.814341 38.323040 -1.217378 2.309863 0.049179 -0.018431 733775.000000 0 0 1
8.964405 -25.329167 -25.318971 36.918526 -1.230637 2.326508 0.037223 -0.017276 656907.000000 0 0 1
9.866105 -24.225767 -25.108511 36.258312 -1.184050 2.335731 0.035507 -0.009992 398804.000000 0 0 1
9.160505 -23.000067 -24.943231 35.143744 -1.191772 2.359938 0.026199 -0.008998 89060.700000 0 0 1
10.173705 -21.900767 -24.593731 34.467369 -1.135920 2.365330 0.042835 -0.012727 11150.400000 0 0 1
10.628405 -21.949567 -23.279331 33.714593 -1.119853 2.332952 0.043772 -0.018191 575520.000000 0 0 1
11.745105 -21.029467 -23.195231 33.439568 -1.061445 2.337335 0.042901 -0.019502 401159.000000 0 0 1
12.160505 -20.720967 -21.712931 32.383449 -1.040088 2.305672 0.038555 -0.017109 -91302.100000 0 0 1
11.214705 -19.996567 -20.928731 31.042617 -1.059675 2.310668 0.044768 -0.012214 47399.000000 0 0 1
10.893505 -18.657167 -21.242431 30.298502 -1.042316 2.347742 0.047551 -0.009554 -606425.000000 0 0 1
11.971105 -17.595467 -21.144431 29.999913 -0.973379 2.352961 0.035864 -0.009774 -467449.000000 0 0 1
12.923505 -17.578067 -22.154931 31.094154 -0.936831 2.363867 0.033598 -0.000513 -199061.000000 0 0 1
14.226605 -17.293667 -21.673631 31.164298 -0.882397 2.339861 0.033600 -0.000040 535330.000000 0 0 1
15.341805 -17.188667 -22.758631 32.384820 -0.842111 2.350061 0.024327 0.006823 -603882.000000 0 0 1
16.583705 -17.198167 -22.176431 32.597397 -0.803585 2.318986 0.031034 0.005502 -523150.000000 0 0 1
17.684005 -17.031567 -23.077731 33.695400 -0.766607 2.325253 0.036039 0.003364 -202430.000000 0 0 1
18.982705 -17.171967 -22.323931 33.964355 -0.735357 2.287994 0.031856 -0.000216 -793621.000000 0 0 1
19.357005 -18.534667 -22.112631 34.744726 -0.763699 2.260659 0.036829 -0.001260 1199690.000000 0 0 1
20.737105 -18.757867 -21.737331 35.417463 -0.735326 2.231593 0.041600 -0.010755 1175570.000000 0 0 1
20.930005 -20.225867 -21.438831 36.149333 -0.768291 2.205654 0.044594 -0.008586 -189317.000000 0 0 1
20.322105 -20.633667 -20.241231 35.333321 -0.793005 2.180794 0.043850 -0.010940 174816.000000 0 0 1
20.581605 -21.984167 -19.958531 36.128230 -0.818337 2.156080 0.057878 -0.006933 -446101.000000 0 0 1
-15.762635 13.245442 28.989332 35.556768 -0.698839 0.617554 0.041744 -0.016679 -223434.000000 0 0 1
-17.018335 13.745342 28.588422 35.998000 -0.679405 0.653161 0.057023 -0.024127 13324.700000 0 0 1
-17.081535 13.588942 27.202582 34.877194 -0.672012 0.676205 0.050041 -0.024785 280683.000000 0 0 1
-18.410235 14.148542 26.630242 35.331117 -0.655246 0.717072 0.070893 -0.023478 267902.000000 0 0 1
-18.290135 15.530142 26.600092 35.822887 -0.703971 0.733935 0.069564 -0.024568 -187407.000000 0 0 1
-19.163635 15.974342 25.611412 35.754286 -0.694881 0.772286 0.083520 -0.024313 -653581.000000 0 0 1
-19.468535 17.478642 25.560522 36.576865 -0.731592 0.797055 0.093085 -0.017881 -414323.000000 0 0 1
-18.440635 18.382842 25.343892 36.335916 -0.783829 0.798909 0.041621 -0.022538 4525.220000 0 0 1
-17.425035 18.511642 26.358232 36.620611 -0.815626 0.767333 0.038204 -0.014377 -260999.000000 0 0 1
-16.259535 19.412142 26.052212 36.330724 -0.873548 0.771186 0.036658 -0.012475 -569620.000000 0 0 1
-16.535635 20.798342 26.101822 37.246522 -0.899084 0.794298 0.043965 -0.015389 -242847.000000 0 0 1
-15.531835 21.496542 25.426142 36.740005 -0.945111 0.806463 0.049851 -0.018213 -200936.000000 0 0 1
-15.667435 23.019842 25.430972 37.710953 -0.973206 0.830691 0.049660 -0.019850 -212421.000000 0 0 1
-15.212635 23.730942 26.561332 38.730947 -1.000741 0.815106 0.049639 -0.017988 53228.200000 0 0 1
-15.497435 25.158842 26.505342 39.694723 -1.018707 0.839642 0.048586 -0.018881 -175340.000000 0 0 1
-15.109235 26.039142 27.765252 40.954061 -1.045025 0.825811 0.032934 -0.013983 920337.000000 0 0 1
-13.691435 26.292642 27.760782 40.613045 -1.090701 0.818190 0.030757 -0.011846 640556.000000 0 0 1
-13.292535 26.986342 28.910742 41.722718 -1.113114 0.805257 0.038389 -0.007141 971698.000000 0 0 1
-11.719935 27.079542 28.907742 41.307579 -1.162340 0.795655 0.051402 -0.010736 1286880.000000 0 0 1
-11.078435 27.821642 27.865962 40.905835 -1.191847 0.821366 0.055196 -0.014470 -236577.000000 0 0 1
-9.711135 27.505842 27.810982 40.302956 -1.231401 0.809241 0.038140 -0.009380 -60905.900000 0 0 1
-8.878935 28.249942 26.707412 39.877069 -1.266273 0.836933 0.050504 -0.017958 -835798.000000 0 0 1
-7.557535 27.855642 26.777212 39.370957 -1.305863 0.822862 0.039482 -0.013517 -380667.000000 0 0 1
-6.828335 28.424742 25.644252 38.887270 -1.335039 0.850708 0.061642 -0.018022 16.474800 0 0 1
-5.310135 28.249642 25.683142 38.546902 -1.384993 0.841583 0.021845 -0.019940 -308850.000000 0 0 1
-4.588435 29.161042 26.516372 39.680450 -1.414728 0.838945 0.031154 -0.019758 669775.000000 0 0 1
-3.171635 29.071042 26.378002 39.382531 -1.462127 0.836871 0.016159 -0.012524 786184.000000 0 0 1
-2.588635 30.119642 25.323862 39.435921 -1.485062 0.873494 0.003289 -0.008823 -459309.000000 0 0 1
-2.744135 29.685442 24.009532 38.278106 -1.478618 0.892793 -0.000564 0.003144 53019.300000 0 0 1
-2.431335 30.732242 23.102632 38.524197 -1.491847 0.927681 -0.003636 0.005696 -132689.000000 0 0 1
-2.671435 30.364742 21.572432 37.343326 -1.483044 0.954915 0.000604 0.006174 1435640.000000 0 0 1
-4.060535 30.132342 21.231732 37.084127 -1.436847 0.961209 0.007118 0.007459 1026690.000000 0 0 1
-4.597735 28.852042 21.464632 36.253413 -1.412769 0.937169 0.005384 -0.000177 638326.000000 0 0 1
-6.138635 28.663042 21.220432 36.187837 -1.359818 0.944193 0.029945 -0.005026 554581.000000 0 0 1
-6.570635 28.841442 19.875932 35.637827 -1.346800 0.979160 0.018951 0.000213 113710.000000 0 0 1
-7.530435 27.877942 19.492332 34.840180 -1.306971 0.977040 0.015603 -0.005568 -649115.000000 0 0 1
-6.930935 26.487042 19.096032 33.380529 -1.314862 0.961768 0.006676 -0.003634 149222.000000 0 0 1
-6.130235 26.434142 17.921332 32.519499 -1.342918 0.987120 0.006448 -0.006414 1115200.000000 0 0 1
-4.770435 26.851242 18.197032 32.785336 -1.394969 0.982390 0.014560 0.000124 312188.000000 0 0 1
-3.907335 27.073542 16.954732 32.182401 -1.427463 1.015927 0.011455 -0.008327 -228170.000000 0 0 1
-3.426235 25.861242 16.409232 30.818920 -1.439078 1.009316 0.028473 -0.013537 74060.900000 0 0 1
-2.506835 26.168742 15.372432 30.453226 -1.475293 1.041660 0.030358 -0.027610 -55528.100000 0 0 1
-1.752535 25.057842 14.691632 29.100015 -1.500970 1.041569 0.039189 -0.029952 302784.000000 0 0 1
-0.779235 24.402242 15.533232 28.937138 -1.538874 1.004166 0.037715 -0.028371 500304.000000 0 0 1
-0.174735 23.254342 14.941932 27.641568 -1.563282 0.999693 0.037325 -0.035090 -1070890.000000 0 0 1
1.132865 22.909342 15.601332 27.740276 1.521387 0.973502 0.031446 -0.032798 -611956.000000 0 0 1
2.130465 23.877042 15.296832 28.436686 1.481805 1.002821 0.030891 -0.038807 117898.000000 0 0 1
3.400765 23.468642 15.761332 28.473882 1.426891 0.984192 0.033035 -0.031408 -32671.600000 0 0 1
4.542165 24.487942 15.569232 29.371612 1.387395 1.012104 0.032347 -0.028812 600819.000000 0 0 1
5.801565 23.822542 15.705932 29.117829 1.331914 1.001081 0.031572 -0.018657 660339.000000 0 0 1
6.928565 24.665342 15.511432 29.949769 1.296951 1.026385 0.040205 -0.013710 -359979.000000 0 0 1
8.296865 24.001942 15.622632 29.816067 1.237980 1.019295 0.045427 -0.006240 -394937.000000 0 0 1
8.727565 23.208842 14.536232 28.742352 1.211110 1.040554 0.035409 -0.009334 -275856.000000 0 0 1
9.454865 23.995342 13.675132 29.192125 1.195448 1.083258 0.030547 -0.011940 -788659.000000 0 0 1
10.060765 23.217442 12.478732 28.213248 1.161893 1.112634 0.034629 -0.009686 65717.800000 0 0 1
11.065665 22.283142 12.864832 28.008772 1.109878 1.093573 0.038386 -0.007508 319242.000000 0 0 1
11.604965 21.583642 11.735732 27.170871 1.077466 1.124172 0.049579 -0.011519 1059050.000000 0 0 1
12.799565 20.589742 12.012732 27.056831 1.014611 1.110759 0.035639 -0.005514 837811.000000 0 0 1
12.289465 19.427342 12.711132 26.268336 1.006760 1.065696 0.042219 -0.006806 10033.100000 0 0 1
13.209865 18.398442 12.948832 26.089758 0.948099 1.051443 0.044921 -0.009180 -55462.300000 0 0 1
13.973865 18.507442 14.329932 27.260618 0.924077 1.017301 0.046059 -0.003019 192042.000000 0 0 1
15.157665 17.753642 14.409532 27.433214 0.864113 1.017777 0.040240 -0.003480 104764.000000 0 0 1
15.671765 17.630942 15.733532 28.354865 0.844160 0.982578 0.042691 -0.008547 231125.000000 0 0 1
17.044965 16.914642 15.818232 28.755042 0.781561 0.988309 0.040686 -0.014794 124053.000000 0 0 1
17.445465 16.706442 17.155332 29.626928 0.763762 0.953239 0.045624 -0.025461 486448.000000 0 0 1
18.596665 15.838242 17.174832 29.860689 0.705463 0.957990 0.044093 -0.024087 596668.000000 0 0 1
19.080165 15.568242 18.661932 30.898067 0.684384 0.922306 0.056280 -0.030029 -213840.000000 0 0 1
19.632065 16.771842 19.208132 32.181750 0.706990 0.931209 0.075381 -0.021973 207232.000000 0 0 1
18.688565 17.624942 19.816732 32.443858 0.756117 0.913725 0.058593 -0.017772 -200296.000000 0 0 1
19.295165 18.667442 20.796332 33.959744 0.768864 0.911726 0.064185 -0.016387 11585.800000 0 0 1
18.277165 19.399042 21.468532 34.223902 0.815166 0.892720 0.078772 -0.024954 463998.000000 0 0 1
18.858365 20.489442 22.145032 35.578893 0.826827 0.898965 0.070107 -0.014588 679408.000000 0 0 1
17.763065 21.443042 22.760232 35.963297 0.878986 0.885537 0.078677 -0.014493 1018020.000000 0 0 1
16.854565 20.882542 23.734422 35.825685 0.891733 0.846648 0.083255 -0.018446 370453.000000 0 0 1
16.194265 21.942342 24.343952 36.556102 0.934995 0.842051 0.082983 -0.024009 -241141.000000 0 0 1
15.322465 21.558042 25.520562 36.753588 0.952889 0.803253 0.101816 -0.023275 121747.000000 0 0 1
14.284265 20.619242 25.325452 35.645082 0.964943 0.780603 0.092485 -0.025001 -87678.900000 0 0 1
13.415265 20.503142 26.417222 36.030790 0.991402 0.747803 0.082034 -0.020321 475161.000000 0 0 1
12.358865 19.347942 26.269972 34.888334 1.002357 0.718228 0.083924 -0.021955 359457.000000 0 0 1
12.963765 18.078242 26.404632 34.526608 0.948691 0.700125 0.087944 -0.030278 107567.000000 0 0 1
13.621865 17.509342 25.289042 33.640272 0.909629 0.720086 0.093817 -0.031322 246545.000000 0 0 1
12.742565 17.236342 23.993852 32.174049 0.934188 0.729134 0.094790 -0.033113 -258234.000000 0 0 1
12.405065 18.329942 23.164632 32.038611 0.975835 0.762629 0.089332 -0.026913 -26561.900000 0 0 1
13.452865 18.923542 22.401732 32.263255 0.952788 0.803291 0.087872 -0.024570 54362.100000 0 0 1
14.181165 18.028542 21.381532 31.357674 0.904283 0.820494 0.095492 -0.025506 -735256.000000 0 0 1
13.414165 17.520042 20.330532 30.003704 0.917356 0.826301 0.072787 -0.021256 -82510.800000 0 0 1
14.090865 16.545742 19.515732 29.209209 0.865356 0.839095 0.061852 -0.021132 -548417.000000 0 0 1
13.112665 15.864042 18.648432 27.773618 0.880066 0.834641 0.061439 -0.013645 -450632.000000 0 0 1
12.495865 16.743342 17.685832 27.372885 0.929656 0.868323 0.060595 -0.004914 672068.000000 0 0 1
11.376465 16.073142 17.097132 26.078378 0.954859 0.855812 0.053268 -0.015769 436336.000000 0 0 1
10.726765 16.681742 15.855532 25.391769 0.999341 0.896387 0.048880 -0.005400 -109681.000000 0 0 1
10.301465 17.988042 16.046432 26.214077 1.050704 0.912044 0.041306 -0.007664 139331.000000 0 0 1
9.872065 18.498342 14.789132 25.658620 1.080575 0.956504 0.039975 -0.003753 -215109.000000 0 0 1
8.934865 19.734942 14.734132 26.199130 1.145663 0.973523 0.038166 -0.006052 179560.000000 0 0 1
7.602265 19.422642 15.090332 25.743962 1.197715 0.944473 0.035431 -0.011879 -400000.000000 0 0 1
6.873065 20.602042 15.056932 26.427152 1.248796 0.964592 0.034862 -0.012286 -977633.000000 0 0 1
5.500965 20.535342 15.685932 26.419867 1.309063 0.935126 0.038647 -0.011014 -484542.000000 0 0 1
4.549365 19.753142 14.932832 25.176831 1.344433 0.935870 0.043645 -0.013234 -89960.200000 0 0 1
3.405265 19.595442 15.725932 25.355120 1.398736 0.901764 0.030342 -0.004634 499526.000000 0 0 1
2.173965 18.941742 14.991032 24.253799 1.456525 0.904486 0.024326 -0.009007 801048.000000 0 1 0
1.529165 19.713042 13.989832 24.221020 1.493380 0.955022 0.021159 -0.023348 12436.400000 0 1 0
0.518965 19.008142 13.302332 23.206267 1.543501 0.960364 0.019126 -0.028739 456529.000000 0 1 0
-0.461835 19.828942 12.382032 23.381937 -1.547510 1.012720 0.020624 -0.035271 891813.000000 0 1 0
-1.385035 20.672242 13.124432 24.525714 -1.503897 1.006135 0.024664 -0.023851 573061.000000 0 1 0
-2.429135 21.071642 12.254432 24.496651 -1.456023 1.046910 0.019583 -0.019963 197278.000000 0 1 0
-3.619035 21.846142 12.836932 25.595667 -1.406627 1.045433 0.019470 -0.021662 -204010.000000 0 0 1
-4.413835 21.092142 13.704732 25.537817 -1.364509 1.004341 0.018425 -0.020901 330334.000000 0 0 1
-5.582535 21.903342 13.942032 26.557511 -1.321238 1.018110 0.016984 -0.010474 365628.000000 0 0 1
-6.438035 21.458942 15.134632 27.036856 -1.279324 0.976679 0.013731 -0.008322 -713968.000000 0 0 1
-7.250135 20.290142 15.014832 26.262131 -1.227613 0.962184 0.012581 -0.008165 298375.000000 0 0 1
-7.850335 19.796442 16.197232 26.755882 -1.193265 0.920565 0.008594 0.010005 -499640.000000 0 0 1
-8.984735 20.666342 16.735032 28.069280 -1.160695 0.932031 0.005744 0.015364 -1290350.000000 0 0 1
-10.114635 20.726642 15.946632 28.039162 -1.116793 0.965839 -0.000231 0.004707 -20203.200000 0 0 1
-11.195935 19.895642 16.443732 28.135065 -1.058230 0.946586 -0.004802 0.010221 520970.000000 0 0 1
-12.333635 19.735142 15.426432 27.920767 -1.012227 0.985427 0.017255 0.001719 -537698.000000 0 0 1
-13.159935 20.804742 15.218332 28.941645 -1.006790 1.017108 0.008871 0.007505 -57410.000000 0 0 1
-14.123535 20.623342 14.175332 28.735632 -0.970323 1.054915 0.013722 -0.005611 8830.020000 0 0 1
-15.139435 21.774142 14.122932 30.046181 -0.963236 1.081459 0.022037 -0.009964 338747.000000 0 0 1
-16.205235 21.646942 15.098132 30.970201 -0.928182 1.061566 0.024163 -0.015137 494187.000000 0 0 1
-17.131535 22.677442 14.766132 32.028027 -0.923820 1.091632 0.036524 -0.018664 -36425.500000 0 0 1
-18.430735 22.621242 15.588432 33.081896 -0.887124 1.080137 0.058926 -0.021248 59149.300000 0 0 1
-19.347735 21.599442 15.151832 32.717714 -0.840333 1.089298 0.049534 -0.025364 868566.000000 0 0 1
-20.460635 21.307342 16.001232 33.595831 -0.805667 1.074370 0.055510 -0.021454 473301.000000 0 0 1
-21.669835 22.239142 16.016232 34.938244 -0.798363 1.094585 0.054066 -0.025559 -698760.000000 0 0 1
-22.411035 22.230442 14.832132 34.877488 -0.781353 1.131543 0.056466 -0.025129 -83432.700000 0 0 1
-23.240235 23.342842 14.578432 36.021209 -0.787601 1.154126 0.079684 -0.035347 46569.700000 0 0 1
-22.584535 24.577842 13.888232 36.152656 -0.827638 1.176504 0.052136 -0.021445 229232.000000 0 0 1
-21.570535 25.250142 14.630532 36.289257 -0.863826 1.155824 0.036521 -0.018750 211030.000000 0 0 1
-20.964435 26.272642 13.865132 36.359334 -0.897302 1.179555 0.039910 -0.008315 1028940.000000 0 0 1
-19.482435 26.606642 14.342432 35.960868 -0.938759 1.160551 0.034942 -0.006674 800838.000000 0 0 1
-18.590735 26.154842 13.399632 34.774148 -0.952862 1.175227 0.037893 0.000726 802920.000000 0 0 1
-17.174135 26.306142 13.689932 34.269203 -0.992416 1.159845 0.031515 -0.001934 1454220.000000 0 0 1
-16.270835 25.854942 12.536832 33.021058 -1.009102 1.181366 0.035847 -0.003158 651334.000000 0 0 1
-14.942235 26.366042 12.634232 32.833861 -1.055205 1.175813 0.027928 0.003941 1032490.000000 0 0 1
-13.929735 25.741642 11.826132 31.567817 -1.074784 1.186803 0.020314 0.003077 821174.000000 0 0 1
-12.522735 26.355442 12.050632 31.569700 -1.127227 1.179145 0.005142 0.007192 367503.000000 0 0 1
-11.438135 25.531242 11.576932 30.277064 -1.149602 1.178440 -0.004142 0.003736 595003.000000 0 0 1
-10.150535 26.022342 11.843632 30.339204 -1.198879 1.169759 0.009438 -0.005073 -30318.000000 0 0 1
-9.625835 27.221042 10.983732 30.891491 -1.230902 1.207285 0.007043 -0.007362 -1024860.000000 0 0 1
-8.545235 27.862242 11.577732 31.358722 -1.273208 1.192645 0.021746 -0.017264 -281017.000000 0 0 1
-8.195135 29.001642 10.814632 32.018928 -1.295402 1.226263 0.024217 -0.017972 254938.000000 0 0 1
-6.957635 29.760542 11.430932 32.630734 -1.341134 1.212892 0.018603 -0.018695 1475960.000000 0 0 1
-5.728535 29.008242 11.262332 31.640707 -1.375825 1.206872 0.036777 -0.023485 817640.000000 0 0 1
-4.749835 29.455442 12.205132 32.235838 -1.410918 1.182492 0.047017 -0.030369 -138712.000000 0 0 1
-3.332335 29.079442 11.747332 31.539154 -1.456700 1.189129 0.050413 -0.041973 -582526.000000 0 0 1
-3.037435 29.734642 10.574032 31.704655 -1.468998 1.230765 0.061701 -0.036005 208290.000000 0 0 1
-1.955735 29.100442 9.893832 30.798516 -1.503691 1.243754 0.055242 -0.031810 489019.000000 0 0 1
-1.542535 29.811842 8.557732 31.054149 -1.519100 1.291609 0.047823 -0.020806 204198.000000 0 0 1
-2.591535 29.683142 7.625632 30.756386 -1.483711 1.320247 0.058704 -0.023959 100112.000000 0 0 1
-2.360635 30.448942 6.433332 31.210550 -1.493423 1.363181 0.057022 -0.012063 29011.600000 0 0 1
11.495265 -33.543867 -26.395431 44.204648 -1.240645 2.210701 0.060726 -0.022979 -129557.000000 0 0 1
12.026365 -33.702167 -25.106911 43.713002 -1.228039 2.182616 0.053719 -0.029135 289408.000000 0 0 1
13.213365 -32.903467 -25.092011 43.437774 -1.188929 2.186648 0.058368 -0.025483 184334.000000 0 0 1
13.906265 -33.018267 -23.711431 42.963032 -1.172175 2.155441 0.052624 -0.024489 -848672.000000 0 0 1
13.283665 -32.254167 -22.655431 41.593937 -1.180122 2.146805 0.057154 -0.030846 327207.000000 0 0 1
13.891165 -32.219767 -21.374231 41.084494 -1.163738 2.117941 0.039176 -0.019939 1131210.000000 0 0 1
15.443265 -31.867167 -21.310231 41.329611 -1.119533 2.112523 0.023748 -0.012959 1521760.000000 0 0 1
16.267765 -32.895667 -21.899731 42.735972 -1.111537 2.108823 0.027945 -0.009951 -706678.000000 0 0 1
17.584865 -32.786467 -21.500131 42.970171 -1.078497 2.094799 0.017238 -0.012458 -608758.000000 0 0 1
18.538465 -33.961167 -21.931231 44.474875 -1.071128 2.086463 0.016596 -0.001468 1385170.000000 0 0 1
19.880165 -33.832067 -21.384531 44.689237 -1.039535 2.069761 0.019826 0.011151 1132910.000000 0 0 1
20.596365 33.651442 -21.690231 45.023282 1.021564 2.073454 0.016577 0.017473 -489886.000000 0 0 1
22.118865 33.813942 -21.586631 45.810583 0.991520 2.061464 0.029133 0.023837 -338357.000000 0 0 1
22.656565 -34.104467 -22.689731 46.810881 -0.984414 2.076829 0.025331 0.023543 328334.000000 0 0 1
24.075265 -34.232467 -22.599831 47.562933 -0.957867 2.065938 0.025938 0.023423 556123.000000 0 0 1
24.792865 -33.466267 -23.759731 47.949995 -0.933189 2.089219 0.033474 0.006335 -11952.100000 0 0 1
24.890065 -32.040167 -23.685331 46.979597 -0.910338 2.099208 0.038243 0.004172 164152.000000 0 0 1
23.690665 -31.361167 -24.025031 46.064873 -0.923839 2.119460 0.029673 0.005990 61706.300000 0 0 1
23.683465 -29.852267 -23.735231 44.893492 -0.900120 2.127866 0.033188 -0.012142 -590674.000000 0 0 1
24.505265 -29.188367 -24.635631 45.380427 -0.872397 2.144646 0.037660 -0.016680 -220492.000000 0 0 1
24.619265 -27.827767 -24.358631 44.427871 -0.846498 2.151095 0.052973 -0.005975 189090.000000 0 0 1
25.269665 -27.092267 -25.525351 44.989893 -0.820192 2.174090 0.047295 -0.007241 -250204.000000 0 0 1
24.363965 -26.980267 -26.616721 45.055382 -0.836310 2.202791 0.043485 -0.013246 -165740.000000 0 0 1
24.930865 -26.289067 -27.699231 45.606036 -0.811909 2.223528 0.036798 -0.009094 -624528.000000 0 0 1
23.961865 -25.922967 -28.854281 45.593210 -0.824691 2.256042 0.035685 -0.014854 335385.000000 0 0 1
23.230965 -24.722867 -28.623701 44.387095 -0.816499 2.271643 0.048052 -0.016557 553774.000000 0 0 1
21.978365 -24.920567 -27.945251 43.416820 -0.848051 2.270055 0.038143 -0.013639 601911.000000 0 0 1
21.178265 -23.586567 -27.672701 42.078777 -0.839145 2.288478 0.043100 -0.011332 25907.200000 0 0 1
20.651465 -22.975767 -28.771761 42.215911 -0.838624 2.320659 0.060190 -0.020037 53590.400000 0 0 1
20.074065 -21.706567 -28.488291 41.057592 -0.824451 2.337634 0.053202 -0.003271 -488555.000000 0 0 1
19.097465 -21.200467 -29.532281 41.064932 -0.837537 2.373390 0.071796 -0.017606 -955345.000000 0 0 1
17.945565 -21.976067 -29.508131 40.935567 -0.886018 2.375815 0.068089 -0.020158 -828330.000000 0 0 1
16.965765 -21.458367 -30.347091 40.856391 -0.901791 2.408001 0.063941 -0.025619 -460001.000000 0 0 1
15.708365 -22.340467 -30.385531 40.854984 -0.957969 2.409446 0.061114 -0.028095 -399962.000000 0 0 1
15.919865 -23.517967 -31.152971 42.155006 -0.975726 2.402396 0.050712 -0.013997 365537.000000 0 0 1
14.953365 -24.492067 -30.771421 42.075466 -1.022664 2.391079 0.063730 -0.024359 44478.800000 0 0 1
15.190665 -25.948567 -31.301851 43.403806 -1.041171 2.376297 0.077318 -0.025923 -161706.000000 0 0 1
14.404065 -26.884167 -30.619361 43.217830 -1.078934 2.358151 0.081415 -0.020981 -250046.000000 0 0 1
14.634665 -28.277667 -30.914151 44.378876 -1.093220 2.341438 0.105060 -0.024508 224141.000000 0 0 1
13.923965 -29.277767 -29.947471 44.135196 -1.126874 2.316569 0.089407 -0.031134 130398.000000 0 0 1
14.540065 -29.383867 -28.649891 43.538964 -1.111292 2.288994 0.104622 -0.036474 334695.000000 0 0 1
14.191265 -28.294167 -27.786911 42.119643 -1.105900 2.291234 0.085759 -0.029078 439775.000000 0 0 1
15.182065 -28.347367 -26.558971 41.706682 -1.079097 2.261142 0.060753 -0.018724 284484.000000 0 0 1
15.017965 -29.445067 -25.722481 41.883139 -1.099154 2.232103 0.068485 -0.025545 289024.000000 0 0 1
15.840765 -29.359167 -24.552031 41.420922 -1.076011 2.205259 0.067635 -0.025922 -771518.000000 0 0 1
15.381265 -28.303167 -23.520231 39.885510 -1.072998 2.201476 0.053765 -0.023263 576107.000000 0 0 1
14.281865 -28.602467 -22.651931 39.181409 -1.107691 2.187231 0.048110 -0.025919 513608.000000 0 0 1
13.049065 -28.744667 -23.352131 39.266475 -1.144650 2.207700 0.053189 -0.021797 -869988.000000 0 0 1
11.856965 -28.475467 -22.428731 38.137748 -1.176239 2.199501 0.034307 -0.017327 -334602.000000 0 0 1
11.715465 -27.117767 -22.184131 36.942673 -1.162993 2.214924 0.027357 -0.018078 736818.000000 0 0 1
10.440365 -26.776467 -21.597831 35.950615 -1.199020 2.215253 0.026081 -0.016765 518022.000000 0 0 1
10.146565 -25.271167 -21.597831 34.757028 -1.188991 2.241318 0.036573 -0.019062 -137525.000000 0 0 1
10.866065 -24.613767 -20.574331 33.870518 -1.155065 2.223631 0.032250 -0.016686 -21130.900000 0 0 1
10.413665 -23.318567 -20.306831 32.627709 -1.150788 2.242576 0.037588 -0.023981 -894588.000000 0 0 1
10.666165 -22.638767 -18.935731 31.382205 -1.130497 2.218543 0.033087 -0.021625 -209365.000000 0 0 1
9.859065 -23.056467 -17.869331 30.791474 -1.166721 2.189935 0.039318 -0.023442 5478.680000 0 0 1
10.053465 -22.118767 -16.791631 29.534233 -1.144188 2.175536 0.043571 -0.027336 85690.800000 0 0 1
9.395965 -22.452267 -15.374731 28.788380 -1.174456 2.134192 0.050394 -0.022626 242054.000000 0 0 1
9.645965 -23.752467 -14.978931 29.691627 -1.185039 2.099580 0.041890 -0.017512 7539.070000 0 0 1
9.308765 -23.920667 -13.606331 29.051397 -1.199677 2.058223 0.043223 -0.012217 -2680.740000 0 0 1
9.449765 -25.437467 -13.248431 30.197413 -1.215106 2.024978 0.054303 -0.010188 24635.900000 0 0 1
10.785165 -25.879767 -13.198131 30.988269 -1.175942 2.010761 0.048037 -0.015343 -354411.000000 0 0 1
10.956565 -27.269367 -13.311531 32.262386 -1.188748 1.996105 0.051961 -0.023519 -609349.000000 0 0 1
12.230265 -27.866367 -12.615031 32.943176 -1.157220 1.963766 0.054679 -0.023246 1140400.000000 0 0 1
13.488165 -27.549367 -13.236331 33.408063 -1.115503 1.978173 0.055709 -0.018557 671423.000000 0 0 1
13.669165 -27.825067 -14.639131 34.283883 -1.114170 2.011966 0.054861 -0.022985 -125716.000000 0 0 1
15.093765 -27.514467 -15.242331 34.888341 -1.069047 2.022934 0.044032 -0.019739 1351160.000000 0 0 1
16.228265 -28.193667 -14.680331 35.689657 -1.048512 1.994712 0.056713 -0.021656 686473.000000 0 0 1
17.346265 -27.690167 -15.402331 36.122986 -1.011161 2.011290 0.067049 -0.024960 639330.000000 0 0 1
18.656365 -28.544367 -15.410731 37.421003 -0.991900 1.995247 0.063674 -0.026223 669408.000000 0 0 1
18.589665 -29.743967 -16.147431 38.613712 -1.012205 2.002236 0.056438 -0.021238 -200964.000000 0 0 1
19.910665 -30.208267 -16.201431 39.641649 -0.988041 1.991822 0.068508 -0.018581 -77254.900000 0 0 1
20.128465 -31.452967 -17.085931 41.065476 -1.001515 1.999911 0.049190 -0.018108 7605.590000 0 0 1
19.664365 -32.710567 -16.602331 41.620979 -1.029523 1.981106 0.044535 -0.008163 -32080.400000 0 0 1
20.027065 -33.633567 -17.595431 42.917355 -1.033730 1.993233 0.027977 0.001545 110256.000000 0 0 1
19.873765 33.530742 -17.186531 42.598757 1.035760 1.986082 0.012903 0.006487 -215706.000000 0 0 1
20.811365 33.163842 -16.210931 42.376263 1.010378 1.963348 0.035232 0.003872 -178469.000000 0 0 1
20.530365 31.901542 -15.674931 41.047628 0.998966 1.962617 0.014606 0.004094 -251019.000000 0 0 1
21.492465 31.449142 -14.544631 40.774022 0.971296 1.935544 0.026582 0.000113 82953.200000 0 0 1
22.753765 31.039442 -15.065331 41.329711 0.938225 1.943909 0.041061 0.002330 316680.000000 0 0 1
23.613765 30.508642 -14.043231 41.056053 0.912110 1.919894 0.055200 -0.001406 356638.000000 0 0 1
23.206465 29.179342 -13.266031 39.572233 0.898925 1.912652 0.061290 0.002726 -746054.000000 0 0 1
23.162765 27.978742 -13.984831 38.921706 0.879291 1.938321 0.067411 0.009736 -46056.900000 0 0 1
22.832465 26.802742 -13.269531 37.626971 0.865217 1.931209 0.013453 0.010954 528518.000000 0 0 1
21.306565 26.691842 -12.950231 36.525781 0.897128 1.933230 0.012997 0.012128 -49327.500000 0 0 1
20.523465 26.612442 -14.119231 36.452536 0.913866 1.968532 0.017252 0.003420 -490833.000000 0 0 1
19.142965 26.722542 -13.881231 35.682432 0.949175 1.970365 0.021611 0.003262 -295913.000000 0 0 1
18.644865 28.187242 -13.905931 36.544857 0.986404 1.961151 0.013253 0.001823 -518679.000000 0 0 1
18.695465 28.866242 -15.127031 37.571365 0.996069 1.985175 0.014996 0.000159 134046.000000 0 0 1
17.986465 28.223242 -16.192031 37.178572 1.003406 2.021413 0.007830 0.002905 -275929.000000 0 0 1
18.100065 28.996042 -17.512231 38.406524 1.012754 2.044258 0.003193 0.009324 -34740.300000 0 0 1
17.390265 30.207142 -17.567531 39.032178 1.048436 2.037649 0.001819 0.006564 95984.300000 0 0 1
17.817765 30.794942 -18.743731 40.213539 1.046265 2.055679 -0.004359 0.011404 378395.000000 0 0 1
16.780365 31.902442 -19.194531 40.838420 1.086574 2.060100 -0.006091 0.008421 492855.000000 0 0 1
16.870865 32.999542 -18.301331 41.334424 1.098193 2.029474 0.002982 -0.004366 310312.000000 0 0 1
15.947465 34.029242 -18.696531 41.974650 1.132550 2.032444 0.012856 -0.005155 182549.000000 0 0 1
15.900565 -33.406667 -17.674831 41.002842 -1.126557 2.016467 0.014586 -0.006021 -464713.000000 0 0 1
15.086065 -32.327267 -18.065431 39.987515 -1.134169 2.039552 0.015798 -0.006454 -184196.000000 0 0 1
14.713965 -31.425967 -17.078131 38.674989 -1.132902 2.028156 0.021897 -0.009698 41427.900000 0 0 1
13.606665 -30.444967 -17.549831 37.683338 -1.150501 2.055243 0.029663 -0.013990 96110.700000 0 0 1
12.343465 -31.082767 -17.647231 37.814340 -1.192779 2.056331 0.026493 -0.009030 -283380.000000 0 0 1
11.375565 -30.078067 -17.926031 36.816249 -1.209222 2.079340 0.016172 -0.006449 992706.000000 0 0 1
9.965565 -30.752067 -18.170431 37.083240 -1.257413 2.082875 0.026119 -0.011738 123468.000000 0 0 1
9.306465 -31.333767 -17.032531 36.858139 -1.282084 2.051170 0.038198 -0.008314 293677.000000 0 0 1
8.406665 -32.389167 -17.335731 37.686307 -1.316848 2.048792 0.052924 -0.007120 637918.000000 0 0 1
7.037065 -31.968567 -17.981331 37.347528 -1.354127 2.073116 0.049466 0.000771 -104875.000000 0 0 1
7.059765 -31.397567 -19.327431 37.539274 -1.349624 2.111639 0.032794 0.002455 -207436.000000 0 0 1
7.232365 -32.392967 -20.301731 38.907220 -1.351130 2.119754 0.038507 -0.018999 -976041.000000 0 0 1
7.313365 -31.840367 -21.751231 39.248062 -1.345024 2.158197 0.042448 -0.005453 642473.000000 0 0 1
8.620765 -31.342667 -22.127331 39.323011 -1.302385 2.168453 0.031718 -0.009158 1347960.000000 0 0 1
9.691265 -32.286067 -22.220631 40.374091 -1.279185 2.153602 0.036407 -0.017462 -28581.200000 0 0 1
9.493765 -33.502067 -23.243831 41.866404 -1.294658 2.159388 0.045945 -0.024630 -209055.000000 0 0 1
8.474465 34.188042 -22.861131 41.991310 1.327816 2.146500 0.048721 -0.035379 335477.000000 0 0 1
8.288865 33.198842 -23.846231 41.707447 1.326125 2.179434 0.051730 -0.033521 167916.000000 0 0 1
7.049565 32.314442 -23.482631 40.562958 1.356006 2.188198 0.053530 -0.041569 1877380.000000 0 0 1
5.699965 32.836342 -23.618431 40.847831 1.398922 2.187324 0.054322 -0.038244 1406640.000000 0 0 1
5.368765 33.615142 -22.473531 40.790453 1.412421 2.154299 0.042324 -0.032001 104987.000000 0 0 1
4.065065 -34.147467 -22.657631 41.181823 -1.452310 2.153382 0.043106 -0.023693 25374.200000 0 0 1
2.902365 33.759642 -22.716931 40.794560 1.485036 2.161399 0.049625 -0.024713 -804105.000000 0 0 1
1.830065 -34.048567 -23.051431 41.158505 -1.517099 2.165260 0.043840 -0.017421 22899.100000 0 0 1
0.405165 34.214842 -22.572331 40.991825 1.558955 2.153944 0.033620 -0.020331 254098.000000 0 0 1
0.248565 -34.229067 -21.212731 40.269974 -1.563535 2.125584 0.029642 -0.018914 645145.000000 0 0 1
-0.991835 33.757442 -20.857931 39.693853 -1.541424 2.124064 0.026689 -0.018957 1045020.000000 0 0 1
-1.533535 33.882842 -19.393031 39.070301 -1.525567 2.090200 0.036989 -0.016599 400459.000000 0 0 1
-0.717635 33.227542 -18.425531 38.001115 -1.549202 2.077009 0.031587 -0.014825 -133766.000000 0 0 1
-1.349735 33.174542 -17.159631 37.374122 -1.530133 2.047813 0.017002 -0.005218 -111851.000000 0 0 1
-0.921235 32.133042 -16.134531 35.968100 -1.542135 2.035971 0.012867 0.005162 -461430.000000 0 0 1
0.325465 32.436342 -15.593731 35.991481 1.560763 2.018905 0.001669 -0.002014 -767143.000000 0 0 1
0.840265 31.367742 -14.822331 34.703643 1.544015 2.012092 -0.003354 0.008497 579663.000000 0 0 1
2.093265 31.838742 -14.022431 34.852774 1.505145 1.984860 0.021398 -0.005013 448633.000000 0 0 1
3.204165 32.264542 -14.802831 35.642547 1.471812 1.999084 0.042024 -0.008368 174086.000000 0 0 1
3.985865 33.118542 -13.957531 36.159890 1.451021 1.967082 0.053588 -0.015025 149327.000000 0 0 1
5.354565 33.558042 -14.537231 36.961394 1.412569 1.975024 0.072815 -0.026117 477566.000000 0 0 1
6.249065 32.469142 -14.770831 36.214272 1.380660 1.990920 0.080629 -0.018454 -331539.000000 0 0 1
7.419365 32.929342 -15.413331 37.107403 1.349185 1.999147 0.072720 -0.005364 83658.800000 0 0 1
8.374765 31.718642 -15.594731 36.323610 1.312654 2.014545 0.063780 -0.011430 163657.000000 0 0 1
9.030765 31.328142 -14.376031 35.632534 1.290141 1.986083 0.054504 -0.014716 -79581.000000 0 0 1
9.878565 30.190042 -14.334031 34.849522 1.254564 1.994689 0.046537 -0.012221 434921.000000 0 0 1
9.213065 28.817542 -14.013531 33.342321 1.261362 2.004564 0.059636 -0.014875 167231.000000 0 0 1
8.695965 28.039442 -15.093231 33.009631 1.270069 2.045682 0.064428 -0.016846 68060.800000 0 0 1
7.990665 26.871342 -14.677331 31.644017 1.281756 2.053106 0.058128 -0.010778 291045.000000 0 0 1
7.300165 26.005842 -15.793931 31.289687 1.297127 2.099906 0.060324 -0.014422 458519.000000 0 0 1
8.203965 25.478742 -16.740731 31.570927 1.259287 2.129701 0.058135 -0.009994 -218901.000000 0 0 1
7.512265 24.476942 -17.455531 30.987907 1.273010 2.169172 0.040574 -0.003199 51116.700000 0 0 1
8.423365 23.641542 -18.336831 31.082390 1.228524 2.201784 0.046864 0.002015 -287104.000000 0 0 1
7.744765 22.868842 -19.294331 30.906901 1.244259 2.244996 0.047532 -0.008748 -1282060.000000 0 0 1
8.597465 22.161442 -20.044831 31.094070 1.200723 2.271363 0.045603 -0.004361 -1357100.000000 0 0 1
7.952565 21.341742 -21.130331 31.067735 1.214105 2.318746 0.032022 -0.004324 -422721.000000 0 0 1
7.228665 20.281242 -20.560231 29.770883 1.228413 2.333136 0.037693 -0.009770 -210135.000000 0 0 1
6.767365 19.388742 -21.554331 29.770955 1.234981 2.380388 0.035964 -0.007176 1289.780000 0 0 1
25.402965 -13.342458 -9.265331 30.152581 -0.483629 1.883131 0.070237 0.000020 -312179.000000 0 0 1
25.828865 -12.479958 -8.215731 29.839200 -0.450100 1.849733 0.068218 -0.006866 375786.000000 0 0 1
24.855465 -12.426558 -7.183631 28.702230 -0.463610 1.823767 0.065964 0.002935 -516953.000000 0 0 1
25.268165 -11.630958 -5.921231 28.439766 -0.431387 1.780533 0.047829 0.004507 -503456.000000 0 0 1
25.422465 -10.214558 -5.970631 28.040816 -0.382051 1.785365 0.037687 0.008979 -26243.000000 0 0 1
26.453765 -9.708558 -6.740431 28.973974 -0.351739 1.805585 0.039164 0.002638 -1327740.000000 0 0 1
26.796265 -8.220858 -6.405231 28.751510 -0.297676 1.795460 0.072869 -0.000619 -184248.000000 0 0 1
27.433065 -7.984158 -5.148731 29.031522 -0.283218 1.749089 0.072247 -0.006360 1562390.000000 0 0 1
28.856865 -8.236658 -5.223831 30.460624 -0.278038 1.743143 0.080316 -0.006347 635196.000000 0 0 1
29.551065 -8.046158 -3.860031 30.869174 -0.265835 1.696169 0.103504 -0.016614 -326801.000000 0 0 1
29.534065 -6.721458 -3.337531 30.472579 -0.223772 1.680542 0.102921 -0.011747 265831.000000 0 0 1
30.202165 -6.656158 -2.112431 30.998993 -0.216919 1.638994 0.111993 -0.018131 -126080.000000 0 0 1
30.430465 -5.194658 -1.648131 30.914624 -0.169076 1.624134 0.105827 -0.024423 303727.000000 0 0 1
29.173665 -4.569358 -1.367031 29.560963 -0.155364 1.617057 0.111474 -0.015168 761733.000000 0 0 1
29.217865 -3.339558 -0.658831 29.415478 -0.113805 1.593196 0.107885 -0.020224 -317878.000000 0 0 1
29.924365 -3.376858 0.726169 30.123049 -0.112371 1.546687 0.109133 -0.023604 -543816.000000 0 0 1
29.117265 -3.752558 1.783269 29.412189 -0.128171 1.510129 0.098043 -0.026958 4100.670000 0 0 1
29.713465 -3.554558 3.041969 30.079535 -0.119062 1.469492 0.092986 -0.022644 -109062.000000 0 0 1
28.904265 -4.255358 4.161569 29.510731 -0.146172 1.429306 0.094324 -0.024085 -378996.000000 0 0 1
29.119665 -5.683258 4.164269 29.959897 -0.192746 1.431350 0.106462 -0.036164 298084.000000 0 0 1
29.275865 -6.132558 5.497869 30.412351 -0.206489 1.389019 0.103598 -0.038823 -742717.000000 0 0 1
30.217765 -7.282558 5.627269 31.588212 -0.236493 1.391696 0.074672 -0.040698 -367826.000000 0 0 1
31.608265 -7.010658 5.585369 32.854651 -0.218265 1.399964 0.083737 -0.043063 439333.000000 0 0 1
32.361665 -8.188158 5.349269 33.807365 -0.247819 1.411901 0.074689 -0.039091 -578625.000000 0 0 1
33.867765 -8.108858 5.482469 35.253887 -0.235003 1.414649 0.069439 -0.033100 -577122.000000 0 0 1
34.570365 -7.590958 4.369669 35.662680 -0.216150 1.447960 0.074492 -0.035634 110773.000000 0 0 1
35.900265 -7.240458 4.730569 36.927382 -0.199013 1.442339 0.087665 -0.036291 737060.000000 0 0 1
-35.395675 -7.008158 3.411769 36.243734 0.195467 1.476523 0.087092 -0.030660 237520.000000 0 0 1
-35.098875 -8.168058 2.683169 36.136513 0.228646 1.496477 0.089707 -0.030520 403422.000000 0 0 1
-34.314975 -7.839258 1.520769 35.231863 0.224596 1.527618 0.100709 -0.030384 139282.000000 0 0 1
-33.847775 -9.044158 0.687069 35.041985 0.261101 1.551188 0.086093 -0.034665 -225841.000000 0 0 1
-32.985175 -9.990058 1.273269 34.488320 0.294083 1.533869 0.084052 -0.035631 381620.000000 0 0 1
-33.075675 -11.206658 0.601069 34.927793 0.326679 1.553587 0.072017 -0.038726 -893343.000000 0 0 1
-33.005275 -12.403758 1.570769 35.294032 0.359482 1.526276 0.056918 -0.042393 931995.000000 0 0 1
-31.728975 -12.756458 2.140169 34.264199 0.382268 1.508295 0.057652 -0.032459 721860.000000 0 0 1
-30.793575 -13.297158 1.244069 33.564957 0.407630 1.533723 0.053210 -0.020459 -351873.000000 0 0 1
-29.480675 -13.754758 1.927769 32.588646 0.436547 1.511607 0.051451 -0.014975 575030.000000 0 0 1
-28.589775 -12.689158 2.295769 31.363362 0.417716 1.497532 0.061796 -0.014248 1051330.000000 0 0 1
-27.330775 -13.086358 2.818469 30.433005 0.446556 1.478051 0.069922 -0.007472 515145.000000 0 0 1
-26.373775 -11.965058 3.299369 29.148318 0.425904 1.457361 0.067538 -0.002977 1694460.000000 0 0 1
-25.099475 -12.485458 3.823169 28.292877 0.461597 1.435253 0.066441 0.003693 1666650.000000 0 0 1
-24.319075 -11.497658 4.453969 27.266304 0.441638 1.406710 0.069370 0.008718 257995.000000 0 0 1
-23.067775 -12.027658 5.190269 26.527828 0.480625 1.373872 0.061554 0.015648 118639.000000 0 0 1
-23.423375 -12.805858 6.325369 27.434554 0.500316 1.338141 0.069495 0.008484 -294472.000000 0 0 1
-22.333375 -13.269758 7.071769 26.923521 0.536120 1.305017 0.073223 0.009841 -191895.000000 0 0 1
-22.177175 -12.623058 8.472469 26.887755 0.517458 1.250229 0.091834 -0.001761 -186238.000000 0 0 1
-21.808275 -11.229258 8.464469 25.948879 0.475503 1.238518 0.089041 -0.009514 1274890.000000 0 0 1
-22.934575 -10.324258 8.664769 26.601940 0.422988 1.239024 0.082839 -0.013259 55845.300000 0 0 1
-23.274175 -10.049158 10.126369 27.298647 0.407593 1.190767 0.057345 -0.011359 -5912.140000 0 0 1
-23.882475 -11.111958 10.872369 28.496607 0.435485 1.179343 0.047857 -0.015273 1591410.000000 0 0 1
-25.267075 -11.394158 10.509169 29.642782 0.423643 1.208388 0.043208 -0.007005 652877.000000 0 0 1
-26.292575 -11.058258 11.560169 30.776973 0.398125 1.185740 0.049229 -0.011532 -950412.000000 0 0 1
-26.289475 -11.903558 12.729569 31.541609 0.425170 1.155370 0.043097 -0.009201 279978.000000 0 0 1
-27.337975 -11.641158 13.658869 32.702387 0.402568 1.139915 0.030753 -0.007781 153557.000000 0 0 1
-27.205575 -12.503858 14.921869 33.453728 0.430814 1.108455 0.034809 -0.010847 -215145.000000 0 0 1
-27.284375 -13.880258 14.705169 33.960869 0.470604 1.122974 0.020695 -0.007001 250374.000000 0 0 1
-27.040975 -14.527858 15.910069 34.574604 0.493004 1.092614 0.029688 -0.010787 -771066.000000 0 0 1
-26.719275 -16.083058 15.762669 34.943470 0.541835 1.102809 0.020899 -0.000088 -254906.000000 0 0 1
-27.805875 -16.966658 15.762069 36.186696 0.547873 1.120118 0.009420 0.003695 -355210.000000 0 0 1
-27.372975 -18.303258 15.706869 36.482800 0.589382 1.125719 0.009156 0.004117 22790.700000 0 0 1
-28.432175 -19.267858 16.291069 38.013653 0.595587 1.127900 -0.005178 0.010283 125398.000000 0 0 1
-28.645475 -19.186858 17.660569 38.737507 0.590172 1.097409 0.021265 0.001931 -618756.000000 0 0 1
-29.192875 -20.320758 18.227869 39.967641 0.608094 1.097227 0.021514 0.002250 -740940.000000 0 0 1
-28.428875 -21.626358 18.228069 40.101905 0.650325 1.098936 0.008682 0.012504 390434.000000 0 0 1
-27.169375 -21.471058 18.920869 39.461127 0.668778 1.070733 0.024898 0.013793 634633.000000 0 0 1
-26.503975 -22.659558 19.237469 39.824571 0.707360 1.066656 0.025518 0.014268 -79428.500000 0 0 1
-25.242875 -22.303858 20.087569 39.219577 0.723663 1.033073 0.046690 0.014969 -444899.000000 0 0 1
-24.217275 -21.941358 19.242769 37.923393 0.736132 1.038618 0.041722 0.001166 -922896.000000 0 0 1
-23.006175 -21.878758 19.955769 37.499291 0.760286 1.009642 0.045123 0.011382 381120.000000 0 0 1
-21.740975 -21.450758 19.147869 36.047827 0.778679 1.010804 0.048805 0.009464 439826.000000 0 0 1
-21.328075 -22.445458 18.200069 35.915565 0.810919 1.039390 0.043552 0.006587 263751.000000 0 0 1
-20.150875 -22.089958 17.499469 34.644702 0.831271 1.041284 0.038623 0.001612 255036.000000 0 0 1
-19.761375 -23.078558 16.345069 34.500624 0.862676 1.077239 0.044347 -0.003296 -151844.000000 0 0 1
-19.560375 -24.483358 16.608669 35.466758 0.896711 1.083444 0.050978 -0.004323 1079160.000000 0 0 1
-18.335375 -24.897658 17.290969 35.426782 0.936037 1.060912 0.052120 0.000981 1069090.000000 0 0 1
-17.055375 -24.924858 16.438969 34.385666 0.970704 1.072333 0.042044 -0.001505 142640.000000 0 0 1
-16.430875 -23.624858 16.251969 33.048964 0.963103 1.056693 0.043350 -0.008778 63212.000000 0 0 1
-15.299875 -23.735858 15.400869 32.166191 0.998234 1.071520 0.043176 -0.012869 199837.000000 0 0 1
-14.570275 -22.399858 15.049269 30.668013 0.994096 1.057886 0.052071 -0.010543 -179092.000000 0 0 1
-15.369375 -21.383658 14.511569 30.067659 0.947601 1.067141 0.051705 -0.011910 -321000.000000 0 0 1
-16.207875 -20.664158 15.451869 30.470689 0.905673 1.038973 0.051110 -0.009161 238643.000000 0 0 1
-15.642275 -19.627458 16.465869 30.017373 0.897913 0.990174 0.044242 -0.006205 -428575.000000 0 0 1
-15.202375 -18.441758 15.777469 28.638072 0.881386 0.987322 0.044442 -0.004370 51627.600000 0 0 1
-15.149175 -17.334358 16.616769 28.391803 0.852567 0.945588 0.030875 -0.005418 -566900.000000 0 0 1
-14.567775 -16.173958 15.833169 26.916653 0.837598 0.941929 0.041537 -0.004969 -265265.000000 0 0 1
-15.333875 -15.549358 14.841969 26.404437 0.792375 0.973872 0.045369 -0.010600 -290668.000000 0 0 1
-15.495475 -16.221058 13.581169 26.223665 0.808271 1.026405 0.059343 -0.015060 22801.200000 0 0 1
-16.347875 -15.341858 12.607669 25.721176 0.753663 1.058515 0.052345 -0.013215 -266050.000000 0 0 1
-17.710475 -15.542258 12.868269 26.847999 0.720286 1.070938 0.046697 -0.015541 -935187.000000 0 0 1
-18.461675 -14.597358 12.206669 26.512620 0.669035 1.092340 0.071191 -0.013966 136622.000000 0 0 1
-20.018775 -14.753558 12.360369 27.770443 0.635120 1.109521 0.056696 -0.016459 961806.000000 0 0 1
-20.713275 -15.776558 11.665169 28.530960 0.650924 1.149592 0.056305 -0.017048 63900.600000 0 0 1
-20.700975 -15.619158 10.275269 27.893899 0.646383 1.193541 0.065070 -0.013449 -786548.000000 0 0 1
-21.349375 -16.744358 9.535869 28.759383 0.665095 1.232825 0.054248 -0.004797 -163715.000000 0 0 1
-20.699475 -17.961858 9.626069 29.047509 0.714706 1.233019 0.051279 0.001900 -75409.800000 0 0 1
-21.519775 -18.939258 8.972469 30.038332 0.721703 1.267465 0.046180 0.002181 503245.000000 0 0 1
-20.945475 -20.375058 9.066269 30.594985 0.771594 1.269947 0.048525 0.004984 -185513.000000 0 0 1
-19.776075 -20.604558 8.339169 29.752019 0.805912 1.286701 0.062628 0.003249 -689365.000000 0 0 1
-19.439475 -21.953758 8.361369 30.492182 0.846065 1.293025 0.049701 -0.004159 -987536.000000 0 0 1
-18.293475 -22.297358 7.479269 29.795349 0.883720 1.317061 0.051356 -0.005859 -1364610.000000 0 0 1
-17.108875 -21.729258 7.935969 28.772449 0.903807 1.291355 0.041159 -0.009534 -1350140.000000 0 0 1
-16.011075 -22.302258 7.268669 28.400330 0.948149 1.311980 0.056575 -0.010736 -259699.000000 0 0 1
-14.771475 -21.813558 8.066369 27.551662 0.975558 1.273671 0.043868 -0.012759 -449511.000000 0 0 1
-13.547475 -22.214558 7.520869 27.084758 1.023168 1.289419 0.048408 -0.007638 439890.000000 0 0 1
-12.431475 -21.865058 8.399869 26.517543 1.053820 1.248478 0.043280 -0.011354 1697020.000000 0 0 1
-11.041775 -22.170358 7.752569 25.952801 1.108716 1.267447 0.035402 -0.005462 624173.000000 0 0 1
-10.919775 -23.569458 7.812769 27.125637 1.136936 1.278636 0.042650 0.002664 532057.000000 0 0 1
-9.601775 -23.899558 7.313969 26.774560 1.188778 1.294111 0.047489 -0.002262 1221040.000000 0 0 1
-9.284575 -25.393558 7.431369 28.040352 1.220268 1.302567 0.044409 0.012479 65442.600000 0 0 1
-10.184675 -26.073598 6.576869 28.754396 1.198409 1.340028 0.038650 0.005198 -148207.000000 0 0 1
-10.152275 -27.497718 6.727869 30.074198 1.217117 1.345178 0.051988 0.001407 -167474.000000 0 0 1
-9.116975 -28.260148 5.899769 30.274782 1.258729 1.374667 0.059585 -0.000459 139454.000000 0 0 1
-7.788075 -27.926428 6.277169 29.663822 1.298828 1.357574 0.053270 0.004531 234466.000000 0 0 1
-6.745875 -28.763878 5.769769 30.102454 1.340434 1.377932 0.048440 0.008460 631329.000000 0 0 1
-6.617875 -30.271138 6.165969 31.593626 1.355563 1.374371 0.052527 0.006937 -457689.000000 0 0 1
-6.529875 -30.404718 7.597069 32.012522 1.359245 1.331195 0.051782 0.011236 124814.000000 0 0 1
-6.455875 -31.779048 7.987369 33.397369 1.370375 1.329294 0.070859 0.003994 -210228.000000 0 0 1
-6.868875 -31.943358 9.445769 34.011499 1.358989 1.289373 0.061843 0.003321 -44785.600000 0 0 1
-5.878875 -31.486898 10.354069 33.662927 1.386213 1.258147 0.055952 0.010118 298020.000000 0 0 1
-6.196875 -31.748798 11.691769 34.396001 1.378035 1.223968 0.051075 0.004257 77136.700000 0 0 1
-5.211875 -30.948568 12.629869 33.830327 1.403957 1.188201 0.050963 -0.000566 549373.000000 0 0 1
-5.520875 -29.586678 12.596369 32.626983 1.386318 1.174427 0.051960 -0.000502 279392.000000 0 0 1
-4.781875 -28.835548 13.563369 32.222975 1.406459 1.136334 0.028896 -0.005597 -45400.400000 0 0 1
-5.659875 -28.309798 14.737169 32.413932 1.373472 1.098811 0.030738 -0.008981 39341.000000 0 0 1
-6.146875 -29.415028 15.445969 33.787658 1.364790 1.096010 0.031143 -0.016594 -109368.000000 0 0 1
-5.328875 -29.793048 16.520669 34.481228 1.393805 1.071144 0.018080 -0.009819 67519.700000 0 0 1
-5.782875 -31.199438 17.014769 36.004846 1.387524 1.078593 0.026513 -0.009552 148813.000000 0 0 1
-5.600875 -32.207498 16.032169 36.410481 1.398618 1.114844 0.027792 -0.003251 -36551.400000 0 0 1
-6.637875 -33.140258 16.102669 37.438403 1.373116 1.126181 0.025704 -0.003951 -322044.000000 0 0 1
-6.249875 34.118204 15.580869 38.024680 -1.389622 1.148609 0.017912 -0.004056 -167073.000000 0 0 1
-6.282875 34.080714 14.136169 37.427275 -1.388490 1.183489 0.027318 -0.009735 139153.000000 0 0 1
-5.394875 33.054404 13.721569 36.193643 -1.409011 1.181956 0.029695 -0.013814 -719768.000000 0 0 1
-4.342875 33.664776 12.855669 36.296638 -1.442501 1.208756 0.042173 -0.020883 -1035360.000000 0 0 1
-4.741875 33.875308 11.510169 36.090246 -1.431720 1.246199 0.044116 -0.016657 952908.000000 0 0 1
-3.629875 -34.230529 10.723569 36.054126 1.465149 1.268797 0.052864 -0.019947 298299.000000 0 0 1
-3.830875 -34.018118 9.198969 35.447552 1.458656 1.308282 0.049898 -0.013317 -804818.000000 0 0 1
-3.975875 33.413583 8.362569 34.672867 -1.452363 1.327210 0.054212 -0.019975 902979.000000 0 0 1
-4.954875 32.393182 8.709169 33.907502 -1.419012 1.311034 0.061820 -0.023381 827206.000000 0 0 1
-6.442875 32.731474 8.947869 34.538738 -1.376441 1.308740 0.059568 -0.009311 65155.600000 0 0 1
-7.233075 33.012160 7.809769 34.685914 -1.355101 1.343692 0.063046 -0.007764 -354996.000000 0 0 1
-8.501975 33.500535 8.174069 35.515979 -1.322257 1.338563 0.046559 -0.004477 -101904.000000 0 0 1
-9.366475 33.929831 6.979469 35.884221 -1.301450 1.375049 0.064050 -0.007044 -251845.000000 0 0 1
-9.042275 -33.491918 6.450869 35.285762 1.307100 1.386944 0.082590 -0.005338 48459.500000 0 0 1
-9.566475 -33.391408 5.136569 35.112503 1.291775 1.423981 0.074301 -0.003105 -364120.000000 0 0 1
-9.769775 -31.882288 4.672269 33.671336 1.273448 1.431586 0.071207 -0.004830 221911.000000 0 0 1
-10.809575 -31.150008 5.280769 33.392460 1.236782 1.411987 0.086531 -0.005193 -81652.800000 0 0 1
-12.120275 -31.376758 4.819469 33.979836 1.202172 1.428483 0.082249 -0.003504 -186239.000000 0 0 1
-13.195975 -30.487868 5.430469 33.662053 1.162315 1.408765 0.074697 -0.005490 -196180.000000 0 0 1
-13.432275 -30.723398 6.808769 34.215676 1.158638 1.370463 0.066622 -0.001453 147599.000000 0 0 1
-14.430175 -29.869528 7.369969 33.981393 1.120754 1.352177 0.057092 -0.003031 231638.000000 0 0 1
33.444595 -12.851858 -12.676431 38.005303 -0.366876 1.910856 0.059040 -0.009213 46394.900000 0 0 1
32.368205 -13.056858 -11.775531 36.835382 -0.383421 1.896188 0.064225 -0.010920 380325.000000 0 0 1
32.080345 -14.362758 -11.300331 36.920655 -0.420950 1.881859 0.065362 -0.017009 -410069.000000 0 0 1
33.030395 -14.952058 -10.248131 37.677516 -0.425077 1.846263 0.044605 -0.022579 -326021.000000 0 0 1
34.295605 -15.305758 -10.756331 39.066013 -0.419764 1.849737 0.048493 -0.025222 -289755.000000 0 0 1
35.193965 -15.422558 -9.679331 39.625243 -0.413011 1.817565 0.030725 -0.025948 107169.000000 0 0 1
-35.523999 -15.852458 -10.014331 40.168915 0.419728 1.822759 0.021159 -0.022719 273375.000000 0 0 1
-34.753749 -14.796358 -10.532231 39.213303 0.402504 1.842723 0.017511 -0.018197 1522.450000 0 0 1
-33.362505 -15.024558 -10.564031 38.084023 0.423139 1.851870 0.026075 -0.018272 169639.000000 0 0 1
-32.546005 -13.814758 -11.009131 37.030946 0.401420 1.872655 0.040406 -0.017613 -74855.700000 0 0 1
-32.831795 -12.636158 -10.163731 36.618311 0.367401 1.852048 0.059487 -0.023722 500689.000000 0 0 1
-32.227485 -11.410558 -10.622931 35.800255 0.340290 1.872061 0.059157 -0.022374 -193864.000000 0 0 1
-32.641215 -10.131258 -9.834931 35.564268 0.300954 1.850988 0.066647 -0.027852 -528990.000000 0 0 1
-32.188925 -10.072358 -8.531231 34.790246 0.303262 1.818542 0.066952 -0.026617 366193.000000 0 0 1
-32.896855 -9.062658 -7.804831 35.003574 0.268819 1.795659 0.076763 -0.028015 13020.700000 0 0 1
-32.381755 -8.780958 -6.372431 34.151005 0.264802 1.758492 0.067360 -0.025927 68927.400000 0 0 1
-31.082795 -8.130858 -6.364331 32.752950 0.255854 1.766354 0.066517 -0.038435 1262610.000000 0 0 1
-30.547345 -7.990958 -5.048731 31.976325 0.255859 1.729349 0.068193 -0.037838 -659829.000000 0 0 1
-29.809405 -9.244258 -4.631531 31.551672 0.300708 1.718121 0.064133 -0.033149 -1680630.000000 0 0 1
-30.588765 -10.383658 -4.397831 32.601132 0.327254 1.706107 0.055663 -0.024900 84767.700000 0 0 1
-30.973745 -10.422958 -3.053031 32.822735 0.324606 1.663947 0.048251 -0.029226 -194955.000000 0 0 1
-31.469095 -11.858958 -2.634531 33.732471 0.360387 1.648977 0.045506 -0.024923 601538.000000 0 0 1
-32.802435 -12.091758 -3.130031 35.099964 0.353169 1.660090 0.042173 -0.029025 926661.000000 0 0 1
-33.149395 -13.438058 -2.980031 35.893514 0.385135 1.653916 0.044037 -0.027956 678931.000000 0 0 1
-34.670195 -13.589258 -2.587531 37.328081 0.373554 1.640171 0.029478 -0.030390 818385.000000 0 0 1
-34.980581 -12.879458 -1.403631 37.302703 0.352786 1.608433 0.039206 -0.032202 -93150.500000 0 0 1
35.815785 -12.561958 -1.380731 37.979990 -0.337332 1.607159 0.083530 -0.041546 -107067.000000 0 0 1
35.445095 -11.413858 -0.387831 37.239512 -0.311530 1.581211 0.071174 -0.039302 -222646.000000 0 0 1
35.560105 -11.833958 0.957369 37.489734 -0.321259 1.545257 0.089623 -0.040269 176323.000000 0 0 1
35.279985 -10.762658 1.882969 36.933152 -0.296096 1.519791 0.079974 -0.041799 -286477.000000 0 0 1
35.320325 -10.944858 3.415569 37.134638 -0.300491 1.478688 0.095050 -0.040240 -218318.000000 0 0 1
34.139495 -11.465458 3.950269 36.229359 -0.324006 1.461544 0.088930 -0.036999 -107295.000000 0 0 1
34.469425 -12.119158 5.170269 36.901855 -0.338092 1.430225 0.086764 -0.039321 37303.200000 0 0 1
33.160035 -12.537358 5.886669 35.936417 -0.361474 1.406247 0.084144 -0.012706 42377.600000 0 0 1
32.449005 -11.472558 6.449769 35.016525 -0.339840 1.385546 0.062260 -0.023419 -148016.000000 0 0 1
32.740015 -11.333058 7.837769 35.521506 -0.333244 1.348317 0.042516 -0.013284 -585860.000000 0 0 1
32.034705 -10.066858 8.393869 34.612439 -0.304477 1.325844 0.044612 -0.029300 -1422070.000000 0 0 1
30.678255 -10.182058 8.552269 33.436072 -0.320458 1.312142 0.053906 -0.031718 -1150650.000000 0 0 1
30.219645 -8.977858 9.120569 32.817886 -0.288782 1.289174 0.066525 -0.028946 -559004.000000 0 0 1
28.694245 -8.839658 9.147869 31.387621 -0.298838 1.275056 0.060000 -0.029893 -29861.500000 0 0 1
28.020895 -8.426758 7.927569 30.315460 -0.292127 1.306218 0.067741 -0.033497 799275.000000 0 0 1
27.481545 -9.502058 7.142369 29.942241 -0.332894 1.329936 0.080802 -0.041596 -231919.000000 0 0 1
26.509605 -9.118558 5.987069 28.666221 -0.331294 1.360393 0.084651 -0.041322 344141.000000 0 0 1
25.245205 -8.746158 6.547869 27.508003 -0.333507 1.330454 0.091101 -0.039766 577334.000000 0 0 1
24.179705 -8.503458 5.684369 26.254123 -0.338168 1.352555 0.093959 -0.035390 -249110.000000 0 0 1
24.140805 -7.100758 5.024969 25.660271 -0.286071 1.373696 0.079284 -0.027782 -1023790.000000 0 0 1
25.018805 -6.995458 3.923269 26.272972 -0.272645 1.420909 0.075889 -0.026420 362068.000000 0 0 1
25.380505 -5.711358 3.549169 26.256165 -0.221342 1.435207 0.082834 -0.031246 32626.200000 0 0 1
26.260305 -5.729558 2.255969 26.972594 -0.214817 1.487059 0.101765 -0.033313 -217544.000000 0 0 1
25.468605 -5.823258 1.114969 26.149633 -0.224781 1.528145 0.090448 -0.028844 71550.300000 0 0 1
26.188205 -5.619958 -0.099231 26.784619 -0.211393 1.574501 0.087352 -0.027524 -28636.100000 0 0 1
25.368505 -5.789858 -1.423331 26.059727 -0.224387 1.625442 0.083413 -0.024939 -461741.000000 0 0 1
24.265205 -4.960858 -1.502131 24.812631 -0.201664 1.631372 0.079824 -0.015737 -304478.000000 0 1 0
23.629505 -5.132858 -2.771531 24.338880 -0.213899 1.684916 0.068137 -0.013262 -87741.300000 0 1 0
22.434805 -4.189158 -2.994031 23.018117 -0.184600 1.701239 0.047606 -0.010481 -417021.000000 0 1 0
22.752505 -2.816758 -3.034031 23.126088 -0.123173 1.702371 0.038048 -0.011466 209492.000000 0 1 0
23.270205 -2.298958 -4.212231 23.759851 -0.098474 1.749022 0.048264 -0.012653 260212.000000 0 1 0
22.232905 -1.417558 -5.034731 22.839878 -0.063673 1.793058 0.024090 0.001201 628435.000000 0 1 0
21.911205 -0.313658 -4.192631 22.310926 -0.014314 1.759839 0.011532 0.003048 316904.000000 0 1 0
20.939705 0.532542 -4.772131 21.483204 0.025427 1.794798 0.015233 0.010689 -703128.000000 0 1 0
20.903705 1.946342 -4.167931 21.403849 0.092842 1.766777 0.028890 0.009064 -387992.000000 0 1 0
21.980105 2.835542 -4.379631 22.590849 0.128296 1.765899 0.046406 0.009791 236732.000000 0 1 0
23.047705 2.593242 -3.477531 23.452395 0.112045 1.719626 0.077728 0.006657 -252533.000000 0 1 0
24.151405 3.663642 -3.595931 24.690957 0.150547 1.716954 0.062840 0.005883 -544161.000000 0 1 0
23.713205 4.956542 -3.287631 24.447738 0.206054 1.705681 0.064589 0.009458 561135.000000 0 1 0
24.789305 5.840842 -2.977731 25.641606 0.231399 1.687188 0.063976 0.008398 94241.900000 0 0 1
24.421605 7.327042 -3.065931 25.680737 0.291478 1.690468 0.063046 0.002730 -168640.000000 0 0 1
23.624005 7.740242 -1.982831 24.938656 0.316621 1.650389 0.076139 0.000261 474805.000000 0 1 0
22.662805 8.702542 -2.389431 24.393572 0.366639 1.668907 0.064152 0.005828 -565018.000000 0 1 0
21.660005 9.102242 -1.356931 23.533973 0.397826 1.628487 0.054298 0.006998 -417671.000000 0 1 0
22.267905 9.806142 -0.244731 24.332692 0.414818 1.580854 0.045226 0.006511 1591750.000000 0 1 0
21.219805 10.153142 0.716569 23.534653 0.446280 1.540344 0.035255 0.004610 846449.000000 0 1 0
21.702005 10.660642 2.124669 24.272217 0.456606 1.483149 0.055200 0.000791 -778998.000000 0 1 0
22.527105 11.779142 2.239569 25.519293 0.481790 1.482923 0.058140 -0.007934 578894.000000 0 0 1
21.942805 13.094642 1.929269 25.625737 0.538036 1.495439 0.061163 -0.003757 -314437.000000 0 0 1
20.804405 13.595242 2.823369 25.012502 0.578817 1.457677 0.051385 -0.002818 277990.000000 0 0 1
19.543805 12.909142 2.590469 23.565160 0.583738 1.460646 0.083168 -0.003497 2120250.000000 0 1 0
18.434305 13.477442 3.355169 23.080776 0.631299 1.424913 0.059469 -0.011527 485972.000000 0 1 0
18.418705 13.400142 4.878269 23.293991 0.628964 1.359813 0.038656 -0.006004 -886739.000000 0 1 0
18.134205 12.131342 5.380569 22.471524 0.589599 1.329008 0.035047 -0.000950 407990.000000 0 1 0
18.211105 12.051642 6.820869 22.878170 0.584608 1.268054 0.026269 -0.005367 -145433.000000 0 1 0
18.357005 10.557642 7.323969 22.407230 0.521931 1.237820 0.013418 -0.011131 -411608.000000 0 1 0
19.517205 9.895442 6.890269 22.941597 0.469241 1.265748 0.008624 -0.014401 205133.000000 0 1 0
19.579505 8.547642 7.410469 22.612701 0.411622 1.236915 0.017266 -0.007138 -417671.000000 0 1 0
20.559105 7.757242 6.573769 22.936129 0.360798 1.280108 0.025796 -0.005526 -438572.000000 0 1 0
20.130705 7.530542 5.233169 22.121040 0.357966 1.331962 0.014984 -0.008722 464181.000000 0 1 0
20.924705 6.584442 4.583969 22.410063 0.304863 1.364793 0.013322 -0.015213 -310679.000000 0 1 0
20.556205 6.718642 3.076869 21.844103 0.315898 1.429471 0.021348 -0.008235 426270.000000 0 1 0
21.290505 5.707742 2.287169 22.160665 0.261929 1.467404 0.010823 -0.011712 852828.000000 0 1 0
21.165705 5.739942 0.885469 21.948076 0.264821 1.530442 0.024906 -0.000562 -748365.000000 0 1 0
22.027205 4.763342 0.112669 22.536634 0.212969 1.565797 0.033645 -0.003367 -338705.000000 0 1 0
21.987705 3.391142 0.495669 22.253195 0.153023 1.548520 0.029010 0.001095 1053780.000000 0 1 0
23.174305 2.700542 0.076269 23.331248 0.116009 1.567527 0.044015 -0.000930 599625.000000 0 1 0
23.060205 1.136842 0.221869 23.089276 0.049259 1.561187 0.059037 -0.004390 -427953.000000 0 1 0
22.030005 0.559942 -0.534931 22.043611 0.025412 1.595066 0.027323 -0.008331 499469.000000 0 1 0
22.160605 -0.871958 -0.741431 22.190143 -0.039327 1.604215 0.031762 -0.009364 -1363050.000000 0 1 0
22.208505 -1.837858 0.492569 22.289864 -0.082567 1.548696 0.061443 -0.015237 548222.000000 0 1 0
23.403105 -1.759158 1.267669 23.503339 -0.075027 1.516834 0.080807 -0.018510 1302210.000000 0 1 0
24.648505 -2.080158 0.634969 24.744272 -0.084193 1.545132 0.087735 -0.021325 40712.200000 0 1 0
25.867605 -1.847158 1.573369 25.981156 -0.071287 1.510201 0.099057 -0.022103 -111630.000000 0 0 1
25.946805 -0.493458 1.767869 26.011642 -0.019016 1.502779 0.091027 -0.020285 633462.000000 0 0 1
26.642505 -0.056558 2.952169 26.805625 -0.002123 1.460440 0.086842 -0.016901 5272.080000 0 0 1
26.158105 1.316642 3.457869 26.418494 0.050292 1.439532 0.070947 -0.007231 -905058.000000 0 0 1
26.316105 2.443742 2.593569 26.556277 0.092596 1.472977 0.077118 -0.011906 415490.000000 0 0 1
27.617695 2.999142 2.516369 27.893799 0.108171 1.480461 0.093220 -0.016015 167693.000000 0 0 1
27.741735 3.814742 1.225569 28.029594 0.136652 1.527058 0.094747 -0.016955 -149710.000000 0 0 1
27.410975 3.141142 0.057969 27.590427 0.114097 1.568695 0.101306 -0.011973 224093.000000 0 0 1
27.712295 3.835842 -1.121631 27.998982 0.137543 1.610867 0.096371 -0.010197 -451988.000000 0 0 1
29.095435 3.644542 -1.769031 29.376121 0.124613 1.631053 0.096327 -0.007593 -515506.000000 0 0 1
30.100085 4.136942 -0.922231 30.397038 0.136584 1.601140 0.107143 -0.016846 766077.000000 0 0 1
31.409655 3.846142 -1.471231 31.678443 0.121844 1.617256 0.089450 -0.018593 696608.000000 0 0 1
32.619335 4.169642 -0.611931 32.890445 0.127138 1.589403 0.066370 -0.021800 -464614.000000 0 0 1
32.820905 3.393642 0.612469 33.001571 0.103033 1.552236 0.062102 -0.023656 459941.000000 0 0 1
31.961265 3.828042 1.672169 32.233096 0.119203 1.518896 0.069068 -0.015769 188835.000000 0 0 1
31.979635 2.976142 2.917769 32.250083 0.092796 1.480199 0.073806 -0.010209 -223183.000000 0 0 1
31.206685 1.835242 2.668469 31.374289 0.058742 1.485641 0.081878 -0.018499 49417.800000 0 0 1
31.341075 0.793342 3.660269 31.564061 0.025308 1.454572 0.077634 -0.017489 64876.900000 0 0 1
32.633015 -0.054958 3.745469 32.847301 -0.001684 1.456521 0.100496 -0.014432 664495.000000 0 0 1
33.847415 0.584542 4.163869 34.107579 0.017268 1.448411 0.091826 -0.018126 947380.000000 0 0 1
34.935545 -0.313758 4.000369 35.165234 -0.008981 1.456790 0.090638 -0.028228 -282483.000000 0 0 1
-35.860532 0.340342 4.320069 36.121415 -0.009490 1.450911 0.094768 -0.036499 127718.000000 0 0 1
-35.485966 1.463642 3.516769 35.689826 -0.041222 1.472099 0.086505 -0.035571 224329.000000 0 0 1
-35.326199 1.178542 2.104069 35.408423 -0.033349 1.511338 0.094642 -0.032516 -958873.000000 0 0 1
-35.284021 2.507842 1.278569 35.396132 -0.070957 1.534667 0.080392 -0.034309 604333.000000 0 0 1
-34.028659 3.174042 1.372069 34.203900 -0.093006 1.530671 0.093629 -0.039028 -13761.300000 0 0 1
-33.016345 2.668342 0.567769 33.128861 -0.080644 1.553657 0.109373 -0.036623 -1032950.000000 0 0 1
-31.699785 3.378442 0.974669 31.894204 -0.106175 1.540232 0.100147 -0.031392 -365348.000000 0 0 1
-31.361475 2.929542 2.277069 31.580205 -0.093142 1.498629 0.098522 -0.038861 619582.000000 0 0 1
-30.325665 3.745742 2.867169 30.690344 -0.122895 1.477237 0.099603 -0.020576 290057.000000 0 0 1
-30.539185 3.849042 4.396969 31.093251 -0.125375 1.428908 0.106744 -0.027815 1054520.000000 0 0 1
-31.740095 4.549342 4.840169 32.427726 -0.142361 1.420976 0.105241 -0.010716 2008680.000000 0 0 1
-32.952445 3.773042 4.998169 33.542230 -0.114003 1.421228 0.107608 -0.009617 431178.000000 0 0 1
-33.155835 2.892242 6.250569 33.863610 -0.087012 1.385151 0.099179 -0.010505 -736355.000000 0 0 1
-33.445515 3.640742 7.431269 34.454045 -0.108429 1.353402 0.096485 -0.008389 306746.000000 0 0 1
-33.455955 2.937942 8.648869 34.680475 -0.087591 1.318749 0.091495 -0.005570 -299667.000000 0 0 1
-34.419211 1.760142 8.878169 35.589353 -0.051094 1.318672 0.077323 -0.005069 -304332.000000 0 0 1
-34.191970 0.578842 8.083369 35.139248 -0.016928 1.338679 0.081588 -0.008678 536046.000000 0 0 1
-35.182993 -0.398958 8.422269 36.179231 0.011339 1.335848 0.085148 -0.005943 341507.000000 0 0 1
-34.883088 -1.237858 9.696769 36.226916 0.035471 1.299825 0.085541 -0.001703 35751.300000 0 0 1
-33.766565 -2.105058 9.528569 35.148340 0.062261 1.296265 0.077907 -0.009853 297227.000000 0 0 1
-33.590375 -2.992158 10.631269 35.359443 0.088843 1.265409 0.064177 0.008676 -1095550.000000 0 0 1
-32.301595 -3.743358 10.552669 34.187199 0.115373 1.256999 0.070477 0.011318 -1055660.000000 0 0 1
-32.348055 -4.695858 9.482669 34.034817 0.144160 1.288443 0.057806 -0.003440 -19845.100000 0 0 1
-31.367195 -5.683658 9.610469 33.295135 0.179253 1.277985 0.044673 -0.011913 -153479.000000 0 0 1
-31.589105 -6.666858 8.462469 33.375619 0.207997 1.314445 0.041079 0.005847 866717.000000 0 0 1
-32.709845 -7.553258 8.651769 34.667546 0.226939 1.318566 0.064691 -0.002950 549132.000000 0 0 1
-32.960115 -8.258858 7.445969 34.785347 0.245516 1.355072 0.053493 -0.011639 -158760.000000 0 0 1
-33.894055 -9.453158 7.657469 36.011192 0.271991 1.356519 0.058371 -0.017698 351856.000000 0 0 1
-35.172225 -9.009358 8.110169 37.202537 0.250758 1.351031 0.062113 -0.015997 104716.000000 0 0 1
-36.031475 -10.100958 8.221069 38.312955 0.273321 1.354538 0.054518 -0.018880 -595255.000000 0 0 1
7.647565 -24.080658 11.224469 27.646917 -1.263289 1.152731 0.091633 -0.021061 125862.000000 0 0 1
7.199565 -24.616558 9.988369 27.524101 -1.286264 1.199423 0.078028 -0.020290 -321279.000000 0 0 1
6.128365 -25.504588 10.233669 28.156151 -1.334982 1.198816 0.075949 -0.018708 271512.000000 0 0 1
5.866165 -26.425238 9.032069 28.535650 -1.352348 1.248739 0.060130 -0.014229 -256675.000000 0 0 1
5.272265 -25.701828 7.992069 27.427247 -1.368471 1.275115 0.065414 -0.008350 -378283.000000 0 0 1
5.139865 -26.455878 6.801669 27.795582 -1.378906 1.323583 0.051711 -0.007006 -333096.000000 0 0 1
4.404865 -25.788308 5.586369 26.751582 -1.401620 1.360424 0.053872 -0.005752 180906.000000 0 0 1
3.007665 -25.703408 5.750569 26.510003 -1.454312 1.352137 0.048314 -0.015511 -572025.000000 0 0 1
2.351765 -26.810368 5.178669 27.407029 -1.483302 1.380699 0.047119 -0.008735 284591.000000 0 0 1
0.816265 -26.543548 5.068869 27.035525 -1.540054 1.382191 0.056428 -0.013217 706833.000000 0 0 1
0.107065 -26.460718 6.310169 27.202928 -1.566750 1.336697 0.054660 -0.011659 -574871.000000 0 0 1
-1.287835 -26.520198 6.269569 27.281622 1.522274 1.338915 0.043138 -0.008139 108035.000000 0 0 1
-1.919235 -27.923408 6.292969 28.688005 1.502172 1.349639 0.045380 0.003677 -397133.000000 0 0 1
-1.691435 -28.615018 7.519869 29.634922 1.511755 1.314241 0.047864 -0.003042 -168475.000000 0 0 1
-2.273435 -29.875178 7.533169 30.894067 1.494845 1.324474 0.050734 0.002568 -191063.000000 0 0 1
-2.161235 -30.613638 8.942469 31.966130 1.500316 1.287264 0.052022 0.001212 -27542.700000 0 0 1
-0.846535 -31.029698 9.193669 32.374099 1.543522 1.282852 0.043005 0.001418 -532945.000000 0 0 1
-0.594135 -31.275468 10.564469 33.016903 1.551802 1.245097 0.037946 0.001424 1688160.000000 0 0 1
0.938265 -31.549968 10.930469 33.402933 -1.541066 1.237425 0.023416 0.001386 1485070.000000 0 0 1
1.435265 -32.829328 10.565769 34.517535 -1.527105 1.259704 0.033697 -0.000565 780637.000000 0 0 1
2.799765 -33.077758 10.973869 34.962874 -1.486356 1.251528 0.048788 -0.000834 1053780.000000 0 0 1
3.022465 -33.539208 12.464969 35.908066 -1.480922 1.216281 0.042380 0.004340 -267902.000000 0 0 1
2.764165 -32.453718 13.374869 35.210389 -1.485829 1.181156 0.026365 0.014538 144150.000000 0 0 1
3.212765 -32.865438 14.669969 36.134012 -1.473351 1.152737 0.027139 0.010383 -337613.000000 0 0 1
2.997865 -31.803628 15.811869 35.643697 -1.476812 1.111175 0.037470 0.011100 -138652.000000 0 0 1
3.545665 -30.541508 15.600569 34.478010 -1.455220 1.101253 0.045040 0.003261 -98606.600000 0 0 1
4.950465 -30.492288 15.735169 34.668173 -1.409849 1.099682 0.035826 0.010588 -88824.200000 0 0 1
5.544365 -29.235288 15.013469 33.329360 -1.383376 1.103518 0.049473 -0.006868 83307.100000 0 0 1
5.790865 -29.302998 13.575069 32.809789 -1.375690 1.144226 0.045593 -0.002304 627794.000000 0 0 1
4.581865 -29.468838 12.794869 32.451726 -1.416550 1.165519 0.048208 0.001282 374517.000000 0 0 1
4.810865 -29.772758 11.273869 32.197230 -1.410595 1.213065 0.036475 -0.011820 72601.900000 0 0 1
5.289665 -31.086808 10.998669 33.396720 -1.402253 1.235198 0.034068 -0.002457 -48611.500000 0 0 1
6.624865 -31.353198 11.385869 34.008085 -1.362561 1.229405 0.024325 -0.002639 -325405.000000 0 0 1
7.086165 -32.757998 11.004469 35.276033 -1.357760 1.253548 0.006518 0.005541 -263446.000000 0 0 1
6.440965 -33.764998 11.723969 36.318212 -1.382302 1.242097 0.002308 -0.001778 -85735.800000 0 0 1
6.782765 33.604834 11.261069 36.084656 1.371633 1.253421 0.014195 -0.002798 -139703.000000 0 0 1
6.244865 32.439672 12.069669 35.171119 1.380616 1.220507 0.008980 0.002860 661300.000000 0 0 1
4.819265 32.234342 12.051069 34.749193 1.422388 1.216638 0.015688 0.007283 863827.000000 0 0 1
4.490365 30.976842 12.584069 33.735544 1.426840 1.188533 0.029151 0.011600 287185.000000 0 0 1
3.369265 31.055862 13.660669 34.094463 1.462729 1.158547 0.033644 0.000516 208730.000000 0 0 1
3.823465 31.712762 14.824569 35.214855 1.450810 1.136277 0.042698 0.002092 105138.000000 0 0 1
2.846265 31.682922 15.833669 35.533278 1.481201 1.108951 0.030548 -0.000824 -143036.000000 0 0 1
3.416765 31.904232 17.248069 36.428700 1.464109 1.077565 0.028489 0.001673 -83871.800000 0 0 1
3.404965 33.249174 17.675969 37.809275 1.468745 1.084332 0.036436 0.006598 419587.000000 0 0 1
4.157965 33.395511 18.896469 38.595665 1.446927 1.059164 0.036729 0.008252 173332.000000 0 0 1
4.435765 -33.795598 19.380169 39.209812 -1.440290 1.053803 0.039023 0.001428 773737.000000 0 0 1
3.231665 -33.060958 19.676869 38.608933 -1.473357 1.036024 0.032596 0.002054 388802.000000 0 0 1
3.460065 -32.054288 20.591369 38.255116 -1.463269 1.002420 0.029561 -0.003461 -175509.000000 0 0 1
2.175665 -31.429078 21.135669 37.937276 -1.501682 0.979881 0.024234 -0.001786 -502464.000000 0 0 1
1.304165 -32.335958 21.732869 38.982465 -1.530486 0.979421 0.025845 -0.003293 -466827.000000 0 0 1
0.308365 -31.602568 22.437969 38.759254 -1.561039 0.953410 0.015895 -0.003828 36270.200000 0 0 1
-0.670535 -32.608578 23.123869 39.981024 1.550236 0.954066 0.009847 -0.003600 -471624.000000 0 0 1
-1.401635 -33.329368 22.138269 40.036412 1.528767 0.984892 0.014535 -0.004056 42009.500000 0 0 1
-2.226235 34.256746 22.627169 41.115320 -1.505901 0.988032 0.018613 -0.004082 -90634.000000 0 0 1
-3.568835 -33.949018 23.215069 41.282100 1.466058 0.973569 0.037896 -0.000675 -414197.000000 0 0 1
-4.597935 -33.608768 22.293969 40.592010 1.434833 0.989365 0.042151 -0.013092 3774.880000 0 0 1
-5.651635 -32.948858 22.983869 40.568786 1.400922 0.968495 0.046473 -0.008451 125213.000000 0 0 1
-6.861135 -32.588538 22.104269 39.971073 1.363289 0.984828 0.035115 -0.006630 105566.000000 0 0 1
-7.441935 -33.800688 21.578769 40.786176 1.354083 1.013291 0.024126 0.004924 -310246.000000 0 0 1
-8.588035 -33.484798 20.852769 40.371079 1.319732 1.028006 0.025028 -0.003192 278075.000000 0 0 1
-9.789735 34.153709 20.902569 41.221744 -1.291643 1.039007 0.039140 -0.005414 536818.000000 0 0 1
-10.480135 34.098978 22.126769 41.978178 -1.272615 1.015610 0.059837 -0.011123 329993.000000 0 0 1
-11.746035 33.451029 21.940469 41.693223 -1.233105 1.016629 0.044478 -0.008388 491880.000000 0 0 1
-12.568935 33.369677 23.226869 42.555857 -1.210573 0.993456 0.048120 -0.013990 -340290.000000 0 0 1
-12.740535 -34.058320 24.000469 43.569632 1.212833 0.987410 0.031220 -0.013524 366654.000000 0 0 1
-11.564435 -33.614328 24.685669 43.278649 1.239447 0.963817 0.024952 -0.011981 154727.000000 0 0 1
-11.687235 -32.197198 25.161169 42.501005 1.222597 0.937241 0.017071 -0.004988 -291607.000000 0 0 1
-12.312935 -32.009178 26.406869 43.284160 1.203576 0.914633 0.020828 -0.004628 103369.000000 0 0 1
-12.616135 -30.593768 26.557369 42.431584 1.179667 0.894528 0.028046 -0.008460 -197671.000000 0 0 1
-13.352935 -30.216568 27.840769 43.202433 1.154692 0.870524 0.027320 -0.016448 -123655.000000 0 0 1
-12.608735 -30.105878 29.018869 43.674235 1.174178 0.844053 0.015406 -0.010158 312488.000000 0 0 1
-13.553235 -29.996528 30.082569 44.591959 1.146424 0.830348 0.025302 -0.009544 612120.000000 0 0 1
-12.851735 -29.622288 31.397669 45.038435 1.161451 0.799409 0.031224 -0.007245 256910.000000 0 0 1
-13.836735 -29.428368 32.431969 45.927297 1.131285 0.786738 0.043879 -0.010104 731605.000000 0 0 1
-13.370935 -28.937628 33.687869 46.379313 1.137958 0.757792 0.045318 -0.012996 -486513.000000 0 0 1
-12.470935 -29.812888 -33.941994 46.865675 1.174608 2.380728 0.039892 -0.008265 236225.000000 0 0 1
-11.146635 -30.097148 34.085969 46.818149 1.216104 0.755323 0.027911 -0.008441 370813.000000 0 0 1
-10.706235 -31.259748 -33.707394 47.201522 1.240825 2.366158 0.033501 -0.004571 429357.000000 0 0 1
-9.181035 -31.513188 -33.932494 47.210026 1.287304 2.372808 0.033308 -0.008774 582624.000000 0 0 1
-8.397235 -30.711748 -33.044194 45.887294 1.303899 2.374766 0.043752 -0.016658 -579283.000000 0 0 1
-7.086735 -31.182588 -32.958194 45.921870 1.347326 2.371292 0.052633 -0.028023 -356176.000000 0 0 1
-6.208535 -30.399658 -31.967094 44.548627 1.369336 2.371114 0.054241 -0.021811 -70116.600000 0 0 1
-6.629335 -30.627548 -30.655194 43.837606 1.357635 2.345200 0.058937 -0.025228 96666.400000 0 0 1
-5.713135 -29.994358 -29.758694 42.636619 1.382577 2.343343 0.053669 -0.018498 173121.000000 0 0 1
-6.089735 -30.159598 -28.241394 41.764369 1.371558 2.313399 0.055294 -0.026387 -315816.000000 0 0 1
-5.548535 -31.287778 -27.604394 42.091731 1.395282 2.286058 0.049086 -0.022940 -512183.000000 0 0 1
-6.459435 -31.934668 -26.782794 42.176597 1.371219 2.258825 0.059718 -0.023717 -289905.000000 0 0 1
-5.863035 -33.147338 -26.072894 42.578363 1.395729 2.229827 0.058509 -0.021303 -32553.000000 0 0 1
-5.032535 -32.941968 -24.980294 41.647506 1.419199 2.214051 0.035957 -0.020736 -428312.000000 0 0 1
-5.016935 -34.105449 -24.203594 42.120841 1.424743 2.182939 0.057500 -0.021477 -119543.000000 0 0 1
-4.259735 -33.886738 -22.848694 41.091595 1.445747 2.160414 0.061462 -0.034115 11579.900000 0 0 1
-4.887335 -33.078658 -21.844194 39.940612 1.424109 2.149473 0.067614 -0.029013 178081.000000 0 0 1
-4.846035 -31.711448 -22.172094 38.996176 1.419153 2.175564 0.053345 -0.020510 66782.200000 0 0 1
-5.399935 -30.726238 -21.091294 37.657717 1.396829 2.165277 0.081265 -0.026499 307445.000000 0 0 1
-6.790535 -30.842288 -20.792794 37.811352 1.354084 2.153051 0.085052 -0.027836 508835.000000 0 0 1
-7.420435 -29.712468 -20.234094 36.705751 1.326061 2.154660 0.083984 -0.026479 227971.000000 0 0 1
-7.755235 -28.571158 -21.312894 36.478681 1.305747 2.194760 0.093515 -0.037278 43923.600000 0 0 1
-6.565535 -28.026128 -21.889194 36.162230 1.340681 2.220946 0.085727 -0.021742 166712.000000 0 0 1
-6.850135 -27.231448 -23.007794 36.301993 1.324357 2.257238 0.101677 -0.034319 168219.000000 0 0 1
-5.752535 -27.297598 -24.162394 36.906257 1.363101 2.284577 0.087246 -0.032529 618647.000000 0 0 1
-4.453235 -26.826488 -24.026494 36.287245 1.406295 2.294440 0.087586 -0.024215 -239791.000000 0 0 1
-3.678335 -27.417078 -22.984594 35.965509 1.437431 2.264089 0.063510 -0.024303 -279306.000000 0 0 1
-2.137935 -27.181608 -23.077194 35.720687 1.492304 2.273189 0.052689 -0.025198 476777.000000 0 0 1
-1.631135 -25.838858 -23.090094 34.690915 1.507753 2.299087 0.059355 -0.024718 -65361.000000 0 0 1
-1.894335 -25.017058 -21.986094 33.359107 1.495219 2.290382 0.073063 -0.023692 -825472.000000 0 0 1
-1.739035 -23.529358 -22.263994 32.439796 1.497021 2.327210 0.067307 -0.020867 -82451.400000 0 0 1
-2.480735 -22.928158 -23.303994 32.786134 1.463020 2.361414 0.076628 -0.022326 -495165.000000 0 0 1
-3.875235 -22.934858 -23.180394 32.838328 1.403410 2.354481 0.081022 -0.023613 -553446.000000 0 0 1
-4.597135 -23.147658 -24.546294 34.050966 1.374747 2.375852 0.074106 -0.018367 -45782.500000 0 0 1
-4.601935 -21.924258 -25.303994 33.795606 1.363898 2.416950 0.074059 -0.014861 158370.000000 0 0 1
-5.012335 -22.180458 -26.621794 35.011657 1.348550 2.434678 0.088723 -0.013756 55365.800000 0 0 1
-5.248135 -20.901058 -27.404394 34.862558 1.324788 2.475221 0.078442 -0.016659 66265.100000 0 0 1
-5.802835 -21.040558 -28.721594 36.073646 1.301693 2.491774 0.083434 -0.018442 736574.000000 0 0 1
-5.026635 -21.822358 -29.680194 37.180590 1.344402 2.495216 0.077588 -0.016107 841592.000000 0 0 1
-5.954035 -22.035958 -30.940694 38.449454 1.306902 2.505985 0.075097 -0.019855 328645.000000 0 0 1
-6.219735 -20.906958 -31.717794 38.494213 1.281638 2.539165 0.078214 -0.029445 430387.000000 0 0 1
-7.128235 -21.248658 -32.791694 39.719169 1.247126 2.542041 0.076921 -0.019525 225556.000000 0 0 1
-6.942335 -20.287258 -33.975094 40.175563 1.241086 2.578608 0.079336 -0.024522 363727.000000 0 0 1
-5.727435 -20.426558 33.774069 39.884026 1.297425 0.560843 0.076456 -0.023687 -39561.500000 0 0 1
-5.781435 -19.897958 32.447769 38.499499 1.288028 0.568313 0.069930 -0.017546 -21648.700000 0 0 1
-4.619735 -20.374158 31.577569 37.862793 1.347822 0.584478 0.043797 -0.024566 -792238.000000 0 0 1
-4.489835 -21.821658 31.425469 38.521467 1.367877 0.616701 0.046075 -0.026287 766304.000000 0 0 1
-3.304935 -22.227458 30.713269 38.056371 1.423191 0.631663 0.048180 -0.023907 1764940.000000 0 0 1
-1.861035 -21.983758 31.293269 38.288611 1.486343 0.614087 0.043376 -0.031976 289576.000000 0 0 1
-1.496535 -20.623158 31.000369 37.263616 1.498358 0.588236 0.041143 -0.029584 -478714.000000 0 0 1
-0.303435 -20.165358 31.566169 37.458734 1.555750 0.568533 0.045407 -0.030182 -344173.000000 0 0 1
-0.475335 -19.893758 33.111169 38.630778 1.546907 0.541146 0.029095 -0.033602 -78717.200000 0 0 1
-1.322235 -18.756758 33.245769 38.194835 1.500419 0.514730 0.024885 -0.029888 -55362.300000 0 0 1
-1.830135 -18.624258 -33.886794 38.710815 1.472845 2.637024 0.028876 -0.033317 589253.000000 0 0 1
-2.858635 -17.422958 -33.847294 38.175523 1.408172 2.660788 0.033336 -0.040817 410858.000000 0 0 1
-2.357435 -16.108758 -34.090494 37.778451 1.425483 2.696056 0.050415 -0.031759 -806413.000000 0 0 1
-3.297335 -15.093958 -33.927494 37.279684 1.355721 2.714273 0.059848 -0.029893 -287677.000000 0 0 1
-2.833435 -13.643158 -34.179894 36.911100 1.366025 2.754488 0.049962 -0.036846 -99230.000000 0 0 1
-1.761335 -13.146458 -33.373894 35.913068 1.437612 2.763300 0.057868 -0.029150 196481.000000 0 0 1
-1.570135 -11.744558 -33.340594 35.383544 1.437894 2.800121 0.043392 -0.019445 55782.100000 0 0 1
-1.190635 -11.145858 33.758069 35.570423 1.464377 0.320593 0.039084 -0.015665 239417.000000 0 0 1
-2.260535 -11.248558 32.784569 34.734249 1.372476 0.336644 0.040712 -0.017790 642473.000000 0 0 1
-1.789735 -10.973758 31.459169 33.366238 1.409127 0.339731 0.034384 -0.009069 245533.000000 0 0 1
-0.920035 -12.074058 30.777669 33.074072 1.494744 0.374835 0.028411 -0.020216 507286.000000 0 0 1
-1.631935 -13.309458 30.735069 33.532810 1.448791 0.411387 0.047420 -0.026704 800649.000000 0 0 1
-0.740935 -14.348558 30.267269 33.504293 1.519204 0.443198 0.044440 -0.035163 373537.000000 0 0 1
-1.231535 -15.697958 30.694369 34.497635 1.492505 0.473993 0.038529 -0.033785 119202.000000 0 0 1
-2.053635 -16.278458 29.696069 33.927306 1.445303 0.504771 0.054480 -0.033113 172246.000000 0 0 1
-2.365935 -17.647558 30.113869 34.983983 1.437525 0.533976 0.048033 -0.027804 -261870.000000 0 0 1
-2.950935 -18.431758 28.938369 34.436418 1.412043 0.572882 0.051012 -0.027893 -1722130.000000 0 0 1
-4.194735 -18.026958 28.590769 34.058759 1.342172 0.574518 0.046693 -0.022914 -1591810.000000 0 0 1
-4.908535 -18.973958 27.787169 34.003405 1.317648 0.614281 0.043401 -0.018708 -34972.100000 0 0 1
-4.440835 -19.237158 26.350369 32.926147 1.343924 0.643023 0.040126 -0.023570 -1109120.000000 0 0 1
-5.112835 -20.219358 25.668769 33.073391 1.323120 0.682314 0.040882 -0.017094 -770511.000000 0 0 1
-4.664435 -21.500658 25.939669 34.013257 1.357163 0.703421 0.043564 -0.020880 -116227.000000 0 0 1
-28.716845 -34.265067 -0.438431 44.709554 0.873264 1.580603 0.013889 0.007745 -132329.000000 0 0 1
-28.152375 -33.001167 -0.070331 43.377854 0.864521 1.572418 0.022518 0.011394 127622.000000 0 0 1
-28.566315 -32.575267 1.224569 43.343765 0.850873 1.542540 0.024152 0.010279 -27139.100000 0 0 1
-28.188465 -31.122767 1.625669 42.022125 0.834831 1.532101 0.030645 0.002706 -759134.000000 0 0 1
-26.834715 -30.840067 1.715869 40.916450 0.854734 1.528848 0.018420 0.003213 -1154950.000000 0 0 1
-26.591665 -29.474867 1.888969 39.742328 0.836778 1.523248 0.023652 -0.008885 312447.000000 0 0 1
-25.070495 -29.317367 2.127969 38.633742 0.863325 1.515688 0.034137 -0.010148 255077.000000 0 0 1
-24.621735 -29.943367 3.340369 38.910065 0.882619 1.484842 0.024592 0.004371 -1444850.000000 0 0 1
-23.265935 -30.169067 3.312469 38.241977 0.913874 1.484069 0.025423 0.003782 -1195380.000000 0 0 1
-22.804435 -30.751267 4.639169 38.564292 0.932708 1.450207 0.015547 0.006299 -323268.000000 0 0 1
-23.016235 -30.017667 5.810969 38.269763 0.916657 1.418364 0.011162 0.005873 -383791.000000 0 0 1
-22.424735 -30.620067 6.905869 38.576525 0.938685 1.390809 0.014440 0.011133 -8371.850000 0 0 1
-22.909035 -30.029367 8.284669 38.668107 0.919098 1.354872 0.005271 0.004624 -18660.000000 0 0 1
-22.485535 -28.683267 8.516769 37.428124 0.905934 1.341235 0.014984 -0.003254 128577.000000 0 0 1
-23.071635 -28.295267 9.763569 37.792192 0.886742 1.309484 0.006860 0.008021 217155.000000 0 0 1
-22.252235 -27.245167 10.579869 36.734109 0.885931 1.278646 0.022166 -0.007800 283279.000000 0 0 1
-20.951435 -27.679167 10.915969 36.390346 0.922869 1.266136 0.021077 -0.006126 -328405.000000 0 0 1
-20.342335 -26.710467 11.753969 35.572678 0.919921 1.234046 0.034119 -0.014199 424913.000000 0 0 1
-19.006635 -27.267967 12.366669 35.464471 0.962065 1.214606 0.038020 -0.010292 458876.000000 0 0 1
-19.006235 -28.317167 13.292969 36.603305 0.979668 1.199136 0.041676 -0.000679 -751346.000000 0 0 1
-17.839735 -28.374367 14.061369 36.346705 1.009521 1.173564 0.043043 -0.005298 -173874.000000 0 0 1
-17.892835 -29.566867 15.085669 37.708495 1.026588 1.159214 0.051335 -0.011406 87599.200000 0 0 1
-17.788335 -30.807967 14.437169 38.392546 1.047165 1.185276 0.056342 -0.003776 -174952.000000 0 0 1
-17.811635 -31.936667 15.356569 39.661433 1.062047 1.173213 0.061198 -0.000606 165703.000000 0 0 1
-17.767035 -33.380267 14.692569 40.568231 1.081674 1.200202 0.057164 -0.003591 -164219.000000 0 0 1
-17.616435 34.303342 15.687669 41.631251 -1.096369 1.184431 0.060851 0.007342 -116857.000000 0 0 1
-17.155935 33.109342 15.151469 40.250735 -1.092727 1.184860 0.054688 -0.005964 -265915.000000 0 0 1
-16.986335 31.982042 16.156569 39.653768 -1.082563 1.151146 0.065051 -0.010056 183366.000000 0 0 1
-18.220635 31.714442 16.803369 40.251095 -1.049322 1.140144 0.067099 -0.016198 379627.000000 0 0 1
-18.045735 30.661142 17.723869 39.747827 -1.038836 1.108608 0.050100 -0.007231 362621.000000 0 0 1
-18.883135 30.674942 19.061769 40.753845 -1.018994 1.084076 0.050662 -0.011233 12771.700000 0 0 1
-18.376735 31.603342 19.995269 41.668770 -1.044105 1.070299 0.043770 -0.004582 236271.000000 0 0 1
-19.167535 31.618242 21.182669 42.612359 -1.025818 1.050541 0.041930 0.002127 1560.450000 0 0 1
-18.922235 32.800742 22.199169 43.894678 -1.047547 1.040560 0.025906 -0.000711 -258159.000000 0 0 1
-17.709135 32.686342 22.891169 43.657944 -1.074278 1.018868 0.010673 -0.008097 -271249.000000 0 0 1
-17.579035 33.493242 24.056169 44.827659 -1.087464 1.004350 0.003910 -0.008750 -308919.000000 0 0 1
-18.343735 33.005342 25.306169 45.455994 -1.063526 0.980367 0.003936 -0.013300 692157.000000 0 0 1
-19.732835 33.303742 25.083869 46.127264 -1.035902 0.995841 0.016651 -0.017681 672579.000000 0 0 1
-20.610035 32.268542 25.490269 45.997676 -1.002403 0.983438 0.022645 -0.017378 -22731.700000 0 0 1
-22.065735 32.511242 25.069069 46.608323 -0.974502 1.002892 0.042029 -0.029213 -305238.000000 0 0 1
-22.254535 32.096442 23.724769 45.698037 -0.964538 1.024924 0.053583 -0.009804 1275900.000000 0 0 1
-23.626935 32.310642 23.317769 46.324162 -0.939408 1.043312 0.040470 -0.013402 1025710.000000 0 0 1
-23.885335 31.796542 21.895169 45.397442 -0.926532 1.067518 0.034493 -0.018989 -87004.200000 0 0 1
-23.180935 32.526942 20.903469 45.081180 -0.951618 1.088646 0.037356 -0.018605 50075.100000 0 0 1
-22.908635 31.658142 19.805369 43.809773 -0.944390 1.101704 0.011210 0.000290 -66664.600000 0 0 1
-22.338935 32.508142 18.616969 43.616498 -0.968727 1.129808 0.017928 0.015188 684259.000000 0 0 1
-21.114235 33.128442 19.063669 43.666098 -1.003369 1.119005 0.029895 0.013202 377781.000000 0 0 1
-20.596935 34.091942 18.150669 43.771464 -1.027325 1.143217 0.049759 0.012921 189196.000000 0 0 1
-19.351035 -33.857667 18.741369 43.267113 1.051566 1.122806 0.060649 0.003978 162022.000000 0 0 1
-19.711635 -32.867167 19.661169 43.073899 1.030571 1.096793 0.066813 -0.003968 1153470.000000 0 0 1
-18.505135 -32.234167 20.134069 42.271294 1.049650 1.074348 0.042321 -0.009055 903394.000000 0 0 1
-18.943135 -31.147167 21.180969 42.161853 1.024383 1.044455 0.035793 -0.001530 205707.000000 0 0 1
-19.598135 -30.049767 20.574969 41.357040 0.992884 1.050086 0.055769 0.003631 126907.000000 0 0 1
-19.815535 -29.055567 21.536669 41.239660 0.972262 1.021330 0.065352 0.005120 27466.100000 0 0 1
-20.683235 -27.845267 21.102369 40.601294 0.931924 1.024242 0.070250 -0.002660 -315204.000000 0 0 1
-19.925635 -26.905767 20.361969 39.186235 0.933357 1.024390 0.062791 0.009952 -25545.600000 0 0 1
-20.503335 -25.674667 20.019169 38.475218 0.896920 1.023579 0.062501 0.020109 -481740.000000 0 0 1
-21.692235 -25.750767 19.032469 38.676737 0.870736 1.056306 0.060659 0.009022 -367559.000000 0 0 1
-22.919935 -26.071867 19.634369 39.882003 0.849646 1.056053 0.057029 0.009743 302915.000000 0 0 1
-23.944735 -26.117867 18.619469 40.027215 0.828779 1.086969 0.044538 0.009027 145961.000000 0 0 1
-25.366265 -26.317167 19.163469 41.270804 0.803795 1.087913 0.028093 0.007532 -64139.000000 0 0 1
-25.925545 -27.604367 19.434369 42.565593 0.816750 1.096655 0.020292 0.010903 92552.300000 0 0 1
-26.270915 -28.405667 18.330569 42.814164 0.824422 1.128360 0.032073 0.009761 -550840.000000 0 0 1
-27.051815 -29.676567 18.701869 44.297396 0.831634 1.134938 0.041196 0.005482 -285489.000000 0 0 1
-28.416065 -29.579567 18.971569 45.192300 0.805457 1.137575 0.027390 0.009512 -805927.000000 0 0 1
-29.178775 -29.789767 17.825169 45.349397 0.795759 1.166836 0.026310 0.012560 -957303.000000 0 0 1
-30.626125 -29.344167 17.978369 46.068009 0.764025 1.169885 0.027227 0.012233 -396611.000000 0 0 1
-30.718525 -27.965467 18.012369 45.278478 0.738519 1.161664 0.035274 0.010417 -225980.000000 0 0 1
-32.059445 -27.543367 18.009269 45.943214 0.709773 1.168003 0.028796 0.031634 -180995.000000 0 0 1
-32.355665 -26.203367 17.237769 45.062692 0.680721 1.178265 0.031766 0.012292 -220127.000000 0 0 1
-32.619685 -26.371467 15.850669 44.841296 0.679874 1.209504 0.048763 -0.003615 402918.000000 0 0 1
-33.455885 -25.340467 15.331469 44.682093 0.648239 1.220556 0.055734 -0.005699 151030.000000 0 0 1
-32.697865 -24.100067 14.800269 43.232067 0.635164 1.221385 0.035700 -0.001138 766879.000000 0 0 1
-31.840565 -23.425967 15.784369 42.564584 0.634304 1.190890 0.024395 0.003942 655361.000000 0 0 1
-31.491005 -22.046767 15.547669 41.466533 0.610791 1.186459 0.019194 0.002512 -333253.000000 0 0 1
-32.522585 -20.985267 15.909569 41.847513 0.573030 1.180806 0.030127 -0.009745 -221667.000000 0 0 1
-32.870025 -20.870467 17.277769 42.597374 0.565715 1.153154 0.036354 -0.011304 147177.000000 0 0 1
-33.804735 -19.821567 17.435669 42.891225 0.530326 1.152166 0.048711 -0.014700 -157172.000000 0 0 1
-34.250530 -19.463167 18.887369 43.688058 0.516753 1.123729 0.045892 -0.015519 67870.000000 0 0 1
-35.465499 -20.077567 19.285669 45.087109 0.515132 1.128803 0.057194 -0.010481 104772.000000 0 0 1
-35.702306 -19.773967 20.634369 45.732282 0.505800 1.102688 0.059068 0.000721 159376.000000 0 0 1
35.077685 -19.995767 21.343069 45.670573 -0.518101 1.084532 0.060167 0.002045 727560.000000 0 0 1
34.603325 -21.318667 21.529269 45.993316 -0.552164 1.083662 0.072466 -0.001786 557529.000000 0 0 1
35.389725 -22.029667 22.517069 47.378869 -0.556791 1.075542 0.055164 0.011519 101593.000000 0 0 1
34.815895 -23.432867 22.740669 47.732419 -0.592409 1.074218 0.057407 0.016867 -180865.000000 0 0 1
33.649525 -23.280667 23.513169 47.192681 -0.605240 1.049231 0.061459 0.005880 -104615.000000 0 0 1
33.326105 -24.578567 24.051869 47.887656 -0.635464 1.044590 0.056772 -0.008396 487809.000000 0 0 1
32.309655 -24.540367 25.280769 47.804400 -0.649577 1.013566 0.061563 -0.011692 1148700.000000 0 0 1
30.931835 -24.439567 24.931369 46.643799 -0.668682 1.006874 0.068136 -0.005715 234272.000000 0 0 1
30.198915 -24.368767 26.115269 46.774123 -0.678959 0.978428 0.037005 0.005436 434988.000000 0 0 1
28.715435 -24.904667 26.072469 46.093300 -0.714448 0.969580 0.028009 0.003717 340162.000000 0 0 1
27.920965 -23.897767 25.565269 44.769035 -0.707914 0.963014 0.033280 0.008557 -410667.000000 0 0 1
26.670605 -24.480167 25.172469 44.093684 -0.742601 0.963212 0.028251 0.009535 913046.000000 0 0 1
25.657805 -23.358767 24.696569 42.589617 -0.738529 0.952224 0.030071 0.008798 -63901.800000 0 0 1
25.630505 -22.916267 23.367169 41.570454 -0.729547 0.973862 0.019390 0.017180 57966.000000 0 0 1
26.831805 -22.271167 22.956669 41.748764 -0.692785 0.988580 0.020592 0.024395 248624.000000 0 0 1
26.854605 -21.706267 21.523969 40.689226 -0.679774 1.013393 0.023252 0.011323 -4976.780000 0 0 1
26.069905 -20.532667 21.467269 39.523082 -0.667134 0.996603 0.015824 0.012308 -136428.000000 0 0 1
26.192105 -19.855267 20.257369 38.608535 -0.648642 1.018450 0.015119 0.009938 426886.000000 0 0 1
25.351305 -18.496067 20.242269 37.343575 -0.630310 0.997916 0.003990 0.020599 390604.000000 0 0 1
25.700105 -17.499567 21.205969 37.635400 -0.597802 0.972231 0.005530 -0.003616 -51235.500000 0 0 1
25.307505 -17.772367 22.524569 38.258111 -0.612239 0.941281 0.003418 0.000605 -269934.000000 0 0 1
25.585705 -16.612167 23.478569 38.494618 -0.575866 0.914839 0.020369 -0.007781 -4502.290000 0 0 1
24.520405 -15.690467 23.337969 37.310880 -0.569238 0.895024 0.004453 -0.005862 67736.800000 0 0 1
24.795005 -14.486067 24.050569 37.457553 -0.528746 0.873594 0.010808 -0.004915 329207.000000 0 0 1
23.601005 -13.499067 23.933569 36.222203 -0.519554 0.848988 0.014976 -0.011653 806648.000000 0 0 1
22.379905 -14.017467 24.492169 36.016883 -0.559564 0.823008 0.024557 -0.005491 178931.000000 0 0 1
21.360405 -13.186167 23.965669 34.705838 -0.553056 0.808565 0.028195 -0.004051 -553944.000000 0 0 1
19.963705 -13.685167 24.334069 34.321716 -0.600930 0.782718 0.025505 -0.007816 -526535.000000 0 0 1
19.582505 -14.977867 23.881569 34.324049 -0.652944 0.801308 0.035134 -0.010629 -466354.000000 0 0 1
18.404805 -15.358167 24.549469 34.311610 -0.695406 0.773477 0.048997 -0.008121 -132728.000000 0 0 1
17.796605 -16.600067 23.811769 34.048226 -0.750626 0.796303 0.063947 -0.013901 35363.300000 0 0 1
18.571905 -17.797267 23.912469 35.120714 -0.764102 0.821853 0.046845 -0.006521 79379.100000 0 0 1
18.016705 -18.823667 23.085869 34.812203 -0.807299 0.845771 0.068828 -0.011331 -153928.000000 0 0 1
18.348405 -20.243167 23.429269 35.991394 -0.834457 0.861937 0.052585 -0.006851 -442740.000000 0 0 1
17.486205 -20.675267 24.446869 36.481275 -0.868772 0.836425 0.050766 -0.006220 95723.900000 0 0 1
17.567905 -22.056567 24.618769 37.432703 -0.898197 0.853060 0.054238 -0.001852 -68763.200000 0 0 1
16.962705 -23.017667 23.490469 37.004709 -0.935704 0.883051 0.047447 -0.001571 5494.870000 0 0 1
17.798305 -23.309067 22.404069 36.905753 -0.918661 0.918439 0.044940 0.005051 -85912.500000 0 0 1
18.885105 -24.176467 22.658869 38.138866 -0.907664 0.934631 0.048572 0.008082 39438.800000 0 0 1
19.946705 -24.407567 21.559969 38.189431 -0.885635 0.970904 0.036052 0.023275 11589.000000 0 0 1
19.486005 -25.153867 20.426269 37.810764 -0.911691 1.000093 0.033330 0.004330 339943.000000 0 0 1
20.578805 -25.653467 19.653869 38.312689 -0.894725 1.032137 0.029698 0.002953 276018.000000 0 0 1
20.194605 -26.267367 18.255869 37.829531 -0.915365 1.067195 0.024242 -0.004278 62438.700000 0 0 1
19.389805 -27.396067 18.600469 38.372992 -0.954882 1.064744 0.037447 -0.010913 -100002.000000 0 0 1
18.839305 -28.017667 17.496969 38.027004 -0.978829 1.092666 0.042411 -0.017724 -986064.000000 0 0 1
17.908105 -29.146367 17.852969 38.586778 -1.019841 1.089791 0.035961 -0.009577 130809.000000 0 0 1
16.748605 -28.722767 18.577169 38.087063 -1.042887 1.061280 0.050681 -0.012680 350235.000000 0 0 1
15.945905 -29.832067 18.939169 38.767464 -1.079914 1.060389 0.058495 -0.015011 -397670.000000 0 0 1
14.854605 -29.502567 19.932469 38.579322 -1.104351 1.027849 0.048604 -0.012084 183735.000000 0 0 1
13.750405 -28.842667 19.272669 37.314995 -1.125931 1.028054 0.054053 -0.015184 171759.000000 0 0 1
12.609705 -28.759867 20.103769 37.286675 -1.157591 1.001348 0.034952 -0.009491 411626.000000 0 0 1
11.456305 -28.073467 19.287169 35.935517 -1.183341 1.004256 0.038166 -0.011216 154832.000000 0 0 1
11.139405 -28.953767 18.178269 35.956313 -1.203522 1.040759 0.030868 -0.015493 -162485.000000 0 0 1
10.439205 -28.316967 17.145969 34.710400 -1.217600 1.054144 0.058363 -0.011552 -87580.300000 0 0 1
10.445505 -29.104167 15.888369 34.764945 -1.226214 1.096151 0.044878 -0.010166 75728.000000 0 0 1
9.551905 -30.204867 15.965769 35.475043 -1.264510 1.103968 0.059391 -0.009638 172784.000000 0 0 1
9.635805 -31.117867 14.886869 35.816048 -1.270505 1.142141 0.038430 -0.009457 74629.400000 0 0 1
8.282905 -31.857967 14.678069 36.041397 -1.316433 1.151349 0.031147 -0.002296 106899.000000 0 0 1
8.133305 -32.842067 15.646569 37.276898 -1.328032 1.137639 0.034144 -0.006738 -413829.000000 0 0 1
7.336005 -33.901467 15.254169 37.892164 -1.357690 1.156476 0.010416 0.001997 -350382.000000 0 0 1
7.057605 33.702442 16.358169 38.121570 1.364370 1.127294 0.038673 -0.005825 191431.000000 0 0 1
8.193005 32.912942 16.641369 37.779919 1.326825 1.114661 0.046377 -0.007132 -76661.000000 0 0 1
7.796305 31.751842 17.293569 36.986881 1.330021 1.084268 0.049264 -0.015036 23708.900000 0 0 1
8.911405 30.755642 17.720369 36.596914 1.288771 1.065343 0.060415 -0.016901 -241654.000000 0 0 1
9.501705 30.151942 16.599069 35.706458 1.265520 1.087302 0.048631 -0.015832 -727028.000000 0 0 1
10.573605 29.346242 16.927469 35.490030 1.224971 1.073599 0.060590 -0.017786 -436154.000000 0 0 1
11.414805 28.790942 15.750969 34.746355 1.193335 1.100318 0.044366 -0.011620 -287231.000000 0 0 1
10.707105 28.047542 14.811969 33.476875 1.206122 1.112463 0.040785 -0.013731 -83430.200000 0 0 1
11.549905 27.316142 13.899769 32.753252 1.170771 1.132521 0.035035 -0.001952 320434.000000 0 0 1
-9.442835 -9.004958 19.241332 23.248339 0.761667 0.595901 0.040374 -0.022954 -246680.000000 0 1 0
-9.550735 -9.176758 17.835632 22.215742 0.765431 0.638757 0.034997 -0.025790 -146016.000000 0 1 0
-9.343835 -10.543558 17.486132 22.455259 0.845651 0.678190 0.034266 -0.027183 -243222.000000 0 1 0
-9.538635 -10.814758 15.964132 21.512742 0.848014 0.734631 0.033152 -0.023875 229171.000000 0 1 0
-10.926035 -10.550758 15.758432 21.886638 0.767926 0.766991 0.032671 -0.024046 521465.000000 0 1 0
-11.474535 -10.932258 14.504632 21.484030 0.761201 0.829648 0.039931 -0.021038 93051.500000 0 1 0
-11.530035 -12.465858 14.258532 22.173070 0.824378 0.872314 0.025243 -0.022666 -551868.000000 0 1 0
-10.276935 -13.058758 13.980432 21.716331 0.904047 0.871375 0.033934 -0.021978 -10319.300000 0 1 0
-10.307135 -14.502258 14.056132 22.674377 0.952908 0.902165 0.049156 -0.021499 22515.500000 0 1 0
-10.025335 -15.047458 15.449332 23.782666 0.983084 0.863732 0.061317 -0.025389 -757604.000000 0 1 0
-11.010435 -14.868658 16.379832 24.710434 0.933395 0.846149 0.053883 -0.013308 -1143230.000000 0 1 0
-10.684435 -15.348958 17.694032 25.745415 0.962691 0.813073 0.055061 -0.015223 197433.000000 0 0 1
-11.824335 -15.115958 18.751632 26.831526 0.906978 0.796986 0.033898 -0.006173 -29593.600000 0 0 1
-12.162235 -13.755458 19.003232 26.424523 0.846793 0.768216 0.032985 -0.008746 -374130.000000 0 0 1
-13.141935 -13.267358 18.116032 26.017760 0.790147 0.800574 0.043127 -0.010360 -353572.000000 0 0 1
-14.543335 -13.450558 18.730532 27.262775 0.746382 0.813393 0.026832 -0.002006 -581613.000000 0 0 1
-14.992935 -14.776358 18.919832 28.303514 0.778123 0.838657 0.033712 0.000543 -354400.000000 0 0 1
-16.030835 -14.849358 19.870432 29.535151 0.747157 0.832847 0.039410 0.000260 8231.450000 0 0 1
-16.435535 -16.326158 20.173332 30.718619 0.782060 0.854344 0.036207 -0.006098 240925.000000 0 0 1
-17.369835 -16.886958 19.246132 30.940170 0.771303 0.899446 0.041850 -0.000004 78161.000000 0 0 1
-17.836535 -18.143558 19.682032 32.166956 0.793931 0.912372 0.032788 -0.003137 241979.000000 0 0 1
-19.158535 -18.663458 19.045332 32.834415 0.772309 0.952016 0.043685 0.001826 153514.000000 0 0 1
-19.120635 -18.900458 17.662732 32.168278 0.779607 0.989542 0.041711 -0.000343 -38861.200000 0 0 1
-19.292935 -17.725858 16.899132 31.176979 0.743091 0.997935 0.044466 -0.005845 -897693.000000 0 0 1
-18.904835 -17.842058 15.441432 30.235238 0.756485 1.034786 0.041689 -0.013121 -430491.000000 0 0 1
-19.851535 -18.556258 14.725532 30.907271 0.751687 1.074193 0.041481 -0.002954 -554239.000000 0 0 1
-19.476035 -18.474558 13.381132 29.994665 0.759015 1.108374 0.047080 -0.011477 -27202.700000 0 0 1
-19.693835 -19.814658 12.563432 30.631807 0.788456 1.148185 0.034767 -0.004142 -93937.900000 0 0 1
-18.973335 -20.880558 13.086832 31.100648 0.833217 1.136481 0.027104 -0.005770 -201687.000000 0 0 1
-18.623835 -21.777558 11.992532 31.063323 0.863300 1.174432 0.029991 -0.008608 24163.300000 0 0 1
-18.134935 -23.224158 12.424632 31.978256 0.907832 1.171757 0.031781 -0.005296 67663.000000 0 0 1
-18.174335 -24.223958 11.415732 32.363954 0.927127 1.210309 0.027485 -0.013969 563605.000000 0 0 1
-17.129835 -24.244258 10.407932 31.456960 0.955686 1.233579 0.032923 -0.009933 501485.000000 0 0 1
-17.352135 -25.400458 9.422932 32.172527 0.971474 1.273551 0.053718 -0.012034 -465489.000000 0 0 1
-18.473635 -25.151978 8.651332 32.384297 0.937302 1.300366 0.039947 -0.009799 -865322.000000 0 0 1
-18.929535 -26.340588 8.023232 33.414459 0.947666 1.328315 0.051824 -0.009975 -170551.000000 0 0 1
-20.164135 -26.142378 7.138732 33.778362 0.913790 1.357850 0.052513 -0.016037 -248412.000000 0 0 1
-19.997535 -25.142768 6.178532 32.714438 0.898891 1.380793 0.055371 -0.022324 -417946.000000 0 0 1
-20.971335 -25.158758 5.184532 33.160810 0.875924 1.413807 0.050140 -0.024377 -372109.000000 0 0 1
-20.807135 -24.017058 4.170332 32.049143 0.856888 1.440303 0.051567 -0.021788 118079.000000 0 0 1
-21.884235 -23.810958 3.278632 32.505859 0.827538 1.469762 0.058572 -0.026042 -301765.000000 0 0 1
-21.845835 -22.466158 2.783132 31.459729 0.799396 1.482214 0.064310 -0.013703 132055.000000 0 0 1
-22.183735 -22.505058 1.255032 31.625477 0.792588 1.531102 0.046729 -0.015015 135967.000000 0 0 1
-21.401235 -23.405858 0.463932 31.718485 0.830107 1.556169 0.053044 -0.026641 172986.000000 0 0 1
-21.636835 -23.144258 -0.931868 31.696651 0.819047 1.600200 0.040979 -0.023714 -364477.000000 0 0 1
-20.955435 -24.029358 -2.014568 31.946811 0.853625 1.633898 0.047721 -0.023725 -126560.000000 0 0 1
-19.587535 -23.648458 -2.107868 30.779282 0.879048 1.639333 0.055411 -0.020089 409384.000000 0 0 1
-18.820135 -24.200758 -3.187868 30.822665 0.909822 1.674408 0.047860 -0.015689 333357.000000 0 0 1
-18.533335 -25.696738 -3.161068 31.840213 0.945962 1.670239 0.058543 -0.022872 -101875.000000 0 0 1
-19.594835 -26.542398 -3.639068 33.191855 0.934860 1.680655 0.086862 -0.029202 3543.190000 0 0 1
-19.156935 -27.851508 -3.853268 34.022673 0.968289 1.684296 0.087828 -0.031611 -233605.000000 0 0 1
-20.290635 -28.861728 -4.224768 35.532490 0.958040 1.689977 0.101418 -0.035451 260484.000000 0 0 1
-20.917035 -28.472118 -5.423068 35.743440 0.937192 1.723107 0.088537 -0.026057 -242314.000000 0 0 1
-21.699035 -29.543548 -5.938568 37.134026 0.937305 1.731409 0.075726 -0.040877 -460876.000000 0 0 1
-22.482835 -29.133598 -7.176268 37.493242 0.913542 1.763386 0.065250 -0.005963 -128303.000000 0 0 1
-21.696335 -28.801488 -8.349568 37.013132 0.925183 1.798339 0.100688 -0.016559 602286.000000 0 0 1
-22.465735 -28.900588 -9.566668 37.834830 0.910023 1.826425 0.097818 -0.011269 470520.000000 0 0 1
-23.414535 -27.693108 -9.841268 37.576578 0.868920 1.835786 0.058741 -0.003781 -4352.210000 0 0 1
-22.844235 -26.479978 -10.322368 36.463675 0.858976 1.857807 0.052519 -0.005565 475776.000000 0 0 1
-22.114935 -25.630238 -9.391268 35.130832 0.858892 1.841410 0.038262 -0.010498 315569.000000 0 0 1
-21.591935 -24.309758 -9.955268 34.004166 0.844539 1.867915 0.032533 -0.008838 -1174630.000000 0 0 1
-22.516835 -23.327358 -10.048268 33.943205 0.803076 1.871332 0.019988 -0.000165 -751752.000000 0 0 1
-21.997635 -22.023958 -10.318768 32.793713 0.785996 1.890891 0.010490 0.008386 66334.700000 0 0 1
-23.145935 -20.997758 -10.516468 32.973265 0.736773 1.895406 0.000225 0.013740 -130696.000000 0 0 1
-23.834735 -21.319358 -11.745868 34.067213 0.729749 1.922806 -0.014024 0.018262 1465150.000000 0 0 1
-25.194815 -20.794458 -11.763868 34.721416 0.690006 1.916445 -0.010928 0.023743 1308200.000000 0 0 1
-25.365695 -19.234158 -11.801468 33.950640 0.648776 1.925814 -0.004396 0.006474 -1048850.000000 0 0 1
-25.136265 -18.715558 -13.104968 33.968281 0.640013 1.966871 -0.000796 0.003590 268282.000000 0 0 1
-25.176305 -17.283958 -13.300068 33.308758 0.601619 1.981546 0.014719 0.002758 -539820.000000 0 0 1
-24.071635 -16.512758 -12.605868 31.796583 0.601257 1.978447 0.015086 0.010845 -829132.000000 0 0 1
-24.210535 -16.566558 -11.221268 31.408879 0.600091 1.936133 0.017741 0.008988 568954.000000 0 0 1
-23.000735 -16.503458 -10.463568 30.180858 0.622387 1.924842 0.008246 0.014554 318220.000000 0 0 1
-23.364635 -16.600258 -8.986768 30.037256 0.617729 1.874637 -0.003348 -0.001403 206891.000000 0 0 1
-23.586035 -17.985958 -8.681168 30.905637 0.651496 1.855520 -0.002887 0.007694 101818.000000 0 0 1
-24.525235 -18.102458 -7.632868 31.423666 0.635852 1.816153 0.023159 0.000863 111596.000000 0 0 1
-24.724435 -19.536158 -7.078568 32.296521 0.668710 1.791764 0.027694 -0.001361 51426.000000 0 0 1
-25.397235 -20.323858 -8.031268 33.504925 0.674887 1.812857 0.012230 -0.009964 41614.600000 0 0 1
-25.620505 -21.640858 -7.548468 34.376102 0.701391 1.792185 0.010228 -0.000827 127626.000000 0 0 1
-25.696485 -22.801258 -8.588968 35.411538 0.725771 1.815787 -0.001116 0.005633 171382.000000 0 0 1
-26.302685 -23.978658 -8.040068 36.489039 0.739211 1.792961 0.009880 0.004204 -184179.000000 0 0 1
-26.024235 -25.087358 -8.822868 37.208592 0.767070 1.810196 0.002973 0.013070 35864.600000 0 0 1
-26.719125 -26.363578 -8.309768 38.444793 0.778700 1.788664 0.002982 0.008748 -123086.000000 0 0 1
-26.124755 -26.957508 -7.187068 38.221250 0.801085 1.759961 0.023516 -0.006491 -176118.000000 0 0 1
-26.685705 -28.176418 -6.840868 39.406025 0.812563 1.745280 0.011358 -0.003498 55014.500000 0 0 1
-25.931705 -28.690458 -5.581468 39.073629 0.835861 1.714132 0.034533 -0.009564 97765.900000 0 0 1
-26.138645 -27.816908 -4.500568 38.435195 0.816493 1.688161 0.016208 -0.011304 -112811.000000 0 0 1
-25.559845 -28.080778 -3.240768 38.109557 0.832360 1.655937 0.032727 -0.014575 -358307.000000 0 0 1
-26.044735 -29.283368 -2.462968 39.267162 0.843866 1.633561 0.023561 -0.003177 -441902.000000 0 0 1
-25.682455 -30.568898 -3.018868 40.039475 0.872049 1.646265 0.032416 -0.008975 -48667.200000 0 0 1
-25.842275 -31.705278 -2.147268 40.959230 0.886929 1.623245 0.028352 -0.008034 288398.000000 0 0 1
-24.697335 -31.677148 -1.102868 40.182289 0.908583 1.598246 0.043679 -0.019513 -500995.000000 0 0 1
-23.408135 -31.826008 -1.581368 39.539047 0.936638 1.610802 0.054202 -0.027796 -660486.000000 0 0 1
-22.421635 -32.022008 -0.566368 39.095517 0.959940 1.585284 0.033598 -0.017946 805087.000000 0 0 1
-21.402035 -30.838098 -0.514468 37.540645 0.964100 1.584501 0.050947 -0.018484 -81783.100000 0 0 1
-21.966335 -29.642658 -0.036068 36.894557 0.933056 1.571774 0.054980 -0.027419 -98952.000000 0 0 1
-21.972935 -28.665728 -1.091368 36.134816 0.916804 1.601004 0.054601 -0.036149 -167660.000000 0 0 1
-22.555835 -27.311048 -0.649768 35.427125 0.880469 1.589138 0.056132 -0.022888 -352153.000000 0 0 1
-23.929435 -27.431218 -0.382168 36.403786 0.853473 1.581295 0.041429 -0.023335 -193149.000000 0 0 1
-24.669935 -26.272048 -0.044468 36.039258 0.816838 1.572030 0.047428 -0.041040 396518.000000 0 0 1
-24.258035 -25.572198 1.295932 35.271362 0.811765 1.534046 0.042069 -0.027790 -143821.000000 0 0 1
-24.935835 -26.097868 2.449332 36.178637 0.808164 1.503043 0.017132 -0.026411 -46853.800000 0 0 1
-24.565035 -25.502858 3.670332 35.599270 0.804127 1.467511 0.029587 -0.025707 -346243.000000 0 0 1
-25.353305 -24.263158 4.111932 35.332688 0.763430 1.454154 0.039359 -0.018472 -245358.000000 0 0 1
-25.292385 -23.196558 3.172632 34.465209 0.742202 1.478613 0.035650 -0.015176 128431.000000 0 0 1
-26.256545 -22.204058 3.527232 34.566858 0.701968 1.468578 0.029186 -0.006562 92926.900000 0 0 1
-26.260105 -21.031058 2.527132 33.738478 0.675274 1.495823 0.025157 0.000825 -623234.000000 0 0 1
-25.187585 -20.142458 2.582832 32.354351 0.674557 1.490882 0.035254 0.003095 -455162.000000 0 0 1
-25.079105 -19.340258 1.365432 31.699708 0.656913 1.527709 0.025178 -0.004531 230948.000000 0 0 1
-23.775835 -18.508358 1.406232 30.163341 0.661463 1.524159 0.045282 -0.002217 841833.000000 0 0 1
-22.555135 -19.281158 1.294432 29.701392 0.707300 1.527201 0.039759 -0.005646 839910.000000 0 0 1
-21.463735 -18.350558 1.356332 28.271444 0.707364 1.522803 0.050389 -0.001838 -194115.000000 0 0 1
-20.137735 -19.101058 1.261032 27.784330 0.758985 1.525394 0.055812 -0.008610 -689133.000000 0 0 1
-19.702835 -19.329858 -0.051868 27.601590 0.775843 1.572675 0.036440 -0.009316 132310.000000 0 0 1
-18.634835 -20.254058 -0.202568 27.523171 0.827011 1.578156 0.052030 -0.010472 255511.000000 0 0 1
-18.387835 -20.673758 -1.670168 27.718337 0.843852 1.631088 0.056191 -0.011855 23011.100000 0 0 1
-17.707235 -19.708458 -2.443668 26.607160 0.838833 1.662768 0.037485 -0.010622 -4761.160000 0 0 1
-17.454335 -20.167158 -3.738568 26.932229 0.857382 1.710060 0.040744 -0.004185 -121025.000000 0 0 1
-16.816335 -19.236958 -4.717568 25.982785 0.852438 1.753374 0.041354 0.001719 -558587.000000 0 0 1
-15.428335 -19.114758 -4.605068 24.992281 0.891715 1.756115 0.054655 -0.002745 -640400.000000 0 1 0
-14.983135 -18.264058 -5.662768 24.292737 0.883762 1.806066 0.061271 -0.003037 -366112.000000 0 1 0
-13.468035 -18.107158 -5.476068 23.221637 0.931277 1.808856 0.077251 -0.013691 -428155.000000 0 1 0
-12.739835 -19.288158 -5.515668 23.764659 0.987075 1.805028 0.069138 -0.017904 192139.000000 0 1 0
-11.350335 -19.119758 -5.793668 22.977420 1.035063 1.825694 0.063028 -0.019941 919197.000000 0 1 0
-10.459335 -20.391758 -5.669668 23.608613 1.096866 1.813319 0.047098 -0.021065 505887.000000 0 1 0
-10.813435 -21.360558 -6.629768 24.842657 1.102174 1.840940 0.047519 -0.019534 711954.000000 0 1 0
-9.678335 -22.240458 -6.849868 25.203746 1.160345 1.846038 0.039913 -0.017470 1216290.000000 0 0 1
-9.998435 -23.401158 -7.912768 26.649480 1.167011 1.872262 0.047767 -0.014638 -136698.000000 0 0 1
-10.400235 -22.963558 -9.221068 26.842466 1.145532 1.921464 0.049159 -0.009282 30406.500000 0 0 1
-10.716135 -24.121358 -10.026068 28.234686 1.152727 1.933815 0.057457 -0.009863 -98956.200000 0 0 1
-11.287735 -23.586058 -11.344568 28.502882 1.124434 1.980148 0.082072 -0.014135 -177374.000000 0 0 1
-10.451635 -22.741858 -12.107268 27.803142 1.140007 2.021350 0.064304 -0.003265 -303315.000000 0 0 1
-11.125335 -22.316358 -13.261868 28.243053 1.108327 2.059591 0.065138 -0.011714 -302301.000000 0 0 1
-10.557535 -21.080758 -13.990468 27.415198 1.106498 2.106351 0.046699 0.001847 -351630.000000 0 0 1
-10.597935 -19.923558 -13.215468 26.151730 1.081932 2.100570 0.055434 -0.002747 -62534.500000 0 0 1
-10.422735 -18.720958 -13.991268 25.590296 1.062792 2.149264 0.049641 0.011451 164720.000000 0 0 1
-9.980835 -17.495858 -13.082468 24.018182 1.052374 2.146816 0.054961 0.003085 -725080.000000 0 1 0
-11.083835 -17.033558 -12.339068 23.774904 0.993925 2.116472 0.058523 -0.005047 113092.000000 0 1 0
-10.865435 -15.812358 -11.660768 22.451322 0.968748 2.116922 0.066199 -0.010965 -107369.000000 0 1 0
-10.700235 -14.553158 -12.555868 21.998619 0.936801 2.178224 0.068696 0.004932 534932.000000 0 1 0
-11.868935 -14.027858 -13.220668 22.637104 0.868572 2.194477 0.059352 0.017960 419127.000000 0 1 0
-11.691435 -13.742058 -14.594668 23.206424 0.865851 2.250942 0.062438 0.010902 -164456.000000 0 1 0
-12.884235 -12.998358 -15.222468 23.805133 0.789807 2.264594 0.050687 0.016557 -104812.000000 0 1 0
-13.060135 -11.742258 -14.646068 22.868210 0.732313 2.265887 0.041165 0.012830 -585919.000000 0 1 0
-13.913435 -10.903258 -15.340168 23.404817 0.664691 2.285545 0.027897 0.000421 -461373.000000 0 1 0
-14.176335 -9.501758 -14.722668 22.539051 0.590483 2.282609 0.025453 -0.006298 136061.000000 0 1 0
-13.052735 -8.642158 -14.733668 21.497482 0.584831 2.325904 0.022617 -0.009779 162964.000000 0 1 0
-12.996635 -7.781158 -15.887868 21.951840 0.539467 2.380032 0.026887 -0.010038 -107899.000000 0 1 0
-11.815635 -6.776158 -15.763268 20.832815 0.520699 2.428979 0.012469 -0.013504 514747.000000 0 1 0
-10.588735 -7.484458 -15.858668 20.485013 0.615297 2.456183 0.012782 -0.013100 648345.000000 0 1 0
-9.440735 -6.681558 -15.513668 19.350571 0.615900 2.500958 0.003298 -0.007373 436382.000000 0 1 0
11.709365 22.158142 16.064732 29.768576 1.084652 1.000770 0.052606 0.000608 -276555.000000 0 0 1
12.298465 21.790042 17.263132 30.398584 1.056959 0.966853 0.077708 -0.003043 -154121.000000 0 0 1
12.755465 20.451042 17.289732 29.662803 1.013127 0.948533 0.067914 0.000439 88881.900000 0 0 1
13.904265 20.260342 18.317132 30.648448 0.969338 0.930226 0.073542 -0.008197 -139558.000000 0 0 1
15.129865 20.789742 17.888732 31.323042 0.941684 0.962946 0.062707 -0.000803 -594481.000000 0 0 1
16.122665 20.409942 18.818432 32.103574 0.902219 0.944462 0.075215 -0.006475 101316.000000 0 0 1
17.515365 20.926842 18.370432 32.896710 0.873909 0.978307 0.066236 0.004527 -787627.000000 0 0 1
17.684865 22.268242 18.672432 34.018947 0.899618 0.989769 0.068322 -0.004079 511834.000000 0 0 1
18.882165 22.933942 18.216832 34.847594 0.881992 1.020714 0.060842 0.001186 969616.000000 0 0 1
20.161765 22.520742 18.997032 35.701090 0.840610 1.009701 0.053777 -0.008002 -591197.000000 0 0 1
20.620665 21.251342 18.598632 34.967706 0.800459 1.009977 0.066849 -0.005712 -296951.000000 0 0 1
21.855965 20.903342 19.166032 35.804605 0.763123 1.005939 0.067197 -0.016233 -196482.000000 0 0 1
22.248665 19.426442 18.687332 34.951483 0.717782 1.006685 0.070256 -0.019777 -137116.000000 0 0 1
22.529065 19.326642 17.286232 34.349552 0.709036 1.043447 0.058414 -0.012648 149883.000000 0 0 1
22.392765 18.027642 16.698332 33.245543 0.677822 1.044571 0.050763 -0.005247 -686976.000000 0 0 1
23.215365 16.853742 17.207232 33.452812 0.627946 1.030520 0.044153 -0.002475 555896.000000 0 0 1
24.585365 17.053442 16.803432 34.316401 0.606446 1.059094 0.052883 -0.008689 1000720.000000 0 0 1
25.430965 16.020342 17.261732 34.660536 0.562154 1.049479 0.040283 -0.006712 -915846.000000 0 0 1
26.652865 15.704642 16.443632 35.034327 0.532462 1.082233 0.072135 -0.010652 -1454810.000000 0 0 1
27.599965 16.733942 16.492932 36.246375 0.545041 1.098398 0.061890 -0.006866 103067.000000 0 0 1
28.827765 16.465142 17.153732 37.368322 0.518940 1.093877 0.058207 -0.016467 459250.000000 0 0 1
29.785965 15.331942 16.673032 37.420077 0.475368 1.108992 0.043285 -0.013808 -475944.000000 0 0 1
30.320665 15.742042 15.397032 37.472967 0.478878 1.147373 0.061555 -0.013985 100942.000000 0 0 1
30.436865 14.719142 14.456532 36.770195 0.450438 1.166732 0.071631 -0.029719 -73038.700000 0 0 1
29.491865 14.832842 13.246632 35.570445 0.466002 1.189197 0.074752 -0.017484 -397573.000000 0 0 1
29.935165 15.782542 12.309932 36.010237 0.485189 1.221916 0.070933 -0.013907 181184.000000 0 0 1
29.096165 15.913742 11.166132 34.993092 0.500488 1.246022 0.068984 -0.016654 159887.000000 0 0 1
27.802565 16.723042 11.421432 34.396103 0.541516 1.232314 0.073141 -0.014280 -458058.000000 0 0 1
27.799265 18.143242 11.272732 35.057822 0.578237 1.243434 0.060856 -0.003619 423598.000000 0 0 1
28.490165 18.864942 12.333232 36.327457 0.584874 1.224409 0.060560 -0.005310 -407.862000 0 0 1
27.951665 18.628442 13.802032 36.315431 0.587854 1.180935 0.069620 -0.003570 -134755.000000 0 0 1
26.802065 19.424442 13.982132 35.932710 0.627136 1.171120 0.075024 0.002154 10048.200000 0 0 1
26.339165 19.272142 15.314232 36.051252 0.631680 1.132066 0.077383 -0.002610 -238013.000000 0 0 1
27.053065 20.085642 16.456732 37.498338 0.638654 1.116460 0.063535 -0.007950 -91635.100000 0 0 1
26.837865 21.486842 16.528932 38.146572 0.675117 1.122645 0.059585 -0.003088 185661.000000 0 0 1
25.481565 21.865242 16.688132 37.495236 0.709167 1.109540 0.069792 -0.001967 69374.600000 0 0 1
25.307565 23.368542 16.508432 38.198036 0.745584 1.123887 0.058107 0.001410 -271919.000000 0 0 1
25.137565 23.796542 15.166332 37.791404 0.758000 1.157842 0.086311 -0.003515 60858.300000 0 0 1
24.779165 25.157942 15.123732 38.414273 0.792983 1.166142 0.080500 -0.007228 -203414.000000 0 0 1
24.749165 25.742742 13.716132 38.253656 0.805074 1.204074 0.083013 -0.013637 453305.000000 0 0 1
23.536665 25.313542 13.075232 36.955537 0.821756 1.209155 0.084604 -0.007553 841095.000000 0 0 1
23.417665 25.842242 11.791532 36.813703 0.834579 1.244747 0.082832 -0.022022 19292.200000 0 0 1
22.629665 24.945142 10.832932 35.379574 0.834030 1.259606 0.078782 -0.020045 323424.000000 0 0 1
21.205865 24.899642 10.901432 34.474949 0.865343 1.249061 0.076887 -0.020230 372100.000000 0 0 1
20.648865 23.650042 10.707532 33.171545 0.853043 1.242118 0.084827 -0.009369 -100110.000000 0 0 1
20.354965 23.117842 9.268632 32.166237 0.848867 1.278504 0.076605 -0.003213 240316.000000 0 0 1
19.175265 23.641142 8.654432 31.646384 0.889325 1.293794 0.069527 -0.003379 546439.000000 0 0 1
19.469365 23.642942 7.257532 31.475652 0.881905 1.338127 0.069489 -0.025275 -374503.000000 0 0 1
18.323265 23.963342 6.332532 30.823445 0.917993 1.363878 0.054073 -0.019629 -1458290.000000 0 0 1
17.534565 22.851742 5.851732 29.392276 0.916303 1.370366 0.058104 -0.007922 677446.000000 0 0 1
16.529965 23.119242 4.883932 28.837335 0.950082 1.400615 0.077508 -0.021492 626966.000000 0 0 1
15.348065 24.003842 5.393232 28.997146 1.001909 1.383715 0.064103 -0.017967 -774781.000000 0 0 1
15.742265 25.336542 5.742832 30.376626 1.014843 1.380597 0.081132 -0.030940 -358166.000000 0 0 1
14.681965 26.049642 6.292832 30.557220 1.057560 1.363376 0.050717 -0.029122 -464032.000000 0 0 1
14.434765 27.373942 5.571232 31.444138 1.085534 1.392677 0.057432 -0.031097 -116222.000000 0 0 1
13.716065 27.203842 4.362432 30.776782 1.103798 1.428573 0.051951 -0.014626 460361.000000 0 0 1
13.755965 28.330442 3.552732 31.693256 1.118772 1.458463 0.044202 -0.010518 110745.000000 0 0 1
13.282665 28.075042 2.059332 31.126806 1.128889 1.504589 0.046189 -0.002420 -494029.000000 0 0 1
14.269965 27.429442 1.378132 30.950048 1.091086 1.526254 0.061785 -0.013735 -480076.000000 0 0 1
13.795065 27.017742 0.120132 30.336062 1.098710 1.566836 0.052289 0.000090 -136912.000000 0 0 1
14.846365 26.818542 -0.978668 30.669310 1.065204 1.602712 0.048970 -0.004178 -178154.000000 0 0 1
15.088665 27.948242 -1.805068 31.812424 1.075757 1.627568 0.042942 0.009416 671938.000000 0 0 1
16.214165 27.606442 -2.648168 32.125186 1.039743 1.653323 0.047647 0.003111 672156.000000 0 0 1
15.949165 27.971542 -4.119668 32.461588 1.052582 1.698048 0.050498 -0.002802 23042.600000 0 0 1
14.895365 27.282842 -4.825968 31.456563 1.071059 1.724822 0.059197 -0.003595 269099.000000 0 0 1
14.921865 27.678042 -6.187268 32.047127 1.076342 1.765084 0.042706 -0.004314 259112.000000 0 0 1
13.641765 27.287042 -6.951568 31.289051 1.107200 1.794838 0.055364 -0.015158 79038.500000 0 0 1
13.669165 25.909242 -7.364968 30.205590 1.085330 1.817107 0.042695 -0.005761 -217395.000000 0 0 1
12.335265 25.630642 -7.712568 29.471551 1.122244 1.835575 0.041818 -0.011898 79614.700000 0 0 1
12.003965 24.125042 -8.010868 28.112041 1.109092 1.859763 0.045617 -0.005470 212764.000000 0 0 1
12.644265 23.692342 -9.214668 28.392158 1.080565 1.901332 0.042711 -0.009119 71981.900000 0 0 1
12.015965 22.541942 -9.654968 27.308259 1.081060 1.932165 0.049779 -0.001304 -64807.300000 0 0 1
12.503465 22.066242 -11.042468 27.662100 1.055273 1.981431 0.051079 -0.000232 63567.300000 0 0 1
12.014465 20.788142 -11.272668 26.524843 1.046749 2.009742 0.060445 -0.004653 -281298.000000 0 0 1
11.851165 20.401342 -12.627068 26.760189 1.044538 2.062196 0.055894 -0.008923 367470.000000 0 0 1
13.028365 19.553342 -13.221268 26.960590 0.983049 2.083336 0.069064 -0.005554 723963.000000 0 0 1
14.190965 20.340042 -13.408368 28.193708 0.961625 2.066420 0.056264 -0.000807 -136244.000000 0 0 1
15.311865 19.655842 -13.931668 28.546396 0.908993 2.080634 0.050800 -0.005220 815564.000000 0 0 1
16.662965 20.379842 -13.614868 29.637088 0.885403 2.048100 0.050289 0.004077 514831.000000 0 0 1
17.018365 21.657742 -14.285968 31.028558 0.904782 2.049257 0.041559 0.001264 172017.000000 0 0 1
16.050265 22.706342 -14.162068 31.205018 0.955479 2.041866 0.043273 0.001375 19070.000000 0 0 1
16.506265 24.149742 -14.446868 32.624819 0.971233 2.029536 0.033097 -0.000942 -85765.000000 0 0 1
16.761465 24.504242 -15.856168 33.657431 0.970874 2.061339 0.023415 0.001368 -477232.000000 0 0 1
15.611365 24.782742 -16.598168 33.665980 1.008661 2.086360 0.033788 0.003862 -180447.000000 0 0 1
15.825965 24.738242 -18.128168 34.511915 1.001670 2.123832 0.013799 0.016898 128273.000000 0 0 1
16.129365 23.451542 -18.666668 34.037858 0.968323 2.151257 0.017858 0.017127 39516.200000 0 0 1
15.988365 23.444242 -20.092568 34.770269 0.972271 2.186908 0.020893 0.014627 -227528.000000 0 0 1
16.331265 22.064742 -20.772268 34.424558 0.933628 2.218572 0.031006 0.006964 -9448.280000 0 0 1
15.350565 21.046542 -20.619768 33.223059 0.940634 2.240363 0.039417 0.002167 22665.400000 0 0 1
15.596365 19.859342 -21.396668 33.097696 0.905058 2.273745 0.049894 -0.000826 -232743.000000 0 0 1
14.468065 18.804442 -21.481568 32.006089 0.914997 2.306584 0.051832 -0.003569 -513990.000000 0 0 1
14.454565 17.969142 -20.361768 30.764040 0.893372 2.294106 0.048026 -0.008417 556525.000000 0 0 1
13.609765 16.806142 -20.466868 29.775238 0.890103 2.328670 0.043114 -0.011148 1331250.000000 0 0 1
12.062765 16.825142 -20.745368 29.308122 0.948786 2.357227 0.040190 -0.016110 1039100.000000 0 0 1
11.222665 17.370942 -19.725568 28.579641 0.997196 2.332557 0.038755 -0.015797 129196.000000 0 0 1
9.902765 17.677742 -20.142568 28.570796 1.060169 2.353227 0.029246 -0.011786 133100.000000 0 0 1
8.941465 17.260942 -19.021668 27.197680 1.092839 2.345334 0.030845 -0.017920 -662339.000000 0 0 1
8.880565 15.865742 -18.814868 26.164584 1.060512 2.373298 0.039575 -0.028103 -209765.000000 0 0 1
7.601165 15.379042 -18.486868 25.220169 1.111755 2.393546 0.042898 -0.020822 38040.200000 0 0 1
7.252665 15.569942 -17.016768 24.178392 1.134871 2.351530 0.039025 -0.025182 -347437.000000 0 1 0
7.006465 16.897842 -16.599768 24.701820 1.177736 2.307710 0.047768 -0.020115 -632182.000000 0 1 0
6.380665 16.885342 -15.360168 23.701528 1.209501 2.275839 0.029616 -0.024830 -93145.000000 0 1 0
5.862865 18.359442 -15.090268 24.477714 1.261694 2.235073 0.026601 -0.018971 570084.000000 0 1 0
6.940365 19.274342 -14.792468 25.268282 1.225167 2.196190 0.026355 -0.017058 398552.000000 0 0 1
7.458165 19.944942 -15.901768 26.576139 1.212957 2.212233 0.041608 -0.013796 -97345.300000 0 0 1
8.616065 20.932842 -15.662568 27.527014 1.180326 2.176072 0.045294 -0.002657 41136.800000 0 0 1
8.314765 22.153642 -14.964168 27.997241 1.211743 2.134697 0.035464 -0.008792 -123646.000000 0 0 1
8.223065 22.050042 -13.574368 27.167750 1.213844 2.093991 0.031891 -0.003035 -77160.300000 0 0 1
7.996065 23.358242 -12.842268 27.829272 1.240977 2.050443 0.043500 -0.012515 55159.300000 0 0 1
6.664065 23.844842 -12.962868 27.946775 1.298273 2.053123 0.032453 -0.009534 -398409.000000 0 0 1
6.307665 24.855042 -12.084168 28.347608 1.322265 2.011179 0.037911 -0.010609 215678.000000 0 0 1
5.850565 24.272942 -10.708268 27.167478 1.334275 1.975947 0.039706 -0.021801 -302313.000000 0 0 1
6.959165 23.945842 -9.918468 26.836717 1.287966 1.949359 0.038164 -0.019262 -177504.000000 0 0 1
6.520665 23.188242 -8.791168 25.641730 1.296670 1.920741 0.040345 -0.025279 -314728.000000 0 0 1
7.534365 23.163342 -7.677268 25.539137 1.256319 1.876126 0.041096 -0.022819 -347971.000000 0 0 1
7.633465 24.381442 -6.958368 26.479113 1.267379 1.836706 0.037069 -0.025153 -348405.000000 0 0 1
8.540865 24.225342 -5.932868 26.363090 1.231844 1.797785 0.036249 -0.015602 -396399.000000 0 0 1
8.894165 25.577842 -5.157568 27.566877 1.236146 1.758998 0.027497 -0.010157 127090.000000 0 0 1
9.573265 26.502242 -5.980968 28.806045 1.224157 1.779947 0.037848 -0.011595 -78068.300000 0 0 1
9.775165 27.731542 -5.371468 29.890550 1.231903 1.751482 0.035134 -0.006911 141033.000000 0 0 1
9.798665 28.845442 -6.427268 31.134919 1.243331 1.778724 0.045032 -0.010471 531947.000000 0 0 1
10.995865 28.878142 -7.193368 31.726971 1.206979 1.799512 0.053885 -0.016453 -60745.700000 0 0 1
10.938365 30.088642 -7.908368 32.977515 1.222112 1.812967 0.059357 -0.017811 58396.500000 0 0 1
12.212065 30.418642 -8.705568 33.914824 1.189026 1.830391 0.056327 -0.020699 592619.000000 0 0 1
13.391865 30.647742 -7.948468 34.377381 1.158838 1.804120 0.043867 -0.009612 137394.000000 0 0 1
14.509865 31.003042 -8.728268 35.325734 1.133063 1.820462 0.031018 -0.010884 840337.000000 0 0 1
15.808265 31.494442 -8.006268 36.137259 1.105599 1.794202 0.022370 -0.012914 731886.000000 0 0 1
16.480465 30.448442 -7.326568 35.389151 1.074690 1.779333 0.022492 -0.001657 58919.300000 0 0 1
17.684965 30.896942 -6.717368 36.228470 1.050929 1.757292 0.027062 -0.001316 365497.000000 0 0 1
18.738965 29.827442 -6.433968 35.808115 1.009866 1.751457 0.029434 0.000557 -314656.000000 0 0 1
18.491165 29.205042 -5.177968 34.952382 1.006358 1.719487 0.049944 -0.006627 715256.000000 0 0 1
19.527065 28.249042 -4.762568 34.669824 0.965969 1.708601 0.042140 -0.004701 408468.000000 0 0 1
19.591465 26.891542 -5.536968 33.728898 0.941174 1.735704 0.034622 0.016471 -137709.000000 0 0 1
19.956465 27.106942 -6.917068 34.364119 0.936178 1.773468 0.021343 0.015984 236548.000000 0 0 1
19.849565 25.889942 -7.707668 33.521672 0.916699 1.802803 0.020835 0.012953 -175595.000000 0 0 1
20.514465 25.946442 -9.154668 34.320098 0.901785 1.840809 0.018555 0.005554 956520.000000 0 0 1
21.934465 26.136042 -9.224768 35.345577 0.872581 1.834842 0.013335 0.006089 977377.000000 0 0 1
22.667865 24.888242 -9.116768 34.876528 0.832054 1.835270 0.023983 0.004980 -735755.000000 0 0 1
24.162965 25.099042 -9.202068 36.034551 0.804398 1.829025 -0.005444 0.008446 -716137.000000 0 0 1
24.632565 25.432342 -10.495268 36.928552 0.801372 1.858973 0.004788 0.004550 10855.700000 0 0 1
26.029165 25.694942 -10.487868 38.049216 0.778937 1.850051 0.000413 0.010232 479746.000000 0 0 1
26.660665 25.734742 -11.897668 38.918152 0.767728 1.881480 0.013615 0.001303 3686.730000 0 0 1
26.445565 26.965542 -12.485768 39.779427 0.795133 1.890068 0.012271 -0.002717 117190.000000 0 0 1
27.181865 27.006542 -13.721768 40.700050 0.782163 1.914678 0.017165 -0.001467 455420.000000 0 0 1
27.122765 28.315242 -14.540068 41.818787 0.806905 1.925905 0.032369 -0.009247 -117085.000000 0 0 1
27.721465 29.459342 -14.034968 42.817202 0.815781 1.904758 0.039560 -0.014454 -36886.000000 0 0 1
28.098865 30.323342 -15.094768 44.010264 0.823456 1.920887 0.061748 -0.009560 -194338.000000 0 0 1
28.642465 31.715042 -14.776168 45.216920 0.836261 1.903695 0.055201 -0.014576 -175213.000000 0 0 1
29.891165 31.724342 -14.141668 45.824692 0.815141 1.884521 0.049822 -0.018230 -241430.000000 0 0 1
30.392065 33.053742 -14.011768 47.037827 0.827326 1.873271 0.054776 -0.018769 -262543.000000 0 0 1
15.459565 -32.754367 -28.872641 46.319285 -1.129811 2.243803 0.053431 -0.016173 -400135.000000 0 0 1
16.514765 -33.129767 -28.033941 46.435125 -1.108360 2.218959 0.043613 -0.010671 56747.700000 0 0 1
16.720165 -32.287767 -26.932461 45.248440 -1.092972 2.208327 0.058393 -0.020117 -10633.300000 0 0 1
17.920565 -32.770967 -26.031681 45.527260 -1.070380 2.179473 0.024517 -0.012353 975723.000000 0 0 1
19.225765 -32.373467 -26.429601 46.002122 -1.034893 2.182826 0.030004 -0.021711 473193.000000 0 0 1
19.825565 -33.168267 -27.422441 47.383302 -1.032050 2.187975 0.033529 -0.011183 -652981.000000 0 0 1
21.300165 -32.786967 -27.641511 47.882517 -0.994665 2.186187 0.053848 -0.011154 -219248.000000 0 0 1
21.603165 -31.525067 -28.158051 47.470016 -0.970025 2.205794 0.052579 -0.032090 822234.000000 0 0 1
22.946265 -31.154567 -27.784861 47.635456 -0.935972 2.193559 0.031473 -0.019029 728194.000000 0 0 1
23.498465 -29.966667 -28.597701 47.623603 -0.905793 2.214915 0.023052 -0.020022 -102316.000000 0 0 1
24.075465 -30.387767 -29.823281 48.912908 -0.900784 2.226506 0.021918 -0.020062 36511.100000 0 0 1
24.638465 -29.285567 -30.545781 48.966756 -0.871364 2.244400 0.016122 -0.027174 177093.000000 0 0 1
24.932465 -29.720967 -32.033581 50.310178 -0.872791 2.261036 0.022267 -0.009820 135062.000000 0 0 1
26.090765 -30.510667 -32.177541 51.449227 -0.863328 2.246470 0.029577 -0.016789 -250573.000000 0 0 1
26.187465 -30.797167 -33.536251 52.525508 -0.866116 2.263312 0.025715 -0.021576 -105591.000000 0 0 1
27.407165 -31.695267 -33.899731 53.897444 -0.857825 2.251021 0.018256 -0.022468 525483.000000 0 0 1
28.492565 -30.779167 -33.991171 53.986879 -0.823957 2.251859 0.019369 -0.023973 638430.000000 0 0 1
29.765065 -31.238267 33.987492 54.926661 -0.809543 0.903608 0.020360 -0.014062 1080370.000000 0 0 1
30.785565 -30.084767 33.878371 54.777626 -0.773886 0.904001 0.023295 -0.020690 -91768.300000 0 0 1
30.686765 -29.269767 32.706630 53.554836 -0.761769 0.913836 0.024205 -0.011765 442963.000000 0 0 1
31.891165 -28.514967 32.562959 53.763334 -0.729565 0.920186 0.022589 -0.013354 410339.000000 0 0 1
32.144465 -27.618067 31.297452 52.683534 -0.709803 0.934693 0.023189 -0.019027 -345007.000000 0 0 1
33.392165 -26.966267 31.286042 53.113395 -0.679335 0.940923 0.011126 -0.019652 107870.000000 0 0 1
33.572065 -26.080667 30.143002 52.114157 -0.660469 0.954026 0.034024 -0.014730 -115461.000000 0 0 1
34.289865 -26.738767 28.921992 52.222966 -0.662293 0.983854 0.037518 -0.013037 -260767.000000 0 0 1
33.606765 -27.815667 28.209592 51.951007 -0.691393 0.996786 0.039352 -0.016606 615752.000000 0 0 1
32.522465 -27.450867 27.377312 50.604131 -0.701035 0.999159 0.040200 -0.017473 68789.000000 0 0 1
31.799465 -28.603767 26.666342 50.403128 -0.732541 1.013302 0.030860 -0.007667 613912.000000 0 0 1
30.550665 -28.193167 26.084702 49.077587 -0.745288 1.010427 0.031004 -0.000543 1111000.000000 0 0 1
29.823165 -29.257067 25.440002 48.914117 -0.775817 1.023834 0.037998 0.003183 89183.100000 0 0 1
28.524865 -28.860967 24.738932 47.525131 -0.791255 1.023308 0.045948 0.002731 953025.000000 0 0 1
27.383165 -28.778267 25.633692 47.276977 -0.810234 0.997740 0.041134 0.007791 1742090.000000 0 0 1
26.133965 -28.339767 25.074382 45.987511 -0.825869 0.994117 0.037736 0.017139 1792080.000000 0 0 1
24.836165 -28.443067 25.946612 45.815607 -0.852993 0.968754 0.050091 0.013637 591729.000000 0 0 1
24.837265 -27.472267 27.007552 45.836918 -0.835729 0.940716 0.043597 0.012606 -162268.000000 0 0 1
23.568665 -27.347167 27.585412 45.434618 -0.859473 0.918333 0.041667 0.005788 -328183.000000 0 0 1
23.570965 -26.261967 28.696322 45.483626 -0.839346 0.888064 0.042268 0.003339 41788.400000 0 0 1
22.324965 -26.132767 29.365202 45.206644 -0.863817 0.863768 0.042538 0.001975 326213.000000 0 0 1
22.406165 -25.145567 30.358902 45.343122 -0.842943 0.837211 0.035694 0.002124 -30126.600000 0 0 1
22.189865 -23.688667 29.951472 44.165980 -0.818055 0.825544 0.041764 0.004099 -379576.000000 0 0 1
23.165365 -23.242367 29.035052 43.816390 -0.787057 0.846441 0.058236 0.001559 209242.000000 0 0 1
22.868765 -21.902267 28.598852 42.668303 -0.763814 0.836237 0.066237 0.006718 72054.100000 0 0 1
23.525065 -20.747767 29.416672 43.002780 -0.722749 0.817476 0.048022 0.005365 -452941.000000 0 0 1
22.943765 -20.639367 30.686922 43.521110 -0.732574 0.788226 0.058348 0.006228 22252.300000 0 0 1
23.515965 -19.615967 31.477092 43.915762 -0.695223 0.771651 0.049026 0.002437 147777.000000 0 0 1
22.758765 -19.415067 32.826831 44.412915 -0.706280 0.739021 0.050350 -0.000238 93329.000000 0 0 1
23.303965 -20.281167 33.774326 45.772324 -0.716155 0.740878 0.044675 -0.001637 468221.000000 0 0 1
22.631865 -20.069767 -33.441591 45.092537 -0.725470 2.406281 0.052662 -0.012134 110332.000000 0 0 1
22.702765 -21.116867 -32.316621 44.785060 -0.749222 2.376898 0.034515 -0.004995 597891.000000 0 0 1
23.973965 -21.267867 -31.657911 45.047714 -0.725655 2.350072 0.025118 -0.004453 572730.000000 0 0 1
23.947065 -22.308967 -30.697701 44.872049 -0.749999 2.324188 0.030545 -0.009082 -797181.000000 0 0 1
25.279565 -22.510067 -30.020261 45.243515 -0.727511 2.296319 0.034799 -0.000999 -981526.000000 0 0 1
26.218865 -23.162967 -30.838301 46.636389 -0.723594 2.293280 0.020600 0.001110 -369113.000000 0 0 1
27.120965 -23.909667 -30.042271 47.008052 -0.722552 2.264108 0.028143 -0.008397 -1977.420000 0 0 1
28.156565 -24.731467 -30.843451 48.536132 -0.720727 2.259419 0.009232 -0.007033 406049.000000 0 0 1
29.089665 -23.919467 -31.605981 49.165919 -0.688172 2.269001 0.009827 -0.003946 627459.000000 0 0 1
28.842665 -23.835867 -33.001461 49.891325 -0.690638 2.293569 0.016265 0.006160 -143022.000000 0 0 1
29.073365 -25.145767 -33.724571 51.136258 -0.713085 2.290955 0.011849 0.005772 -73217.800000 0 0 1
28.113465 -26.166667 -33.465381 50.941075 -0.749548 2.287553 0.024943 -0.004061 92749.700000 0 0 1
28.064665 -27.209567 34.060468 51.846904 -0.769929 0.854039 0.028512 -0.008771 157646.000000 0 0 1
27.451965 -26.951067 32.639918 50.451310 -0.776191 0.867207 0.030394 -0.019980 -67115.900000 0 0 1
28.355365 -26.229967 31.835852 50.055563 -0.746481 0.881479 0.026872 -0.018826 48877.300000 0 0 1
28.000265 -26.208767 30.437352 48.962708 -0.752362 0.899957 0.014271 -0.015907 -812843.000000 0 0 1
29.125265 -25.626267 29.599522 48.796704 -0.721578 0.919034 0.024923 -0.002581 -397729.000000 0 0 1
29.469865 -24.250467 29.594342 48.294753 -0.688543 0.911215 0.014696 -0.008908 186600.000000 0 0 1
29.759165 -23.682567 30.883182 48.992273 -0.672179 0.888769 0.010027 -0.000388 -1415940.000000 0 0 1
30.276365 -22.196267 30.957342 48.658911 -0.632611 0.881219 -0.001005 0.003884 666820.000000 0 0 1
31.588765 -21.865867 30.513742 49.061744 -0.605475 0.899571 0.005016 0.000094 740723.000000 0 0 1
32.603765 -22.507367 31.280412 50.478226 -0.604207 0.902460 0.004418 0.001805 -655388.000000 0 0 1
34.070465 -22.197167 30.938012 51.094730 -0.577434 0.920399 -0.002729 -0.006163 -433728.000000 0 0 1
34.401765 -22.559767 29.647292 50.708840 -0.580423 0.946339 0.008495 -0.006381 214494.000000 0 0 1
35.635665 -22.071067 29.137992 51.049537 -0.554528 0.963342 -0.003597 -0.003955 283880.000000 0 0 1
35.859865 -22.440167 27.643372 50.533623 -0.559156 0.991985 0.018046 -0.002965 -95801.400000 0 0 1
-35.849475 -23.762567 27.427382 51.010839 0.585351 1.003116 0.013937 -0.008643 233019.000000 0 0 1
-35.444575 -23.885167 26.065752 50.062386 0.592976 1.023166 0.016317 -0.003626 -150931.000000 0 0 1
-35.155775 -25.344067 25.656432 50.363705 0.624621 1.036282 0.011074 -0.013229 -266928.000000 0 0 1
35.912965 -26.233467 25.497042 51.264364 -0.630887 1.050239 0.025360 -0.012944 -232718.000000 0 0 1
-35.991375 -27.596667 25.364562 51.964566 0.654140 1.060870 0.021272 -0.010560 -279786.000000 0 0 1
-35.496475 -28.289867 26.617642 52.619532 0.672895 1.040428 0.017330 -0.010250 -1063960.000000 0 0 1
-35.307275 -29.689367 26.395372 53.148639 0.699179 1.051081 0.017644 -0.012865 1237980.000000 0 0 1
-34.039475 -30.225167 26.866682 52.858918 0.726115 1.037620 0.027645 -0.020227 1748930.000000 0 0 1
-32.693075 -29.563567 26.434232 51.396598 0.735173 1.030583 0.034396 -0.019051 -594841.000000 0 0 1
-32.332775 -29.654967 25.113502 50.552086 0.742226 1.050906 0.039699 -0.016478 22741.600000 0 0 1
-31.028675 -29.128667 24.951472 49.333902 0.753825 1.040525 0.025868 -0.007969 181073.000000 0 0 1
-30.488475 -29.240167 23.504432 48.342453 0.764502 1.063053 0.020307 0.001439 -181090.000000 0 0 1
-30.385275 -30.597367 23.076332 48.907882 0.788876 1.079428 0.031775 0.002169 276567.000000 0 0 1
-29.742475 -30.771967 21.847132 48.050244 0.802409 1.098792 0.025262 0.009024 -609740.000000 0 0 1
-29.860075 -32.183167 21.335232 48.811602 0.822824 1.118432 0.039903 0.010733 -158742.000000 0 0 1
-28.969575 -33.206867 21.660032 49.102844 0.853442 1.113955 0.055129 -0.004279 531463.000000 0 0 1
-27.595175 -33.079967 21.268432 48.042940 0.875549 1.112193 0.063739 -0.000167 679080.000000 0 0 1
-26.828575 34.232342 21.269132 48.414891 -0.906061 1.115966 0.058885 0.003004 -344290.000000 0 0 1
-26.861975 33.387242 20.132332 47.345374 -0.893282 1.131588 0.054682 0.002772 693976.000000 0 0 1
-28.037275 32.545842 19.985632 47.378752 -0.859681 1.135337 0.067009 0.001072 882973.000000 0 0 1
-28.213275 31.428242 21.034532 47.182357 -0.839251 1.108713 0.069469 -0.005029 -276162.000000 0 0 1
-27.273775 30.412742 20.833132 45.856440 -0.839759 1.099197 0.053207 -0.011093 -141078.000000 0 0 1
-27.277475 29.431542 21.848832 45.690784 -0.823364 1.072205 0.055562 -0.018321 -318946.000000 0 0 1
-26.398675 28.212642 21.550432 44.240980 -0.818602 1.062013 0.053271 -0.016561 486784.000000 0 0 1
-25.008075 28.453542 21.806132 43.709441 -0.849757 1.048481 0.045929 -0.019398 225110.000000 0 0 1
-24.221975 27.564942 21.081632 42.319798 -0.849861 1.049332 0.042272 -0.018012 1199310.000000 0 0 1
-22.678475 27.980442 21.188532 41.787226 -0.889679 1.039029 0.029437 -0.009846 1214350.000000 0 0 1
-22.202575 27.778742 22.495232 42.079072 -0.896504 1.006769 0.032107 -0.018333 394755.000000 0 0 1
-21.108875 28.663142 22.748232 42.245028 -0.936026 1.002160 0.050724 -0.019449 211461.000000 0 0 1
-20.625375 28.703542 24.206362 42.839787 -0.947719 0.970310 0.031011 -0.017788 -35914.100000 0 0 1
-19.831375 27.604042 24.677062 42.002666 -0.947813 0.942816 0.035503 -0.031603 551316.000000 0 0 1
-19.626275 27.601042 26.084802 42.748393 -0.952679 0.914491 0.044977 -0.029505 522019.000000 0 0 1
-18.193875 28.005842 26.588402 42.688258 -0.994670 0.898415 0.048621 -0.025661 347493.000000 0 0 1
-17.967775 29.414242 26.497242 43.475768 -1.022435 0.915403 0.025884 -0.019578 758629.000000 0 0 1
-16.723975 29.901742 27.032972 43.641575 -1.060843 0.902778 0.028447 -0.015014 448699.000000 0 0 1
-16.673875 30.120042 28.558082 44.730293 -1.065208 0.878313 0.012110 -0.004871 -740918.000000 0 0 1
-16.699875 28.854242 29.248862 44.350299 -1.046136 0.850648 0.023691 -0.004565 244995.000000 0 0 1
-16.958775 29.030942 30.655212 45.498766 -1.042104 0.831512 0.009115 0.002902 -563598.000000 0 0 1
-16.604075 27.901342 31.573232 45.288511 -1.033988 0.799371 0.013177 0.010277 670847.000000 0 0 1
-15.166275 27.766742 31.635302 44.741482 -1.070873 0.785452 0.017410 0.011963 1184600.000000 0 0 1
-14.801775 26.430442 32.003312 44.066686 -1.060287 0.757949 0.029294 0.002521 -370823.000000 0 0 1
-14.981575 25.966442 33.468902 44.931849 -1.047491 0.730439 0.039606 0.001803 -74647.200000 0 0 1
-16.285175 25.762842 34.016768 45.673531 -1.007094 0.730590 0.047741 0.002576 181462.000000 0 0 1
-16.627175 26.736642 -33.452681 45.939012 -1.014439 2.386485 0.036391 0.002067 -150010.000000 0 0 1
-18.048675 26.472042 -32.900771 45.923681 -0.972389 2.369458 0.018897 0.002550 435857.000000 0 0 1
-19.062675 26.466242 -33.913361 47.052775 -0.946600 2.375682 0.003625 0.008297 770795.000000 0 0 1
-20.342875 26.264342 -33.286721 47.028226 -0.911772 2.357180 0.016078 -0.001465 1292620.000000 0 0 1
-21.566075 26.253742 34.190228 48.200895 -0.883114 0.782252 0.053059 -0.016590 410924.000000 0 0 1
-21.682375 25.303942 33.140318 46.996761 -0.862323 0.788145 0.062051 -0.015925 -156137.000000 0 0 1
-21.880675 23.956742 33.460145 46.607626 -0.830659 0.769999 0.067296 -0.019294 -163228.000000 0 0 1
-22.387975 23.145542 32.270252 45.588449 -0.802034 0.784332 0.080466 -0.018335 664598.000000 0 0 1
-23.767175 23.313742 31.938032 46.135096 -0.775768 0.806164 0.083386 -0.027293 321441.000000 0 0 1
-24.005075 22.851842 30.615902 45.119661 -0.760791 0.825011 0.088145 -0.016813 835805.000000 0 0 1
-25.515675 22.536342 30.348552 45.606699 -0.723475 0.842712 0.071567 -0.013461 507165.000000 0 0 1
-25.936875 21.307942 30.865872 45.601008 -0.687732 0.827297 0.085665 -0.020646 508547.000000 0 0 1
-27.084975 20.704542 30.242692 45.572956 -0.652672 0.845161 0.066043 -0.014608 560216.000000 0 0 1
-27.484775 19.379042 30.976082 45.721743 -0.614129 0.826450 0.087672 -0.021034 -613451.000000 0 0 1
-28.196375 19.520242 32.194742 47.038036 -0.605537 0.816960 0.082671 -0.015688 228385.000000 0 0 1
-28.458475 18.286842 32.953665 47.225390 -0.571141 0.798481 0.074651 -0.005942 74440.200000 0 0 1
-29.292675 17.203842 32.165822 46.783257 -0.531035 0.812687 0.053955 -0.006158 -248515.000000 0 0 1
-30.661775 17.518642 32.097342 47.720924 -0.519088 0.833073 0.043579 -0.009755 50608.500000 0 0 1
-31.467875 16.349442 31.915002 47.708477 -0.479173 0.837989 0.048623 -0.006648 975464.000000 0 0 1
-32.990675 16.675542 31.678022 48.682188 -0.468008 0.862276 0.025787 -0.006416 398912.000000 0 0 1
-33.599175 16.849942 32.893027 49.947736 -0.464846 0.851907 0.029147 -0.002730 -144418.000000 0 0 1
-35.005375 16.914942 32.812801 50.874074 -0.450126 0.869798 0.025586 -0.006503 5577.120000 0 0 1
-35.571275 17.277042 34.220223 52.295654 -0.452144 0.857459 0.027140 0.005070 -1054630.000000 0 0 1
35.249465 17.533242 -34.110056 52.090645 0.461569 2.284742 0.015399 -0.005721 -932134.000000 0 0 1
34.914365 17.917942 -32.769341 51.126268 0.474149 2.266531 0.008165 -0.007982 -80295.700000 0 0 1
33.407265 17.928742 -32.496001 49.934710 0.492553 2.279394 0.011425 -0.006919 -325726.000000 0 0 1
32.769665 16.719442 -32.727671 49.239122 0.471783 2.297846 0.016750 0.005222 701509.000000 0 0 1
31.419065 16.712042 -32.229261 48.012241 0.488847 2.306720 0.014312 0.006323 561265.000000 0 0 1
30.704765 15.382142 -32.415861 47.224792 0.464423 2.327346 0.010040 0.008815 -453597.000000 0 0 1
30.548065 15.061842 -33.794891 47.980601 0.458075 2.352296 0.020589 -0.005946 159790.000000 0 0 1
29.802565 13.877542 -34.057581 47.336011 0.435791 2.373858 0.013608 -0.004446 -6662.910000 0 0 1
30.639365 12.560942 -34.111632 47.541050 0.389064 2.371031 0.007693 0.000227 31867.900000 0 0 1
31.235265 12.184742 -32.895741 46.970624 0.371939 2.346680 0.013604 0.008144 -80235.100000 0 0 1
32.009665 11.063742 -33.133311 47.379757 0.332783 2.345233 0.039415 0.000997 -471238.000000 0 0 1
17.532965 -21.123658 9.796169 29.147533 -0.878019 1.228035 0.000129 -0.021256 -70360.500000 0 0 1
17.281365 -22.288558 10.600269 30.129571 -0.911270 1.211279 -0.001678 -0.019990 774524.000000 0 0 1
18.462965 -23.110858 10.833169 31.501593 -0.896734 1.219737 -0.005798 -0.021610 355132.000000 0 0 1
18.335665 -24.385258 11.725769 32.685334 -0.926070 1.203871 0.009269 -0.018512 -201405.000000 0 0 1
17.646665 -25.510148 11.161669 32.965971 -0.965628 1.225387 0.013558 -0.015782 1260470.000000 0 0 1
16.211765 -25.348998 11.345669 32.157693 -1.001808 1.210220 0.014078 -0.014035 1477200.000000 0 0 1
15.404465 -26.388508 10.428969 32.286441 -1.042406 1.241884 0.015647 -0.007094 361885.000000 0 0 1
15.217365 -25.788618 9.139769 31.307449 -1.037702 1.274546 0.012341 -0.010275 105402.000000 0 0 1
14.391365 -26.573008 8.296569 31.337983 -1.074442 1.302857 0.026405 -0.007765 -32101.200000 0 0 1
14.181265 -25.879288 6.919869 30.310566 -1.069507 1.340466 0.031913 -0.004863 -85848.000000 0 0 1
13.437965 -24.655758 6.962469 28.930283 -1.071782 1.327747 0.034315 -0.012854 253919.000000 0 0 1
13.017365 -24.211458 5.680469 28.069809 -1.077482 1.367020 0.043862 0.000106 154962.000000 0 0 1
12.384465 -22.779858 5.808769 26.571388 -1.072835 1.350407 0.068433 -0.009744 32891.900000 0 0 1
11.692265 -22.311558 4.668969 25.618625 -1.088098 1.387523 0.067729 -0.010082 -303971.000000 0 0 1
11.077365 -21.134858 5.074969 24.395605 -1.088033 1.361238 0.081900 -0.013068 533251.000000 0 1 0
10.095465 -20.503958 4.031969 23.207487 -1.113274 1.396175 0.067326 -0.018932 -73953.400000 0 1 0
10.856365 -19.928158 3.064069 22.899359 -1.071973 1.436588 0.059731 -0.013404 -342777.000000 0 1 0
10.119565 -19.453858 1.955969 22.015540 -1.091133 1.481834 0.044285 -0.005658 130398.000000 0 1 0
11.077465 -19.146058 0.776969 22.133356 -1.046278 1.535685 0.043657 -0.000981 13885.600000 0 1 0
11.911865 -18.053058 1.001169 21.651969 -0.987545 1.524541 0.042808 -0.002357 -609552.000000 0 1 0
12.684865 -17.974358 -0.166931 22.000254 -0.956242 1.578384 0.052541 -0.002589 148222.000000 0 1 0
13.968565 -17.075558 -0.012131 22.061179 -0.885149 1.571346 0.057512 0.004023 621083.000000 0 1 0
14.972765 -17.793058 0.684369 23.264672 -0.871261 1.541375 0.057260 -0.001473 -453914.000000 0 1 0
16.115765 -16.989558 0.861469 23.432991 -0.811786 1.534025 0.048822 -0.014693 303435.000000 0 1 0
17.272965 -17.766158 1.564069 24.828169 -0.799473 1.507759 0.046034 -0.008853 291948.000000 0 1 0
17.880665 -18.825358 0.810669 25.976325 -0.811129 1.539583 0.054173 -0.015698 338696.000000 0 0 1
19.013765 -19.375858 1.460469 27.186027 -0.794830 1.517049 0.049638 -0.009269 231428.000000 0 0 1
19.443165 -20.656958 0.748769 28.377935 -0.815658 1.544408 0.039705 -0.008269 243486.000000 0 0 1
18.505165 -21.611258 1.210369 28.477229 -0.862671 1.528280 0.041718 -0.004198 275976.000000 0 0 1
18.571865 -22.752758 0.390669 29.372687 -0.886227 1.557496 0.047926 -0.010303 224105.000000 0 0 1
17.397865 -23.782058 0.533069 29.471276 -0.939205 1.552708 0.042148 -0.010562 58804.600000 0 0 1
17.377265 -24.502458 1.756869 30.090303 -0.953919 1.512377 0.032862 -0.004729 286512.000000 0 0 1
16.195065 -25.286738 1.932569 30.090431 -1.001159 1.506527 0.028997 -0.003271 -58680.600000 0 0 1
16.184165 -26.063848 3.248469 30.851319 -1.015120 1.465306 0.022277 -0.001304 902201.000000 0 0 1
17.282265 -26.989168 3.436569 32.232000 -1.001241 1.463973 0.023134 -0.001247 299543.000000 0 0 1
18.469065 -26.429888 3.934069 32.482645 -0.960880 1.449385 0.016546 0.001366 -844116.000000 0 0 1
19.622465 -27.413578 3.895969 33.937058 -0.949549 1.455743 0.034130 0.004400 -603363.000000 0 0 1
20.045965 -27.736668 2.587869 34.319972 -0.944981 1.495321 0.046139 0.004259 -203709.000000 0 0 1
21.072365 -28.703008 2.565269 35.699969 -0.937515 1.498878 0.071950 0.005761 -170979.000000 0 0 1
20.619365 -30.113308 2.942869 36.614614 -0.970395 1.490335 0.079432 0.005040 -189291.000000 0 0 1
20.465265 -30.458128 4.276569 36.943384 -0.979169 1.454776 0.089419 -0.007328 110060.000000 0 0 1
19.651565 -31.633658 4.315769 37.489974 -1.014917 1.455423 0.082700 -0.019090 -18598.300000 0 0 1
19.238765 -32.148988 5.782669 37.909454 -1.031536 1.417660 0.081871 -0.028372 398393.000000 0 0 1
20.232665 -32.804348 6.581069 39.099826 -1.018139 1.401677 0.088383 -0.038321 365190.000000 0 0 1
19.639565 -33.284038 7.758169 39.417367 -1.037718 1.372682 0.083376 -0.036419 315461.000000 0 0 1
20.612765 -34.206657 8.532269 40.838475 -1.028471 1.360318 0.085018 -0.036856 488693.000000 0 0 1
21.759265 -33.597658 9.098369 41.049342 -0.996080 1.347296 0.089047 -0.041394 -619576.000000 0 0 1
22.792065 34.161132 9.209269 42.086480 0.982429 1.350194 0.096145 -0.040691 -476164.000000 0 0 1
23.956965 -33.961118 10.110069 42.772739 -0.956440 1.332171 0.089795 -0.035639 327592.000000 0 0 1
24.697165 -32.870158 9.527369 42.203886 -0.926428 1.343087 0.079340 -0.032558 -518514.000000 0 0 1
25.646765 -32.418788 10.397469 42.624426 -0.901501 1.324378 0.071522 -0.021337 -453175.000000 0 0 1
26.563665 -31.354008 9.723969 42.228635 -0.867920 1.338442 0.071048 -0.023276 44363.400000 0 0 1
25.873065 -30.137098 9.482669 40.836028 -0.861381 1.336444 0.062684 -0.030014 144359.000000 0 0 1
26.466065 -29.467598 8.389569 40.486748 -0.839009 1.362066 0.071539 -0.025751 -8250.350000 0 0 1
25.915765 -28.038068 8.223069 39.056100 -0.824713 1.358664 0.051218 -0.021361 -48531.500000 0 0 1
26.421865 -27.105458 9.193869 38.953151 -0.798168 1.332524 0.047521 -0.031249 128988.000000 0 0 1
25.794565 -25.831478 9.118569 37.626761 -0.786113 1.326017 0.036053 -0.020817 312375.000000 0 0 1
26.466265 -24.849958 10.161269 37.699270 -0.753912 1.297886 0.037691 -0.031757 1438570.000000 0 0 1
27.856765 -24.553558 9.893369 38.428574 -0.722456 1.310416 0.063062 -0.027567 668023.000000 0 0 1
28.397065 -23.679958 10.868469 38.539036 -0.695065 1.284906 0.047138 -0.032209 727117.000000 0 0 1
29.915465 -23.385558 10.636969 39.433038 -0.663496 1.297665 0.070501 -0.034230 841537.000000 0 0 1
29.943165 -22.726058 9.376069 38.742451 -0.649219 1.326359 0.083724 -0.031327 159191.000000 0 0 1
31.283065 -22.627458 8.910269 39.623539 -0.626202 1.343984 0.078001 -0.035801 587706.000000 0 0 1
31.288465 -21.927958 7.495669 38.935696 -0.611284 1.377073 0.075942 -0.014482 -54620.500000 0 0 1
30.838665 -20.595958 7.581069 37.850883 -0.588829 1.369145 0.070949 -0.000330 -15176.100000 0 0 1
31.238065 -19.922958 6.400569 37.599311 -0.567735 1.399732 0.057833 0.002139 15609.200000 0 0 1
30.852865 -18.456258 6.436069 36.523358 -0.539097 1.393653 0.062154 -0.000425 -176566.000000 0 0 1
31.351565 -17.720858 7.575069 36.801238 -0.514461 1.363477 0.073695 -0.002968 48842.900000 0 0 1
31.087465 -16.345458 7.589569 35.933355 -0.484066 1.357981 0.066623 0.002407 -58006.100000 0 0 1
31.835165 -15.631158 8.745469 36.527990 -0.456424 1.329030 0.068708 -0.016752 -322052.000000 0 0 1
33.214265 -15.445258 8.654969 37.638436 -0.435273 1.338770 0.068125 -0.012970 -835872.000000 0 0 1
33.715765 -15.003458 9.865869 38.199371 -0.418687 1.309562 0.060272 -0.028490 -164525.000000 0 0 1
35.253965 -15.030958 9.872369 39.575692 -0.403024 1.318679 0.051049 -0.032242 -195916.000000 0 0 1
35.778565 -13.908558 9.214269 39.477290 -0.370762 1.335217 0.054209 -0.013852 -604489.000000 0 0 1
-35.043875 -14.181258 8.922469 38.843168 0.384527 1.339022 0.052274 -0.017490 50530.900000 0 0 1
-34.342575 -13.296958 7.840369 37.652263 0.369411 1.361030 0.050804 -0.023030 -174764.000000 0 0 1
-34.876775 -13.453058 6.547569 37.950558 0.368145 1.397400 0.070997 -0.027283 -219456.000000 0 0 1
-34.186275 -12.819958 5.500069 36.922939 0.358773 1.421279 0.069040 -0.024201 -585073.000000 0 0 1
-32.968275 -13.588458 4.988869 36.006140 0.390952 1.431793 0.052471 -0.014385 -1017410.000000 0 0 1
-31.895575 -13.667958 5.845969 35.189716 0.404850 1.403895 0.050308 -0.015670 -490971.000000 0 0 1
-31.027875 -14.692658 5.303769 34.738065 0.442249 1.417518 0.047637 -0.006029 111443.000000 0 0 1
-30.302775 -15.349558 6.487369 34.582554 0.468866 1.382088 0.037766 -0.000573 -346403.000000 0 0 1
-31.185575 -16.065158 7.302369 35.832303 0.475692 1.365566 0.033313 -0.012074 -184146.000000 0 0 1
-30.636975 -16.327458 8.562369 35.756457 0.489646 1.328983 0.017905 -0.008127 164453.000000 0 0 1
-31.592075 -17.196558 9.441169 37.187585 0.498481 1.314107 -0.001522 -0.005298 469821.000000 0 0 1
-32.851975 -16.556658 9.718269 38.050229 0.466825 1.312528 0.029326 -0.012670 681381.000000 0 0 1
-33.707975 -17.202758 10.631769 39.308993 0.471891 1.296919 0.037487 -0.015369 -40171.300000 0 0 1
-34.332775 -18.553858 10.199869 40.336365 0.495453 1.315150 0.055581 -0.022113 119920.000000 0 0 1
-33.463875 -19.779458 10.162969 40.178897 0.533827 1.315075 0.049952 -0.021416 453638.000000 0 0 1
-32.980475 -20.293858 11.406369 40.369018 0.551615 1.284342 0.031846 -0.027003 -332497.000000 0 0 1
-33.973875 -20.942058 12.420169 41.797781 0.552403 1.269091 0.085091 -0.030549 268331.000000 0 0 1
-34.347375 -22.324358 12.211569 42.746245 0.576346 1.281085 0.070079 -0.028737 490375.000000 0 0 1
-35.374775 -22.565158 11.227769 43.435283 0.567814 1.309333 0.080969 -0.031331 276414.000000 0 0 1
-35.806975 -24.024758 11.206969 44.552492 0.590963 1.316520 0.069769 -0.020853 -252565.000000 0 0 1
35.615365 -24.398358 12.349469 44.902600 -0.600623 1.292178 0.113714 -0.018220 20848.700000 0 0 1
35.279865 -25.770708 12.230969 45.369536 -0.630881 1.297834 0.084029 -0.006721 -233777.000000 0 0 1
34.157065 -26.025888 13.256169 44.941939 -0.651104 1.271380 0.100110 -0.022961 150177.000000 0 0 1
32.896965 -25.467748 12.910169 43.560176 -0.658789 1.269901 0.098130 -0.024564 -167466.000000 0 0 1
32.094665 -25.167698 13.986969 43.117465 -0.665014 1.240427 0.095776 -0.006777 -516228.000000 0 0 1
31.881165 -23.659358 14.386969 42.227464 -0.638433 1.223133 0.101522 -0.012226 -113439.000000 0 0 1
32.935665 -23.049058 15.110869 42.945959 -0.610606 1.211241 0.110692 -0.018775 -693510.000000 0 0 1
33.758365 -22.342758 14.259569 42.920407 -0.584656 1.232126 0.108498 -0.026321 73891.600000 0 0 1
35.109365 -22.016658 15.004869 44.074333 -0.560099 1.223407 0.100181 -0.028411 324815.000000 0 0 1
35.165065 -20.868058 15.879769 43.865985 -0.535576 1.200377 0.094653 -0.015883 255947.000000 0 0 1
34.276565 -20.845958 17.007769 43.574087 -0.546405 1.169819 0.092439 -0.017283 219855.000000 0 0 1
34.145765 -19.380658 17.611769 43.031588 -0.516245 1.149137 0.074610 -0.009195 -131927.000000 0 0 1
33.675265 -18.431958 16.615669 41.831101 -0.500802 1.162323 0.075858 -0.021377 249641.000000 0 0 1
33.391565 -17.133758 17.133669 41.256816 -0.474086 1.142531 0.060425 -0.019271 730714.000000 0 0 1
34.656065 -16.226758 17.455769 42.060128 -0.437904 1.142832 0.045975 -0.023186 737968.000000 0 0 1
35.277565 -16.575458 18.687769 43.225977 -0.439245 1.123724 0.040701 0.001664 118927.000000 0 0 1
-35.766675 -15.734558 18.866569 43.390998 0.414442 1.120976 0.030292 -0.011357 14296.200000 0 0 1
-35.206175 -15.657558 20.325469 43.563270 0.418470 1.085384 0.023867 0.000383 -23627.800000 0 0 1
-34.552775 -16.856858 20.709869 43.668599 0.453887 1.076683 0.032088 -0.002043 116470.000000 0 0 1
-34.067475 -16.628558 22.017769 43.839296 0.454088 1.044611 0.022209 0.010068 -248998.000000 0 0 1
-33.198775 -17.739258 22.630969 43.920390 0.490737 1.029471 0.020520 0.010557 -537249.000000 0 0 1
-33.847875 -18.985458 22.902669 45.062828 0.511177 1.037658 0.022285 0.004105 368513.000000 0 0 1
-33.053975 -19.943858 23.636669 45.266045 0.542896 1.021400 0.009217 0.007273 443535.000000 0 0 1
-31.912775 -20.682058 22.868969 44.375246 0.575025 1.029375 0.012601 0.009277 -133873.000000 0 0 1
-30.762875 -19.955358 22.621469 43.084819 0.575449 1.018028 0.009752 0.016122 -827295.000000 0 0 1
-29.713875 -20.791258 22.203369 42.522704 0.610535 1.021423 0.017608 0.015247 322310.000000 0 0 1
-28.344675 -20.046658 22.110369 41.160144 0.615573 1.003707 0.026873 0.013274 220090.000000 0 0 1
-27.944475 -19.660558 23.377769 41.399894 0.613110 0.970749 0.019300 0.013598 -239736.000000 0 0 1
-26.861775 -18.772558 23.333569 40.229582 0.609959 0.952055 0.042957 0.013073 -211551.000000 0 0 1
-26.450075 -18.221458 24.707669 40.522794 0.603237 0.915086 0.038861 0.005098 -395746.000000 0 0 1
-25.393275 -17.278358 24.598369 39.350220 0.597471 0.895519 0.044532 0.004585 151882.000000 0 0 1
-25.130175 -16.505658 25.766969 39.596706 0.581145 0.862244 0.035587 -0.005155 247809.000000 0 0 1
-24.136975 -17.027158 26.831469 39.905455 0.614367 0.833382 0.028849 -0.000551 16424.800000 0 0 1
-24.614675 -18.273958 27.248869 41.016102 0.638620 0.844178 0.034670 -0.003800 -228819.000000 0 0 1
-23.653275 -18.777258 28.128669 41.270871 0.670982 0.820901 0.039141 -0.010830 -429145.000000 0 0 1
-23.967275 -20.146958 28.787769 42.533114 0.699013 0.827346 0.038507 -0.000109 -1188180.000000 0 0 1
-25.142275 -20.180158 29.479969 43.685710 0.676348 0.830076 0.040559 -0.011175 -1031410.000000 0 0 1
-25.294275 -21.368258 30.188869 44.808153 0.701459 0.831543 0.038402 -0.011795 -365122.000000 0 0 1
-26.589775 -21.311858 30.996369 46.065022 0.675658 0.832697 0.044231 -0.014516 -868315.000000 0 0 1
-26.377275 -20.533358 32.178669 46.398773 0.661461 0.804427 0.056622 -0.026101 274361.000000 0 0 1
-27.314975 -20.769658 33.212169 47.754944 0.650109 0.801721 0.057779 -0.022102 682851.000000 0 0 1
-28.651175 -19.949158 33.047069 48.072523 0.608223 0.812835 0.040585 -0.022868 12739.100000 0 0 1
-29.364175 -20.254058 31.915369 47.865148 0.603816 0.840921 0.034428 -0.025852 1001070.000000 0 0 1
-30.728175 -19.786258 32.113769 48.651936 0.572084 0.849882 0.038769 -0.029086 1567060.000000 0 0 1
-31.835175 -20.233558 31.110169 48.894967 0.566166 0.881149 0.029663 -0.005947 149342.000000 0 0 1
-31.735975 -19.675558 29.829369 47.792164 0.554979 0.896756 0.021662 -0.012841 82799.500000 0 0 1
-32.853375 -20.074458 29.079869 48.249009 0.548492 0.923911 0.017617 -0.007503 -72708.200000 0 0 1
-33.169875 -19.135658 27.846469 47.348071 0.523260 0.942061 0.017480 0.003495 -477847.000000 0 0 1
-34.356275 -19.549858 27.251669 48.012540 0.517338 0.967215 -0.005288 0.008532 -503388.000000 0 0 1
-34.955775 -18.471658 26.629869 47.668210 0.486132 0.978039 0.013225 0.012018 92012.000000 0 0 1
35.967465 -18.717658 25.714969 48.013216 -0.479838 1.005601 0.013772 0.009649 615309.000000 0 0 1
34.924165 -19.299558 26.487569 47.893230 -0.504847 0.984770 0.015343 0.012093 105168.000000 0 0 1
33.831265 -19.789958 25.724069 46.882029 -0.529288 0.989990 0.042219 0.017518 118393.000000 0 0 1
32.643165 -20.167558 26.615969 46.698141 -0.553419 0.964342 0.038997 0.010714 83424.400000 0 0 1
31.843365 -19.058058 27.074769 45.937485 -0.539311 0.940502 0.030083 -0.003518 98802.700000 0 0 1
30.758565 -19.469158 27.829869 45.821818 -0.564308 0.918076 0.023921 0.006438 -452893.000000 0 0 1
-30.420655 -6.102858 34.026298 46.048345 0.197987 0.739322 0.023727 -0.012349 30659.500000 0 0 1
-31.035775 -5.933958 32.756073 45.512542 0.188917 0.767404 0.030432 -0.005882 521967.000000 0 0 1
-30.477675 -4.779858 32.102432 44.523049 0.155564 0.765509 0.031828 -0.005740 221417.000000 0 0 1
-31.196085 -4.612658 30.740812 44.039412 0.146797 0.798154 0.034556 -0.009683 124878.000000 0 0 1
-30.846405 -5.510958 29.700382 43.173882 0.176793 0.812170 0.022919 -0.009506 1717890.000000 0 0 1
-29.450635 -5.456358 29.217402 41.842184 0.183194 0.797810 0.032121 -0.014895 1914880.000000 0 0 1
-29.122345 -6.431158 28.045552 40.939269 0.217344 0.816120 0.034270 -0.019840 -558040.000000 0 0 1
-29.831455 -6.199758 26.858822 40.617103 0.204909 0.848287 0.035704 -0.020129 -179423.000000 0 0 1
-29.531525 -7.068158 25.815252 39.855954 0.234923 0.866216 0.041426 -0.020728 -199391.000000 0 0 1
-30.139045 -6.613558 24.468682 39.380421 0.216011 0.900343 0.054117 -0.018231 -95886.600000 0 0 1
-29.558355 -5.436558 23.945462 38.427043 0.181893 0.898044 0.060557 -0.019456 39356.900000 0 0 1
-30.338275 -4.759758 22.956832 38.341653 0.155621 0.928864 0.066262 -0.019391 70024.000000 0 0 1
-29.674245 -3.466358 22.456732 37.374875 0.116287 0.926231 0.066529 -0.018837 -163407.000000 0 0 1
-28.484835 -3.714258 21.749632 36.030932 0.129663 0.922740 0.082398 -0.017832 -417022.000000 0 0 1
-28.021385 -2.516058 21.256432 35.261374 0.089550 0.923759 0.083551 -0.014849 -1367580.000000 0 0 1
-26.663405 -2.510458 20.649032 33.817482 0.093877 0.913975 0.087918 -0.012674 -1250180.000000 0 0 1
-26.568315 -3.306858 19.457332 33.096804 0.123829 0.942346 0.089569 -0.012136 383342.000000 0 0 1
-25.318585 -3.117358 18.785732 31.680473 0.122509 0.936048 0.091747 -0.016155 416840.000000 0 0 1
-25.272395 -3.971658 17.480632 30.984520 0.155879 0.971365 0.084345 -0.009324 -220968.000000 0 0 1
-26.298675 -3.634358 16.596832 31.309483 0.137326 1.012090 0.072667 -0.004437 60293.700000 0 0 1
-25.909585 -4.014858 15.292032 30.352462 0.153734 1.042786 0.080842 -0.010492 400732.000000 0 0 1
-27.173745 -4.184758 14.402432 31.037955 0.152800 1.088261 0.084118 -0.010781 535979.000000 0 0 1
-27.545025 -2.890158 13.824932 30.954970 0.104542 1.107819 0.077864 -0.009436 251845.000000 0 0 1
-28.778675 -2.926458 13.125932 31.765805 0.101340 1.144821 0.073891 -0.011874 129141.000000 0 0 1
-28.981935 -1.635658 12.251932 31.507741 0.056377 1.171408 0.069141 -0.001133 -203243.000000 0 0 1
-28.150605 -1.660558 11.115432 30.311167 0.058920 1.195325 0.075116 0.001430 119724.000000 0 0 1
-28.302115 -0.542958 10.206632 30.091192 0.019182 1.224741 0.078620 0.010643 510821.000000 0 0 1
-29.664225 -0.420358 9.414632 31.125203 0.014170 1.263507 0.064145 0.011852 823867.000000 0 0 1
-29.713445 -1.206458 8.282732 30.869856 0.040581 1.299157 0.056163 0.001977 503292.000000 0 0 1
-30.985715 -1.130558 7.625532 31.930259 0.036470 1.329648 0.066544 -0.007074 507753.000000 0 0 1
-31.145835 -2.047558 6.386032 31.859644 0.065647 1.368987 0.070872 -0.009560 -334970.000000 0 0 1
-30.536405 -1.517158 5.185432 31.010684 0.049643 1.402793 0.076630 -0.021955 587910.000000 0 0 1
-31.060995 -0.298158 4.632532 31.405965 0.009599 1.422751 0.092853 -0.011611 -639287.000000 0 0 1
-30.467375 0.071242 3.249832 30.640291 -0.002338 1.464532 0.075113 -0.022118 -599539.000000 0 0 1
-30.818655 -0.853458 2.248432 30.912349 0.027686 1.497996 0.073294 -0.041667 544830.000000 0 0 1
-30.346875 -0.442058 0.930232 30.364347 0.014566 1.540156 0.075643 -0.048038 -253725.000000 0 0 1
-31.094315 -1.163258 -0.209368 31.116771 0.037393 1.577525 0.082082 -0.047503 -371833.000000 0 0 1
-32.386235 -0.610258 -0.281468 32.393207 0.018841 1.579486 0.086355 -0.040974 -277129.000000 0 0 1
-33.178965 -1.111858 -1.296168 33.222884 0.033498 1.609821 0.094879 -0.041696 -591357.000000 0 0 1
-34.629550 -0.630458 -1.210868 34.656448 0.018204 1.605743 0.111230 -0.041170 -299970.000000 0 0 1
-35.465551 -1.341658 -0.291668 35.492118 0.037812 1.579014 0.093148 -0.034045 -944024.000000 0 0 1
35.389565 -1.015258 -0.506468 35.407747 -0.028680 1.585101 0.110015 -0.029486 -733589.000000 0 0 1
34.440445 -2.233758 -0.086268 34.512916 -0.064768 1.573296 0.105307 -0.030332 115136.000000 0 0 1
34.412895 -2.508258 1.281832 34.527985 -0.072758 1.533663 0.103852 -0.032067 129769.000000 0 0 1
33.772375 -3.718558 1.536832 34.011216 -0.109665 1.525595 0.096703 -0.030462 -430196.000000 0 0 1
33.887765 -4.172758 3.012632 34.276354 -0.122518 1.482790 0.108752 -0.029515 61939.100000 0 0 1
33.159215 -3.308258 3.855732 33.546159 -0.099440 1.455604 0.107305 -0.031634 232856.000000 0 0 1
33.109755 -3.844558 5.200832 33.735517 -0.115598 1.416014 0.089320 -0.030969 -133907.000000 0 0 1
32.388355 -3.001758 6.235832 33.119506 -0.092416 1.381383 0.104475 -0.025793 -440162.000000 0 0 1
30.993165 -3.029958 6.328232 31.777404 -0.097452 1.370314 0.094359 -0.023681 -248379.000000 0 0 1
30.576985 -1.827858 6.995032 31.420113 -0.059708 1.346286 0.101340 -0.017714 346975.000000 0 0 1
29.063875 -1.754558 7.350232 30.030205 -0.060296 1.323523 0.081807 -0.012644 123619.000000 0 0 1
28.171865 -1.843558 6.258832 28.917566 -0.065346 1.352633 0.064328 -0.007730 529.713000 0 0 1
26.835305 -1.769158 6.673832 27.709268 -0.065831 1.327553 0.071615 -0.003219 -297493.000000 0 0 1
26.081505 -3.097158 6.782032 27.126246 -0.118196 1.318098 0.083692 -0.017640 -661997.000000 0 0 1
26.580605 -3.929658 7.903632 28.007823 -0.146776 1.284716 0.086537 -0.016462 686649.000000 0 0 1
25.983005 -5.192058 7.927232 27.657097 -0.197227 1.280094 0.085419 -0.025867 -394009.000000 0 0 1
26.202605 -5.969258 9.217732 28.410827 -0.223989 1.240372 0.090631 -0.033357 -708262.000000 0 0 1
25.494605 -5.469058 10.297032 28.034163 -0.211316 1.194689 0.102728 -0.023030 233589.000000 0 0 1
25.923705 -6.072358 11.454532 28.984794 -0.230091 1.164520 0.091130 -0.023271 -967575.000000 0 0 1
24.877905 -5.984958 12.534132 28.492706 -0.236087 1.115302 0.077374 -0.020187 -815569.000000 0 0 1
23.827705 -6.842558 12.181032 27.621688 -0.279643 1.114089 0.083956 -0.033110 -698506.000000 0 0 1
22.737505 -6.606458 13.028032 27.025340 -0.282768 1.067784 0.097169 -0.032200 -789701.000000 0 0 1
21.768505 -7.749858 13.086732 26.555426 -0.342021 1.055482 0.087543 -0.031378 -591289.000000 0 0 1
22.225205 -8.900658 13.774432 27.620941 -0.380917 1.048704 0.074705 -0.032022 -380785.000000 0 0 1
21.320505 -9.941558 13.693932 27.219887 -0.436319 1.043631 0.094597 -0.049189 -679456.000000 0 0 1
21.603805 -11.143658 14.617032 28.364822 -0.476223 1.029412 0.075227 -0.045655 -277656.000000 0 0 1
21.576605 -10.853958 15.989032 28.965625 -0.466079 0.986035 0.066083 -0.036398 344346.000000 0 0 1
21.922105 -12.042558 16.671832 30.059139 -0.502332 0.982873 0.055994 -0.034751 -492001.000000 0 0 1
21.734605 -11.884158 18.177832 30.725556 -0.500372 0.937730 0.065490 -0.032057 -360372.000000 0 0 1
20.436905 -12.127658 18.643332 30.204652 -0.535567 0.905574 0.071803 -0.027055 -462280.000000 0 0 1
20.341905 -12.271358 20.088732 31.111677 -0.542810 0.868860 0.082608 -0.021896 102824.000000 0 0 1
20.743005 -11.112558 21.038932 31.565770 -0.491818 0.841278 0.067988 -0.021130 15441.900000 0 0 1
19.869705 -9.990158 21.117032 30.668183 -0.465872 0.811288 0.067312 -0.021873 -31616.500000 0 0 1
20.161705 -8.976658 20.182332 29.906542 -0.418883 0.830039 0.072958 -0.016493 -758684.000000 0 0 1
21.196305 -7.930458 20.727732 30.688994 -0.358019 0.829272 0.064175 -0.000208 1567340.000000 0 0 1
22.569405 -8.393958 20.685632 31.744794 -0.356066 0.861074 0.075537 -0.006562 791551.000000 0 0 1
23.166605 -8.450258 19.424732 31.391378 -0.349763 0.903592 0.072922 -0.010327 -881093.000000 0 0 1
24.556405 -9.090858 19.611732 32.715145 -0.354559 0.927958 0.051065 -0.004711 150184.000000 0 0 1
24.315505 -10.363558 20.097332 33.204666 -0.402897 0.920709 0.039284 -0.013283 656655.000000 0 0 1
25.569905 -11.047558 20.169332 34.389977 -0.407830 0.944080 0.035293 -0.016049 663853.000000 0 0 1
25.417005 -12.450458 20.772432 35.107434 -0.455493 0.937653 0.016401 -0.024240 260544.000000 0 0 1
24.676205 -13.235658 19.807532 34.299213 -0.492321 0.955143 0.044096 -0.028188 316814.000000 0 0 1
24.659205 -14.618158 20.030232 34.971089 -0.535114 0.960921 0.028226 -0.028158 328225.000000 0 0 1
23.550705 -15.254558 19.116532 33.952599 -0.574780 0.972742 0.049330 -0.024571 102408.000000 0 0 1
23.790205 -15.162158 17.709832 33.309203 -0.567415 1.010214 0.038764 -0.028652 -142099.000000 0 0 1
22.800405 -15.621058 16.820332 32.354280 -0.600671 1.024086 0.034787 -0.021650 -323856.000000 0 0 1
22.541005 -17.172058 16.860332 32.973432 -0.651019 1.034064 0.018508 -0.021034 1240120.000000 0 0 1
23.715605 -17.870558 16.308132 33.878340 -0.645760 1.068575 0.023178 -0.017025 1282730.000000 0 0 1
23.629505 -19.241558 16.615632 34.708360 -0.683401 1.071599 0.011144 -0.001925 -101856.000000 0 0 1
24.801505 -20.095158 16.108632 35.754972 -0.680953 1.103439 0.006159 0.005666 55528.900000 0 0 1
24.716805 -20.297158 14.712132 35.204288 -0.687528 1.139656 0.005533 -0.006600 591483.000000 0 0 1
25.748905 -21.254358 14.389232 36.356620 -0.690066 1.163879 0.003478 -0.010430 429650.000000 0 0 1
26.217305 -21.118558 12.937432 36.065464 -0.678098 1.203899 0.015884 -0.026301 -480648.000000 0 0 1
25.135605 -21.328758 12.078532 35.108481 -0.703650 1.219586 0.009120 -0.019961 -6884.580000 0 0 1
25.510405 -21.191458 10.717432 34.852862 -0.693181 1.258226 0.037369 -0.015656 -469275.000000 0 0 1
24.322405 -21.433958 9.810532 33.870938 -0.722355 1.276941 0.004669 -0.016693 -430279.000000 0 0 1
23.972505 -22.794758 9.653032 34.459585 -0.760220 1.286871 0.004358 -0.021371 120488.000000 0 0 1
22.622105 -23.007058 10.049632 33.794665 -0.793835 1.268856 -0.007513 -0.010199 54893.700000 0 0 1
21.882505 -23.811458 9.002632 33.568987 -0.827588 1.299290 0.003146 -0.012168 -569012.000000 0 0 1
22.277605 -25.206308 9.031332 34.831230 -0.846998 1.308511 0.003472 -0.013321 122765.000000 0 0 1
21.951705 -25.998468 7.883032 34.927637 -0.869594 1.343139 0.018685 -0.008637 1031840.000000 0 0 1
20.421305 -26.328708 7.656832 34.188559 -0.911094 1.344922 0.015842 -0.003822 1116120.000000 0 0 1
19.624005 -25.255798 7.174132 32.778423 -0.910232 1.350143 0.016827 -0.007278 -201467.000000 0 0 1
18.294605 -25.491538 7.601632 32.284607 -0.948307 1.333108 0.004109 -0.015246 -19282.300000 0 0 1
17.409505 -24.243858 7.505132 30.776330 -0.948026 1.324452 0.001785 -0.014157 -450040.000000 0 0 1
17.220205 -23.807758 6.185732 30.026789 -0.944602 1.363304 0.015236 -0.013022 -517894.000000 0 0 1
16.399105 -22.721358 6.157732 28.689866 -0.945623 1.354482 0.031985 -0.017587 -748778.000000 0 0 1
16.177405 -21.982358 4.842532 27.719715 -0.936363 1.395199 0.049473 -0.012939 -503862.000000 0 0 1
15.323105 -20.906958 4.969032 26.392986 -0.938317 1.381395 0.074258 -0.018583 -381771.000000 0 0 1
15.224705 -20.284358 3.717032 25.633242 -0.926934 1.425275 0.079223 -0.017018 193051.000000 0 0 1
14.543705 -18.906858 3.743332 24.145417 -0.915102 1.415136 0.099070 -0.020630 147274.000000 0 1 0
15.339205 -17.924658 4.367032 23.992822 -0.862968 1.387762 0.067037 -0.016208 55163.800000 0 1 0
14.616305 -16.734658 4.398532 22.650214 -0.852865 1.375361 0.050142 -0.011609 231187.000000 0 1 0
15.542305 -15.502058 4.641332 22.437000 -0.784102 1.362431 0.036172 -0.012977 -743601.000000 0 1 0
16.261105 -15.557058 5.876032 23.258833 -0.763275 1.315392 0.055657 -0.019876 287373.000000 0 1 0
17.226905 -14.479758 5.780432 23.234522 -0.698971 1.319369 0.047461 -0.026540 1628700.000000 0 1 0
18.599105 -14.980858 5.115932 24.423872 -0.678062 1.359769 0.061659 -0.033007 335090.000000 0 1 0
19.637705 -14.044558 5.245732 24.706411 -0.620844 1.356845 0.070198 -0.030706 734137.000000 0 1 0
20.962105 -14.598858 5.297532 26.088318 -0.608333 1.366313 0.068062 -0.023338 883093.000000 0 0 1
22.035905 -13.489158 5.335432 26.381912 -0.549301 1.367153 0.071113 -0.026917 -162775.000000 0 0 1
22.020005 -12.800958 6.582332 26.307265 -0.526581 1.317900 0.089266 -0.033133 -165933.000000 0 0 1
23.014505 -11.838058 6.654732 26.722509 -0.475080 1.319117 0.087574 -0.033776 -352226.000000 0 0 1
22.880905 -11.071858 7.934832 26.628620 -0.450677 1.268219 0.093524 -0.036874 -82141.600000 0 0 1
23.328605 -11.804258 9.059132 27.670059 -0.468436 1.237247 0.080576 -0.033002 268189.000000 0 0 1
23.273205 -11.021058 10.250932 27.716193 -0.442266 1.191945 0.105223 -0.043160 -9759.790000 0 0 1
23.857705 -11.833158 11.432532 28.981312 -0.460434 1.165295 0.078035 -0.031965 487387.000000 0 0 1
22.843905 -12.732758 11.945032 28.751537 -0.508492 1.142351 0.070353 -0.031261 1320430.000000 0 0 1
23.440205 -13.730758 12.705732 29.990207 -0.529897 1.133311 0.064879 -0.031852 -303895.000000 0 0 1
22.358005 -14.752958 12.869132 29.717750 -0.583269 1.122928 0.043264 -0.032438 -319333.000000 0 0 1
21.203405 -14.515958 13.620132 29.082733 -0.600319 1.083404 0.039736 -0.036903 57773.400000 0 0 1
20.302105 -15.605358 13.756132 29.067745 -0.655335 1.077827 0.024470 -0.032185 -65091.100000 0 0 1
18.990105 -15.230958 14.431232 28.299587 -0.675988 1.035676 0.023785 -0.031308 -785348.000000 0 0 1
19.118105 -14.891158 15.754132 28.903999 -0.661744 0.994347 0.028294 -0.028962 58430.600000 0 0 1
18.843805 -13.554458 16.042832 28.216746 -0.623566 0.966045 0.051060 -0.029172 466835.000000 0 0 1
17.340805 -13.050158 16.122632 27.036075 -0.645143 0.931865 0.051792 -0.027597 1011450.000000 0 0 1
16.671905 -13.239558 14.827532 25.944055 -0.671148 0.962440 0.059819 -0.035997 1604370.000000 0 0 1
15.233705 -13.104258 15.070032 25.117587 -0.710394 0.927321 0.090645 -0.028097 1673590.000000 0 0 1
14.664105 -11.808458 14.511732 23.771117 -0.677942 0.914133 0.066490 -0.021944 -145865.000000 0 1 0
15.216805 -10.743958 15.299232 24.104984 -0.614781 0.883187 0.052268 -0.017420 298361.000000 0 1 0
14.677505 -9.454058 15.023332 23.032778 -0.572230 0.860236 0.036472 -0.016225 -476262.000000 0 1 0
15.207105 -8.365658 15.994932 23.602502 -0.502932 0.826194 0.038222 -0.012243 225816.000000 0 1 0
16.609205 -8.194558 15.972332 24.456734 -0.458333 0.859145 0.047597 -0.023000 28672.100000 0 1 0
17.322205 -9.017758 16.877932 25.811689 -0.479983 0.858086 0.067500 -0.024146 -211900.000000 0 0 1
18.845105 -8.815258 16.680232 26.666025 -0.437536 0.894994 0.066780 -0.028783 -134627.000000 0 0 1
19.238805 -7.553758 17.072232 26.807685 -0.374138 0.880402 0.055430 -0.018658 437526.000000 0 0 1
20.537505 -7.346458 16.500532 27.350084 -0.343526 0.923153 0.056182 -0.012357 446062.000000 0 0 1
21.097505 -5.957158 16.975632 27.726603 -0.275199 0.911892 0.066302 -0.010799 -69126.200000 0 0 1
21.682005 -6.036458 18.275332 28.991997 -0.271532 0.888782 0.077213 -0.011517 152408.000000 0 0 1
21.972805 -4.765358 18.659732 29.218117 -0.213568 0.878072 0.083311 -0.012103 -95234.600000 0 0 1
-5.554135 -33.365567 -6.352931 34.416119 1.405846 1.756453 0.006687 -0.010406 -192908.000000 0 0 1
-6.054635 -32.081267 -6.536831 33.295593 1.384262 1.768407 -0.004335 -0.012024 -202713.000000 0 0 1
-5.436435 -31.202767 -5.646231 32.172153 1.398299 1.747211 0.004932 -0.017731 -1222250.000000 0 0 1
-6.037835 -29.759467 -5.693831 30.895001 1.370626 1.756152 0.006994 -0.019802 1628110.000000 0 0 1
-7.433635 -29.676767 -5.295231 31.048493 1.325360 1.742181 0.003443 -0.018447 1493190.000000 0 0 1
-8.365935 -30.186567 -6.253431 31.942497 1.300441 1.767840 -0.001590 -0.016456 -52401.600000 0 0 1
-9.853635 -29.995467 -5.810931 32.102790 1.253398 1.752810 0.034516 -0.010568 208027.000000 0 0 1
-10.739535 -30.532967 -6.726631 33.058241 1.232576 1.775705 0.025818 -0.011288 -317964.000000 0 0 1
-12.075735 -30.401767 -6.238931 33.301878 1.192702 1.759255 0.034278 -0.014011 1039910.000000 0 0 1
-13.189935 -30.995167 -7.165231 34.438573 1.168462 1.780386 0.055616 -0.022643 462751.000000 0 0 1
-13.213535 -30.319667 -8.356931 34.113312 1.159807 1.818291 0.069993 -0.030921 374012.000000 0 0 1
-14.363535 -30.658467 -9.143931 35.069420 1.132664 1.834583 0.079333 -0.030569 670833.000000 0 0 1
-14.592635 -29.753067 -10.446831 34.746601 1.114811 1.876178 0.093839 -0.034604 -425767.000000 0 0 1
-15.008835 -28.432967 -10.167231 33.720489 1.085104 1.877077 0.098731 -0.036484 -100647.000000 0 0 1
-13.990135 -27.550367 -9.759531 32.403627 1.100927 1.876733 0.091445 -0.031796 -714798.000000 0 0 1
-14.409535 -26.115967 -9.478431 31.297270 1.066609 1.878480 0.080982 -0.020880 -348732.000000 0 0 1
-14.776635 -25.445267 -10.666531 31.298330 1.044672 1.918566 0.101653 -0.031878 137560.000000 0 0 1
-15.143635 -24.133467 -10.227231 30.271277 1.010405 1.915431 0.095235 -0.019508 -184888.000000 0 0 1
-15.878735 -23.302567 -11.315131 30.383813 0.972652 1.952397 0.090142 -0.017104 -349531.000000 0 0 1
-17.099035 -23.890567 -11.685031 31.617656 0.949596 1.949346 0.086350 -0.025911 -860998.000000 0 0 1
-17.640435 -23.161967 -12.712331 31.768932 0.919905 1.982477 0.090005 -0.023232 -463089.000000 0 0 1
-19.120435 -23.586967 -12.872131 32.979203 0.889604 1.971765 0.070837 -0.017702 -126312.000000 0 0 1
-19.434635 -24.886367 -13.301931 34.263358 0.907789 1.969502 0.094119 -0.021952 -147986.000000 0 0 1
-19.338135 -25.801767 -12.265031 34.498198 0.927622 1.934274 0.108046 -0.031589 -1295120.000000 0 0 1
-19.384135 -27.357667 -12.577131 35.810206 0.954359 1.929666 0.106329 -0.034452 387295.000000 0 0 1
-18.388635 -27.951767 -13.408231 36.044748 0.988908 1.951947 0.105018 -0.035102 162841.000000 0 0 1
-17.047835 -27.738167 -12.988931 35.053487 1.019712 1.950393 0.106912 -0.037460 -688742.000000 0 0 1
-16.223735 -28.874567 -13.523031 35.774608 1.058886 1.958438 0.094946 -0.034492 -821726.000000 0 0 1
-16.109335 -28.919867 -14.916731 36.309479 1.062569 1.994152 0.091814 -0.030953 -361010.000000 0 0 1
-15.362135 -29.998767 -15.416431 37.061943 1.097522 1.999799 0.099069 -0.031478 -130979.000000 0 0 1
-16.033435 -31.417967 -15.370931 38.476295 1.098921 1.981758 0.096542 -0.037009 -285382.000000 0 0 1
-16.174335 -31.940967 -14.082931 38.472893 1.102056 1.945555 0.093115 -0.035183 178957.000000 0 0 1
-16.808835 -33.217667 -14.147431 39.825873 1.102344 1.933959 0.075264 -0.030792 -714543.000000 0 0 1
-17.395235 -33.591367 -12.742531 39.916742 1.092972 1.895711 0.106396 -0.031056 1229490.000000 0 0 1
-18.786335 -33.277067 -12.466731 40.195883 1.056856 1.886147 0.125372 -0.034294 1342280.000000 0 0 1
-19.214935 -31.909567 -12.506531 39.291825 1.028784 1.894730 0.132711 -0.035942 -315216.000000 0 0 1
-18.603235 -30.891467 -11.484831 37.845270 1.028751 1.879127 0.138729 -0.040913 -125106.000000 0 0 1
-18.964335 -31.198867 -10.135931 37.891324 1.024622 1.841594 0.146712 -0.044379 252882.000000 0 0 1
-18.518335 -30.138167 -9.282131 36.570423 1.019821 1.827419 0.142290 -0.042020 74845.700000 0 0 1
-18.674035 -30.394567 -7.769931 36.509193 1.019865 1.785258 0.143554 -0.044316 -498848.000000 0 0 1
-17.668435 -31.179267 -7.209831 36.555464 1.055243 1.769328 0.143762 -0.047275 -301276.000000 0 0 1
-17.799535 -31.354267 -5.787031 36.515795 1.054472 1.729948 0.124454 -0.053251 -231282.000000 0 0 1
-16.920535 -32.509667 -5.215231 37.018666 1.090902 1.712148 0.123019 -0.039257 976379.000000 0 0 1
-15.573035 -32.093667 -4.948831 36.014078 1.119029 1.708646 0.109684 -0.036565 602296.000000 0 0 1
-15.450735 -31.679667 -3.580531 35.428050 1.117023 1.672034 0.085115 -0.035272 -322067.000000 0 0 1
-14.112035 -31.071367 -3.119931 34.268256 1.144471 1.661967 0.075708 -0.032323 -162078.000000 0 0 1
-13.031035 -31.954567 -2.936331 34.634149 1.183585 1.655680 0.042712 -0.018248 -853890.000000 0 0 1
-11.956535 -31.153567 -2.526831 33.464733 1.204339 1.646376 0.034447 -0.012194 113637.000000 0 0 1
-10.597435 -31.913967 -2.485031 33.719169 1.250190 1.644561 0.037348 -0.012156 -208482.000000 0 0 1
-10.670935 -33.028067 -1.641531 34.747902 1.258296 1.618055 0.045286 -0.011396 1054010.000000 0 0 1
-9.372235 -33.674567 -1.562431 34.989377 1.299348 1.615466 0.035390 -0.014313 1421990.000000 0 0 1
-8.242835 -32.999767 -0.756831 34.022078 1.326020 1.593043 0.036979 -0.015644 -677983.000000 0 0 1
-8.568235 -32.891567 0.628069 33.995063 1.315961 1.552320 0.049706 -0.013406 -411161.000000 0 0 1
-7.514535 -32.553267 1.487269 33.442420 1.343932 1.526309 0.053404 -0.017378 -157992.000000 0 0 1
-6.652435 -33.766467 1.840769 34.464730 1.376274 1.517361 0.057371 -0.018198 -198138.000000 0 0 1
-7.460835 33.993742 2.688569 34.906547 -1.354745 1.493698 0.071776 -0.024442 803766.000000 0 0 1
-6.769535 32.930342 3.371769 33.787614 -1.368049 1.470837 0.062820 -0.018619 608679.000000 0 0 1
-5.751835 33.352042 4.503069 34.142642 -1.400018 1.438521 0.056853 -0.016367 583365.000000 0 0 1
-4.749135 34.258742 4.111869 34.829918 -1.433049 1.452465 0.053584 -0.011251 -727687.000000 0 0 1
-3.991235 -34.007367 5.207169 34.634457 1.453967 1.419878 0.035048 -0.003419 261263.000000 0 0 1
-2.887835 -32.949667 4.855469 33.430461 1.483376 1.425040 0.049997 -0.001062 383572.000000 0 0 1
-3.417335 -31.775867 4.213469 32.235652 1.463663 1.439713 0.044533 0.005132 180277.000000 0 0 1
-3.529035 -31.840367 2.795769 32.157105 1.460412 1.483745 0.044180 0.002340 -145415.000000 0 0 1
-4.227435 -30.615767 2.228369 30.986482 1.433584 1.498820 0.042381 -0.002700 -25.418400 0 0 1
-3.326935 -29.526267 2.281069 29.800541 1.458592 1.494177 0.045887 -0.007740 377990.000000 0 0 1
-3.892935 -28.313267 1.746769 28.632975 1.434158 1.509753 0.047690 -0.007307 159605.000000 0 0 1
-3.059435 -27.121767 2.164269 27.379453 1.458467 1.491667 0.053898 -0.003619 93120.900000 0 0 1
-3.671235 -25.929067 1.718969 26.244035 1.430144 1.505250 0.058631 -0.010764 -33082.200000 0 0 1
-3.074935 -24.756867 2.251569 25.048498 1.447224 1.480786 0.036968 -0.008849 235102.000000 0 0 1
-3.985135 -24.109067 3.332169 24.662356 1.406981 1.435270 0.017647 -0.003791 60764.800000 0 1 0
-4.020835 -24.713967 4.589969 25.456141 1.409515 1.389496 0.035284 -0.006767 -189310.000000 0 0 1
-4.854935 -23.980267 5.452869 25.067058 1.371041 1.351512 0.023226 -0.000291 -162279.000000 0 0 1
-5.553635 -24.937167 6.442669 26.347925 1.351667 1.323769 0.045228 0.007247 -169077.000000 0 0 1
-4.730835 -25.353167 7.500369 26.859252 1.386320 1.287786 0.039923 -0.005357 -462046.000000 0 0 1
-5.292335 -26.440667 8.102269 28.156073 1.373248 1.278906 0.040739 -0.001184 -390538.000000 0 0 1
-4.635735 -27.013267 9.338969 28.955535 1.400842 1.242397 0.044525 0.001139 -217287.000000 0 0 1
-4.483635 -26.125367 10.451369 28.493314 1.400832 1.195229 0.043316 -0.008333 -68249.200000 0 0 1
-5.661535 -25.799267 11.180569 28.682055 1.354775 1.170370 0.037558 -0.010762 109484.000000 0 0 1
-5.484335 -24.936367 12.444869 28.403787 1.354310 1.117267 0.047281 -0.002036 218408.000000 0 0 1
-4.666735 -25.550367 13.447969 29.248035 1.390139 1.093037 0.052834 0.001866 -207059.000000 0 0 1
-3.797335 -24.582367 13.985169 28.535898 1.417534 1.058603 0.027376 -0.003117 -59877.900000 0 0 1
-2.766435 -25.302867 14.884169 29.486043 1.461896 1.041661 0.022282 -0.010173 257398.000000 0 0 1
-3.377335 -25.885467 16.044669 30.641397 1.441057 1.019693 0.015143 -0.004642 -40592.900000 0 0 1
-2.414135 -26.666467 16.704469 31.558958 1.480512 1.013009 0.001411 0.008645 -120941.000000 0 0 1
-2.613235 -27.042767 18.199769 32.701252 1.474462 0.980573 0.015156 -0.006306 -197503.000000 0 0 1
-2.626135 -25.909967 19.079469 32.283883 1.469785 0.938510 0.008627 -0.014095 -137579.000000 0 0 1
-2.537235 -26.294467 20.428569 33.394056 1.474601 0.912535 0.019102 -0.019107 124368.000000 0 0 1
-2.901335 -25.083867 21.344969 33.063966 1.455643 0.869032 0.029814 -0.027791 119504.000000 0 0 1
-2.796735 -25.383367 22.748869 34.200119 1.461059 0.843076 0.034446 -0.028723 -203717.000000 0 0 1
-3.069435 -24.323867 23.667369 34.076624 1.445270 0.803025 0.040622 -0.024075 54313.500000 0 0 1
-2.123335 -23.105067 23.607069 33.100550 1.479155 0.776754 0.037741 -0.029785 46198.000000 0 0 1
-2.566935 -22.139367 22.647869 31.775253 1.455367 0.777383 0.046472 -0.023295 -190115.000000 0 0 1
-1.612735 -21.135967 22.328569 30.787904 1.494641 0.759416 0.039971 -0.023778 -449130.000000 0 0 1
-2.245835 -20.009567 21.490869 29.449686 1.459026 0.752842 0.033662 -0.012292 -1204370.000000 0 0 1
-3.112635 -19.138567 22.119269 29.414883 1.409571 0.719743 0.047768 -0.026482 -695719.000000 0 0 1
-4.392535 -19.663367 22.370869 30.106447 1.351018 0.733166 0.034046 -0.028184 -637880.000000 0 0 1
-5.378835 -19.799967 21.154969 29.470380 1.305539 0.770104 0.014838 -0.028416 -749448.000000 0 0 1
-5.019135 -20.649867 20.074569 29.233492 1.332361 0.813860 0.030501 -0.018694 -409727.000000 0 0 1
-5.267335 -22.065767 20.364969 30.485650 1.336471 0.839254 0.019063 -0.014740 31609.600000 0 0 1
-5.447535 -22.782867 18.982769 30.150957 1.336096 0.889770 0.012026 -0.003800 36227.800000 0 0 1
-6.111435 -24.005667 19.107169 31.284271 1.321509 0.913777 0.015662 -0.009692 -467369.000000 0 0 1
-5.969235 -24.709967 17.874669 31.076004 1.333766 0.957957 0.020787 -0.008258 174142.000000 0 0 1
-6.581735 -26.132967 17.995769 32.405230 1.324072 0.982030 0.027351 -0.018053 1129870.000000 0 0 1
-7.964235 -26.058767 18.379169 32.867647 1.274186 0.977391 0.032818 -0.021328 80523.500000 0 0 1
-8.661335 -27.296567 18.277069 33.973115 1.263540 1.002750 0.025131 -0.020854 195630.000000 0 0 1
-10.165735 -26.984467 18.358369 34.183817 1.210514 1.003862 0.038196 -0.019041 -588123.000000 0 0 1
-10.671535 -26.328267 17.186969 33.203181 1.185707 1.026717 0.032940 -0.021317 508510.000000 0 0 1
-12.086135 -26.120867 17.161069 33.509352 1.137431 1.033136 0.032321 -0.019410 843337.000000 0 0 1
-12.746035 -25.184567 18.199869 33.585102 1.102277 0.998097 0.036489 -0.022615 -593154.000000 0 0 1
-12.745835 -23.815067 17.864669 32.384566 1.079386 0.986465 0.033518 -0.021995 -61807.800000 0 0 1
-12.925535 -22.892467 18.916969 32.388057 1.056798 0.947060 0.035218 -0.021705 1372090.000000 0 0 1
-11.506035 -22.357367 19.393669 31.754608 1.095504 0.913807 0.022694 -0.022546 1287530.000000 0 0 1
-10.750435 -23.146967 20.264269 32.588258 1.135997 0.899723 0.030696 -0.020861 -1089330.000000 0 0 1
-9.413435 -22.774667 20.239369 31.889344 1.178852 0.883208 0.031186 -0.027750 -584017.000000 0 0 1
-8.612235 -23.855967 20.983569 32.917897 1.224347 0.879610 0.024883 -0.024822 -399136.000000 0 0 1
-8.700335 -23.707767 22.386969 33.748044 1.219073 0.845502 0.024662 -0.025252 22277.400000 0 0 1
-7.937635 -24.686567 23.067369 34.706428 1.259700 0.843781 0.026062 -0.023435 50180.600000 0 0 1
-7.698435 -24.288267 24.484569 35.336666 1.263852 0.805301 0.032304 -0.022748 -23799.600000 0 0 1
-6.704235 -25.011567 25.177369 36.116827 1.308907 0.799439 0.039528 -0.021687 -150784.000000 0 0 1
-6.650735 -24.551367 26.498469 36.731060 1.306255 0.764948 0.037779 -0.019838 -712457.000000 0 0 1
-5.465735 -25.014567 27.291169 37.422062 1.355675 0.753527 0.038713 -0.018215 -149892.000000 0 0 1
-4.195135 -24.511267 26.880969 36.619501 1.401287 0.746513 0.040335 -0.018830 180087.000000 0 0 1
-3.232535 -24.624867 27.890969 37.346212 1.440271 0.727526 0.051312 -0.018575 -635514.000000 0 0 1
-1.848535 -24.115367 27.589769 36.690099 1.494292 0.719754 0.051686 -0.021881 -1359730.000000 0 0 1
-1.922735 -22.691067 27.313869 35.561621 1.486263 0.694972 0.057301 -0.023239 22094.100000 0 0 1
-0.659535 -22.167067 26.970869 34.917641 1.541052 0.688163 0.064813 -0.032399 125076.000000 0 0 1
0.402965 -21.961867 28.068969 35.642012 -1.552450 0.664014 0.063123 -0.030254 -363497.000000 0 0 1
0.850665 -23.163367 28.611469 36.822295 -1.534088 0.680887 0.069485 -0.018357 -439994.000000 0 0 1
1.532965 -23.024267 29.820669 37.705957 -1.504314 0.658560 0.060040 -0.023748 -330122.000000 0 0 1
2.465465 -24.217467 30.122069 38.728585 -1.469341 0.679681 0.062247 -0.034569 210546.000000 0 0 1
3.477965 -24.387167 29.093669 38.121801 -1.429137 0.702581 0.060732 -0.044335 958991.000000 0 0 1
4.368765 -25.459767 29.398869 39.135398 -1.400857 0.720904 0.054919 -0.033995 247591.000000 0 0 1
5.640565 -25.244267 30.293669 39.834600 -1.350968 0.706735 0.060989 -0.031494 -124954.000000 0 0 1
6.761565 -24.686367 29.710269 39.215247 -1.303454 0.711137 0.063632 -0.026712 -401162.000000 0 0 1
7.537265 -25.636367 28.975369 39.415805 -1.284847 0.744952 0.066057 -0.025384 -202033.000000 0 0 1
8.709465 -24.966667 28.224969 38.676067 -1.235152 0.752798 0.055197 -0.025314 26199.700000 0 0 1
8.180665 -24.105467 27.232369 37.277322 -1.243623 0.751692 0.061934 -0.029453 214894.000000 0 0 1
9.178265 -23.412367 26.519469 36.546706 -1.197183 0.758844 0.043678 -0.019564 -26429.800000 0 0 1
8.514565 -22.358967 25.652669 35.078208 -1.206940 0.750571 0.048693 -0.022752 193307.000000 0 0 1
7.679865 -22.751567 24.554969 34.344732 -1.245253 0.774235 0.049557 -0.015267 162126.000000 0 0 1
7.176865 -21.607067 23.855369 32.976528 -1.250108 0.762076 0.048322 -0.005391 -393177.000000 0 0 1
6.662065 -22.106167 22.479769 32.224304 -1.278086 0.798750 0.050685 -0.009159 159104.000000 0 0 1
7.680965 -22.686167 21.679669 32.305842 -1.244336 0.835137 0.048649 -0.001982 41846.700000 0 0 1
7.147065 -22.902267 20.346269 31.457353 -1.268305 0.867430 0.053897 -0.007699 21126.100000 0 0 1
8.002065 -23.732767 19.402069 31.681502 -1.245593 0.911691 0.075076 -0.015901 -947122.000000 0 0 1
9.188765 -23.109867 19.089369 31.351290 -1.192350 0.916141 0.079261 -0.014523 -1116050.000000 0 0 1
9.963065 -23.987067 18.295269 31.770410 -1.177126 0.957142 0.088200 -0.014452 -497532.000000 0 0 1
11.354965 -23.587367 17.855869 31.688029 -1.122139 0.972193 0.063833 -0.012849 -452175.000000 0 0 1
11.405965 -22.655467 16.817169 30.433262 -1.104390 0.985326 0.061079 -0.008277 -688919.000000 0 0 1
12.656865 -22.672667 16.207569 30.609335 -1.061646 1.012788 0.068496 -0.013441 -626993.000000 0 0 1
-12.269835 22.608442 11.230469 28.068024 -1.073567 1.159153 0.023785 -0.009689 15758.000000 0 0 1
-13.270235 21.709742 10.798169 27.640776 -1.022141 1.169447 0.024549 -0.015139 507193.000000 0 0 1
-12.590835 20.570542 10.268569 26.212971 -1.021541 1.168279 0.042437 -0.022455 232926.000000 0 0 1
-13.490335 19.799642 9.297869 25.699520 -0.972702 1.200607 0.046585 -0.023126 -564556.000000 0 0 1
-13.748735 20.405842 8.022769 25.880320 -0.977896 1.255609 0.050348 -0.027087 293266.000000 0 0 1
-14.621535 19.673242 7.169569 25.538764 -0.931649 1.286239 0.048414 -0.026337 -699690.000000 0 0 1
-16.098235 19.679642 7.457469 26.496327 -0.885167 1.285488 0.035004 -0.022443 -1485710.000000 0 0 1
-16.453835 18.934942 8.629069 26.527751 -0.855394 1.239484 0.031022 -0.025418 1147220.000000 0 0 1
-17.902335 19.072142 8.680269 27.560611 -0.817026 1.250390 0.035779 -0.023809 1283640.000000 0 0 1
-18.696535 18.025442 9.466669 27.642265 -0.767125 1.221251 0.037800 -0.022511 -86052.700000 0 0 1
-18.618135 16.744742 8.851169 26.558700 -0.732471 1.231029 0.037113 -0.024793 245978.000000 0 0 1
-19.236835 15.753642 9.660469 26.675040 -0.686178 1.200219 0.047696 -0.027940 -355226.000000 0 0 1
-18.293435 15.118642 10.732369 26.046245 -0.690663 1.146093 0.041367 -0.017809 398210.000000 0 0 1
-17.340635 14.229642 10.172569 24.630500 -0.687173 1.145043 0.022572 0.001011 168834.000000 0 1 0
-16.581435 13.430742 11.061969 24.035307 -0.680801 1.092533 0.019752 0.000683 148147.000000 0 1 0
-17.331935 12.305842 11.831569 24.327264 -0.617412 1.062889 0.024389 -0.003438 -156026.000000 0 1 0
-17.960535 11.322542 10.988369 23.906590 -0.562482 1.093209 0.000596 -0.005681 218838.000000 0 1 0
-18.942335 10.648942 11.758669 24.707860 -0.512144 1.074800 0.022637 -0.008427 388401.000000 0 1 0
-20.005335 9.873642 10.903269 24.831100 -0.458475 1.116203 0.023428 -0.011543 -154253.000000 0 1 0
-19.492735 8.808342 10.118369 23.662946 -0.424415 1.128956 0.018954 -0.008325 468645.000000 0 1 0
-18.923435 9.248442 8.876169 22.856431 -0.454591 1.171962 0.023014 -0.006526 -530341.000000 0 1 0
-19.990935 9.640042 7.840069 23.537939 -0.449323 1.231226 0.039051 -0.010988 189969.000000 0 1 0
-20.729635 8.466342 7.443069 23.596525 -0.387742 1.249886 0.041636 -0.013785 439511.000000 0 1 0
-21.262535 8.646042 6.170469 23.768133 -0.386211 1.308177 0.038457 -0.014506 -238075.000000 0 1 0
-21.385635 7.287242 5.462069 23.243999 -0.328414 1.333590 0.039354 -0.010501 -718724.000000 0 1 0
-22.329835 6.513942 6.104569 24.048259 -0.283838 1.314141 0.053310 -0.006490 -166803.000000 0 1 0
-22.121835 5.116142 5.784369 23.430950 -0.227275 1.321349 0.059530 -0.005683 -837077.000000 0 1 0
-23.384335 4.306742 5.988869 24.520231 -0.182131 1.324058 0.095254 0.000571 -348806.000000 0 1 0
-24.460535 4.622542 5.120369 25.414639 -0.186777 1.367935 0.097481 -0.000844 749665.000000 0 0 1
-25.151865 3.422542 4.735669 25.821632 -0.135244 1.386353 0.097415 -0.011925 -517938.000000 0 0 1
-26.115065 3.405242 3.589469 26.579627 -0.129662 1.435337 0.092239 -0.020441 -502756.000000 0 0 1
-25.524535 3.401942 2.298469 25.852622 -0.132500 1.481772 0.084370 -0.018072 687742.000000 0 0 1
-26.537505 3.305142 1.311069 26.774653 -0.123908 1.521810 0.088440 -0.025117 -26717.200000 0 0 1
-25.940315 3.234142 -0.092331 26.141311 -0.124036 1.574328 0.090493 -0.024680 -266260.000000 0 0 1
-25.493855 4.556242 -0.482331 25.902290 -0.176852 1.589419 0.094892 -0.021041 550638.000000 0 0 1
-25.418375 4.650342 -1.922031 25.911651 -0.180951 1.645041 0.108990 -0.016469 -537629.000000 0 0 1
-26.731685 5.014442 -2.627431 27.324550 -0.185429 1.667102 0.116370 -0.026051 100388.000000 0 0 1
-27.761205 4.026742 -2.539231 28.166414 -0.144045 1.661070 0.099437 -0.028806 863094.000000 0 0 1
-29.027005 4.682542 -2.643931 29.520901 -0.159939 1.660478 0.081790 -0.015976 -232145.000000 0 0 1
-30.244785 3.797742 -2.671531 30.599133 -0.124913 1.658215 0.079337 -0.021377 -759592.000000 0 0 1
-30.666215 3.292842 -3.924031 31.091117 -0.106967 1.697345 0.083472 -0.026060 354590.000000 0 0 1
-31.489245 2.159342 -3.812131 31.792572 -0.068467 1.690992 0.096957 -0.033277 -316218.000000 0 0 1
-31.614985 1.278842 -5.063631 32.043456 -0.040428 1.729485 0.096821 -0.041097 74441.000000 0 0 1
-30.385435 0.678342 -5.465331 30.880490 -0.022321 1.748717 0.106966 -0.039658 622132.000000 0 0 1
-30.441045 -0.047158 -6.729331 31.176006 0.001549 1.788358 0.109001 -0.038754 -224418.000000 0 0 1
-30.842715 0.750142 -8.030731 31.879906 -0.024317 1.825445 0.108199 -0.039243 -1226260.000000 0 0 1
-32.212485 0.744142 -8.185531 33.244561 -0.023097 1.819576 0.106618 -0.039598 -828544.000000 0 0 1
-32.616215 1.581242 -9.233231 33.934796 -0.048442 1.846358 0.118944 -0.045478 125320.000000 0 0 1
-34.163803 1.695042 -9.169431 35.413515 -0.049575 1.832705 0.127183 -0.044988 332037.000000 0 0 1
-34.616040 2.470042 -8.035231 35.622132 -0.071235 1.798323 0.102998 -0.032588 881562.000000 0 0 1
-35.997949 2.320742 -7.708731 36.887162 -0.064380 1.781330 0.102908 -0.025109 305674.000000 0 0 1
35.572725 3.316142 -6.774531 36.363578 0.092953 1.758191 0.110679 -0.019467 -1043410.000000 0 0 1
34.189725 3.245442 -6.706831 34.992167 0.094641 1.763656 0.106749 -0.019604 -287366.000000 0 0 1
33.591945 3.928542 -5.604831 34.282157 0.116420 1.735025 0.099821 -0.024527 -266674.000000 0 0 1
32.191165 3.516142 -5.193231 32.796402 0.108796 1.729813 0.082745 -0.018170 -367542.000000 0 0 1
32.305135 2.297342 -4.449831 32.690985 0.070994 1.707338 0.110873 -0.031275 -1143950.000000 0 0 1
31.112955 1.651042 -4.416631 31.468214 0.053016 1.711613 0.105720 -0.028778 -1391210.000000 0 0 1
31.046995 0.292942 -3.697831 31.267805 0.009435 1.689337 0.118224 -0.031467 -338556.000000 0 0 1
31.856535 -0.687258 -4.305731 32.153545 -0.021570 1.705111 0.116239 -0.039491 304261.000000 0 0 1
31.680305 -1.969158 -3.736331 31.960592 -0.062077 1.687969 0.113131 -0.029136 241483.000000 0 0 1
33.065575 -2.664258 -3.832031 33.393337 -0.080401 1.685804 0.120254 -0.032007 447330.000000 0 0 1
32.954125 -4.011158 -3.430831 33.374156 -0.121124 1.673777 0.102117 -0.027357 22571.900000 0 0 1
34.196855 -4.634258 -3.661731 34.703162 -0.134697 1.676509 0.116932 -0.034491 95627.100000 0 0 1
34.217685 -6.077358 -3.012231 34.883488 -0.175776 1.657255 0.101965 -0.028637 -84732.400000 0 0 1
33.987105 -6.026658 -1.617131 34.555159 -0.175498 1.617612 0.108232 -0.030070 2588.710000 0 0 1
34.201925 -7.321558 -1.156931 34.995933 -0.210886 1.603861 0.110978 -0.028897 85050.500000 0 0 1
33.602625 -7.564458 0.266969 34.444574 -0.221424 1.563046 0.101049 -0.020877 938203.000000 0 0 1
32.170645 -7.689558 0.327969 33.078501 -0.234622 1.560881 0.104516 -0.022322 967525.000000 0 0 1
31.690205 -7.852458 1.679369 32.691749 -0.242896 1.519404 0.084580 -0.029742 -261949.000000 0 0 1
31.481405 -9.323358 2.231269 32.908698 -0.287925 1.502942 0.094992 -0.034559 -102122.000000 0 0 1
30.388125 -10.038158 1.686569 32.047578 -0.319047 1.518145 0.095494 -0.036296 468420.000000 0 0 1
29.146365 -9.725058 2.313769 30.812998 -0.322047 1.495635 0.088572 -0.040610 -640289.000000 0 0 1
28.065755 -10.794058 2.005069 30.136665 -0.367159 1.504215 0.094823 -0.038955 -442174.000000 0 0 1
26.826605 -10.608458 2.664169 28.970742 -0.376574 1.478706 0.095849 -0.033663 1152020.000000 0 0 1
25.925705 -9.549258 2.245469 27.719535 -0.352912 1.489701 0.096616 -0.026872 -112221.000000 0 0 1
25.376805 -9.648758 0.763769 27.159972 -0.363339 1.542671 0.091718 -0.025094 -30076.000000 0 0 1
26.335905 -9.542658 -0.359931 28.013778 -0.347629 1.583645 0.091610 -0.028921 1074340.000000 0 0 1
25.736105 -9.534358 -1.641531 27.494466 -0.354790 1.630536 0.081826 -0.012184 -130534.000000 0 0 1
25.135705 -10.895558 -2.167631 27.481183 -0.409022 1.649755 0.094961 -0.013481 -132993.000000 0 0 1
23.942905 -11.147358 -1.471131 26.451663 -0.435735 1.626441 0.089778 -0.008110 -235930.000000 0 0 1
23.558005 -12.517658 -1.655331 26.728476 -0.488416 1.632767 0.085504 -0.008296 -189271.000000 0 0 1
22.108705 -12.867958 -1.288631 25.613272 -0.527102 1.621129 0.088122 -0.008756 373199.000000 0 0 1
21.125905 -12.242758 -2.123731 24.509165 -0.525220 1.657556 0.078783 -0.005389 749433.000000 0 1 0
19.780505 -12.630558 -1.921031 23.547605 -0.568274 1.652468 0.082315 -0.004500 364321.000000 0 1 0
18.792305 -11.967658 -2.905331 22.468122 -0.567067 1.700468 0.084245 -0.007512 -42132.100000 0 1 0
18.648305 -12.648358 -4.125831 22.907699 -0.595984 1.751891 0.069015 -0.012717 634089.000000 0 1 0
17.708405 -11.937658 -4.938431 21.919931 -0.593148 1.798041 0.066124 -0.019705 -12283.100000 0 1 0
17.616005 -12.383358 -6.415131 22.468313 -0.612710 1.860344 0.067663 -0.026907 -246469.000000 0 1 0
17.002805 -13.632358 -6.761131 22.817744 -0.675820 1.871623 0.065211 -0.021089 442464.000000 0 1 0
17.109705 -14.036058 -8.095531 23.564603 -0.687031 1.921487 0.063877 -0.025832 -549349.000000 0 1 0
16.258505 -15.287258 -8.357931 23.830531 -0.754619 1.929140 0.058351 -0.024658 1752320.000000 0 1 0
14.807305 -15.013458 -8.288231 22.657338 -0.792311 1.945297 0.059435 -0.020905 2175750.000000 0 1 0
14.019405 -15.968658 -8.942031 23.054320 -0.850308 1.969114 0.056438 -0.023953 -218477.000000 0 1 0
13.982405 -16.016558 -10.547731 23.733782 -0.853102 2.031321 0.063213 -0.025433 -386743.000000 0 1 0
13.107505 -15.047858 -11.128531 22.849265 -0.854205 2.079495 0.043888 -0.017509 498533.000000 0 1 0
13.473705 -13.664158 -10.866131 22.052726 -0.792416 2.086025 0.045103 -0.013416 -205295.000000 0 1 0
13.374205 -12.678158 -12.029931 22.007369 -0.758687 2.149133 0.050605 -0.009093 -409716.000000 0 1 0
14.473305 -12.766058 -12.897031 23.211682 -0.722804 2.159913 0.060766 -0.010447 -99581.100000 0 1 0
14.380805 -11.921158 -14.076131 23.389293 -0.692154 2.216574 0.073095 -0.013772 -795406.000000 0 1 0
15.705005 -11.791958 -14.811531 24.598351 -0.644039 2.216969 0.075476 -0.020329 -458916.000000 0 1 0
16.264605 -13.034658 -15.185531 25.788370 -0.675602 2.200434 0.071725 -0.013381 12707.600000 0 0 1
17.394405 -12.838658 -15.998931 26.895394 -0.635836 2.207885 0.068726 -0.011732 -107723.000000 0 0 1
18.459505 -13.960558 -16.146231 28.219696 -0.647508 2.179936 0.056834 -0.009928 -399098.000000 0 0 1
19.251305 -13.860958 -15.021231 28.078039 -0.624024 2.135282 0.054859 -0.023198 -354634.000000 0 0 1
20.348005 -14.752358 -15.112031 29.326555 -0.627310 2.112156 0.042317 -0.013891 145489.000000 0 0 1
21.417505 -14.608458 -13.995531 29.461694 -0.598598 2.065808 0.042015 -0.016708 -2239.090000 0 0 1
22.190905 -13.445958 -14.173231 29.565360 -0.544763 2.070752 0.043954 -0.013166 242096.000000 0 0 1
23.296705 -13.412358 -13.272731 29.979879 -0.522375 2.029428 0.043956 -0.012292 736165.000000 0 0 1
24.079805 -12.044058 -13.261931 30.012916 -0.463786 2.028483 0.052466 -0.013728 312678.000000 0 0 1
23.171405 -11.003858 -12.830531 28.681377 -0.443358 2.034593 0.046396 -0.007081 828269.000000 0 0 1
23.635205 -9.678558 -13.101131 28.704303 -0.388667 2.044760 0.052448 -0.012871 -210461.000000 0 0 1
24.637005 -9.165058 -12.036131 28.911049 -0.356141 2.000186 0.059547 -0.013857 -68335.600000 0 0 1
25.869805 -9.838858 -12.163231 30.232335 -0.363428 1.984852 0.055855 -0.012189 -128747.000000 0 0 1
26.683405 -9.618558 -11.014631 30.427666 -0.345971 1.941202 0.053076 -0.013133 -94538.000000 0 0 1
28.050235 -10.322058 -11.178031 31.910953 -0.352606 1.928675 0.072267 -0.011486 -346437.000000 0 0 1
28.876135 -9.732858 -12.109431 32.790212 -0.325097 1.949052 0.057248 -0.012865 -162393.000000 0 0 1
30.011755 -10.507758 -12.425731 34.139672 -0.336783 1.943320 0.059201 -0.009337 155733.000000 0 0 1
30.817115 -10.047458 -13.660431 35.174612 -0.315168 1.969648 0.056340 -0.010600 -20613.500000 0 0 1
30.097325 -10.274958 -14.874231 35.109350 -0.328985 2.008272 0.054329 -0.020941 281210.000000 0 0 1
30.824625 -9.910458 -15.999731 36.116008 -0.311073 2.029749 0.058559 -0.017696 -341340.000000 0 0 1
30.504105 -10.744858 -17.261431 36.659369 -0.338672 2.061062 0.039266 -0.008071 47403.100000 0 0 1
29.246365 -10.479758 -17.840031 35.825157 -0.344074 2.092058 0.041746 -0.015349 177713.000000 0 0 1
29.263945 -9.389958 -18.798231 36.026702 -0.310493 2.119740 0.033370 -0.011057 -637624.000000 0 0 1
27.857965 -9.164858 -19.328831 35.123561 -0.317832 2.153531 0.007203 -0.015290 -358015.000000 0 0 1
27.249465 -10.163958 -20.162331 35.388684 -0.357013 2.176985 0.014043 -0.008982 917201.000000 0 0 1
25.897805 -9.797158 -20.449631 34.421912 -0.361661 2.206927 0.031596 -0.003373 664699.000000 0 0 1
25.312805 -10.155958 -21.872031 34.960940 -0.381556 2.246714 0.042724 -0.014283 -46220.700000 0 0 1
25.237305 -11.514358 -22.132931 35.487584 -0.428034 2.244239 0.046714 -0.016926 144063.000000 0 0 1
24.576105 -11.859458 -23.324131 35.897726 -0.449599 2.278037 0.049237 -0.021516 -742729.000000 0 0 1
24.934305 -13.292158 -23.764431 36.920850 -0.489766 2.270066 0.043874 -0.016708 464646.000000 0 0 1
26.195705 -13.667158 -24.280631 38.243368 -0.480882 2.258673 0.038598 -0.008755 195625.000000 0 0 1
27.346785 -13.450858 -23.477631 38.470396 -0.457116 2.227208 0.032707 -0.004581 -250316.000000 0 0 1
28.645195 -13.877458 -24.194431 39.981264 -0.451139 2.220743 0.029262 0.000674 -252014.000000 0 0 1
28.979995 -13.177258 -25.350711 40.695685 -0.426757 2.243284 0.022460 -0.005108 -126848.000000 0 0 1
30.189325 -13.813358 -25.710191 41.990691 -0.429121 2.229741 0.011393 -0.004305 -37356.500000 0 0 1
31.003315 -13.154858 -26.844731 43.068496 -0.401282 2.243756 0.020279 -0.001776 -142836.000000 0 0 1
30.624925 -13.495258 -28.132921 43.720353 -0.415062 2.269825 0.011975 -0.002075 -246707.000000 0 0 1
31.451425 -12.947358 -29.105111 44.765318 -0.390519 2.278606 0.009690 -0.002408 -285962.000000 0 0 1
31.337385 -13.848758 -30.326441 45.754921 -0.416118 2.295351 0.009793 -0.010166 228161.000000 0 0 1
32.105585 -15.028958 -30.127651 46.522183 -0.437812 2.275224 0.027289 -0.023077 -120077.000000 0 0 1
32.148665 -15.881558 -31.240301 47.557512 -0.458839 2.287490 -0.011743 -0.014748 331288.000000 0 0 1
30.833345 -16.618458 -31.667161 47.219460 -0.494341 2.305865 -0.006898 -0.006797 1040410.000000 0 0 1
29.993725 -15.776658 -32.505631 46.958945 -0.484230 2.335348 0.002488 -0.017318 -391722.000000 0 0 1
28.976205 -16.463158 -33.104631 46.974169 -0.516680 2.352855 0.005092 -0.010047 -830693.000000 0 0 1
28.169985 -15.690758 -34.142095 46.962012 -0.508204 2.384761 0.019883 -0.009314 91812.900000 0 0 1
27.369645 -14.599858 -33.630171 45.751958 -0.490035 2.396543 0.018741 -0.014967 799760.000000 0 0 1
28.144905 -13.382658 -33.470101 45.732689 -0.443849 2.391849 0.022025 -0.018022 45105.400000 0 0 1
27.247995 -12.139758 -33.265031 44.680972 -0.419129 2.410584 0.024275 -0.016710 362176.000000 0 0 1
26.709205 -11.659358 33.971350 44.759076 -0.411596 0.709048 0.031784 -0.023943 -234774.000000 0 0 1
25.764405 -10.664458 34.146001 44.084970 -0.392450 0.684793 0.007136 -0.017837 -436272.000000 0 0 1
20.509465 -30.000467 9.274269 37.505710 -0.971136 1.320928 0.040454 -0.016241 -349973.000000 0 0 1
21.008865 -29.665767 8.046169 37.231317 -0.954598 1.352965 0.046892 -0.020416 -202352.000000 0 0 1
22.385865 -29.954667 7.981069 38.237501 -0.929010 1.360527 0.075607 -0.020565 -55663.100000 0 0 1
22.981965 -29.807667 6.564069 38.206737 -0.913985 1.398136 0.073893 -0.018405 -137568.000000 0 0 1
23.305565 -28.439067 6.276269 37.300422 -0.884283 1.401729 0.064325 -0.012623 6207.100000 0 0 1
23.843765 -28.387367 4.968269 37.403896 -0.872170 1.437575 0.059106 -0.007018 -71894.700000 0 0 1
23.975965 -26.924567 4.421469 36.322563 -0.843262 1.448766 0.044330 -0.007242 -218083.000000 0 0 1
24.838065 -26.124167 5.166469 36.415574 -0.810629 1.428441 0.036576 -0.005774 -208465.000000 0 0 1
24.627065 -24.718167 5.005769 35.249650 -0.787244 1.428306 0.032583 0.003358 -50883.500000 0 0 1
25.404365 -23.827567 5.998769 35.342891 -0.753381 1.400240 0.020982 0.005479 -283715.000000 0 0 1
26.768565 -23.737467 5.655769 36.221695 -0.725455 1.414012 0.021717 0.007684 120574.000000 0 0 1
27.601465 -23.095467 6.631269 36.595289 -0.696750 1.388584 0.034124 0.005741 348142.000000 0 0 1
27.326265 -21.586667 6.809969 35.483583 -0.668589 1.377679 0.022487 0.010197 -467550.000000 0 0 1
27.563465 -20.837567 5.648369 35.012182 -0.647321 1.408762 0.028838 0.012988 86864.600000 0 0 1
27.220565 -19.470567 5.849469 33.974674 -0.620913 1.397763 0.031233 0.005073 -135016.000000 0 0 1
27.183265 -18.646167 4.519969 33.272204 -0.601229 1.434527 0.039280 0.006928 533171.000000 0 0 1
28.514065 -18.398467 4.055069 34.176002 -0.573023 1.451864 0.068803 0.005149 639687.000000 0 0 1
28.464965 -17.635667 2.877069 33.608757 -0.554676 1.485087 0.065918 -0.002790 34270.200000 0 0 1
29.544665 -16.547267 2.713269 33.971475 -0.510546 1.490842 0.078360 -0.011560 184992.000000 0 0 1
29.219465 -15.534467 3.611369 33.288719 -0.488644 1.462096 0.071016 -0.020405 236649.000000 0 0 1
30.201565 -14.536267 3.530969 33.703195 -0.448583 1.465837 0.073380 -0.024725 73636.800000 0 0 1
29.831565 -13.351167 4.462769 32.986243 -0.420816 1.435088 0.069196 -0.026021 -117984.000000 0 0 1
29.591765 -13.672067 5.809669 33.111180 -0.432807 1.394424 0.064326 -0.017957 153133.000000 0 0 1
29.538465 -12.515867 6.617369 32.756029 -0.400781 1.367376 0.060717 -0.024374 -908989.000000 0 0 1
29.101265 -12.874967 8.032569 32.820277 -0.416532 1.323541 0.062434 -0.015743 -36409.800000 0 0 1
27.686465 -12.961367 8.164569 31.641706 -0.437843 1.309812 0.050892 -0.006341 217847.000000 0 0 1
27.134265 -12.800567 9.459969 31.458129 -0.440793 1.265353 0.046586 -0.003393 135711.000000 0 0 1
27.469665 -13.879567 10.492769 32.516505 -0.467854 1.242226 0.056391 -0.000667 1201390.000000 0 0 1
28.853865 -13.909267 10.962769 33.855510 -0.449192 1.241042 0.058859 -0.006120 1520430.000000 0 0 1
29.066365 -15.158367 11.610269 34.776832 -0.480706 1.230411 0.061351 -0.013753 274783.000000 0 0 1
30.027465 -15.270067 12.836969 36.050123 -0.470454 1.206720 0.071787 -0.019372 350576.000000 0 0 1
31.350365 -14.836867 12.569469 36.891321 -0.442028 1.223118 0.065374 -0.014284 164724.000000 0 0 1
32.057565 -14.900067 13.816469 37.955162 -0.435086 1.198215 0.068401 -0.018956 -653052.000000 0 0 1
33.557065 -14.742667 13.650769 39.112228 -0.413946 1.214276 0.064544 -0.022775 -643839.000000 0 0 1
34.061365 -13.429267 13.340869 38.967943 -0.375554 1.221374 0.057731 -0.022048 -877354.000000 0 0 1
35.432465 -13.493067 13.227669 40.155867 -0.363855 1.235120 0.043140 -0.020439 -1285980.000000 0 0 1
36.066365 -12.110867 13.178069 40.263101 -0.323963 1.237353 0.035016 -0.021962 494706.000000 0 0 1
-34.860375 -12.044467 12.425169 38.919144 0.332666 1.245852 0.044907 -0.015857 667113.000000 0 0 1
-34.036575 -11.010067 12.922669 38.035580 0.312854 1.224143 0.042538 -0.011780 247069.000000 0 0 1
-32.695675 -11.006867 12.114469 36.563898 0.324729 1.233091 0.042905 -0.014306 154618.000000 0 0 1
-31.761875 -12.023467 12.431169 36.165099 0.361880 1.219906 0.039180 -0.012358 151272.000000 0 0 1
-32.108875 -13.357467 11.972969 36.779801 0.394228 1.239223 0.030438 -0.010230 -546294.000000 0 0 1
-31.024275 -14.413167 12.277469 36.345306 0.434910 1.226217 0.011161 -0.007672 193406.000000 0 0 1
-29.809375 -14.090667 11.635369 34.964661 0.441564 1.231551 0.025036 -0.008965 -28387.600000 0 0 1
-28.750775 -14.961367 12.047869 34.577459 0.479819 1.214899 0.014640 -0.001541 483842.000000 0 0 1
-27.398375 -14.651167 11.369869 33.084763 0.491056 1.219986 0.018925 0.000966 11663.200000 0 0 1
-27.350875 -15.080567 10.049369 32.809811 0.503898 1.259501 0.022554 0.007474 -798630.000000 0 0 1
-26.100575 -14.818467 9.544669 31.494883 0.516365 1.262900 0.031925 0.008842 -898350.000000 0 0 1
-26.135875 -14.460367 8.038569 30.932261 0.505355 1.307902 0.055591 0.015200 -28472.800000 0 0 1
-26.365075 -15.555467 7.148069 31.435404 0.533036 1.341401 0.060351 0.015855 238560.000000 0 0 1
-26.273075 -15.068367 5.828069 30.843095 0.520728 1.380695 0.067875 0.008733 -267331.000000 0 0 1
-26.529275 -16.128867 4.707369 31.402263 0.546255 1.420324 0.057109 0.001517 -405911.000000 0 0 1
-27.880875 -16.491867 4.582069 32.715749 0.534155 1.430277 0.044758 -0.004707 -158385.000000 0 0 1
-28.077875 -17.486767 3.614669 33.274914 0.557012 1.461951 0.037247 -0.003025 753958.000000 0 0 1
-29.553375 -18.015667 3.699669 34.808818 0.547447 1.464310 0.041070 -0.005588 1353930.000000 0 0 1
-30.552575 -17.136667 3.149469 35.171641 0.511166 1.481131 0.045132 -0.008698 157743.000000 0 0 1
-31.865275 -17.528267 3.449369 36.531275 0.502900 1.476233 0.050997 -0.009660 -192276.000000 0 0 1
-32.939275 -16.668367 2.766869 37.020074 0.468463 1.495987 0.045750 -0.021187 -138151.000000 0 0 1
-33.083875 -16.883967 1.378669 37.168694 0.471884 1.533696 0.046665 -0.017124 -398143.000000 0 0 1
-33.852575 -15.890767 0.777069 37.404774 0.438878 1.550020 0.057067 -0.028998 -523201.000000 0 0 1
-34.354975 -16.451867 -0.568731 38.095297 0.446608 1.585726 0.052884 -0.029042 -682648.000000 0 0 1
-33.377675 -16.877167 -1.479431 37.431226 0.468151 1.610331 0.046362 -0.027312 272894.000000 0 0 1
-33.960175 -17.752467 -2.482731 38.400619 0.481677 1.635495 0.044487 -0.019947 -120268.000000 0 0 1
-32.884975 -18.489667 -3.239831 37.865365 0.512202 1.656463 0.039596 -0.013087 -544112.000000 0 0 1
-33.449175 -19.289767 -4.208331 38.841376 0.523103 1.679356 0.045847 -0.026910 85573.100000 0 0 1
-32.461075 -19.927267 -5.010431 38.417727 0.550564 1.701589 0.036807 -0.021189 -1199.540000 0 0 1
-33.054275 -21.041867 -5.917531 39.627799 0.566887 1.720685 0.056691 -0.024867 -368037.000000 0 0 1
-33.605275 -22.145667 -5.270831 40.589737 0.582672 1.701020 0.073912 -0.028768 -128991.000000 0 0 1
-33.939175 -23.123567 -6.238331 41.538942 0.598081 1.721547 0.053430 -0.027031 -193490.000000 0 0 1
-34.321575 -24.432667 -5.531131 42.491401 0.618651 1.701337 0.057119 -0.021598 -25891.800000 0 0 1
-33.228675 -25.088267 -4.950031 41.929331 0.646705 1.689129 0.063703 -0.022824 -281631.000000 0 0 1
-33.680175 -26.354667 -4.459631 42.997802 0.663977 1.674701 0.054579 -0.012420 360102.000000 0 0 1
-32.528375 -27.237167 -3.918131 42.606457 0.697096 1.662887 0.044540 -0.007785 -662875.000000 0 0 1
-31.618675 -27.629367 -4.942431 42.279430 0.718167 1.687963 0.045478 -0.003452 348982.000000 0 0 1
-30.810775 -28.724867 -4.471331 42.360532 0.750376 1.676548 0.029344 0.002397 1012850.000000 0 0 1
-29.758975 -28.528367 -3.282231 41.355016 0.764289 1.650247 0.028787 0.000845 -219248.000000 0 0 1
-30.365175 -28.254567 -2.029031 41.526875 0.749409 1.619676 0.037686 0.001057 -127981.000000 0 0 1
-29.458375 -28.256067 -0.934631 40.829826 0.764569 1.593689 0.030091 -0.006032 -42666.100000 0 0 1
-30.147775 -28.200767 0.446269 41.284025 0.752042 1.559986 0.033410 -0.005458 -120487.000000 0 0 1
-30.756875 -29.418167 0.827469 42.568752 0.763155 1.551357 0.034283 0.003137 -85322.300000 0 0 1
-31.691275 -29.124367 1.863069 43.081744 0.743215 1.527538 0.033669 0.000816 -6954.850000 0 0 1
-32.365975 -30.430067 2.340569 44.486218 0.754579 1.518159 0.016989 0.004481 -445528.000000 0 0 1
-33.019975 -30.306567 3.624669 44.966043 0.742576 1.490100 0.033216 0.003280 369889.000000 0 0 1
-33.749175 -31.401167 4.104669 46.280540 0.749374 1.481989 0.025584 0.008084 131557.000000 0 0 1
-34.920875 -32.003467 3.282369 47.481190 0.741833 1.501611 0.026908 0.009004 -405714.000000 0 0 1
-35.589775 -33.064867 3.878469 48.733562 0.748638 1.491127 0.034630 0.002560 -602151.000000 0 0 1
35.570965 -33.517567 3.042669 48.969161 -0.755686 1.508622 0.033813 0.006140 -1602270.000000 0 0 1
34.545665 34.146042 3.668369 48.711519 0.779581 1.495417 0.037552 0.005663 114710.000000 0 0 1
33.610265 -33.956367 4.626369 48.000918 -0.790521 1.474266 0.037902 0.002254 1604470.000000 0 0 1
32.794065 -32.808567 4.124969 46.571109 -0.785619 1.482107 0.044185 0.000965 51472.100000 0 0 1
31.925365 -32.807567 2.813569 45.863728 -0.799026 1.509412 0.044139 0.003288 -587793.000000 0 0 1
32.589365 -33.087267 1.591169 46.468977 -0.792979 1.536548 0.048791 0.008329 -556115.000000 0 0 1
31.828265 -32.782467 0.463969 45.694025 -0.800166 1.560642 0.058549 0.005304 -1181740.000000 0 0 1
32.314965 -33.480967 -0.805531 46.539027 -0.803118 1.588106 0.058215 0.001734 779254.000000 0 0 1
33.540365 -33.073467 -1.404731 47.125191 -0.778389 1.600609 0.038315 0.002037 -276690.000000 0 0 1
34.701865 -33.204067 -0.652831 48.032861 -0.763345 1.584388 0.035015 0.011185 -1636300.000000 0 0 1
35.938565 -33.103867 -1.533431 48.885559 -0.744364 1.602169 0.025575 0.019422 -640190.000000 0 0 1
-35.910975 34.306042 -2.157331 49.710731 -0.762545 1.614208 0.011003 0.004431 297774.000000 0 0 1
-35.145875 -34.062467 -3.323931 49.056424 0.769745 1.638606 0.013750 0.004043 -221306.000000 0 0 1
-34.737975 33.340042 -4.118031 48.324357 -0.764867 1.656116 0.011397 -0.006557 -94425.500000 0 0 1
-33.501475 32.784642 -3.719631 47.021455 -0.774584 1.649984 0.013120 0.005460 55127.500000 0 0 1
-33.023875 31.850142 -4.665231 46.116941 -0.767308 1.672131 0.014908 -0.008385 -271488.000000 0 0 1
-31.711175 31.183442 -4.283631 44.680591 -0.777008 1.666816 0.023781 -0.011612 -788009.000000 0 0 1
-30.528075 31.968142 -4.371631 44.418877 -0.808437 1.669374 0.018551 -0.001783 830240.000000 0 0 1
-29.354275 31.217842 -3.989431 43.036527 -0.816155 1.663628 0.030441 -0.020496 924842.000000 0 0 1
-29.096175 31.152242 -2.537031 42.702296 -0.819511 1.630243 0.023385 -0.015350 -69864.200000 0 0 1
-30.167675 30.504842 -1.818331 42.941126 -0.790955 1.613154 0.031921 -0.012359 463373.000000 0 0 1
-29.941775 30.448842 -0.406731 42.706057 -0.793794 1.580320 0.025229 0.008616 179255.000000 0 0 1
-31.198875 29.809842 0.243669 43.151545 -0.762634 1.565149 0.025191 0.004549 129796.000000 0 0 1
-31.384475 28.477842 -0.161731 42.379227 -0.736881 1.574613 0.039214 -0.002544 727273.000000 0 0 1
-32.676275 28.460942 -0.805031 43.340654 -0.716558 1.589372 0.045159 -0.006391 776475.000000 0 0 1
-33.117575 27.018242 -1.197031 42.757363 -0.684318 1.598796 0.043976 -0.007850 120504.000000 0 0 1
-33.343375 26.100642 -0.103631 42.344243 -0.664155 1.573244 0.049019 -0.006710 117348.000000 0 0 1
-33.704375 24.872242 -0.725831 41.894393 -0.635746 1.588122 0.053296 0.004883 -167527.000000 0 0 1
-33.834075 23.706442 0.229569 41.313348 -0.611174 1.565240 0.053231 0.003690 -65906.600000 0 0 1
-32.631175 23.128942 0.666269 40.002318 -0.616607 1.554140 0.071606 -0.009869 181764.000000 0 0 1
-32.001375 23.741542 1.827369 39.888446 -0.638291 1.524968 0.074746 -0.013916 -1323130.000000 0 0 1
-30.517675 23.493242 2.046569 38.567465 -0.656068 1.517707 0.069353 -0.023725 -67567.200000 0 0 1
-29.624575 24.224542 1.168469 38.285888 -0.685452 1.540272 0.075633 -0.021245 478848.000000 0 0 1
-29.562775 25.554842 1.566669 39.108338 -0.712810 1.530726 0.041880 -0.014754 -896574.000000 0 0 1
-28.878975 26.498242 0.565669 39.197857 -0.742433 1.556365 0.037258 -0.014914 900001.000000 0 0 1
-27.489475 26.205442 0.343269 37.980446 -0.761489 1.561758 0.043263 -0.022800 393624.000000 0 0 1
-27.015175 27.066042 -0.656531 38.246848 -0.786339 1.587963 0.042569 -0.023364 -373436.000000 0 0 1
-25.736675 26.554342 -1.301731 37.002757 -0.801034 1.605983 0.037762 -0.019940 -724096.000000 0 0 1
-25.923875 25.481642 -2.174731 36.415530 -0.776796 1.630552 0.068786 -0.029426 -328188.000000 0 0 1
-24.765575 24.924942 -2.757331 35.244706 -0.788605 1.649110 0.059928 -0.020799 217410.000000 0 0 1
-23.902275 24.009042 -1.826531 33.927704 -0.787627 1.624658 0.041997 -0.017125 262046.000000 0 0 1
-24.562275 22.769942 -1.486831 33.525905 -0.747549 1.615160 0.047314 -0.015910 286167.000000 0 0 1
-23.610475 22.016142 -0.778831 32.291975 -0.750469 1.594917 0.030062 -0.024588 -315407.000000 0 0 1
-24.149275 20.595942 -0.464731 31.742657 -0.706152 1.585437 0.039502 -0.021864 220372.000000 0 0 1
-25.115875 20.332342 0.542369 32.318810 -0.680532 1.554014 0.042065 -0.019833 1040370.000000 0 0 1
-26.383975 21.007642 0.479669 33.729294 -0.672436 1.556575 0.047676 -0.015489 1201410.000000 0 0 1
-27.402375 20.530242 -0.661031 34.246430 -0.642998 1.590100 0.054098 -0.026073 181245.000000 0 0 1
-27.781575 19.169842 -0.523331 33.757557 -0.603997 1.586300 0.058079 -0.020255 329593.000000 0 0 1
-28.631575 18.795842 -1.606031 34.287463 -0.580912 1.617654 0.073649 -0.018746 178651.000000 0 0 1
-28.785975 17.266942 -1.587331 33.605048 -0.540301 1.618049 0.061822 -0.006851 204440.000000 0 0 1
-29.622675 16.762442 -0.535431 34.040697 -0.514942 1.586526 0.068324 -0.009476 602123.000000 0 0 1
-29.722075 15.319242 -0.571431 33.442599 -0.475904 1.587884 0.073083 -0.012303 -146120.000000 0 0 1
-28.503775 14.633742 0.071169 32.040859 -0.474307 1.568575 0.086688 -0.012429 -354731.000000 0 0 1
-28.427875 14.668242 1.481869 32.023387 -0.476350 1.524505 0.083347 -0.015943 65536.100000 0 0 1
-27.169275 14.215142 1.922669 30.723548 -0.482040 1.508176 0.082506 -0.022118 -61644.900000 0 0 1
-26.871175 12.693942 1.963069 29.783382 -0.441325 1.504837 0.091249 -0.016631 -363981.000000 0 0 1
-26.858875 12.117542 0.664769 29.473308 -0.423815 1.548239 0.090915 -0.014459 191820.000000 0 0 1
-26.426175 10.803342 0.654069 28.556658 -0.388080 1.547890 0.115497 -0.012142 -229234.000000 0 0 1
-26.358375 10.073342 -0.762331 28.227952 -0.365041 1.597806 0.112324 -0.010853 -1074680.000000 0 0 1
-27.564575 9.804942 -1.361031 29.288139 -0.341751 1.617283 0.102510 -0.016135 -713978.000000 0 0 1
-27.411775 9.079742 -2.517231 28.985920 -0.319861 1.657749 0.107115 -0.019399 -404118.000000 0 0 1
-28.756075 8.626142 -3.070731 30.178661 -0.291435 1.672724 0.114594 -0.021810 -429163.000000 0 0 1
-28.599875 7.993842 -4.286431 30.003797 -0.272551 1.714150 0.125731 -0.017020 1188050.000000 0 0 1
-29.874075 7.895942 -4.969031 31.296925 -0.258399 1.730242 0.113882 -0.022219 959789.000000 0 0 1
-11.589535 18.239442 -19.365831 29.017753 -1.004746 2.301480 0.051466 -0.010674 7607.660000 0 0 1
-11.673335 17.574142 -20.600231 29.487061 -0.984480 2.344262 0.023144 -0.001554 -680014.000000 0 0 1
-10.441335 17.470942 -21.231631 29.411519 -1.032114 2.377314 0.027883 0.005061 -686877.000000 0 0 1
-10.441035 16.556042 -22.447531 29.782703 -1.008146 2.424486 0.010790 0.003271 -34384.600000 0 0 1
-10.329335 15.152042 -22.107231 28.722974 -0.972450 2.449122 0.019213 -0.005399 -112652.000000 0 0 1
-10.230235 14.353742 -23.251331 29.177252 -0.951583 2.492941 0.005498 -0.004598 -224682.000000 0 0 1
-9.664335 12.921742 -23.096931 28.175149 -0.928632 2.531793 0.003371 -0.001573 56349.000000 0 0 1
-8.267535 13.011642 -22.912431 27.615837 -1.004757 2.549339 0.010034 -0.005901 -264265.000000 0 0 1
-7.750135 11.763542 -22.451431 26.504948 -0.988241 2.581236 0.006099 -0.003273 1479560.000000 0 0 1
-6.182735 11.647342 -22.247431 25.861844 -1.082792 2.606539 0.015733 -0.005938 1710050.000000 0 0 1
-5.383835 11.472942 -23.427431 26.635664 -1.132039 2.645715 0.006104 -0.008532 -21579.000000 0 0 1
-4.116435 10.912042 -23.206231 25.972040 -1.210065 2.675894 0.026793 -0.017077 262924.000000 0 0 1
-3.343435 10.503942 -24.524731 26.888172 -1.262634 2.719177 0.044433 -0.017444 131659.000000 0 0 1
-3.641935 9.281442 -25.132731 27.038177 -1.196868 2.763926 0.044694 -0.023075 -116934.000000 0 0 1
-3.011335 9.268242 -26.398931 28.140221 -1.256647 2.787960 0.041096 -0.023329 -251733.000000 0 0 1
-2.819735 7.896042 -27.069161 28.337923 -1.227804 2.841224 0.051332 -0.006277 -214902.000000 0 0 1
-1.645135 7.201542 -26.681861 27.685563 -1.346208 2.871501 0.051417 -0.022533 1434.000000 0 0 1
-1.630435 6.619742 -25.353041 26.253686 -1.329304 2.878901 0.058526 -0.029257 -142062.000000 0 0 1
-0.292835 5.959842 -24.930731 25.634875 -1.521701 2.906668 0.006910 -0.025773 544208.000000 0 0 1
0.473665 6.744942 -23.985131 24.919974 1.500686 2.866817 0.026103 -0.019347 706928.000000 0 1 0
1.251865 5.919942 -23.083231 23.863119 1.362401 2.885228 0.019508 -0.012258 365481.000000 0 1 0
1.580565 6.509942 -21.666731 22.678730 1.332613 2.841729 0.027132 -0.010846 480067.000000 0 1 0
2.512865 7.601042 -21.663131 23.095055 1.251512 2.787607 0.027428 -0.020458 340264.000000 0 1 0
2.497865 8.241942 -20.431631 22.172517 1.276528 2.742682 0.038583 -0.018461 4724.100000 0 1 0
3.113765 9.641242 -20.428231 22.802669 1.258408 2.681182 0.025220 -0.017251 -505668.000000 0 1 0
2.641065 10.509142 -19.441131 22.257019 1.324584 2.633108 0.026030 -0.018222 -247064.000000 0 1 0
3.195365 11.784542 -19.353831 22.883544 1.306014 2.578772 0.025639 -0.021489 307261.000000 0 1 0
4.570965 11.967342 -18.606731 22.590295 1.205944 2.538632 0.018367 -0.018917 533796.000000 0 1 0
5.576965 11.239142 -19.298031 23.018142 1.110186 2.565107 0.028762 -0.008558 -1016910.000000 0 1 0
6.484665 10.898842 -18.313131 22.275691 1.034071 2.535909 0.028235 -0.009169 -320889.000000 0 1 0
7.634465 9.987142 -18.887131 22.688142 0.918124 2.554342 0.051668 -0.012562 165979.000000 0 1 0
7.491965 8.547442 -18.961231 22.106936 0.851109 2.601586 0.051162 -0.015323 141034.000000 0 1 0
6.729965 8.064042 -20.087531 22.667821 0.875332 2.659808 0.039412 -0.014598 214401.000000 0 1 0
6.456365 6.520042 -20.180531 22.168659 0.790305 2.714848 0.048942 -0.017792 -159963.000000 0 1 0
7.593365 5.736242 -20.464831 22.569293 0.646966 2.706321 0.049252 -0.005369 -19055.100000 0 1 0
7.289365 4.436242 -20.880331 22.556669 0.546713 2.753634 0.046075 0.000187 -179030.000000 0 1 0
7.421065 4.259342 -22.423831 24.000883 0.521047 2.777064 0.058226 -0.007738 -683567.000000 0 1 0
6.426265 4.936042 -23.104931 24.484674 0.654988 2.804284 0.054523 -0.009177 -560927.000000 0 1 0
6.415465 4.731142 -24.504231 25.768183 0.635426 2.827086 0.059698 -0.013384 -124516.000000 0 0 1
5.234465 5.518742 -25.121051 26.247349 0.811829 2.847581 0.039251 -0.023989 -16595.200000 0 0 1
5.266865 6.930742 -25.282261 26.738882 0.920972 2.809998 0.060228 -0.032777 42116.700000 0 0 1
5.295465 7.668842 -24.075831 25.816637 0.966463 2.772265 0.065764 -0.031983 -1253090.000000 0 0 1
5.232165 9.201842 -24.296931 26.502647 1.053785 2.730723 0.072858 -0.037532 357521.000000 0 0 1
4.038665 9.627642 -24.939131 27.036320 1.173605 2.745125 0.075281 -0.039784 -275558.000000 0 0 1
2.834965 9.427442 -24.287531 26.206829 1.278685 2.756500 0.052942 -0.036625 -1446840.000000 0 0 1
1.624565 9.561942 -25.221821 27.022402 1.402504 2.774479 0.057970 -0.023983 -217133.000000 0 0 1
1.550265 10.837342 -25.782421 28.010437 1.428712 2.740046 0.075978 -0.034843 506109.000000 0 0 1
0.232865 10.994142 -26.306281 28.512205 1.549619 2.745647 0.085981 -0.035089 253912.000000 0 0 1
-0.020335 12.430842 -26.783301 29.527470 -1.569160 2.707053 0.084112 -0.032576 -221220.000000 0 0 1
-0.051235 13.355342 -25.672451 28.938600 -1.566960 2.661897 0.076083 -0.031443 78536.300000 0 0 1
-0.477935 14.666642 -26.031881 29.883066 -1.538221 2.628285 0.076891 -0.031878 131594.000000 0 0 1
-1.043035 15.497442 -24.811031 29.271930 -1.503594 2.582251 0.078782 -0.027384 843647.000000 0 0 1
-2.309335 15.025142 -24.307731 28.669735 -1.418292 2.582720 0.070249 -0.021334 454210.000000 0 0 1
-2.584435 15.696842 -23.084031 28.034669 -1.407614 2.538191 0.071002 -0.026481 -416454.000000 0 0 1
-3.922835 15.364242 -22.372031 27.421823 -1.320815 2.524990 0.062845 -0.022039 536092.000000 0 0 1
-5.164235 15.727942 -22.941131 28.290157 -1.253539 2.516524 0.057430 -0.017192 12943.100000 0 0 1
-5.430335 15.233142 -24.232431 29.133278 -1.228359 2.553100 0.056183 -0.019522 -1337480.000000 0 0 1
-6.878435 15.449342 -24.661331 29.902781 -1.151920 2.540498 0.031430 -0.013360 -450848.000000 0 0 1
-7.337535 16.750942 -25.038531 31.005831 -1.157935 2.510770 0.029311 -0.010244 217371.000000 0 0 1
-8.613235 16.554742 -25.637471 31.710050 -1.091050 2.512390 0.015410 -0.000914 374665.000000 0 0 1
-9.428435 17.812342 -26.064471 32.947406 -1.083969 2.483391 0.012836 -0.003852 381515.000000 0 0 1
-9.871235 18.649042 -24.972331 32.693201 -1.083972 2.440036 0.012805 -0.001310 -239931.000000 0 0 1
-10.825735 19.528242 -25.484791 33.882494 -1.064610 2.422118 0.019878 0.000965 62278.300000 0 0 1
-11.409835 20.575942 -24.456431 33.936275 -1.064487 2.375547 0.020097 0.002574 9479.160000 0 0 1
-10.554935 21.673542 -24.254631 34.197021 -1.117606 2.359246 0.018665 0.004600 -199774.000000 0 0 1
-10.983535 22.908242 -24.752531 35.469894 -1.123717 2.343182 0.023868 -0.010048 -392142.000000 0 0 1
-10.525935 23.345142 -26.177361 36.620284 -1.147208 2.367181 0.029966 -0.013606 -426199.000000 0 0 1
-11.093335 22.580842 -27.210291 37.058824 -1.114155 2.395352 0.028987 -0.011983 155817.000000 0 0 1
-10.726035 23.049042 -28.516871 38.203640 -1.135245 2.413498 0.041894 -0.016797 -258648.000000 0 0 1
-11.407835 22.297442 -29.701241 38.852006 -1.097895 2.441017 0.054142 -0.026284 194701.000000 0 0 1
-10.788135 21.037042 -30.080431 38.259291 -1.096948 2.475473 0.045310 -0.022633 178991.000000 0 0 1
-10.665535 20.002642 -29.103211 36.889785 -1.080938 2.479851 0.030236 -0.013188 -255620.000000 0 0 1
-9.673935 18.929342 -29.504051 36.364736 -1.098344 2.517232 0.022379 -0.014074 -326503.000000 0 0 1
-8.308135 19.315542 -29.594211 36.303342 -1.164591 2.523858 0.024895 -0.017940 293537.000000 0 0 1
-7.435835 18.376442 -30.178861 36.107464 -1.186297 2.560397 0.022561 -0.010461 351796.000000 0 0 1
-7.090135 17.115042 -29.332901 34.693137 -1.178055 2.578289 0.026245 -0.015666 -801638.000000 0 0 1
-8.201335 16.268842 -29.308581 34.509855 -1.103864 2.585419 0.013644 -0.013986 -213266.000000 0 0 1
-7.876835 14.987742 -28.747141 33.362780 -1.086917 2.609314 0.004147 -0.004786 575824.000000 0 0 1
-9.167035 14.074142 -28.650001 33.210519 -0.993481 2.611338 0.003393 0.003130 573730.000000 0 0 1
-10.038335 14.669242 -27.737691 32.944413 -0.970677 2.571692 0.005488 -0.002068 -1310850.000000 0 0 1
-11.238035 13.998442 -27.634021 32.952829 -0.894347 2.565492 0.027022 -0.008184 -893454.000000 0 0 1
-12.243735 14.606142 -26.685761 32.792961 -0.873158 2.521397 0.019651 -0.005853 -287172.000000 0 0 1
-12.680035 15.891842 -27.146911 33.915907 -0.897340 2.498789 0.012519 -0.001753 -846813.000000 0 0 1
-13.727635 16.271642 -26.336301 33.864658 -0.869998 2.461784 0.005386 -0.000815 -660881.000000 0 0 1
-14.652835 17.345542 -26.943411 35.235221 -0.869352 2.441330 -0.008637 0.006970 -204252.000000 0 0 1
-14.049535 18.627742 -27.059631 35.729622 -0.924596 2.430033 -0.000503 0.006639 148340.000000 0 0 1
-14.935535 19.699642 -27.383541 36.891794 -0.922091 2.407243 -0.008045 -0.000928 -204977.000000 0 0 1
-14.273235 21.104342 -27.289271 37.333937 -0.976142 2.390511 0.009260 -0.003394 -213128.000000 0 0 1
-15.234135 22.077542 -27.603831 38.489846 -0.966794 2.370532 0.003183 -0.010645 27182.500000 0 0 1
-14.766335 23.419142 -27.661711 39.136570 -1.008234 2.355760 0.020153 -0.012748 -203050.000000 0 0 1
-14.365435 24.034742 -26.341951 38.443894 -1.032074 2.325682 -0.004980 -0.007346 -112858.000000 0 0 1
-14.113735 25.449842 -26.394861 39.288430 -1.064451 2.307463 0.019410 -0.016088 106592.000000 0 0 1
-13.757535 25.997342 -25.126461 38.684243 -1.084070 2.277759 0.033889 -0.020417 -51486.900000 0 0 1
-13.366235 27.487942 -25.170161 39.595205 -1.118203 2.259695 0.058807 -0.027266 43952.800000 0 0 1
-14.376835 28.360142 -25.642281 40.847493 -1.101614 2.249464 0.060646 -0.032314 48658.300000 0 0 1
-14.998135 29.109542 -24.608731 40.962167 -1.095038 2.215257 0.060795 -0.026870 805211.000000 0 0 1
-16.476535 29.582542 -24.836031 41.993231 -1.062619 2.203627 0.056147 -0.027626 1637600.000000 0 0 1
-17.449035 28.519242 -24.898031 41.686064 -1.021721 2.210895 0.038759 -0.020745 -191484.000000 0 0 1
-18.711135 28.812542 -25.400141 42.725125 -0.994836 2.207442 0.024903 -0.012845 283840.000000 0 0 1
-19.766335 27.638742 -25.241521 42.328979 -0.949963 2.209703 0.025277 -0.004008 467416.000000 0 0 1
-20.189035 27.654742 -23.893231 41.752466 -0.940193 2.180054 0.037560 -0.009666 276176.000000 0 0 1
-21.281935 26.744042 -23.674131 41.576785 -0.898644 2.176581 0.048004 -0.021002 704085.000000 0 0 1
-21.808035 26.609442 -22.219031 40.955319 -0.884242 2.144229 0.047550 -0.013215 99689.600000 0 0 1
-22.636435 27.664242 -21.781931 41.858942 -0.885022 2.118075 0.040902 -0.007971 -6685.500000 0 0 1
-23.175835 27.514642 -20.491731 41.401521 -0.870784 2.088575 0.029484 -0.007795 567630.000000 0 0 1
-24.534535 28.282742 -20.224631 42.554584 -0.856245 2.066060 0.016036 -0.003107 884646.000000 0 0 1
-25.608965 27.628942 -20.905131 43.083663 -0.823322 2.077413 0.003969 -0.007599 -753067.000000 0 0 1
-26.639465 28.557242 -20.999131 44.341185 -0.820129 2.064148 0.009990 -0.006259 -437351.000000 0 0 1
-27.953655 27.820842 -21.357631 44.850357 -0.783017 2.067122 0.002000 -0.006355 -199221.000000 0 0 1
-27.976855 27.338542 -22.697631 45.224803 -0.773859 2.096573 -0.004895 -0.002688 -293057.000000 0 0 1
-29.250615 26.815742 -22.985131 45.858465 -0.741997 2.095803 -0.012993 0.000864 -80646.400000 0 0 1
-29.484875 26.572142 -24.509931 46.649473 -0.733485 2.123989 -0.015443 0.008782 -144824.000000 0 0 1
-28.964635 25.297242 -24.870731 45.797967 -0.717914 2.144865 0.000855 0.009714 53221.700000 0 0 1
-28.885615 25.141342 -26.274001 46.441242 -0.716205 2.172135 0.028262 0.009957 -247589.000000 0 0 1
-28.819805 23.608942 -26.732791 45.854176 -0.686334 2.193207 0.038861 0.004060 919549.000000 0 0 1
-27.598755 22.877142 -26.461121 44.556098 -0.692128 2.206673 0.024460 -0.001293 955285.000000 0 0 1
-27.828815 21.563842 -26.989311 44.360626 -0.659232 2.224848 0.051029 -0.013801 226659.000000 0 0 1
-26.775075 20.486442 -26.588341 42.936451 -0.653115 2.238582 0.050874 -0.013829 130162.000000 0 0 1
-26.847075 20.002042 -25.214731 41.912168 -0.640317 2.216310 0.051750 -0.003616 53468.000000 0 0 1
-26.145225 18.781042 -25.138101 40.843904 -0.622926 2.233775 0.049452 -0.005757 342920.000000 0 0 1
-27.073965 17.487142 -25.205411 40.915920 -0.573489 2.234488 0.049689 -0.007886 438035.000000 0 0 1
-27.818215 17.426742 -26.415671 42.134690 -0.559642 2.248408 0.055111 -0.007536 164162.000000 0 0 1
-28.478975 16.183242 -26.441641 42.096434 -0.516748 2.249932 0.038919 -0.011463 -295972.000000 0 0 1
-29.276925 16.026642 -27.753131 43.407694 -0.500857 2.264462 0.038211 -0.008834 272715.000000 0 0 1
-30.511615 16.731842 -27.849291 44.570127 -0.501596 2.245726 0.025236 -0.009695 425788.000000 0 0 1
-31.312005 16.170942 -28.862001 45.551687 -0.476717 2.257007 0.028176 -0.004772 -88745.200000 0 0 1
-32.643825 16.858342 -29.158441 46.904560 -0.476707 2.241650 0.020808 -0.003542 237677.000000 0 0 1
-33.728755 16.635542 -28.245291 47.033676 -0.458205 2.214964 0.008773 -0.002238 714699.000000 0 0 1
-34.954685 17.061342 -28.828091 48.414649 -0.454081 2.208611 0.009151 0.000368 190233.000000 0 0 1
36.001425 16.699442 -27.943601 48.536778 0.434316 2.184281 0.010244 0.008687 -211613.000000 0 0 1
35.971405 17.437142 -26.721431 48.083581 0.451373 2.160036 0.009047 0.002205 239854.000000 0 0 1
34.893035 17.032442 -25.885121 46.665485 0.454109 2.158793 0.024717 -0.000576 148904.000000 0 0 1
34.459215 18.187542 -24.965331 46.276257 0.485639 2.140621 0.035967 -0.004639 81430.000000 0 0 1
33.737735 19.190142 -25.712581 46.557847 0.517165 2.155883 0.039421 -0.010888 484729.000000 0 0 1
33.179975 20.193942 -24.897331 46.136570 0.546732 2.140811 0.042895 -0.012078 -308163.000000 0 0 1
32.553665 21.369542 -25.724271 46.670511 0.580889 2.154585 0.045715 -0.014467 62110.800000 0 0 1
31.267895 21.158442 -26.262161 45.989804 0.594905 2.178572 0.039958 -0.012126 -29952.500000 0 0 1
30.236045 21.590142 -25.364831 44.985857 0.620095 2.169825 0.044886 -0.009482 315980.000000 0 0 1
28.857195 21.304142 -26.035921 44.322380 0.635946 2.198665 0.024920 -0.007766 340634.000000 0 0 1
28.495295 19.919842 -26.061521 43.450947 0.610093 2.214037 0.031286 -0.014495 49372.100000 0 0 1
27.163185 19.737742 -26.503081 42.776517 0.628380 2.238992 0.030091 -0.011356 -56549.800000 0 0 1
26.860205 18.205442 -26.446961 41.861086 0.595660 2.254643 0.050029 -0.008496 -300172.000000 0 0 1
27.627315 17.392342 -27.279301 42.543182 0.561853 2.266876 0.040067 -0.006576 224732.000000 0 0 1
28.813565 16.895742 -26.650011 42.730676 0.530346 2.244230 0.035203 -0.007685 44892.200000 0 0 1
29.479525 15.858042 -27.568071 43.364945 0.493532 2.259740 0.018601 0.001558 -580836.000000 0 0 1
28.686925 14.826442 -28.069761 42.786383 0.477026 2.286362 0.026689 -0.000469 -138538.000000 0 0 1
28.050775 13.910142 -27.229651 41.494481 0.460355 2.286599 0.043379 -0.007095 163603.000000 0 0 1
29.033495 12.963142 -26.432131 41.347847 0.419931 2.264335 0.031911 -0.007780 439052.000000 0 0 1
29.662275 13.486642 -25.270461 41.235134 0.426733 2.230444 0.035977 -0.014437 198932.000000 0 0 1
30.487715 12.613042 -24.535231 41.116507 0.392268 2.210209 0.033991 -0.019984 83966.700000 0 0 1
-14.486235 -31.227767 -24.533131 42.271728 1.136452 2.189976 0.093414 -0.012343 -33575.800000 0 0 1
-13.712835 -30.116567 -24.931931 41.432483 1.143523 2.216485 0.083496 -0.016669 72753.200000 0 0 1
-13.633535 -29.853967 -26.312261 42.065042 1.142406 2.246586 0.065931 -0.008064 82554.700000 0 0 1
-13.000835 -28.473367 -26.613621 41.085754 1.142470 2.275434 0.057206 -0.009873 193644.000000 0 0 1
-13.827435 -27.352967 -26.213371 40.330182 1.102744 2.278340 0.061359 -0.006320 336371.000000 0 0 1
-13.248235 -26.087567 -26.535221 39.499302 1.100899 2.307418 0.048963 -0.008928 -109255.000000 0 0 1
-13.880035 -24.814667 -25.919331 38.473820 1.060804 2.309984 0.022160 -0.003573 -116085.000000 0 0 1
-13.351935 -24.600667 -24.600831 37.264835 1.073539 2.291831 0.033422 -0.006397 152955.000000 0 0 1
-13.736435 -23.361467 -24.095731 36.263647 1.039251 2.297567 0.027543 0.003423 -360190.000000 0 0 1
-13.027835 -22.917067 -22.836031 34.876938 1.053878 2.284662 0.033778 -0.002084 -295467.000000 0 0 1
-11.684335 -22.543667 -22.999631 34.259651 1.092618 2.306802 0.047054 -0.010214 -355740.000000 0 0 1
-11.080335 -22.217367 -21.738031 32.998898 1.108170 2.289953 0.042283 -0.006727 272468.000000 0 0 1
-9.589535 -21.953367 -22.063531 32.568527 1.158962 2.315086 0.046633 -0.010638 -71188.800000 0 0 1
-9.430835 -20.802867 -22.855831 32.312365 1.145166 2.356524 0.057881 -0.008335 441423.000000 0 0 1
-8.047635 -20.462067 -22.984731 31.808151 1.196083 2.378360 0.070288 -0.010342 648961.000000 0 0 1
-7.716035 -19.257767 -23.892231 31.642337 1.189711 2.426560 0.077731 0.004152 -96629.900000 0 0 1
-8.028835 -18.071967 -23.202031 30.485939 1.152718 2.435762 0.059575 0.001835 -111633.000000 0 0 1
-8.203835 -16.912067 -24.022031 30.502113 1.119150 2.477624 0.059714 -0.005229 200517.000000 0 0 1
-6.918835 -16.313767 -24.710031 30.407153 1.169680 2.519462 0.059808 -0.007098 486524.000000 0 0 1
-6.478435 -17.052967 -25.830691 31.622752 1.207736 2.526706 0.070012 -0.004074 -191112.000000 0 0 1
-5.441735 -16.415267 -26.537101 31.674773 1.250693 2.564036 0.049103 -0.007561 -292593.000000 0 0 1
-5.137835 -17.053567 -27.910341 33.109042 1.278169 2.573600 0.064685 -0.002369 217417.000000 0 0 1
-6.155235 -17.005267 -28.927201 34.115231 1.223506 2.582857 0.088096 -0.009735 371472.000000 0 0 1
-5.909535 -17.995867 -29.952081 35.438694 1.253508 2.577698 0.083945 -0.017222 201097.000000 0 0 1
-6.797335 -17.671267 -31.205581 36.500216 1.203588 2.596236 0.089135 -0.016215 254838.000000 0 0 1
-6.453235 -16.502267 -31.870581 36.465093 1.198028 2.634175 0.084164 -0.017529 15215.300000 0 0 1
-6.772535 -15.188667 -31.277651 35.423923 1.151362 2.652912 0.070833 -0.018925 -444155.000000 0 0 1
-7.474835 -14.321267 -32.290791 36.106330 1.089752 2.677716 0.052729 -0.020182 -246601.000000 0 0 1
-6.763735 -13.901767 -33.501551 36.896628 1.117976 2.709244 0.063039 -0.030425 195433.000000 0 0 1
-7.528935 -13.109467 34.080885 37.283371 1.049479 0.417503 0.064327 -0.022779 -472753.000000 0 0 1
-7.731735 -11.594967 -34.028901 36.772124 0.982689 2.752884 0.044858 -0.018845 503132.000000 0 0 1
-6.574235 -10.755067 -34.116842 36.371018 1.022132 2.787677 0.034045 -0.017787 196201.000000 0 0 1
-6.161735 -10.482867 33.063016 35.228121 1.039402 0.352419 0.031817 -0.022400 -10303.700000 0 0 1
-5.038435 -9.419567 33.013111 34.698409 1.079628 0.312948 0.041217 -0.018583 90728.000000 0 0 1
-4.838435 -8.835167 31.753052 33.312564 1.069772 0.307195 0.037795 -0.011299 228690.000000 0 0 1
-3.697535 -7.983967 31.789782 32.984932 1.137086 0.270015 0.029577 -0.013481 -283711.000000 0 0 1
-3.667535 -6.940967 30.561252 31.553414 1.084696 0.251436 0.022125 -0.009791 13170.600000 0 0 1
-4.591935 -5.859167 30.563792 31.457290 0.906063 0.238910 0.029381 -0.007300 754601.000000 0 0 1
-5.910735 -6.323267 30.213952 31.429340 0.819106 0.279007 0.022337 -0.006309 -178156.000000 0 0 1
-7.076935 -5.386867 30.475582 31.746849 0.650622 0.283951 0.017492 -0.004700 -239529.000000 0 0 1
-8.216435 -6.058067 29.983142 31.673314 0.635331 0.328159 0.026457 -0.005453 -807170.000000 0 0 1
-9.403735 -5.356467 29.870072 31.770162 0.517775 0.347601 0.024384 -0.008577 -420076.000000 0 0 1
-10.531635 -5.996567 29.073452 31.498250 0.517605 0.394944 0.036045 -0.011672 -198954.000000 0 0 1
-10.333535 -5.826767 27.682532 30.117366 0.513429 0.404866 0.031337 -0.004391 299986.000000 0 0 1
-11.212335 -6.659867 26.955552 29.944483 0.535979 0.450604 0.035743 -0.013866 -59919.200000 0 0 1
-10.941335 -6.595667 25.430062 28.458807 0.542491 0.465551 0.029436 -0.015729 85755.500000 0 0 1
-9.703335 -7.083467 24.942942 27.685386 0.630580 0.448860 0.037807 -0.013877 31497.400000 0 0 1
-9.209635 -6.479467 23.786082 26.316888 0.613107 0.442151 0.033563 -0.015116 -187341.000000 0 0 1
-10.051535 -6.692167 22.496732 25.532752 0.587392 0.492628 0.031033 -0.019992 -302746.000000 0 0 1
-11.262935 -6.002867 22.558132 25.918284 0.489679 0.514872 0.026637 -0.015519 -221004.000000 0 0 1
-11.978935 -6.039267 21.302732 25.174869 0.466968 0.562001 0.026411 -0.016932 224445.000000 0 0 1
-13.158935 -5.069567 21.166032 25.433423 0.367732 0.587709 0.031290 -0.011154 201478.000000 0 0 1
-12.773035 -3.816867 20.630432 24.562851 0.290376 0.573690 0.025134 -0.008736 -704344.000000 0 1 0
-13.818335 -2.992967 20.931232 25.259072 0.213299 0.594083 0.036380 -0.007551 -648915.000000 0 0 1
-13.662235 -1.513967 20.471632 24.658396 0.110364 0.591313 0.037705 -0.009677 645667.000000 0 1 0
-12.637735 -0.787967 21.216332 24.707610 0.062270 0.538076 0.031198 -0.011023 631671.000000 0 1 0
-12.584035 0.637033 20.989632 24.481185 -0.050579 0.540643 0.038953 -0.020442 -464352.000000 0 1 0
-12.129235 1.125033 19.622332 23.095886 -0.092489 0.555564 0.034109 -0.027765 13332.900000 0 1 0
-12.964635 0.779033 18.503632 22.606925 -0.060017 0.612012 0.045232 -0.024021 -207021.000000 0 1 0
-14.105735 1.582033 18.438332 23.269007 -0.111689 0.656065 0.047946 -0.020870 -251888.000000 0 1 0
-15.269035 1.062033 17.556332 23.291546 -0.069443 0.717025 0.060517 -0.017210 225676.000000 0 1 0
-15.673035 -0.224967 17.977032 23.850960 0.014353 0.717087 0.050851 -0.017105 188762.000000 0 1 0
-16.553135 -0.872967 17.077732 23.799523 0.052688 0.770495 0.049629 -0.013396 -33113.000000 0 1 0
-16.550235 -2.418967 17.290732 24.056831 0.145131 0.768800 0.044215 -0.008675 2526.380000 0 1 0
-17.292235 -2.822967 18.443332 25.439085 0.161823 0.759762 0.058327 -0.007161 202291.000000 0 0 1
-17.065535 -4.212467 18.675632 25.646766 0.242003 0.755124 0.060988 -0.002946 -196677.000000 0 0 1
-17.761335 -4.705867 19.953032 27.124411 0.258999 0.744227 0.054594 -0.000811 -404569.000000 0 0 1
-17.184635 -4.299267 21.160332 27.596287 0.245149 0.696984 0.052375 -0.002947 190522.000000 0 0 1
-18.013035 -4.414367 22.322532 29.021570 0.240329 0.693254 0.047064 -0.001337 -124659.000000 0 0 1
-18.294835 -5.879667 22.861832 29.865278 0.310958 0.698980 0.057300 -0.000446 440126.000000 0 0 1
-17.169435 -6.532167 23.455002 29.792547 0.363543 0.664415 0.032484 -0.006406 601465.000000 0 0 1
-16.255235 -7.150167 22.538132 28.693640 0.414397 0.667333 0.039984 0.000564 -184995.000000 0 0 1
-15.163235 -7.764067 23.428252 28.967006 0.473227 0.628703 0.040015 -0.001751 -307914.000000 0 0 1
-15.653135 -8.872767 24.154432 30.119482 0.515678 0.640238 0.038814 -0.010789 212801.000000 0 0 1
-14.859235 -9.035967 25.308262 30.707551 0.546357 0.602060 0.046968 -0.008687 65436.800000 0 0 1
-15.494235 -9.903267 26.402282 32.174936 0.568716 0.608362 0.038070 -0.009041 -283638.000000 0 0 1
-15.328835 -11.260367 26.132532 32.321483 0.633564 0.629165 0.046610 -0.016308 71550.100000 0 0 1
-14.834335 -11.950767 27.274002 33.267845 0.678156 0.609681 0.043256 -0.020356 -254014.000000 0 0 1
-14.895835 -13.477167 27.037982 33.683415 0.735439 0.638972 0.032098 -0.021467 -407923.000000 0 0 1
-16.175835 -14.025367 27.212822 34.625226 0.714313 0.666606 0.040082 -0.018819 -333012.000000 0 0 1
-16.272135 -15.429667 27.067942 35.150114 0.758830 0.691850 0.046961 -0.012464 180133.000000 0 0 1
-15.314635 -16.423167 27.833722 35.762754 0.820312 0.678862 0.040394 -0.013088 -282548.000000 0 0 1
-14.019435 -16.408067 27.354652 34.843166 0.863740 0.667972 0.042741 -0.016822 -274175.000000 0 0 1
-13.124735 -17.361667 27.971942 35.441723 0.923491 0.661230 0.047879 -0.019447 1593750.000000 0 0 1
-11.621835 -17.273067 27.484822 34.479579 0.978539 0.648264 0.045044 -0.022194 655902.000000 0 0 1
-10.720635 -17.929367 28.325282 35.195395 1.031895 0.635457 0.057294 -0.031258 -215866.000000 0 0 1
-9.655135 -18.377367 27.483392 34.442504 1.087050 0.646910 0.044267 -0.023654 -473082.000000 0 0 1
-8.619835 -19.099267 28.304012 35.216483 1.146847 0.637284 0.051829 -0.031679 -839583.000000 0 0 1
-9.045535 -20.333667 28.892012 36.469550 1.152229 0.656353 0.050919 -0.020555 -567476.000000 0 0 1
-7.990035 -21.024667 29.442822 37.050736 1.207622 0.652345 0.060958 -0.024001 -698627.000000 0 0 1
-8.384635 -22.339367 30.108342 38.416945 1.211736 0.670155 0.051334 -0.019078 -203263.000000 0 0 1
-8.298435 -23.518167 29.286452 38.466407 1.231583 0.705401 0.050899 -0.022163 52522.500000 0 0 1
-8.636135 -24.622867 30.086092 39.825135 1.233466 0.714448 0.044967 -0.019963 -236342.000000 0 0 1
-8.772335 -25.960067 29.346062 40.150596 1.244927 0.751157 0.041467 -0.016934 -369863.000000 0 0 1
-9.803135 -26.010267 28.396852 39.736843 1.210365 0.774712 0.047357 -0.022077 -126261.000000 0 0 1
-9.814035 -27.229567 27.679462 40.048936 1.224870 0.807730 0.041391 -0.018877 -539119.000000 0 0 1
-10.960035 -27.342367 26.677662 39.741981 1.189562 0.834873 0.031454 -0.013737 -450820.000000 0 0 1
-10.895135 -26.625167 25.479612 38.429340 1.182380 0.845944 0.040602 -0.011298 71419.900000 0 0 1
-11.278635 -25.267267 25.661592 37.738041 1.150962 0.823044 0.036740 -0.003752 -250225.000000 0 0 1
-11.699735 -24.491667 24.389542 36.490757 1.125145 0.838773 0.046333 -0.023937 244590.000000 0 0 1
-12.979135 -24.862467 23.891012 36.842648 1.089675 0.865236 0.025832 -0.010460 316917.000000 0 0 1
-13.289035 -24.193767 22.688532 35.731027 1.068510 0.882812 0.029557 -0.018176 -370445.000000 0 0 1
-14.586835 -24.615067 22.019932 36.104774 1.035837 0.914875 0.024492 -0.009355 -571380.000000 0 0 1
-14.573335 -25.921867 21.430332 36.654937 1.058633 0.946347 0.033716 -0.006349 156269.000000 0 0 1
-15.733735 -26.106267 20.633532 36.808019 1.028408 0.975720 0.039473 -0.004801 330635.000000 0 0 1
-16.020135 -27.550467 20.129632 37.694497 1.044103 1.007448 0.039526 -0.000226 112529.000000 0 0 1
-15.109635 -27.865967 19.110832 37.014012 1.073942 1.028256 0.028750 0.003655 -159387.000000 0 0 1
-15.220235 -29.179767 18.614232 37.810105 1.090017 1.056057 0.033673 0.009601 114459.000000 0 0 1
-14.264335 -29.419167 17.425132 37.048534 1.119330 1.081129 0.025208 -0.006425 167432.000000 0 0 1
-14.528835 -28.593567 16.260932 35.959659 1.100677 1.101567 0.036423 -0.016291 -112418.000000 0 0 1
-13.528735 -28.888767 15.319332 35.387420 1.132825 1.123085 0.037130 -0.010498 4269.680000 0 0 1
-13.755835 -28.163367 13.978332 34.318975 1.116447 1.151294 0.028966 -0.010576 57481.300000 0 0 1
-13.734835 -26.728467 14.020132 33.160530 1.096118 1.134268 0.028257 -0.015216 -182622.000000 0 0 1
-14.052935 -26.050367 12.794832 32.246153 1.076087 1.162783 0.031677 -0.031796 303104.000000 0 0 1
-13.120435 -26.230067 11.547032 31.519775 1.106984 1.195721 0.034975 -0.025049 239960.000000 0 0 1
-13.689335 -25.688367 10.401832 30.910973 1.081176 1.227589 0.034712 -0.017345 206526.000000 0 0 1
-12.821135 -26.008767 9.323632 30.459278 1.112801 1.259701 0.048461 -0.010292 222444.000000 0 0 1
-13.480435 -25.697367 7.950732 30.088053 1.087675 1.303371 0.064747 -0.013505 124595.000000 0 0 1
-14.523335 -26.539967 7.509832 31.172018 1.070086 1.327487 0.041820 -0.003124 72150.600000 0 0 1
-15.259635 -25.928567 6.456932 30.770750 1.038856 1.359385 0.062706 -0.003945 142042.000000 0 0 1
-16.179835 -26.801667 5.594632 31.802773 1.027670 1.393960 0.072057 -0.018803 -132230.000000 0 0 1
-15.502335 -27.802167 4.861732 32.201232 1.062141 1.419237 0.091745 -0.007525 -113245.000000 0 0 1
-15.944335 -27.874567 3.484932 32.301054 1.051217 1.462697 0.077779 -0.010585 -352646.000000 0 0 1
-15.370835 -28.952467 2.584832 32.881443 1.082736 1.492104 0.070473 -0.014361 -140244.000000 0 0 1
-13.981135 -28.861567 2.351532 32.155745 1.119690 1.497602 0.065033 -0.004956 -114993.000000 0 0 1
-13.504635 -29.854467 1.469332 32.799746 1.145991 1.525984 0.053204 -0.005325 -522508.000000 0 0 1
-12.076535 -29.687567 0.978932 32.064820 1.184452 1.540262 0.033976 -0.006577 -496331.000000 0 0 1
-11.904335 -28.980667 -0.274668 31.331577 1.181042 1.579563 0.036723 -0.005843 1126.230000 0 0 1
-12.145535 -27.530067 -0.245968 30.091180 1.155307 1.578971 0.030457 -0.004954 -283168.000000 0 0 1
-11.734635 -26.787967 -1.549968 29.286503 1.157919 1.623745 0.027995 -0.005274 378363.000000 0 0 1
-10.350035 -26.782067 -1.867568 28.773081 1.202022 1.635749 0.021350 -0.012646 -130826.000000 0 0 1
-10.099235 -26.201367 -3.113968 28.252487 1.202898 1.681240 0.029604 -0.012651 -316054.000000 0 0 1
-8.716635 -26.412367 -3.693568 28.057714 1.252030 1.702821 0.014647 -0.018351 -599570.000000 0 0 1
-8.314035 -25.590967 -4.732568 27.320651 1.256671 1.744898 0.019062 -0.018219 -91134.800000 0 0 1
-7.008335 -25.925367 -5.183468 27.351596 1.306779 1.761462 0.018197 -0.008448 399870.000000 0 0 1
-6.348435 -24.824067 -6.011368 26.318691 1.320425 1.801237 0.016657 -0.009856 -571665.000000 0 0 1
-6.781635 -24.715967 -7.370968 26.668348 1.303004 1.850836 0.022090 -0.009969 -262393.000000 0 0 1
-6.119335 -23.712867 -8.039468 25.775558 1.318247 1.887991 0.012789 -0.003251 -709095.000000 0 0 1
-6.364035 -23.757967 -9.562868 26.389210 1.309071 1.941614 0.026700 -0.005700 243285.000000 0 0 1
-5.564035 -24.690167 -10.331668 27.336902 1.349145 1.958365 0.010538 -0.006696 171985.000000 0 0 1
-5.887135 -24.782367 -11.700268 28.030704 1.337566 2.001389 0.012366 0.000739 44171.400000 0 0 1
-7.231935 -25.418167 -12.132268 29.078790 1.293603 2.001181 0.019112 -0.008299 182769.000000 0 0 1
-7.367135 -25.413867 -13.541668 29.723999 1.288644 2.043820 0.029604 -0.007640 80760.200000 0 0 1
-8.566335 -26.122267 -13.821468 30.769919 1.253915 2.036652 0.044568 -0.009562 -369906.000000 0 0 1
-8.763335 -26.250867 -15.354568 31.649121 1.248599 2.077331 0.051806 -0.013924 52798.000000 0 0 1
-7.689935 -26.680767 -16.156968 32.125474 1.290181 2.097785 0.050344 -0.021055 50025.600000 0 0 1
-6.471735 -25.965967 -16.219168 31.291792 1.326534 2.115682 0.051959 -0.015826 254545.000000 0 0 1
-5.288335 -26.812767 -16.760468 32.059387 1.376064 2.120922 0.053010 -0.013203 -13998.400000 0 0 1
-5.271035 -26.773867 -18.134568 32.764101 1.376410 2.157344 0.090589 -0.020722 -39028.400000 0 0 1
-4.111435 -27.253267 -18.770168 33.346120 1.421065 2.168673 0.090912 -0.022218 -115808.000000 0 0 1
-24.386635 14.729842 -5.665931 29.047874 -0.543365 1.767110 0.053765 -0.016138 11801.800000 0 0 1
-24.746435 13.449542 -5.240431 28.648532 -0.497835 1.754754 0.056390 -0.014032 203090.000000 0 0 1
-23.567935 12.681242 -5.154131 27.254844 -0.493639 1.761051 0.058854 -0.019684 -662974.000000 0 0 1
-23.656835 11.223042 -4.703931 26.603186 -0.442967 1.748549 0.059304 -0.018086 -423195.000000 0 0 1
-24.223235 10.263942 -5.599131 26.897284 -0.400789 1.780497 0.060912 -0.019328 383151.000000 0 0 1
-25.627145 10.386842 -5.737231 28.240979 -0.385072 1.775373 0.083700 -0.015901 -43766.400000 0 0 1
-26.219795 9.818642 -7.101431 28.884489 -0.358310 1.819199 0.084413 -0.009768 140468.000000 0 0 1
-25.780485 10.528542 -8.240731 29.041234 -0.387720 1.858509 0.097533 -0.001377 -129937.000000 0 0 1
-25.897565 9.762442 -9.431531 29.239407 -0.360491 1.899232 0.090119 -0.013266 -339123.000000 0 0 1
-26.225245 10.625042 -10.699231 30.251092 -0.384934 1.932300 0.075396 -0.020577 23974.700000 0 0 1
-25.352055 11.704342 -10.998731 30.011505 -0.432518 1.946023 0.057874 -0.011116 210240.000000 0 0 1
-25.699185 12.251142 -12.303731 31.014842 -0.444845 1.978720 0.053576 -0.018042 -320239.000000 0 0 1
-24.727535 13.316442 -12.763931 30.849580 -0.493992 1.997363 0.039252 -0.015457 -555146.000000 0 0 1
-24.765435 14.533042 -12.018931 31.128617 -0.530678 1.967202 0.042512 -0.013812 -323727.000000 0 0 1
-23.930035 15.507342 -12.528331 31.146161 -0.574988 1.984762 0.032127 -0.009540 -425178.000000 0 0 1
-23.927035 16.853542 -11.782231 31.549419 -0.613654 1.953525 0.030928 -0.013434 -274429.000000 0 0 1
-23.117335 16.842042 -10.636731 30.515662 -0.629629 1.926837 0.029416 -0.007574 -132893.000000 0 0 1
-22.793635 18.140942 -10.275531 30.890616 -0.672222 1.909901 0.005261 -0.006145 -852807.000000 0 0 1
-21.967035 18.276142 -9.008831 29.962094 -0.693939 1.876196 0.023345 -0.008335 -534891.000000 0 0 1
-22.515135 17.842642 -7.756731 29.756648 -0.670135 1.834515 0.037801 -0.012515 255475.000000 0 0 1
-23.415535 18.823342 -7.227531 30.900529 -0.677104 1.806880 0.043637 -0.014561 110938.000000 0 0 1
-23.807235 18.431842 -5.817031 30.665210 -0.658817 1.761648 0.043926 -0.018665 -304004.000000 0 0 1
-22.692935 18.350342 -4.981031 29.605997 -0.679985 1.739844 0.042666 -0.025458 -172097.000000 0 0 1
-23.055635 17.599742 -3.827431 29.256836 -0.651997 1.701994 0.036661 -0.022121 578124.000000 0 0 1
-21.837535 17.197842 -2.905831 27.947944 -0.667095 1.674958 0.037188 -0.027971 266834.000000 0 0 1
-21.259635 18.312242 -2.234831 28.147909 -0.711053 1.650276 0.035893 -0.031397 536885.000000 0 0 1
-20.433235 17.907342 -1.130231 27.193150 -0.719613 1.612371 0.071252 -0.043432 -28334.100000 0 0 1
-19.555335 18.955342 -0.416931 27.237657 -0.769820 1.586104 0.061898 -0.035716 -208310.000000 0 0 1
-20.253635 19.940842 0.290269 28.424130 -0.777616 1.560584 0.041141 -0.030429 633670.000000 0 0 1
-19.398235 21.096842 0.532969 28.664479 -0.827320 1.552202 0.049389 -0.032963 666342.000000 0 0 1
-20.161035 22.164442 1.386669 29.994211 -0.832696 1.524549 0.044367 -0.015259 305027.000000 0 0 1
-20.294135 21.842942 2.789169 29.945709 -0.822138 1.477520 0.030775 -0.019389 -178690.000000 0 0 1
-21.578135 22.096642 3.281969 31.058797 -0.797270 1.464929 0.027718 -0.025352 -442186.000000 0 0 1
-21.691035 21.817342 4.793169 31.136344 -0.788301 1.416240 0.045396 -0.025179 -199840.000000 0 0 1
-20.968935 22.665742 5.676469 31.395134 -0.824265 1.388989 0.040451 -0.017676 -6936.980000 0 0 1
-20.305435 21.913442 6.670569 30.610556 -0.823467 1.351116 0.042893 -0.010721 -23177.400000 0 0 1
-21.046935 21.542142 8.007569 31.163417 -0.797025 1.310927 0.039870 -0.020729 -285544.000000 0 0 1
-22.282035 20.857442 7.829869 31.509187 -0.752387 1.319670 0.048687 -0.015804 687031.000000 0 0 1
-22.746235 20.158642 8.999169 31.697746 -0.725161 1.282931 0.055712 -0.021404 -34152.300000 0 0 1
-23.253235 21.080342 10.107869 32.973668 -0.736425 1.259237 0.046917 -0.025415 -1232270.000000 0 0 1
-24.481735 21.718242 9.868669 34.182277 -0.725653 1.277920 0.055647 -0.024206 241411.000000 0 0 1
-24.901935 22.397742 11.011169 35.256362 -0.732504 1.253165 0.055135 -0.021423 -644309.000000 0 0 1
-25.980865 23.424542 10.779769 36.604890 -0.733703 1.271875 0.062967 -0.033262 -562040.000000 0 0 1
-26.537525 23.802642 12.021269 37.620698 -0.731123 1.245554 0.068851 -0.036281 -150312.000000 0 0 1
-27.183575 25.064342 11.919269 38.848899 -0.744859 1.258956 0.062683 -0.033525 -115410.000000 0 0 1
-27.610425 25.608742 13.283169 39.932266 -0.747804 1.231692 0.060438 -0.033206 -596504.000000 0 0 1
-26.640825 25.494642 14.267369 39.538186 -0.763417 1.201617 0.057344 -0.033198 -133536.000000 0 0 1
-27.102755 26.095042 15.528569 40.701929 -0.766458 1.179357 0.057405 -0.031993 44574.000000 0 0 1
-25.938645 26.211842 16.511169 40.404117 -0.790637 1.149821 0.056560 -0.039153 -219417.000000 0 0 1
-25.629485 24.890742 17.049869 39.586836 -0.770776 1.125533 0.073884 -0.038474 373937.000000 0 0 1
-24.531235 25.010042 17.951869 39.364366 -0.795063 1.097252 0.065461 -0.036514 69669.900000 0 0 1
-24.074935 23.742842 18.654069 38.617345 -0.778453 1.066663 0.071202 -0.029524 -217860.000000 0 0 1
-23.082135 23.941242 19.656369 38.630828 -0.803666 1.036976 0.069875 -0.035577 324313.000000 0 0 1
-22.511835 22.673442 19.880669 37.631220 -0.788975 1.014196 0.076686 -0.035500 -108875.000000 0 0 1
-21.070135 22.681242 20.465769 37.111145 -0.822206 0.986668 0.065156 -0.039048 -712668.000000 0 0 1
-20.162235 22.909942 19.413869 36.170146 -0.849105 1.004231 0.055083 -0.032437 155005.000000 0 0 1
-18.800035 22.662942 19.737469 35.448808 -0.878295 0.980282 0.050648 -0.032319 291185.000000 0 0 1
-18.466835 21.166742 19.712669 34.316822 -0.853415 0.958887 0.052055 -0.022299 -1089360.000000 0 0 1
-18.984035 20.406842 20.774469 34.762212 -0.821503 0.930271 0.065411 -0.021449 165355.000000 0 0 1
-18.239235 20.414442 22.001569 35.121051 -0.841613 0.893806 0.064275 -0.025000 616356.000000 0 0 1
-19.240335 20.259442 23.225969 36.332921 -0.811193 0.877268 0.064161 -0.019838 420482.000000 0 0 1
-20.072635 21.391642 23.377369 37.510191 -0.817198 0.897934 0.055742 -0.023453 -139971.000000 0 0 1
-20.857235 21.173242 24.539369 38.542328 -0.792917 0.880603 0.069866 -0.025695 603744.000000 0 0 1
-22.045135 22.174742 24.749569 39.877918 -0.788329 0.901246 0.074147 -0.024889 -22536.400000 0 0 1
-21.470635 23.450142 25.031269 40.465563 -0.829436 0.903860 0.069091 -0.032783 730641.000000 0 0 1
-22.391635 24.553242 25.230269 41.723057 -0.831411 0.921397 0.058537 -0.030223 218803.000000 0 0 1
-23.241435 24.921942 24.005469 41.683691 -0.820276 0.957097 0.052510 -0.036960 365442.000000 0 0 1
-24.308335 24.021942 23.669969 41.571821 -0.779472 0.965051 0.047505 -0.038962 290760.000000 0 0 1
-24.927535 24.437442 22.491369 41.526284 -0.775471 0.998436 0.044188 -0.031881 -307735.000000 0 0 1
-25.986785 23.509342 21.893969 41.320068 -0.735387 1.012357 0.043127 -0.027629 481461.000000 0 0 1
-27.226795 23.543842 22.626969 42.515769 -0.712984 1.009597 0.031875 -0.020795 840075.000000 0 0 1
-28.129455 22.563742 22.094769 42.291459 -0.676044 1.021086 0.037768 -0.015765 554589.000000 0 0 1
-29.593325 22.780642 22.562069 43.632207 -0.656047 1.027341 0.041181 -0.005615 -549080.000000 0 0 1
-30.304705 23.722842 21.877869 44.269510 -0.664171 1.053885 0.032891 -0.006586 546080.000000 0 0 1
-31.731285 23.645642 22.026969 45.289935 -0.640412 1.062884 0.015555 0.001063 1088650.000000 0 0 1
-32.428965 22.710042 20.993169 44.811795 -0.610928 1.083233 0.012163 -0.003898 -989319.000000 0 0 1
-32.178915 21.347142 21.339569 44.119840 -0.585730 1.065950 0.007058 -0.000060 462110.000000 0 0 1
-32.652215 20.347042 20.389669 43.542024 -0.557264 1.083458 -0.005038 0.012493 1515660.000000 0 0 1
-34.248982 20.278042 20.303069 44.681164 -0.534574 1.099099 -0.006982 0.013129 1207240.000000 0 0 1
-34.798456 19.462542 19.308969 44.300783 -0.509950 1.119802 -0.002073 0.016604 312764.000000 0 0 1
35.952685 19.607642 19.414369 45.320778 0.499284 1.128101 0.017498 0.010242 290355.000000 0 0 1
35.237585 18.930942 18.238469 43.962594 0.492992 1.143004 0.019516 0.004937 -453199.000000 0 0 1
35.189615 17.490842 18.321469 43.357984 0.461281 1.134525 0.033985 0.001748 65622.900000 0 0 1
34.516435 16.885442 17.290369 42.136199 0.454970 1.147964 0.047637 -0.006971 -473804.000000 0 0 1
34.673055 15.352642 17.349069 41.700294 0.416836 1.141708 0.049265 -0.011996 -264753.000000 0 0 1
33.973455 14.703442 16.364069 40.474308 0.408452 1.154575 0.058782 -0.026200 -179716.000000 0 0 1
34.273995 13.322242 16.467469 40.291021 0.370726 1.149753 0.053681 -0.029303 431434.000000 0 0 1
33.423765 12.380342 15.550369 38.887464 0.354736 1.159409 0.060640 -0.039453 215000.000000 0 0 1
33.873075 12.561742 14.229969 38.828785 0.355125 1.195573 0.066474 -0.043334 798145.000000 0 0 1
32.903245 12.030442 13.314369 37.478360 0.350531 1.207610 0.073957 -0.036690 27614.900000 0 0 1
33.027965 12.542442 11.819669 37.254045 0.362930 1.247945 0.081307 -0.037898 -542624.000000 0 0 1
34.267435 12.192842 11.274769 38.079429 0.341845 1.270204 0.070249 -0.037155 -34042.100000 0 0 1
34.349925 12.541942 9.893769 37.882771 0.350083 1.306564 0.059180 -0.029961 -1500990.000000 0 0 1
35.713155 12.397042 9.261969 38.921718 0.334114 1.330527 0.051454 -0.019878 -931140.000000 0 0 1
-35.956347 11.045942 9.401169 38.771816 -0.298053 1.325881 0.062091 -0.023448 630811.000000 0 0 1
-34.586576 10.853242 9.078169 37.368934 -0.304068 1.325407 0.063123 -0.010904 315547.000000 0 0 1
-34.235888 10.664842 7.558169 36.646430 -0.301983 1.363060 0.073119 -0.012606 -312203.000000 0 0 1
-34.744567 11.742742 6.809769 37.302143 -0.325921 1.387210 0.050366 -0.018627 68019.100000 0 0 1
-34.308832 11.643642 5.499269 36.645768 -0.327180 1.420162 0.055139 -0.024020 -358760.000000 0 0 1
-35.161782 12.480642 4.586069 37.591879 -0.341077 1.448495 0.063772 -0.015576 -519624.000000 0 0 1
35.658615 12.080942 4.439069 37.910306 0.326658 1.453433 0.067154 -0.027794 -45010.600000 0 0 1
34.734715 13.127642 4.350469 37.386655 0.361346 1.454168 0.054356 -0.025237 70539.400000 0 0 1
34.453975 13.932342 5.683569 37.596403 0.384273 1.419041 0.062028 -0.024755 -1323700.000000 0 0 1
33.570405 14.992842 5.450169 37.168020 0.420030 1.423630 0.061634 -0.013485 39820.500000 0 0 1
33.122395 15.613042 6.647469 37.216246 0.440486 1.391215 0.042164 -0.015495 -45604.200000 0 0 1
31.970805 14.949342 7.434569 36.067825 0.437388 1.363181 0.072426 -0.030771 -368157.000000 0 0 1
32.351375 13.713442 8.062469 36.050983 0.400931 1.345248 0.093126 -0.028933 351918.000000 0 0 1
31.236125 12.819542 8.220169 34.750645 0.389446 1.331986 0.105698 -0.028939 87993.400000 0 0 1
31.117475 11.722242 7.098069 34.001335 0.360268 1.360491 0.105610 -0.034707 -134954.000000 0 0 1
30.756515 12.120042 5.782369 33.560310 0.375379 1.397634 0.107941 -0.036855 258500.000000 0 0 1
30.915375 10.988242 4.920669 33.177023 0.341504 1.421932 0.107554 -0.035644 -197680.000000 0 0 1
30.396295 11.126042 3.473169 32.554361 0.350886 1.463905 0.087358 -0.030599 -1146730.000000 0 0 1
29.018955 11.143242 3.427369 31.273286 0.366637 1.460982 0.076845 -0.024274 -956348.000000 0 0 1
28.612005 11.497042 2.116969 30.908095 0.382079 1.502250 0.079091 -0.018771 -522351.000000 0 0 1
27.100305 11.356042 1.954769 29.448384 0.396809 1.504368 0.097173 -0.004963 -480542.000000 0 0 1
26.782205 10.021842 1.630769 28.642333 0.358067 1.513830 0.071544 -0.004463 -622757.000000 0 0 1
25.419705 9.752842 1.546869 27.270352 0.366352 1.514042 0.070277 -0.004178 -895773.000000 0 0 1
25.039305 8.253042 1.520869 26.408191 0.318390 1.513174 0.068541 -0.005621 -43165.300000 0 0 1
25.428405 7.560042 2.673669 26.662830 0.288984 1.470350 0.073486 -0.005942 -295035.000000 0 0 1
26.787305 7.267742 2.700569 27.886786 0.264935 1.473804 0.099254 -0.014801 -907529.000000 0 0 1
27.387715 6.677842 4.009969 28.473854 0.239160 1.429497 0.097257 -0.023226 -82.184700 0 0 1
28.767915 6.390042 3.872669 29.722435 0.218575 1.440130 0.118552 -0.025339 335341.000000 0 0 1
29.173715 5.566342 5.001869 30.118242 0.188534 1.403949 0.102008 -0.014634 -324697.000000 0 0 1
30.697395 5.560442 5.173469 31.622987 0.179194 1.406459 0.103940 -0.020400 -344801.000000 0 0 1
31.129895 6.785642 5.660769 32.359845 0.214621 1.394960 0.115377 -0.031340 -599556.000000 0 0 1
32.438895 6.753142 6.156569 33.701486 0.205249 1.387085 0.081830 -0.025478 -201860.000000 0 0 1
32.890285 7.977442 6.964869 34.553145 0.237952 1.367836 0.069970 -0.026711 157050.000000 0 0 1
32.247055 8.024742 8.216569 34.231287 0.243898 1.328399 0.091367 -0.032799 390418.000000 0 0 1
32.926415 9.039842 8.944269 35.296848 0.267945 1.314602 0.082657 -0.031952 152067.000000 0 0 1
32.412945 9.109142 10.375369 35.231005 0.273967 1.271869 0.083431 -0.029467 -238009.000000 0 0 1
31.104075 9.602842 10.566069 34.224550 0.299449 1.256941 0.087058 -0.029764 -35611.000000 0 0 1
30.772445 9.251942 11.853669 34.249836 0.292059 1.217392 0.087698 -0.031676 118008.000000 0 0 1
29.313135 9.678542 12.237069 33.206624 0.318908 1.193388 0.078909 -0.036870 320425.000000 0 0 1
28.984515 11.039042 12.436869 33.416138 0.363898 1.189438 0.087574 -0.040828 231783.000000 0 0 1
29.075315 11.865942 11.254769 33.359322 0.387479 1.226664 0.095774 -0.043667 -443997.000000 0 0 1
27.872835 11.821042 10.274169 31.971714 0.401113 1.243640 0.092305 -0.039227 -82563.800000 0 0 1
27.825985 12.857542 9.310069 32.035593 0.432846 1.275925 0.087444 -0.028940 636447.000000 0 0 1
26.668605 12.818142 8.455969 30.773733 0.448044 1.292437 0.083093 -0.026312 492343.000000 0 0 1
26.488105 14.167842 7.624069 30.991513 0.491157 1.322240 0.077611 -0.023846 12715.200000 0 0 1
26.089005 15.273142 8.387169 31.372753 0.529633 1.300166 0.076741 -0.013371 332781.000000 0 0 1
26.313205 16.423442 7.641669 31.945411 0.557989 1.329244 0.069999 -0.007435 -847602.000000 0 0 1
25.947305 17.780842 8.353469 32.545375 0.600770 1.311220 0.083595 -0.011275 21094.500000 0 0 1
24.629705 18.251342 8.138969 31.717135 0.637735 1.311282 0.078983 -0.009960 286162.000000 0 0 1
23.674105 17.540442 8.886169 30.774898 0.637660 1.277878 0.070240 -0.006347 -859646.000000 0 0 1
22.292905 18.160842 9.106669 30.161585 0.683608 1.264080 0.058925 -0.003654 -100817.000000 0 0 1
21.538505 18.439942 7.927369 29.441159 0.708047 1.298170 0.057932 -0.010923 186229.000000 0 0 1
20.498805 19.347942 8.227069 29.363728 0.756524 1.286817 0.066791 -0.015566 263906.000000 0 0 1
19.688505 19.687342 6.936269 28.693910 0.785369 1.326645 0.058319 -0.015823 140806.000000 0 0 1
20.549705 20.483742 6.156469 29.661021 0.783791 1.361715 0.055440 -0.006154 192733.000000 0 0 1
19.973005 20.855642 4.942669 29.296906 0.807013 1.401276 0.049838 -0.010337 -152155.000000 0 0 1
17.717265 16.772742 33.351107 41.322181 0.758020 0.631574 0.049953 0.005925 131384.000000 0 0 1
17.048565 17.646442 32.429352 40.665875 0.802629 0.647725 0.050058 0.006518 521524.000000 0 0 1
16.503765 16.889142 31.352922 39.250772 0.796938 0.645524 0.057285 -0.004907 75466.700000 0 0 1
16.019265 17.672842 30.117182 38.418627 0.834438 0.669839 0.067796 -0.015809 700071.000000 0 0 1
17.074365 17.998542 29.185312 38.304881 0.811742 0.704522 0.073897 -0.009507 702489.000000 0 0 1
16.514065 18.541042 27.990462 37.415913 0.843156 0.725618 0.086371 -0.024586 61603.000000 0 0 1
17.589565 18.884842 26.975952 37.332721 0.820895 0.763266 0.085763 -0.021000 -477150.000000 0 0 1
18.447065 19.956642 27.155122 38.418257 0.824686 0.785792 0.086159 -0.023574 -69222.000000 0 0 1
19.363765 20.097542 26.106942 38.215691 0.803991 0.818733 0.075509 -0.020423 304030.000000 0 0 1
20.294565 21.370442 26.247252 39.464964 0.811215 0.843199 0.073776 -0.019428 120382.000000 0 0 1
19.592965 22.532842 25.910992 39.534703 0.855073 0.856086 0.067795 -0.022694 59634.700000 0 0 1
20.241165 23.722042 26.287002 40.785372 0.864410 0.870401 0.066499 -0.024347 -692336.000000 0 0 1
19.459365 24.989142 26.074492 41.024423 0.909171 0.882031 0.074733 -0.026944 -408855.000000 0 0 1
19.162665 25.278842 24.703862 40.205825 0.922162 0.909127 0.076452 -0.034752 573347.000000 0 0 1
18.260365 26.393942 24.702382 40.500479 0.965568 0.914826 0.085922 -0.034364 169133.000000 0 0 1
18.578065 27.355342 23.507902 40.571920 0.974209 0.952788 0.066270 -0.033720 274549.000000 0 0 1
19.830965 28.031842 23.538992 41.630944 0.955092 0.969853 0.062405 -0.029217 323320.000000 0 0 1
19.758265 29.358942 22.979232 42.194569 0.978429 0.994882 0.043397 -0.016658 -233951.000000 0 0 1
21.158965 29.907842 22.663832 43.079347 0.955073 1.016794 0.055565 -0.015585 -178900.000000 0 0 1
21.698565 29.434542 21.443832 42.391720 0.935550 1.040430 0.067642 -0.018013 -184745.000000 0 0 1
22.898865 30.096542 21.129432 43.319889 0.920389 1.061282 0.068296 -0.024126 -154940.000000 0 0 1
22.861465 30.364342 19.602232 42.765493 0.925439 1.094641 0.051186 -0.012476 -584468.000000 0 0 1
22.109965 31.427242 19.186732 42.949421 0.957706 1.107691 0.049583 -0.004372 -152841.000000 0 0 1
21.868365 31.265942 17.768032 42.089043 0.960452 1.134977 0.053113 -0.001541 -338918.000000 0 0 1
21.513765 32.665042 17.173832 42.717533 0.988387 1.157061 0.067594 0.003690 -443526.000000 0 0 1
22.594265 33.555442 17.195532 43.956283 0.978187 1.168865 0.057601 -0.000920 -42324.500000 0 0 1
22.771765 34.286542 16.001632 44.160757 0.984531 1.200009 0.057096 -0.007941 17312.800000 0 0 1
23.857965 33.756942 15.037932 43.987192 0.955550 1.221890 0.059669 -0.005088 -100032.000000 0 0 1
23.390165 32.699942 14.226832 42.647260 0.949878 1.230684 0.074294 0.000176 466687.000000 0 0 1
22.572765 33.117442 13.121332 42.171840 0.972528 1.254404 0.068762 -0.003166 146877.000000 0 0 1
22.019065 31.973042 12.305732 40.725247 0.967711 1.263834 0.082145 -0.012365 -147376.000000 0 0 1
22.969765 31.466442 11.395832 40.590788 0.940234 1.286222 0.098385 -0.033786 326192.000000 0 0 1
22.399065 30.315142 10.770032 39.201015 0.934454 1.292478 0.088868 -0.033263 -253067.000000 0 0 1
23.527465 29.621342 9.978532 39.122074 0.899557 1.312885 0.084628 -0.034115 590273.000000 0 0 1
24.556565 28.915142 10.663932 39.405961 0.866730 1.296762 0.079778 -0.032165 1001400.000000 0 0 1
25.460065 29.810142 11.378132 40.820600 0.863942 1.288320 0.076776 -0.028290 -977996.000000 0 0 1
26.855165 29.238742 11.605532 41.361725 0.827865 1.286391 0.067095 -0.025599 -277577.000000 0 0 1
26.909965 28.335242 12.658432 41.076369 0.811192 1.257529 0.070033 -0.014501 1202100.000000 0 0 1
28.251965 27.782242 12.728632 41.617840 0.777016 1.259970 0.053781 0.001840 1230710.000000 0 0 1
28.460065 26.785842 13.892432 41.478384 0.755103 1.229263 0.046084 -0.016271 154137.000000 0 0 1
29.270665 27.269642 14.980432 42.717895 0.750022 1.212496 0.025877 -0.012300 311400.000000 0 0 1
29.541865 26.282042 15.927132 42.627938 0.727070 1.187876 0.038732 -0.015766 341702.000000 0 0 1
30.821865 26.530542 16.776832 43.992262 0.710714 1.179531 0.029596 -0.015800 -273952.000000 0 0 1
32.029765 26.504742 16.103632 44.584013 0.691288 1.201245 0.041766 -0.012649 -581504.000000 0 0 1
33.123965 26.663142 16.994332 45.792221 0.677752 1.190583 0.009943 -0.006009 225254.000000 0 0 1
34.499765 26.664042 16.320132 46.556972 0.657982 1.212648 0.021534 -0.014317 -101604.000000 0 0 1
34.734265 27.737442 15.387932 47.038530 0.673863 1.237527 0.051131 -0.023791 985382.000000 0 0 1
-36.023275 27.929042 15.084132 48.012902 -0.659501 1.251216 0.078006 -0.029269 1340860.000000 0 0 1
-35.835775 29.190142 14.173632 48.344172 -0.683552 1.273243 0.078819 -0.036063 96709.000000 0 0 1
36.057265 30.403942 14.839932 49.444410 0.700540 1.265964 0.079065 -0.033502 -67919.300000 0 0 1
35.939965 31.382342 13.850932 49.682802 0.717803 1.288265 0.064693 -0.012105 196166.000000 0 0 1
35.128165 32.613242 14.332032 50.030178 0.748290 1.280258 0.046244 -0.011685 -636722.000000 0 0 1
34.969165 33.575742 13.304132 50.270995 0.765072 1.302957 0.029453 -0.014152 451748.000000 0 0 1
33.873765 -34.183267 13.551732 49.995772 -0.789946 1.296305 0.032246 -0.005878 1169070.000000 0 0 1
32.434865 33.885642 13.266332 48.746823 0.807270 1.295172 0.055389 -0.006663 296461.000000 0 0 1
31.976465 32.922642 14.212732 48.045775 0.799976 1.270486 0.046978 -0.017589 -327277.000000 0 0 1
30.843665 32.263042 13.727132 46.697642 0.807886 1.272431 0.057867 -0.010801 -895366.000000 0 0 1
30.447665 31.019342 14.513032 45.824535 0.794698 1.248539 0.056683 -0.009021 67319.800000 0 0 1
29.567965 31.206642 15.617632 45.738709 0.812355 1.222334 0.057318 -0.008390 332568.000000 0 0 1
29.417365 30.101342 16.493432 45.205149 0.796889 1.197317 0.047834 -0.003964 142907.000000 0 0 1
28.547865 30.446942 17.738632 45.350369 0.817578 1.168919 0.043856 -0.005249 141671.000000 0 0 1
28.295365 29.389542 18.656432 44.860175 0.804364 1.141887 0.036479 -0.000958 273988.000000 0 0 1
28.876165 29.742342 19.924532 45.993769 0.800174 1.122755 0.027207 -0.008554 -16073.700000 0 0 1
28.534165 28.729442 20.994232 45.610714 0.788808 1.092473 0.031237 -0.016551 -65881.600000 0 0 1
27.205965 28.749542 21.466132 45.027720 0.812977 1.073864 0.037389 -0.016276 -16219.000000 0 0 1
27.038265 27.918542 22.574232 44.945620 0.801414 1.044590 0.026400 -0.019376 706925.000000 0 0 1
25.729165 27.996442 23.443952 44.670008 0.827574 1.018286 0.054181 -0.025722 793721.000000 0 0 1
24.513965 27.524842 22.877932 43.381462 0.843192 1.015298 0.052886 -0.027598 1176290.000000 0 0 1
23.379965 27.416142 23.765222 43.163102 0.864690 0.987724 0.057726 -0.028449 662823.000000 0 0 1
23.430765 26.161542 24.712752 42.943535 0.840407 0.957617 0.078534 -0.034079 -735633.000000 0 0 1
24.503165 26.159142 25.608662 44.051213 0.818073 0.950424 0.057432 -0.035381 -140362.000000 0 0 1
24.404565 25.003042 26.430962 43.810166 0.797511 0.923156 0.065720 -0.033674 -630897.000000 0 0 1
25.628665 24.831142 27.328882 44.947546 0.769594 0.917236 0.071613 -0.039043 -297316.000000 0 0 1
26.124765 25.843642 28.143722 46.286783 0.779989 0.917220 0.072128 -0.022556 345479.000000 0 0 1
26.803465 26.915142 27.516372 46.904172 0.787477 0.943879 0.050850 -0.009463 -632183.000000 0 0 1
26.985165 28.181242 28.376582 48.245331 0.807076 0.941999 0.036397 -0.011068 -485019.000000 0 0 1
27.866065 27.997842 29.443322 49.267697 0.787757 0.930268 0.042211 -0.001597 34995.900000 0 0 1
27.990765 29.218542 30.117712 50.440883 0.806856 0.930929 0.035140 -0.001211 -516747.000000 0 0 1
29.448665 29.609342 30.325422 51.609769 0.788119 0.942718 0.010471 0.002515 -537053.000000 0 0 1
30.119365 29.758742 29.094672 51.373717 0.779376 0.968746 -0.015637 0.000581 -392024.000000 0 0 1
31.421765 30.239642 29.301272 52.538822 0.766229 0.979176 0.018261 -0.013977 -3911.030000 0 0 1
32.130865 30.760442 28.008862 52.565137 0.763611 1.008842 0.009182 -0.009616 -63244.700000 0 0 1
31.821465 32.079342 27.586202 52.940423 0.789434 1.022680 -0.005734 -0.008754 175181.000000 0 0 1
32.381065 32.382642 26.329752 52.824471 0.785423 1.049000 -0.005108 -0.011468 -255027.000000 0 0 1
32.178965 33.847242 25.932882 53.419434 0.810660 1.063910 0.000456 -0.012778 -167363.000000 0 0 1
33.084965 -33.891367 26.568442 54.305817 -0.797438 1.059581 0.011105 -0.016301 204813.000000 0 0 1
32.812865 -32.555067 26.182522 53.122886 -0.781454 1.055415 0.011227 -0.011242 -309756.000000 0 0 1
33.779465 -31.555867 26.836892 53.451322 -0.751378 1.044793 0.018210 -0.016179 -73027.100000 0 0 1
33.657465 -31.567267 28.244922 54.102615 -0.753363 1.021529 0.010045 -0.021010 62693.200000 0 0 1
34.848665 -31.043067 28.754012 54.816920 -0.727707 1.018614 0.017722 -0.031541 -503801.000000 0 0 1
34.831065 -30.681867 30.280112 55.420802 -0.722149 0.992776 0.016331 -0.025622 -329269.000000 0 0 1
34.642365 -31.712067 31.250042 56.412000 -0.741266 0.983682 0.024290 -0.022879 -562561.000000 0 0 1
33.359865 -32.223467 31.337892 55.975851 -0.768072 0.976596 0.020362 -0.023150 -976717.000000 0 0 1
33.260765 -33.051167 32.634855 57.128731 -0.782237 0.962767 0.031536 -0.019213 -333610.000000 0 0 1
32.957865 -32.345667 33.834732 57.247290 -0.776024 0.938464 0.028014 -0.020540 -15750.400000 0 0 1
33.247065 -33.030167 -33.437481 57.571038 -0.782126 2.190512 0.028562 -0.018871 -455870.000000 0 0 1
32.541765 34.303042 -33.074181 57.702397 0.811741 2.181184 0.025959 -0.013371 -224705.000000 0 0 1
32.783865 33.333542 -34.086148 57.859937 0.793712 2.200759 0.042375 -0.020610 606.775000 0 0 1
32.158565 32.139742 -33.757711 56.627903 0.785105 2.209471 0.035550 -0.013266 -172993.000000 0 0 1
32.314065 31.110742 33.575829 56.030468 0.766428 0.928242 0.033625 -0.002322 -162211.000000 0 0 1
33.550465 30.468042 33.520023 56.369560 0.737286 0.933969 0.037404 -0.014252 -344880.000000 0 0 1
33.491765 29.503342 32.500965 55.212845 0.722169 0.941410 0.034327 -0.013589 -309808.000000 0 0 1
34.755165 28.676642 32.258902 55.415775 0.689862 0.949457 0.046754 -0.015329 -345314.000000 0 0 1
35.124965 27.761242 33.287038 55.789575 0.668833 0.931472 0.045115 -0.010887 518418.000000 0 0 1
-35.664675 27.440442 33.149336 55.891192 -0.655803 0.935887 0.033881 -0.016603 122440.000000 0 0 1
-35.318775 26.207842 33.918166 55.540155 -0.638385 0.913857 0.028779 -0.012939 -73212.000000 0 0 1
-35.772975 25.022242 33.280314 54.894423 -0.610372 0.919447 0.009165 -0.007764 57063.000000 0 0 1
-35.827675 23.944342 34.194761 55.011231 -0.589146 0.900018 -0.002220 -0.011235 156467.000000 0 0 1
35.752465 22.634342 33.544476 53.998001 0.564392 0.900502 -0.002186 -0.019036 -695053.000000 0 0 1
-35.548675 21.979842 32.688466 53.059943 -0.553769 0.907057 -0.002139 -0.014376 -308904.000000 0 0 1
36.072765 20.879342 31.954672 52.519448 0.524694 0.916709 -0.000427 -0.010442 -84683.900000 0 0 1
-35.016075 20.219842 31.072082 50.994527 -0.523670 0.915591 0.000863 -0.017894 -79083.900000 0 0 1
-34.525175 21.053042 30.046882 50.378898 -0.547586 0.931765 0.002213 -0.016618 136710.000000 0 0 1
-33.546875 20.358942 29.247952 48.942027 -0.545463 0.930287 0.021639 -0.012603 -41952.100000 0 0 1
-33.967075 19.274942 28.218352 48.182579 -0.516149 0.945109 0.030293 -0.004220 -899938.000000 0 0 1
-34.657575 18.176142 28.794952 48.586715 -0.483015 0.936451 0.022682 -0.006215 270829.000000 0 0 1
-35.026575 17.203442 27.831622 47.931394 -0.456546 0.951263 0.024995 -0.018595 -272045.000000 0 0 1
-35.691775 15.997842 28.543302 48.420593 -0.421374 0.940373 0.021972 -0.017116 -87623.800000 0 0 1
-34.790275 15.017542 29.067012 47.757523 -0.407498 0.916454 0.033010 -0.016847 701350.000000 0 0 1
-35.500975 14.147442 29.966292 48.563855 -0.379220 0.905809 0.043649 -0.021242 183382.000000 0 0 1
-34.730475 12.824242 30.236792 47.800948 -0.353720 0.885947 0.055331 -0.013913 -637750.000000 0 0 1
-33.518175 13.047342 30.865752 47.396158 -0.371215 0.861594 0.056908 -0.006838 -489789.000000 0 0 1
-32.774575 11.849142 31.032782 46.664853 -0.346913 0.843284 0.060407 -0.012791 -410842.000000 0 0 1
-31.279475 12.138942 31.024922 45.697979 -0.370189 0.824516 0.067538 -0.011812 -1162650.000000 0 0 1
-30.663875 12.381742 29.803982 44.518065 -0.383769 0.837287 0.061887 -0.010904 348489.000000 0 0 1
-29.301975 12.750842 29.749232 43.660125 -0.410439 0.821147 0.054583 -0.010301 1145060.000000 0 0 1
-28.149775 11.737042 30.144262 42.881750 -0.395032 0.791242 0.060173 -0.011250 250953.000000 0 0 1
-27.827475 10.830942 29.141612 41.724228 -0.371177 0.797590 0.068226 -0.015655 14267.800000 0 0 1
-26.760275 10.035742 29.640772 41.175281 -0.358792 0.767184 0.058949 -0.010244 -534950.000000 0 0 1
-26.503275 8.819242 28.695302 40.045261 -0.321235 0.771921 0.049995 -0.010049 -266009.000000 0 0 1
-27.414875 7.731442 28.638142 40.391753 -0.274877 0.782703 0.057380 -0.012562 -713827.000000 0 0 1
-28.653075 8.008842 28.087332 40.915015 -0.272555 0.814159 0.072275 -0.017312 -1031210.000000 0 0 1
-29.540975 6.771242 28.068612 41.308182 -0.225323 0.823725 0.076891 -0.010936 -353293.000000 0 0 1
-30.048275 6.423842 29.348132 42.490910 -0.210614 0.808351 0.080721 -0.010611 -76265.400000 0 0 1
-30.815775 5.258242 29.210032 42.784192 -0.169007 0.819305 0.090257 -0.001065 -646754.000000 0 0 1
-31.521275 4.852142 30.510862 44.136683 -0.152733 0.807536 0.062156 0.007140 273930.000000 0 0 1
-32.820375 5.422742 30.592702 45.193988 -0.163746 0.827227 0.065270 0.002128 121512.000000 0 0 1
-33.618675 5.014542 31.708152 46.484060 -0.148068 0.820125 0.068596 0.005723 693291.000000 0 0 1
-35.057475 5.589142 31.594142 47.523203 -0.158097 0.843550 0.050698 0.012592 354925.000000 0 0 1
-35.113775 6.926742 32.093782 48.072526 -0.194765 0.839800 0.053227 0.005782 -915150.000000 0 0 1
35.712365 7.139842 32.335572 48.702562 0.197325 0.844721 0.070175 0.006316 -884348.000000 0 0 1
35.581665 8.549742 33.045696 49.306906 0.235814 0.836312 0.051004 0.009795 -301721.000000 0 0 1
35.839065 8.479942 -34.085292 50.181223 0.232339 2.317528 0.057007 0.009871 344154.000000 0 0 1
35.756365 9.819242 -33.537151 49.996757 0.268008 2.306065 0.051221 0.011009 -144448.000000 0 0 1
35.701265 9.922842 -31.971551 48.941018 0.271098 2.282688 0.053890 0.000664 237223.000000 0 0 1
34.561065 9.178342 -31.515181 47.664618 0.259577 2.293195 0.059086 -0.000908 585095.000000 0 0 1
34.274265 9.555142 -30.164671 46.646901 0.271881 2.273993 0.041256 -0.003872 323114.000000 0 0 1
32.974965 8.902442 -29.599821 45.196805 0.263689 2.284859 0.040090 -0.004470 45729.600000 0 0 1
33.038565 7.517942 -29.637311 45.015958 0.223741 2.289452 0.040060 -0.000353 171450.000000 0 0 1
31.785565 6.890642 -29.526461 43.927383 0.213482 2.307926 0.034533 0.000316 -399828.000000 0 0 1
35.465825 5.711942 -19.565431 40.905465 0.159684 2.069524 0.037324 -0.014465 -232236.000000 0 0 1
34.812255 6.765542 -18.802531 40.139766 0.191951 2.058305 0.037251 -0.011513 693196.000000 0 0 1
35.399055 8.066142 -19.021631 40.987537 0.224038 2.053396 0.016928 -0.009967 -152681.000000 0 0 1
-35.332277 8.308742 -18.426631 40.705598 -0.230964 2.040566 0.022422 -0.016613 1138140.000000 0 0 1
-34.294494 7.598642 -19.149231 40.006809 -0.218048 2.069912 0.031362 -0.025952 525070.000000 0 0 1
-33.985165 8.335942 -20.344131 40.476698 -0.240533 2.097415 0.017166 -0.020719 -1195160.000000 0 0 1
-33.182815 7.582642 -21.383531 40.197650 -0.224654 2.131710 0.012782 -0.014591 56034.400000 0 0 1
-33.905185 6.479342 -22.065031 40.968391 -0.188825 2.139555 0.015403 -0.012937 697997.000000 0 0 1
-34.617150 6.955542 -23.193631 42.245369 -0.198287 2.151990 0.010297 -0.008021 14138.500000 0 0 1
-34.586469 5.822342 -24.242631 42.636002 -0.166778 2.175594 0.032666 -0.011533 353434.000000 0 0 1
-33.332165 5.569642 -24.860031 41.953251 -0.165566 2.205036 0.042395 -0.015675 281858.000000 0 0 1
-33.296165 4.233042 -25.367581 42.072169 -0.126455 2.217995 0.056065 -0.001932 -264369.000000 0 0 1
-32.003255 3.965142 -26.150401 41.518359 -0.123270 2.252158 0.065189 -0.004607 68121.800000 0 0 1
-30.817415 4.098242 -25.384401 40.135726 -0.132209 2.255526 0.058291 -0.011469 -456315.000000 0 0 1
-29.720915 3.867042 -26.203691 39.811057 -0.129385 2.289223 0.060375 -0.010033 667245.000000 0 0 1
-28.307875 4.140042 -25.527531 38.342282 -0.145221 2.299335 0.053679 -0.020814 957817.000000 0 0 1
-28.036805 5.530042 -25.423331 38.249047 -0.194742 2.297860 0.029986 -0.011712 51873.400000 0 0 1
-26.827775 5.826242 -24.758131 36.968090 -0.213851 2.304623 0.034753 -0.016622 27846.500000 0 0 1
-26.235685 7.222442 -25.072131 37.001170 -0.268637 2.315296 0.024825 -0.016946 -16352.400000 0 0 1
-27.043035 8.259242 -24.518031 37.425589 -0.296414 2.285130 0.027172 -0.020647 108529.000000 0 0 1
-26.667165 9.550042 -24.948831 37.746327 -0.343890 2.292894 0.012257 -0.020300 290352.000000 0 0 1
-25.338655 10.026442 -24.276331 36.495441 -0.376792 2.298542 0.039887 -0.010559 -32869.600000 0 0 1
-25.434715 10.467042 -22.934531 35.811680 -0.390403 2.265842 0.022941 -0.014837 97994.400000 0 0 1
-24.147235 10.588242 -22.356431 34.568915 -0.413238 2.274073 0.056854 -0.011878 -247871.000000 0 0 1
-24.100235 10.775142 -20.833131 33.629516 -0.420437 2.238889 0.071602 -0.021158 -919735.000000 0 0 1
-24.428035 12.104142 -20.353031 34.021832 -0.460043 2.212092 0.055624 -0.020938 1167900.000000 0 0 1
-25.801505 12.527642 -20.468031 35.236342 -0.452012 2.190604 0.049875 -0.009897 467605.000000 0 0 1
-26.814765 11.764042 -19.584831 35.227687 -0.413430 2.160302 0.031536 -0.017057 -836819.000000 0 0 1
-26.566115 11.828842 -18.173131 34.292021 -0.418906 2.129341 0.036611 -0.027745 -554675.000000 0 0 1
-27.574865 11.248742 -17.450331 34.516973 -0.387328 2.100825 0.021543 -0.031464 -1204840.000000 0 0 1
-27.203185 11.172242 -15.952231 33.456030 -0.389693 2.067820 0.039091 -0.032000 331959.000000 0 0 1
-26.298335 10.123642 -15.662631 32.239860 -0.367469 2.078093 0.052226 -0.035362 867169.000000 0 0 1
-24.916335 10.321842 -15.956331 31.336380 -0.392739 2.105046 0.052007 -0.028480 -198856.000000 0 0 1
-24.191935 8.987942 -16.243831 30.494178 -0.355722 2.132568 0.051276 -0.024497 400280.000000 0 0 1
-22.786835 9.236842 -16.114631 29.397967 -0.385117 2.150953 0.072113 -0.019164 576160.000000 0 0 1
-22.060435 8.139242 -15.649731 28.245781 -0.353458 2.158024 0.073969 -0.023305 -185800.000000 0 0 1
-20.538935 8.316242 -15.578631 27.086925 -0.384725 2.183565 0.094815 -0.020685 -427252.000000 0 0 1
-19.824935 8.430142 -16.783231 27.308830 -0.402065 2.232639 0.101725 -0.027028 225929.000000 0 0 1
-18.453035 8.438942 -16.404831 26.093078 -0.428925 2.250682 0.113168 -0.022157 -117674.000000 0 0 1
-17.462035 8.942142 -17.465831 26.266706 -0.473273 2.298212 0.080610 -0.017974 -205029.000000 0 0 1
-17.356735 8.114242 -18.571131 26.683030 -0.437310 2.340595 0.108610 -0.023510 150197.000000 0 0 1
-16.501035 6.995342 -18.497731 25.756262 -0.400967 2.371985 0.105167 -0.028285 -562596.000000 0 0 1
-16.032635 6.376042 -19.843431 26.295647 -0.378515 2.425883 0.080869 -0.036329 -107629.000000 0 0 1
-16.979735 5.661842 -20.598731 27.288745 -0.321853 2.426212 0.081118 -0.026457 41423.100000 0 0 1
-17.853235 6.432142 -21.426331 28.621637 -0.345802 2.416753 0.086198 -0.027691 -46263.300000 0 0 1
-18.849735 5.577742 -22.228531 29.673748 -0.287696 2.417495 0.076650 -0.015118 -136222.000000 0 0 1
-19.693635 4.913042 -21.299631 29.421957 -0.244483 2.380288 0.077184 -0.019782 11024.500000 0 0 1
-20.370935 3.833042 -21.840531 30.111061 -0.185988 2.382314 0.045167 -0.006010 -352565.000000 0 0 1
-21.169935 3.012642 -20.789731 29.823734 -0.141358 2.342123 0.063735 -0.016560 -78377.200000 0 0 1
-21.701535 1.789042 -21.231831 30.412957 -0.082253 2.343562 0.072968 -0.010812 -41632.900000 0 0 1
-22.578435 1.326842 -20.257031 30.362700 -0.058698 2.301197 0.076233 -0.020308 -403576.000000 0 0 1
-23.312135 -0.028358 -20.556131 31.080717 0.001216 2.293452 0.076364 -0.004326 471289.000000 0 0 1
-22.447235 -1.190758 -20.554531 30.459564 0.052997 2.311509 0.060143 -0.013682 713693.000000 0 0 1
-23.130635 -2.414258 -20.936931 31.292331 0.103998 2.303760 0.049893 -0.015120 39408.100000 0 0 1
-23.627835 -2.547058 -22.440931 32.685738 0.107384 2.327552 0.068785 -0.016363 544934.000000 0 0 1
-22.614335 -2.522158 -23.472931 32.691710 0.111070 2.371733 0.036915 -0.011459 280586.000000 0 0 1
-21.805835 -3.693358 -23.420531 32.212678 0.167782 2.384826 0.032602 -0.017622 81742.600000 0 0 1
-20.724635 -3.626058 -24.532931 32.319089 0.173210 2.432703 0.030351 -0.011992 154180.000000 0 0 1
-21.335235 -3.673658 -25.838101 33.708982 0.170515 2.444178 0.026872 -0.009911 280343.000000 0 0 1
-20.410735 -3.714858 -26.934101 33.997707 0.180034 2.485256 0.028532 -0.015718 -218002.000000 0 0 1
-21.035335 -3.743958 -28.336351 35.488749 0.176140 2.495529 0.017956 -0.014826 -97665.300000 0 0 1
-21.600535 -5.006158 -28.615401 36.200634 0.227740 2.482367 0.027108 -0.012114 -23356.700000 0 0 1
-22.330935 -5.069358 -29.799691 37.581786 0.223227 2.486398 0.003798 -0.015345 -388518.000000 0 0 1
-21.867935 -6.281358 -30.654131 38.175094 0.279710 2.503088 0.025470 -0.016084 -802079.000000 0 0 1
-20.598035 -6.114858 -31.175931 37.863032 0.288579 2.538150 0.026490 -0.018421 -873266.000000 0 0 1
-20.169735 -7.406558 -31.555841 38.176517 0.351925 2.543795 0.025394 -0.018183 -172196.000000 0 0 1
-18.705535 -7.421758 -32.061531 37.853947 0.377717 2.581075 0.041987 -0.027893 -155273.000000 0 0 1
-18.444535 -6.813758 -33.295291 38.667875 0.353869 2.608143 0.035788 -0.036255 234429.000000 0 0 1
-18.599935 -7.791558 34.178020 39.683788 0.396695 0.533054 0.032805 -0.032419 -488561.000000 0 0 1
-18.542035 -7.252258 32.740826 38.319238 0.372832 0.546358 0.026699 -0.026352 -1433110.000000 0 0 1
-17.268735 -6.927958 32.402612 37.364891 0.381528 0.521257 0.042016 -0.022572 -1458140.000000 0 0 1
-16.905635 -5.599658 32.575284 37.125541 0.319857 0.500306 0.024508 -0.026979 -64713.500000 0 0 1
-15.611635 -5.320458 31.767222 35.793670 0.328456 0.478884 0.028850 -0.023936 -101725.000000 0 0 1
-15.810135 -5.516458 30.415022 34.719810 0.335712 0.503263 0.029949 -0.021331 407169.000000 0 0 1
-14.748635 -5.064158 29.554302 33.415935 0.330751 0.485509 0.025332 -0.015372 408067.000000 0 0 1
-15.064835 -5.155758 28.038182 32.243926 0.329743 0.516476 0.031923 -0.009089 -215570.000000 0 0 1
-16.119535 -4.360158 27.589562 32.249563 0.264168 0.544277 0.034123 -0.010481 -299113.000000 0 0 1
-16.511735 -4.400958 26.185062 31.267608 0.260480 0.578196 0.042551 -0.002969 151567.000000 0 0 1
-15.482635 -3.876458 25.147212 29.784580 0.245331 0.565533 0.045478 0.001116 152141.000000 0 0 1
-15.359635 -2.471558 25.238712 29.648264 0.159545 0.552393 0.045968 0.000877 -272359.000000 0 0 1
-14.371735 -1.960758 24.390252 28.377381 0.135594 0.536513 0.045093 -0.002257 -17015.800000 0 0 1
-14.130135 -0.432958 24.480112 28.268782 0.030631 0.523696 0.042116 -0.003709 1253200.000000 0 0 1
-15.293335 0.319042 23.978162 28.441873 -0.020859 0.567851 0.041886 -0.008287 1264990.000000 0 0 1
-15.087535 1.699642 24.173152 28.545819 -0.112179 0.560820 0.032804 -0.012939 -247514.000000 0 0 1
-15.914335 2.689942 23.334032 28.372150 -0.167444 0.605131 0.032724 -0.015808 -253187.000000 0 0 1
-15.493235 2.788242 21.984832 27.039739 -0.178059 0.621413 0.039116 -0.015155 321376.000000 0 0 1
-16.259935 3.731042 21.294032 27.050729 -0.225558 0.664559 0.030832 -0.018942 54734.700000 0 0 1
-15.315235 4.534042 20.358332 25.876160 -0.287827 0.665254 0.028802 -0.017827 516160.000000 0 0 1
-14.388835 5.388142 21.048832 26.060007 -0.358303 0.630545 0.034678 -0.015174 164291.000000 0 0 1
-13.167935 5.331742 20.361732 24.827850 -0.384726 0.609182 0.032527 -0.019513 61904.300000 0 1 0
-12.098635 6.394142 20.743032 24.850260 -0.486188 0.583171 0.022012 -0.016325 374282.000000 0 1 0
-12.529635 7.685142 20.293832 25.057789 -0.550183 0.626847 0.029781 -0.016005 475327.000000 0 0 1
-11.459235 8.597942 20.465532 24.981527 -0.643697 0.610735 0.027322 -0.013484 214340.000000 0 1 0
-11.862635 10.111442 20.487232 25.742767 -0.705873 0.650396 0.023113 -0.001831 -56955.000000 0 0 1
-12.033335 10.777342 19.251432 25.131054 -0.730392 0.698136 0.013805 -0.004241 487508.000000 0 0 1
-12.721935 12.034442 19.463432 26.182067 -0.757635 0.732675 0.011250 -0.002769 -158158.000000 0 0 1
-13.150935 12.712042 18.122732 25.748331 -0.768430 0.790006 0.013139 -0.000865 217530.000000 0 0 1
-12.165435 13.450042 17.379332 25.118571 -0.835506 0.806690 0.010299 -0.002529 263694.000000 0 0 1
-11.767735 14.700342 17.863332 25.955313 -0.895746 0.811744 0.015548 -0.012107 85473.300000 0 0 1
-12.741235 15.971042 17.661332 27.006220 -0.897416 0.857972 0.014265 -0.008715 592386.000000 0 0 1
-12.876635 16.464042 16.293632 26.501979 -0.907062 0.908654 0.017726 -0.005326 -93528.700000 0 0 1
-13.645735 15.675542 15.437732 25.889231 -0.854514 0.931913 0.042193 -0.005053 -730519.000000 0 0 1
-14.032935 16.297542 14.070732 25.700557 -0.859924 0.991438 0.031618 -0.012459 -147035.000000 0 0 1
-15.146035 17.148542 14.136532 26.894543 -0.847326 1.017343 0.030164 -0.013604 -230761.000000 0 0 1
-15.595235 17.527442 12.842232 26.745944 -0.843667 1.069964 0.028641 -0.015327 333721.000000 0 0 1
-16.862535 18.438142 12.901032 28.120221 -0.830002 1.094173 0.038048 -0.016638 -965269.000000 0 0 1
-17.995335 17.756142 13.258532 28.546477 -0.778708 1.087778 0.039778 -0.016982 -739540.000000 0 0 1
-19.050835 18.743642 13.305932 29.854753 -0.777270 1.108853 0.053075 -0.021349 335202.000000 0 0 1
-20.448735 18.131442 13.514832 30.488533 -0.725406 1.111546 0.054350 -0.019942 -49517.700000 0 0 1
-20.831835 17.448442 12.337132 29.843229 -0.697242 1.144614 0.050781 -0.021832 -88852.300000 0 0 1
-22.143135 16.948742 12.547632 30.578119 -0.653295 1.147962 0.067993 -0.027622 -111332.000000 0 0 1
-22.711935 16.310542 11.273232 30.148823 -0.622803 1.187565 0.065636 -0.028474 -330415.000000 0 0 1
-22.175335 15.098042 10.821132 28.927379 -0.597757 1.187393 0.062023 -0.018521 -301324.000000 0 0 1
-22.773335 14.717642 9.614632 28.769340 -0.573746 1.230043 0.060948 -0.023440 -329395.000000 0 0 1
-22.183235 13.469242 8.903032 27.436844 -0.545683 1.240322 0.066421 -0.009423 -716072.000000 0 0 1
-22.243035 12.188142 9.633232 27.131211 -0.501270 1.207817 0.062254 -0.013480 -152280.000000 0 0 1
-23.461335 11.766042 10.188632 28.154613 -0.464853 1.200511 0.073070 -0.017981 -264037.000000 0 0 1
-24.528835 11.298642 9.188032 28.526181 -0.431656 1.242859 0.083466 -0.011071 -204631.000000 0 0 1
-25.091995 12.348742 8.375332 29.193250 -0.457339 1.279815 0.095282 -0.016796 215015.000000 0 0 1
-26.143645 11.909842 7.545932 29.703125 -0.427463 1.313936 0.105567 -0.015742 -367279.000000 0 0 1
-26.480115 12.877442 6.356232 30.123524 -0.452633 1.358193 0.089238 -0.016059 -198166.000000 0 0 1
-25.467715 12.940842 5.388432 29.070692 -0.470128 1.384362 0.083683 -0.019885 759115.000000 0 0 1
-24.168635 13.488742 5.575332 28.233906 -0.509048 1.372021 0.083183 -0.027710 145628.000000 0 0 1
-24.148935 15.013542 5.896832 29.040492 -0.556227 1.366319 0.077642 -0.029890 -596568.000000 0 0 1
-22.821935 15.470942 6.109832 28.240411 -0.595738 1.352721 0.068179 -0.029575 475894.000000 0 0 1
-22.697335 16.833442 6.504332 28.997244 -0.638135 1.344563 0.067993 -0.034082 -506245.000000 0 0 1
-21.272435 17.362342 6.388232 28.191788 -0.684535 1.342212 0.054384 -0.032564 -457670.000000 0 0 1
-20.822935 17.800142 5.132232 27.870764 -0.707293 1.385596 0.059548 -0.038043 633656.000000 0 0 1
-19.435235 18.110942 5.200532 27.069912 -0.750142 1.377480 0.046726 -0.031472 357970.000000 0 0 1
-18.888835 19.253342 4.285532 27.310164 -0.794954 1.413224 0.037169 -0.020383 -51268.200000 0 0 1
-17.487935 19.429442 4.386532 26.506089 -0.837940 1.404540 0.027459 -0.020549 272065.000000 0 0 1
-16.869035 20.477942 3.675832 26.784738 -0.881731 1.433126 0.034844 -0.016584 -207495.000000 0 0 1
-17.127735 21.967242 4.095432 28.154780 -0.908560 1.424817 0.050368 -0.017982 -178210.000000 0 0 1
-16.539735 22.195442 5.391132 28.200440 -0.930383 1.378440 0.047915 -0.021261 332693.000000 0 0 1
-16.785035 23.514042 5.708032 29.448756 -0.950848 1.375732 0.034134 -0.008857 -49172.300000 0 0 1
-16.029235 23.824242 7.018632 29.559975 -0.978551 1.331070 0.031854 0.001845 -63668.800000 0 0 1
-16.526835 22.985042 8.005032 29.419874 -0.947415 1.295226 0.036703 -0.006279 118918.000000 0 0 1
-15.877235 23.192742 9.269332 29.595784 -0.970496 1.252238 0.036536 -0.002551 323892.000000 0 0 1
-16.556335 22.522042 10.540632 29.874061 -0.936889 1.210196 0.033846 -0.006813 700632.000000 0 0 1
-17.807235 23.040942 10.997632 31.127649 -0.912830 1.209692 0.036290 0.000630 18192.800000 0 0 1
-18.677535 22.005642 11.370332 31.022299 -0.867022 1.195529 0.031021 -0.007392 -260994.000000 0 0 1
-20.012535 22.562742 11.905932 32.424221 -0.845225 1.194807 0.036668 -0.010606 -178839.000000 0 0 1
-20.795535 23.227742 10.909332 33.030226 -0.840590 1.234193 0.042741 -0.018850 -19268.800000 0 0 1
-20.456635 24.551842 10.546732 33.652644 -0.876136 1.252025 0.038540 -0.008713 -242716.000000 0 0 1
-21.639035 25.328142 9.885932 34.749019 -0.863784 1.282316 0.043454 0.000358 113443.000000 0 0 1
-22.618135 25.740742 10.789832 35.924731 -0.849880 1.265741 0.041842 -0.016456 -216272.000000 0 0 1
-23.346635 26.831942 10.290532 37.025850 -0.854745 1.289160 0.030101 -0.010223 -375353.000000 0 0 1
-24.182535 27.489842 11.381132 38.340796 -0.849316 1.269413 0.018175 -0.013075 -265178.000000 0 0 1
-23.434335 28.220242 12.350832 38.705209 -0.877787 1.246017 0.025922 -0.008636 682167.000000 0 0 1
-24.320435 28.830942 13.301132 39.995336 -0.870057 1.231772 0.019525 -0.009670 383291.000000 0 0 1
8.878265 -33.092467 28.134572 44.333837 -1.308682 0.883296 0.065945 -0.019809 109643.000000 0 0 1
10.244165 -32.951167 27.809642 44.318151 -1.269380 0.892458 0.047329 -0.022442 304349.000000 0 0 1
10.597965 -32.577967 26.446552 43.278874 -1.256283 0.913381 0.058450 -0.022425 612659.000000 0 0 1
12.103065 -32.892467 26.169492 43.740609 -1.218213 0.929433 0.015492 -0.008056 384691.000000 0 0 1
12.497565 -34.248667 26.095772 44.834693 -1.220904 0.949556 0.023445 -0.023045 282114.000000 0 0 1
13.919065 -34.292467 26.123582 45.300720 -1.185220 0.956149 0.026171 -0.010729 -24777.100000 0 0 1
14.316465 32.939942 25.731422 44.182656 1.160803 0.949134 0.041045 -0.008931 -173900.000000 0 0 1
14.152365 32.674842 24.330172 43.126466 1.162062 0.971382 0.041231 -0.024444 44174.200000 0 0 1
15.092165 31.670242 24.102452 42.564139 1.126092 0.968833 0.050740 -0.027945 -285116.000000 0 0 1
15.183665 31.102842 22.657032 41.367519 1.116652 0.991182 0.056614 -0.041820 -390777.000000 0 0 1
14.266765 30.088842 22.364932 40.113205 1.128038 0.979370 0.065263 -0.033852 -640004.000000 0 0 1
14.743065 28.796442 22.379032 39.337185 1.097615 0.965625 0.069990 -0.027050 -247813.000000 0 0 1
14.509565 27.988742 23.669502 39.422614 1.092532 0.926790 0.080771 -0.029567 -70424.700000 0 0 1
15.332865 28.350042 24.771702 40.650447 1.075012 0.915514 0.069351 -0.031260 234488.000000 0 0 1
14.819965 27.877242 25.996782 40.897490 1.082178 0.881937 0.068696 -0.030301 -828942.000000 0 0 1
15.692765 28.159742 27.167532 42.158140 1.062384 0.870532 0.066928 -0.033771 -554514.000000 0 0 1
15.639265 29.513042 27.547452 43.295131 1.083508 0.881141 0.067244 -0.027602 669868.000000 0 0 1
16.390265 29.796642 28.766892 44.542281 1.067899 0.868682 0.075514 -0.033329 316830.000000 0 0 1
16.072365 31.223242 29.227642 45.688804 1.095413 0.876674 0.069577 -0.035923 73271.600000 0 0 1
16.840065 32.185642 28.521252 46.184036 1.088748 0.905164 0.059471 -0.025126 191696.000000 0 0 1
16.578665 33.526842 28.914082 47.274998 1.111567 0.912696 0.045442 -0.011429 385655.000000 0 0 1
17.488165 -34.093367 28.094512 47.513106 -1.096843 0.938126 0.027056 -0.007927 172705.000000 0 0 1
17.172265 -33.913767 26.760912 46.488458 -1.102081 0.957402 0.039330 -0.007252 -228539.000000 0 0 1
17.110465 -32.560267 26.269312 45.199732 -1.086956 0.950615 0.030540 -0.002982 114296.000000 0 0 1
18.469465 -31.789467 26.179402 45.133718 -1.044470 0.952017 0.043950 -0.000878 530809.000000 0 0 1
18.897965 -31.197067 27.426152 45.635336 -1.026152 0.926063 0.028716 -0.002129 465020.000000 0 0 1
20.076165 -30.393167 27.276942 45.506358 -0.987041 0.928033 0.040356 -0.000253 634178.000000 0 0 1
20.355365 -29.530867 28.504442 45.813931 -0.967294 0.899274 0.031594 0.000463 -194748.000000 0 0 1
19.250765 -28.702967 28.705082 44.926985 -0.980014 0.877693 0.041473 -0.000423 17950.900000 0 0 1
19.514565 -27.856567 29.846492 45.250632 -0.959710 0.850534 0.045280 -0.001929 804198.000000 0 0 1
18.227865 -27.025467 30.195302 44.434077 -0.977411 0.823643 0.056982 -0.005247 464827.000000 0 0 1
17.673765 -26.182467 29.246132 43.049040 -0.977031 0.823896 0.048464 0.001356 -372014.000000 0 0 1
16.412265 -25.798967 29.709732 42.633524 -1.004212 0.799782 0.050966 -0.002369 -687994.000000 0 0 1
15.553665 -25.024067 28.675542 41.114561 -1.014683 0.798957 0.035473 -0.001358 -725334.000000 0 0 1
15.142965 -25.841067 27.600152 40.728842 -1.040732 0.826226 0.030417 -0.002947 99888.600000 0 0 1
14.475065 -25.187867 26.552402 39.357162 -1.049200 0.830303 0.029512 -0.003148 205140.000000 0 0 1
12.990665 -24.735667 26.847082 38.747599 -1.087209 0.805333 0.016663 -0.008181 1108730.000000 0 0 1
11.973365 -25.742067 27.019762 39.192895 -1.135433 0.810130 0.018774 -0.005837 594278.000000 0 0 1
11.809665 -26.562367 25.855232 38.903992 -1.152441 0.843850 0.018347 -0.010567 -746655.000000 0 0 1
10.942365 -27.847967 26.046402 39.669380 -1.196398 0.854511 0.031515 -0.013295 -197338.000000 0 0 1
9.590465 -27.571167 26.270892 39.272205 -1.236044 0.838010 0.030652 -0.021575 -148065.000000 0 0 1
8.846865 -28.802967 26.467502 40.104945 -1.272792 0.850036 0.045235 -0.020313 1448880.000000 0 0 1
7.304265 -28.578267 26.802672 39.855400 -1.320565 0.833218 0.058089 -0.029461 1733920.000000 0 0 1
6.353565 -28.349667 25.751942 38.823111 -1.350325 0.845557 0.062625 -0.033805 322149.000000 0 0 1
6.611665 -27.242067 24.908002 37.500039 -1.332699 0.844356 0.070350 -0.030591 -646374.000000 0 0 1
5.406065 -26.924867 23.965232 36.448681 -1.372648 0.853292 0.070085 -0.025026 -45269.700000 0 0 1
5.004665 -27.874567 22.976032 36.468291 -1.393147 0.889207 0.058434 -0.018892 -126294.000000 0 0 1
4.268065 -28.937467 23.499162 37.520714 -1.424359 0.894000 0.062186 -0.018099 -43136.700000 0 0 1
2.786065 -28.753867 23.942362 37.520444 -1.474204 0.878749 0.046212 -0.024414 186171.000000 0 0 1
1.830965 -28.459167 22.899932 36.574356 -1.506548 0.894229 0.036879 -0.014490 -147811.000000 0 0 1
0.600865 -28.086767 23.423492 36.577145 -1.549406 0.875796 0.032656 -0.018988 -358388.000000 0 0 1
0.444765 -26.555367 23.851972 35.697366 -1.554049 0.839048 0.039859 -0.025019 -351034.000000 0 0 1
1.217065 -26.342067 25.006942 36.341889 -1.524627 0.811926 0.047957 -0.027330 -154107.000000 0 0 1
1.157365 -24.997567 25.422522 35.672433 -1.524530 0.777505 0.053104 -0.029135 -388931.000000 0 0 1
2.407265 -24.592467 26.218512 36.027694 -1.473221 0.755787 0.065096 -0.026592 114615.000000 0 0 1
3.563465 -24.477167 25.351022 35.418983 -1.426229 0.773104 0.064126 -0.026975 1061240.000000 0 0 1
4.694465 -23.831167 25.960432 35.551464 -1.376298 0.752151 0.073605 -0.030988 682288.000000 0 0 1
4.572565 -22.317767 26.252442 34.758910 -1.368709 0.714727 0.065361 -0.020962 -691366.000000 0 0 1
4.286165 -21.561567 25.078402 33.349642 -1.374567 0.719729 0.062204 -0.026120 208865.000000 0 0 1
3.446865 -20.432567 25.370882 32.757478 -1.403675 0.684862 0.076204 -0.033672 356626.000000 0 0 1
3.195165 -19.628167 24.122112 31.262603 -1.409427 0.689449 0.075380 -0.035283 652814.000000 0 0 1
4.340765 -18.807967 23.832902 30.669025 -1.343974 0.680751 0.074350 -0.025810 441468.000000 0 0 1
4.435365 -18.586367 22.444132 29.476509 -1.336542 0.705289 0.079760 -0.031597 333107.000000 0 0 1
5.465165 -17.448967 22.145232 28.718388 -1.267266 0.690203 0.074551 -0.018872 1290770.000000 0 0 1
6.801365 -17.845967 22.491032 29.505654 -1.206675 0.703996 0.068543 -0.026276 338097.000000 0 0 1
7.783565 -16.932767 22.015832 28.844399 -1.139926 0.702449 0.050122 -0.023131 -579976.000000 0 0 1
9.110165 -17.182767 22.669632 29.868961 -1.083288 0.709067 0.059307 -0.016829 -951257.000000 0 0 1
9.190365 -16.721167 24.003812 30.663386 -1.068241 0.671617 0.056280 -0.019369 -4912.210000 0 0 1
10.427565 -16.984967 24.639782 31.691357 -1.020198 0.680128 0.067064 -0.017213 80636.700000 0 0 1
10.698265 -16.189967 25.932132 32.388939 -0.986869 0.642421 0.082728 -0.029790 -272034.000000 0 0 1
11.009065 -14.834967 25.620582 31.586231 -0.932369 0.624712 0.091271 -0.027151 144899.000000 0 0 1
10.796765 -14.020667 26.780862 32.099281 -0.914580 0.583910 0.078208 -0.022834 103003.000000 0 0 1
10.962465 -12.509667 26.561872 31.340078 -0.851220 0.559469 0.072219 -0.024712 964474.000000 0 0 1
9.743865 -11.922067 26.057672 30.266828 -0.885597 0.533698 0.073830 -0.012760 913717.000000 0 0 1
10.031365 -10.560567 25.848442 29.669780 -0.811092 0.513146 0.064491 -0.007184 501950.000000 0 0 1
8.905165 -9.827367 25.033792 28.329664 -0.834588 0.487172 0.057568 -0.003831 -503729.000000 0 0 1
7.722165 -9.700267 25.703742 28.537859 -0.898452 0.449443 0.024327 -0.002850 -1406210.000000 0 0 1
6.696065 -9.359067 24.805322 27.344715 -0.949768 0.434373 0.018947 0.000606 -191581.000000 0 0 1
5.309865 -9.546667 25.444132 27.690023 -1.063205 0.405534 0.018289 -0.006230 -965941.000000 0 0 1
4.974465 -8.593167 26.411932 28.216626 -1.046046 0.359589 0.013894 -0.005996 1611880.000000 0 0 1
3.583965 -8.575067 26.880872 28.442185 -1.174911 0.332878 0.008444 -0.007485 2227150.000000 0 0 1
2.404565 -8.455467 25.889252 27.340999 -1.293731 0.327336 0.018629 -0.007634 -641683.000000 0 0 1
2.528865 -7.320567 25.120992 26.287832 -1.238184 0.299063 0.017460 -0.004928 -77844.400000 0 0 1
1.638765 -7.200867 24.027912 25.137196 -1.347029 0.298187 0.017895 -0.014177 -328688.000000 0 0 1
1.899665 -5.888967 23.294332 24.102169 -1.258755 0.259639 0.016008 -0.016285 91765.900000 0 1 0
1.739165 -4.699267 24.094752 24.610260 -1.216335 0.205039 0.015756 -0.006767 -21070.700000 0 1 0
2.266365 -3.504967 23.533172 23.900448 -0.996804 0.175536 0.009963 -0.007690 -579774.000000 0 1 0
1.415565 -2.781967 22.404332 22.620726 -1.100105 0.138430 0.020849 -0.012918 213865.000000 0 1 0
0.301965 -2.035967 22.754732 22.847630 -1.423554 0.090208 0.025986 -0.017233 -289128.000000 0 1 0
-0.755435 -2.605967 23.494452 23.650603 1.288644 0.114976 0.024405 -0.014336 -174134.000000 0 1 0
-1.671435 -1.503967 24.127632 24.232174 0.732708 0.092922 0.031205 -0.019953 378760.000000 0 1 0
-1.000335 -0.736967 25.111122 25.141842 0.634948 0.049440 0.041795 -0.023579 375964.000000 0 0 1
-1.908535 0.262033 25.549192 25.621717 -0.136442 0.075259 0.046488 -0.024307 -324113.000000 0 0 1
-1.418535 1.203033 26.675002 26.739769 -0.703379 0.069615 0.062337 -0.032584 -346373.000000 0 0 1
-1.534735 0.680033 27.995952 28.046233 -0.417096 0.059889 0.072497 -0.026974 -33667.500000 0 0 1
-0.848835 -0.499967 28.390832 28.407918 0.532295 0.034685 0.064320 -0.025152 -1104910.000000 0 0 1
0.472265 -0.208967 29.124632 29.129210 -0.416582 0.017730 0.062418 -0.023598 323243.000000 0 0 1
1.549165 0.228033 28.246062 28.289431 0.146148 0.055380 0.046747 -0.020171 938154.000000 0 0 1
2.095665 -0.719967 27.289162 27.378980 -0.330918 0.081023 0.035613 -0.022608 -1064230.000000 0 0 1
3.059165 -1.707967 27.863472 28.082890 -0.509202 0.125087 0.022618 -0.019289 -1018000.000000 0 0 1
2.493865 -2.787967 28.619222 28.862640 -0.841023 0.129966 0.025776 -0.017399 84830.500000 0 0 1
3.433665 -3.756767 29.057342 29.499703 -0.830303 0.173396 0.023391 -0.001411 48374.800000 0 0 1
4.049165 -4.710867 28.023752 28.703984 -0.860792 0.218139 0.021911 -0.002832 -505382.000000 0 0 1
5.096165 -4.230567 27.271412 28.064186 -0.692855 0.238254 0.026100 -0.007244 -697904.000000 0 0 1
5.468765 -5.096467 26.232252 27.276591 -0.750175 0.277611 0.020361 -0.010423 -184350.000000 0 0 1
6.536565 -4.554767 25.190172 26.420018 -0.608584 0.306318 0.016891 -0.007782 865550.000000 0 0 1
7.814765 -4.414767 25.834632 27.349386 -0.514231 0.334378 0.019244 -0.003522 554709.000000 0 0 1
8.576765 -5.624167 25.887482 27.845177 -0.580403 0.377216 0.026794 -0.005248 -462355.000000 0 0 1
9.442665 -5.851567 24.626382 27.015985 -0.554775 0.423762 0.028642 -0.011340 -1064440.000000 0 0 1
8.720865 -6.081567 23.426582 25.726323 -0.608951 0.426045 0.021677 -0.006887 -242948.000000 0 0 1
9.473365 -6.040267 22.228832 24.906835 -0.567612 0.467985 0.035138 0.000927 -119736.000000 0 1 0
9.554965 -4.573967 21.692232 24.140660 -0.446463 0.454281 0.025493 -0.001788 -1074800.000000 0 1 0
8.317065 -4.062467 21.445232 23.357551 -0.454365 0.407465 0.018031 0.001283 -1614810.000000 0 1 0
8.293765 -2.978967 20.593632 22.399966 -0.344831 0.404346 0.007789 -0.000650 -77998.700000 0 1 0
6.887665 -2.358967 20.509532 21.763400 -0.329970 0.341103 0.003162 0.010622 18245.500000 0 1 0
6.476465 -1.669967 21.639032 22.649086 -0.252355 0.299771 0.007659 0.009489 -51551.700000 0 1 0
5.330565 -0.858967 21.448232 22.117400 -0.159767 0.246613 0.002448 0.016199 -37382.200000 0 1 0
4.686265 -0.506967 22.809232 23.291182 -0.107762 0.203785 -0.004610 0.002473 -581229.000000 0 1 0
3.425365 0.081033 22.642132 22.899909 0.023652 0.150186 -0.010463 0.001538 -429882.000000 0 1 0
2.894965 0.321033 23.924432 24.101086 0.110442 0.121150 0.009103 -0.004166 384477.000000 0 1 0
1.457765 0.932033 23.815482 23.878253 0.568857 0.072525 0.017481 -0.011016 116352.000000 0 1 0
1.351565 2.263033 23.434412 23.582191 1.032412 0.112010 0.022314 -0.008637 -1159120.000000 0 1 0
0.025665 2.434033 23.167032 23.294560 1.560252 0.104686 0.019346 -0.008719 -1309960.000000 0 1 0
-0.337135 3.880033 22.708232 23.039794 -1.484124 0.169856 0.029503 -0.009197 -221912.000000 0 1 0
-0.371935 4.880033 23.709892 24.209751 -1.494728 0.203561 0.040571 -0.012045 -15946.200000 0 1 0
-1.185535 5.928033 23.249932 24.023039 -1.373412 0.254386 0.036407 -0.009809 34704.600000 0 1 0
-1.250935 7.129033 24.219272 25.277679 -1.397094 0.290402 0.053895 -0.005922 -26839.100000 0 0 1
-0.150235 7.944033 23.936602 25.220847 -1.551887 0.320494 0.037862 -0.004443 -172654.000000 0 0 1
-0.273735 9.112033 24.629662 26.262603 -1.540764 0.354493 0.050068 -0.003558 -328625.000000 0 0 1
0.576765 10.272033 24.042302 26.151092 1.514706 0.404342 0.041105 -0.001679 1237220.000000 0 0 1
2.008665 10.143033 23.939382 26.076999 1.375292 0.407721 0.025617 0.005616 986472.000000 0 0 1
2.651765 10.314033 25.253072 27.406729 1.319144 0.399080 0.039551 -0.002943 406760.000000 0 0 1
3.974265 11.181033 25.173002 27.829666 1.229277 0.440500 0.023200 -0.000502 1047380.000000 0 0 1
5.106765 10.646033 24.504702 27.201057 1.123531 0.449019 0.025218 -0.008993 196122.000000 0 0 1
4.954765 10.411033 23.151432 25.863644 1.126602 0.462064 0.022387 -0.013063 -986666.000000 0 0 1
6.249765 9.992033 22.419432 25.328466 1.011856 0.483985 0.025028 -0.013985 474810.000000 0 0 1
7.147965 11.117033 22.243732 25.874030 0.999376 0.536127 0.024365 -0.015507 -32749.600000 0 0 1
8.365765 10.661033 21.729932 25.609248 0.905451 0.557616 0.028534 -0.021874 -464859.000000 0 0 1
9.203765 11.818033 21.189432 25.949320 0.909123 0.615353 0.029804 -0.030897 -855310.000000 0 0 1
8.797165 12.310033 19.937132 25.028309 0.950316 0.649174 0.030654 -0.026931 -138414.000000 0 0 1
9.636865 13.213033 19.262932 25.268833 0.940646 0.703906 0.041963 -0.029717 -950346.000000 0 0 1
11.001265 12.743033 18.832132 25.259887 0.858622 0.729459 0.049492 -0.031267 -620337.000000 0 0 1
11.998365 12.654033 19.843032 26.416495 0.811988 0.720978 0.060527 -0.037352 470788.000000 0 0 1
13.262265 12.250033 19.349432 26.464155 0.745743 0.750781 0.064911 -0.039918 769533.000000 0 0 1
14.426765 12.195033 20.398832 27.802207 0.701763 0.747026 0.073747 -0.033125 413965.000000 0 0 1
14.800365 13.447033 20.955532 28.965632 0.737525 0.761992 0.077095 -0.032620 -301898.000000 0 0 1
16.052365 13.304033 21.559232 29.991269 0.692051 0.768649 0.078068 -0.032138 -348920.000000 0 0 1
16.744865 14.620033 21.947532 31.238278 0.717756 0.791773 0.085251 -0.027697 91559.400000 0 0 1
16.080165 15.456033 22.928432 31.987086 0.765610 0.771590 0.088947 -0.025271 952961.000000 0 0 1
16.962265 16.516033 23.394732 33.283799 0.772070 0.791349 0.085618 -0.020516 359081.000000 0 0 1
-20.639735 12.724542 -25.193951 34.966381 -0.552469 2.375347 0.034241 0.000183 301043.000000 0 0 1
-20.259135 12.686842 -26.578531 35.746424 -0.559482 2.409130 0.032476 -0.013112 232152.000000 0 0 1
-21.211435 13.448042 -27.297801 37.093730 -0.565045 2.397812 0.055275 -0.018462 207049.000000 0 0 1
-20.938835 13.445142 -28.819081 38.075532 -0.570812 2.429341 0.054435 -0.019807 854931.000000 0 0 1
-19.703035 14.160342 -29.049721 37.849851 -0.623159 2.445727 0.041063 -0.012322 483689.000000 0 0 1
-19.541435 14.366542 -30.447681 38.927195 -0.633951 2.468937 0.051605 -0.029229 103844.000000 0 0 1
-18.140835 14.939042 -30.786661 38.730910 -0.688909 2.489616 0.026033 -0.021866 668747.000000 0 0 1
-17.143935 13.888542 -30.877341 37.950182 -0.680878 2.521162 0.023004 -0.019523 60766.600000 0 0 1
-15.845035 14.435242 -30.905321 37.610906 -0.738874 2.535204 0.000741 -0.009075 270697.000000 0 0 1
-14.965035 13.976042 -29.690491 36.066706 -0.751239 2.537839 0.016322 0.000026 -21070.400000 0 0 1
-15.460835 14.402742 -28.397141 35.395961 -0.749982 2.501886 0.010800 -0.002309 306421.000000 0 0 1
-16.255635 13.370842 -27.761181 34.838316 -0.688332 2.492873 0.040328 -0.000426 63946.400000 0 0 1
-17.009935 13.899942 -26.562031 34.468649 -0.685121 2.450601 0.036103 -0.007909 -321968.000000 0 0 1
-16.200735 14.187342 -25.461241 33.346953 -0.719239 2.439551 0.042473 -0.002442 197347.000000 0 0 1
-17.054235 14.761142 -24.483431 33.289287 -0.713448 2.397163 0.044938 0.003723 121072.000000 0 0 1
-16.280235 15.365542 -23.328731 32.332269 -0.756502 2.376807 0.043261 0.000602 30018.200000 0 0 1
-15.433035 16.462142 -23.645231 32.684517 -0.817652 2.379566 0.015857 -0.004284 3515.690000 0 0 1
-14.876935 16.954942 -22.429831 31.810228 -0.850586 2.353380 0.023383 -0.004175 -289136.000000 0 0 1
-14.630635 18.455942 -22.439131 32.529862 -0.900502 2.332010 0.018934 -0.004125 -22834.500000 0 0 1
-15.749835 19.320242 -22.541331 33.607152 -0.886856 2.305989 -0.002679 -0.002321 219005.000000 0 0 1
-16.378735 19.289542 -23.825331 34.756234 -0.866825 2.326084 -0.019899 0.006548 129544.000000 0 0 1
-17.702235 20.084142 -23.961331 35.928920 -0.848351 2.300850 -0.007024 0.007446 78892.900000 0 0 1
-17.562135 21.450142 -24.095931 36.730792 -0.884731 2.286322 -0.001516 0.004850 -175852.000000 0 0 1
-18.768235 22.182242 -24.149631 37.782313 -0.868575 2.264226 0.034244 -0.006700 -122473.000000 0 0 1
-18.573335 23.733342 -24.227331 38.667866 -0.906765 2.247914 0.029452 -0.013566 -290715.000000 0 0 1
-18.033335 24.161342 -23.036731 37.942886 -0.929622 2.223256 0.038670 -0.012776 -448442.000000 0 0 1
-17.467235 25.456842 -23.193531 38.614699 -0.969426 2.215098 0.025213 -0.003692 -379105.000000 0 0 1
-16.271035 25.696342 -22.249531 37.684085 -1.006319 2.202379 0.014546 -0.013356 170039.000000 0 0 1
-15.130035 24.844742 -22.349231 36.683338 -1.023798 2.225908 0.023936 -0.023603 222436.000000 0 0 1
-15.357035 23.513042 -21.912231 35.620887 -0.992225 2.233374 0.020927 -0.006664 -1128680.000000 0 0 1
-14.098535 22.626942 -21.930131 34.520688 -1.013574 2.259161 0.025294 -0.005518 301272.000000 0 0 1
-13.228835 22.902242 -20.828431 33.665091 -1.046994 2.237877 0.031995 -0.015886 -65577.600000 0 0 1
-12.273935 21.869042 -20.666731 32.496435 -1.059359 2.260060 0.041632 -0.013634 210213.000000 0 0 1
-11.475035 22.129642 -19.328431 31.543395 -1.092429 2.230341 0.047298 -0.021730 478814.000000 0 0 1
-12.201535 21.980642 -18.076331 30.964170 -1.064043 2.194176 0.050223 -0.021611 305665.000000 0 0 1
-13.101835 23.023442 -17.725131 31.873457 -1.053434 2.160494 0.047963 -0.029486 522851.000000 0 0 1
-13.959835 22.858642 -16.409631 31.411312 -1.022544 2.120473 0.055337 -0.030231 679161.000000 0 0 1
-13.134135 23.141142 -15.286931 30.687265 -1.054567 2.092263 0.071138 -0.037962 4588.510000 0 0 1
-13.906235 23.371842 -14.132031 30.648666 -1.034062 2.050028 0.068240 -0.033827 -361401.000000 0 0 1
-13.096135 23.758442 -12.889331 30.035099 -1.067017 2.014339 0.083259 -0.030485 -158896.000000 0 0 1
-12.576435 25.069442 -12.962331 30.897665 -1.105818 2.003718 0.087442 -0.040821 -19709.800000 0 0 1
-11.850835 25.421042 -11.821431 30.437114 -1.134567 1.969679 0.060373 -0.029244 -126757.000000 0 0 1
-11.282435 26.861842 -11.918131 31.478465 -1.173154 1.959093 0.073836 -0.029115 346993.000000 0 0 1
-10.330535 27.097742 -12.951531 31.760821 -1.206573 1.990821 0.074886 -0.038146 305359.000000 0 0 1
-10.430135 28.441842 -13.349331 33.104845 -1.219306 1.985855 0.049616 -0.015076 -159645.000000 0 0 1
-9.690335 28.764642 -14.699831 33.725247 -1.245854 2.021801 0.077851 -0.036434 548734.000000 0 0 1
-8.286435 28.822042 -14.823031 33.452913 -1.290843 2.029852 0.064222 -0.038027 -112722.000000 0 0 1
-7.598135 27.571442 -14.692531 32.152551 -1.301891 2.045374 0.064525 -0.033358 1125370.000000 0 0 1
-6.093535 27.807642 -15.152931 32.249147 -1.355074 2.059941 0.055199 -0.029735 1353770.000000 0 0 1
-5.252335 28.418342 -14.185531 32.193454 -1.388037 2.027101 0.033890 -0.025075 -633620.000000 0 0 1
-4.017635 28.675142 -14.804631 32.520490 -1.431594 2.043438 0.036952 -0.018735 -168478.000000 0 0 1
-3.123935 29.656542 -13.986331 32.937622 -1.465846 2.009350 0.005169 -0.005063 -79489.600000 0 0 1
-3.355735 31.062942 -14.205631 34.321528 -1.463183 1.997529 0.001791 -0.005362 150867.000000 0 0 1
-4.579135 31.491842 -13.625931 34.617490 -1.426401 1.975356 0.000929 -0.006978 109894.000000 0 0 1
-4.769735 32.952542 -13.901531 36.081477 -1.427049 1.966309 0.006824 -0.011052 -228053.000000 0 0 1
-3.830135 33.802942 -13.269331 36.515531 -1.457970 1.942699 -0.011113 -0.007977 -149136.000000 0 0 1
-3.917535 -33.538967 -13.637431 36.416877 1.454518 1.954633 0.009356 -0.008764 116461.000000 0 0 1
-3.151935 -32.635567 -12.657131 35.145667 1.474515 1.939207 0.005971 -0.011983 227538.000000 0 0 1
-3.640235 -32.517267 -11.317831 34.622497 1.459313 1.903810 0.003994 -0.008143 456523.000000 0 0 1
-2.559735 -32.140367 -10.443731 33.891400 1.491322 1.884047 -0.005857 -0.012408 477281.000000 0 0 1
-2.912235 -32.162767 -8.970131 33.516980 1.480496 1.841728 -0.003866 -0.011178 -176444.000000 0 0 1
-1.844735 -31.643567 -8.181131 32.736055 1.512565 1.823386 0.001860 -0.021027 97802.100000 0 0 1
-2.171635 -31.497067 -6.821931 32.300464 1.501958 1.783601 0.001920 -0.023110 396459.000000 0 0 1
-0.848535 -31.254567 -5.979331 31.832694 1.543654 1.759755 0.009191 -0.023905 756837.000000 0 0 1
-1.039535 -31.136967 -4.599331 31.491987 1.537423 1.717368 0.021011 -0.029013 -659763.000000 0 0 1
0.076065 -30.598567 -3.977731 30.856125 -1.568310 1.700068 0.026306 -0.019168 -814555.000000 0 0 1
0.115965 -30.740767 -2.439531 30.837632 -1.567024 1.649988 0.034202 -0.013638 -432349.000000 0 0 1
0.303365 -32.052667 -2.030931 32.118378 -1.561332 1.634071 0.033040 -0.023667 1129450.000000 0 0 1
1.539765 -32.770167 -2.317631 32.888085 -1.523844 1.641325 0.030653 -0.020954 684469.000000 0 0 1
2.857065 -32.301167 -1.710131 32.472339 -1.482575 1.623485 0.025773 -0.011001 -1021430.000000 0 0 1
2.958465 -32.421367 -0.276631 32.557244 -1.479798 1.579293 0.029372 -0.011887 1369140.000000 0 0 1
4.251765 -31.980867 0.258669 32.263296 -1.438624 1.562779 0.017895 -0.006964 1448930.000000 0 0 1
4.293465 -30.480367 0.419169 30.784125 -1.430857 1.557180 0.022084 -0.007269 -465467.000000 0 0 1
4.511065 -29.787867 -0.790831 30.137886 -1.420499 1.597040 0.023944 -0.009055 78065.100000 0 0 1
4.353165 -28.397867 -0.678931 28.737604 -1.418688 1.594424 0.046242 -0.006911 -480367.000000 0 0 1
3.927965 -27.815867 -2.038531 28.165706 -1.430511 1.643236 0.043227 -0.003513 -999213.000000 0 0 1
2.653765 -28.161467 -2.431331 28.390528 -1.476840 1.656540 0.048720 -0.010051 -767357.000000 0 0 1
2.071665 -27.273867 -3.403231 27.563338 -1.494984 1.694582 0.045476 -0.013028 311868.000000 0 0 1
2.590365 -27.402367 -4.873531 27.952657 -1.476546 1.746041 0.031109 -0.009544 118453.000000 0 0 1
2.026865 -28.605967 -5.390431 29.179896 -1.500060 1.756594 0.030758 -0.014338 68071.200000 0 0 1
2.441065 -28.635467 -6.744431 29.520097 -1.485756 1.801301 0.041981 -0.028733 -176412.000000 0 0 1
1.656665 -29.471267 -7.808231 30.533074 -1.514643 1.829399 0.028208 -0.022305 -315001.000000 0 0 1
0.448465 -28.852867 -8.169631 29.990531 -1.555254 1.846690 0.019640 -0.015279 -384692.000000 0 0 1
0.021265 -28.968167 -9.543131 30.499615 -1.570062 1.889034 0.037385 -0.009704 98172.000000 0 0 1
-1.285535 -28.223867 -9.841731 29.918205 1.525280 1.905993 0.000620 -0.010160 -848775.000000 0 0 1
-1.133535 -26.846867 -9.683931 28.562523 1.528599 1.916696 0.012536 -0.007701 219259.000000 0 0 1
-2.351335 -26.088267 -9.662131 27.919227 1.480909 1.924180 0.009087 -0.009797 526748.000000 0 0 1
-3.260835 -26.386267 -8.451931 27.898088 1.447839 1.878591 0.007656 -0.011728 -789296.000000 0 0 1
-2.779335 -26.215767 -7.134431 27.311010 1.465173 1.835092 0.012275 -0.015289 -263376.000000 0 0 1
-1.949135 -27.282267 -6.663331 28.151754 1.499474 1.809757 0.011379 -0.013263 461496.000000 0 0 1
-1.490635 -27.078367 -5.195531 27.612561 1.515803 1.760083 0.023343 -0.009672 313270.000000 0 0 1
-2.595935 -27.294067 -4.326231 27.756464 1.475972 1.727298 0.028395 -0.014786 186147.000000 0 0 1
-2.296435 -27.012167 -2.981331 27.273048 1.485985 1.680329 0.030432 -0.005499 -1288150.000000 0 0 1
-3.421035 -27.097767 -2.060631 27.390485 1.445213 1.646099 0.032953 -0.006783 -1266720.000000 0 0 1
-4.496335 -26.217167 -2.249731 26.694909 1.400945 1.655172 0.031740 -0.003602 255105.000000 0 0 1
-5.510535 -26.382067 -1.240231 26.979949 1.364883 1.616781 0.044665 -0.003654 398852.000000 0 0 1
-6.431435 -25.117467 -1.183231 25.954779 1.320128 1.616400 0.022412 -0.001866 368224.000000 0 0 1
-5.774135 -23.897667 -0.726631 24.596080 1.333721 1.600343 0.012936 -0.002358 64954.500000 0 1 0
-6.590835 -23.208367 0.191269 24.126832 1.294096 1.562869 0.016984 0.002117 -28354.700000 0 1 0
-6.103335 -21.802267 0.621369 22.648966 1.297843 1.543358 0.009550 -0.001410 94590.200000 0 1 0
-5.035935 -21.840067 1.550369 22.466705 1.344175 1.501734 0.005356 -0.003396 -71942.100000 0 1 0
-4.454635 -20.510067 1.584869 21.048003 1.356925 1.495427 -0.005723 -0.002719 -62957.100000 0 1 0
-3.479535 -20.237567 2.773369 20.720953 1.400527 1.436550 -0.000838 -0.002165 -293513.000000 0 1 0
-4.000935 -20.325067 4.073769 21.111879 1.376434 1.376617 -0.004507 0.009812 -576829.000000 0 1 0
-3.137135 -20.039967 5.140269 20.925207 1.415513 1.322607 0.020090 -0.000360 6180.520000 0 1 0
-2.140735 -21.181867 5.537369 21.998107 1.470074 1.316339 0.020500 -0.011618 337049.000000 0 1 0
-1.282735 -21.538067 4.473869 22.035182 1.511310 1.366342 0.031548 -0.013721 -269720.000000 0 1 0
-0.660535 -22.804267 4.710769 23.295112 1.541839 1.367171 0.039209 -0.014833 -730702.000000 0 1 0
0.297565 -23.169067 3.567169 23.443953 -1.557954 1.418046 0.048673 -0.020731 66187.900000 0 1 0
1.536465 -22.529967 3.541969 22.858384 -1.502705 1.415217 0.029418 -0.018949 -332583.000000 0 1 0
2.504565 -22.843467 4.518669 23.420402 -1.461592 1.376642 0.038139 -0.018826 -814784.000000 0 1 0
3.636465 -21.832467 4.647069 22.615830 -1.405749 1.363844 0.041274 -0.019084 -639840.000000 0 1 0
4.514265 -21.900867 3.566969 22.643980 -1.367521 1.412614 0.030008 -0.005648 -1007030.000000 0 1 0
5.614365 -21.086867 3.827569 22.154624 -1.310584 1.397159 0.038207 -0.004351 -91191.900000 0 1 0
6.404965 -20.611867 2.591669 21.739122 -1.269514 1.451295 0.043565 -0.001505 -110730.000000 0 1 0
7.036065 -21.686367 1.983869 22.885377 -1.257065 1.484000 0.047843 -0.000122 -430877.000000 0 1 0
7.006865 -21.435267 0.598469 22.559366 -1.254861 1.544265 0.041354 -0.010074 -376351.000000 0 1 0
7.824365 -22.385167 -0.257131 23.714606 -1.234537 1.581639 0.046172 -0.001745 -107222.000000 0 1 0
9.160665 -21.941567 -0.372431 23.780010 -1.175293 1.586458 0.042166 0.000860 -309471.000000 0 1 0
9.904865 -22.845167 -1.194131 24.928577 -1.161693 1.618717 0.042715 0.001122 1019370.000000 0 1 0
11.298665 -22.302867 -1.678331 25.057824 -1.101882 1.637825 0.046488 0.000767 736906.000000 0 0 1
11.263465 -21.317767 -2.659231 24.256635 -1.084719 1.680646 0.045978 0.003447 30140.300000 0 1 0
12.546865 -21.081367 -3.227131 24.743934 -1.033941 1.701590 0.052757 -0.003797 158404.000000 0 1 0
12.568865 -19.847567 -4.143231 23.855160 -1.006272 1.745364 0.045103 -0.014340 -132701.000000 0 1 0
12.498665 -18.548967 -3.515831 22.641596 -0.977858 1.726709 0.054333 -0.014607 114605.000000 0 1 0
12.667565 -17.581367 -4.491031 22.130094 -0.946437 1.775153 0.056574 -0.012149 -539325.000000 0 1 0
13.027865 -16.124167 -3.984431 21.108997 -0.891214 1.760691 0.056323 -0.012432 957476.000000 0 1 0
14.363265 -15.964467 -3.494531 21.757283 -0.838146 1.732109 0.050902 -0.012638 732085.000000 0 1 0
15.404465 -15.890867 -4.435731 22.571950 -0.800939 1.768599 0.056255 -0.013473 334646.000000 0 1 0
16.853965 -15.569167 -3.961631 23.284107 -0.745793 1.741771 0.055105 -0.013324 712804.000000 0 1 0
17.456665 -16.605767 -3.208631 24.306007 -0.760423 1.703193 0.061025 -0.018155 670480.000000 0 1 0
18.869465 -16.435267 -3.124231 25.217762 -0.716559 1.695006 0.058285 -0.005741 376941.000000 0 0 1
19.535765 -17.447167 -2.152531 26.280852 -0.728983 1.652793 0.050163 -0.015503 -1098660.000000 0 0 1
20.901065 -17.254967 -2.154431 27.188784 -0.690130 1.650119 0.057833 -0.013301 -1040950.000000 0 0 1
21.513065 -18.060567 -1.175731 28.113669 -0.698376 1.612629 0.051502 -0.017899 -959223.000000 0 0 1
23.007465 -18.167667 -1.335531 29.346060 -0.668393 1.616322 0.053975 -0.021816 -717163.000000 0 0 1
23.768265 -16.954367 -1.228931 29.221418 -0.619609 1.612865 0.052093 -0.012465 757549.000000 0 0 1
25.072065 -17.228967 -0.729231 30.429879 -0.602069 1.594763 0.076076 -0.017800 561455.000000 0 0 1
25.938065 -16.014867 -0.296631 30.485196 -0.553135 1.580527 0.075303 -0.028065 376990.000000 0 0 1
25.377465 -15.447467 0.873169 29.722086 -0.546798 1.541414 0.059775 -0.028876 635601.000000 0 0 1
26.213665 -14.365867 1.259769 29.918579 -0.501329 1.528677 0.061933 -0.032198 400124.000000 0 0 1
25.473965 -13.441067 2.273469 28.892107 -0.485514 1.492027 0.068029 -0.034195 78215.900000 0 0 1
25.085465 -13.922367 3.578969 28.912314 -0.506672 1.446691 0.067512 -0.016604 163675.000000 0 0 1
26.164565 -14.385867 4.351069 30.173986 -0.502707 1.426093 0.061753 -0.008977 -528872.000000 0 0 1
25.801265 -14.869267 5.764769 30.332045 -0.522811 1.379578 0.059251 0.003772 917179.000000 0 0 1
24.854665 -15.988567 5.604069 30.079798 -0.571638 1.383395 0.050829 0.002704 780698.000000 0 0 1
24.104165 -16.203667 6.768469 29.822505 -0.591848 1.341843 0.025701 0.006353 -253758.000000 0 0 1
23.329165 -17.547067 6.743969 29.960484 -0.644877 1.343755 0.024269 -0.001050 403327.000000 0 0 1
24.172665 -18.696567 6.720669 31.289723 -0.658347 1.354321 0.026289 0.000611 286945.000000 0 0 1
23.309565 -19.815567 6.675169 31.313742 -0.704555 1.355977 0.023553 0.011680 351065.000000 0 0 1
2.115965 23.319442 -3.336331 23.651740 1.480306 1.712329 0.022329 -0.008824 394736.000000 0 1 0
2.987365 24.309142 -2.775131 24.648734 1.448519 1.683623 0.031610 -0.009149 201333.000000 0 1 0
3.746665 24.914442 -3.798831 25.479365 1.421534 1.720449 0.047942 -0.015715 -303738.000000 0 0 1
4.619665 26.091842 -3.356731 26.709421 1.395558 1.696805 0.031609 -0.005007 -68845.300000 0 0 1
5.591265 25.532542 -2.476631 26.254650 1.355214 1.665268 0.024459 0.000074 -219734.000000 0 0 1
6.328865 26.519342 -1.780331 27.322146 1.336527 1.636003 0.016699 0.002561 -535631.000000 0 0 1
7.529165 25.879142 -1.100231 26.974596 1.287676 1.611595 -0.000210 -0.006770 -573297.000000 0 0 1
8.479265 25.409942 -2.020231 26.863441 1.248717 1.646071 0.002898 -0.008407 75639.400000 0 0 1
9.371765 24.458442 -1.402731 26.230003 1.204881 1.624300 -0.011950 -0.004668 654037.000000 0 0 1
10.639065 24.057542 -2.221931 26.398713 1.154419 1.655064 0.013729 -0.007644 -1056010.000000 0 0 1
11.507065 25.172342 -2.288131 27.772197 1.142028 1.653279 0.018063 -0.002465 288698.000000 0 0 1
12.502365 25.051342 -3.313431 28.193221 1.107893 1.688594 0.029659 -0.007086 204032.000000 0 0 1
13.509665 23.905442 -3.272531 27.653041 1.056412 1.689417 0.036968 -0.006606 -1491260.000000 0 0 1
13.033865 22.571842 -3.487331 26.296981 1.047131 1.703801 0.042624 -0.016785 -286987.000000 0 0 1
12.779565 22.230142 -4.805631 26.088132 1.049056 1.756062 0.039659 -0.016278 -358358.000000 0 0 1
11.803165 21.080442 -4.996831 24.671199 1.060376 1.774744 0.048840 -0.025530 -399895.000000 0 1 0
10.468565 21.356542 -4.700131 24.244257 1.115035 1.765897 0.053494 -0.024633 -462292.000000 0 1 0
9.571665 20.278942 -4.900231 22.953530 1.129798 1.785937 0.034968 -0.018795 549946.000000 0 1 0
8.092265 20.719842 -4.725531 22.740432 1.198457 1.780125 0.024174 -0.013335 239722.000000 0 1 0
7.803765 21.187942 -3.402131 22.834232 1.217902 1.720346 0.023935 -0.013663 -453954.000000 0 1 0
6.524465 21.736642 -3.441731 22.954211 1.279193 1.721303 0.026410 -0.000334 -332924.000000 0 1 0
5.898465 22.282142 -2.173331 23.151871 1.312015 1.664808 0.021211 -0.005178 9166.320000 0 1 0
5.636765 21.318242 -1.171231 22.081947 1.312302 1.623861 0.013340 -0.007927 418199.000000 0 1 0
4.868865 21.979942 -0.119831 22.513065 1.352802 1.576119 0.013100 -0.003993 602580.000000 0 1 0
4.585165 21.073842 1.092769 21.594553 1.356559 1.520171 0.001845 -0.001409 204324.000000 0 1 0
3.748565 21.727242 2.053369 22.143648 1.399950 1.477933 0.011166 -0.002900 321627.000000 0 1 0
3.408465 20.718542 3.016669 21.212636 1.407744 1.428102 0.012687 -0.010324 -456797.000000 0 1 0
2.439965 21.264642 4.043669 21.782785 1.456553 1.384077 0.012087 -0.008976 -522249.000000 0 1 0
1.149965 21.390942 3.490969 21.704417 1.517089 1.409253 0.011631 -0.010799 -322470.000000 0 1 0
0.262065 21.979942 4.407469 22.419017 1.558874 1.372912 0.016161 -0.013991 -180462.000000 0 1 0
-1.115435 22.314242 3.847569 22.670981 -1.520850 1.400258 0.014201 -0.005113 143554.000000 0 1 0
-2.163435 22.447542 4.823869 23.061707 -1.474716 1.360068 0.027032 -0.020776 289999.000000 0 1 0
-3.349535 22.832142 4.160969 23.448663 -1.425133 1.392401 0.030773 -0.014197 174224.000000 0 1 0
-4.612535 22.927442 5.049769 23.925787 -1.372267 1.358137 0.047897 -0.029155 -25509.800000 0 1 0
-4.785935 24.238542 5.665369 25.347752 -1.375853 1.345387 0.058279 -0.023154 -186718.000000 0 0 1
-6.045035 24.306642 6.278469 25.821977 -1.327043 1.325190 0.062622 -0.022359 -61212.400000 0 0 1
-6.441035 25.749142 6.659069 27.365096 -1.325681 1.324987 0.068286 -0.021331 -449852.000000 0 0 1
-5.606235 26.249842 7.701269 27.924785 -1.360385 1.291389 0.052077 -0.031075 78413.400000 0 0 1
-5.847535 27.483842 8.346769 29.312520 -1.361160 1.282050 0.066911 -0.020734 -317084.000000 0 0 1
-5.860335 28.731242 7.523969 30.272726 -1.369586 1.319624 0.074121 -0.015831 1280810.000000 0 0 1
-7.116335 28.852542 6.793869 30.483899 -1.328978 1.346041 0.067853 -0.019575 915698.000000 0 0 1
-7.079935 30.049342 6.038469 31.457139 -1.339406 1.377639 0.075337 -0.021377 195019.000000 0 0 1
-8.454535 30.269142 5.310769 31.873255 -1.298426 1.403394 0.064395 -0.021185 466085.000000 0 0 1
-9.453035 30.880042 6.071769 32.860360 -1.273733 1.384954 0.062398 -0.010475 -43712.800000 0 0 1
-10.184035 29.885742 6.835169 32.304670 -1.242372 1.357600 0.041767 -0.007351 -230877.000000 0 0 1
-11.133435 30.485242 7.908569 33.404324 -1.220638 1.331774 0.024909 -0.010726 36698.100000 0 0 1
-10.493735 30.865142 9.104869 33.847808 -1.243070 1.298448 0.025525 -0.005025 343915.000000 0 0 1
-11.492835 31.117442 10.093769 34.673688 -1.216999 1.275412 0.029106 0.002352 151831.000000 0 0 1
-10.881335 31.642242 11.440569 35.362715 -1.239578 1.241348 0.022564 -0.006565 10555.500000 0 0 1
-10.501635 33.005342 11.502069 36.495679 -1.262745 1.250168 0.020958 -0.003536 269598.000000 0 0 1
-9.808735 33.298142 12.709969 36.966483 -1.284326 1.219810 0.024246 -0.008623 423838.000000 0 0 1
-9.179635 -33.892667 12.733369 37.351269 1.306298 1.222913 0.022566 -0.007819 553700.000000 0 0 1
-10.146435 -32.930867 13.160369 36.886142 1.271913 1.205974 0.012869 0.003830 555601.000000 0 0 1
-9.554435 -31.615667 13.255269 35.588479 1.277317 1.189138 0.016773 0.011921 278142.000000 0 0 1
-10.429435 -30.636367 14.061169 35.285643 1.242675 1.160920 0.019915 0.005896 141131.000000 0 0 1
-10.734535 -30.894967 15.475569 36.183180 1.236393 1.128849 0.015296 -0.003798 791178.000000 0 0 1
-9.578735 -30.765767 16.333369 36.125663 1.268965 1.101648 0.023938 -0.010954 585850.000000 0 0 1
-9.828135 -31.083367 17.833869 37.159317 1.264557 1.070221 0.018894 -0.014906 -110541.000000 0 0 1
-10.753235 -30.231367 18.468469 37.022317 1.229054 1.048529 0.031992 -0.010007 54539.600000 0 0 1
-11.438735 -30.986967 19.431669 38.322664 1.217167 1.039033 0.032763 -0.009201 -317903.000000 0 0 1
-11.709235 -30.094067 20.676569 38.344225 1.199732 1.001267 0.036398 -0.011082 -653060.000000 0 0 1
-10.582735 -29.767567 21.409669 38.163808 1.229219 0.975210 0.030515 -0.015607 -168515.000000 0 0 1
-10.957335 -28.962067 22.519269 38.288145 1.209106 0.942024 0.020619 -0.016095 682016.000000 0 0 1
-9.713135 -28.906167 23.462369 38.475892 1.246627 0.914996 0.034165 -0.022205 550839.000000 0 0 1
-9.540535 -29.985567 24.315469 39.766796 1.262753 0.912903 0.035532 -0.014037 151405.000000 0 0 1
-8.308935 -29.905167 25.013169 39.862464 1.299789 0.892475 0.044399 -0.012914 116865.000000 0 0 1
-8.142035 -31.064867 26.006369 41.323721 1.314464 0.890102 0.052685 -0.014712 -309963.000000 0 0 1
-7.928635 -32.348667 25.444669 41.913372 1.330435 0.918419 0.067931 -0.008466 330777.000000 0 0 1
-8.112035 -33.375067 26.398569 43.319565 1.332363 0.915504 0.081021 -0.013933 -399912.000000 0 0 1
-7.810035 33.859742 25.793869 43.275888 -1.344103 0.932244 0.078758 -0.017241 450047.000000 0 0 1
-6.435635 33.532242 25.545169 42.642518 -1.381178 0.928477 0.077858 -0.013958 720965.000000 0 0 1
-6.148135 32.277542 24.984769 41.278057 -1.382574 0.920679 0.070181 -0.010687 -21527.500000 0 0 1
-6.841035 31.799642 23.640569 40.210615 -1.358897 0.942313 0.066550 -0.011831 184816.000000 0 0 1
-8.013935 31.042442 23.846769 39.956536 -1.318152 0.931267 0.063570 -0.015562 297918.000000 0 0 1
-8.787935 30.844842 22.673569 39.277511 -1.293242 0.955420 0.051699 -0.008373 506984.000000 0 0 1
-9.751035 29.610042 22.663269 38.541679 -1.252667 0.942188 0.046153 -0.015986 335514.000000 0 0 1
-9.037635 28.382342 22.664769 37.428972 -1.262523 0.920351 0.044637 -0.013552 330630.000000 0 0 1
-9.786135 27.228742 23.142269 37.050472 -1.225768 0.896158 0.035516 -0.014966 -170610.000000 0 0 1
-9.099335 25.864642 23.011169 35.795133 -1.232514 0.872573 0.028743 -0.013708 -70101.300000 0 0 1
-7.810735 25.836942 23.593369 35.849717 -1.277223 0.852479 0.020670 -0.019047 26463.400000 0 0 1
-7.287835 24.550842 23.481969 34.745637 -1.282235 0.828713 0.013238 -0.017956 261415.000000 0 0 1
-5.806535 24.331342 23.924169 34.613522 -1.336534 0.807676 -0.004139 -0.011564 411898.000000 0 0 1
-4.909635 25.040442 23.109769 34.426584 -1.377184 0.834866 -0.000586 -0.012274 397404.000000 0 0 1
-3.637535 25.249642 23.765669 34.865214 -1.427718 0.820789 -0.000900 -0.011263 561383.000000 0 0 1
-2.699835 26.032942 22.885469 34.767052 -1.467457 0.852302 0.004045 0.000404 -465975.000000 0 0 1
-2.273135 25.300542 21.765669 33.451890 -1.481192 0.862348 0.004485 0.000159 548527.000000 0 0 1
-1.295135 25.845742 20.843369 33.228389 -1.520728 0.892746 0.009156 0.003953 776978.000000 0 0 1
-1.064935 24.873842 19.666269 31.727027 -1.528009 0.902234 0.016257 -0.004113 35709.300000 0 0 1
-0.165735 23.842542 20.090469 31.178859 -1.563845 0.870608 0.020486 -0.001900 140545.000000 0 0 1
0.042365 22.846742 19.122969 29.793680 1.568942 0.873893 0.017110 -0.002247 -451381.000000 0 0 1
1.076165 21.793542 19.512969 29.272386 1.521456 0.841158 0.022688 0.008255 212065.000000 0 0 1
2.407665 22.298042 19.493769 29.715427 1.463237 0.855270 0.024482 -0.005350 315040.000000 0 0 1
3.356265 21.232242 19.380769 28.942820 1.414020 0.837096 0.028993 0.003219 473821.000000 0 0 1
4.823065 21.701842 19.259369 29.413521 1.352108 0.856906 0.027259 -0.008970 290455.000000 0 0 1
5.730465 20.593842 19.121169 28.680371 1.299401 0.841026 0.036245 -0.006763 1669410.000000 0 0 1
7.057965 21.161442 18.818069 29.184606 1.248869 0.870042 0.048045 -0.004161 1958320.000000 0 0 1
8.160465 20.059542 18.534669 28.504603 1.184431 0.862904 0.051841 -0.004443 361144.000000 0 0 1
8.527865 19.376042 19.679569 28.903995 1.156185 0.821860 0.050664 -0.004823 -593381.000000 0 0 1
9.642365 18.591042 19.422369 28.562746 1.092335 0.823048 0.050027 -0.012071 -328032.000000 0 0 1
10.145965 17.811742 20.654469 29.099929 1.053013 0.781614 0.069033 -0.019589 -100942.000000 0 0 1
9.237665 16.817742 21.096069 28.516925 1.068505 0.738062 0.056069 -0.016744 -75717.400000 0 0 1
9.738565 16.198542 22.251469 29.195210 1.029495 0.704151 0.055458 -0.022889 -181966.000000 0 0 1
8.773865 15.166442 22.867069 28.808064 1.046332 0.653808 0.042875 -0.018519 -638402.000000 0 0 1
7.696065 15.757242 23.537869 29.352195 1.116460 0.640308 0.034637 -0.005241 -2023.370000 0 0 1
6.569765 14.910442 23.758169 28.808570 1.155774 0.601141 0.031470 -0.000820 548386.000000 0 0 1
6.843565 13.692642 24.672469 29.035385 1.107310 0.555308 0.040199 -0.005269 -800848.000000 0 0 1
6.973465 14.042442 26.088169 30.437016 1.109873 0.541144 0.050174 -0.009718 -127301.000000 0 0 1
7.310565 12.893842 26.795669 30.621943 1.055009 0.505261 0.056796 -0.019541 -674097.000000 0 0 1
8.348965 13.240742 27.883969 31.977151 1.008215 0.511530 0.044701 -0.015057 -206247.000000 0 0 1
9.644265 13.570342 27.463769 32.115801 0.952934 0.544960 0.069056 -0.015466 -268739.000000 0 0 1
9.822765 14.825242 26.857769 32.212021 0.985635 0.584875 0.064012 -0.017361 -1181870.000000 0 0 1
11.231265 14.871642 26.270169 32.209142 0.923967 0.617010 0.087972 -0.028002 -400627.000000 0 0 1
11.376565 13.890442 25.264069 30.994254 0.884564 0.617858 0.076140 -0.031955 703008.000000 0 0 1
12.743765 13.667142 24.864769 31.103875 0.820346 0.644483 0.094446 -0.040655 411666.000000 0 0 1
12.798465 12.574742 23.783269 29.792092 0.776581 0.646316 0.073479 -0.036432 -28.579800 0 0 1
12.445365 11.274242 24.277069 29.519006 0.736065 0.605141 0.069631 -0.033609 -1050670.000000 0 0 1
11.071965 11.177642 24.283169 28.934415 0.790148 0.574896 0.072255 -0.024308 -1494510.000000 0 0 1
10.620965 9.745442 24.789469 28.675709 0.742436 0.526689 0.056327 -0.027373 -11411.800000 0 0 1
10.827165 8.841442 23.763969 27.570361 0.684780 0.531715 0.055265 -0.023750 336976.000000 0 0 1
10.319365 7.522942 24.056669 27.236139 0.629933 0.488020 0.051985 -0.032044 9650.790000 0 0 1
10.720165 6.497842 23.036469 26.226376 0.544917 0.498354 0.042981 -0.037412 -116179.000000 0 0 1
12.101765 6.176342 23.044269 26.751416 0.471907 0.532733 0.059513 -0.031547 300986.000000 0 0 1
12.396465 5.017942 22.340269 26.037275 0.384627 0.539412 0.062565 -0.031328 -301005.000000 0 0 1
11.991665 3.707042 23.047569 26.243716 0.299816 0.498684 0.046943 -0.031315 59635.000000 0 0 1
12.956965 3.268142 24.037069 27.501716 0.247077 0.507380 0.051637 -0.022797 495014.000000 0 0 1
12.606465 1.991842 24.480369 27.607587 0.156706 0.480582 0.043706 -0.020891 -932598.000000 0 0 1
13.590965 1.185942 25.326469 28.767183 0.087039 0.494103 0.028987 -0.010600 -528154.000000 0 0 1
14.609465 0.600242 24.558669 28.581899 0.041063 0.537017 0.039992 -0.010349 90734.200000 0 0 1
15.830365 1.335342 24.556769 29.247538 0.084154 0.574216 0.045594 -0.015389 -180893.000000 0 0 1
16.883465 0.472842 23.809569 29.191960 0.027999 0.616995 0.044339 -0.017507 -200310.000000 0 0 1
16.957965 -0.895758 24.178069 29.545794 -0.052773 0.612305 0.042146 -0.016761 -460460.000000 0 0 1
17.947865 -1.548458 23.482569 29.596531 -0.086062 0.654384 0.055107 -0.006811 -644182.000000 0 0 1
18.187765 -3.042058 23.857869 30.153720 -0.165724 0.658014 0.053006 -0.001535 -527522.000000 0 0 1
17.142765 -3.874858 23.466069 29.318003 -0.222299 0.642838 0.044455 0.002588 -185624.000000 0 0 1
17.254465 -5.215058 23.930569 29.959732 -0.293514 0.645569 0.065787 -0.000705 454106.000000 0 0 1
16.278565 -6.169058 23.123969 28.944203 -0.362245 0.645307 0.041402 -0.003833 410508.000000 0 0 1
16.631065 -6.379758 21.723969 28.093139 -0.366293 0.686792 0.032434 -0.001771 271906.000000 0 0 1
15.918865 -7.411258 21.023469 27.392029 -0.435722 0.695859 0.043705 -0.007683 95420.400000 0 0 1
16.500865 -8.837858 21.253669 28.321453 -0.491720 0.722062 0.055747 -0.014417 91437.100000 0 0 1
16.219265 -9.351458 22.531769 29.294964 -0.523009 0.693310 0.048399 -0.005050 365516.000000 0 0 1
16.975965 -10.585858 22.662369 30.229567 -0.557577 0.723225 0.048524 -0.005976 337965.000000 0 0 1
16.483165 -11.593058 23.759369 31.154475 -0.612955 0.703425 0.066861 -0.013782 283207.000000 0 0 1
15.370965 -12.348458 23.289669 30.514909 -0.676788 0.702510 0.077712 -0.020833 187681.000000 0 0 1
14.921565 -13.239658 24.254169 31.403922 -0.725745 0.688296 0.101070 -0.015672 -160040.000000 0 0 1
13.993665 -14.334958 23.653269 30.996626 -0.797445 0.702713 0.089852 -0.031038 -229235.000000 0 0 1
14.545865 -15.339458 22.908569 31.171841 -0.811947 0.745259 0.103939 -0.029111 -656169.000000 0 0 1
13.686465 -16.411958 22.853069 31.287928 -0.875705 0.751872 0.094567 -0.017362 -499413.000000 0 0 1
13.987865 -17.318458 21.645869 31.050491 -0.891387 0.799426 0.075045 -0.019761 820314.000000 0 0 1
15.291865 -17.915258 21.719669 32.039688 -0.864235 0.825896 0.088051 -0.026963 520262.000000 0 0 1
15.774665 -18.275158 20.433069 31.628021 -0.858703 0.868407 0.069837 -0.019876 -5717.020000 0 0 1
-23.673535 -32.558567 26.816972 48.369893 0.942109 0.983137 0.050406 -0.015744 -1115680.000000 0 0 1
-24.016035 -33.807767 26.281732 49.096482 0.953144 1.005924 0.052684 -0.014609 996325.000000 0 0 1
-25.424305 -33.766767 25.959842 49.603460 0.925417 1.020022 0.048670 -0.028173 1375590.000000 0 0 1
-26.299865 34.196742 27.081572 50.936349 -0.915198 1.010220 0.043176 -0.026760 -454695.000000 0 0 1
-26.846005 -33.581967 28.097422 51.360701 0.896411 0.991947 0.058313 -0.023740 403246.000000 0 0 1
-26.383315 -33.914067 29.379422 52.051837 0.909648 0.971058 0.030157 -0.010241 365222.000000 0 0 1
-27.285505 -33.122967 30.410192 52.596668 0.881732 0.954304 0.031439 -0.023454 431104.000000 0 0 1
-27.316875 -31.714467 30.366442 51.712087 0.859757 0.943175 0.031885 -0.014453 348721.000000 0 0 1
-28.224345 -31.266367 31.370842 52.519797 0.836488 0.930648 0.024146 0.001464 84172.200000 0 0 1
-28.507795 -29.752167 31.261082 51.721766 0.806754 0.921773 0.017408 -0.008510 24499.700000 0 0 1
-29.287045 -29.479067 30.094802 51.307344 0.788666 0.943992 0.015410 0.006334 327805.000000 0 0 1
-29.738275 -28.140767 30.092612 50.811742 0.757804 0.936964 0.004969 0.005091 -287522.000000 0 0 1
-30.515965 -27.739167 28.859062 50.334193 0.737768 0.960209 0.001411 -0.010113 -625505.000000 0 0 1
-29.778295 -27.604067 27.691042 49.147993 0.747526 0.972275 0.012359 -0.004355 -202769.000000 0 0 1
-29.263835 -26.288967 27.557012 48.029894 0.731899 0.959723 0.005381 -0.002428 562524.000000 0 0 1
-28.168485 -26.200167 26.410512 46.662913 0.749211 0.969169 0.024589 0.008039 507159.000000 0 0 1
-28.664575 -26.100067 25.124952 46.196695 0.738605 0.995756 0.004763 0.010417 -68573.300000 0 0 1
-27.576135 -26.202267 24.224482 45.097977 0.759857 1.003739 0.017388 0.024601 -2520.670000 0 0 1
-27.978795 -26.365067 22.723832 44.657612 0.755712 1.036953 -0.001910 0.024891 -19959.600000 0 0 1
-28.583965 -25.303067 21.996832 44.058471 0.724588 1.048047 -0.008624 0.025832 393230.000000 0 0 1
-28.945455 -25.735867 20.642632 43.889549 0.726769 1.081130 -0.004238 0.021288 -259578.000000 0 0 1
-29.638235 -24.784367 19.711432 43.373153 0.696445 1.099029 -0.003222 0.016493 -28766.000000 0 0 1
-30.991165 -24.528967 20.066632 44.325977 0.669526 1.100999 0.013719 0.006223 389296.000000 0 0 1
-31.552975 -23.522467 19.229132 43.802468 0.640609 1.116315 0.030721 -0.002783 -98563.600000 0 0 1
-32.948985 -22.972767 19.619732 44.702545 0.608859 1.116428 0.055628 0.004483 881507.000000 0 0 1
-33.963015 -23.976567 19.315132 45.841428 0.614716 1.135867 0.044404 0.002297 1230110.000000 0 0 1
-35.278499 -23.427767 19.406032 46.583547 0.586210 1.141110 0.063365 -0.009510 1036640.000000 0 0 1
35.682175 -24.086067 18.665332 46.922818 -0.593761 1.161692 0.077119 -0.011403 629608.000000 0 0 1
35.253035 -25.316467 19.189732 47.454671 -0.622794 1.154495 0.072037 -0.008365 -271195.000000 0 0 1
34.867635 -26.186467 18.189132 47.247514 -0.644157 1.175615 0.082557 0.000179 -146097.000000 0 0 1
34.642625 -27.541667 18.829432 48.095763 -0.671699 1.168537 0.072580 0.006386 -563488.000000 0 0 1
33.422605 -27.692967 19.473932 47.573154 -0.691921 1.149058 0.074776 0.002259 -719948.000000 0 0 1
33.437185 -27.294867 20.824732 47.924154 -0.684603 1.121274 0.071344 -0.000894 -919712.000000 0 0 1
32.080825 -27.434167 21.475032 47.360214 -0.707481 1.100175 0.056202 -0.004897 -279486.000000 0 0 1
31.091485 -26.558967 20.905632 45.924989 -0.706939 1.098185 0.058892 -0.000382 -263381.000000 0 0 1
30.002285 -26.440667 21.779832 45.536876 -0.722381 1.072090 0.053457 0.005728 -83634.100000 0 0 1
28.988045 -25.375467 21.226232 43.986066 -0.719043 1.067213 0.044883 0.013338 59551.900000 0 0 1
29.477695 -24.074267 20.950832 43.444703 -0.684838 1.067585 0.043720 0.016413 -203892.000000 0 0 1
30.256995 -23.439867 21.957232 44.125199 -0.659118 1.049953 0.057092 0.005734 -322601.000000 0 0 1
30.982775 -22.153467 21.620532 43.796756 -0.620739 1.054508 0.048493 0.002737 -55527.200000 0 0 1
30.150985 -21.060767 21.297132 42.499478 -0.609725 1.045909 0.047418 -0.007095 -31315.800000 0 0 1
30.964425 -19.969967 20.844832 42.333228 -0.572805 1.055953 0.059985 -0.007279 257996.000000 0 0 1
30.327205 -18.565267 21.006632 41.299965 -0.549317 1.037197 0.028876 0.002871 -14546.100000 0 0 1
30.259185 -18.024967 22.319432 41.697419 -0.537241 1.005967 0.023801 -0.000398 -5125.030000 0 0 1
29.121075 -18.435267 23.044532 41.460180 -0.564371 0.981443 0.027680 0.005298 -255823.000000 0 0 1
29.153425 -18.014367 24.537302 42.148770 -0.553489 0.949414 0.020269 0.014544 -152321.000000 0 0 1
28.894715 -16.667267 24.774802 41.551091 -0.523207 0.931976 0.022999 -0.000469 121786.000000 0 0 1
29.150015 -16.363367 26.174482 42.456880 -0.511516 0.906512 0.017896 0.007140 -22787.100000 0 0 1
28.897605 -14.864667 26.406132 41.872589 -0.475094 0.888431 0.018196 -0.006046 792799.000000 0 0 1
27.515045 -14.481067 26.263282 40.700602 -0.484463 0.869407 0.023939 -0.007991 961632.000000 0 0 1
27.218585 -13.123467 26.607162 40.261866 -0.449267 0.848842 0.015688 -0.015195 25845.400000 0 0 1
27.892805 -12.035767 25.751012 39.824400 -0.407364 0.867659 0.026455 -0.021272 -256395.000000 0 0 1
27.348605 -12.126167 24.446742 38.634613 -0.417346 0.885674 0.026172 -0.008104 337215.000000 0 0 1
27.989865 -11.288967 23.517342 38.261452 -0.383368 0.908856 0.027882 0.000430 -215970.000000 0 0 1
29.180995 -11.856867 22.703632 38.827447 -0.385944 0.946247 0.028002 -0.011143 -260393.000000 0 0 1
28.889035 -12.843867 21.740832 38.369324 -0.418349 0.968398 0.019007 -0.012745 1234.720000 0 0 1
29.032345 -14.152767 22.295132 39.246029 -0.453584 0.966618 0.019941 -0.010128 -101730.000000 0 0 1
28.305205 -15.095067 21.325932 38.520657 -0.489929 0.984087 0.023948 -0.007935 -203659.000000 0 0 1
28.875155 -15.122867 20.031132 38.258619 -0.482453 1.019758 0.029510 -0.008474 -325015.000000 0 0 1
28.374505 -16.107367 19.192632 37.853889 -0.516308 1.039074 0.028192 -0.013727 -523035.000000 0 0 1
28.746295 -15.928867 17.712132 37.333603 -0.506000 1.076481 0.044246 -0.022118 215458.000000 0 0 1
28.092725 -16.890767 16.797832 36.832952 -0.541339 1.097240 0.053046 -0.024625 578507.000000 0 0 1
26.714005 -16.646467 16.576332 35.574116 -0.557258 1.086070 0.040086 -0.027892 -238075.000000 0 0 1
26.357305 -15.388767 15.585632 34.270010 -0.528461 1.098661 0.053470 -0.032567 -482353.000000 0 0 1
26.354005 -15.731667 14.177532 33.808599 -0.538164 1.138071 0.060740 -0.032838 -40057.400000 0 0 1
25.374805 -16.671367 13.843732 33.368610 -0.581284 1.142993 0.030584 -0.035321 -745069.000000 0 0 1
25.579505 -17.351967 12.470332 33.330332 -0.596050 1.187323 0.043533 -0.016661 -357054.000000 0 0 1
25.340705 -16.516667 11.357932 32.310281 -0.577628 1.211595 0.049887 -0.022045 -103111.000000 0 0 1
25.293305 -17.191067 10.119732 32.213243 -0.596950 1.251237 0.030097 -0.012347 622623.000000 0 0 1
26.673505 -17.414467 9.405732 33.214565 -0.578394 1.283687 0.043853 -0.009096 859309.000000 0 0 1
27.480095 -18.422667 9.999032 34.561987 -0.590583 1.277293 0.050102 -0.010258 314629.000000 0 0 1
28.843335 -18.378167 9.553232 35.509988 -0.567304 1.298411 0.060562 0.000734 449091.000000 0 0 1
29.664275 -19.345267 10.407032 36.912259 -0.577878 1.284981 0.078452 -0.014851 -289943.000000 0 0 1
29.915795 -18.829467 11.712832 37.238341 -0.561768 1.250828 0.087337 -0.031047 115795.000000 0 0 1
29.714425 -19.816267 12.728232 37.916215 -0.588158 1.228455 0.084337 -0.029284 -30487.400000 0 0 1
29.697555 -19.239367 14.149232 38.109038 -0.574858 1.190406 0.082478 -0.021882 145507.000000 0 0 1
29.431255 -20.307167 14.983232 38.769538 -0.603974 1.173996 0.073333 -0.014773 -29895.000000 0 0 1
29.534895 -20.004067 16.337432 39.234989 -0.595330 1.141315 0.073752 -0.018083 91171.000000 0 0 1
29.273245 -21.234967 17.202532 40.047145 -0.627574 1.126794 0.052459 -0.006898 147975.000000 0 0 1
27.931415 -21.672567 17.153532 39.295137 -0.659885 1.119057 0.013205 0.002659 -174232.000000 0 0 1
27.791145 -22.740867 18.076632 40.202729 -0.685787 1.104437 0.033221 0.002136 -265003.000000 0 0 1
26.451205 -23.442867 17.906532 39.621688 -0.725177 1.101860 0.006464 0.013102 409164.000000 0 0 1
25.351605 -22.817067 18.617132 38.857689 -0.732829 1.071155 0.008954 0.017913 441409.000000 0 0 1
24.150305 -23.515967 18.398832 38.402538 -0.772091 1.071162 0.007774 0.004940 -154111.000000 0 0 1
22.938505 -22.872167 19.090132 37.599790 -0.783950 1.038261 0.002059 0.012660 -293744.000000 0 0 1
22.470105 -21.643167 18.470032 36.255681 -0.766655 1.036264 0.005762 0.011895 -78773.500000 0 0 1
21.304905 -21.123967 19.074932 35.552412 -0.781134 1.004477 0.004757 0.011320 201473.000000 0 0 1
21.372805 -20.666767 20.556832 36.145475 -0.768605 0.965842 0.005205 0.011607 -219190.000000 0 0 1
21.513905 -21.740267 21.539032 37.408785 -0.790631 0.957245 0.010499 0.014360 -402160.000000 0 0 1
22.040705 -21.150267 22.695532 38.055402 -0.764785 0.931811 0.017735 0.019975 -83280.900000 0 0 1
22.426405 -22.146267 23.796062 39.492447 -0.779113 0.924107 0.015614 0.017882 -595248.000000 0 0 1
21.338805 -22.742267 24.444692 39.624466 -0.817226 0.905987 0.034802 0.015782 -348388.000000 0 0 1
21.710005 -23.673967 25.443202 40.977281 -0.828646 0.900893 0.035891 0.020126 -507173.000000 0 0 1
20.516005 -24.401767 26.029112 41.156620 -0.871692 0.886097 0.056689 0.007983 -588980.000000 0 0 1
19.852405 -25.380367 25.315482 40.977490 -0.907007 0.904867 0.049686 0.006279 -438341.000000 0 0 1
18.938205 -26.002367 26.163752 41.464691 -0.941311 0.887969 0.041782 0.008234 -263353.000000 0 0 1
18.097705 -27.072367 25.398542 41.298014 -0.981530 0.908402 0.049740 0.001567 -58931.300000 0 0 1
17.258005 -26.484167 24.438532 39.956122 -0.993273 0.912672 0.053152 -0.002374 1551.880000 0 0 1
16.870405 -27.331467 23.426992 39.754794 -1.017788 0.940620 0.045318 -0.007410 -117953.000000 0 0 1
15.867805 -26.672867 22.452532 38.305943 -1.034132 0.944514 0.052377 -0.005759 752821.000000 0 0 1
14.576605 -26.357467 22.982932 37.886787 -1.065626 0.918993 0.041347 -0.009925 666449.000000 0 0 1
13.787605 -25.607967 22.080832 36.516150 -1.076894 0.921424 0.032992 -0.010235 947612.000000 0 0 1
12.393805 -25.026367 22.517332 35.874165 -1.110972 0.892233 0.047556 -0.012696 901377.000000 0 0 1
11.388605 -26.002667 22.710432 36.353855 -1.157984 0.896043 0.036626 -0.015176 -594515.000000 0 0 1
10.175805 -25.366667 22.429032 35.356418 -1.189300 0.883604 0.042979 -0.012328 352304.000000 0 0 1
8.913405 -26.306067 22.306932 35.623829 -1.244103 0.894152 0.050976 -0.024965 537831.000000 0 0 1
8.824205 -27.006767 21.109532 35.395542 -1.254991 0.931801 0.058358 -0.018654 -1408390.000000 0 0 1
7.613005 -27.592567 21.006632 35.504735 -1.301586 0.937683 0.060306 -0.011567 -1405700.000000 0 0 1
7.551905 -28.579067 19.848132 35.605375 -1.312455 0.979488 0.063982 -0.018755 -158638.000000 0 0 1
8.101505 -29.785467 20.204032 36.891887 -1.305226 0.991237 0.062307 -0.019742 -90494.700000 0 0 1
7.812705 -30.705967 19.153532 37.023676 -1.321647 1.027066 0.053945 -0.011551 139371.000000 0 0 1
8.401705 -32.160267 19.255732 38.414251 -1.315263 1.045736 0.046037 -0.012626 133297.000000 0 0 1
7.900305 -32.979667 20.312432 39.530598 -1.335676 1.031141 0.056287 -0.020516 365887.000000 0 0 1
8.651505 -34.191167 20.213632 40.650650 -1.322965 1.050367 0.048446 -0.022616 99707.600000 0 0 1
8.232805 33.232442 21.089732 40.211331 1.327952 1.018701 0.054752 -0.024928 103307.000000 0 0 1
7.138705 32.449542 20.587132 39.086621 1.354252 1.016076 0.050366 -0.019130 358495.000000 0 0 1
7.007605 31.342942 21.400132 38.593422 1.350835 0.983032 0.055051 -0.029125 -502078.000000 0 0 1
6.000305 30.339042 20.871732 37.310727 1.375541 0.977131 0.044452 -0.020304 -443226.000000 0 0 1
4.711405 30.635642 21.341732 37.632558 1.418203 0.967806 0.040341 -0.023805 -74239.100000 0 0 1
3.760805 29.632742 20.894832 36.453218 1.444557 0.960396 0.038493 -0.018464 625572.000000 0 0 1
2.377205 29.755042 21.550332 36.816171 1.491073 0.945485 0.014660 -0.014793 -394652.000000 0 0 1
2.317605 29.149942 22.820032 37.092375 1.491457 0.908129 0.008463 -0.019696 -425548.000000 0 0 1
1.006205 28.794642 23.159632 36.966369 1.535866 0.893735 -0.009189 -0.011986 -335940.000000 0 0 1
0.823705 28.308942 24.594602 37.509588 1.541708 0.855702 -0.009105 -0.007731 -288518.000000 0 0 1
1.050905 29.330842 25.557102 38.917453 1.534982 0.854361 -0.005103 -0.008263 185581.000000 0 0 1
0.836105 28.868242 26.858502 39.439240 1.541842 0.821656 0.000219 -0.008366 -573144.000000 0 0 1
1.915605 28.018142 27.521602 39.320789 1.502532 0.795504 -0.001672 -0.009199 -586754.000000 0 0 1
2.214705 26.785942 26.959642 38.068542 1.488302 0.783870 -0.005634 -0.011775 464705.000000 0 0 1
3.278605 26.152642 27.678762 38.220725 1.446083 0.760949 -0.002169 -0.002354 383858.000000 0 0 1
3.827205 24.883942 27.000342 36.917158 1.418190 0.750458 0.016488 0.007654 -1013950.000000 0 0 1
2.848305 23.926542 26.879272 36.098304 1.452310 0.730841 0.015034 0.005339 -751574.000000 0 0 1
3.465905 22.688042 26.636442 35.160486 1.419205 0.711218 0.028650 0.013477 175994.000000 0 0 1
2.489205 21.504342 26.479092 34.201977 1.455556 0.685350 0.018803 0.012679 -215198.000000 0 0 1
3.122005 20.298142 26.657592 33.650984 1.418185 0.656426 0.033148 0.016038 -374915.000000 0 0 1
3.689605 19.811042 25.508492 32.508057 1.386666 0.668613 0.039032 0.017327 -685879.000000 0 0 1
4.016205 18.306342 25.778762 31.871565 1.354829 0.628632 0.027045 0.011193 -84314.900000 0 0 1
5.067905 18.065142 26.690022 32.624995 1.297292 0.612723 0.022555 0.008672 566989.000000 0 0 1
6.336205 18.121142 26.030862 32.343919 1.234426 0.635433 0.033542 0.003933 -382986.000000 0 0 1
7.620705 18.051942 26.873802 33.258818 1.171339 0.630012 0.031224 -0.007875 -42214.300000 0 0 1
7.986905 19.189542 27.574342 34.530762 1.176393 0.645923 0.030585 -0.007698 50177.200000 0 0 1
8.419305 20.306542 26.842202 34.695016 1.177759 0.686196 0.030862 -0.001888 -494175.000000 0 0 1
9.049005 21.409542 27.717052 36.173028 1.170907 0.697835 0.026019 0.001498 613946.000000 0 0 1
10.291805 21.047842 28.336312 36.767914 1.116010 0.690888 0.047336 -0.020373 480398.000000 0 0 1
10.579905 21.722642 29.582352 38.195852 1.117566 0.684886 0.058848 -0.035801 -97303.100000 0 0 1
11.895005 21.253542 30.194752 38.793392 1.060558 0.678766 0.066049 -0.037250 817178.000000 0 0 1
13.138405 21.572142 29.521852 38.852474 1.023753 0.707722 0.065097 -0.032234 200792.000000 0 0 1
14.189005 21.431842 30.420322 39.825215 0.985995 0.701545 0.054277 -0.021989 -660912.000000 0 0 1
15.540205 21.656942 29.739652 39.937051 0.948381 0.730766 0.052938 -0.025019 -330236.000000 0 0 1
15.854305 22.976342 29.428602 40.562469 0.966795 0.759017 0.052133 -0.032136 523974.000000 0 0 1
17.076205 23.041342 28.670452 40.552374 0.933008 0.785552 0.081312 -0.022093 728259.000000 0 0 1
-8.666435 16.808542 4.375369 19.410771 -1.094749 1.343433 0.030788 -0.018271 -182277.000000 0 1 0
-8.480535 18.132742 4.853669 20.597911 -1.133328 1.332920 0.035866 -0.021061 90660.900000 0 1 0
-7.142435 18.480342 5.138469 20.468056 -1.201992 1.317033 0.027686 -0.012923 -200253.000000 0 1 0
-6.904235 19.940542 5.697269 21.857552 -1.237474 1.307096 0.031194 -0.012286 -215592.000000 0 1 0
-7.027435 21.044842 4.818169 22.704295 -1.248512 1.356956 0.037778 -0.017313 -323275.000000 0 1 0
-8.345535 21.288442 4.399769 23.285268 -1.197187 1.380703 0.036901 -0.022037 -238735.000000 0 1 0
-8.492135 22.456742 3.362369 24.243085 -1.209262 1.431654 0.071410 -0.024364 509977.000000 0 1 0
-7.822135 22.306142 2.050669 23.726673 -1.233523 1.484260 0.051825 -0.024784 116846.000000 0 1 0
-8.464335 21.438142 1.183269 23.078974 -1.194758 1.519503 0.069879 -0.025610 -822480.000000 0 1 0
-7.716735 21.265542 -0.150231 22.622862 -1.222698 1.577437 0.047067 -0.011073 45403.300000 0 1 0
-6.477235 20.606142 -0.169631 21.600844 -1.266240 1.578649 0.031487 -0.011191 907491.000000 0 1 0
-5.382335 21.541442 0.166769 22.204303 -1.325950 1.563286 0.030053 -0.015753 1472480.000000 0 1 0
-3.964735 21.158842 -0.396231 21.530739 -1.385565 1.589200 0.022302 -0.011379 482918.000000 0 1 0
-3.819135 21.486042 -1.741331 21.892191 -1.394884 1.650422 0.018686 -0.015201 5393.930000 0 1 0
-2.482035 21.516142 -2.189631 21.769230 -1.455947 1.671550 0.011662 -0.005856 -57010.100000 0 1 0
-2.503035 21.677942 -3.743831 22.140791 -1.455841 1.740705 0.023472 -0.008267 -304921.000000 0 1 0
-1.271035 22.010242 -4.323331 22.466809 -1.513113 1.764436 0.029348 -0.005396 -78321.700000 0 1 0
-1.427135 22.245942 -5.727131 23.015619 -1.506732 1.822275 0.032186 -0.020112 317831.000000 0 1 0
-0.184435 22.915542 -6.393931 23.791563 -1.562748 1.842889 0.040535 -0.020608 1038640.000000 0 1 0
1.038765 22.197042 -6.125331 23.050106 1.524033 1.839768 0.033804 -0.007839 -489693.000000 0 1 0
2.055765 22.821742 -6.805831 23.903503 1.480960 1.859512 0.041363 -0.009989 -717550.000000 0 1 0
3.310865 21.929642 -6.792131 23.194915 1.420951 1.867980 0.036425 -0.000525 -163351.000000 0 1 0
3.047165 20.781342 -7.655031 22.355065 1.425204 1.920298 0.031786 -0.014143 -27983.400000 0 1 0
3.998565 19.755542 -7.648931 21.558667 1.371092 1.933492 0.022573 -0.012261 92182.900000 0 1 0
3.644365 18.893242 -8.845731 21.177416 1.380244 2.001705 0.007573 -0.007744 245936.000000 0 1 0
3.972265 19.532142 -10.031031 22.313786 1.370162 2.037051 0.013651 -0.005628 -99413.200000 0 1 0
3.029765 19.206242 -11.020431 22.349701 1.414337 2.086435 0.014945 -0.010457 -278024.000000 0 1 0
3.495265 19.641342 -12.447131 23.514470 1.394685 2.128618 0.011953 -0.006552 195888.000000 0 1 0
3.348765 21.002742 -12.780831 24.812881 1.412683 2.111907 0.037902 -0.016237 -167483.000000 0 1 0
3.867365 21.248142 -14.083131 25.783224 1.390758 2.148633 0.043400 -0.013677 113979.000000 0 0 1
4.220665 22.718342 -14.404131 27.228957 1.387108 2.128219 0.040042 -0.015236 -313095.000000 0 0 1
3.121165 23.552242 -14.678831 27.927010 1.439043 2.124233 0.038042 -0.012736 -499183.000000 0 0 1
3.498765 24.844142 -15.039231 29.251517 1.430888 2.110795 0.033339 -0.015827 583265.000000 0 0 1
2.279565 25.777542 -15.404931 30.116275 1.482594 2.107743 0.021297 -0.006689 1183490.000000 0 0 1
1.232565 25.907042 -14.420731 29.675774 1.523256 2.078238 0.024159 -0.014222 265574.000000 0 0 1
1.200565 27.227542 -13.929331 30.607298 1.526731 2.043279 0.010315 -0.008165 -905522.000000 0 0 1
0.160465 27.540542 -12.865231 30.397720 1.564970 2.007804 0.019636 -0.021093 522306.000000 0 0 1
-1.248735 27.413442 -13.077531 30.398651 -1.525276 2.015512 0.006535 -0.022008 543646.000000 0 0 1
-1.743635 26.095642 -13.310831 29.346227 -1.504078 2.041573 0.013465 -0.022400 -481404.000000 0 0 1
-1.702335 24.986342 -12.153831 27.837580 -1.502771 2.022610 0.039917 -0.028678 193580.000000 0 0 1
-2.684935 25.082842 -11.102331 27.561198 -1.464160 1.985397 0.047223 -0.022010 395141.000000 0 0 1
-2.648835 23.859942 -10.398831 26.161974 -1.460233 1.979564 0.067300 -0.024380 425341.000000 0 0 1
-3.573635 23.798042 -9.123731 25.736359 -1.421745 1.933184 0.050006 -0.025382 549182.000000 0 0 1
-3.006135 24.427242 -7.958831 25.866388 -1.448347 1.883561 0.049663 -0.030163 166575.000000 0 0 1
-2.760635 25.828142 -7.925631 27.157498 -1.464316 1.866946 0.045829 -0.027570 -113548.000000 0 0 1
-2.433135 26.383542 -6.526231 27.287417 -1.478835 1.812303 0.040868 -0.027179 1233630.000000 0 0 1
-1.145135 25.981942 -5.974231 26.684529 -1.526751 1.796594 0.044419 -0.027090 1159200.000000 0 0 1
-0.848435 26.411042 -4.622231 26.825884 -1.538683 1.743965 0.047265 -0.028958 -489843.000000 0 0 1
-1.579135 25.591342 -3.549831 25.884586 -1.509169 1.708371 0.049218 -0.027177 1529450.000000 0 0 1
-3.025635 25.754042 -3.578531 26.176918 -1.453850 1.707931 0.043608 -0.024879 1454060.000000 0 0 1
-3.746235 24.945342 -2.667531 25.365727 -1.421733 1.676154 0.041251 -0.022136 115235.000000 0 0 1
-4.979135 24.266742 -3.288131 24.989565 -1.368422 1.702759 0.045470 -0.017607 433305.000000 0 1 0
-6.104835 25.107242 -3.553431 26.081977 -1.332275 1.707462 0.040316 -0.011986 264312.000000 0 0 1
-7.193535 24.507242 -4.218131 25.887150 -1.285289 1.734469 0.027276 -0.013936 898670.000000 0 0 1
-8.434435 25.478842 -4.303631 27.181471 -1.251114 1.729795 0.025885 -0.012453 700465.000000 0 0 1
-9.101335 25.584742 -3.009831 27.321648 -1.229023 1.681183 0.050704 -0.011635 542626.000000 0 0 1
-10.352635 26.251742 -3.315631 28.413455 -1.195162 1.687755 0.060947 -0.012442 965753.000000 0 0 1
-11.211935 26.359342 -2.010631 28.715241 -1.168630 1.640873 0.070943 -0.011100 29843.100000 0 0 1
-11.791935 25.131642 -1.582831 27.805657 -1.132085 1.627752 0.075675 -0.008390 363665.000000 0 0 1
-10.892035 24.206242 -0.926831 26.560076 -1.147969 1.605699 0.086930 -0.011762 230839.000000 0 0 1
-11.542435 22.869242 -0.517131 25.622207 -1.103384 1.590981 0.085523 -0.015793 304309.000000 0 0 1
-12.468135 22.942742 0.582769 26.118259 -1.072999 1.548482 0.093395 -0.015191 476178.000000 0 0 1
-12.949635 21.682542 0.960769 25.273480 -1.032410 1.532772 0.074376 -0.020972 -176906.000000 0 0 1
-13.941535 21.600642 2.140669 25.797996 -0.997646 1.487723 0.074593 -0.019781 -352053.000000 0 0 1
-13.387935 21.705942 3.475369 25.738355 -1.018125 1.435356 0.063167 -0.026255 245110.000000 0 0 1
-13.139335 23.048142 3.942669 26.821701 -1.052666 1.423266 0.061182 -0.019399 54091.900000 0 0 1
-12.680335 23.118642 5.444869 26.924136 -1.069113 1.367162 0.066510 -0.022506 82212.700000 0 0 1
-11.390835 22.637342 5.777769 25.991980 -1.104602 1.346633 0.061982 -0.021134 142207.000000 0 0 1
-11.321835 22.429842 7.158669 26.125243 -1.103343 1.293233 0.048507 -0.024162 -183845.000000 0 0 1
-10.019935 21.948042 7.841969 25.369512 -1.142526 1.256539 0.037200 -0.026274 -111403.000000 0 0 1
-9.177735 23.067242 8.147769 26.128809 -1.192129 1.253677 0.042974 -0.023360 745360.000000 0 0 1
-8.061335 22.717542 9.004169 25.732216 -1.229807 1.213313 0.043847 -0.028706 517552.000000 0 0 1
-8.275235 22.528842 10.521169 26.205405 -1.218778 1.157655 0.035175 -0.032890 -456988.000000 0 0 1
-9.051035 21.403942 10.846169 25.645455 -1.170733 1.134123 0.039689 -0.028260 -6055.030000 0 0 1
-8.764935 20.996342 12.123569 25.780834 -1.175337 1.081217 0.023199 -0.016299 209808.000000 0 0 1
-9.780135 19.896942 12.623369 25.512522 -1.113940 1.053202 0.020201 -0.007972 196035.000000 0 0 1
-9.751235 18.675342 11.867569 24.180451 -1.089590 1.057798 0.035158 -0.022835 -221022.000000 0 1 0
-10.577835 17.675942 12.382869 24.034662 -1.031531 1.029545 0.040191 -0.020646 -344067.000000 0 1 0
-10.727835 16.387242 11.526869 22.726567 -0.991162 1.038866 0.042808 -0.027641 -268241.000000 0 1 0
-11.322635 15.360042 12.303469 22.704808 -0.935571 0.998114 0.033211 -0.021928 24840.700000 0 1 0
-11.725235 14.388342 11.349469 21.755826 -0.887029 1.021983 0.026087 -0.009863 87975.300000 0 1 0
-11.954535 12.983942 12.023369 21.355446 -0.826653 0.972771 0.017696 -0.009382 347199.000000 0 1 0
-13.055535 12.930442 12.923069 22.464395 -0.780584 0.957863 0.039374 -0.005417 253655.000000 0 1 0
-13.456535 11.593142 13.168369 22.110749 -0.711147 0.932829 0.022799 -0.006896 207738.000000 0 1 0
-14.340835 11.683542 14.453869 23.475073 -0.683643 0.907508 0.028805 -0.005088 652594.000000 0 1 0
-15.609535 12.322342 14.306169 24.498248 -0.668251 0.947189 0.043011 -0.010064 149322.000000 0 1 0
-16.117035 12.582042 15.604769 25.721109 -0.662841 0.918905 0.041468 -0.008397 -301608.000000 0 0 1
-17.200535 13.665842 15.517169 26.896025 -0.671379 0.955829 0.050615 -0.010258 25976.400000 0 0 1
-18.321835 13.284942 14.725169 27.000184 -0.627366 0.993962 0.049916 -0.008239 -47217.300000 0 0 1
-19.192235 14.375442 14.565369 28.056108 -0.642876 1.024939 0.062207 -0.013704 30323.300000 0 0 1
-20.502135 14.006542 13.819669 28.416615 -0.599344 1.062919 0.052653 -0.013748 52389.000000 0 0 1
-21.259035 13.052842 14.529869 28.869367 -0.550643 1.043386 0.055728 -0.006729 309855.000000 0 0 1
-22.457035 12.740742 13.818069 29.284535 -0.516057 1.079402 0.043700 -0.010044 930725.000000 0 0 1
-23.467635 11.793642 14.588669 30.044120 -0.465685 1.063776 0.043306 -0.010850 462336.000000 0 0 1
-24.056735 12.433342 15.700869 31.302265 -0.477024 1.045362 0.047413 -0.009165 223423.000000 0 0 1
-24.981335 11.576542 16.358269 32.026183 -0.433948 1.034707 0.044737 -0.005001 -66029.500000 0 0 1
-25.741525 12.295242 17.474169 33.453635 -0.445602 1.021204 0.050526 -0.012941 -159735.000000 0 0 1
-26.642695 13.295442 17.012669 34.293336 -0.462869 1.051704 0.051461 -0.006024 -395278.000000 0 0 1
-27.600145 13.554442 17.948869 35.604112 -0.456503 1.042430 0.038980 0.001266 43478.800000 0 0 1
-28.807305 14.465342 17.541169 36.698768 -0.465359 1.072446 0.034639 0.000022 958211.000000 0 0 1
-28.317785 15.808642 17.378669 36.794405 -0.509162 1.078877 0.035552 -0.004828 73850.900000 0 0 1
-29.413325 16.654142 17.177969 37.915521 -0.515204 1.100603 0.037890 -0.005854 -420136.000000 0 0 1
-29.039115 18.193242 17.054669 38.276964 -0.559683 1.108997 0.067642 -0.013607 -144322.000000 0 0 1
-28.501845 18.890742 18.147669 38.711151 -0.585314 1.082868 0.054098 -0.013563 -576056.000000 0 0 1
-29.320795 19.105442 19.222669 39.927909 -0.577499 1.068506 0.041878 -0.008395 -1453980.000000 0 0 1
-28.568875 19.484242 20.550769 40.226241 -0.598549 1.034589 0.042277 -0.015637 596558.000000 0 0 1
-27.826415 18.426242 21.169269 39.521813 -0.584894 1.005537 0.038871 -0.014577 487407.000000 0 0 1
-26.820325 17.748042 20.423269 38.097674 -0.584583 1.005014 0.053093 -0.017845 -185501.000000 0 0 1
-26.235575 16.463542 21.145569 37.503183 -0.560415 0.971776 0.056244 -0.017498 304818.000000 0 0 1
-27.272695 15.517342 21.312769 37.931806 -0.517291 0.974151 0.017706 -0.005620 192607.000000 0 0 1
-26.838895 14.219242 21.627769 37.286372 -0.487202 0.952013 0.022094 -0.001080 44572.100000 0 0 1
-27.989335 13.274342 22.130969 38.070866 -0.442848 0.950459 0.030507 -0.008472 562991.000000 0 0 1
-28.785165 12.866842 21.002569 37.884684 -0.420353 0.983177 0.032143 -0.009520 -263133.000000 0 0 1
-29.817835 12.019942 21.390169 38.615044 -0.383187 0.983715 0.050789 -0.011778 -403667.000000 0 0 1
-30.689225 11.586742 20.168169 38.507612 -0.361005 1.019555 0.060282 -0.010118 67900.500000 0 0 1
-29.982965 11.021542 19.040469 37.188601 -0.352262 1.033288 0.077644 -0.012259 159581.000000 0 0 1
-29.258055 9.853342 19.260069 36.387806 -0.324844 1.013021 0.090651 -0.014338 -371789.000000 0 0 1
-28.391475 9.456942 18.050569 34.947570 -0.321532 1.028033 0.103696 -0.014716 -263244.000000 0 0 1
-29.059275 8.986642 16.884969 34.789415 -0.299923 1.064035 0.093325 -0.010896 92903.400000 0 0 1
-29.796885 9.921042 16.117269 35.299402 -0.321411 1.096640 0.087198 -0.011500 -366851.000000 0 0 1
-29.085005 11.052642 15.353169 34.696084 -0.363157 1.112407 0.073278 -0.014495 -458291.000000 0 0 1
-28.642485 10.564142 14.120669 33.636087 -0.353348 1.137564 0.071382 -0.014075 781765.000000 0 0 1
-27.615565 11.478442 13.643669 32.871321 -0.393926 1.142784 0.054765 -0.002818 527721.000000 0 0 1
-27.312775 11.328942 12.150369 31.968173 -0.393187 1.180917 0.071340 -0.004179 109405.000000 0 0 1
-26.523125 10.176942 11.738369 30.738179 -0.366377 1.178964 0.079271 -0.001498 847496.000000 0 0 1
-27.207465 8.949542 11.659169 30.923724 -0.317789 1.184209 0.079798 0.006628 -565168.000000 0 0 1
-26.486205 7.972042 10.766569 29.681501 -0.292363 1.199593 0.083310 -0.001674 -477669.000000 0 0 1
-26.448345 8.293242 9.419269 29.274826 -0.303854 1.243216 0.085165 -0.003853 379868.000000 0 0 1
-25.674095 7.302442 8.766069 28.094996 -0.277110 1.253483 0.101795 -0.008656 -34072.000000 0 0 1
-25.033855 7.816342 7.424469 27.256409 -0.302640 1.294917 0.090712 -0.000310 -291287.000000 0 0 1
-25.975725 8.122242 6.435669 27.966533 -0.303054 1.338595 0.092794 -0.001894 -75640.700000 0 0 1
-25.377735 8.713442 5.281569 27.346819 -0.330738 1.376442 0.087225 -0.002252 607967.000000 0 0 1
-26.405215 9.181342 4.145469 28.261588 -0.334633 1.423583 0.080450 0.004238 1169270.000000 0 0 1
-27.373175 8.298142 3.542669 28.821873 -0.294343 1.447569 0.102870 -0.006151 614446.000000 0 0 1
-26.852325 7.098542 2.982169 27.934387 -0.258443 1.463836 0.110611 -0.010970 -440970.000000 0 0 1
-25.920695 7.082642 1.758369 26.928389 -0.266732 1.505452 0.135406 -0.007731 1034040.000000 0 0 1
-24.658735 7.743442 2.069769 25.928711 -0.304273 1.490886 0.115415 -0.002129 1069060.000000 0 0 1
-23.858435 7.819142 0.940269 25.124650 -0.316700 1.533363 0.128589 0.003349 -1006260.000000 0 0 1
-22.559735 8.575642 1.104169 24.159935 -0.363261 1.525078 0.111268 0.001031 -725443.000000 0 1 0
-22.759735 9.995542 1.148969 24.884464 -0.413817 1.524608 0.092491 -0.000164 334095.000000 0 1 0
-21.615735 10.718242 1.535569 24.175994 -0.460325 1.507237 0.095996 -0.000833 -388889.000000 0 1 0
-21.907535 12.031042 2.265569 25.096192 -0.502209 1.480398 0.084546 -0.010120 690164.000000 0 0 1
-20.728235 12.751442 2.710469 24.486847 -0.551501 1.459878 0.071053 -0.014598 813013.000000 0 1 0
-21.099935 13.885842 3.413469 25.488736 -0.582048 1.436472 0.070393 -0.027954 -651559.000000 0 0 1
-19.960635 14.528142 4.180069 25.039306 -0.629167 1.403071 0.040904 -0.023512 -425798.000000 0 0 1
-19.358135 13.633742 5.068769 24.213813 -0.613599 1.359903 0.032976 -0.028224 -103093.000000 0 1 0
-18.594635 14.266342 6.060069 24.207714 -0.654437 1.317769 0.037776 -0.026795 -482988.000000 0 1 0
-18.175535 13.311642 7.150269 23.636333 -0.632137 1.263470 0.026581 -0.023089 -498616.000000 0 1 0
-17.104535 12.582042 6.627469 22.244016 -0.634219 1.268258 0.027099 -0.014967 -240665.000000 0 1 0
-16.511335 11.887542 7.710169 21.757402 -0.623998 1.208556 0.010422 -0.010909 -316757.000000 0 1 0
10.573165 -32.887667 -14.175931 37.340963 -1.259739 1.960198 0.047663 0.003327 -216117.000000 0 0 1
11.647065 -32.665167 -13.290431 37.138967 -1.228290 1.936768 0.030578 0.002021 72725.300000 0 0 1
12.317165 -31.452967 -13.701031 36.451611 -1.197547 1.956131 0.032558 -0.019324 497459.000000 0 0 1
13.762265 -31.234767 -13.172731 36.585947 -1.155781 1.939117 0.034651 -0.018794 563267.000000 0 0 1
14.808165 -31.956767 -13.852731 37.847257 -1.136870 1.945521 0.029752 -0.014844 907425.000000 0 0 1
16.032565 -31.372267 -13.364631 37.681238 -1.098354 1.933364 0.025261 -0.014609 1001400.000000 0 0 1
17.338065 -32.114267 -13.793831 39.015439 -1.075751 1.932158 0.040046 -0.017716 526063.000000 0 0 1
17.264165 -33.440867 -13.227731 39.891301 -1.094226 1.908789 0.030885 -0.020876 419514.000000 0 0 1
18.279465 -34.267667 -13.824431 41.225317 -1.080762 1.912761 0.021711 0.000215 406478.000000 0 0 1
18.132365 32.955742 -13.282331 39.890900 1.067797 1.910244 0.003597 -0.004020 -202682.000000 0 0 1
18.570465 32.847442 -11.947031 39.579644 1.056241 1.877427 0.014808 -0.004757 -170047.000000 0 0 1
18.368565 31.527542 -11.479231 38.251312 1.043255 1.875594 -0.001808 -0.000979 142794.000000 0 0 1
19.260865 31.210642 -10.261231 38.083828 1.017880 1.843606 0.009224 -0.007108 311229.000000 0 0 1
20.555965 30.688542 -10.510831 38.403280 0.980610 1.848030 0.010467 -0.002895 43327.100000 0 0 1
21.208265 30.543842 -9.285431 38.326702 0.963869 1.815502 0.014727 -0.005521 -855895.000000 0 0 1
22.394865 29.629242 -9.271031 38.280204 0.923570 1.815417 0.020288 0.001891 -304516.000000 0 0 1
23.495965 30.095642 -10.068331 39.486445 0.907929 1.828625 0.027483 -0.009512 469375.000000 0 0 1
24.650665 29.331742 -9.691031 39.521165 0.871897 1.818534 0.026327 -0.007210 1129070.000000 0 0 1
25.869765 29.747842 -10.630831 40.831280 0.855013 1.834191 0.021402 -0.009940 336979.000000 0 0 1
26.432865 30.947642 -10.293331 41.981015 0.863918 1.818512 0.030865 -0.023484 -14352.200000 0 0 1
27.476365 31.251242 -11.208031 43.095368 0.849588 1.833896 0.039408 -0.018039 225387.000000 0 0 1
28.259765 32.553642 -11.073731 44.508218 0.855889 1.822239 0.045635 -0.025868 -363928.000000 0 0 1
27.560465 33.659342 -11.567731 45.014919 0.884693 1.830688 0.047161 -0.013453 5657.160000 0 0 1
28.295265 -33.794367 -11.417931 45.530764 -0.873735 1.824276 0.069657 -0.014514 -84148.400000 0 0 1
27.461065 -32.580467 -11.839931 44.224212 -0.870457 1.841827 0.054966 -0.005886 142114.000000 0 0 1
26.429265 -32.216667 -10.958731 43.087278 -0.883763 1.827959 0.067997 -0.015386 300887.000000 0 0 1
25.282265 -31.555467 -11.501931 42.038493 -0.895324 1.847935 0.058661 -0.018435 820053.000000 0 0 1
25.265465 -30.045967 -11.211431 40.826463 -0.871613 1.848982 0.039750 -0.013368 287861.000000 0 0 1
26.220865 -29.266767 -11.957531 41.073836 -0.840236 1.866197 0.036894 -0.006411 12164.900000 0 0 1
26.626365 -28.163267 -11.217031 40.347921 -0.813442 1.852516 0.040956 -0.001036 -263438.000000 0 0 1
27.667265 -27.394867 -12.031531 40.751860 -0.780451 1.870502 0.042199 0.004088 363910.000000 0 0 1
28.838365 -28.139567 -12.406531 42.159324 -0.773134 1.869496 0.021570 0.004845 364617.000000 0 0 1
28.793965 -28.935867 -13.612531 43.031127 -0.787856 1.892667 0.022844 -0.000933 -229.306000 0 0 1
30.161865 -29.588167 -14.001131 44.511003 -0.775797 1.890783 0.014573 0.004646 537159.000000 0 0 1
30.522965 -30.566667 -13.008631 45.113158 -0.786114 1.863305 0.014684 -0.004935 416561.000000 0 0 1
31.507765 -31.449767 -13.576031 46.541763 -0.784477 1.866795 0.009231 -0.007724 410237.000000 0 0 1
32.022765 -32.535967 -12.530731 47.339897 -0.793347 1.838686 0.008421 -0.010159 174060.000000 0 0 1
33.064665 -33.324267 -13.073131 48.730746 -0.789308 1.842396 0.006159 -0.019875 -176331.000000 0 0 1
33.825465 -34.060567 -12.164031 49.520178 -0.788861 1.818974 0.021102 -0.020460 -238295.000000 0 0 1
33.223365 33.453342 -11.289431 48.480608 0.788847 1.805819 0.021335 -0.029160 13583.100000 0 0 1
32.343965 33.796042 -10.225131 47.883795 0.807349 1.785994 0.025539 -0.043742 298617.000000 0 0 1
31.747465 32.689542 -9.540231 46.556672 0.800017 1.777175 0.045029 -0.043201 -17152.400000 0 0 1
30.962765 33.047242 -8.267831 46.034445 0.817952 1.751377 0.035289 -0.035860 -535457.000000 0 0 1
29.805265 33.756742 -8.532931 45.833202 0.847486 1.758063 0.024679 -0.031974 -1188980.000000 0 0 1
29.070765 34.089442 -7.421231 45.412269 0.864691 1.734952 0.034216 -0.026598 188016.000000 0 0 1
28.130265 -33.346267 -7.640331 44.290631 -0.870041 1.744168 0.039158 -0.029217 -44838.500000 0 0 1
28.896565 -32.145267 -7.744231 43.912445 -0.838569 1.748080 0.019663 -0.025841 155693.000000 0 0 1
28.151065 -31.090967 -8.251831 42.746034 -0.834983 1.765059 0.021726 -0.014330 224313.000000 0 0 1
27.039765 -30.511667 -7.321631 41.421215 -0.845652 1.748490 0.020600 -0.010265 526680.000000 0 0 1
26.234165 -29.515967 -7.940031 40.279869 -0.844197 1.769217 0.029260 -0.020972 21399.300000 0 0 1
25.331065 -28.920667 -7.024131 39.082045 -0.851468 1.751506 0.030247 -0.021150 -361169.000000 0 0 1
24.436265 -27.927167 -7.705331 37.900262 -0.851966 1.775529 0.068918 -0.029547 -243995.000000 0 0 1
23.410965 -28.556467 -8.488331 37.889271 -0.884090 1.796744 0.080526 -0.026938 575458.000000 0 0 1
22.670265 -27.580467 -9.252431 36.881304 -0.882803 1.824376 0.091697 -0.027634 914935.000000 0 0 1
21.414865 -28.261067 -9.939431 36.824946 -0.922353 1.844096 0.085878 -0.027708 456624.000000 0 0 1
21.692465 -29.175867 -10.980731 37.978556 -0.931464 1.864114 0.089133 -0.028932 689087.000000 0 0 1
20.533465 -29.798967 -11.597831 38.001465 -0.967446 1.880939 0.081023 -0.031567 933927.000000 0 0 1
20.010365 -31.066967 -10.867931 38.518607 -0.998577 1.856828 0.076878 -0.034194 -164629.000000 0 0 1
20.895065 -32.150367 -10.955931 39.878344 -0.994480 1.849109 0.059731 -0.025203 -134981.000000 0 0 1
20.447665 -33.362167 -10.384831 40.484391 -1.020946 1.830211 0.053915 -0.026665 -388414.000000 0 0 1
21.585965 34.274942 -10.556731 41.858931 1.008761 1.825747 0.042485 -0.018694 9749.300000 0 0 1
22.556765 -34.180867 -9.556831 42.053209 -0.987476 1.800055 0.037555 -0.012837 -602594.000000 0 0 1
23.717165 33.726842 -9.789331 42.377291 0.957917 1.803906 0.029106 -0.015563 -246343.000000 0 0 1
24.968465 34.149542 -8.979331 43.246316 0.939468 1.779950 0.041202 -0.017744 -105264.000000 0 0 1
25.170565 33.671942 -7.684531 42.736507 0.928882 1.751592 0.037713 -0.025968 -66188.200000 0 0 1
25.519665 32.326642 -7.602631 41.881561 0.902533 1.753335 0.039112 -0.017953 -473343.000000 0 0 1
25.580265 31.806642 -6.148231 41.277272 0.893474 1.720302 0.037814 -0.027437 -419440.000000 0 0 1
26.629765 32.323942 -5.337631 42.219331 0.881687 1.697562 0.041311 -0.024554 181524.000000 0 0 1
27.589865 31.418942 -4.864531 42.095300 0.850197 1.686615 0.047951 -0.024280 -165099.000000 0 0 1
27.059165 30.285142 -3.968031 40.806048 0.841595 1.668191 0.039071 -0.017476 -739077.000000 0 0 1
26.809765 30.803542 -2.710931 40.926408 0.854608 1.637084 0.050945 -0.010794 74966.400000 0 0 1
26.707165 29.829342 -1.687631 40.073812 0.840566 1.612922 0.041824 -0.006091 271839.000000 0 0 1
25.395565 28.971042 -1.636531 38.560787 0.851070 1.613249 0.036055 0.001243 499350.000000 0 0 1
24.290165 29.648942 -1.059131 38.343105 0.884422 1.598422 0.035629 -0.000451 -968058.000000 0 0 1
23.112065 29.005042 -1.350631 37.111780 0.897992 1.607198 0.036585 0.002464 -612092.000000 0 0 1
21.893865 29.529542 -0.543631 36.764531 0.932808 1.585584 0.051921 -0.008735 97501.800000 0 0 1
21.857765 29.233342 0.821069 36.510606 0.928769 1.548306 0.064635 -0.015512 742846.000000 0 0 1
20.716665 29.906442 1.415869 36.408518 0.964976 1.531898 0.055695 -0.014895 804324.000000 0 0 1
20.014865 29.023442 2.515269 35.345178 0.967077 1.499573 0.061711 -0.031303 -233775.000000 0 0 1
19.337165 27.965642 1.889269 34.052495 0.965824 1.515287 0.063733 -0.020595 32138.200000 0 0 1
18.392265 27.402142 2.786969 33.119783 0.979663 1.486549 0.078098 -0.027588 -265179.000000 0 0 1
17.884565 26.040142 2.233569 31.669157 0.968979 1.500210 0.073337 -0.013228 119461.000000 0 0 1
18.827665 25.030042 1.873369 31.376639 0.925887 1.511055 0.069732 -0.018656 -80868.500000 0 0 1
19.733965 24.641742 2.865969 31.699505 0.895547 1.480262 0.072835 -0.014520 76033.800000 0 0 1
20.908365 23.733042 2.337669 31.715639 0.848589 1.497022 0.067975 -0.006893 86847.500000 0 0 1
20.611665 22.469142 1.770769 30.542409 0.828488 1.512786 0.067540 -0.007035 -185200.000000 0 0 1
21.741265 21.704342 1.409269 30.753002 0.784548 1.524955 0.042062 -0.011550 -220305.000000 0 0 1
21.523965 20.718942 0.217469 29.876461 0.766343 1.563517 0.061517 -0.010265 -255381.000000 0 0 1
21.525165 21.423742 -1.041031 30.387386 0.783037 1.605062 0.038228 0.001896 360558.000000 0 0 1
21.903465 20.551442 -2.111431 30.109495 0.753563 1.640979 0.058411 -0.003907 26602.300000 0 0 1
21.836965 21.145342 -3.524331 30.600645 0.769309 1.686224 0.044352 0.000563 -226203.000000 0 0 1
22.708265 22.205642 -3.740531 31.980423 0.774208 1.688028 0.042888 0.005198 -67786.900000 0 0 1
22.282765 22.846542 -4.900731 32.287819 0.797890 1.723168 0.038598 0.006058 212749.000000 0 0 1
23.148365 24.126042 -5.261531 33.846661 0.806076 1.726881 0.035690 0.014911 150493.000000 0 0 1
23.084265 25.262642 -4.410131 34.504111 0.830425 1.698962 0.019793 0.014432 23717.800000 0 0 1
23.296165 25.080242 -2.979531 34.359969 0.822261 1.657621 0.034727 0.008695 303706.000000 0 0 1
22.047665 24.915942 -2.033131 33.332227 0.846397 1.631830 0.032336 0.004067 -895995.000000 0 0 1
21.227265 26.075142 -1.809831 33.671729 0.887528 1.624572 0.045485 0.002075 1093590.000000 0 0 1
20.112665 25.884442 -0.934331 32.793241 0.910227 1.599292 0.057377 -0.000607 570176.000000 0 0 1
19.121665 24.758542 -1.379931 31.313379 0.913159 1.614879 0.066570 -0.004371 -1539920.000000 0 0 1
18.479165 24.973642 -2.615831 31.176994 0.933760 1.654798 0.051364 0.000049 123842.000000 0 0 1
17.788765 23.850342 -3.076531 29.912272 0.929957 1.673830 0.047546 0.004193 -206141.000000 0 0 1
17.326265 24.269242 -4.474331 30.153196 0.950790 1.719733 0.045837 0.001545 -144440.000000 0 0 1
16.734465 23.162142 -5.199731 29.044180 0.945134 1.750795 0.042198 -0.003292 376047.000000 0 0 1
16.365665 23.637942 -6.484031 29.472529 0.965225 1.792613 0.036291 -0.002074 -266062.000000 0 0 1
15.535865 22.626542 -7.269231 28.393049 0.969106 1.829701 0.044736 -0.000390 -619196.000000 0 0 1
16.214865 21.456842 -7.698731 27.974781 0.923659 1.849597 0.039202 -0.000711 526204.000000 0 0 1
15.370065 20.446142 -8.326831 26.900181 0.926186 1.885511 0.053470 -0.002420 299183.000000 0 0 1
16.040965 19.070042 -8.611931 26.365592 0.871457 1.903538 0.053891 0.000944 239274.000000 0 0 1
17.139665 19.155942 -9.511631 27.407834 0.840893 1.925210 0.057578 -0.001926 448096.000000 0 0 1
17.770265 17.901042 -9.731831 27.035868 0.789064 1.939021 0.055467 0.001340 -155873.000000 0 0 1
19.211965 17.989342 -10.249331 28.244731 0.752545 1.942149 0.048219 0.000488 -284637.000000 0 0 1
19.326365 18.456142 -11.575531 29.122680 0.762370 1.979560 0.054006 -0.003413 471128.000000 0 0 1
20.697165 18.684442 -11.888231 30.311896 0.734334 1.973815 0.051216 -0.004041 412355.000000 0 0 1
20.946365 19.000942 -13.350931 31.273525 0.736737 2.011868 0.050643 -0.014044 -94982.100000 0 0 1
20.993865 17.902942 -14.247731 31.052465 0.706100 2.047472 0.046931 -0.011438 261908.000000 0 0 1
21.317865 18.484442 -15.474731 32.180635 0.714331 2.072444 0.053443 -0.019182 6897.910000 0 0 1
21.098265 17.427942 -16.652931 32.034202 0.690417 2.117470 0.046416 -0.016898 -30660.400000 0 0 1
22.045565 16.374942 -16.631531 32.105350 0.638862 2.115342 0.057265 -0.019018 28108.700000 0 0 1
22.029865 15.585942 -17.844131 32.351964 0.615736 2.155033 0.058754 -0.024664 -199824.000000 0 0 1
22.885265 16.102742 -19.053031 33.853385 0.613158 2.168578 0.051764 -0.026443 221852.000000 0 0 1
24.267565 16.182742 -18.696131 34.645940 0.588127 2.140799 0.067420 -0.021930 1356250.000000 0 0 1
25.090065 16.636142 -19.819431 36.042786 0.585499 2.153024 0.085865 -0.023639 634760.000000 0 0 1
26.569965 16.986242 -19.571431 37.115177 0.568818 2.126235 0.069126 -0.019362 136835.000000 0 0 1
26.803465 18.211042 -18.950331 37.539084 0.596786 2.099965 0.049575 -0.016829 281535.000000 0 0 1
28.171765 18.362442 -18.582331 38.420446 0.577642 2.075625 0.047508 -0.021298 530268.000000 0 0 1
28.378865 19.547642 -17.585531 38.687481 0.603176 2.042667 0.046102 -0.019160 100585.000000 0 0 1
27.706765 19.215442 -16.390731 37.490720 0.606370 2.023273 0.041494 -0.022659 592947.000000 0 0 1
26.609265 20.109842 -16.123031 37.046064 0.647168 2.021074 0.031570 -0.013828 752364.000000 0 0 1
25.675965 19.585442 -14.952531 35.586836 0.651638 2.004429 0.035717 -0.011805 -846.546000 0 0 1
26.112765 19.723142 -13.641631 35.453814 0.646889 1.965757 0.031393 -0.009107 -472404.000000 0 0 1
25.173765 19.395342 -12.670531 34.211696 0.656467 1.950189 0.036493 -0.008411 -491071.000000 0 0 1
25.564965 19.876642 -11.278131 34.290590 0.660867 1.905934 0.027830 -0.001975 -142484.000000 0 0 1
25.400065 21.282142 -11.192131 34.976516 0.697414 1.896515 0.029314 -0.002703 -117973.000000 0 0 1
25.820665 21.757542 -9.945131 35.199475 0.700206 1.857233 0.020825 -0.001686 26225.300000 0 0 1
24.971765 21.416842 -8.680331 34.023791 0.708914 1.828774 0.028396 -0.000923 -394708.000000 0 0 1
24.955065 20.068042 -8.271131 33.074056 0.677277 1.823558 0.036195 -0.004850 225714.000000 0 0 1
24.136865 19.855342 -7.126731 32.056406 0.688379 1.794988 0.040089 -0.007169 -101999.000000 0 0 1
22.657765 19.583242 -7.418031 30.852956 0.712741 1.813607 0.037377 -0.006728 198309.000000 0 0 1
21.852765 20.758842 -7.743231 31.119616 0.759732 1.822260 0.038517 0.004962 1018010.000000 0 0 1
20.478765 20.541742 -8.033831 30.097931 0.786933 1.840995 0.054844 0.000670 547787.000000 0 0 1
19.682765 21.853642 -8.298431 30.559072 0.837615 1.845803 0.043956 -0.000355 -340652.000000 0 0 1
20.113065 22.726542 -9.366831 31.761118 0.846329 1.870163 0.049743 0.001942 61496.300000 0 0 1
19.542165 22.442942 -10.653531 31.608221 0.854379 1.914577 0.056517 0.007968 682706.000000 0 0 1
18.009165 22.727842 -10.772731 30.934392 0.900717 1.926494 0.045263 0.003501 238992.000000 0 0 1
17.789265 24.094742 -10.524231 31.745456 0.934822 1.908710 0.043288 0.002948 45555.400000 0 0 1
16.425865 24.468542 -10.582131 31.312938 0.979589 1.915532 0.039194 0.003100 233914.000000 0 0 1
16.134665 25.898542 -10.036931 32.121673 1.013640 1.888584 0.037229 0.004353 84457.200000 0 0 1
16.662165 26.903342 -10.881431 33.463758 1.016282 1.901988 0.045645 0.005868 67327.300000 0 0 1
16.849265 28.105642 -10.162731 34.308978 1.030746 1.871521 0.033333 -0.004824 103093.000000 0 0 1
20.150765 28.884542 33.552485 48.642979 0.961662 0.809624 0.030578 0.003019 -3789.400000 0 0 1
18.778765 29.146442 33.724156 48.368128 0.998446 0.799257 0.047601 -0.014150 -134173.000000 0 0 1
17.988465 27.956342 33.804960 47.412206 0.999041 0.777027 0.037760 -0.021485 -129004.000000 0 0 1
16.488865 28.256642 33.838692 47.067798 1.042568 0.768527 0.060106 -0.027167 -312150.000000 0 0 1
16.062965 28.831042 32.585882 46.379818 1.062487 0.791769 0.050842 -0.031528 546946.000000 0 0 1
14.702465 29.273042 32.722111 46.301296 1.105348 0.785943 0.064367 -0.026862 1008320.000000 0 0 1
13.797865 29.102642 31.463042 45.025192 1.128074 0.797095 0.056436 -0.030226 60171.100000 0 0 1
13.292765 27.787042 31.305202 43.918481 1.124594 0.777310 0.059492 -0.039797 -623076.000000 0 0 1
11.916865 27.832742 31.136562 43.429929 1.166252 0.771396 0.067011 -0.028004 -747456.000000 0 0 1
11.138765 26.499242 30.951502 42.240708 1.172877 0.748455 0.052976 -0.026580 -4460.480000 0 0 1
11.356565 25.803642 29.714342 40.960245 1.156193 0.759118 0.055156 -0.023421 396107.000000 0 0 1
12.687365 25.351342 29.512642 40.922559 1.106780 0.765288 0.046090 -0.019262 183305.000000 0 0 1
12.826865 24.695942 28.115252 39.558633 1.091756 0.780270 0.075970 -0.019447 -169840.000000 0 0 1
12.703265 25.565642 26.934602 39.248539 1.109641 0.814465 0.064586 -0.018459 209958.000000 0 0 1
12.738265 24.931342 25.638342 37.962611 1.098440 0.829347 0.084871 -0.018471 -185163.000000 0 0 1
11.726265 23.799042 25.337982 36.686688 1.112990 0.808397 0.074353 -0.012701 -180527.000000 0 0 1
11.725865 23.287042 24.005142 35.440501 1.104324 0.826660 0.085789 -0.013552 -150018.000000 0 0 1
10.772565 22.271542 23.863052 34.373173 1.120280 0.803440 0.079296 -0.013386 -157377.000000 0 0 1
10.617065 21.756142 22.393532 32.977600 1.116792 0.824325 0.084408 -0.010476 -37830.800000 0 0 1
10.079365 22.789042 21.582832 32.965932 1.154373 0.857009 0.079551 -0.011084 258272.000000 0 0 1
10.390365 22.506542 20.222632 31.991546 1.138289 0.886505 0.075201 0.002539 -371438.000000 0 0 1
10.144165 23.804442 19.306532 32.284636 1.167956 0.929781 0.061674 0.000656 937736.000000 0 0 1
8.767765 24.099842 19.026732 31.932627 1.221872 0.932485 0.062301 -0.007311 725379.000000 0 0 1
8.044165 24.781142 20.063732 32.884144 1.256919 0.914567 0.070584 -0.011798 197443.000000 0 0 1
6.698465 25.261542 19.464732 32.586665 1.311597 0.930639 0.069342 -0.012208 -34840.500000 0 0 1
6.913165 26.305342 18.525832 32.908500 1.313803 0.972846 0.062312 -0.020021 252576.000000 0 0 1
5.728865 27.061342 18.366432 33.203343 1.362177 0.984656 0.046985 -0.022517 -160282.000000 0 0 1
6.009165 28.196742 17.344532 33.645195 1.360822 1.029190 0.049460 -0.017583 180534.000000 0 0 1
6.266665 27.676242 16.073032 32.612695 1.348123 1.055439 0.045440 -0.014608 77399.300000 0 0 1
7.023265 28.617942 15.307532 33.205924 1.330138 1.091688 0.031875 -0.010052 73277.000000 0 0 1
7.572865 27.951242 14.008532 32.169228 1.306217 1.120243 0.033952 -0.013017 -39236.900000 0 0 1
6.653765 27.904642 12.933932 31.467892 1.336721 1.147224 0.008480 -0.016494 5267.580000 0 0 1
6.894465 26.737042 12.177532 30.177730 1.318432 1.155428 -0.000629 -0.020474 293181.000000 0 0 1
6.008265 26.740642 10.872032 29.484950 1.349780 1.193152 -0.011898 -0.020505 -390562.000000 0 0 1
6.451565 27.581042 9.865632 29.994454 1.341015 1.235642 -0.011359 -0.015415 -102247.000000 0 0 1
6.238465 28.902742 10.041632 31.226933 1.358214 1.243410 -0.014472 -0.001253 -687890.000000 0 0 1
6.900365 29.871742 8.983632 31.947483 1.343779 1.285752 -0.020876 0.003769 -635990.000000 0 0 1
6.334765 29.970742 7.666832 31.577761 1.362497 1.325553 -0.018727 -0.009676 107920.000000 0 0 1
6.342065 28.735142 7.002332 30.248353 1.353571 1.337183 -0.011970 0.000052 -198770.000000 0 0 1
4.902065 28.320242 6.656632 29.502155 1.399401 1.343205 -0.020657 0.005315 -75462.700000 0 0 1
4.229065 29.210542 5.765432 30.072928 1.427017 1.377887 -0.026882 -0.005854 -1572000.000000 0 0 1
2.926865 28.810042 5.673832 29.508939 1.469552 1.377316 0.016114 -0.011788 -1354490.000000 0 0 1
2.115065 29.965942 5.031532 30.458948 1.500331 1.404845 0.029215 -0.011430 -575297.000000 0 0 1
2.300865 30.119842 3.631832 30.425139 1.494554 1.451142 0.013751 -0.013993 289512.000000 0 0 1
1.150865 30.695642 3.037232 30.867001 1.533321 1.472239 0.026734 -0.026017 1582850.000000 0 0 1
-0.078435 29.727842 2.700532 29.850354 -1.568158 1.480203 0.040619 -0.020277 944039.000000 0 0 1
0.159165 29.186742 1.435732 29.222467 1.565343 1.521645 0.035746 -0.011110 -347729.000000 0 0 1
-0.818635 28.247542 1.147732 28.282700 -1.541824 1.530204 0.056788 -0.014076 -291063.000000 0 0 1
-1.200535 27.975042 -0.302968 28.002430 -1.527908 1.581616 0.051972 -0.022346 -94631.700000 0 0 1
-2.039335 28.946142 -0.867168 29.030846 -1.500460 1.600671 0.059065 -0.030993 -70813.700000 0 0 1
-1.352535 29.805142 -1.731068 29.885991 -1.525448 1.628751 0.047661 -0.025979 -55101.000000 0 0 1
-2.337635 30.822142 -2.407068 31.004241 -1.495099 1.648511 0.056940 -0.027639 579900.000000 0 0 1
-3.433935 30.284542 -3.210868 30.647269 -1.457890 1.675757 0.044605 -0.027226 782526.000000 0 0 1
-3.217135 29.334342 -4.199168 29.807493 -1.461562 1.712143 0.039790 -0.025394 -623711.000000 0 0 1
-4.594935 28.806542 -4.643168 29.537930 -1.412619 1.728644 0.037352 -0.019557 330572.000000 0 0 1
-5.337835 29.801442 -5.350268 30.744818 -1.393562 1.745709 0.031275 -0.016366 -368824.000000 0 0 1
-6.500135 29.338042 -5.958568 30.634572 -1.352759 1.766549 0.029647 -0.023041 -278457.000000 0 0 1
-7.047535 30.388742 -6.990268 31.968848 -1.342912 1.791236 0.029074 -0.015861 -286294.000000 0 0 1
-7.801135 31.377542 -6.366768 32.953659 -1.327115 1.765223 0.025125 -0.005607 -126924.000000 0 0 1
-8.246335 32.374742 -7.316268 34.200201 -1.321385 1.786387 0.016200 -0.010161 78416.400000 0 0 1
-9.210235 33.450342 -6.751868 35.346026 -1.302114 1.763000 0.025903 -0.005694 856420.000000 0 0 1
-10.572335 33.062442 -6.530268 35.320586 -1.261303 1.756752 0.042081 -0.012603 179367.000000 0 0 1
-11.221635 34.182142 -6.002668 36.474319 -1.253592 1.736121 0.037141 -0.011216 90832.700000 0 0 1
-12.763035 34.052342 -5.894068 36.840156 -1.212195 1.731477 0.071686 -0.017406 380757.000000 0 0 1
-13.280935 34.107242 -7.229568 37.308898 -1.199472 1.765806 0.077128 -0.014620 560558.000000 0 0 1
-14.682035 33.809942 -7.311868 37.578422 -1.161115 1.766622 0.098158 -0.025171 262951.000000 0 0 1
-15.156635 33.803342 -8.763668 38.068247 -1.149293 1.803089 0.123665 -0.024486 546456.000000 0 0 1
-16.536135 33.672142 -9.096768 38.600623 -1.114300 1.808698 0.143895 -0.024580 422736.000000 0 0 1
-17.409535 -33.886367 -8.811768 39.102750 1.096200 1.798098 0.146418 -0.034921 -700767.000000 0 0 1
-18.834435 34.290542 -9.212968 40.192736 -1.068521 1.802072 0.127570 -0.031850 333649.000000 0 0 1
-19.540735 33.416442 -8.280568 39.586194 -1.041655 1.781531 0.104750 -0.028309 416616.000000 0 0 1
-19.919835 34.130642 -7.087168 40.148830 -1.042497 1.748249 0.108573 -0.029585 -138935.000000 0 0 1
-20.690935 33.324742 -5.953668 39.674922 -1.015159 1.721427 0.086352 -0.023869 -128379.000000 0 0 1
-20.544435 34.021242 -4.754968 40.026597 -1.027536 1.689873 0.095248 -0.039697 215884.000000 0 0 1
-21.495235 33.739242 -3.733368 40.178597 -1.003544 1.663850 0.072921 -0.028382 -472893.000000 0 0 1
-22.772935 -34.077967 -3.831168 41.165426 0.981692 1.663999 0.068294 -0.029935 -838012.000000 0 0 1
-23.457935 -34.303867 -5.020468 41.859708 0.971007 1.691021 0.061371 -0.036733 -326434.000000 0 0 1
-24.520035 -33.386067 -5.196968 41.747696 0.937329 1.695605 0.056534 -0.038040 7617.600000 0 0 1
-24.864635 -33.345067 -6.673568 42.126952 0.930068 1.729882 0.086452 -0.023596 -343303.000000 0 0 1
-23.914835 -32.630667 -7.425168 41.131653 0.938333 1.752313 0.118351 -0.024322 -46596.500000 0 0 1
-24.008935 -32.875467 -8.820268 41.653601 0.940023 1.784164 0.068931 -0.018473 -319906.000000 0 0 1
-25.145975 -32.258167 -9.643868 42.022775 0.908667 1.802351 0.039751 -0.004147 186573.000000 0 0 1
-26.425595 -32.736567 -9.178268 43.060835 0.891669 1.785591 0.043677 0.007515 254993.000000 0 0 1
-27.525675 -32.064667 -9.731568 43.364837 0.861421 1.797135 -0.013013 0.014864 -14631.900000 0 0 1
-27.848055 -30.550867 -9.491568 42.414143 0.831647 1.796491 -0.026961 0.021740 -649408.000000 0 0 1
-27.004705 -29.618467 -10.158568 41.348570 0.831526 1.819019 -0.009904 0.020982 -135120.000000 0 0 1
-27.181895 -29.501967 -11.582868 41.753854 0.826305 1.851892 -0.000483 0.008373 -278146.000000 0 0 1
-26.116755 -28.710567 -12.398868 40.744490 0.832672 1.880008 0.037884 0.003274 -359454.000000 0 0 1
-24.949135 -29.464167 -12.545768 40.595478 0.868185 1.884983 0.043764 -0.005492 -534925.000000 0 0 1
-23.972135 -28.761667 -13.294168 39.731998 0.875974 1.911973 0.043332 -0.011339 -17500.300000 0 0 1
-22.620435 -29.477267 -13.426068 39.507628 0.916261 1.917538 0.067618 -0.023089 -225636.000000 0 0 1
-22.600235 -30.620967 -14.276668 40.647725 0.934978 1.929680 0.069811 -0.024641 -52786.000000 0 0 1
-23.115435 -31.760167 -13.614668 41.573919 0.941647 1.904433 0.056865 -0.020953 -50037.000000 0 0 1
-23.149435 -32.967967 -14.539968 42.827490 0.958609 1.917182 0.053649 -0.021632 153740.000000 0 0 1
-23.619335 -34.095667 -13.781668 43.707229 0.964961 1.891588 0.043078 -0.026908 90969.700000 0 0 1
-23.491035 33.349542 -14.515268 43.297964 -0.957131 1.912658 0.051093 -0.027067 -592164.000000 0 0 1
-24.090435 32.227542 -13.664868 42.493437 -0.928890 1.898190 0.029121 -0.023205 -341250.000000 0 0 1
-23.413335 31.764342 -12.522768 41.400210 -0.935606 1.878091 0.041350 -0.020334 -60600.700000 0 0 1
-23.190835 32.674542 -11.417568 41.662950 -0.953555 1.848394 0.063520 -0.020899 399035.000000 0 0 1
-22.304535 32.068642 -10.250968 40.385300 -0.963080 1.827433 0.061647 -0.019204 250488.000000 0 0 1
-23.029435 31.259542 -9.363868 39.939904 -0.935851 1.807448 0.049138 -0.013263 -245100.000000 0 0 1
-22.252735 30.640142 -8.392568 38.787082 -0.942662 1.788897 0.054315 -0.009568 -219979.000000 0 0 1
-23.027435 29.460842 -7.763268 38.189951 -0.907358 1.775503 0.041384 -0.016047 7551.910000 0 0 1
-23.062535 28.269142 -8.552268 37.472206 -0.886483 1.801055 0.044193 -0.005854 -241991.000000 0 0 1
-23.504235 27.077542 -7.979668 36.733057 -0.855925 1.789776 0.040543 -0.007608 -226584.000000 0 0 1
-22.663435 26.305742 -6.917568 35.404465 -0.859641 1.767448 0.042536 -0.006040 -49218.700000 0 0 1
-22.603435 26.964942 -5.680268 35.641112 -0.873162 1.730853 0.042620 -0.001299 -305931.000000 0 0 1
-21.667235 26.437042 -4.810768 34.518543 -0.884231 1.710619 0.031071 0.004806 -204745.000000 0 0 1
-20.434535 27.340942 -4.552868 34.435824 -0.928963 1.703398 0.038191 -0.008262 450558.000000 0 0 1
-19.542235 27.515142 -5.641768 34.217124 -0.953234 1.736434 0.058928 -0.008690 115025.000000 0 0 1
-18.634435 28.611042 -5.584668 34.598012 -0.993506 1.732921 0.059596 -0.005742 -175693.000000 0 0 1
-17.645335 28.553542 -6.724968 34.232847 -1.017266 1.768530 0.063553 0.005730 -819989.000000 0 0 1
-18.038835 28.773642 -8.103768 34.914082 -1.010816 1.805039 0.067769 0.000065 -37629.200000 0 0 1
-18.121635 30.201642 -8.383268 36.205138 -1.030361 1.804466 0.083654 -0.009633 -56451.300000 0 0 1
-17.901135 30.580142 -9.917968 36.796220 -1.041193 1.843709 0.084704 -0.011869 657927.000000 0 0 1
-16.567735 30.403642 -10.417168 36.157831 -1.071857 1.863041 0.075792 -0.018539 648577.000000 0 0 1
-16.528435 31.233142 -11.547468 37.175830 -1.084066 1.886639 0.089366 -0.022996 -167582.000000 0 0 1
-15.149735 31.251942 -12.219668 36.817369 -1.119414 1.909113 0.091518 -0.025276 -126059.000000 0 0 1
-14.997135 31.924842 -13.452568 37.750248 -1.131629 1.935162 0.092731 -0.027607 -285788.000000 0 0 1
-15.301035 31.114242 -14.575568 37.612032 -1.113755 1.968741 0.078379 -0.032084 -110109.000000 0 0 1
-14.688935 31.709742 -15.806868 38.355308 -1.136994 1.995572 0.099368 -0.036492 781356.000000 0 0 1
-13.251535 31.688342 -15.851368 37.828826 -1.174714 2.003172 0.100928 -0.045084 558471.000000 0 0 1
-12.876435 32.411642 -17.005468 38.800813 -1.192639 2.024476 0.094350 -0.047183 492372.000000 0 0 1
-11.350935 32.259142 -17.317568 38.332677 -1.232459 2.039545 0.109138 -0.046483 351322.000000 0 0 1
-11.041335 30.863442 -17.450968 37.134882 -1.227236 2.060013 0.104608 -0.052779 72518.700000 0 0 1
-9.778935 30.602342 -18.047268 36.848810 -1.261503 2.082617 0.102937 -0.044268 345108.000000 0 0 1
-9.644835 30.930242 -19.552868 37.842006 -1.268526 2.113785 0.103534 -0.049868 472578.000000 0 0 1
-10.598735 30.070942 -20.266968 37.780216 -1.231934 2.137014 0.088636 -0.056354 872525.000000 0 0 1
-10.230135 29.969442 -21.617768 38.342549 -1.241846 2.169783 0.101828 -0.065247 -1142760.000000 0 0 1
-11.433535 29.458042 -22.382668 38.723195 -1.200565 2.187093 0.095858 -0.055391 477528.000000 0 0 1
-12.570235 30.304542 -22.620368 39.850435 -1.177599 2.174423 0.093429 -0.055052 632007.000000 0 0 1
-13.299835 30.590342 -21.440768 39.653010 -1.160678 2.142077 0.086914 -0.050404 -1049200.000000 0 0 1
-14.145435 31.882342 -21.606768 41.029618 -1.153214 2.125409 0.107025 -0.051355 -282414.000000 0 0 1
-15.094535 31.773542 -22.608068 41.815401 -1.127294 2.142022 0.090015 -0.049418 -559474.000000 0 0 1
-15.749135 33.006842 -22.838468 43.117079 -1.125597 2.129025 0.083447 -0.039317 257210.000000 0 0 1
-16.254635 33.120842 -24.278668 44.166244 -1.114562 2.152815 0.065690 -0.026155 406140.000000 0 0 1
-15.166735 33.278642 -25.183468 44.403884 -1.143171 2.173832 0.078315 -0.026320 306416.000000 0 0 1
-15.571435 33.074242 -26.537668 45.173255 -1.130778 2.198718 0.084012 -0.014695 103168.000000 0 0 1
-15.928535 -34.275467 -27.281068 46.613116 1.135768 2.196004 0.073509 -0.011719 659173.000000 0 0 1
-17.196035 -33.675067 -26.977068 46.448638 1.098668 2.190499 0.070478 -0.008495 349469.000000 0 0 1
-17.441335 -32.598267 -27.807768 46.261422 1.079512 2.215674 0.050689 -0.003748 -345801.000000 0 0 1
-18.877335 -32.176867 -27.530768 46.364294 1.040233 2.206560 0.044503 -0.010051 -151151.000000 0 0 1
-19.907335 -33.072567 -27.864768 47.608214 1.028960 2.196038 0.028703 -0.006777 -42460.300000 0 0 1
-21.225235 -32.593667 -27.601068 47.693571 0.993573 2.187951 0.026149 -0.011251 1385630.000000 0 0 1
-22.312535 -33.730267 -27.650268 48.990994 0.986380 2.170496 0.004549 -0.000102 209187.000000 0 0 1
-22.100135 33.950442 -26.614768 48.470552 -0.993752 2.152073 0.019766 -0.005090 -516623.000000 0 0 1
-23.273335 33.230042 -26.324468 48.361777 -0.959822 2.146379 0.002658 0.008269 -305731.000000 0 0 1
-23.309935 31.716742 -26.575268 47.492628 -0.937003 2.164659 0.002564 0.006596 -181407.000000 0 0 1
-22.698635 30.973442 -25.573368 46.136529 -0.938367 2.158315 0.008390 -0.002255 -416732.000000 0 0 1
-22.958935 29.580242 -25.788368 45.465848 -0.910763 2.173902 0.009502 -0.008835 67450.800000 0 0 1
31.391475 9.938942 -26.616011 42.339335 0.306627 2.250594 0.014471 -0.009952 -358975.000000 0 0 1
31.054905 8.606142 -26.418881 41.670494 0.270342 2.257504 0.012081 -0.007550 1064070.000000 0 0 1
29.611795 8.503642 -26.463281 40.613736 0.279646 2.280468 0.016171 -0.007944 1222170.000000 0 0 1
29.070935 7.118942 -26.091821 39.706192 0.240156 2.287791 0.007600 0.003606 -23597.500000 0 0 1
29.408045 6.773642 -24.768331 39.040819 0.226385 2.258056 0.009503 0.004210 600434.000000 0 0 1
28.636075 5.601042 -24.377831 38.022034 0.193155 2.266792 0.007268 0.010564 362497.000000 0 0 1
28.735635 5.231642 -22.888231 37.107653 0.180089 2.235475 0.017270 0.005730 -286820.000000 0 0 1
30.004405 4.816242 -22.455031 37.784771 0.159160 2.207176 0.019455 -0.003501 -132001.000000 0 0 1
30.025025 4.588142 -21.057931 36.959297 0.151638 2.177010 0.031066 -0.004415 -97294.500000 0 0 1
31.398945 4.493942 -20.325731 37.672597 0.142159 2.140683 0.028152 -0.007256 354961.000000 0 0 1
31.971395 3.167542 -20.388931 38.051438 0.098752 2.136281 0.033478 -0.004212 467309.000000 0 0 1
32.854855 2.889442 -19.305431 38.216358 0.087720 2.100365 0.046541 -0.010137 -10947.400000 0 0 1
33.335985 1.450842 -19.407631 38.601152 0.043494 2.097600 0.047699 -0.014650 -56597.500000 0 0 1
32.324985 0.529042 -19.033531 37.516128 0.016365 2.102895 0.054464 -0.013066 169258.000000 0 0 1
32.762585 -0.844558 -19.078831 37.922316 -0.025772 2.097982 0.067446 -0.015388 -307081.000000 0 0 1
31.736575 -1.901258 -18.643231 36.856411 -0.059836 2.101145 0.055159 -0.016399 -59763.400000 0 0 1
31.617505 -2.137058 -17.267831 36.088940 -0.067488 2.069719 0.062424 -0.017565 -731710.000000 0 0 1
30.282085 -2.004658 -16.929731 34.751102 -0.066103 2.079644 0.056813 -0.019387 -859203.000000 0 0 1
29.798245 -2.378258 -15.495831 33.670644 -0.079643 2.049037 0.071277 -0.030128 -242965.000000 0 0 1
29.770475 -3.753258 -15.124331 33.602284 -0.125411 2.037672 0.056033 -0.041304 369291.000000 0 0 1
28.733525 -3.860258 -14.182831 32.274909 -0.133547 2.025770 0.044854 -0.033598 -400477.000000 0 0 1
28.480135 -5.298758 -13.631731 32.015918 -0.183948 2.010620 0.046184 -0.032337 -303444.000000 0 0 1
28.130465 -6.184858 -14.721031 32.346318 -0.216420 2.043289 0.036565 -0.030709 537877.000000 0 0 1
27.857905 -7.500158 -14.163931 32.139262 -0.262993 2.027180 0.040730 -0.025089 -365235.000000 0 0 1
27.113205 -8.478058 -15.095531 32.169526 -0.303059 2.059237 0.025572 -0.016342 741381.000000 0 0 1
25.811905 -7.982358 -15.467131 31.132051 -0.299922 2.090731 0.035061 -0.027941 796927.000000 0 0 1
25.126405 -8.720758 -16.461731 31.279009 -0.334067 2.125024 0.027729 -0.021629 1543320.000000 0 0 1
23.694405 -8.114658 -16.825131 30.172131 -0.329952 2.162334 0.039610 -0.024512 1233140.000000 0 0 1
23.844505 -6.847258 -17.502631 30.360952 -0.279638 2.185217 0.029413 -0.023962 302460.000000 0 0 1
22.581805 -6.478458 -18.045031 29.623157 -0.279385 2.225788 0.042920 -0.027741 298872.000000 0 0 1
22.260505 -7.024858 -19.419131 30.364146 -0.305684 2.264698 0.043088 -0.023049 -322491.000000 0 0 1
23.234705 -6.632458 -20.357131 31.595154 -0.278060 2.270919 0.038326 -0.021421 -5535.550000 0 0 1
23.025305 -7.119158 -21.619731 32.376841 -0.299865 2.301982 0.051719 -0.024535 -824368.000000 0 0 1
24.072505 -6.659458 -22.579131 33.669734 -0.269892 2.305822 0.065052 -0.032560 -805864.000000 0 0 1
23.754005 -6.911058 -23.914131 34.407864 -0.283127 2.339243 0.063847 -0.032929 112059.000000 0 0 1
23.637905 -5.692058 -24.663131 34.632645 -0.236303 2.363332 0.062697 -0.024636 -123396.000000 0 0 1
23.534505 -5.835358 -26.180281 35.683770 -0.243047 2.394511 0.073149 -0.017557 747695.000000 0 0 1
22.313205 -6.503358 -26.557961 35.291615 -0.283602 2.422690 0.081451 -0.022007 593427.000000 0 0 1
22.325305 -6.649958 -28.003611 36.425862 -0.289498 2.447733 0.077200 -0.018004 -41107.400000 0 0 1
21.120905 -7.441958 -28.544321 36.280210 -0.338767 2.476361 0.072765 -0.023784 -54412.900000 0 0 1
21.052505 -8.796558 -28.164641 36.246853 -0.395790 2.460719 0.060823 -0.021148 532811.000000 0 0 1
20.223005 -9.487358 -29.133031 36.711216 -0.438654 2.487455 0.071523 -0.022518 145763.000000 0 0 1
20.124305 -11.022958 -28.914691 36.912770 -0.501109 2.470793 0.082570 -0.024585 -224578.000000 0 0 1
19.100005 -11.318158 -27.963251 35.705102 -0.534941 2.470548 0.090889 -0.018627 399629.000000 0 0 1
19.069405 -12.603758 -27.373301 35.662228 -0.584028 2.445840 0.088020 -0.024894 -483477.000000 0 0 1
18.916705 -13.887158 -28.268691 36.739812 -0.633261 2.448744 0.081276 -0.023870 -539336.000000 0 0 1
17.731005 -13.924058 -29.009401 36.739805 -0.665710 2.480938 0.075000 -0.022451 -141692.000000 0 0 1
17.723105 -14.864958 -30.032481 37.908117 -0.697917 2.485274 0.064356 -0.020074 -1067060.000000 0 0 1
16.463505 -15.041258 -30.846281 38.062836 -0.740285 2.515638 0.057939 -0.024115 -1094370.000000 0 0 1
15.479605 -15.741158 -30.157271 37.374633 -0.793775 2.509667 0.065227 -0.024637 -76801.000000 0 0 1
14.346605 -15.974158 -30.970451 37.685111 -0.839025 2.535398 0.054873 -0.027251 -485213.000000 0 0 1
13.160905 -16.618758 -30.295951 36.976170 -0.900995 2.531050 0.053614 -0.030253 -630006.000000 0 0 1
13.446005 -17.945958 -29.870121 37.350724 -0.927776 2.497625 0.050722 -0.029556 132069.000000 0 0 1
12.380005 -18.569858 -29.176511 36.733812 -0.982790 2.488599 0.050696 -0.022283 15337.200000 0 0 1
12.775005 -19.905358 -28.579501 37.097330 -1.000216 2.450253 0.052773 -0.019326 118271.000000 0 0 1
13.670505 -19.803158 -27.487951 36.532659 -0.966597 2.422527 0.054696 -0.019268 -99065.800000 0 0 1
13.719105 -20.901158 -26.642981 36.536566 -0.989949 2.387969 0.052864 -0.013476 9851.610000 0 0 1
14.552105 -20.644158 -25.362111 35.793598 -0.956788 2.358260 0.043045 -0.006949 359600.000000 0 0 1
15.961705 -20.619458 -25.566061 36.517962 -0.912043 2.346328 0.048808 -0.006192 474389.000000 0 0 1
16.673005 -20.559058 -24.357231 35.971359 -0.889395 2.314650 0.042937 -0.000719 -290168.000000 0 0 1
18.183105 -20.846058 -24.500631 36.952190 -0.853522 2.295663 0.031740 -0.004327 50679.000000 0 0 1
18.608805 -22.189458 -24.802131 38.128799 -0.872939 2.279016 0.044518 -0.001950 288421.000000 0 0 1
18.375805 -23.115358 -23.798431 37.925655 -0.899136 2.249137 0.044292 -0.003247 -376582.000000 0 0 1
19.011905 -24.532958 -24.003731 39.236432 -0.911515 2.229094 0.042115 -0.007182 74732.400000 0 0 1
20.425805 -24.611758 -23.992531 39.982417 -0.878076 2.214394 0.049581 -0.007724 425811.000000 0 0 1
20.929005 -25.934928 -23.679231 40.882144 -0.891813 2.188552 0.052234 -0.019843 97904.800000 0 0 1
21.032605 -26.273268 -22.124831 40.276087 -0.895731 2.152358 0.065612 -0.017525 -174621.000000 0 0 1
19.778305 -26.382998 -21.473931 39.349379 -0.927512 2.148050 0.051768 -0.012952 220715.000000 0 0 1
19.920005 -26.678748 -20.085331 38.884221 -0.929435 2.113604 0.055073 -0.015292 -468773.000000 0 0 1
18.621505 -27.083038 -19.396631 38.163866 -0.968461 2.103943 0.043633 -0.017483 -1079400.000000 0 0 1
18.276705 -28.444018 -19.642831 39.101674 -0.999676 2.097114 0.047818 -0.017946 787417.000000 0 0 1
17.084205 -28.927018 -18.989931 38.590930 -1.037320 2.085277 0.043596 -0.017154 628336.000000 0 0 1
15.777705 -28.394418 -19.607531 37.942512 -1.063616 2.113870 0.040321 -0.021306 -886941.000000 0 0 1
15.278105 -27.210358 -19.049031 36.560766 -1.059181 2.118846 0.043402 -0.017161 -646673.000000 0 0 1
14.000905 -26.994568 -19.579831 36.167690 -1.092335 2.142853 0.035742 -0.005983 -114950.000000 0 0 1
13.192305 -25.934148 -18.771431 34.626342 -1.100225 2.143747 0.032547 -0.014606 12068.200000 0 0 1
12.577305 -26.494908 -17.606131 34.207376 -1.127587 2.111440 0.023505 -0.006706 400415.000000 0 0 1
11.615705 -25.678268 -16.894531 32.859142 -1.145985 2.110813 0.031091 -0.022717 1135600.000000 0 0 1
10.154805 -25.968258 -17.358231 32.844766 -1.198032 2.127621 0.032350 -0.009109 -63281.100000 0 0 1
9.633505 -27.272318 -17.180631 33.641608 -1.231244 2.106790 0.041914 0.001197 -241708.000000 0 0 1
8.236405 -27.105468 -17.058931 33.068896 -1.275797 2.112808 0.037159 0.010702 13248.400000 0 0 1
7.462605 -27.895258 -18.100031 34.080009 -1.309395 2.130699 0.033370 0.006602 -222528.000000 0 0 1
7.688905 -27.399128 -19.402131 34.442331 -1.297207 2.169198 0.031545 0.000085 -170046.000000 0 0 1
6.959205 -28.132318 -20.355531 35.414763 -1.328291 2.183126 0.031768 0.000396 -96639.800000 0 0 1
6.971505 -27.613738 -21.793031 35.861631 -1.323499 2.223955 0.027262 -0.008589 82215.000000 0 0 1
5.931105 -26.626618 -21.756931 34.892962 -1.351624 2.244051 0.047796 -0.012015 444983.000000 0 0 1
5.681505 -25.902128 -22.950131 35.070047 -1.354871 2.284196 0.032843 -0.011210 -9568.570000 0 0 1
4.372605 -25.067448 -23.018831 34.312726 -1.398100 2.306156 0.020820 -0.010389 708660.000000 0 0 1
3.229105 -25.936668 -23.042231 34.843683 -1.446934 2.293351 0.025170 -0.006087 -79803.000000 0 0 1
2.091605 -25.313948 -23.555331 34.641368 -1.488357 2.318528 0.029445 -0.013890 -298753.000000 0 0 1
1.283505 -26.284108 -24.423331 35.902657 -1.522003 2.318921 0.013469 -0.014355 -449020.000000 0 0 1
1.941105 -26.747388 -25.565231 37.050933 -1.498352 2.332289 0.007434 -0.011610 317309.000000 0 0 1
1.114005 -27.697078 -26.229161 38.161997 -1.530597 2.328577 0.011221 -0.018784 341366.000000 0 0 1
2.000605 -28.490828 -27.220911 39.455135 -1.500692 2.332176 0.009114 -0.017796 -375110.000000 0 0 1
2.245605 -27.837288 -28.425751 39.849475 -1.490302 2.365032 0.004304 -0.018275 -36291.800000 0 0 1
2.519205 -28.782348 -29.465481 41.267233 -1.483493 2.366015 0.016022 -0.016840 -177697.000000 0 0 1
3.982405 -29.229298 -29.616461 41.801270 -1.435383 2.358176 0.005278 -0.007442 -289366.000000 0 0 1
4.540705 -29.947358 -28.510181 41.596787 -1.420320 2.325941 0.003750 -0.016461 75348.500000 0 0 1
5.613705 -30.794808 -28.901141 42.604106 -1.390482 2.316332 0.023116 -0.016651 302880.000000 0 0 1
6.080205 -31.832788 -27.826671 42.715558 -1.382065 2.280279 0.039869 -0.023427 197530.000000 0 0 1
5.111505 -32.831498 -27.523681 43.146121 -1.416347 2.262588 0.036993 -0.029895 158143.000000 0 0 1
5.663305 -33.838128 -26.708631 43.479223 -1.404969 2.232276 0.042892 -0.035323 -70636.200000 0 0 1
4.609005 33.732134 -26.359221 43.057036 1.435002 2.229628 0.042355 -0.036424 11647.200000 0 0 1
4.030005 33.178805 -27.541611 43.308364 1.449925 2.260025 0.037119 -0.032867 -765321.000000 0 0 1
2.727605 32.793919 -27.334581 42.779204 1.487813 2.263953 0.025396 -0.032010 -1117190.000000 0 0 1
1.696105 32.983549 -28.431441 43.579102 1.519419 2.281556 0.030468 -0.017789 -383342.000000 0 0 1
1.609405 32.052982 -29.498941 43.590955 1.520628 2.314097 0.034207 -0.018543 61589.600000 0 0 1
0.695605 32.427572 -30.511281 44.530547 1.549349 2.325642 0.035149 -0.015781 41085.000000 0 0 1
0.439605 31.288342 -31.497911 44.399009 1.556747 2.359483 0.039778 -0.017524 215257.000000 0 0 1
1.580005 30.983702 -32.282711 44.773426 1.519846 2.376075 0.033967 -0.013643 432562.000000 0 0 1
1.268105 29.817752 -33.035111 44.519940 1.528293 2.406889 0.038988 -0.012733 -190078.000000 0 0 1
2.361405 29.435232 -34.035591 45.060300 1.490744 2.426960 0.039525 -0.007999 -24023.800000 0 0 1
2.395005 30.293832 33.331083 45.104472 1.491901 0.739248 0.030223 -0.013209 478089.000000 0 0 1
3.456705 29.927132 32.424797 44.260022 1.455802 0.748666 0.016161 -0.010500 599751.000000 0 0 1
3.007505 28.982942 31.209742 42.697822 1.467398 0.751091 0.013191 -0.004849 157984.000000 0 0 1
2.559205 27.720532 31.623472 42.131003 1.478736 0.721829 0.018048 -0.011765 -46426.400000 0 0 1
3.575805 26.751292 31.393602 41.400197 1.437916 0.710101 0.012976 -0.010423 124582.000000 0 0 1
3.373005 25.263382 31.841342 40.785864 1.438068 0.675018 0.024005 -0.020717 -256558.000000 0 0 1
2.397305 24.559222 31.089112 39.691754 1.473491 0.670898 0.032731 -0.009140 33254.000000 0 0 1
2.519705 23.144852 31.159972 38.897005 1.462357 0.641683 0.031578 -0.006410 -324416.000000 0 0 1
1.607505 22.369352 30.173392 37.595287 1.499058 0.639181 0.026882 0.006598 260543.000000 0 0 1
0.230605 22.590252 30.460792 37.924036 1.560589 0.638140 -0.000819 0.004418 -26706.000000 0 0 1
-0.489095 22.022852 29.362182 36.706716 -1.548591 0.643646 0.021570 0.003505 -620499.000000 0 0 1
-1.943695 21.729952 29.661332 36.820693 -1.481586 0.634174 0.019978 0.009305 -1001900.000000 0 0 1
-2.799695 22.752352 30.042292 37.789511 -1.448361 0.651805 0.025235 0.003875 -555830.000000 0 0 1
-4.059895 22.185252 30.299972 37.772430 -1.389799 0.639873 0.008774 0.000099 -598314.000000 0 0 1
-5.188495 23.108552 30.695622 38.770438 -1.349932 0.657165 -0.015061 -0.013110 -891340.000000 0 0 1
-5.148395 23.649092 31.986692 40.111520 -1.356441 0.647749 -0.014101 -0.006889 -57331.600000 0 0 1
-4.746095 24.965142 31.983742 40.850257 -1.382929 0.671401 -0.003502 -0.010781 -318623.000000 0 0 1
-4.906695 25.610232 33.366575 42.347231 -1.381499 0.663359 0.018029 -0.007407 796909.000000 0 0 1
-6.248895 25.766952 33.856319 43.002731 -1.332874 0.664369 0.028462 -0.010424 760006.000000 0 0 1
-6.179595 26.052142 -33.246171 42.687345 -1.337900 2.463594 0.042917 -0.011049 985475.000000 0 0 1
-7.614395 26.414842 -32.694951 42.716305 -1.290143 2.442455 0.064297 -0.005121 896224.000000 0 0 1
-7.994595 27.745072 -33.051701 43.887556 -1.290251 2.423557 0.065555 -0.012669 504367.000000 0 0 1
-9.326595 28.083172 -32.653901 44.067303 -1.250151 2.405356 0.057797 -0.006503 673778.000000 0 0 1
-9.545795 28.637492 -31.214911 43.423483 -1.249047 2.372941 0.066062 -0.007805 -116528.000000 0 0 1
-8.961695 29.895042 -30.923641 43.935147 -1.279549 2.351596 0.074694 -0.004881 98878.500000 0 0 1
-8.964795 30.042442 -29.519191 43.061567 -1.280804 2.326102 0.093071 -0.013790 -163134.000000 0 0 1
-8.232995 31.338302 -29.104161 43.553687 -1.313888 2.302632 0.085443 -0.019165 -811104.000000 0 0 1
-6.859495 31.321822 -29.221841 43.382315 -1.355200 2.309850 0.069354 -0.013807 -1233980.000000 0 0 1
-6.351495 32.621133 -29.011081 44.114880 -1.378497 2.288459 0.069441 -0.013171 932966.000000 0 0 1
-4.773995 32.592992 -28.938461 43.846650 -1.425357 2.291605 0.063859 -0.016041 1420930.000000 0 0 1
-4.072595 33.839577 -28.563391 44.469881 -1.451022 2.268303 0.057159 -0.022737 513955.000000 0 0 1
-4.177395 -33.666128 -29.469011 44.936415 1.447344 2.286030 0.056414 -0.024841 -170972.000000 0 0 1
-3.143795 -33.700318 -30.636931 45.653219 1.477779 2.306460 0.057224 -0.023172 92889.500000 0 0 1
-3.448295 34.026190 -31.644851 46.594731 -1.469799 2.317401 0.062692 -0.017035 142065.000000 0 0 1
-4.331495 -34.178602 -32.684151 47.488866 1.444737 2.329869 0.078606 -0.023417 112887.000000 0 0 1
-3.814895 -33.194828 -33.764521 47.502557 1.456374 2.361422 0.053109 -0.034115 -273177.000000 0 0 1
-3.597695 -31.912548 -33.211371 46.199018 1.458534 2.372981 0.046021 -0.033533 429071.000000 0 0 1
-2.847095 -31.061618 -34.106869 46.219136 1.479392 2.400807 0.035215 -0.038725 315458.000000 0 0 1
32.222275 19.480442 12.332832 39.621476 0.543769 1.254271 0.029715 0.000173 -174217.000000 0 0 1
33.325415 18.652542 12.566932 40.204830 0.510267 1.252896 0.024494 -0.008377 -136430.000000 0 0 1
32.834405 17.461442 12.995232 39.393859 0.488765 1.234620 0.032662 -0.003369 -115389.000000 0 0 1
33.884845 16.459042 13.488832 40.012890 0.452170 1.226949 0.047154 -0.013575 603677.000000 0 0 1
34.945875 15.983642 12.638432 40.452700 0.428976 1.253052 0.046350 -0.013819 735577.000000 0 0 1
35.778065 15.047942 13.242032 41.010510 0.398131 1.242011 0.046228 -0.012388 -285883.000000 0 0 1
-35.228038 14.507042 12.373832 40.057217 -0.390641 1.256756 0.052638 -0.018283 359618.000000 0 0 1
-34.356457 13.551842 13.000432 39.153925 -0.375711 1.232337 0.056339 -0.013917 278989.000000 0 0 1
-34.992644 12.310442 13.366432 39.429603 -0.338278 1.224948 0.054602 -0.017506 -406608.000000 0 0 1
-34.234250 11.541042 14.407132 38.894023 -0.325154 1.191335 0.055595 -0.020684 -161252.000000 0 0 1
-34.273178 12.257842 15.563732 39.587058 -0.343475 1.166739 0.052281 -0.022378 -189742.000000 0 0 1
-33.424755 11.668242 16.474132 39.048165 -0.335864 1.135265 0.049752 -0.021420 -371475.000000 0 0 1
-33.467975 12.481642 17.792932 39.905954 -0.356966 1.108649 0.055428 -0.016652 25605.200000 0 0 1
-34.684749 12.366042 18.495932 41.207406 -0.342477 1.105319 0.065369 -0.014012 79188.300000 0 0 1
-34.553683 13.021942 19.776832 41.888555 -0.360401 1.079091 0.057240 -0.018704 207124.000000 0 0 1
-35.822244 13.100542 20.679432 43.387744 -0.350601 1.073991 0.068895 -0.019349 232934.000000 0 0 1
35.937115 11.912742 21.262232 43.422024 0.320089 1.059091 0.063134 -0.005445 1357300.000000 0 0 1
34.633355 12.038242 21.907432 42.712107 0.334527 1.032226 0.057526 -0.010756 1420740.000000 0 0 1
34.413255 10.888242 23.042332 42.822599 0.306431 1.002629 0.042997 -0.008214 140439.000000 0 0 1
35.288795 10.944342 24.184172 44.158259 0.300730 0.991219 0.056300 -0.002357 167384.000000 0 0 1
34.900725 11.849742 25.201142 44.649463 0.327315 0.971063 0.038205 0.003081 -1669280.000000 0 0 1
36.030715 12.136142 26.135462 46.136328 0.324892 0.968564 0.047247 -0.003024 -575325.000000 0 0 1
-35.151375 12.999942 25.662252 45.422118 -0.354228 0.970396 0.063186 -0.015673 -593086.000000 0 0 1
-34.224343 12.518242 24.724892 44.037851 -0.350654 0.974664 0.065334 -0.016979 -882195.000000 0 0 1
-33.138395 13.628942 24.501852 43.407857 -0.390187 0.971022 0.061474 -0.021077 30227.500000 0 0 1
-32.184015 13.821942 25.486292 43.317525 -0.405647 0.941767 0.057591 -0.023075 -146436.000000 0 0 1
-32.768955 14.462942 26.611302 44.622220 -0.415647 0.931826 0.046178 -0.019085 -1087220.000000 0 0 1
-31.757865 15.001542 27.604852 44.672543 -0.441302 0.904679 0.050067 -0.012161 -612240.000000 0 0 1
-31.014495 16.087042 27.096412 44.214335 -0.478491 0.911144 0.054776 -0.018321 -268905.000000 0 0 1
-30.429975 16.811342 28.162602 44.740773 -0.504730 0.889936 0.061594 -0.021757 -205059.000000 0 0 1
-29.700005 18.032142 27.581742 44.362157 -0.545655 0.899834 0.057590 -0.012226 -391728.000000 0 0 1
-30.564455 18.953342 26.988602 44.964427 -0.555076 0.927019 0.044564 -0.019120 -91527.100000 0 0 1
-29.956675 20.216642 26.775872 44.978465 -0.593655 0.933152 0.045851 -0.019288 14242.300000 0 0 1
-30.897285 21.268742 26.131912 45.715188 -0.602877 0.962312 0.043159 -0.011029 371463.000000 0 0 1
-31.926975 21.728742 27.011082 47.128214 -0.597571 0.960463 0.028899 -0.011668 959049.000000 0 0 1
-32.984665 22.554142 26.498182 47.946127 -0.599755 0.985237 0.022037 -0.006331 -352058.000000 0 0 1
-32.619335 23.962642 25.929332 48.068280 -0.633582 1.001040 0.027466 -0.002557 -812990.000000 0 0 1
-33.695045 24.681742 25.410302 48.889957 -0.632209 1.024244 0.031268 -0.001385 -275934.000000 0 0 1
-33.394025 26.042842 25.207722 49.283058 -0.662343 1.033880 0.040385 -0.003146 -337298.000000 0 0 1
-34.480247 26.700142 24.386352 49.964780 -0.658910 1.060918 0.053557 0.000789 -395949.000000 0 0 1
-34.409111 26.368242 23.027032 49.086814 -0.653862 1.082516 0.042019 0.003832 -526662.000000 0 0 1
-35.326885 27.058742 22.288832 49.769030 -0.653633 1.106442 0.053375 -0.006092 -669558.000000 0 0 1
-35.000024 26.840542 20.796432 48.763798 -0.654212 1.130207 0.042799 -0.001350 132121.000000 0 0 1
-34.990475 25.534342 20.294332 47.835091 -0.630415 1.132656 0.038296 -0.001863 58002.500000 0 0 1
-34.482675 25.486842 18.996932 46.899013 -0.636502 1.153751 0.051132 -0.014995 -228203.000000 0 0 1
-34.547467 24.140942 18.299332 45.947559 -0.609904 1.161171 0.041134 -0.006779 324426.000000 0 0 1
-35.786261 23.903342 17.634032 46.507906 -0.588889 1.181906 0.035896 -0.004730 319236.000000 0 0 1
-35.573694 23.087142 16.511632 45.509756 -0.575668 1.199509 0.030500 -0.005188 45041.900000 0 0 1
35.348655 22.901142 15.608532 44.917880 0.574873 1.215903 0.023907 0.000398 125712.000000 0 0 1
34.434865 21.993042 16.195032 43.951483 0.568380 1.193428 0.024736 -0.002942 136161.000000 0 0 1
33.268615 21.931542 15.374632 42.710333 0.582834 1.202556 0.014377 0.002969 396627.000000 0 0 1
32.161845 20.932442 15.909932 41.541273 0.576970 1.177764 0.025636 -0.002689 911870.000000 0 0 1
31.398935 21.308342 17.064332 41.606850 0.596241 1.148197 0.024961 -0.001936 992500.000000 0 0 1
30.390105 22.326642 16.796632 41.281525 0.633616 1.151760 0.035094 0.002764 238296.000000 0 0 1
29.456665 22.676842 17.928532 41.271861 0.656077 1.121423 0.042479 -0.007920 -369960.000000 0 0 1
30.119915 23.541942 18.812532 42.606850 0.663425 1.113485 0.029570 -0.009845 388987.000000 0 0 1
29.234905 24.209842 19.702632 42.766691 0.691650 1.092012 0.041377 -0.012422 473396.000000 0 0 1
30.136765 24.813042 20.811732 44.238443 0.688816 1.081002 0.030817 -0.021779 488004.000000 0 0 1
30.811265 25.967042 20.323732 45.129540 0.700286 1.103648 0.033042 -0.014091 257803.000000 0 0 1
31.758135 26.389442 21.292332 46.457994 0.693330 1.094699 0.034142 -0.017897 -263144.000000 0 0 1
32.792665 27.418642 20.865332 47.565774 0.696381 1.116686 0.035841 -0.015925 -272327.000000 0 0 1
33.641085 27.983542 21.834632 48.903501 0.693848 1.107964 0.034492 -0.009655 598434.000000 0 0 1
32.939875 28.899442 22.689132 49.345819 0.720153 1.093028 0.027407 -0.011712 -310461.000000 0 0 1
33.800165 29.304742 23.868902 50.704473 0.714281 1.080661 0.011266 -0.011026 -277574.000000 0 0 1
34.873745 30.166642 23.602922 51.800601 0.713152 1.097695 0.050686 -0.016433 -530391.000000 0 0 1
35.487745 30.482442 24.779132 52.939255 0.709671 1.083694 0.069145 -0.007392 -1117070.000000 0 0 1
-35.312923 31.089742 24.598682 53.091146 -0.721884 1.089048 0.079602 -0.019485 -1208930.000000 0 0 1
-34.189807 30.271042 24.480052 51.812661 -0.724680 1.078702 0.077713 -0.017821 -504295.000000 0 0 1
-33.089815 31.086742 24.763972 51.716300 -0.754196 1.071460 0.080215 -0.011401 -117320.000000 0 0 1
-31.675735 30.506742 24.506152 50.344464 -0.766601 1.062409 0.092210 -0.021727 -184302.000000 0 0 1
-31.196635 30.404642 23.162232 49.337220 -0.772542 1.082108 0.075853 -0.013192 270748.000000 0 0 1
-31.739725 29.414542 22.279032 48.672176 -0.747395 1.095349 0.069120 -0.015817 -366605.000000 0 0 1
-31.451285 27.953042 22.587932 47.757414 -0.726577 1.078135 0.052847 -0.001890 -580624.000000 0 0 1
-30.083685 27.713942 22.346932 46.609828 -0.744420 1.070772 0.054032 -0.005165 189521.000000 0 0 1
-29.490715 26.596042 23.006632 45.895064 -0.733833 1.045710 0.043526 -0.007875 -175381.000000 0 0 1
-29.045075 26.741642 24.436202 46.431237 -0.744132 1.016567 0.051558 -0.003928 -337272.000000 0 0 1
-30.060255 26.898342 25.423742 47.681301 -0.729943 1.008416 0.048752 -0.006653 -42499.000000 0 0 1
-29.550715 27.361142 26.632342 48.282072 -0.746944 0.986516 0.062600 -0.023300 -620364.000000 0 0 1
-30.628945 27.888742 27.588212 49.769706 -0.738605 0.983254 0.062925 -0.025178 -147397.000000 0 0 1
-31.430605 26.819042 28.063732 49.947142 -0.706394 0.974153 0.044855 -0.018521 572310.000000 0 0 1
-32.325765 27.328642 29.096192 51.365340 -0.701825 0.968598 0.049939 -0.013653 1174320.000000 0 0 1
-33.269535 26.251742 29.790682 51.802516 -0.668036 0.958092 0.036751 -0.011654 914195.000000 0 0 1
-32.547815 25.444942 30.736862 51.493301 -0.663527 0.931152 0.028327 -0.015360 205548.000000 0 0 1
-33.239535 24.227342 30.903982 51.447905 -0.629841 0.926439 0.011725 -0.021826 -54994.800000 0 0 1
-32.607015 23.225442 31.906462 51.192391 -0.618923 0.897884 0.033408 -0.030093 -269406.000000 0 0 1
-31.351785 22.689342 31.529992 49.918745 -0.626457 0.887147 0.031760 -0.022505 -106438.000000 0 0 1
-30.994535 21.538442 32.255682 49.648713 -0.607302 0.863635 0.037996 -0.023930 167983.000000 0 0 1
-30.126725 21.842242 33.530941 50.090190 -0.627316 0.837380 0.042827 -0.032456 -374348.000000 0 0 1
-30.601435 22.898942 -34.138922 51.247199 -0.642410 2.299847 0.065806 -0.036035 -65785.500000 0 0 1
-30.488775 22.729942 -32.732301 50.175883 -0.640627 2.281479 0.047517 -0.025913 78993.300000 0 0 1
-29.080635 22.973342 -32.110801 49.036327 -0.668606 2.284763 0.059656 -0.026403 163540.000000 0 0 1
-28.846425 24.351442 -32.005391 49.491959 -0.701103 2.274018 0.045647 -0.025446 235521.000000 0 0 1
-27.814585 24.544142 -31.044201 48.371567 -0.723017 2.267621 0.067523 -0.015594 10062.600000 0 0 1
-28.137075 25.702742 -30.050111 48.531795 -0.740215 2.238499 0.036001 -0.004896 -163398.000000 0 0 1
-28.089975 27.072442 -30.478281 49.506459 -0.766954 2.233997 0.049384 -0.013805 19608.900000 0 0 1
-28.874295 27.546342 -31.533731 50.861597 -0.761866 2.239528 0.042136 -0.010928 -367919.000000 0 0 1
-28.391965 28.972342 -31.877791 51.591607 -0.795515 2.236849 0.050565 -0.017475 -69282.300000 0 0 1
-28.866955 30.013942 -31.021371 51.927481 -0.804875 2.211049 0.052778 -0.022163 180277.000000 0 0 1
-28.449615 31.283042 -31.519611 52.739883 -0.832798 2.211354 0.047628 -0.036108 -48250.000000 0 0 1
-28.557525 32.541542 -30.592451 53.013039 -0.850512 2.185938 0.041361 -0.017905 -16044.000000 0 0 1
-27.828395 32.404542 -29.406041 51.857393 -0.861227 2.173723 0.020208 -0.007464 -105329.000000 0 0 1
-28.099655 33.526142 -28.594121 52.261043 -0.873227 2.149740 0.010897 -0.004307 -765039.000000 0 0 1
-27.232505 33.658142 -27.365431 51.218617 -0.890537 2.134460 0.010795 -0.001458 -406787.000000 0 0 1
-25.924895 34.109342 -27.615951 50.972426 -0.920893 2.143352 -0.012274 -0.003007 -432041.000000 0 0 1
-25.857105 -33.086567 -27.653411 50.279439 0.907439 2.153154 -0.000498 0.008287 -841004.000000 0 0 1
-26.372295 -32.175267 -26.470401 49.309511 0.884191 2.137461 0.001495 0.012143 75843.100000 0 0 1
-27.749785 -31.878367 -26.582781 49.929201 0.854527 2.132241 -0.003641 0.000578 -317411.000000 0 0 1
-28.186465 -31.172667 -25.450401 49.131812 0.835663 2.115310 -0.003940 0.005347 -377828.000000 0 0 1
-29.710775 -31.118067 -25.424881 49.974882 0.808529 2.104532 -0.010660 0.004077 -403533.000000 0 0 1
-30.304745 -30.170367 -26.283321 50.194040 0.783176 2.121908 -0.001053 0.001397 -317884.000000 0 0 1
-31.693865 -30.109967 -26.088711 50.909057 0.759776 2.108840 0.004431 -0.002570 -173261.000000 0 0 1
-32.330725 -29.085967 -27.131151 51.257864 0.732615 2.128580 0.014785 -0.011108 775122.000000 0 0 1
-33.759395 -29.002167 -27.114221 52.115290 0.709744 2.117968 0.002958 -0.013222 585851.000000 0 0 1
-34.230683 -28.060767 -28.027131 52.389564 0.686671 2.135275 0.006535 -0.014914 -563987.000000 0 0 1
-35.725608 -28.051267 -28.301521 53.517929 0.665643 2.128010 0.016747 -0.022343 -688920.000000 0 0 1
35.667225 -27.768267 -27.208651 52.759248 -0.661516 2.112636 0.003863 -0.012919 -4727.690000 0 0 1
34.287105 -27.654867 -27.553931 51.957832 -0.678733 2.129766 0.006860 -0.011870 224890.000000 0 0 1
33.305905 -27.364567 -26.430971 50.563812 -0.687781 2.120841 0.018682 -0.008460 -351365.000000 0 0 1
33.176055 -28.348567 -25.448531 50.516528 -0.707094 2.098750 0.019545 -0.002641 -193375.000000 0 0 1
32.361565 -27.887667 -24.445331 49.219580 -0.711278 2.090541 0.019540 0.003638 -384617.000000 0 0 1
32.319695 -28.734067 -23.183331 49.068077 -0.726737 2.062891 0.009997 0.008151 -73617.100000 0 0 1
31.860345 -30.077567 -23.320531 49.634552 -0.756623 2.059911 0.024510 -0.002217 -41919.100000 0 0 1
31.576525 -30.736767 -22.064431 49.281486 -0.771923 2.035013 0.028873 -0.005290 -185637.000000 0 0 1
32.734285 -30.940067 -21.057231 49.721506 -0.757228 2.008106 0.013464 0.005691 -256999.000000 0 0 1
33.912515 -31.577567 -21.570531 51.112515 -0.749760 2.006469 0.005469 0.001435 1488310.000000 0 0 1
35.038145 -31.284067 -20.694431 51.328588 -0.728855 1.985781 0.005915 0.000888 1256800.000000 0 0 1
35.732665 -29.852367 -20.730831 50.968172 -0.695978 1.989680 -0.018951 0.010396 -524116.000000 0 0 1
34.898705 -28.844867 -20.269531 49.606450 -0.690710 1.991723 -0.022809 0.018995 1253.710000 0 0 1
35.536545 -27.558167 -20.458031 49.404753 -0.659615 1.997740 -0.027019 0.019873 247620.000000 0 0 1
34.565105 -26.388067 -20.173831 47.938085 -0.652042 2.005157 -0.027063 0.022381 108600.000000 0 0 1
33.481705 -26.308667 -21.080031 47.513558 -0.665999 2.030479 -0.001684 0.013564 -211134.000000 0 0 1
32.493655 -25.510567 -20.488731 46.113065 -0.665585 2.031206 0.030754 0.006038 531950.000000 0 0 1
31.205365 -25.339267 -21.405331 45.541645 -0.682025 2.060106 0.037017 0.001153 1027790.000000 0 0 1
30.492665 -26.539467 -21.647531 45.855878 -0.716194 2.062442 0.049659 -0.001983 447597.000000 0 0 1
29.202975 -26.339867 -22.221831 45.170921 -0.733896 2.085124 0.054486 -0.002545 549550.000000 0 0 1
28.565535 -27.697167 -22.635531 45.776524 -0.769965 2.088032 0.061528 -0.004260 -84276.800000 0 0 1
28.158295 -28.561067 -21.573231 45.541502 -0.792499 2.064289 0.056483 -0.004815 132003.000000 0 0 1
27.678375 -29.783767 -22.142431 46.297435 -0.822021 2.069474 0.047780 -0.003502 284747.000000 0 0 1
26.840705 -30.585167 -21.068031 45.822896 -0.850511 2.048533 0.056684 0.006007 841763.000000 0 0 1
27.640205 -31.109967 -19.935831 46.143779 -0.844389 2.017547 0.061151 0.000116 877273.000000 0 0 1
28.441065 -32.262867 -20.232731 47.530518 -0.848273 2.010508 0.059864 0.007940 440789.000000 0 0 1
29.328635 -32.793367 -19.059631 47.946254 -0.841113 1.979610 0.046123 0.004408 293827.000000 0 0 1
28.618695 -33.245867 -17.876131 47.369541 -0.860054 1.957758 0.053324 0.001664 247542.000000 0 0 1
28.007255 -32.224567 -17.079131 45.983973 -0.855302 1.951329 0.030278 -0.000888 100858.000000 0 0 1
27.393605 -32.876667 -15.797831 45.616404 -0.876123 1.924441 0.039946 -0.000646 -813089.000000 0 0 1
26.255905 -33.651267 -15.992631 45.580090 -0.908224 1.929295 0.059389 0.000457 -387864.000000 0 0 1
25.729705 -33.960467 -14.694531 45.069505 -0.922425 1.902910 0.066122 -0.002175 -121181.000000 0 0 1
24.206705 -34.155267 -14.604831 44.337884 -0.954238 1.906463 0.074387 -0.002861 256636.000000 0 0 1
23.470705 -32.921567 -14.656431 43.005983 -0.951446 1.918564 0.070510 -0.001484 864901.000000 0 0 1
22.059705 -33.093267 -14.510731 42.336228 -0.982845 1.920639 0.061659 -0.011116 422522.000000 0 0 1
-1.279735 -7.455158 -28.869161 29.843685 1.400795 2.885337 0.036864 -0.018518 46536.900000 0 0 1
-0.546635 -8.672258 -28.760431 30.044455 1.507847 2.848180 0.046252 -0.018056 65219.900000 0 0 1
-0.409835 -9.323758 -30.013021 31.430588 1.526869 2.840114 0.036093 -0.012141 -82122.400000 0 0 1
-0.050435 -10.789558 -29.955841 31.839747 1.566122 2.795872 0.049111 -0.009634 -257896.000000 0 0 1
1.224865 -11.072958 -29.457571 31.493796 -1.460627 2.780030 0.008028 -0.009907 -501377.000000 0 0 1
1.361865 -12.452158 -29.317681 31.881614 -1.461861 2.737805 0.019299 -0.005703 -294921.000000 0 0 1
2.797665 -12.828458 -28.942761 31.781751 -1.356076 2.715705 0.016457 -0.003333 -1350480.000000 0 0 1
3.618265 -12.899058 -30.075321 32.924193 -1.297318 2.722533 0.014868 -0.009466 122616.000000 0 0 1
4.979765 -13.037758 -29.655061 32.775049 -1.205947 2.701720 0.024165 -0.010000 703660.000000 0 0 1
5.477465 -14.423458 -29.167511 32.996704 -1.207858 2.655045 0.031418 -0.011459 -1109730.000000 0 0 1
4.994965 -14.720958 -27.882731 31.923392 -1.243677 2.632991 0.029979 -0.010930 -58197.500000 0 0 1
5.688465 -15.793358 -27.261071 32.014915 -1.225081 2.589658 0.041951 -0.006751 -10860.500000 0 0 1
5.395465 -17.279858 -27.721781 33.108936 -1.268148 2.563104 0.043272 -0.015236 -210883.000000 0 0 1
5.779665 -17.571458 -29.090091 34.473092 -1.253020 2.575213 0.048886 -0.029219 345163.000000 0 0 1
5.118265 -18.765658 -29.531761 35.362006 -1.304527 2.559160 0.033681 -0.024000 -192365.000000 0 0 1
5.538365 -19.335858 -30.920021 36.886265 -1.291835 2.564868 0.049790 -0.042311 -37285.000000 0 0 1
6.881365 -19.740258 -31.112721 37.483761 -1.235373 2.549961 0.051249 -0.036043 225209.000000 0 0 1
7.117065 -20.403758 -32.344971 38.899397 -1.235181 2.552604 0.060790 -0.034438 61645.600000 0 0 1
8.631065 -20.387958 -32.670101 39.465169 -1.170331 2.546009 0.070853 -0.037999 102559.000000 0 0 1
9.008165 -19.109658 -33.140511 39.301648 -1.130295 2.574069 0.072244 -0.039946 758319.000000 0 0 1
10.286465 -19.112658 -33.799911 40.168881 -1.077056 2.570749 0.075994 -0.040986 358239.000000 0 0 1
10.632565 -17.662058 -34.201226 39.933990 -1.028907 2.599138 0.064761 -0.029413 235277.000000 0 0 1
9.683965 -17.167058 33.298553 38.694711 -1.057191 0.534457 0.075221 -0.033463 584107.000000 0 0 1
9.916765 -15.818758 32.929386 37.853927 -1.010833 0.515783 0.057982 -0.022201 118651.000000 0 0 1
8.871665 -15.227758 31.947952 36.486472 -1.043271 0.504097 0.068084 -0.030801 43619.600000 0 0 1
8.948765 -16.003258 30.736542 35.789938 -1.060929 0.537866 0.070647 -0.031555 322673.000000 0 0 1
8.037065 -15.458358 29.761452 34.486218 -1.091342 0.529627 0.063776 -0.027221 336367.000000 0 0 1
8.193365 -16.321658 28.420652 33.782558 -1.105555 0.571146 0.056210 -0.026015 -323267.000000 0 0 1
7.564065 -17.584258 28.588362 34.405169 -1.164562 0.590015 0.070094 -0.031023 451093.000000 0 0 1
7.921065 -18.388358 27.479352 33.999849 -1.164053 0.629674 0.052215 -0.028530 -102166.000000 0 0 1
7.449865 -19.794558 27.685262 34.839614 -1.210835 0.652367 0.058038 -0.027766 -98829.600000 0 0 1
7.988765 -20.343058 28.864322 36.205102 -1.196597 0.648080 0.072846 -0.023778 120088.000000 0 0 1
7.229265 -21.426558 29.281532 36.996861 -1.245393 0.657603 0.065749 -0.025064 -155982.000000 0 0 1
7.519865 -21.714158 30.781442 38.412891 -1.237411 0.641279 0.074343 -0.026016 -18089.500000 0 0 1
6.951365 -20.782458 31.747232 38.576142 -1.248012 0.604167 0.084409 -0.036345 153687.000000 0 0 1
7.208965 -19.388458 31.687722 37.841686 -1.214819 0.578331 0.078047 -0.037037 -112771.000000 0 0 1
6.447665 -18.605158 32.805539 38.261308 -1.237196 0.540585 0.076940 -0.038381 1009530.000000 0 0 1
5.022965 -18.699758 32.630881 37.943188 -1.308379 0.535540 0.082789 -0.044750 202058.000000 0 0 1
4.450865 -17.827558 33.596000 38.292600 -1.326136 0.500486 0.065819 -0.043851 -721488.000000 0 0 1
2.932465 -17.913758 33.630820 38.216935 -1.408536 0.494939 0.058021 -0.043482 -595921.000000 0 0 1
2.483665 -19.041758 -34.137061 39.167538 -1.441096 2.629182 0.054161 -0.050547 -75810.100000 0 0 1
2.126965 -18.837758 -32.766821 37.855642 -1.458363 2.617090 0.042738 -0.053145 -246912.000000 0 0 1
1.687365 -20.065758 -31.939191 37.757036 -1.486902 2.579072 0.029136 -0.028353 -890073.000000 0 0 1
0.531165 -20.730258 -32.364051 38.437710 -1.545179 2.571752 0.019137 -0.026400 -33221.500000 0 0 1
-0.043335 -21.728958 -31.498211 38.266000 1.568802 2.537712 0.016584 -0.020933 -248752.000000 0 0 1
-0.707535 -21.120958 -30.280391 36.925568 1.537310 2.532275 0.018508 -0.019483 -910741.000000 0 0 1
-1.771435 -20.376658 -30.853391 37.017265 1.484080 2.556184 0.023962 -0.034521 -264937.000000 0 0 1
-2.347935 -19.341258 -30.102701 35.857630 1.449992 2.567170 0.035890 -0.014188 44075.100000 0 0 1
-1.644235 -17.953858 -30.266321 35.229174 1.479470 2.604357 0.026613 -0.005561 -73359.000000 0 0 1
-2.272035 -16.921758 -29.542511 34.121371 1.437327 2.617557 0.034729 -0.008834 -344229.000000 0 0 1
-1.882535 -15.681458 -30.093391 33.986236 1.451320 2.658275 0.038033 -0.013785 -193520.000000 0 0 1
-2.836335 -14.536258 -29.677001 33.167333 1.378096 2.678703 0.044739 -0.005585 148168.000000 0 0 1
-2.838035 -14.140258 -28.283961 31.748760 1.372722 2.670049 0.044748 -0.013474 -330266.000000 0 0 1
-3.490435 -12.944758 -28.025791 31.067585 1.307419 2.695387 0.031165 -0.021045 -125035.000000 0 0 1
-3.672735 -12.621058 -26.529881 29.607679 1.287616 2.681581 0.032423 -0.012238 380584.000000 0 0 1
-4.539535 -13.583058 -25.856171 29.557544 1.248261 2.635766 0.033355 -0.008147 672153.000000 0 0 1
-4.614435 -13.559958 -24.395331 28.289532 1.242790 2.610679 0.031912 -0.004144 -457182.000000 0 0 1
-5.490835 -12.467758 -23.728331 27.361066 1.155952 2.620408 0.037586 -0.016008 -451866.000000 0 0 1
-6.856835 -12.742558 -23.913731 27.950948 1.077131 2.597429 0.034153 -0.020040 -698837.000000 0 0 1
-7.600135 -11.849658 -23.172431 27.113428 1.000505 2.595668 0.018015 -0.024137 261260.000000 0 0 1
-9.112935 -11.724758 -23.530931 27.824813 0.910089 2.578637 0.032466 -0.021180 673658.000000 0 0 1
-10.072235 -12.647558 -23.058031 28.161737 0.898268 2.530064 0.037581 -0.017226 -15906.500000 0 0 1
-10.185935 -13.768858 -23.880631 29.387400 0.933868 2.519421 0.045441 -0.022790 -729345.000000 0 0 1
-11.072735 -14.859358 -23.294631 29.766522 0.930394 2.469593 0.044139 -0.027067 -842177.000000 0 0 1
-10.664435 -15.550858 -22.135831 29.078417 0.969679 2.436029 0.043381 -0.013717 -418894.000000 0 0 1
-11.529535 -16.612358 -21.749831 29.697740 0.964086 2.392597 0.042331 -0.005734 320187.000000 0 0 1
-12.029635 -17.713358 -22.734031 31.229975 0.974216 2.386132 0.042211 -0.007672 111409.000000 0 0 1
-13.160335 -17.327258 -23.481531 32.012663 0.921233 2.394265 0.042416 -0.008974 -162848.000000 0 0 1
-13.675835 -18.333058 -24.336231 33.397329 0.929882 2.387200 0.032616 -0.007922 503244.000000 0 0 1
-14.980335 -17.860558 -25.050731 34.219133 0.872877 2.392149 0.049069 -0.012025 1472320.000000 0 0 1
-16.150335 -17.595258 -24.226831 34.020079 0.828190 2.363329 0.064303 -0.008904 409829.000000 0 0 1
-17.231335 -17.315458 -25.038231 34.980809 0.787833 2.368523 0.067872 -0.008855 159327.000000 0 0 1
-18.224035 -16.114258 -24.758831 34.710005 0.724034 2.364999 0.083500 -0.008600 666069.000000 0 0 1
-18.801235 -16.238258 -23.467531 34.174442 0.712383 2.327734 0.072047 -0.007384 -123997.000000 0 0 1
-19.418935 -15.048058 -23.096631 33.719333 0.659258 2.325355 0.071692 -0.008935 221345.000000 0 0 1
-20.183535 -15.052158 -21.735831 33.262425 0.640785 2.282949 0.053645 -0.010708 123241.000000 0 0 1
-19.289635 -15.064758 -20.642131 32.017722 0.663033 2.271440 0.065951 -0.005671 -93087.200000 0 0 1
-19.804735 -14.787658 -19.349131 31.389349 0.641368 2.234989 0.052301 -0.005518 -161781.000000 0 0 1
-20.349335 -13.412458 -18.965231 30.881539 0.582753 2.232077 0.056317 -0.004744 -731192.000000 0 0 1
-21.561535 -13.014358 -19.500931 31.852152 0.543056 2.229678 0.049535 -0.009338 -641843.000000 0 0 1
-21.980235 -11.897758 -18.735631 31.236377 0.496134 2.214050 0.046551 -0.001362 -811099.000000 0 0 1
-23.390935 -11.472858 -19.060031 32.280754 0.456005 2.202407 0.043940 -0.006502 -792481.000000 0 0 1
-23.506135 -10.773958 -20.318331 32.885424 0.429773 2.236805 0.032282 -0.005183 786674.000000 0 0 1
-24.897035 -10.461158 -20.522931 33.918857 0.397778 2.220637 0.025326 -0.006898 821968.000000 0 0 1
-25.174625 -9.532158 -21.762231 34.615293 0.361959 2.250662 0.025849 -0.008261 -224689.000000 0 0 1
-25.211745 -10.262858 -22.992231 35.631461 0.386583 2.272185 0.012803 -0.004316 369027.000000 0 0 1
-26.109985 -9.653658 -23.904831 36.692852 0.354143 2.280336 0.015015 -0.004668 -141314.000000 0 0 1
-26.241505 -10.332158 -25.242631 37.849181 0.375093 2.300873 0.019610 -0.008729 609839.000000 0 0 1
-25.198835 -10.146658 -26.210171 37.747967 0.382801 2.338308 0.009087 -0.002124 350955.000000 0 0 1
-24.147235 -11.070858 -26.337201 37.407232 0.429878 2.351905 0.016001 -0.003610 554267.000000 0 0 1
-23.065535 -10.693958 -27.402361 37.380062 0.434134 2.393627 0.026030 -0.005687 391225.000000 0 0 1
-23.639635 -10.720558 -28.721451 38.712846 0.425760 2.406711 0.031458 -0.003492 539389.000000 0 0 1
-22.666835 -10.545558 -29.768691 38.873759 0.435456 2.443047 0.040176 0.000626 393704.000000 0 0 1
-23.172535 -11.133458 -31.092891 40.344617 0.447893 2.450708 0.033547 -0.009413 340956.000000 0 0 1
-24.214835 -10.339058 -31.652641 41.172127 0.403540 2.447740 0.027634 -0.013166 -31097.100000 0 0 1
-23.772835 -9.168158 -32.307821 41.146058 0.368081 2.473813 0.024777 -0.014923 -3562.000000 0 0 1
-24.858235 -8.203358 -32.926371 42.063914 0.318753 2.469901 0.031738 -0.017166 -608620.000000 0 0 1
-25.724075 -8.524558 -33.983251 43.465590 0.319996 2.468412 0.046162 -0.021195 1217610.000000 0 0 1
-26.955745 -9.181458 -33.656241 44.086891 0.328287 2.439368 0.047333 -0.019538 455598.000000 0 0 1
-27.900315 -8.610358 -32.567241 43.740039 0.299338 2.410677 0.032593 -0.008533 -1179820.000000 0 0 1
-29.129545 -9.297158 -32.555521 44.663514 0.308946 2.387520 0.032981 -0.013727 -246289.000000 0 0 1
-29.915955 -8.883658 -31.468851 44.318984 0.288660 2.360371 0.035670 -0.002770 -2090.080000 0 0 1
-31.384475 -9.347758 -31.603231 45.509670 0.289480 2.338422 0.033996 -0.004230 -2581.490000 0 0 1
-31.519085 -10.759458 -31.609871 45.917345 0.328960 2.330088 0.030696 -0.007102 971319.000000 0 0 1
-32.897185 -11.140958 -31.410781 46.829295 0.326537 2.306017 0.022267 -0.008017 817183.000000 0 0 1
-33.097265 -12.622358 -31.603471 47.471383 0.364345 2.299278 0.030389 -0.015474 -197227.000000 0 0 1
-34.449355 -13.038258 -31.563151 48.507595 0.361815 2.279282 0.016351 -0.015577 -176562.000000 0 0 1
-34.512770 -14.447358 -31.510571 48.915984 0.396445 2.270744 0.014068 -0.012847 42479.400000 0 0 1
-35.814169 -15.071858 -30.976061 49.692373 0.398338 2.243824 0.009984 -0.017448 5597.310000 0 0 1
-35.851088 -14.937358 -29.605281 48.835416 0.394777 2.222102 0.016029 -0.017852 -248398.000000 0 0 1
35.697695 -16.013158 -28.979941 48.688639 -0.421670 2.208323 0.011052 -0.015204 -282533.000000 0 0 1
35.863195 -16.031458 -27.449931 47.923638 -0.420370 2.180695 0.024687 -0.020084 628187.000000 0 0 1
-34.946678 -16.232358 -27.036761 47.071714 0.434838 2.182635 0.011427 -0.020243 603023.000000 0 0 1
-34.740332 -15.924558 -25.652371 46.027452 0.429808 2.161960 0.028383 -0.021833 -105457.000000 0 0 1
-33.357995 -15.390058 -25.191301 44.544487 0.432261 2.171874 0.024723 -0.009930 -338255.000000 0 0 1
-32.394605 -16.341558 -25.467171 44.328701 0.467204 2.182799 0.016873 -0.003977 -969810.000000 0 0 1
-31.153035 -15.967658 -24.904231 42.961592 0.473641 2.189140 0.013730 0.006297 392123.000000 0 0 1
-30.038635 -16.996558 -25.298241 42.792564 0.514910 2.203321 0.008551 0.006565 17244.400000 0 0 1
-29.993365 -18.158458 -24.518931 42.784454 0.544392 2.181056 0.004226 -0.002580 36686.100000 0 0 1
-30.855405 -19.235758 -24.905231 44.071997 0.557460 2.171355 0.007405 -0.005531 -105217.000000 0 0 1
-30.639605 -20.543458 -24.167031 44.100617 0.590643 2.150765 0.006975 -0.009966 -70118.300000 0 0 1
-29.360475 -21.091358 -24.425631 43.629054 0.622941 2.164998 0.010852 -0.002655 70152.200000 0 0 1
-29.209805 -22.261258 -23.676131 43.695944 0.651210 2.143419 0.008502 0.000946 -289239.000000 0 0 1
-27.792335 -22.870958 -23.813031 43.157329 0.688563 2.155284 0.027379 -0.010670 467536.000000 0 0 1
-26.725095 -22.306058 -23.018631 41.733060 0.695514 2.155040 0.033283 -0.012257 341796.000000 0 0 1
-26.784135 -22.196258 -21.633631 40.964347 0.692003 2.127168 0.031655 -0.019251 -788794.000000 0 0 1
-27.034565 -23.468558 -20.824631 41.416255 0.714906 2.097646 0.045203 -0.016034 -70700.100000 0 0 1
-26.719095 -23.194058 -19.464031 40.382210 0.714892 2.073727 0.032433 -0.021751 176480.000000 0 0 1
-26.896655 -24.339858 -18.673731 40.799105 0.735538 2.046202 0.036937 0.002516 88686.000000 0 0 1
-26.536985 -24.185358 -17.147731 39.789292 0.739069 2.016357 0.021462 -0.008082 225382.000000 0 0 1
-27.549025 -23.510058 -16.423331 39.766788 0.706459 1.996532 0.017199 -0.009469 55107.600000 0 0 1
-27.119105 -22.271658 -15.977931 38.558616 0.687567 1.998058 0.004998 -0.006067 -280744.000000 0 0 1
-28.262465 -21.569358 -15.234431 38.679349 0.651883 1.975629 0.005186 0.001822 296934.000000 0 0 1
-29.292185 -21.110658 -16.110531 39.537845 0.624479 1.990480 0.003743 0.004572 -84018.300000 0 0 1
-30.268185 -20.457058 -15.336131 39.621347 0.594340 1.968245 0.014308 -0.006109 -254400.000000 0 0 1
-31.328575 -19.749558 -16.207731 40.425427 0.562474 1.983327 0.029109 -0.023002 -467361.000000 0 0 1
-32.203085 -20.654558 -16.817431 41.790853 0.570295 1.984954 0.010758 -0.009666 -576606.000000 0 0 1
-32.887265 -19.940358 -17.801931 42.380406 0.545057 2.004298 0.017469 -0.009460 -1202320.000000 0 0 1
-33.850525 -20.804458 -18.608731 43.874461 0.551084 2.008804 0.009266 -0.002413 627623.000000 0 0 1
-35.074194 -21.148958 -17.912131 44.702595 0.542606 1.983072 0.008142 0.001658 706928.000000 0 0 1
-34.949518 -22.129958 -16.873831 44.675833 0.564473 1.958102 0.014802 -0.008754 -703315.000000 0 0 1
-35.779550 -23.417058 -17.020431 46.024231 0.579519 1.949606 -0.004354 0.018832 1014760.000000 0 0 1
34.976655 -23.253858 -16.744231 45.215899 -0.586736 1.950147 -0.000501 0.001955 990972.000000 0 0 1
34.357355 -24.548558 -16.829131 45.456343 -0.620396 1.950049 -0.008468 0.003941 -626018.000000 0 0 1
32.940185 -24.571158 -16.270531 44.198730 -0.640893 1.947785 -0.001737 -0.004807 -806805.000000 0 0 1
32.037355 -24.283858 -17.295031 43.763180 -0.648592 1.977077 0.005724 -0.007110 -91816.600000 0 0 1
30.716685 -24.606758 -16.884931 42.826489 -0.675404 1.976063 0.014728 -0.008930 286707.000000 0 0 1
29.572235 -24.335558 -17.866331 42.260409 -0.688561 2.007293 0.033531 -0.014944 -257786.000000 0 0 1
29.166375 -22.989258 -17.969331 41.256275 -0.667511 2.021450 0.029529 -0.021520 755381.000000 0 0 1
27.948005 -22.862958 -18.723031 40.673796 -0.685653 2.049154 0.039454 -0.024545 38648.000000 0 0 1
34.629185 29.137042 -18.296631 48.815104 0.699481 1.954994 0.038369 -0.013520 87911.200000 0 0 1
33.607075 29.355642 -19.261831 48.602545 0.717977 1.978294 0.036415 -0.025669 369053.000000 0 0 1
34.159355 29.142542 -20.537831 49.375619 0.706311 1.999784 0.039528 -0.020030 -142349.000000 0 0 1
33.173005 29.329042 -21.681331 49.302344 0.723974 2.026131 0.048363 -0.020620 -1142790.000000 0 0 1
32.099435 28.469242 -21.720731 48.090141 0.725535 2.039429 0.041321 -0.019623 -47140.000000 0 0 1
31.215475 28.674542 -22.829431 48.143724 0.742997 2.064844 0.049341 -0.015299 767739.000000 0 0 1
30.103465 29.758842 -22.770831 48.065768 0.779641 2.064333 0.045106 -0.013167 -365721.000000 0 0 1
30.642485 31.060942 -22.876231 49.265261 0.792180 2.053695 0.052369 -0.017099 -277768.000000 0 0 1
29.629895 32.018342 -22.859431 49.250975 0.824122 2.053462 0.051128 -0.004558 -791861.000000 0 0 1
30.053895 33.474142 -22.527831 50.311609 0.839185 2.035062 0.051371 -0.002541 -75260.700000 0 0 1
30.571875 33.715442 -21.255631 50.231190 0.834258 2.007722 0.051048 -0.002192 -599283.000000 0 0 1
31.940215 33.437842 -21.226531 50.880568 0.808301 2.001140 0.042544 -0.005987 -931899.000000 0 0 1
32.502595 33.278042 -19.792231 50.552737 0.797186 1.973075 0.039064 -0.013849 -435581.000000 0 0 1
32.516525 -34.177767 -18.993531 50.854679 -0.810301 1.953561 0.042436 -0.006359 150640.000000 0 0 1
32.504445 34.114642 -17.648631 50.317213 0.809564 1.929165 0.017915 -0.014185 -782895.000000 0 0 1
32.270505 -33.270967 -16.827531 49.310329 -0.800662 1.919051 0.014843 -0.010093 -382252.000000 0 0 1
33.234835 -32.259567 -16.935331 49.315711 -0.770508 1.921338 0.010192 0.003280 -152388.000000 0 0 1
34.396815 -32.622667 -16.211531 50.101827 -0.758932 1.900298 0.007045 -0.001961 -413583.000000 0 0 1
35.640265 -31.749667 -16.467731 50.492138 -0.727730 1.903018 0.004827 0.008536 647676.000000 0 0 1
-35.558608 -32.341967 -17.369031 51.108715 0.738061 1.917548 -0.008323 0.005496 868515.000000 0 0 1
-34.395967 -31.500667 -17.501031 49.816269 0.741489 1.929768 -0.016421 0.010742 1142240.000000 0 0 1
-33.329855 -32.105867 -18.483231 49.832678 0.766695 1.950781 -0.007252 -0.003493 -475242.000000 0 0 1
-32.573985 -33.220267 -18.019331 49.893356 0.795221 1.940305 0.000078 -0.006613 584373.000000 0 0 1
-31.571255 -33.676367 -18.934431 49.893432 0.817650 1.960049 0.006455 -0.002139 -46453.800000 0 0 1
-30.347935 -32.821567 -19.134931 48.625076 0.824537 1.975254 0.014045 -0.008714 -2055040.000000 0 0 1
-30.600745 -31.805067 -20.075231 48.486935 0.804694 1.997677 0.003334 0.000408 277593.000000 0 0 1
-29.431295 -31.278567 -20.677031 47.666440 0.815817 2.019487 0.013958 -0.003024 -93620.900000 0 0 1
-28.446385 -32.153367 -21.424431 47.979601 0.846494 2.033682 0.008744 0.002268 -660900.000000 0 0 1
-29.096015 -32.790667 -22.505931 49.278016 0.845028 2.045094 0.005314 0.009999 -99428.800000 0 0 1
-28.553905 -34.047567 -22.724631 49.909630 0.872930 2.043523 -0.004211 0.009063 -345130.000000 0 0 1
-29.023125 33.835442 -24.006431 50.630897 -0.861807 2.064790 0.001628 0.005380 831754.000000 0 0 1
-30.245275 33.079042 -23.814231 50.755466 -0.830118 2.059176 0.001124 -0.007667 867724.000000 0 0 1
-30.689755 32.236642 -24.904231 51.002774 -0.809976 2.080927 0.003449 -0.005832 532067.000000 0 0 1
-31.710615 32.898742 -25.873101 52.510073 -0.803785 2.086016 0.020568 -0.018679 377576.000000 0 0 1
-31.063565 33.830842 -26.777081 53.164679 -0.828015 2.098630 0.013359 -0.020261 547307.000000 0 0 1
-32.039845 -34.091267 -27.538281 54.287412 0.816409 2.102808 0.019182 -0.022485 887181.000000 0 0 1
-31.331035 -33.156067 -28.602731 53.843057 0.813691 2.130841 0.026599 -0.021136 350255.000000 0 0 1
-31.091035 -33.717867 -29.902511 54.751322 0.825908 2.148559 0.032183 -0.016083 161000.000000 0 0 1
-32.282125 -33.890267 -30.649341 55.947010 0.809696 2.150562 0.041213 -0.018070 197887.000000 0 0 1
-32.027495 33.946242 -31.951671 56.559854 -0.814473 2.171130 0.058251 -0.019080 -316729.000000 0 0 1
-31.293855 -34.011767 -32.881511 56.721243 0.826993 2.189161 0.052535 -0.033157 -569102.000000 0 0 1
-31.228845 33.915742 -34.132434 57.363241 -0.826620 2.208090 0.045402 -0.041780 -869567.000000 0 0 1
-30.376475 -34.196667 33.198604 56.518047 0.844490 0.942956 0.050192 -0.040840 -712418.000000 0 0 1
-29.086415 33.913242 33.177950 55.649833 -0.861865 0.932048 0.058851 -0.033739 -696092.000000 0 0 1
-28.988065 32.578042 32.673338 54.490217 -0.843643 0.927772 0.069378 -0.038888 -797132.000000 0 0 1
-27.577445 31.979642 32.837201 53.492941 -0.859180 0.909855 0.052172 -0.032705 -184303.000000 0 0 1
-27.174055 31.680442 34.153041 53.930603 -0.861817 0.885015 0.053165 -0.036105 563543.000000 0 0 1
-25.797565 31.346642 -34.153636 53.052778 -0.882201 2.270207 0.048865 -0.031258 307797.000000 0 0 1
-25.269265 29.959042 33.973343 51.867794 -0.870111 0.856615 0.057154 -0.031545 -481860.000000 0 0 1
-25.685295 28.991142 -33.571891 51.257122 -0.845787 2.284940 0.057519 -0.025552 183201.000000 0 0 1
-25.378985 27.684342 -34.054051 50.697082 -0.828816 2.307319 0.053801 -0.024661 -295644.000000 0 0 1
-25.274245 26.576542 -32.959291 49.309380 -0.810509 2.302877 0.065764 -0.029042 378292.000000 0 0 1
-24.243635 26.711442 -31.942021 48.182442 -0.833791 2.295534 0.051500 -0.017032 604906.000000 0 0 1
-24.284635 27.832942 -31.040281 48.248474 -0.853376 2.269652 0.028770 -0.008782 -320031.000000 0 0 1
-22.999935 28.028842 -30.231871 47.207828 -0.883631 2.265815 0.041763 0.000894 -322889.000000 0 0 1
-21.866635 28.370142 -30.987001 47.362527 -0.914139 2.283989 0.037966 -0.002495 588889.000000 0 0 1
-20.599135 28.259142 -30.307641 46.275875 -0.940912 2.284892 0.023326 0.004318 1236900.000000 0 0 1
-20.185335 29.268642 -29.134161 45.966298 -0.967046 2.257273 0.013019 0.002816 -405977.000000 0 0 1
-19.975335 30.620042 -29.630771 47.059363 -0.992763 2.251895 0.007958 0.003237 45293.500000 0 0 1
-19.630935 31.557342 -28.597711 46.894227 -1.014305 2.226648 0.009041 0.000520 61556.000000 0 0 1
-19.207335 32.901142 -29.282071 48.050459 -1.042382 2.226103 0.004674 0.006741 -70116.100000 0 0 1
-17.993735 32.739142 -29.974531 47.896748 -1.068253 2.246973 0.017620 0.006871 -388245.000000 0 0 1
-17.710035 33.754742 -30.903711 49.072063 -1.087610 2.252043 0.021069 0.011690 -577113.000000 0 0 1
-16.251035 33.836242 -31.338521 48.898777 -1.123045 2.266448 0.021647 0.008852 -1193900.000000 0 0 1
-15.451135 -34.223367 -30.316331 48.260298 1.146713 2.250013 0.044691 -0.000551 1610020.000000 0 0 1
-14.028735 -34.067167 -30.659471 47.930997 1.180162 2.264850 0.066916 0.005102 2165750.000000 0 0 1
-13.258235 33.245442 -30.805051 47.222785 -1.191326 2.281457 0.073389 -0.000167 -1072490.000000 0 0 1
-13.216135 32.663642 -29.543311 45.982464 -1.186320 2.268541 0.091613 -0.009396 -11616.000000 0 0 1
-12.955735 31.277642 -29.515481 44.914425 -1.178094 2.287827 0.077120 -0.006426 -292099.000000 0 0 1
-12.770135 30.746642 -28.079111 43.553058 -1.177141 2.271441 0.083522 -0.022838 -148384.000000 0 0 1
-11.577835 31.197742 -27.484251 43.159350 -1.215439 2.261148 0.095785 -0.029115 -266789.000000 0 0 1
-11.429035 30.848842 -26.093781 41.989991 -1.215990 2.241361 0.086349 -0.036124 239442.000000 0 0 1
-10.134535 31.337942 -25.393501 41.588524 -1.258017 2.227601 0.094880 -0.036489 1290190.000000 0 0 1
-8.935635 30.764542 -25.976901 41.244418 -1.288122 2.252128 0.101334 -0.029802 833310.000000 0 0 1
-7.791335 31.227742 -25.258141 40.912718 -1.326288 2.236187 0.104090 -0.030039 898305.000000 0 0 1
-6.414535 30.580442 -25.609031 40.399656 -1.364035 2.257372 0.072250 -0.027310 387692.000000 0 0 1
-6.279235 29.223842 -25.201001 39.096703 -1.359147 2.271272 0.067469 -0.045353 -86899.800000 0 0 1
-5.140735 28.606442 -25.785491 38.854179 -1.392989 2.296481 0.059842 -0.050505 156896.000000 0 0 1
-4.711535 27.374442 -25.010031 37.377270 -1.400352 2.303826 0.060122 -0.033944 -51082.800000 0 0 1
-5.477235 26.220342 -25.327851 36.864705 -1.364865 2.328216 0.075522 -0.032707 206539.000000 0 0 1
-5.089235 25.194842 -24.396131 35.437997 -1.371483 2.330101 0.076677 -0.041539 -36331.100000 0 0 1
-6.008935 23.939042 -24.525231 34.794712 -1.324867 2.353015 0.062688 -0.035095 121781.000000 0 0 1
-6.022835 23.346142 -25.771711 35.291614 -1.318321 2.389485 0.060113 -0.027510 -782618.000000 0 0 1
-6.889435 22.317542 -25.737361 34.755557 -1.271377 2.404648 0.047217 -0.033197 -1032090.000000 0 0 1
-6.935035 21.397342 -26.905771 35.069381 -1.257372 2.445285 0.041935 -0.018968 253037.000000 0 0 1
-5.767835 20.603342 -27.117741 34.541823 -1.297837 2.473605 0.062521 -0.031253 -118214.000000 0 0 1
-5.735235 19.425842 -26.331441 33.220492 -1.283715 2.485901 0.051829 -0.027089 -544177.000000 0 0 1
-4.475035 18.587342 -26.466361 32.649403 -1.334536 2.516012 0.070113 -0.035444 -567204.000000 0 0 1
-4.289735 17.893042 -27.712141 33.264479 -1.335494 2.555458 0.053365 -0.032435 -461448.000000 0 0 1
-3.361835 16.860142 -27.566771 32.488355 -1.373982 2.583964 0.061603 -0.026111 -445580.000000 0 0 1
-2.902635 16.366542 -28.944141 33.377422 -1.395270 2.620302 0.058008 -0.019765 -116595.000000 0 0 1
-2.190635 17.409842 -29.591921 34.403245 -1.445627 2.606358 0.056984 -0.027991 29748.500000 0 0 1
-2.122535 17.164042 -30.984461 35.484452 -1.447759 2.632494 0.046199 -0.033899 -370810.000000 0 0 1
-1.260335 18.193042 -31.650181 36.528197 -1.501631 2.618861 0.054437 -0.016069 -1231690.000000 0 0 1
0.099365 18.121342 -31.376371 36.233542 1.565313 2.617840 0.074246 -0.028476 -546815.000000 0 0 1
0.885365 19.144442 -31.976431 37.279830 1.524583 2.601655 0.062981 -0.013078 158006.000000 0 0 1
0.666265 20.610042 -31.407571 37.571975 1.538480 2.560623 0.056850 -0.014944 -209434.000000 0 0 1
1.327665 20.792442 -30.148021 36.646849 1.507030 2.536876 0.074622 -0.030397 -195696.000000 0 0 1
1.054365 22.058942 -29.577621 36.912658 1.523035 2.500239 0.077513 -0.039074 -148933.000000 0 0 1
1.945365 22.330042 -28.366121 36.153175 1.483897 2.472862 0.086999 -0.039756 -321495.000000 0 0 1
3.290165 22.346542 -28.750001 36.561670 1.424613 2.475663 0.059236 -0.032643 -250145.000000 0 0 1
4.248165 22.592242 -27.702631 35.998501 1.384930 2.448932 0.066982 -0.033625 706066.000000 0 0 1
4.608165 24.123542 -27.495251 36.866914 1.382047 2.412527 0.070116 -0.031149 -169171.000000 0 0 1
5.351865 24.735542 -28.551181 38.153106 1.357717 2.416340 0.057498 -0.027974 236578.000000 0 0 1
5.880865 25.960642 -28.110451 38.713525 1.348026 2.383450 0.046804 -0.026086 -440966.000000 0 0 1
6.780265 26.643542 -29.140571 40.062741 1.321605 2.385283 0.051562 -0.020617 -1665160.000000 0 0 1
8.098565 26.303342 -29.039741 40.009488 1.272116 2.383024 0.059035 -0.021807 -1235520.000000 0 0 1
8.822365 27.046242 -30.030471 41.366201 1.255483 2.383235 0.063546 -0.019246 126402.000000 0 0 1
10.304665 27.239242 -29.658601 41.566754 1.209134 2.365302 0.054979 -0.011416 -247317.000000 0 0 1
11.065965 28.014442 -30.523431 42.882915 1.194600 2.362833 0.048193 -0.007597 721055.000000 0 0 1
12.366565 28.274942 -29.935911 42.994919 1.158496 2.340979 0.051445 -0.011013 1289170.000000 0 0 1
13.242165 29.220842 -30.831951 44.495188 1.145305 2.336338 0.058715 -0.012494 7856.090000 0 0 1
12.800965 30.557842 -30.799151 45.235320 1.174096 2.319740 0.050798 -0.005747 113088.000000 0 0 1
13.532065 31.385842 -31.691401 46.610437 1.163727 2.318451 0.072240 -0.010971 -78378.900000 0 0 1
13.071265 32.859942 -31.830241 47.579387 1.192199 2.303648 0.070189 -0.013744 -170556.000000 0 0 1
11.923165 33.051642 -32.612701 47.939141 1.224583 2.318960 0.061296 -0.011642 -163822.000000 0 0 1
11.424565 -34.281967 -32.429111 48.553282 -1.249118 2.302190 0.053534 -0.005424 -40482.200000 0 0 1
10.164665 -33.918867 -33.249641 48.573127 -1.279637 2.324752 0.038044 -0.000640 16814.200000 0 0 1
10.380965 -33.384567 33.947753 48.731342 -1.269323 0.800106 0.045889 0.001494 -461814.000000 0 0 1
9.195265 -33.281267 33.227220 47.919138 -1.301232 0.804597 0.054754 0.000192 -420540.000000 0 0 1
9.307565 -32.652167 31.825362 46.536528 -1.293109 0.817730 0.060953 -0.004242 31473.500000 0 0 1
9.292265 -31.259167 31.895932 45.616140 -1.281850 0.796484 0.044788 -0.009643 -31292.600000 0 0 1
9.526965 -30.590667 30.659212 44.345679 -1.268883 0.807415 0.066840 -0.013943 -250045.000000 0 0 1
9.081065 -29.102667 30.546532 43.156942 -1.268335 0.784416 0.061621 -0.031116 1289220.000000 0 0 1
7.655765 -28.862967 30.580272 42.741486 -1.311521 0.773499 0.055888 -0.019756 982167.000000 0 0 1
7.041865 -28.752367 31.866962 43.494710 -1.330610 0.748570 0.052704 -0.004076 -958493.000000 0 0 1
5.527765 -28.699867 31.779582 43.176156 -1.380520 0.743588 0.054201 -0.016434 -1106620.000000 0 0 1
5.021965 -29.957267 31.364762 43.662413 -1.404703 0.769373 0.053241 -0.022771 -255728.000000 0 0 1
5.028265 -30.391467 30.005612 43.003041 -1.406832 0.798537 0.060270 -0.025102 -374925.000000 0 0 1
4.231565 -29.460767 29.027172 41.574267 -1.428138 0.797916 0.044677 -0.031279 -116590.000000 0 0 1
2.831665 -29.437067 29.123472 41.505854 -1.474898 0.793056 0.057833 -0.035356 -95165.200000 0 0 1
2.265265 -28.604767 28.117582 40.174153 -1.491769 0.795550 0.066494 -0.042079 1248060.000000 0 0 1
0.798565 -29.007367 27.634142 40.071322 -1.543274 0.809827 0.061947 -0.044783 1259830.000000 0 0 1
0.685265 -30.268067 27.022592 40.581350 -1.548160 0.842114 0.061089 -0.042434 -18023.800000 0 0 1
0.390465 -31.320267 27.922422 41.961569 -1.558330 0.842729 0.080322 -0.039907 -408344.000000 0 0 1
0.943365 -32.697367 27.451162 42.703326 -1.541953 0.872604 0.063993 -0.035623 1270550.000000 0 0 1
2.382265 -32.854167 27.358452 42.820047 -1.498413 0.877707 0.049396 -0.031237 1453190.000000 0 0 1
2.998265 -32.298667 26.183452 41.686529 -1.478232 0.891683 0.047978 -0.030486 1000010.000000 0 0 1
4.572665 -32.219367 26.242032 41.804798 -1.429815 0.892166 0.061451 -0.011151 1264950.000000 0 0 1
5.186065 -31.840767 25.018162 40.824480 -1.409339 0.911169 0.062073 -0.027425 791639.000000 0 0 1
6.601365 -31.666567 25.106052 40.947080 -1.365275 0.910774 0.075951 -0.031784 594831.000000 0 0 1
7.410065 -31.350467 23.825932 40.067891 -1.338694 0.933980 0.067568 -0.024104 578991.000000 0 0 1
8.786565 -31.076167 24.090912 40.290246 -1.295246 0.929875 0.053664 -0.016360 370895.000000 0 0 1
9.517665 -31.013767 22.902932 39.711258 -1.273035 0.956068 0.044819 -0.014593 53310.800000 0 0 1
10.777665 -30.125567 22.994632 39.401281 -1.227227 0.947640 0.029540 -0.010337 1096220.000000 0 0 1
11.921865 -30.733167 23.642852 40.566524 -1.200751 0.948606 0.023614 -0.011335 1486670.000000 0 0 1
13.147265 -29.975967 23.528432 40.311243 -1.157468 0.947556 0.032151 -0.006243 1036390.000000 0 0 1
14.342465 -30.588467 24.305552 41.618752 -1.132349 0.947143 0.032355 -0.001082 -228227.000000 0 0 1
14.268965 -30.594467 25.747682 42.456659 -1.134396 0.919213 0.030816 -0.004655 18912.300000 0 0 1
14.506065 -29.328667 26.306502 41.983672 -1.111475 0.893628 0.021866 0.001609 -203647.000000 0 0 1
-11.198235 -14.114858 26.166122 31.769413 0.900114 0.603021 0.049206 -0.034416 -114344.000000 0 0 1
-9.851635 -14.013458 25.783222 30.954907 0.958051 0.586418 0.035420 -0.034470 -545192.000000 0 0 1
-8.986235 -14.335858 26.841842 31.729382 1.010878 0.562430 0.036262 -0.033731 -22677.200000 0 0 1
-7.476935 -14.288058 26.543612 31.058276 1.088683 0.545941 0.056841 -0.027718 -74895.500000 0 0 1
-7.040035 -15.231558 25.588702 30.599740 1.137843 0.580408 0.051553 -0.030689 -75142.500000 0 0 1
-7.179635 -14.873858 24.219262 29.314697 1.121083 0.598500 0.058103 -0.027305 -441239.000000 0 0 1
-6.489435 -15.935558 23.329032 28.987903 1.184073 0.635483 0.039562 -0.029092 -166949.000000 0 0 1
-6.956635 -17.232158 23.150632 29.686593 1.187104 0.676395 0.043323 -0.030397 -777179.000000 0 0 1
-7.172035 -17.968158 24.347852 31.098403 1.191021 0.671436 0.047583 -0.025933 -218116.000000 0 0 1
-7.695635 -19.416058 24.117992 31.904289 1.193437 0.713695 0.038745 -0.023843 159545.000000 0 0 1
-9.101235 -19.489558 23.920882 32.169612 1.133912 0.732378 0.021036 -0.023701 -25029.000000 0 0 1
-9.554735 -20.815858 23.721872 32.974537 1.140473 0.767859 0.017251 -0.018323 544729.000000 0 0 1
-11.110635 -20.902258 23.708852 33.503138 1.082227 0.784615 0.020148 -0.016034 489804.000000 0 0 1
-11.566935 -20.923758 25.057852 34.633706 1.065796 0.761922 0.022033 -0.021161 638706.000000 0 0 1
-12.988835 -20.757058 25.164962 35.111830 1.011654 0.771725 0.043356 -0.017812 943030.000000 0 0 1
-13.511935 -20.835758 26.654472 36.430235 0.995478 0.750045 0.051281 -0.021767 -145971.000000 0 0 1
-13.308235 -22.058758 27.297242 37.534482 1.027948 0.756478 0.052263 -0.018413 106326.000000 0 0 1
-12.266335 -22.035758 28.259022 37.876245 1.062857 0.728629 0.052669 -0.023123 115546.000000 0 0 1
-11.880535 -23.391958 28.821752 38.974661 1.100857 0.738469 0.053674 -0.018669 319508.000000 0 0 1
-12.900635 -23.985158 29.679822 40.281584 1.077322 0.742458 0.051723 -0.018099 789682.000000 0 0 1
-12.592835 -25.302208 30.006102 41.220715 1.108993 0.755487 0.047776 -0.018884 -277187.000000 0 0 1
-13.597435 -25.827248 31.034452 42.603687 1.086193 0.754747 0.042887 -0.026651 112059.000000 0 0 1
-13.556935 -25.066738 32.218802 43.013754 1.075018 0.724192 0.048980 -0.020374 919099.000000 0 0 1
-14.688635 -25.490328 33.033091 44.234578 1.048028 0.727603 0.050387 -0.025820 830992.000000 0 0 1
-14.557635 -24.927858 -33.973641 44.581735 1.042232 2.437274 0.037230 -0.026934 64346.600000 0 0 1
-14.560335 -23.493458 -33.805541 43.666469 1.015973 2.456209 0.038704 -0.023694 465551.000000 0 0 1
-15.757835 -22.825458 -34.226790 44.054331 0.966568 2.460559 0.044311 -0.029036 -17847.800000 0 0 1
-15.683635 -21.413758 -33.755341 42.941221 0.938649 2.475242 0.034778 -0.020856 -61192.400000 0 0 1
-15.803635 -21.195358 -32.387031 41.808107 0.930106 2.456972 0.032763 -0.014677 123304.000000 0 0 1
-15.806935 -19.815058 -32.229741 41.003072 0.897445 2.475161 0.027967 -0.019686 -281163.000000 0 0 1
-15.861435 -19.386258 -30.769581 39.675928 0.885068 2.458339 0.044448 -0.014450 -717549.000000 0 0 1
-17.098335 -19.558358 -30.173051 39.815769 0.852407 2.430757 0.044513 -0.011015 -733354.000000 0 0 1
-17.125135 -19.268258 -28.760241 38.622370 0.844218 2.410810 0.037106 -0.011172 277377.000000 0 0 1
-16.331535 -20.247058 -27.803071 38.074573 0.892036 2.389450 0.033272 -0.001200 1278700.000000 0 0 1
-14.917835 -20.313458 -28.071181 37.724920 0.937366 2.409986 0.031049 -0.000991 898334.000000 0 0 1
-14.294435 -21.335058 -27.293131 37.475733 0.980491 2.386617 0.020339 -0.000341 403679.000000 0 0 1
-12.759035 -21.499458 -27.440941 37.121758 1.035201 2.402700 0.044756 -0.001866 -316641.000000 0 0 1
-12.089135 -20.435558 -26.840241 35.835147 1.036596 2.417336 0.045603 -0.006261 180243.000000 0 0 1
-10.680935 -20.342858 -26.956741 35.420052 1.087313 2.435740 0.033984 -0.012357 585501.000000 0 0 1
-9.808935 -21.335358 -26.142651 35.140445 1.139864 2.409755 0.053992 -0.011465 -501118.000000 0 0 1
-10.016035 -22.697058 -26.502661 36.302458 1.155207 2.389194 0.048313 -0.012251 -94464.200000 0 0 1
-9.411435 -23.564958 -25.594521 36.041113 1.190822 2.360505 0.067130 -0.011973 -47835.900000 0 0 1
-9.518135 -25.097638 -25.850591 37.265793 1.208310 2.337384 0.065551 -0.015993 390662.000000 0 0 1
-8.556835 -25.613618 -26.797221 38.044289 1.248380 2.352330 0.070648 -0.024707 604647.000000 0 0 1
-8.973535 -26.823968 -27.388681 39.372445 1.247965 2.340094 0.062865 -0.021537 -92759.900000 0 0 1
-8.830035 -28.173358 -26.627291 39.758272 1.267075 2.304641 0.081879 -0.019890 -254007.000000 0 0 1
-9.721935 -28.242338 -25.544551 39.302287 1.239269 2.278316 0.067933 -0.024234 4642.600000 0 0 1
-9.558535 -29.468378 -24.874831 39.730443 1.257138 2.247325 0.099432 -0.015667 -661442.000000 0 0 1
-10.562635 -29.493518 -23.767331 39.323312 1.226894 2.219819 0.099009 -0.018590 -624998.000000 0 0 1
-10.526135 -28.446238 -22.856031 37.978759 1.216385 2.216563 0.080927 -0.028077 470532.000000 0 0 1
-11.606335 -27.478068 -22.981231 37.654856 1.171142 2.227251 0.066275 -0.021017 577429.000000 0 0 1
-11.471635 -26.260498 -22.070531 36.170713 1.158940 2.227080 0.067676 -0.027359 -116375.000000 0 0 1
-11.764835 -26.606708 -20.726831 35.720159 1.154468 2.189839 0.051228 -0.021901 166713.000000 0 0 1
-11.949535 -25.484978 -19.959331 34.505802 1.132349 2.187604 0.040755 -0.019916 -390839.000000 0 0 1
-12.416235 -25.804858 -18.560131 34.125240 1.122335 2.145854 0.057265 -0.020361 96594.500000 0 0 1
-13.766335 -26.242818 -18.536531 34.954262 1.087682 2.129760 0.075740 -0.023565 78638.100000 0 0 1
-14.197135 -26.514248 -17.212831 34.653218 1.079190 2.090608 0.068396 -0.021141 89844.500000 0 0 1
-15.719435 -26.684048 -16.964531 35.311958 1.038434 2.071929 0.071405 -0.027419 -1428830.000000 0 0 1
-16.424035 -25.444278 -17.120631 34.789024 0.997598 2.085328 0.070342 -0.021693 1162030.000000 0 0 1
-17.842135 -25.572808 -16.854131 35.445338 0.961616 2.066325 0.082206 -0.017940 1251410.000000 0 0 1
-18.637035 -26.517588 -17.790231 36.973150 0.958182 2.072781 0.073877 -0.010001 -1665290.000000 0 0 1
-18.306735 -27.884288 -17.746031 37.783484 0.989848 2.059721 0.067043 -0.024123 -421917.000000 0 0 1
-18.750735 -28.578538 -16.567431 37.984242 0.990136 2.022130 0.062146 -0.025571 -380106.000000 0 0 1
-20.252435 -28.947498 -16.506031 38.994459 0.960321 2.007872 0.072458 -0.021389 135843.000000 0 0 1
-20.546335 -29.899638 -17.500331 40.279049 0.968729 2.020254 0.054759 -0.014046 330362.000000 0 0 1
-21.928135 -30.250128 -17.438631 41.231289 0.943558 2.007491 0.044088 -0.012044 673911.000000 0 0 1
-22.506535 -31.260028 -18.511431 42.736478 0.946788 2.018784 0.033774 -0.012488 172782.000000 0 0 1
-22.024735 -32.579938 -18.434531 43.432398 0.976345 2.009142 0.031119 -0.017473 -137178.000000 0 0 1
-22.589635 -33.307988 -19.524631 44.731699 0.974848 2.022482 0.020117 0.001553 73041.800000 0 0 1
-22.085335 33.909179 -19.752631 45.030666 -0.993502 2.024890 0.013915 -0.004157 -11827.200000 0 0 1
-22.545035 33.063573 -18.766931 44.200409 -0.972343 2.009302 0.019581 -0.007815 -149853.000000 0 0 1
-21.701435 31.916532 -18.737731 42.903612 -0.973658 2.022768 0.025115 -0.015319 71816.900000 0 0 1
-22.263635 30.600352 -18.135031 41.963441 -0.941811 2.017686 0.035695 -0.021097 37349.400000 0 0 1
-22.764635 30.673022 -16.775231 41.718956 -0.932324 1.984607 0.026300 -0.022201 117504.000000 0 0 1
-23.384535 29.462292 -16.261231 40.979151 -0.899902 1.978843 0.022722 -0.020341 -93812.100000 0 0 1
-22.517935 28.206292 -16.026731 39.490612 -0.897074 1.988690 0.030071 -0.032471 -300945.000000 0 0 1
-22.085035 27.628752 -17.281931 39.367015 -0.896452 2.025276 0.022856 -0.026721 20572.400000 0 0 1
-21.455435 26.375022 -17.006731 38.015870 -0.887892 2.034606 0.030867 -0.028059 6730.290000 0 0 1
-20.846635 25.821722 -18.291731 37.893680 -0.891602 2.074545 0.032843 -0.020168 -1087070.000000 0 0 1
-20.441835 24.477922 -18.208531 36.723125 -0.875009 2.089590 0.051284 -0.030260 110570.000000 0 0 1
-19.775835 23.973232 -19.367631 36.618365 -0.881048 2.128106 0.050064 -0.019282 -246290.000000 0 0 1
-18.357435 24.533032 -19.516431 36.328449 -0.928401 2.137936 0.037194 -0.019419 -1707300.000000 0 0 1
-17.517735 23.986692 -18.522031 35.004258 -0.940016 2.128379 0.055045 -0.026888 -491360.000000 0 0 1
-16.491635 24.885692 -18.185131 34.956698 -0.985548 2.117903 0.064411 -0.032979 -543723.000000 0 0 1
-16.766535 26.112002 -17.331731 35.543526 -0.999994 2.080158 0.067587 -0.043804 -859076.000000 0 0 1
-17.433035 27.098722 -18.010331 36.913730 -0.999134 2.080482 0.052141 -0.034882 -356440.000000 0 0 1
-17.036135 28.330292 -17.488731 37.399079 -1.029392 2.057398 0.049797 -0.044937 -1098270.000000 0 0 1
-18.054135 29.390432 -17.740031 38.787343 -1.019938 2.045828 0.047633 -0.033900 -587674.000000 0 0 1
-18.210035 29.879022 -19.044431 39.837818 -1.023451 2.069229 0.024709 -0.035517 -395170.000000 0 0 1
-19.101235 29.153602 -19.806831 40.088655 -0.990779 2.087568 0.033604 -0.031705 -811356.000000 0 0 1
-19.226235 29.634282 -21.231231 41.214124 -0.995277 2.111973 0.030549 -0.029848 289563.000000 0 0 1
-20.003435 30.820632 -21.429531 42.535557 -0.995105 2.098792 0.028291 -0.021402 66735.800000 0 0 1
-20.156635 30.976652 -22.837231 43.444011 -0.993926 2.124299 0.036811 -0.019645 228809.000000 0 0 1
-20.734635 32.304032 -23.399031 44.955425 -1.000165 2.118226 0.028592 -0.012267 -219604.000000 0 0 1
-19.921535 33.402277 -23.167231 45.269198 -1.033019 2.108035 0.020278 -0.006499 -231416.000000 0 0 1
-20.450135 -34.083341 -23.842131 46.350074 1.030374 2.111095 0.024544 -0.001345 -503533.000000 0 0 1
-19.553035 -32.854598 -23.848931 45.061261 1.033959 2.128519 0.041102 -0.002940 -327423.000000 0 0 1
-19.288335 -32.128768 -22.636931 43.780455 1.030123 2.114204 0.044935 -0.004769 125198.000000 0 0 1
-18.729635 -32.864388 -21.577231 43.548181 1.052798 2.089183 0.049530 -0.015800 -488232.000000 0 0 1
-18.317635 -32.034088 -20.343031 42.137364 1.051357 2.074621 0.060672 -0.018809 310471.000000 0 0 1
-17.260235 -31.108718 -20.631731 41.125860 1.064248 2.096328 0.060545 -0.019129 527772.000000 0 0 1
-17.110735 -30.195888 -19.527731 39.823375 1.055254 2.083297 0.063989 -0.020316 -791367.000000 0 0 1
-15.933135 -29.261728 -19.688431 38.700747 1.072182 2.104511 0.073655 -0.020945 58962.600000 0 0 1
-14.729035 -30.040058 -19.701731 38.826637 1.114928 2.102994 0.080540 -0.028223 -585311.000000 0 0 1
-13.681635 -29.370328 -20.272831 38.220295 1.134855 2.129893 0.062386 -0.026565 -1292950.000000 0 0 1
-12.375735 -30.145578 -20.432931 38.463221 1.181243 2.130852 0.093839 -0.031057 -12964.300000 0 0 1
-11.624635 -30.529018 -19.299431 37.942339 1.206974 2.104414 0.089460 -0.029024 180405.000000 0 0 1
-10.933235 -29.488028 -18.616331 36.546507 1.215741 2.105269 0.066577 -0.023829 -164342.000000 0 0 1
-10.248735 -30.150158 -17.330131 36.254683 1.243127 2.069185 0.059113 -0.010913 373782.000000 0 0 1
-11.171735 -30.635898 -16.364631 36.485162 1.221120 2.035914 0.076115 -0.022815 411383.000000 0 0 1
-11.708435 -31.955498 -16.683531 37.902262 1.219588 2.026587 0.085097 -0.023615 461997.000000 0 0 1
-12.666435 -32.642148 -15.659231 38.355702 1.200643 1.991347 0.090005 -0.034283 289585.000000 0 0 1
-11.994935 -33.261808 -14.593231 38.251650 1.224690 1.962221 0.085913 -0.023719 -432974.000000 0 0 1
-13.015135 -33.566218 -13.735531 38.532448 1.200899 1.935280 0.094246 -0.019025 -639775.000000 0 0 1
-12.560635 -34.278834 -12.510231 38.591629 1.219564 1.900930 0.075122 -0.014955 66399.900000 0 0 1
-11.790235 -33.477098 -11.607431 37.342444 1.232174 1.886870 0.061988 -0.003063 78532.000000 0 0 1
-11.584535 -33.905288 -10.297231 37.280061 1.241559 1.850648 0.064605 -0.006545 356201.000000 0 0 1
-10.423335 -33.144648 -9.554631 36.034769 1.266108 1.839156 0.038624 -0.010618 941732.000000 0 0 1
-9.131035 -33.473798 -10.047531 36.122345 1.304494 1.852667 0.007459 -0.003140 -601819.000000 0 0 1
-8.123035 -32.808568 -9.376231 35.075626 1.328088 1.841402 -0.002713 -0.002967 -771084.000000 0 0 1
-6.744635 -33.271398 -9.827831 35.342075 1.370791 1.852588 -0.003384 -0.006639 -581610.000000 0 0 1
-6.415435 34.096478 -9.341331 35.930323 -1.384815 1.833803 -0.005609 0.000293 296361.000000 0 0 1
-5.219035 33.544999 -9.897031 35.361794 -1.416451 1.854465 0.000559 -0.002754 402219.000000 0 0 1
-4.471835 32.514732 -9.034931 34.041667 -1.434121 1.839423 0.000972 -0.016460 -234944.000000 0 0 1
-3.947335 33.071158 -7.854831 34.219605 -1.452000 1.802403 0.013679 -0.021385 -397133.000000 0 0 1
-3.266835 32.079502 -7.155531 33.029809 -1.469311 1.789166 0.016941 -0.027362 -68467.300000 0 0 1
-2.794535 32.524652 -5.748231 33.146713 -1.485086 1.745095 0.025606 -0.027027 -249723.000000 0 0 1
-1.719635 33.436095 -5.911531 33.998174 -1.519411 1.745563 0.016413 -0.023491 -132494.000000 0 0 1
-1.263135 33.915190 -4.649931 34.255766 -1.533570 1.706958 0.019601 -0.026404 -176489.000000 0 0 1
-0.243435 33.071190 -3.886131 33.299623 -1.563436 1.687765 0.021590 -0.027455 -707987.000000 0 0 1
1.068765 33.116448 -4.422331 33.427510 1.538535 1.703481 0.021682 -0.025413 39408.600000 0 0 1
1.941465 32.447092 -3.512031 32.694303 1.511033 1.678424 0.024537 -0.024326 -626421.000000 0 0 1
3.393965 32.551982 -3.920331 32.962396 1.466909 1.690012 0.026342 -0.016198 -982652.000000 0 0 1
3.883865 33.840536 -3.696731 34.262693 1.456527 1.678901 0.026703 -0.008452 198577.000000 0 0 1
5.275965 33.901371 -4.028731 34.545180 1.416408 1.687684 0.039448 -0.006185 741423.000000 0 0 1
5.932965 -33.396228 -3.659131 34.115939 -1.394977 1.678259 0.039412 -0.001344 -189690.000000 0 0 1
5.549665 -32.334518 -4.463931 33.109613 -1.400820 1.706031 0.041754 -0.007869 -283896.000000 0 0 1
5.871465 -31.066288 -3.964031 31.863802 -1.384002 1.695525 0.037023 -0.011076 33501.700000 0 0 1
5.638965 -29.873598 -4.930031 30.798295 -1.384231 1.731563 0.034972 -0.014092 -113165.000000 0 0 1
6.528465 -29.935408 -6.028331 31.226435 -1.356073 1.765068 0.051335 -0.018580 -106071.000000 0 0 1
6.365265 -28.872148 -6.938131 30.368654 -1.353804 1.801296 0.060656 -0.014217 77926.100000 0 0 1
6.821565 -27.441918 -6.445731 29.002414 -1.327153 1.794916 0.056836 -0.014022 192777.000000 0 0 1
6.158365 -26.917878 -5.273131 28.112337 -1.345884 1.759488 0.043013 -0.016917 -53980.900000 0 0 1
6.771565 -25.758798 -4.701631 27.045796 -1.313729 1.745524 0.044478 -0.015348 -227585.000000 0 0 1
5.972965 -25.159448 -3.564231 26.103215 -1.337707 1.707768 0.034749 -0.013647 -129905.000000 0 0 1
4.836665 -24.458558 -4.041731 25.257671 -1.375566 1.731507 0.037277 -0.020347 -487318.000000 0 0 1
4.170965 -23.988158 -2.915731 24.522034 -1.398641 1.689981 0.040305 -0.014130 -510008.000000 0 1 0
2.945165 -23.152158 -3.276931 23.567662 -1.444267 1.710292 0.038255 -0.017323 -202331.000000 0 1 0
1.852165 -23.925458 -3.716531 24.283135 -1.493536 1.724450 0.045771 -0.014884 -265024.000000 0 1 0
0.721665 -23.101558 -3.980431 23.453072 -1.539568 1.741341 0.030534 -0.016477 536798.000000 0 1 0
-15.281335 23.347342 18.170332 33.298327 -0.991249 0.993592 0.007515 -0.014487 -91454.000000 0 0 1
-15.433135 22.773842 19.431332 33.680947 -0.975215 0.955839 0.018437 -0.015683 220291.000000 0 0 1
-15.007335 23.663642 20.424832 34.675090 -1.005613 0.940932 0.020532 -0.017272 -1059920.000000 0 0 1
-14.994135 22.997942 21.796532 35.054504 -0.993032 0.899770 0.032083 -0.025923 -70344.100000 0 0 1
-14.014935 21.961942 22.169232 34.208481 -1.002799 0.865759 0.024937 -0.023266 1578080.000000 0 0 1
-12.655335 22.430742 22.101332 33.937657 -1.057119 0.861588 0.009903 -0.026356 227448.000000 0 0 1
-12.220935 23.500142 23.133832 35.167913 -1.091248 0.852888 0.021886 -0.020646 -960708.000000 0 0 1
-12.001035 23.053342 24.484002 35.706411 -1.090823 0.815227 0.010381 -0.015291 119786.000000 0 0 1
-11.869835 24.165442 25.412132 37.022129 -1.114221 0.814264 0.030195 -0.015930 -184620.000000 0 0 1
-11.464735 23.802942 26.868782 37.682246 -1.121935 0.776978 0.018029 -0.016366 -51294.100000 0 0 1
-10.169435 23.253242 26.761722 36.882522 -1.158525 0.758900 -0.010101 -0.012163 -188543.000000 0 0 1
-9.766835 22.723842 28.067812 37.410776 -1.164862 0.722341 -0.025578 -0.009964 -292292.000000 0 0 1
-8.300935 22.178542 28.058672 36.716241 -1.212659 0.700991 -0.028056 -0.012981 812166.000000 0 0 1
-7.281735 23.103442 28.390882 37.320703 -1.265472 0.706363 -0.017740 -0.009023 133571.000000 0 0 1
-7.118735 24.180742 27.386022 37.220678 -1.284488 0.743987 -0.014696 -0.009211 -1139750.000000 0 0 1
-6.160935 25.307642 27.812712 38.104866 -1.332000 0.752622 -0.013573 -0.011955 720502.000000 0 0 1
-4.797235 24.850742 27.829792 37.617419 -1.380100 0.738006 -0.019456 -0.006834 -37296.300000 0 0 1
-3.914335 25.848642 28.175402 38.436020 -1.420505 0.748006 -0.009850 -0.006765 -930091.000000 0 0 1
-2.460435 25.416942 28.150952 38.007247 -1.474294 0.736724 -0.006833 -0.011059 -782799.000000 0 0 1
-2.017635 25.143542 26.849812 36.839937 -1.490723 0.754194 -0.005169 -0.008453 -266662.000000 0 0 1
-0.633635 24.853242 26.920642 36.644319 -1.545307 0.745650 0.002982 -0.004107 66733.000000 0 0 1
0.031765 24.588342 25.601912 35.497120 1.569504 0.765207 -0.005334 -0.000733 -620495.000000 0 0 1
-0.329835 23.403242 25.002602 34.248367 -1.556704 0.752419 0.004649 0.005446 -163721.000000 0 0 1
0.043465 23.302942 23.624992 33.183871 1.568931 0.778537 0.007600 0.002123 39329.000000 0 0 1
-0.466235 22.027842 22.868032 31.755159 -1.549634 0.766798 0.007322 0.004068 348783.000000 0 0 1
0.286565 20.874142 23.262332 31.256168 1.557069 0.731389 0.020654 0.009746 315081.000000 0 0 1
-0.125535 19.732742 22.583232 29.989986 -1.564435 0.718148 0.024080 0.005570 -231431.000000 0 0 1
0.796965 18.622842 23.096832 29.680112 1.528027 0.679014 0.032429 0.017267 -433507.000000 0 0 1
1.953865 18.642842 22.329532 29.154436 1.466372 0.698348 0.033017 0.015167 -763194.000000 0 0 1
2.766065 17.486042 22.453032 28.592857 1.413909 0.667669 0.020385 0.014221 22836.400000 0 0 1
4.156965 17.637042 21.823932 28.365994 1.339326 0.692943 0.020386 0.006593 176254.000000 0 0 1
5.069765 18.415742 22.602632 29.592585 1.302156 0.701626 0.019745 0.014050 -747308.000000 0 0 1
6.232865 18.705242 21.905132 29.471503 1.249152 0.732859 0.035729 -0.001553 -381722.000000 0 0 1
7.337765 19.281642 22.845732 30.782333 1.207163 0.734494 0.042307 -0.005066 -182629.000000 0 0 1
7.048765 20.454442 23.656522 32.057766 1.238933 0.740792 0.030240 0.001791 -25493.200000 0 0 1
6.732065 21.573942 22.859332 32.145058 1.268325 0.779691 0.037673 -0.001613 358269.000000 0 0 1
5.421465 22.349842 23.214732 32.677692 1.332820 0.780708 0.027733 0.004653 452062.000000 0 0 1
5.430765 23.560842 22.553932 33.064881 1.344253 0.820150 0.021074 0.000617 9673.710000 0 0 1
4.301965 24.325342 22.920732 33.698504 1.395755 0.822801 -0.000988 0.001405 -302186.000000 0 0 1
4.181165 25.768342 22.340032 34.359375 1.409938 0.862965 0.001253 0.003328 -8087.760000 0 0 1
3.864265 25.940442 20.975232 33.582726 1.422917 0.896198 0.007457 -0.001155 26835.900000 0 0 1
2.799065 25.234042 20.364932 32.547229 1.460324 0.894763 0.015346 -0.002942 -489834.000000 0 0 1
2.542965 25.845642 19.036932 32.200445 1.472722 0.938249 0.025897 -0.014163 -1041040.000000 0 0 1
1.753765 26.983342 18.999332 33.047709 1.505893 0.958307 0.015743 -0.012984 -148410.000000 0 0 1
1.179765 27.183842 17.743332 32.483518 1.527424 0.992945 0.023693 -0.013011 401857.000000 0 0 1
0.037265 28.271942 17.854032 33.437562 1.569478 1.007529 0.007665 -0.002886 473617.000000 0 0 1
0.530365 29.588942 18.159332 34.721004 1.552874 1.020421 0.011976 -0.001521 108951.000000 0 0 1
-0.521035 30.482842 18.389732 35.604177 -1.553705 1.028032 0.006297 0.001222 -50630.100000 0 0 1
-0.001435 31.886542 18.988232 37.112054 -1.570751 1.033697 0.001743 0.009674 -47450.200000 0 0 1
0.632165 31.837042 20.211032 37.715815 1.550943 1.005250 0.002004 0.002074 -233417.000000 0 0 1
0.936065 33.137142 20.737732 39.102429 1.542556 1.011790 0.002067 0.006410 -152663.000000 0 0 1
1.560365 33.123042 22.114432 39.857481 1.523723 0.982628 0.006009 -0.010194 -110272.000000 0 0 1
0.572365 32.854142 23.077032 40.153103 1.553377 0.958527 0.005265 -0.008720 -49948.600000 0 0 1
1.127465 32.869542 24.347712 40.920522 1.536509 0.933531 0.015016 -0.023203 -252264.000000 0 0 1
0.145265 32.498742 25.496462 41.306887 1.566326 0.905560 0.027042 -0.011738 58419.600000 0 0 1
-0.859435 33.492242 25.742222 42.250810 -1.545141 0.915655 0.030417 -0.008954 63936.200000 0 0 1
-1.770835 33.104842 26.718362 42.578602 -1.517356 0.892449 0.046215 -0.016563 -258820.000000 0 0 1
-1.307535 33.391542 28.201402 43.726695 -1.531659 0.869842 0.065335 -0.027870 -490021.000000 0 0 1
-0.272635 32.519042 28.616362 43.318110 -1.562413 0.849166 0.050633 -0.027606 -108322.000000 0 0 1
0.251865 33.055242 29.854512 44.542164 1.563177 0.836247 0.054108 -0.029932 -716795.000000 0 0 1
1.461065 32.212742 30.321172 44.262501 1.525471 0.816150 0.038770 -0.021040 -152334.000000 0 0 1
2.614965 32.453642 29.539542 43.962046 1.490395 0.833981 0.026045 -0.020912 80845.100000 0 0 1
2.650665 31.776142 28.324512 42.650056 1.487572 0.844488 0.019033 -0.020950 -1107420.000000 0 0 1
4.117165 31.460442 27.964232 42.293129 1.440668 0.848379 0.007997 -0.012338 1173.610000 0 0 1
4.595765 30.350842 28.782002 42.079667 1.420517 0.817580 0.011669 -0.011773 72837.000000 0 0 1
5.987565 30.300042 28.576702 42.078158 1.375701 0.824214 0.025756 -0.022304 225169.000000 0 0 1
6.838165 29.179942 29.283542 41.901735 1.340605 0.796991 0.029934 -0.014839 375641.000000 0 0 1
6.963265 29.426842 30.701962 43.093347 1.338441 0.777809 0.025616 -0.013650 179185.000000 0 0 1
7.590465 28.290742 31.294542 42.864083 1.308668 0.752346 0.032191 -0.012785 93888.100000 0 0 1
7.594265 28.384542 32.848198 44.072205 1.309370 0.729771 0.036329 -0.015938 613300.000000 0 0 1
6.235865 28.203942 33.283559 44.069759 1.353198 0.714765 0.035567 -0.014110 828938.000000 0 0 1
6.238465 28.137442 -33.781941 44.405559 1.352612 2.435279 0.045501 -0.012062 63251.700000 0 0 1
6.329365 26.700042 -33.141201 43.026647 1.338038 2.450027 0.043979 -0.015721 -543491.000000 0 0 1
7.543765 26.074242 -33.384601 43.026807 1.289168 2.458941 0.038177 -0.012960 -524631.000000 0 0 1
7.464965 24.685342 -33.073401 41.939739 1.277135 2.479314 0.046404 -0.016452 -242761.000000 0 0 1
8.812565 23.991442 -33.276051 41.958863 1.218775 2.486619 0.063832 -0.019160 -596197.000000 0 0 1
9.121665 23.891942 33.818383 42.399442 1.206088 0.647468 0.046360 -0.014790 236874.000000 0 0 1
10.365365 23.235742 33.625534 42.166540 1.151194 0.647746 0.060434 -0.027539 129329.000000 0 0 1
10.391865 21.696242 33.845453 41.523878 1.124113 0.617922 0.049553 -0.027510 -657624.000000 0 0 1
9.598165 20.978142 32.876967 40.163443 1.141697 0.611863 0.038885 -0.026203 530429.000000 0 0 1
9.150365 19.702242 33.331239 39.785413 1.136005 0.577600 0.038378 -0.023584 -197140.000000 0 0 1
7.867365 19.831242 34.150637 40.267103 1.193124 0.558402 0.060684 -0.039064 -904892.000000 0 0 1
8.107765 20.318242 -32.984241 39.579376 1.191119 2.555972 0.067099 -0.034071 119757.000000 0 0 1
6.883065 20.662842 -32.362531 39.008500 1.249244 2.549237 0.076494 -0.037534 35554.800000 0 0 1
6.982165 21.197642 -30.983671 38.184795 1.252604 2.517363 0.082441 -0.043087 45268.200000 0 0 1
7.858265 22.280942 -30.752351 38.780147 1.231727 2.486501 0.080575 -0.035980 39479.100000 0 0 1
7.823165 22.701342 -29.377181 37.941687 1.238929 2.456360 0.057143 -0.026811 1719480.000000 0 0 1
9.359565 22.884942 -28.937841 38.062064 1.182570 2.434541 0.065702 -0.033965 1975330.000000 0 0 1
10.019165 21.643142 -28.807431 37.398895 1.137246 2.450068 0.072701 -0.040692 -85776.500000 0 0 1
11.401265 21.793442 -28.534061 37.671417 1.088800 2.430189 0.073944 -0.038626 648558.000000 0 0 1
12.249965 20.473342 -28.634041 37.271004 1.031600 2.446924 0.072974 -0.045256 135668.000000 0 0 1
12.271865 19.840042 -29.890451 37.916553 1.016856 2.478873 0.053834 -0.034552 -363660.000000 0 0 1
11.072365 19.274342 -30.334561 37.606956 1.049367 2.509209 0.071809 -0.035801 -606747.000000 0 0 1
11.175665 18.392242 -31.607281 38.238597 1.024786 2.543801 0.059136 -0.033066 -468273.000000 0 0 1
11.974265 17.253342 -31.352291 37.736282 0.964091 2.551387 0.055641 -0.022175 195619.000000 0 0 1
11.989165 16.283742 -32.409721 38.200659 0.936143 2.583766 0.042039 -0.020799 -284493.000000 0 0 1
12.941465 16.623142 -33.571121 39.633705 0.909290 2.581178 0.028908 -0.000296 -401930.000000 0 0 1
12.582265 17.845942 -34.184101 40.562838 0.956690 2.573157 0.040835 -0.009446 -12564.100000 0 0 1
13.071465 17.990442 32.962035 39.761979 0.942454 0.593508 0.043954 -0.008318 16683.000000 0 0 1
12.450165 17.085942 31.871972 38.246028 0.941081 0.585672 0.061933 -0.022296 -605899.000000 0 0 1
12.717465 17.602442 30.606452 37.527787 0.945140 0.617087 0.060457 -0.018250 -120957.000000 0 0 1
11.995265 17.042042 29.538332 36.150113 0.957482 0.614430 0.058633 -0.019297 458982.000000 0 0 1
10.501765 17.498142 29.397362 35.786547 1.030256 0.606823 0.038229 -0.025353 347700.000000 0 0 1
9.735065 16.919642 30.416802 36.141771 1.048684 0.570563 0.046728 -0.022193 -56146.000000 0 0 1
8.368365 17.333442 30.416692 35.995179 1.121013 0.564191 0.046623 -0.019690 606727.000000 0 0 1
7.594565 16.533342 31.472002 36.352658 1.140195 0.524166 0.049111 -0.019196 -186727.000000 0 0 1
8.055965 16.813442 32.813351 37.739984 1.123977 0.516691 0.064157 -0.026020 226275.000000 0 0 1
8.073465 15.650742 33.655453 37.984419 1.094548 0.482079 0.088318 -0.031476 -324251.000000 0 0 1
8.153865 16.036742 -33.319421 37.866165 1.100412 2.646503 0.093819 -0.038749 58393.600000 0 0 1
6.992365 16.673342 -32.799121 37.452315 1.173701 2.637798 0.081026 -0.042618 469581.000000 0 0 1
7.120965 16.898742 -31.397061 36.360020 1.171987 2.612975 0.090289 -0.051299 486848.000000 0 0 1
5.762565 17.495842 -30.884421 35.960522 1.252619 2.603802 0.084304 -0.047790 119946.000000 0 0 1
5.628365 17.642242 -29.500531 34.831143 1.261976 2.581034 0.080791 -0.055541 100808.000000 0 0 1
4.733565 18.647242 -29.093461 34.879160 1.322199 2.557335 0.089107 -0.057331 188477.000000 0 0 1
3.199065 18.477342 -29.140021 34.652374 1.399361 2.569785 0.087005 -0.049523 -1238700.000000 0 0 1
2.825965 17.577342 -28.163741 33.318844 1.411387 2.577885 0.102559 -0.044224 77091.000000 0 0 1
1.444465 17.261542 -28.208581 33.102438 1.487310 2.590896 0.089342 -0.038940 185376.000000 0 0 1
0.440065 18.329342 -27.777661 33.282982 1.546792 2.558185 0.085162 -0.042876 -1199170.000000 0 0 1
0.366465 18.687442 -26.411671 32.356316 1.551189 2.525730 0.104037 -0.045706 223952.000000 0 0 1
-0.450035 19.848842 -26.189901 32.864723 -1.548127 2.492943 0.101701 -0.039922 140115.000000 0 0 1
-1.031135 20.122042 -24.809731 31.960641 -1.519597 2.459506 0.091575 -0.051017 69734.100000 0 0 1
-2.331635 19.641442 -24.535631 31.515393 -1.452639 2.463114 0.089194 -0.034414 -74296.900000 0 0 1
-2.604135 19.924742 -23.168131 30.668211 -1.440834 2.427129 0.089149 -0.030494 -29761.500000 0 0 1
-3.845235 19.312242 -22.491331 29.893286 -1.374258 2.422475 0.079658 -0.026457 -24507.300000 0 0 1
-5.077235 19.838242 -22.924731 30.738859 -1.320243 2.412516 0.062751 -0.018605 -566971.000000 0 0 1
-6.109235 19.004042 -22.457531 30.046915 -1.259760 2.414960 0.050509 -0.013740 206724.000000 0 0 1
-7.516635 19.659142 -22.534031 30.834465 -1.205599 2.390299 0.045060 -0.010927 334076.000000 0 0 1
-7.812835 20.564142 -21.417931 30.702640 -1.207715 2.342828 0.030187 -0.015664 160195.000000 0 0 1
-7.164535 21.831042 -21.521431 31.481693 -1.253690 2.323504 0.033381 -0.014039 14677.900000 0 0 1
-7.469935 22.761642 -20.358731 31.438356 -1.253690 2.275196 0.049330 -0.019934 -54993.200000 0 0 1
-6.777235 22.395642 -19.185231 30.258368 -1.276943 2.257572 0.065373 -0.023305 -22708.400000 0 0 1
-6.970035 23.306842 -18.132531 30.341044 -1.280206 2.211331 0.074606 -0.020751 -366089.000000 0 0 1
-5.863735 23.131242 -17.097931 29.356039 -1.322528 2.192515 0.063321 -0.023442 711395.000000 0 0 1
-4.623335 23.697742 -17.523631 29.833469 -1.378121 2.198616 0.057246 -0.023702 721089.000000 0 0 1
-3.591235 23.885242 -16.535531 29.271583 -1.421560 2.171109 0.042325 -0.018160 312454.000000 0 0 1
-2.233235 24.455942 -16.832431 29.772659 -1.479732 2.171673 0.030971 -0.011071 -469898.000000 0 0 1
-2.255035 25.867442 -16.942231 31.004015 -1.483840 2.148919 0.012644 -0.006535 198179.000000 0 0 1
-0.944035 26.408242 -17.052831 31.449730 -1.535064 2.143879 0.008516 -0.008862 268096.000000 0 0 1
-0.929435 27.922142 -16.814931 32.607542 -1.537522 2.112593 -0.003501 -0.014018 -540905.000000 0 0 1
-1.846035 28.498842 -17.683231 33.590006 -1.506111 2.125208 0.018703 -0.017036 -421744.000000 0 0 1
-1.273635 29.330542 -18.661731 34.787398 -1.527400 2.137022 0.033654 -0.022401 -1123730.000000 0 0 1
-2.282235 29.967842 -19.595631 35.878530 -1.494787 2.148577 0.073210 -0.030805 -226001.000000 0 0 1
-3.137635 30.940042 -19.057831 36.473715 -1.469732 2.120587 0.064028 -0.026640 322558.000000 0 0 1
-4.287335 30.417442 -18.373331 35.793594 -1.430769 2.109838 0.030017 -0.021915 105651.000000 0 0 1
-5.021135 31.450542 -17.488231 36.334373 -1.412481 2.072949 0.059210 -0.016629 -235794.000000 0 0 1
-5.911135 32.320342 -18.080131 37.502496 -1.389903 2.073852 0.087726 -0.025120 -298030.000000 0 0 1
-6.362835 33.298542 -17.147331 37.990914 -1.381988 2.039078 0.081843 -0.032361 235359.000000 0 0 1
-7.124235 -34.151367 -17.872731 39.198280 1.365138 2.044244 0.087288 -0.018751 -116532.000000 0 0 1
-8.388035 34.050042 -18.264931 39.539502 -1.329261 2.050979 0.089890 -0.041110 -567853.000000 0 0 1
-9.152335 -33.615067 -18.937431 39.653049 1.304971 2.068692 0.117709 -0.039035 -191363.000000 0 0 1
29.290765 -20.475958 -26.105701 44.257444 -0.610094 2.201682 0.044005 0.006680 70289.200000 0 0 1
28.923165 -21.803858 -25.775821 44.456165 -0.645963 2.189283 0.043662 -0.006035 798281.000000 0 0 1
27.525065 -22.005958 -26.082581 43.842815 -0.674429 2.207951 0.037910 -0.009841 1052530.000000 0 0 1
26.934065 -23.375258 -25.668921 43.940187 -0.714777 2.194664 0.039460 -0.004409 91258.300000 0 0 1
27.341465 -24.553358 -26.347461 45.217384 -0.731724 2.192824 0.033786 0.011008 179712.000000 0 0 1
28.643065 -25.027658 -25.990891 46.068810 -0.718137 2.170231 0.039880 0.013043 415971.000000 0 0 1
28.995665 -26.363098 -26.661291 47.398164 -0.737879 2.168198 0.037295 0.011621 203575.000000 0 0 1
28.334865 -27.480868 -25.981911 47.255924 -0.770099 2.152936 0.047031 0.003083 -43734.300000 0 0 1
28.455365 -28.723748 -26.687111 48.445468 -0.790092 2.154202 0.032568 0.005981 -458773.000000 0 0 1
27.460365 -28.995318 -27.795361 48.655752 -0.812580 2.178843 0.055279 -0.006665 -980133.000000 0 0 1
27.570865 -28.285468 -29.036361 49.023775 -0.798191 2.204696 0.026065 -0.006683 -21105.600000 0 0 1
28.693465 -28.589148 -29.849421 50.315427 -0.783577 2.205881 0.004436 0.001065 -236661.000000 0 0 1
28.912365 -30.008468 -30.463131 51.618169 -0.803999 2.202057 0.011046 0.002999 -869829.000000 0 0 1
29.436665 -31.063018 -29.622461 52.047272 -0.812274 2.176262 0.016202 0.001713 213166.000000 0 0 1
30.682065 -30.879668 -28.962421 52.285417 -0.788608 2.157873 0.012407 0.005808 1264870.000000 0 0 1
31.954265 -30.605278 -29.900721 53.402352 -0.763838 2.165078 0.002792 0.002371 314791.000000 0 0 1
31.951365 -29.351418 -30.495011 53.031511 -0.743012 2.183444 0.015041 -0.004378 -144496.000000 0 0 1
33.240665 -29.123128 -31.038241 54.004359 -0.719469 2.183078 0.010029 -0.005363 -1472.470000 0 0 1
33.370765 -27.635918 -31.624131 53.641752 -0.691670 2.201290 0.007416 0.007767 -345898.000000 0 0 1
33.296365 -26.465358 -30.807301 52.518119 -0.671588 2.197655 -0.001268 0.007224 -699721.000000 0 0 1
32.068965 -26.251178 -30.186031 51.271233 -0.685971 2.200310 0.018288 0.012130 -628372.000000 0 0 1
31.939065 -24.895258 -29.455081 50.074739 -0.662091 2.199655 0.012786 0.008621 -349762.000000 0 0 1
32.767065 -24.781558 -28.353151 49.917004 -0.647518 2.174877 0.018494 0.004882 -86487.800000 0 0 1
32.542065 -23.484658 -27.838281 48.841427 -0.625123 2.177269 0.016527 0.008739 32593.900000 0 0 1
33.551165 -23.146358 -26.729951 48.743459 -0.603903 2.151222 0.025317 0.009141 -416612.000000 0 0 1
33.286565 -23.842758 -25.549941 48.262532 -0.621574 2.128684 0.027068 0.003934 -4973.650000 0 0 1
32.113765 -23.494058 -24.855531 46.915478 -0.631613 2.129154 0.048108 0.003972 -163819.000000 0 0 1
32.292465 -22.320458 -23.880831 45.948887 -0.604793 2.117327 0.050786 0.001351 -279090.000000 0 0 1
32.447365 -21.127358 -24.554131 45.848687 -0.577167 2.135952 0.045306 -0.003928 115838.000000 0 0 1
32.705565 -20.025758 -23.671931 45.067120 -0.549418 2.123816 0.023206 -0.009198 -117819.000000 0 0 1
32.779965 -18.644458 -24.441731 44.939294 -0.517144 2.145854 0.018132 -0.008886 377337.000000 0 0 1
31.611465 -18.286958 -25.180391 44.359324 -0.524454 2.174440 0.036628 -0.012920 611596.000000 0 0 1
31.836665 -17.128558 -25.958951 44.506492 -0.493594 2.193535 0.031478 -0.016127 -263568.000000 0 0 1
30.806065 -17.115858 -27.066341 44.435943 -0.507133 2.225733 0.023225 -0.005092 503185.000000 0 0 1
29.451365 -16.791558 -26.708011 43.158512 -0.518178 2.238055 0.020431 -0.002000 706763.000000 0 0 1
28.633465 -16.836858 -27.846601 43.344991 -0.531559 2.268476 0.000851 -0.003323 422810.000000 0 0 1
27.072465 -16.714558 -27.695631 42.182257 -0.553116 2.287059 -0.007882 -0.002209 780306.000000 0 0 1
26.465165 -17.663558 -26.918451 41.677443 -0.588529 2.272966 0.015198 -0.000577 -127117.000000 0 0 1
26.651265 -17.378958 -25.542981 40.801495 -0.577841 2.247249 0.024880 0.000420 -620208.000000 0 0 1
26.264265 -18.505858 -24.615531 40.474717 -0.613808 2.224550 0.035929 -0.005384 -189418.000000 0 0 1
26.166265 -18.171858 -23.240031 39.433347 -0.607009 2.201050 0.039813 -0.003997 -76895.000000 0 0 1
25.446365 -19.250158 -22.605031 39.103369 -0.647648 2.187175 0.043049 -0.006519 -42648.900000 0 0 1
25.098565 -18.823658 -21.190031 37.858757 -0.643494 2.164836 0.044437 -0.019154 -61152.700000 0 0 1
24.134765 -17.786358 -20.999731 36.603690 -0.635103 2.181819 0.040272 -0.023505 180998.000000 0 0 1
24.428865 -16.453358 -21.373231 36.390898 -0.592733 2.198544 0.040036 -0.024766 -471106.000000 0 0 1
25.715165 -15.792958 -20.846531 36.677855 -0.550759 2.175318 0.048976 -0.022921 -152773.000000 0 0 1
25.623265 -15.074258 -19.596531 35.606305 -0.531775 2.153600 0.050772 -0.027328 34695.900000 0 0 1
26.738965 -14.214458 -19.489031 36.011740 -0.488608 2.142643 0.052674 -0.022360 -102393.000000 0 0 1
26.683165 -13.078758 -18.437031 34.970978 -0.455737 2.126110 0.053023 -0.019663 -261356.000000 0 0 1
27.059865 -13.470558 -17.151031 34.754138 -0.461891 2.086901 0.054791 -0.022109 258389.000000 0 0 1
26.817565 -12.486258 -16.134831 33.696012 -0.435751 2.070124 0.042019 -0.019380 -188700.000000 0 0 1
27.505265 -12.814658 -14.813931 33.766960 -0.435996 2.024960 0.054897 -0.023865 -356846.000000 0 0 1
26.982765 -13.950958 -14.174831 33.520511 -0.477180 2.007407 0.066461 -0.028002 300690.000000 0 0 1
27.417665 -14.047158 -12.827531 33.370594 -0.473471 1.965350 0.074027 -0.028470 -216820.000000 0 0 1
26.970365 -15.335658 -12.073731 33.292010 -0.517020 1.941919 0.071510 -0.037235 713097.000000 0 0 1
25.576665 -15.247258 -11.741931 32.008086 -0.537576 1.946409 0.067196 -0.037378 794173.000000 0 0 1
25.122865 -16.426358 -11.085031 31.997836 -0.579071 1.924560 0.058855 -0.038627 1123010.000000 0 0 1
23.583865 -16.438658 -10.707731 30.677087 -0.608730 1.927350 0.075049 -0.038357 1064050.000000 0 0 1
23.465965 -15.887658 -9.385231 29.852165 -0.595157 1.890611 0.067619 -0.030951 -520585.000000 0 0 1
22.126565 -15.958458 -9.055331 28.744674 -0.624836 1.891281 0.072055 -0.027946 -1069980.000000 0 0 1
21.830665 -15.595258 -7.576331 27.878142 -0.620308 1.846024 0.067711 -0.026863 -435529.000000 0 0 1
22.109065 -14.262158 -7.161531 27.267332 -0.572910 1.836555 0.074835 -0.013648 400160.000000 0 0 1
21.877165 -13.943458 -5.785431 26.580097 -0.567432 1.790213 0.074672 -0.011623 129564.000000 0 0 1
22.772765 -14.785458 -4.763531 27.566280 -0.575855 1.744471 0.072379 -0.013989 64487.100000 0 0 1
24.137865 -14.484658 -4.836831 28.562856 -0.540479 1.740956 0.083300 -0.017238 14125.300000 0 0 1
24.944965 -15.104158 -3.849431 29.414367 -0.544453 1.702042 0.080450 -0.028469 -1101800.000000 0 0 1
26.411665 -14.899558 -4.073431 30.596825 -0.513625 1.704325 0.087811 -0.030107 -1621380.000000 0 0 1
26.841465 -13.618358 -3.790531 30.336315 -0.469520 1.696074 0.087478 -0.023544 -419339.000000 0 0 1
28.161565 -13.350658 -4.142431 31.439999 -0.442692 1.702937 0.090546 -0.029639 -799706.000000 0 0 1
28.653665 -12.040758 -3.644231 31.293654 -0.397812 1.687514 0.094033 -0.019889 -832124.000000 0 0 1
28.869365 -12.078958 -2.238431 31.374385 -0.396268 1.642203 0.105934 -0.035418 548077.000000 0 0 1
29.531565 -10.967858 -1.633131 31.544799 -0.355606 1.622591 0.096048 -0.028849 819477.000000 0 0 1
31.088865 -10.858058 -1.779531 32.978503 -0.336014 1.624783 0.093268 -0.022239 375859.000000 0 0 1
31.314865 -10.607958 -3.159731 33.213453 -0.326619 1.666074 0.091508 -0.010936 783691.000000 0 0 1
32.654065 -10.741058 -3.666931 34.570286 -0.317787 1.677068 0.096100 -0.023601 720517.000000 0 0 1
32.582565 -10.688358 -5.244731 34.689649 -0.316978 1.722568 0.096864 -0.015215 167166.000000 0 0 1
31.646765 -11.634658 -5.763431 34.206726 -0.352304 1.740092 0.072613 -0.018867 530857.000000 0 0 1
31.744265 -11.609758 -7.196331 34.558241 -0.350617 1.780569 0.060898 -0.007722 -241887.000000 0 0 1
30.463065 -12.063558 -7.913131 33.706756 -0.377059 1.807772 0.073536 -0.010286 -132001.000000 0 0 1
30.249265 -13.443458 -7.826731 34.014737 -0.418206 1.802975 0.061844 -0.014305 1020160.000000 0 0 1
28.964865 -13.844958 -8.357531 33.173703 -0.445886 1.825473 0.069311 -0.023997 759048.000000 0 0 1
28.780565 -15.381858 -8.486131 33.718495 -0.490829 1.825208 0.070708 -0.037086 -62166.200000 0 0 1
29.599665 -15.923858 -9.495631 34.926729 -0.493564 1.846135 0.077630 -0.040961 303099.000000 0 0 1
29.728765 -17.335458 -9.369031 35.666459 -0.527916 1.836600 0.072523 -0.041880 -92821.000000 0 0 1
30.256165 -17.914358 -10.711731 36.757325 -0.534583 1.866505 0.054798 -0.043886 -768158.000000 0 0 1
31.527865 -17.503958 -11.085431 37.726404 -0.506819 1.869035 0.063863 -0.034110 -581454.000000 0 0 1
31.882965 -17.985758 -12.356131 38.635281 -0.513618 1.896330 0.067828 -0.028426 98508.800000 0 0 1
31.070665 -17.494058 -13.620631 38.170013 -0.512800 1.935681 0.061129 -0.028735 230962.000000 0 0 1
31.577665 -16.224658 -14.074531 38.190062 -0.474628 1.948233 0.052045 -0.017625 537288.000000 0 0 1
30.697965 -15.584058 -14.988031 37.548222 -0.469755 1.981405 0.051093 -0.024332 -625106.000000 0 0 1
31.411165 -14.401258 -15.663331 37.939392 -0.429880 1.996379 0.056827 -0.013835 690502.000000 0 0 1
32.486265 -14.680758 -16.577131 39.315179 -0.424438 2.006057 0.042748 -0.013864 1098180.000000 0 0 1
33.692065 -15.060358 -15.925831 40.194548 -0.420356 1.978191 0.052162 -0.007547 -592415.000000 0 0 1
34.857665 -15.473058 -16.829931 41.685956 -0.417763 1.986388 0.051505 -0.009022 207355.000000 0 0 1
36.069365 -15.955958 -16.257231 42.660160 -0.416490 1.961768 0.043463 -0.006185 483040.000000 0 0 1
-35.332275 -16.657358 -17.222231 42.690074 0.440547 1.986053 0.036890 -0.010709 135162.000000 0 0 1
-33.805975 -16.610858 -16.952431 41.305562 0.456711 1.993706 0.017868 0.004989 164355.000000 0 0 1
-33.222575 -17.199758 -15.747131 40.589940 0.477717 1.969210 0.023052 -0.008183 567962.000000 0 0 1
-33.586275 -16.542458 -14.493931 40.146790 0.457659 1.940161 0.032286 -0.011701 -543962.000000 0 0 1
-33.075175 -17.367258 -13.320531 39.661384 0.483513 1.913311 0.032087 -0.018941 -604111.000000 0 0 1
-31.675075 -17.295858 -13.340731 38.476384 0.499798 1.924874 0.026410 -0.016999 -350708.000000 0 0 1
-31.133275 -17.781058 -12.095431 37.838423 0.518919 1.896167 0.026082 -0.010069 -16751.600000 0 0 1
-29.647975 -17.397558 -11.996931 36.408842 0.530660 1.906577 0.053729 -0.010913 -279968.000000 0 0 1
-29.286475 -16.074758 -11.640831 35.378021 0.501983 1.906085 0.048068 -0.016942 956907.000000 0 0 1
-27.966975 -15.993458 -11.074731 34.067463 0.519478 1.901895 0.047006 -0.015502 834708.000000 0 0 1
-28.153775 -15.875858 -9.548931 33.702522 0.513451 1.858061 0.061658 -0.017206 153749.000000 0 0 1
-28.598775 -17.061558 -8.911531 34.473208 0.537904 1.832272 0.050232 -0.014707 101736.000000 0 0 1
-29.014875 -16.965858 -7.585931 34.456489 0.529116 1.792775 0.060784 -0.016348 -247095.000000 0 0 1
-29.233075 -18.365158 -6.895631 35.205133 0.560920 1.767941 0.045582 -0.023219 512432.000000 0 0 1
-30.416275 -19.057758 -7.310631 36.630496 0.559724 1.771723 0.045005 -0.026244 291736.000000 0 0 1
-30.292775 -19.714658 -8.567231 37.144547 0.576940 1.803538 0.033176 -0.019616 215884.000000 0 0 1
-31.566575 -20.472358 -9.062631 38.700095 0.575352 1.807167 0.037306 -0.025887 446343.000000 0 0 1
-32.670875 -19.662058 -9.414431 39.276126 0.541758 1.812852 0.041172 -0.026403 -838724.000000 0 0 1
-33.730275 -20.470558 -9.699931 40.630823 0.545470 1.811858 0.037071 -0.029496 -64244.200000 0 0 1
-34.999475 -19.747758 -10.310531 41.487880 0.513703 1.821947 0.031383 -0.041496 620640.000000 0 0 1
-35.084475 -19.726958 -11.700731 41.916349 0.512215 1.853700 0.033201 -0.035921 317795.000000 0 0 1
35.988765 -18.891258 -12.086431 42.404630 -0.483385 1.859830 0.051454 -0.044158 102365.000000 0 0 1
35.483565 -19.048858 -13.532931 42.486263 -0.492680 1.894969 0.042972 -0.037080 -569112.000000 0 0 1
34.713165 -20.167958 -13.714431 42.424474 -0.526323 1.899976 0.017694 -0.030528 -424581.000000 0 0 1
34.314265 -20.272558 -15.042931 42.599708 -0.533621 1.931703 0.011933 -0.030282 -403563.000000 0 0 1
33.026665 -21.073858 -15.331031 42.070281 -0.567954 1.943801 0.033078 -0.037300 -1145060.000000 0 0 1
32.001765 -20.454158 -14.593431 40.687268 -0.568715 1.937642 0.047416 -0.038314 -236808.000000 0 0 1
30.770265 -21.135258 -14.855631 40.177084 -0.601861 1.949540 0.056254 -0.037051 128318.000000 0 0 1
30.022265 -20.738658 -16.186231 39.917695 -0.604508 1.988311 0.058976 -0.041044 -665197.000000 0 0 1
29.407165 -19.434158 -16.024131 38.720029 -0.583975 1.997471 0.038307 -0.034678 763725.000000 0 0 1
28.784265 -18.972058 -17.264331 38.555544 -0.582754 2.035075 0.035347 -0.035046 233636.000000 0 0 1
28.018765 -17.630758 -17.194631 37.303487 -0.561648 2.049849 0.042842 -0.027844 451701.000000 0 0 1
26.834365 -17.710858 -16.390831 36.089014 -0.583378 2.042246 0.048818 -0.036486 437775.000000 0 0 1
26.266065 -16.462758 -16.181031 34.967904 -0.559870 2.051879 0.043556 -0.022822 -1086730.000000 0 0 1
24.884065 -16.496858 -15.528731 33.652704 -0.585424 2.050415 0.048910 -0.026179 -120978.000000 0 0 1
23.775865 -16.895858 -16.301231 33.413948 -0.617825 2.080430 0.054610 -0.034624 386892.000000 0 0 1
23.370865 -16.022358 -17.383531 33.243051 -0.600975 2.121072 0.050520 -0.034163 -1197100.000000 0 0 1
22.326065 -16.654458 -18.255431 33.302926 -0.640914 2.150963 0.041177 -0.025266 -765603.000000 0 0 1
21.055565 -16.699858 -17.662131 32.158559 -0.670540 2.152227 0.042609 -0.014239 -402478.000000 0 0 1
20.206065 -17.371458 -18.579531 32.484636 -0.710107 2.179675 0.034361 -0.007511 -425246.000000 0 0 1
18.795065 -17.795658 -18.192431 31.637074 -0.758092 2.183444 0.037016 -0.003287 -47103.400000 0 0 1
17.983665 -16.585558 -18.073131 30.415966 -0.744976 2.207066 0.041636 -0.004193 733488.000000 0 0 1
16.636165 -17.038858 -17.930131 29.808963 -0.797356 2.216175 0.051365 -0.003903 -18336.300000 0 0 1
15.586665 -16.020158 -17.546431 28.415961 -0.799112 2.236338 0.052981 0.000911 -481062.000000 0 0 1
15.231565 -15.185158 -18.618531 28.447131 -0.783872 2.284312 0.049124 0.006471 -415261.000000 0 0 1
14.007465 -14.593758 -18.331231 27.298734 -0.805894 2.307034 0.056261 0.001921 -229918.000000 0 0 1
13.210065 -14.072458 -19.561031 27.480426 -0.816997 2.362878 0.041897 -0.000015 222958.000000 0 0 1
13.735865 -12.863858 -20.103631 27.537407 -0.752627 2.389189 0.049108 -0.005260 27454.900000 0 0 1
13.012765 -12.474758 -21.258431 27.872433 -0.764293 2.438281 0.061944 -0.005310 11615.700000 0 0 1
13.171865 -10.994858 -21.781231 27.727368 -0.695558 2.474381 0.056858 -0.004394 -128175.000000 0 0 1
14.297965 -10.784458 -22.615931 28.848166 -0.646225 2.471822 0.054438 -0.001035 -139863.000000 0 0 1
14.320865 -9.475458 -23.134631 28.811155 -0.584524 2.503066 0.055972 -0.004868 -436354.000000 0 0 1
15.558665 -9.241358 -23.972731 30.036088 -0.535973 2.494983 0.057204 -0.001420 -346069.000000 0 0 1
15.611365 -10.082558 -25.119171 31.246527 -0.573450 2.504625 0.072643 0.000007 -14137.700000 0 0 1
16.834365 -9.938158 -25.799171 32.369122 -0.533293 2.493158 0.073227 -0.008109 -217833.000000 0 0 1
21.739065 4.885642 -6.862131 23.314058 0.221067 1.869555 0.051829 0.016875 -465530.000000 0 1 0
21.701165 6.228342 -7.300331 23.728204 0.279493 1.883534 0.058087 0.010185 746510.000000 0 1 0
21.870165 7.069342 -6.257431 23.820898 0.312640 1.836602 0.071937 0.007995 -506172.000000 0 1 0
21.624465 8.584042 -6.488231 24.153683 0.377883 1.842759 0.077032 0.007892 422741.000000 0 1 0
20.231865 8.868642 -6.713631 23.087963 0.413124 1.865843 0.047051 -0.009816 1275850.000000 0 1 0
19.921365 10.139842 -7.257331 23.502043 0.470816 1.884723 0.055633 -0.000322 -217972.000000 0 1 0
19.699565 11.195542 -6.137731 23.475195 0.516795 1.835327 0.080072 0.000141 -1386230.000000 0 1 0
20.766965 11.472942 -5.335631 24.317981 0.504731 1.792007 0.089694 0.000935 -714742.000000 0 1 0
20.445865 12.328142 -4.243731 24.249242 0.542597 1.746707 0.101840 -0.007770 -75439.500000 0 1 0
21.555965 12.478942 -3.187331 25.110610 0.524767 1.698071 0.087087 -0.017594 -808632.000000 0 0 1
22.728065 13.157442 -3.609331 26.508687 0.524766 1.707377 0.087397 -0.019712 1003810.000000 0 0 1
23.608965 13.339842 -2.471731 27.229471 0.514311 1.661696 0.088964 -0.026910 132527.000000 0 0 1
24.391565 12.109442 -1.926631 27.300164 0.460812 1.641427 0.070530 -0.018018 -187167.000000 0 0 1
25.576765 11.801742 -2.703531 28.297723 0.432314 1.666481 0.050511 -0.014648 1355010.000000 0 0 1
26.327465 10.716842 -2.117931 28.503890 0.386577 1.645168 0.078142 -0.010403 -275698.000000 0 0 1
27.757165 10.499742 -2.604331 29.790726 0.361636 1.658329 0.047905 -0.006451 -728482.000000 0 0 1
28.537865 11.563742 -2.150431 30.866717 0.384987 1.640521 0.036851 -0.012015 -373250.000000 0 0 1
29.904965 11.271142 -2.336731 32.043812 0.360434 1.643784 0.036331 -0.008106 274753.000000 0 0 1
30.799065 12.506342 -1.873031 33.294132 0.385722 1.627083 0.012495 -0.004813 -48471.400000 0 0 1
30.953765 12.625542 -0.459531 33.432784 0.387284 1.584542 0.028034 -0.006828 387451.000000 0 0 1
31.605865 13.861842 -0.183931 34.512537 0.413320 1.576126 0.026371 -0.003515 -193079.000000 0 0 1
33.114665 13.695642 0.090469 35.835176 0.392160 1.568272 0.036782 -0.007005 -16396.100000 0 0 1
33.890065 14.894042 0.096869 37.018622 0.414072 1.568180 0.044177 -0.003921 478365.000000 0 0 1
34.572965 15.248542 -1.102531 37.802428 0.415390 1.599966 0.043926 0.001946 -298561.000000 0 0 1
33.795865 16.269042 -1.971031 37.559649 0.448650 1.623298 0.011789 0.019543 254187.000000 0 0 1
32.591865 15.709542 -2.470631 36.264630 0.449151 1.638977 0.016436 0.021323 92385.400000 0 0 1
32.021365 16.481642 -3.513931 36.185081 0.475344 1.668060 0.009003 0.029051 191119.000000 0 0 1
30.707965 15.957642 -4.141831 34.853698 0.479250 1.689913 0.014121 0.012473 -573287.000000 0 0 1
30.847765 14.825742 -5.003731 34.589371 0.448016 1.715967 0.005646 0.010719 588093.000000 0 0 1
29.670165 14.569842 -5.779231 33.555901 0.456470 1.743886 0.011247 -0.004726 -347095.000000 0 0 1
28.477965 14.022542 -5.048331 32.142057 0.457549 1.728512 0.020022 -0.014849 -977956.000000 0 0 1
27.346965 13.925642 -5.918931 31.254020 0.470997 1.761328 0.029775 -0.023347 495148.000000 0 0 1
26.355365 13.099842 -5.349731 29.913722 0.461282 1.750602 0.044350 -0.011412 -414247.000000 0 0 1
25.200865 12.807642 -6.291631 28.960385 0.470204 1.789792 0.048452 -0.012279 -306496.000000 0 0 1
25.591565 11.783642 -7.247531 29.091393 0.431510 1.822578 0.043939 -0.006488 57839.300000 0 0 1
24.593865 11.549942 -8.171531 28.373109 0.439055 1.862937 0.057724 -0.006988 -564345.000000 0 0 1
24.308365 12.577142 -9.321531 28.913181 0.477470 1.899057 0.067037 -0.002221 -281801.000000 0 0 1
23.401565 13.524742 -8.858931 28.443498 0.524042 1.887522 0.070963 -0.009491 -28240.500000 0 0 1
23.497465 14.675642 -9.619931 29.326582 0.558285 1.905011 0.059278 -0.011273 -736955.000000 0 0 1
22.875665 15.889142 -8.878531 29.233358 0.607084 1.879383 0.046921 -0.004952 159709.000000 0 0 1
21.482465 15.730742 -8.716531 28.016611 0.632050 1.887168 0.071591 -0.004177 158654.000000 0 0 1
21.087965 15.008242 -7.587131 26.972471 0.618533 1.855936 0.081982 -0.005147 333525.000000 0 0 1
19.553565 14.648542 -7.707631 25.618924 0.642957 1.876387 0.091792 -0.007045 1138260.000000 0 0 1
18.566365 15.583142 -7.290931 25.312090 0.698262 1.862977 0.103227 -0.017975 -111050.000000 0 0 1
17.309065 15.020242 -7.536931 24.125023 0.714719 1.888527 0.106910 -0.021416 712686.000000 0 1 0
16.251565 15.188242 -6.314531 23.122919 0.751590 1.847395 0.103335 -0.014025 881936.000000 0 1 0
16.534065 14.326242 -5.253531 22.499247 0.713977 1.806470 0.085864 -0.018907 242370.000000 0 1 0
15.932365 14.715442 -4.071131 22.067139 0.745712 1.756348 0.069739 -0.015840 -385630.000000 0 1 0
15.830765 13.536242 -3.067231 21.053524 0.707424 1.717004 0.067578 -0.010636 637896.000000 0 1 0
17.089065 13.157442 -2.471231 21.708556 0.656137 1.684880 0.072198 -0.007080 1285640.000000 0 1 0
16.828265 12.354242 -1.361631 20.920608 0.633271 1.635928 0.058559 -0.006665 91869.100000 0 1 0
16.892665 13.141342 -0.015031 21.402272 0.661139 1.571499 0.063339 -0.012830 3071.060000 0 1 0
15.815265 14.076642 0.052169 21.172558 0.727300 1.568332 0.062168 -0.019510 738395.000000 0 1 0
15.951965 14.840542 1.213469 21.821535 0.749320 1.515159 0.055567 -0.015792 -997122.000000 0 1 0
14.718165 15.658542 1.529369 21.544217 0.816345 1.499749 0.051278 -0.013906 -829413.000000 0 1 0
14.439965 16.623842 0.577469 22.027215 0.855586 1.544577 0.056276 -0.022957 221823.000000 0 1 0
13.420565 17.466842 1.082069 22.053866 0.915657 1.521712 0.034924 -0.023233 -29953.200000 0 1 0
13.387065 18.874542 0.604169 23.147935 0.953879 1.544693 0.029562 -0.022473 -457568.000000 0 1 0
12.934765 19.005042 -0.694831 22.999621 0.973212 1.601011 0.040203 -0.026602 -333836.000000 0 1 0
12.598465 20.297842 -1.067831 23.913678 1.015310 1.615465 0.032452 -0.025409 -382631.000000 0 1 0
11.131965 20.655442 -0.839931 23.479213 1.076487 1.606577 0.026116 -0.021564 -582929.000000 0 1 0
10.660765 20.591742 0.506069 23.193272 1.093073 1.548975 0.017906 -0.025761 468575.000000 0 1 0
9.231065 20.534042 0.414469 22.517354 1.148317 1.552389 0.017682 -0.017667 784138.000000 0 1 0
8.498465 20.723342 1.732269 22.465119 1.181621 1.493610 0.004334 -0.005713 9091.650000 0 1 0
8.689765 22.017842 2.231069 23.775514 1.194894 1.476819 0.008099 0.006582 69937.300000 0 1 0
7.683065 22.124542 3.201169 23.638366 1.236561 1.434956 -0.002300 0.008779 143565.000000 0 1 0
7.317265 23.508942 3.755769 24.906195 1.269047 1.419422 -0.013526 0.012966 -14148.100000 0 1 0
7.689165 23.570742 5.082069 25.308706 1.255465 1.368619 -0.019131 0.001573 36914.700000 0 0 1
7.432465 24.844442 5.655369 26.541874 1.280110 1.356077 -0.025203 0.003238 -180409.000000 0 0 1
7.905565 25.009142 7.114669 27.176712 1.264629 1.305917 -0.027686 0.000287 141523.000000 0 0 1
7.207165 24.159542 8.025669 26.458233 1.280886 1.262607 -0.012461 -0.019227 436684.000000 0 0 1
7.931365 24.147842 9.241869 27.045092 1.253447 1.222049 -0.006153 -0.029781 -270785.000000 0 0 1
7.393065 23.069342 10.176769 26.275818 1.260666 1.173089 0.003200 -0.028599 86534.900000 0 0 1
6.163965 23.392942 10.820069 26.500908 1.313156 1.150216 0.003978 -0.029919 259609.000000 0 0 1
5.678665 22.224142 11.430969 25.628632 1.320631 1.108479 0.006916 -0.024321 -493766.000000 0 0 1
4.364265 22.509242 12.159069 25.952953 1.379285 1.083199 0.018238 -0.034433 870901.000000 0 0 1
3.278465 22.717542 11.191869 25.536112 1.427472 1.117116 0.014943 -0.032987 878909.000000 0 0 1
2.023865 23.002842 11.762469 25.914908 1.483039 1.099672 0.025490 -0.038893 -97281.600000 0 0 1
0.923265 23.347942 10.767469 25.727752 1.531273 1.138986 0.031552 -0.027407 -487061.000000 0 0 1
0.997365 24.661742 10.150669 26.687682 1.530377 1.180621 0.031287 -0.021521 67836.600000 0 0 1
0.014365 24.896642 9.165669 26.530219 1.570219 1.218046 0.032959 -0.021036 -21951.800000 0 0 1
-1.254235 25.607742 9.654369 27.395920 -1.521857 1.210660 0.043848 -0.030432 -320602.000000 0 0 1
-2.211635 24.810342 10.294869 26.952342 -1.481890 1.178874 0.043856 -0.033151 -517139.000000 0 0 1
-3.444535 25.469142 10.243669 27.667215 -1.436369 1.191523 0.050287 -0.034493 -1010140.000000 0 0 1
-4.621735 24.556742 10.608069 27.146366 -1.384766 1.169325 0.044364 -0.034302 -254916.000000 0 0 1
-5.139235 24.571942 11.940269 27.798599 -1.364618 1.126827 0.043217 -0.025573 592173.000000 0 0 1
-5.969835 25.708142 12.218769 29.083429 -1.342625 1.137210 0.033841 -0.022220 -245059.000000 0 0 1
-6.338835 25.975142 13.682569 30.035005 -1.331440 1.097802 0.033470 -0.015240 -476082.000000 0 0 1
-7.294035 25.107842 14.168169 29.737917 -1.288070 1.074201 0.018109 -0.015105 -412904.000000 0 0 1
-7.588635 25.347642 15.507069 30.668543 -1.279906 1.040679 0.012300 0.003415 479950.000000 0 0 1
-8.751635 24.438042 16.076969 30.533227 -1.226910 1.016271 0.009031 -0.006504 -5901.640000 0 0 1
-10.018935 24.858142 15.746369 31.084633 -1.187668 1.039601 0.005653 -0.001732 -1209250.000000 0 0 1
-11.016435 23.881942 15.899369 30.732702 -1.138596 1.027052 0.004265 -0.004106 840055.000000 0 0 1
-12.437235 24.524442 15.647269 31.638112 -1.101456 1.053456 0.005849 -0.002611 429189.000000 0 0 1
-12.948635 25.261042 16.693769 32.931282 -1.097125 1.039180 0.006722 -0.008079 -94609.900000 0 0 1
-13.617735 26.373842 16.112269 33.773177 -1.094166 1.073475 0.005029 0.000085 -58957.000000 0 0 1
-14.433935 27.360042 17.049769 35.321453 -1.085348 1.067058 0.019808 0.004770 453455.000000 0 0 1
-15.580135 26.722442 17.594869 35.586640 -1.042944 1.053625 0.026957 -0.002681 -4763.610000 0 0 1
-15.957635 27.438042 18.752969 36.866870 -1.044025 1.037160 0.042937 -0.009627 -34851.700000 0 0 1
-17.238035 26.861142 19.404769 37.352589 -1.000245 1.024528 0.033791 -0.024816 144067.000000 0 0 1
-18.431735 27.072242 18.664969 37.696369 -0.973049 1.052801 0.034054 -0.015791 -440073.000000 0 0 1
-19.465835 26.501142 19.440869 38.199171 -0.937271 1.036850 0.037696 -0.025516 -733416.000000 0 0 1
-20.674635 26.346242 18.517469 38.268286 -0.905437 1.065707 0.045473 -0.028902 -688661.000000 0 0 1
-21.182835 27.653542 18.162969 39.285167 -0.917129 1.090168 0.039093 -0.026814 302615.000000 0 0 1
-21.945535 27.522642 16.958969 39.073124 -0.897665 1.121833 0.037514 -0.030592 -370476.000000 0 0 1
-22.939735 28.653542 16.721769 40.334532 -0.895696 1.143318 0.023674 -0.025756 -117746.000000 0 0 1
-24.059435 28.656042 17.593369 41.346727 -0.872375 1.131273 0.025106 -0.035341 907689.000000 0 0 1
-24.984835 29.722742 17.242369 42.485088 -0.871787 1.152893 0.036954 -0.024072 1068980.000000 0 0 1
-26.385745 29.823042 17.923369 43.667706 -0.846474 1.147850 0.046444 -0.020074 821508.000000 0 0 1
-27.291345 28.791042 17.511169 43.363379 -0.812133 1.155103 0.056692 -0.019175 -362340.000000 0 0 1
-28.523515 28.856442 18.155669 44.451249 -0.791200 1.150052 0.077104 -0.025520 -219257.000000 0 0 1
-28.905245 27.521142 18.924769 44.170956 -0.760874 1.128027 0.078289 -0.026735 -239769.000000 0 0 1
-29.116835 26.388742 18.118869 43.271806 -0.736288 1.138758 0.066831 -0.026416 227461.000000 0 0 1
-29.442735 25.246842 18.896569 43.143459 -0.708826 1.117430 0.052566 -0.013250 -18796.200000 0 0 1
-29.611985 23.909642 18.132569 42.158400 -0.679256 1.126186 0.053710 -0.014944 -372499.000000 0 0 1
-30.784395 23.888142 17.372369 42.662882 -0.659923 1.151409 0.070231 -0.013849 -267948.000000 0 0 1
-30.727125 23.014642 16.265169 41.693953 -0.642861 1.170047 0.059806 -0.019572 -111769.000000 0 0 1
-31.110245 21.506342 16.371769 41.211709 -0.604859 1.162267 0.055710 -0.019496 742816.000000 0 0 1
-32.513755 21.256442 16.220569 42.096169 -0.579019 1.175240 0.054635 -0.017348 591474.000000 0 0 1
-32.798565 19.862342 16.192069 41.622609 -0.544517 1.171228 0.035722 0.000192 -798730.000000 0 0 1
-34.143138 19.638742 15.560469 42.350470 -0.521976 1.194561 0.021854 -0.006266 -1005850.000000 0 0 1
-34.261048 19.868142 14.199569 42.073629 -0.525512 1.226544 0.028895 -0.011135 992471.000000 0 0 1
-35.620037 19.717442 13.721569 42.963310 -0.505564 1.245722 0.039011 -0.002961 1167890.000000 0 0 1
-35.791152 20.293542 12.269769 42.934621 -0.515800 1.280978 0.050105 -0.008789 -411763.000000 0 0 1
-35.612859 21.711242 12.178569 43.450792 -0.547482 1.286706 0.044006 -0.013433 173883.000000 0 0 1
-35.398003 22.251942 10.862469 43.199083 -0.561199 1.316617 0.039528 -0.022950 -855823.000000 0 0 1
-34.178081 21.773642 10.124369 41.770032 -0.567228 1.325974 0.058092 -0.027905 -1234840.000000 0 0 1
-34.418070 20.489542 9.586869 41.186563 -0.536966 1.335875 0.057820 -0.019742 981952.000000 0 0 1
-33.254795 19.867042 8.970269 39.762375 -0.538519 1.343241 0.083337 -0.022587 940437.000000 0 0 1
-32.516305 18.866942 9.897369 38.874536 -0.525756 1.313365 0.070900 -0.024379 70245.800000 0 0 1
-31.814875 19.385142 11.017169 38.850329 -0.547237 1.283271 0.072586 -0.028120 201347.000000 0 0 1
-31.372815 18.265642 11.768569 38.162631 -0.527238 1.257307 0.069210 -0.028385 116789.000000 0 0 1
-30.697465 18.767342 13.091569 38.287553 -0.548734 1.221829 0.050427 -0.011028 958138.000000 0 0 1
-29.407205 19.402042 12.991969 37.550156 -0.583214 1.217503 0.054819 -0.015694 745292.000000 0 0 1
-29.402305 20.812242 12.715969 38.201320 -0.615971 1.231454 0.037223 -0.007908 -1089350.000000 0 0 1
-28.151315 21.453542 13.205569 37.777481 -0.651187 1.213693 0.077081 -0.023962 -1205330.000000 0 0 1
-28.154285 21.500142 14.662269 38.339301 -0.652183 1.178367 0.066334 -0.013403 285455.000000 0 0 1
-27.012995 22.173542 15.187569 38.105513 -0.687324 1.160843 0.073520 -0.029761 89866.300000 0 0 1
-26.491275 21.833342 16.608069 38.135422 -0.689307 1.120200 0.075748 -0.028547 -381424.000000 0 0 1
-25.654785 20.703942 16.619169 36.919074 -0.679007 1.103862 0.088974 -0.028093 -88717.200000 0 0 1
-25.294335 20.357842 17.887769 37.070438 -0.677684 1.067250 0.071474 -0.018138 53533.800000 0 0 1
-24.089235 19.391242 18.080069 35.821787 -0.677767 1.041736 0.078673 -0.018151 189651.000000 0 0 1
-23.786035 19.307342 19.448169 36.287466 -0.681840 1.005167 0.072801 -0.020213 56286.200000 0 0 1
-22.661635 18.478742 19.675269 35.243862 -0.684073 0.978508 0.072162 -0.021411 140791.000000 0 0 1
-22.202235 18.600342 21.158469 35.869106 -0.697350 0.939886 0.076988 -0.025209 38103.300000 0 0 1
-23.100835 17.936042 22.017669 36.607758 -0.660199 0.925484 0.089601 -0.020077 222844.000000 0 0 1
-22.881635 18.275042 23.369069 37.465448 -0.673934 0.897265 0.100777 -0.027807 40684.800000 0 0 1
-23.599935 17.275242 24.315269 38.034501 -0.631884 0.877215 0.078234 -0.008818 -193953.000000 0 0 1
-22.817335 16.125542 24.557369 37.198498 -0.615224 0.849750 0.092311 -0.023641 13338.600000 0 0 1
-23.509635 15.203942 25.318169 37.747483 -0.574060 0.835611 0.087617 -0.029925 20843.500000 0 0 1
20.556765 24.816742 34.029801 46.866605 0.879011 0.758165 0.038496 -0.020536 25781.700000 0 0 1
21.230365 23.787242 33.327013 46.122133 0.842134 0.763266 0.040862 -0.026988 41466.100000 0 0 1
21.130465 22.585142 33.969468 45.940287 0.818662 0.738578 0.047748 -0.021712 106401.000000 0 0 1
19.978965 21.733642 33.357893 44.545026 0.827439 0.724459 0.045919 -0.018247 172654.000000 0 0 1
20.334265 21.334242 32.050512 43.541561 0.809392 0.743521 0.065290 -0.017070 158515.000000 0 0 1
19.427865 20.410842 31.482712 42.251693 0.810067 0.730077 0.060427 -0.008645 -211342.000000 0 0 1
19.866065 19.756842 30.165502 41.169781 0.782642 0.748501 0.065310 0.002797 -121496.000000 0 0 1
21.022565 18.938942 30.188902 41.376341 0.733305 0.753034 0.056187 -0.001146 -94443.900000 0 0 1
21.298965 18.443042 28.908102 40.366695 0.713660 0.772544 0.057131 -0.000497 53813.200000 0 0 1
22.518465 17.506542 28.762242 40.507121 0.660827 0.781221 0.049747 0.002383 782389.000000 0 0 1
23.835965 18.066442 28.904382 41.593423 0.648569 0.802478 0.065530 -0.004937 296473.000000 0 0 1
24.724965 16.997942 29.021072 41.742982 0.602274 0.802053 0.057995 0.002508 -316857.000000 0 0 1
26.158265 17.441142 29.371042 43.024486 0.588063 0.819401 0.058660 -0.013366 -23409.600000 0 0 1
26.954865 17.895942 28.287722 42.977025 0.586100 0.852363 0.048348 -0.012773 918158.000000 0 0 1
28.289565 18.257742 28.685052 44.232079 0.573126 0.865168 0.054970 -0.017630 678939.000000 0 0 1
29.303465 18.187742 27.551472 44.142617 0.555479 0.896757 0.049861 -0.003244 -308095.000000 0 0 1
29.250965 19.192942 26.521802 43.902095 0.580685 0.922145 0.055499 -0.014762 -5833.730000 0 0 1
30.369265 19.028842 25.685372 44.092260 0.559736 0.948950 0.050605 -0.016187 -56565.200000 0 0 1
30.794665 20.302842 24.906352 44.506664 0.582883 0.976882 0.055125 -0.018334 -632800.000000 0 0 1
29.903065 20.649742 23.914772 43.503120 0.604360 0.988761 0.063985 -0.027072 -201453.000000 0 0 1
30.356865 21.652442 22.973432 43.796645 0.619572 1.018612 0.060194 -0.033397 -164535.000000 0 0 1
31.101565 20.978042 21.840832 43.409763 0.593407 1.043577 0.050724 -0.016786 -111291.000000 0 0 1
30.241365 20.164742 21.078032 42.017144 0.588090 1.045288 0.058724 -0.012560 524619.000000 0 0 1
30.905965 19.820742 19.864632 41.744989 0.570252 1.074859 0.056081 -0.008999 501232.000000 0 0 1
31.882865 18.593242 19.885132 41.924268 0.527955 1.076615 0.050515 -0.007660 107821.000000 0 0 1
31.227365 17.362942 20.046632 40.969349 0.507451 1.059500 0.051219 -0.002490 -200301.000000 0 0 1
32.148165 16.337542 20.151132 41.309659 0.470182 1.061221 0.035437 0.007850 -872308.000000 0 0 1
31.511965 14.915042 20.215532 40.300498 0.442072 1.045326 0.030844 0.010603 206628.000000 0 0 1
30.968065 14.432542 21.453032 40.342929 0.436117 1.010111 0.019314 0.004704 774910.000000 0 0 1
29.821765 15.130542 21.934032 39.992158 0.469523 0.990277 0.022982 0.010907 -347197.000000 0 0 1
29.146465 14.576942 23.154632 39.976751 0.463749 0.953046 0.014409 0.006910 -40161.500000 0 0 1
28.582365 13.274742 23.011532 39.021801 0.434796 0.940097 0.015779 0.004853 139102.000000 0 0 1
28.004365 12.786642 24.193062 39.154143 0.428324 0.904737 0.012081 0.008296 -176659.000000 0 0 1
27.487265 11.361842 23.983602 38.208041 0.391961 0.892187 0.017151 0.008170 -421788.000000 0 0 1
26.389165 11.314042 23.122032 36.864942 0.405033 0.892831 0.037095 0.004456 -7548.770000 0 0 1
25.991965 9.942342 22.731532 35.932645 0.365344 0.885871 0.021561 0.005696 -390787.000000 0 0 1
24.773265 9.715142 21.847532 34.429832 0.373732 0.883367 0.026708 -0.005116 -1562290.000000 0 0 1
23.594065 9.828942 22.524132 34.067940 0.394722 0.848441 0.028975 -0.004291 -1404890.000000 0 0 1
22.554965 9.415842 21.718032 32.696444 0.395469 0.844330 0.034205 -0.001101 -102230.000000 0 0 1
21.083765 9.405542 22.225732 32.046412 0.419609 0.804394 0.027722 -0.010273 492918.000000 0 0 1
20.656565 8.369242 23.109232 32.105677 0.384948 0.767302 0.034247 -0.007852 280394.000000 0 0 1
19.291865 8.578742 23.401232 31.518067 0.418423 0.734046 0.052659 -0.018572 -100030.000000 0 0 1
18.769365 7.877342 24.652892 31.970403 0.397366 0.690204 0.048568 -0.014787 -512939.000000 0 0 1
18.786265 6.461242 24.615412 31.632103 0.331261 0.679037 0.051311 -0.014956 116969.000000 0 0 1
18.371065 5.892642 25.807682 32.221976 0.310389 0.641943 0.048275 -0.019801 -211494.000000 0 0 1
18.558965 4.395042 25.749122 32.043234 0.232531 0.637520 0.045281 -0.022690 -232723.000000 0 0 1
19.904365 4.040942 25.597422 32.676306 0.200296 0.670738 0.051553 -0.018080 -454410.000000 0 0 1
20.208865 2.672842 25.589462 32.716401 0.131498 0.672671 0.060508 -0.015982 410284.000000 0 0 1
21.663665 2.282042 25.177672 33.293201 0.104953 0.713248 0.065361 -0.016122 801686.000000 0 0 1
22.610065 2.653142 26.177932 34.692050 0.116809 0.715782 0.068294 -0.026559 382751.000000 0 0 1
23.974165 2.485842 25.828752 35.327955 0.103319 0.750843 0.076741 -0.026508 234530.000000 0 0 1
24.900765 2.965942 26.934622 36.801070 0.118552 0.749693 0.053111 -0.027307 -1021450.000000 0 0 1
24.942865 2.066742 28.029982 37.577890 0.082670 0.728886 0.061022 -0.029816 -31473.900000 0 0 1
25.739165 2.346542 29.144612 38.954066 0.090915 0.725483 0.058687 -0.024909 528888.000000 0 0 1
27.289465 2.403642 28.923292 39.837786 0.087853 0.758270 0.057208 -0.022095 -331954.000000 0 0 1
27.715365 3.560142 28.231142 39.721700 0.127754 0.780270 0.050254 -0.007119 -116489.000000 0 0 1
29.097665 3.582042 27.960022 40.512566 0.122488 0.809091 0.042420 -0.001668 52558.700000 0 0 1
29.676365 2.583542 26.961722 40.178300 0.086838 0.835170 0.045934 -0.001785 -910671.000000 0 0 1
29.262565 2.885342 25.652502 39.021453 0.098284 0.853440 0.039061 0.008133 3241.070000 0 0 1
29.635265 1.908042 24.735112 38.648613 0.064295 0.876298 0.042739 0.013517 -253114.000000 0 0 1
28.992365 2.130042 23.347432 37.285344 0.073337 0.894149 0.053940 0.005674 327599.000000 0 0 1
29.594565 3.189442 22.572632 37.356854 0.107357 0.921980 0.046012 0.006857 1087670.000000 0 0 1
30.975765 3.020142 22.160732 38.206247 0.097193 0.952032 0.032197 0.007390 1216780.000000 0 0 1
31.456065 4.443442 21.652532 38.445550 0.140330 0.972543 0.027327 0.001695 -449795.000000 0 0 1
30.928565 4.904742 20.398732 37.372997 0.157273 0.993435 0.034347 -0.000788 -38317.700000 0 0 1
31.526665 6.081542 19.998532 37.826671 0.190561 1.013741 0.036648 0.001060 -859442.000000 0 0 1
33.020165 6.199342 19.647432 38.920235 0.185584 1.041631 0.022699 0.001736 42465.700000 0 0 1
33.916965 6.041942 20.753132 40.218877 0.176290 1.028616 0.025254 -0.005019 250710.000000 0 0 1
33.936265 7.199142 21.576532 40.853941 0.209038 1.014390 0.037537 -0.007289 -1078580.000000 0 0 1
34.712765 7.056442 22.882132 42.170622 0.200548 0.997257 0.041859 -0.004455 -392410.000000 0 0 1
34.141065 6.253342 23.842392 42.109100 0.181154 0.968902 0.038133 0.008926 656785.000000 0 0 1
35.179965 5.789042 24.750392 43.401899 0.163093 0.963973 0.036541 0.000507 821282.000000 0 0 1
34.692865 4.775742 25.787102 43.489967 0.136798 0.936087 0.025828 0.005331 -42644.000000 0 0 1
34.600265 3.491242 25.254232 42.978406 0.100562 0.942703 0.028745 0.002908 139622.000000 0 0 1
33.814065 2.671042 26.112982 42.806697 0.078828 0.914709 0.040849 0.003550 88757.400000 0 0 1
33.614265 1.207242 25.691002 42.324979 0.035899 0.918524 0.020523 0.005543 -194708.000000 0 0 1
32.783065 0.801542 24.635472 41.015586 0.024445 0.926499 0.031632 0.002381 -140834.000000 0 0 1
32.860065 -0.577058 24.466642 40.972350 -0.017559 0.930853 0.024553 -0.001021 218043.000000 0 0 1
31.896765 -1.164358 23.362832 39.554788 -0.036488 0.938939 0.033877 0.007208 -278187.000000 0 0 1
30.578065 -1.224658 23.790832 38.762373 -0.040029 0.909981 0.039414 0.005775 -863695.000000 0 0 1
29.803965 -2.013658 22.885132 37.630578 -0.067461 0.917065 0.056904 0.000616 405218.000000 0 0 1
28.282765 -1.869558 23.083532 36.554883 -0.066006 0.887341 0.064643 0.005154 -239207.000000 0 0 1
27.704465 -0.649758 22.746932 35.852231 -0.023449 0.883482 0.059695 0.006266 1912000.000000 0 0 1
26.238765 -0.780958 22.898932 34.834520 -0.029755 0.853482 0.071478 0.000323 2595900.000000 0 0 1
25.370765 0.534042 22.825332 34.131462 0.021046 0.838273 0.076706 0.002470 370765.000000 0 0 1
25.398465 1.231542 21.610532 33.370853 0.048451 0.866383 0.067932 -0.004998 -113053.000000 0 0 1
24.539265 2.319642 21.660332 32.813507 0.094248 0.849839 0.053517 -0.006345 -168123.000000 0 0 1
24.838165 3.250942 20.461732 32.344792 0.130145 0.885874 0.049091 -0.011177 -67408.000000 0 0 1
24.459765 2.782342 19.188932 31.212764 0.113265 0.908691 0.062314 -0.009041 46612.500000 0 0 1
23.827365 3.787742 18.460932 30.379209 0.157647 0.917656 0.050067 -0.008529 -71278.000000 0 0 1
23.382465 3.399442 17.022432 29.121454 0.144373 0.946493 0.063989 -0.013054 330779.000000 0 0 1
24.511265 3.270742 16.160232 29.540700 0.132655 0.991961 0.069375 -0.017415 489197.000000 0 0 1
24.196265 3.433542 14.801932 28.571763 0.140963 1.026213 0.060499 -0.022811 -167088.000000 0 0 1
23.503765 2.212542 14.117832 27.507008 0.093859 1.031835 0.075940 -0.011041 713408.000000 0 0 1
22.115965 1.993042 14.363932 26.446373 0.089875 0.996631 0.061983 -0.003038 786139.000000 0 0 1
21.627965 0.776142 13.860132 25.699699 0.035871 1.001178 0.068394 -0.000585 -1303820.000000 0 0 1
20.149765 0.517442 14.011732 24.548104 0.025674 0.963333 0.063506 -0.016466 -706996.000000 0 1 0
19.215765 1.143142 13.116032 23.293405 0.059420 0.972689 0.057782 -0.013540 705823.000000 0 1 0
19.158565 0.767742 11.753532 22.489677 0.040052 1.020876 0.057334 -0.013853 -1415450.000000 0 1 0
19.189165 -0.739258 11.319632 22.291358 -0.038506 1.038163 0.072905 -0.009481 1003570.000000 0 1 0
20.443665 -1.458058 11.547532 23.524771 -0.071200 1.057712 0.077390 -0.021062 1652290.000000 0 1 0
21.517165 -1.031458 10.717732 24.060799 -0.047900 1.109127 0.074725 -0.015827 -496732.000000 0 1 0
22.845465 -1.757058 11.011732 25.421659 -0.076759 1.122797 0.103440 -0.026395 -372302.000000 0 0 1
23.346665 -1.266058 12.217732 26.380725 -0.054176 1.089272 0.099104 -0.032775 -90744.000000 0 0 1
24.087865 -2.339858 12.773132 27.365180 -0.096835 1.085166 0.077358 -0.027252 -150383.000000 0 0 1
24.358565 -2.033058 14.269732 28.303679 -0.083271 1.042381 0.110695 -0.030419 275496.000000 0 0 1
25.432265 -1.114358 14.420432 29.257320 -0.043789 1.055396 0.083605 -0.014677 310108.000000 0 0 1
25.878565 -0.949858 15.747632 30.308254 -0.036688 1.024434 0.084464 -0.028930 -470859.000000 0 0 1
27.050965 0.024242 15.915232 31.385505 0.000896 1.038993 0.093177 -0.019451 -701460.000000 0 0 1
28.220265 -0.656658 15.510432 32.208509 -0.023265 1.068359 0.081151 -0.017013 -601052.000000 0 0 1
29.267965 0.282742 15.675632 33.202698 0.009660 1.079103 0.062597 -0.008723 -1286730.000000 0 0 1
30.588665 -0.409958 15.826832 34.443041 -0.013401 1.093356 0.057254 -0.004539 -1085350.000000 0 0 1
30.986065 -1.012158 14.592432 34.265139 -0.032653 1.130875 0.073964 -0.004572 -162824.000000 0 0 1
32.151565 -1.776358 14.696132 35.395690 -0.055193 1.142639 0.062570 -0.003424 -309649.000000 0 0 1
32.745665 -2.379758 13.419432 35.468620 -0.072546 1.182787 0.067359 -0.008509 -86482.600000 0 0 1
33.301065 -1.438058 12.528032 35.608714 -0.043157 1.211276 0.068302 -0.006831 408384.000000 0 0 1
33.901665 -2.063258 11.381032 35.820494 -0.060785 1.247468 0.077720 -0.013339 116368.000000 0 0 1
33.164465 -1.575558 10.113032 34.707889 -0.047472 1.275132 0.100279 -0.009977 1099.530000 0 0 1
33.448065 -0.224058 9.716132 34.831401 -0.006699 1.288098 0.088510 -0.006594 279838.000000 0 0 1
32.341865 0.386542 9.121332 33.605719 0.011951 1.295926 0.073125 -0.008078 -510868.000000 0 0 1
32.617465 1.847542 8.725332 33.814847 0.056582 1.309811 0.060099 -0.005974 -167955.000000 0 0 1
33.614565 1.999842 7.751032 34.554549 0.059423 1.344558 0.077573 -0.010570 212690.000000 0 0 1
33.944165 3.333742 7.452132 34.912096 0.097899 1.355687 0.069648 -0.008415 315609.000000 0 0 1
35.019665 3.337042 6.301732 35.738279 0.095004 1.393540 0.080617 -0.015638 190989.000000 0 0 1
35.251365 4.641442 5.773632 36.021335 0.130914 1.409818 0.069728 -0.016711 159489.000000 0 0 1
35.697265 4.506142 4.428332 36.252037 0.125568 1.448336 0.074261 -0.016954 -520359.000000 0 0 1
36.019065 5.943542 3.886132 36.712406 0.163537 1.464744 0.068575 -0.021019 90698.600000 0 0 1
34.973365 6.910842 3.856432 35.857608 0.195090 1.463039 0.066755 -0.025899 343451.000000 0 0 1
35.466865 8.126942 3.293632 36.534829 0.225253 1.480523 0.056473 -0.021851 784180.000000 0 0 1
34.259565 9.142242 3.042532 35.588698 0.260776 1.485200 0.082103 -0.023978 1680640.000000 0 0 1
33.219365 8.891242 2.089232 34.452072 0.261522 1.510117 0.089290 -0.030183 1140060.000000 0 0 1
32.278365 7.835042 2.451832 33.306039 0.238128 1.497114 0.099117 -0.029908 628170.000000 0 0 1
30.983965 7.892842 1.579732 32.012476 0.249434 1.521429 0.109322 -0.032685 290001.000000 0 0 1
31.292065 7.759942 0.217032 32.240613 0.243081 1.564065 0.100084 -0.027489 1090580.000000 0 0 1
30.095965 7.669142 -0.603168 31.063591 0.249513 1.590215 0.106715 -0.020439 818539.000000 0 0 1
30.461965 7.519942 -2.136468 31.449091 0.242024 1.638783 0.073091 -0.013477 372572.000000 0 0 1
29.433065 6.926242 -2.962168 30.381781 0.231117 1.668450 0.082262 -0.012882 1172320.000000 0 0 1
29.918465 6.691642 -4.253068 30.951272 0.220041 1.708644 0.069379 -0.008432 368713.000000 0 0 1
28.809765 5.972242 -5.128868 29.865959 0.204404 1.743381 0.088354 -0.002178 343919.000000 0 0 1
28.757865 4.575042 -5.062768 29.556343 0.157766 1.742937 0.098393 -0.009300 1040940.000000 0 0 1
27.648765 4.086142 -5.824768 28.549583 0.146725 1.776262 0.089408 -0.012260 107847.000000 0 0 1
27.366265 2.578542 -5.710468 28.074380 0.093946 1.775631 0.088640 -0.000662 -448201.000000 0 0 1
26.786665 2.269042 -4.476668 27.252789 0.084506 1.735809 0.076956 -0.009237 246093.000000 0 0 1
26.496765 0.887842 -4.525468 26.895105 0.033495 1.739864 0.060727 -0.009676 -265107.000000 0 0 1
26.577965 0.242542 -3.077668 26.756664 0.009125 1.686076 0.073766 -0.012731 -950567.000000 0 0 1
27.807665 0.391642 -2.483268 27.921072 0.014083 1.659853 0.099530 -0.022445 -529476.000000 0 0 1
27.794365 -0.057858 -1.209368 27.820723 -0.002082 1.614280 0.096328 -0.020742 -649811.000000 0 0 1
28.981565 0.400542 -0.369368 28.986686 0.013820 1.583539 0.106330 -0.021501 -439289.000000 0 0 1
30.178065 -0.251258 -0.746868 30.188351 -0.008326 1.595539 0.107655 -0.020660 -300271.000000 0 0 1
31.224765 0.304242 0.001632 31.226247 0.009743 1.570744 0.097556 -0.018917 -300177.000000 0 0 1
-2.960535 -21.220758 -8.588731 23.083579 1.432180 1.952036 0.012597 0.004678 349659.000000 0 1 0
-3.542235 -21.853858 -7.431031 23.352917 1.410106 1.894633 0.009552 0.005263 -103672.000000 0 1 0
-2.719835 -22.887758 -6.892831 24.057391 1.452517 1.861385 0.004796 -0.000158 52005.000000 0 1 0
-3.222635 -23.473858 -5.524331 24.329521 1.434363 1.799857 0.005761 0.004402 -611297.000000 0 1 0
-3.199635 -22.588758 -4.454731 23.245091 1.430085 1.763631 0.018970 -0.005234 -209642.000000 0 1 0
-3.416635 -23.276658 -3.233531 23.747250 1.425053 1.707385 0.017222 -0.009736 -184682.000000 0 1 0
-3.080135 -22.417158 -1.996131 22.715649 1.434251 1.658785 0.017015 -0.023602 655742.000000 0 1 0
-1.677135 -22.482158 -1.718231 22.610009 1.496336 1.646864 0.035582 -0.019349 112949.000000 0 1 0
-1.302535 -22.271758 -0.371931 22.312914 1.512379 1.587466 0.033994 -0.020587 -1318420.000000 0 1 0
0.149765 -22.486158 -0.169231 22.487293 -1.564136 1.578322 0.041098 -0.019328 -1100520.000000 0 1 0
1.023165 -21.506358 -0.762231 21.544170 -1.523257 1.606184 0.031237 -0.016425 -4285.570000 0 1 0
2.084365 -21.201758 0.120469 21.304310 -1.472800 1.565142 0.028166 -0.015190 -276113.000000 0 1 0
3.075165 -20.208958 -0.460231 20.446770 -1.419786 1.593307 0.027769 -0.013591 47270.900000 0 1 0
3.810265 -20.750258 -1.543631 21.153584 -1.389194 1.643834 0.020608 -0.005445 -73104.800000 0 1 0
4.673465 -19.792358 -2.179531 20.453094 -1.338919 1.677561 0.023649 0.000812 222892.000000 0 1 0
5.435565 -20.374658 -3.389131 21.357861 -1.310087 1.730153 0.025135 0.002046 369926.000000 0 1 0
6.567265 -21.155158 -2.925731 22.343446 -1.269795 1.702117 0.036690 -0.005965 999961.000000 0 1 0
7.344865 -21.775958 -4.000831 23.326938 -1.245487 1.743160 0.033267 -0.000103 770466.000000 0 1 0
8.566065 -21.086958 -4.613931 23.223385 -1.184934 1.770803 0.036958 0.002208 -349700.000000 0 1 0
8.127265 -19.894158 -5.227431 22.116871 -1.182962 1.809409 0.033417 -0.004170 -331964.000000 0 1 0
9.203365 -19.176058 -5.765031 22.037665 -1.123325 1.835475 0.039627 -0.012805 -482790.000000 0 1 0
8.912365 -17.957658 -6.609531 21.109088 -1.110114 1.889265 0.029964 -0.007319 -135514.000000 0 1 0
9.771465 -18.021758 -7.721031 21.906154 -1.073958 1.930994 0.032917 0.007188 236020.000000 0 1 0
9.668365 -16.797358 -8.414531 21.128957 -1.048520 1.980401 0.032902 0.005349 25055.000000 0 1 0
10.276165 -16.817858 -9.828531 22.023622 -1.022308 2.033392 0.033674 0.005184 -149550.000000 0 1 0
9.617365 -17.621058 -10.801531 22.796238 -1.071193 2.064431 0.036271 0.006470 -158832.000000 0 1 0
8.947565 -16.774558 -11.680731 22.313318 -1.080786 2.121735 0.023299 0.000116 -112872.000000 0 1 0
8.296765 -17.498458 -12.898531 23.268099 -1.128048 2.158371 0.027512 -0.004091 18665.600000 0 1 0
7.202165 -18.314958 -12.542331 23.337072 -1.196132 2.138198 0.022474 0.002434 -4792.380000 0 1 0
6.645265 -18.773958 -13.745031 24.198077 -1.230596 2.174896 0.015213 0.003561 -134371.000000 0 1 0
5.492365 -19.801058 -13.626331 24.656132 -1.300221 2.156343 0.015583 0.015488 -66747.000000 0 1 0
5.825565 -21.005658 -12.957331 25.358771 -1.300262 2.107098 0.028816 0.004232 268621.000000 0 0 1
4.681365 -21.783458 -12.636031 25.614517 -1.359111 2.086693 0.034272 0.007338 476096.000000 0 0 1
5.200665 -23.201658 -12.389831 26.811784 -1.350291 2.051163 0.025245 -0.000094 70618.300000 0 0 1
5.811665 -23.770458 -13.571531 27.982076 -1.331009 2.077169 0.035354 -0.008636 71569.300000 0 0 1
5.438665 -25.122608 -13.736431 29.144708 -1.357601 2.061581 0.037816 -0.007536 808490.000000 0 0 1
3.940165 -25.445308 -14.074031 29.343942 -1.417168 2.071021 0.037388 -0.012155 792136.000000 0 0 1
2.986965 -25.167328 -13.041731 28.502686 -1.452665 2.046047 0.044904 -0.009478 -183847.000000 0 0 1
1.679965 -25.232428 -13.568831 28.698621 -1.504315 2.063267 0.042737 -0.019146 345482.000000 0 0 1
0.826565 -26.434108 -13.065031 29.498140 -1.539538 2.029638 0.041168 -0.014596 -391955.000000 0 0 1
1.317065 -27.670618 -13.631131 30.874026 -1.523234 2.028075 0.049281 -0.009205 132238.000000 0 0 1
0.776265 -28.851318 -13.131831 31.708770 -1.543897 1.997793 0.038230 -0.006142 535335.000000 0 0 1
-0.706335 -29.255338 -13.421631 32.194935 1.546657 2.000814 0.017097 -0.011129 1479850.000000 0 0 1
-1.749835 -28.370328 -12.940631 31.231352 1.509196 1.998022 0.013656 -0.010760 -149892.000000 0 0 1
-2.988635 -28.785698 -13.384531 31.885639 1.467343 2.003985 0.013891 -0.006754 -239868.000000 0 0 1
-4.250635 -28.054258 -12.804831 31.129937 1.420425 1.994715 0.016449 -0.011405 604759.000000 0 0 1
-4.604235 -28.203298 -11.445931 30.783670 1.408972 1.951763 0.002827 -0.020061 18811.500000 0 0 1
-5.296935 -29.403648 -11.171831 31.897364 1.392562 1.928627 0.008127 -0.017880 -637961.000000 0 0 1
-5.624935 -29.636948 -9.645731 31.670628 1.383233 1.880277 -0.007215 -0.012965 -358075.000000 0 0 1
-6.808935 -29.142668 -9.087831 31.276914 1.341272 1.865609 -0.000598 -0.008459 -529218.000000 0 0 1
-6.998235 -27.744028 -9.211731 30.059314 1.323708 1.882260 0.002861 -0.012299 -932604.000000 0 0 1
-8.424235 -27.233638 -8.813631 29.838211 1.270800 1.870650 0.008410 -0.012276 294791.000000 0 0 1
-9.459135 -27.487828 -9.716931 30.650851 1.239369 1.893382 0.033680 -0.015464 -349469.000000 0 0 1
-9.740435 -28.808888 -9.989431 32.009636 1.244757 1.888173 0.035948 -0.021828 -1006090.000000 0 0 1
-11.018135 -29.065728 -10.851331 32.923657 1.208457 1.906666 0.053382 -0.025184 -315961.000000 0 0 1
-10.949535 -28.486938 -12.127031 32.839958 1.203836 1.949027 0.060298 -0.027047 -181755.000000 0 0 1
-11.774835 -29.021338 -13.132831 33.961096 1.185360 1.967849 0.067783 -0.029653 -448339.000000 0 0 1
-11.859035 -28.095078 -14.396031 33.722630 1.171381 2.011853 0.070369 -0.027174 -308055.000000 0 0 1
-12.972435 -27.238038 -14.490231 33.468815 1.126319 2.018556 0.061267 -0.035150 -121872.000000 0 0 1
-13.066535 -26.260778 -13.479831 32.281088 1.109096 2.001573 0.067831 -0.028411 -197970.000000 0 0 1
-13.919335 -25.015858 -13.789831 31.775784 1.063037 2.019694 0.089712 -0.028996 171618.000000 0 0 1
-13.331235 -24.230858 -14.840031 31.386029 1.067818 2.063288 0.082335 -0.022539 272809.000000 0 0 1
-14.271435 -23.259458 -15.202931 31.237883 1.020455 2.079084 0.094463 -0.024717 -171087.000000 0 0 1
-14.027035 -22.606958 -16.602931 31.360637 1.015458 2.128712 0.085123 -0.017754 31492.000000 0 0 1
-13.131535 -21.513658 -16.529831 30.141499 1.022778 2.151255 0.077124 -0.011197 328307.000000 0 0 1
-13.024835 -20.911158 -17.794431 30.390206 1.013734 2.196332 0.053086 -0.003889 -335418.000000 0 0 1
-13.098235 -19.354758 -17.836531 29.399188 0.975849 2.222701 0.060174 -0.000413 539008.000000 0 0 1
-11.979335 -18.587758 -17.365031 28.116783 0.998315 2.236489 0.043957 0.009897 728642.000000 0 0 1
-12.394335 -17.242658 -17.392531 27.448660 0.947552 2.257044 0.051721 0.012214 148890.000000 0 0 1
-11.197335 -16.395058 -17.838431 26.690595 0.971591 2.302773 0.052085 0.007228 712561.000000 0 0 1
-10.262435 -16.225958 -16.744031 25.474730 1.006843 2.288000 0.043848 0.016034 706018.000000 0 0 1
-8.968635 -15.779258 -17.132831 24.959072 1.053950 2.327374 0.043438 0.013557 101423.000000 0 1 0
-8.284235 -14.981958 -15.986131 23.423151 1.065693 2.321964 0.040905 0.017774 -18464.100000 0 1 0
-7.907235 -15.578458 -14.824431 22.912365 1.101107 2.274447 0.049451 0.012449 -374265.000000 0 1 0
-6.918535 -16.553858 -14.938931 23.346691 1.174920 2.265130 0.055966 0.007730 -850403.000000 0 1 0
-6.549935 -17.307858 -13.657131 22.999583 1.209016 2.206569 0.044623 0.003069 -411671.000000 0 1 0
-5.866235 -16.484258 -12.647231 21.589255 1.228903 2.196677 0.040161 -0.005061 595731.000000 0 1 0
-5.490835 -17.152958 -11.450931 21.342377 1.260994 2.137122 0.026876 -0.010559 -331442.000000 0 1 0
-4.597135 -18.373558 -11.465431 22.139950 1.325626 2.115146 0.031802 -0.006982 243476.000000 0 1 0
-3.206235 -18.110558 -11.726531 21.812468 1.395575 2.138393 0.024834 0.003611 152769.000000 0 1 0
-2.501035 -19.339958 -11.824531 22.805891 1.442191 2.115876 0.032230 0.016163 640641.000000 0 1 0
-1.013835 -18.897858 -12.036731 22.428548 1.517200 2.137282 0.014271 0.026210 -93973.300000 0 1 0
-0.777335 -18.468358 -13.378131 22.817951 1.528731 2.197278 0.025089 0.014739 760383.000000 0 1 0
0.517265 -17.859858 -13.574831 22.439209 -1.541842 2.220512 0.021062 0.011248 1689450.000000 0 1 0
1.842465 -18.710858 -13.529431 23.163255 -1.472642 2.194555 0.024269 -0.000645 304091.000000 0 1 0
1.952965 -19.554958 -14.678831 24.529136 -1.471256 2.212329 0.043425 0.003061 404249.000000 0 1 0
1.154665 -20.769958 -14.602831 25.415882 -1.515260 2.182857 0.039529 0.003608 -889682.000000 0 0 1
1.283865 -21.666058 -15.853531 26.877515 -1.511609 2.201662 0.055151 0.000227 283311.000000 0 0 1
2.493365 -22.393858 -16.056231 27.667748 -1.459912 2.189922 0.043103 0.003227 533857.000000 0 0 1
3.605265 -21.495358 -16.226531 27.172572 -1.404620 2.210759 0.037030 -0.005108 -762307.000000 0 0 1
4.894865 -22.272058 -16.549431 28.176017 -1.354460 2.198588 0.037783 -0.002506 -131407.000000 0 0 1
4.996165 -22.750258 -17.892231 29.371207 -1.354619 2.225817 0.032476 -0.003384 -274194.000000 0 0 1
6.243665 -23.342758 -18.109631 30.196464 -1.309437 2.213956 0.040898 -0.012239 -248066.000000 0 0 1
6.617065 -23.274358 -19.576231 31.124108 -1.293798 2.251028 0.045473 -0.004034 -182932.000000 0 0 1
6.941265 -21.966958 -20.081131 30.561090 -1.264738 2.287737 0.056185 -0.022326 -10122.200000 0 0 1
7.371365 -22.027558 -21.429531 31.603404 -1.247868 2.315939 0.041078 -0.019667 -134188.000000 0 0 1
7.558265 -20.601258 -21.947731 31.036142 -1.219160 2.356279 0.041654 -0.020564 661586.000000 0 0 1
6.249065 -20.052958 -22.113931 30.499145 -1.268706 2.381928 0.053569 -0.020481 508181.000000 0 0 1
6.281965 -18.668258 -22.267031 29.728565 -1.246194 2.417365 0.056799 -0.020454 1187130.000000 0 0 1
4.869665 -18.040658 -22.633131 29.350257 -1.307152 2.451425 0.054356 -0.019239 -418189.000000 0 0 1
4.267565 -18.457458 -23.821631 30.436162 -1.343578 2.469749 0.055709 -0.013622 181114.000000 0 0 1
3.080765 -17.766258 -24.199431 30.178527 -1.399098 2.501224 0.047278 -0.005465 637646.000000 0 0 1
1.891365 -17.853158 -23.216031 29.347855 -1.465250 2.483343 0.035211 0.012527 -1328040.000000 0 0 1
2.018065 -17.051558 -22.090331 27.978759 -1.452994 2.480854 0.052426 0.002924 -529567.000000 0 0 1
1.094765 -15.993058 -22.149431 27.341794 -1.502450 2.515109 0.035966 -0.000243 -71178.700000 0 0 1
1.111265 -15.163058 -20.855831 25.809280 -1.497639 2.511673 0.033587 -0.006197 -920839.000000 0 0 1
2.236165 -14.365658 -20.827831 25.400218 -1.416375 2.532183 0.032306 -0.002107 -842416.000000 0 0 1
2.250465 -13.549258 -19.712331 24.025465 -1.406204 2.533040 0.030176 -0.010230 57842.300000 0 1 0
3.491965 -12.658258 -19.536831 23.539606 -1.301626 2.549825 0.025182 -0.009943 -47704.300000 0 1 0
4.718465 -13.317758 -19.250831 23.879302 -1.230297 2.508450 0.020797 -0.009148 919062.000000 0 1 0
5.926765 -12.525858 -19.270831 23.735808 -1.128848 2.518176 0.034123 -0.009230 1193410.000000 0 1 0
6.070565 -11.365658 -18.199131 22.298841 -1.080231 2.525508 0.025921 -0.009680 -567426.000000 0 1 0
5.249865 -10.189758 -18.311031 21.602919 -1.095055 2.582277 0.002424 0.003799 56074.000000 0 1 0
5.630565 -9.188758 -19.266331 22.075508 -1.021042 2.631598 0.019642 -0.000238 -404519.000000 0 1 0
4.874465 -9.268358 -20.619931 23.126704 -1.086624 2.671678 0.031040 -0.012135 130223.000000 0 1 0
3.498665 -8.970758 -20.449231 22.602792 -1.198934 2.701522 0.027668 -0.021678 -403101.000000 0 1 0
2.884465 -9.180458 -21.714131 23.750883 -1.266367 2.724437 0.032242 -0.024432 92044.000000 0 1 0
1.365565 -8.959158 -21.575531 23.401599 -1.419539 2.743929 0.045639 -0.028320 -88582.400000 0 1 0
1.020465 -7.617058 -21.526131 22.856842 -1.437618 2.798684 0.033973 -0.026962 -367170.000000 0 1 0
-0.366035 -7.410458 -21.700831 22.934143 1.521442 2.812153 0.036392 -0.022436 184133.000000 0 1 0
-0.910435 -6.535258 -22.830631 23.765021 1.432376 2.860245 0.051749 -0.024337 -21634.200000 0 1 0
-0.674035 -7.101658 -24.096531 25.130274 1.476167 2.853771 0.057467 -0.023603 -195874.000000 0 0 1
-1.254235 -6.399658 -25.209001 26.038864 1.377265 2.888449 0.056411 -0.023201 175437.000000 0 0 1
-0.561735 -5.038658 -25.587201 26.084641 1.459770 2.945985 0.059641 -0.021682 -21461.100000 0 0 1
-0.815535 -4.549758 -26.926881 27.320731 1.393432 2.971589 0.052476 -0.015610 -276155.000000 0 0 1
-0.483335 -3.213558 -27.300041 27.492777 1.421510 3.023114 0.041248 -0.011868 -719110.000000 0 0 1
-0.926535 -2.032858 -26.447051 26.541241 1.143146 3.057320 0.042984 -0.011453 417338.000000 0 0 1
-2.337735 -1.901958 -26.335071 26.506950 0.682973 3.027651 0.037645 -0.013651 371044.000000 0 0 1
-2.976535 -1.193858 -27.423031 27.609920 0.381445 3.025175 0.048958 -0.009360 374131.000000 0 0 1
-4.528835 -1.241158 -27.357501 27.757588 0.267489 2.971602 0.054307 -0.011169 507066.000000 0 0 1
-5.095735 -0.328058 -26.456481 26.944750 0.064290 2.950930 0.057962 -0.017559 -1297790.000000 0 0 1
-6.467635 -0.360658 -26.484591 27.265252 0.055706 2.901719 0.057735 -0.031301 -1129420.000000 0 0 1
-7.182735 0.829842 -25.777761 26.772622 -0.115023 2.868126 0.051939 -0.024447 -643846.000000 0 0 1
-7.386435 2.038642 -26.532221 27.616557 -0.269294 2.860439 0.053839 -0.025105 804398.000000 0 0 1
-8.445435 2.063542 -27.516051 28.856830 -0.239643 2.835562 0.067692 -0.027763 928777.000000 0 0 1
-9.899435 1.765242 -27.040171 28.849363 -0.176463 2.785564 0.059929 -0.027126 -226514.000000 0 0 1
-10.915535 2.233142 -27.895801 30.038501 -0.201799 2.761602 0.062799 -0.029853 223073.000000 0 0 1
-12.176435 1.675242 -27.598031 30.211311 -0.136722 2.722602 0.035624 -0.020785 -78073.600000 0 0 1
-13.327635 2.220742 -28.462001 31.506238 -0.165110 2.698376 0.022496 -0.008819 -1025660.000000 0 0 1
-14.541435 1.496042 -28.218441 31.780055 -0.102521 2.663620 0.018592 -0.010563 1205490.000000 0 0 1
-15.682135 2.009042 -28.941941 32.978805 -0.127416 2.641613 0.018048 -0.006595 639069.000000 0 0 1
-16.103235 3.420242 -28.502551 32.915158 -0.209285 2.617823 0.016967 0.000493 -1605400.000000 0 0 1
-15.341835 4.553142 -28.904751 33.039184 -0.288500 2.635949 0.033052 0.001285 46809.500000 0 0 1
-15.632835 5.013342 -30.213191 34.385405 -0.310332 2.643851 0.020881 -0.005975 -270368.000000 0 0 1
-17.043435 5.523042 -30.580481 35.442185 -0.313379 2.611632 0.009125 0.007121 -268052.000000 0 0 1
-17.401535 6.699742 -29.899541 35.237516 -0.367516 2.583968 0.017513 0.011053 529499.000000 0 0 1
-18.406735 7.431142 -30.624931 36.495427 -0.383708 2.566504 0.004358 0.009234 195293.000000 0 0 1
-18.969535 8.662442 -29.876111 36.434368 -0.428370 2.532204 0.023049 0.001878 -539843.000000 0 0 1
-17.988635 9.644642 -29.661441 36.005711 -0.492149 2.538875 0.016564 0.004672 32303.700000 0 0 1
-18.469735 10.824942 -29.059801 36.094079 -0.530129 2.506662 0.034753 -0.002145 -363436.000000 0 0 1
-8.369935 25.269042 31.135552 40.963434 -1.250937 0.707358 0.007099 -0.006758 -507868.000000 0 0 1
-9.102235 26.478942 31.011902 41.781852 -1.239697 0.734399 0.014020 -0.003761 167032.000000 0 0 1
-8.804735 27.426842 32.005882 43.059628 -1.260163 0.732818 0.030620 -0.012151 -160599.000000 0 0 1
-7.472235 28.181242 31.818402 43.155850 -1.311611 0.741745 0.030337 -0.011657 -88367.100000 0 0 1
-7.503935 28.859942 30.552992 42.692981 -1.316417 0.773250 0.047669 -0.012457 819279.000000 0 0 1
-6.170935 29.021142 30.054072 42.232149 -1.361281 0.778967 0.051861 -0.008634 660122.000000 0 0 1
-6.088435 30.203442 29.151812 42.416331 -1.371881 0.813061 0.069197 -0.014971 -142964.000000 0 0 1
-6.458935 31.350742 29.860302 43.774702 -1.367617 0.820116 0.074124 -0.022044 365419.000000 0 0 1
-6.196235 32.534042 29.063572 44.063006 -1.382596 0.850522 0.074066 -0.021575 45372.000000 0 0 1
-6.708535 33.805442 29.783942 45.551022 -1.374896 0.858123 0.073820 -0.024803 -379025.000000 0 0 1
-5.862235 34.181542 30.886362 46.440403 -1.400946 0.843202 0.087854 -0.032545 286983.000000 0 0 1
-6.467335 -33.681367 31.962892 46.881632 1.381090 0.820605 0.077036 -0.037509 191398.000000 0 0 1
-7.547935 34.212442 32.807001 47.997519 -1.353655 0.818230 0.045641 -0.028387 1399.970000 0 0 1
-7.105635 33.176142 33.650915 47.786301 -1.359805 0.789506 0.063659 -0.022582 -250165.000000 0 0 1
-6.860635 31.907242 33.099828 46.483750 -1.359003 0.778350 0.073686 -0.020306 -128160.000000 0 0 1
-6.527535 30.935842 34.223862 46.593002 -1.362844 0.745826 0.073760 -0.014545 1205730.000000 0 0 1
-5.169435 30.998742 -33.742371 46.110657 -1.405554 2.391711 0.069079 -0.020585 1081630.000000 0 0 1
-5.247135 30.420642 -32.437271 44.778616 -1.399991 2.380948 0.084945 -0.011251 1029730.000000 0 0 1
-3.851935 30.284342 -31.656831 43.978788 -1.444283 2.374340 0.069500 -0.013353 1776560.000000 0 0 1
-3.053235 29.129842 -31.920371 43.321820 -1.466363 2.399151 0.057481 -0.005875 458650.000000 0 0 1
-2.552635 28.945642 -33.249891 44.157915 -1.482837 2.423371 0.063628 -0.006910 -368552.000000 0 0 1
-1.920435 27.528542 -33.472581 43.381130 -1.501148 2.452138 0.046797 -0.012678 -992838.000000 0 0 1
-0.672935 27.228242 -32.969061 42.764343 -1.546087 2.451124 0.054188 -0.007603 -624121.000000 0 0 1
-0.132035 25.943242 -33.134831 42.083088 -1.565707 2.477322 0.050858 -0.004994 426049.000000 0 0 1
0.310365 25.516642 33.903768 42.434194 1.558634 0.645211 0.037353 -0.001247 -95675.300000 0 0 1
-0.919035 25.342642 33.208280 41.783777 -1.534548 0.652176 0.029547 -0.001575 515232.000000 0 0 1
-0.835035 25.089142 31.809952 40.522036 -1.537526 0.668094 0.040740 -0.003227 -275420.000000 0 0 1
-0.465035 26.372542 30.961822 40.673845 -1.553165 0.705601 0.031422 -0.007172 98017.800000 0 0 1
-1.503035 27.350842 30.923272 41.310730 -1.515898 0.724919 0.017867 -0.009519 284606.000000 0 0 1
-1.024735 28.644942 30.543172 41.886372 -1.535038 0.753657 0.031067 -0.010935 108927.000000 0 0 1
-2.086335 29.752042 30.712772 42.811344 -1.500787 0.770736 0.041601 -0.019209 88607.200000 0 0 1
-2.107935 30.194342 32.077442 44.103333 -1.501097 0.756381 0.057413 -0.016063 -214987.000000 0 0 1
-2.854635 31.363642 32.278402 45.096810 -1.480029 0.773087 0.068835 -0.012608 -110773.000000 0 0 1
-2.300535 32.205342 33.427165 46.474207 -1.499484 0.768056 0.091061 -0.018195 -10011.300000 0 0 1
-1.194835 32.996842 33.064584 46.727786 -1.534602 0.784700 0.071188 -0.023838 -443125.000000 0 0 1
-0.377435 33.241942 34.166456 47.670913 -1.559443 0.771716 0.060903 -0.020126 486603.000000 0 0 1
1.020065 33.840742 33.768414 47.817802 1.540662 0.786695 0.071287 -0.026937 584170.000000 0 0 1
0.896765 -33.528867 33.246038 47.225927 -1.544057 0.789812 0.081486 -0.035647 338550.000000 0 0 1
2.119765 -33.212967 32.601211 46.587912 -1.507059 0.795709 0.055005 -0.038976 243433.000000 0 0 1
2.180265 -31.752167 32.087532 45.194728 -1.502239 0.781321 0.062497 -0.032850 -203556.000000 0 0 1
2.181465 -30.843567 33.148513 45.331097 -1.500187 0.750639 0.063866 -0.026186 58181.800000 0 0 1
2.105665 -29.519367 32.712093 44.112446 -1.499585 0.735401 0.048772 -0.025933 -392581.000000 0 0 1
1.683265 -28.561467 33.865685 44.333683 -1.511930 0.701490 0.040398 -0.021648 196219.000000 0 0 1
0.283465 -28.375567 33.959696 44.255103 -1.560807 0.696079 0.032487 -0.017572 69935.700000 0 0 1
-0.091835 -27.848367 -33.256511 43.376670 1.567499 2.444468 0.031038 -0.013666 38661.200000 0 0 1
-1.579335 -27.450067 -33.139091 43.060421 1.513325 2.449003 0.055212 -0.017070 19818.600000 0 0 1
-1.964235 -27.407067 -31.796481 42.024062 1.499250 2.428933 0.049755 -0.018644 259254.000000 0 0 1
-3.001235 -26.445667 -31.608021 41.321275 1.457793 2.441734 0.055656 -0.024319 197020.000000 0 0 1
-3.264135 -26.013167 -30.123531 39.934529 1.445969 2.425419 0.060752 -0.026656 154930.000000 0 0 1
-4.089335 -26.822767 -29.278201 39.917372 1.419504 2.394210 0.060559 -0.022298 229719.000000 0 0 1
-4.501835 -26.221467 -28.060301 38.667976 1.400769 2.382808 0.065554 -0.015042 -46122.700000 0 0 1
-3.402035 -25.738667 -27.096531 37.526988 1.439382 2.377564 0.059097 -0.024619 -18539.500000 0 0 1
-2.668235 -24.622267 -27.567091 37.058333 1.462851 2.409659 0.058563 -0.021408 127637.000000 0 0 1
-1.634235 -24.273267 -26.668881 36.098358 1.503571 2.402060 0.051374 -0.018815 -938065.000000 0 0 1
-0.669735 -23.174267 -27.158581 35.708315 1.541904 2.434983 0.029452 -0.014922 406629.000000 0 0 1
0.076765 -23.492867 -28.347831 36.817391 -1.567529 2.449571 0.009984 -0.020839 938866.000000 0 0 1
1.004065 -24.622867 -28.228741 37.472064 -1.530041 2.423904 0.013510 -0.016953 -364010.000000 0 0 1
1.742965 -24.962567 -29.511211 38.692109 -1.501086 2.438303 0.010876 -0.021904 -404078.000000 0 0 1
2.770665 -24.018867 -29.638131 38.249201 -1.455950 2.457305 0.010536 -0.022012 -318179.000000 0 0 1
3.305965 -24.034567 -30.942601 39.319644 -1.434104 2.476647 0.015504 -0.016979 -832204.000000 0 0 1
4.390065 -22.911067 -31.031711 38.822117 -1.381478 2.496977 0.028601 -0.024707 532714.000000 0 0 1
5.607565 -23.052367 -30.257681 38.449756 -1.332177 2.476632 0.030635 -0.031669 1240280.000000 0 0 1
6.404465 -24.193067 -30.451311 39.415784 -1.312009 2.453670 0.036955 -0.018300 -739899.000000 0 0 1
7.083565 -24.330167 -31.797511 40.659755 -1.287485 2.468727 0.058426 -0.015688 -683958.000000 0 0 1
6.262865 -25.171367 -32.611771 41.669519 -1.326939 2.469674 0.018132 -0.013422 404417.000000 0 0 1
6.513165 -25.077367 -33.994741 42.742696 -1.316688 2.490356 0.045944 -0.014183 -74873.100000 0 0 1
6.148965 -23.741467 33.675076 41.659066 -1.317368 0.629454 0.058655 -0.019404 -606443.000000 0 0 1
4.770565 -23.560867 33.699778 41.395021 -1.371019 0.619615 0.067961 -0.026783 -774230.000000 0 0 1
4.553465 -22.433367 32.910374 40.088436 -1.370540 0.607734 0.082558 -0.037911 -630149.000000 0 0 1
3.222065 -21.658967 33.095326 39.683664 -1.423116 0.584517 0.056995 -0.046023 877281.000000 0 0 1
2.020665 -22.418067 32.884740 39.850457 -1.480904 0.600234 0.045594 -0.034849 593922.000000 0 0 1
1.670365 -23.331967 33.948199 41.226824 -1.499327 0.603333 0.037411 -0.032730 -602102.000000 0 0 1
0.302665 -24.012567 33.723565 41.400167 -1.558193 0.618799 0.037586 -0.028889 133435.000000 0 0 1
0.294865 -25.010767 32.677025 41.151104 -1.559007 0.653314 0.044667 -0.028042 109737.000000 0 0 1
-1.029435 -25.413067 32.370362 41.167026 1.530310 0.665970 0.048738 -0.032902 136451.000000 0 0 1
-1.080735 -26.614367 31.375112 41.156897 1.530211 0.703892 0.058383 -0.035253 -480788.000000 0 0 1
-2.337935 -27.109767 31.031892 41.272070 1.484770 0.719878 0.051551 -0.035209 -615172.000000 0 0 1
-2.276235 -28.216967 30.190172 41.386290 1.490302 0.753245 0.060999 -0.040441 -53148.100000 0 0 1
-3.462135 -28.384567 29.215072 40.880197 1.449423 0.774671 0.061220 -0.035342 962007.000000 0 0 1
-4.691335 -28.765667 29.876742 41.738375 1.409132 0.773013 0.051413 -0.029377 1372210.000000 0 0 1
-5.755835 -29.055467 28.935272 41.407726 1.375230 0.797093 0.032073 -0.019837 413887.000000 0 0 1
-6.966535 -29.641067 29.639622 42.492737 1.339956 0.798863 0.023483 -0.014214 -551978.000000 0 0 1
-8.135335 -29.894367 28.872712 42.349621 1.305095 0.820617 0.038757 -0.011775 1418350.000000 0 0 1
-9.348035 -30.196367 29.622152 43.320645 1.270579 0.817854 0.034179 -0.011628 1062640.000000 0 0 1
-9.304835 -31.406967 30.635912 44.850158 1.282768 0.818835 0.022576 -0.010029 -892134.000000 0 0 1
-9.250835 -32.717267 30.083512 45.398406 1.295239 0.846437 0.043186 -0.012339 -245685.000000 0 0 1
-10.441235 -33.166167 29.505982 45.602818 1.265803 0.867125 0.028604 -0.011636 -610916.000000 0 0 1
-10.335835 34.033442 29.122642 45.969914 -1.275952 0.884708 0.049265 -0.010010 -407789.000000 0 0 1
-10.207635 33.113942 30.210622 45.971847 -1.271781 0.853758 0.054989 -0.008337 197387.000000 0 0 1
-10.118135 31.788842 29.776172 44.716077 -1.262643 0.842105 0.057969 -0.015860 -145508.000000 0 0 1
-10.539835 30.789142 30.829052 44.827334 -1.240977 0.812440 0.055235 -0.005181 285542.000000 0 0 1
-11.951935 30.793042 30.997782 45.298153 -1.200558 0.817145 0.034373 0.007680 -15713.700000 0 0 1
-12.387335 29.624842 31.675022 45.104150 -1.174750 0.792224 0.027479 -0.000518 -31806.400000 0 0 1
-12.357035 29.534942 33.223826 46.139265 -1.174540 0.766883 0.039661 -0.010643 182462.000000 0 0 1
-13.392235 30.288842 33.876602 47.374994 -1.154489 0.774067 0.041074 0.008019 567253.000000 0 0 1
-13.774135 29.632142 -33.426641 46.745385 -1.135672 2.367533 0.052998 0.006921 -283285.000000 0 0 1
-14.949035 30.245342 -32.661461 46.957698 -1.111752 2.339982 0.032888 0.007282 -182744.000000 0 0 1
-15.165135 29.513342 -31.465121 45.728247 -1.096138 2.329649 0.025753 0.003020 -198063.000000 0 0 1
-16.224435 30.030742 -30.701751 45.909425 -1.075461 2.303317 0.029916 0.003191 -210674.000000 0 0 1
-16.280035 29.296842 -29.340631 44.544552 -1.063593 2.289860 0.044187 -0.006183 -156247.000000 0 0 1
-16.857035 28.009842 -29.414501 43.976400 -1.029036 2.303484 0.037116 -0.012173 220102.000000 0 0 1
-16.717235 27.464842 -28.103121 42.703266 -1.024021 2.289092 0.040703 -0.015045 -21577.300000 0 0 1
-17.451035 26.111442 -27.932711 42.030732 -0.981644 2.297726 0.015130 -0.015093 1002600.000000 0 0 1
-18.881835 26.134242 -28.068811 42.747871 -0.945133 2.287116 0.016607 -0.010175 1035360.000000 0 0 1
-19.522935 24.853342 -27.913911 42.166575 -0.904944 2.294269 0.004095 -0.007068 -157275.000000 0 0 1
-20.981335 24.811642 -28.353241 43.124706 -0.868848 2.288254 0.040165 -0.005750 -605446.000000 0 0 1
-21.901435 25.337642 -27.447521 43.301679 -0.858011 2.257340 0.032142 -0.005121 631825.000000 0 0 1
-23.265635 25.106142 -27.834131 44.117423 -0.823429 2.253522 0.024372 -0.013998 965146.000000 0 0 1
-24.314935 25.232042 -26.723791 44.068504 -0.803906 2.222340 0.042629 -0.021807 -27115.400000 0 0 1
-24.572635 26.527542 -26.226481 44.669377 -0.823636 2.198298 0.020669 -0.000959 389758.000000 0 0 1
-25.621685 26.592242 -25.244311 44.731346 -0.803984 2.170447 0.026641 0.010209 537116.000000 0 0 1
-25.198085 25.961342 -23.826731 43.320294 -0.800316 2.153176 0.025834 0.002223 -241746.000000 0 0 1
-24.890935 24.541442 -23.743131 42.256092 -0.778328 2.167461 0.027983 -0.004705 -143618.000000 0 0 1
-26.026175 23.697842 -23.759131 42.466997 -0.738607 2.164546 0.029943 -0.006115 76051.800000 0 0 1
-26.847845 23.736642 -22.409831 42.266246 -0.723970 2.129640 0.024174 -0.009116 -194706.000000 0 0 1
-26.222865 23.256042 -21.256031 40.991475 -0.725509 2.115948 0.027190 -0.013053 -190691.000000 0 0 1
-25.192115 24.052542 -20.732631 40.534053 -0.762261 2.107710 0.038731 -0.005947 130882.000000 0 0 1
-24.322535 23.433742 -19.575031 39.037262 -0.766789 2.096064 0.043169 -0.012414 557174.000000 0 0 1
-24.980935 23.448542 -18.331631 38.857817 -0.753767 2.062084 0.040031 -0.019940 58465.300000 0 0 1
-23.987635 23.313442 -17.376531 37.694390 -0.771146 2.049901 0.048621 -0.021934 -40495.500000 0 0 1
-24.590835 23.499242 -15.960631 37.572135 -0.762703 2.009537 0.043157 -0.022398 -9439.590000 0 0 1
-24.880735 24.828242 -15.715231 38.502741 -0.784342 1.991233 0.045773 -0.027402 -127026.000000 0 0 1
-25.121535 24.918842 -14.306431 38.166926 -0.781348 1.955019 0.004656 -0.020969 124755.000000 0 0 1
-25.275905 26.295442 -13.588731 38.922683 -0.805165 1.927429 0.001443 -0.015654 -480578.000000 0 0 1
-24.066435 26.927242 -13.324331 38.494253 -0.841441 1.924248 0.026280 -0.017751 -618989.000000 0 0 1
-24.132835 27.757642 -12.215631 38.756962 -0.855140 1.891448 0.027332 -0.011787 -971363.000000 0 0 1
-22.779735 28.304442 -11.868231 38.221888 -0.893129 1.886525 0.036113 -0.012763 213593.000000 0 0 1
-21.742735 27.271742 -11.633831 36.767384 -0.897727 1.892747 0.033628 -0.017903 1020780.000000 0 0 1
-20.679635 27.825442 -10.887931 36.337991 -0.931667 1.875101 0.031110 -0.012301 -361654.000000 0 0 1
-19.838235 26.777542 -10.165731 34.841562 -0.933175 1.866873 0.058925 -0.012785 -310232.000000 0 0 1
-19.206035 25.965842 -11.108331 34.153942 -0.933942 1.902065 0.054569 -0.022421 -353445.000000 0 0 1
-18.767535 24.779242 -10.586631 32.837600 -0.922583 1.899053 0.061463 -0.011516 -546311.000000 0 0 1
-17.835335 23.957942 -11.457331 31.989883 -0.930861 1.937087 0.053605 -0.014127 -512293.000000 0 0 1
-17.394935 22.832442 -10.860231 30.689555 -0.919753 1.932506 0.041859 -0.013759 -84580.000000 0 0 1
-16.962235 21.821742 -11.775931 30.042943 -0.910045 1.973568 0.039606 -0.006958 -677.492000 0 0 1
-16.679335 20.428042 -11.096731 28.611931 -0.886080 1.969079 0.031990 0.002679 656333.000000 0 0 1
-17.822235 19.646842 -10.663031 28.588996 -0.834056 1.953012 0.034858 0.003974 808222.000000 0 0 1
-17.435335 18.276342 -10.468231 27.342265 -0.808944 1.963685 0.045592 -0.003818 -159873.000000 0 0 1
-18.642135 17.258142 -10.453531 27.470875 -0.746866 1.961167 0.034428 0.006813 810769.000000 0 0 1
-19.283235 16.927042 -11.701131 28.200787 -0.720420 1.998654 0.031962 0.010452 285213.000000 0 0 1
-19.925835 17.951242 -12.427531 29.558916 -0.733314 2.004718 0.033090 0.014783 -471071.000000 0 0 1
-20.669235 17.495142 -13.709931 30.352257 -0.702420 2.039459 0.036102 0.013306 138072.000000 0 0 1
-19.759635 17.096442 -14.704431 29.982525 -0.713264 2.083383 0.027644 0.009104 93639.200000 0 0 1
-20.469435 16.717342 -15.890731 30.838007 -0.684840 2.112150 0.039345 0.008348 648476.000000 0 0 1
-19.590535 16.565342 -17.181231 30.877084 -0.701922 2.160891 0.047224 0.001897 54032.900000 0 0 1
-18.895335 17.667542 -17.754831 31.375305 -0.751830 2.172303 0.036587 -0.003680 274657.000000 0 0 1
-18.306335 17.384742 -19.012131 31.603992 -0.759583 2.216266 0.041691 0.002128 -535847.000000 0 0 1
-17.295735 18.484842 -19.347731 31.861678 -0.818619 2.223380 0.027138 0.001733 -1019770.000000 0 0 1
-16.213435 18.560142 -18.500731 30.816090 -0.852781 2.214747 0.020704 -0.000083 -588078.000000 0 0 1
-15.381635 19.635042 -18.840731 31.258643 -0.906274 2.217723 0.025723 -0.004873 -61840.100000 0 0 1
32.812035 31.420642 1.611769 45.458599 0.763740 1.535333 0.059297 0.003371 -342982.000000 0 0 1
34.096935 31.020342 1.241769 46.112955 0.738186 1.543864 0.063020 0.004963 -356635.000000 0 0 1
34.387245 31.688042 -0.006931 46.761252 0.744570 1.570945 0.050681 0.008434 -613076.000000 0 0 1
35.782505 31.421942 -0.541631 47.623728 0.720604 1.582170 0.026449 0.012383 -378050.000000 0 0 1
-35.348189 32.067542 0.171669 47.726840 -0.736774 1.567199 0.014593 0.011834 -127276.000000 0 0 1
-34.100486 32.012142 -0.464931 46.774315 -0.753821 1.580736 0.020962 0.008811 -531784.000000 0 0 1
-33.234245 33.123242 0.108469 46.922020 -0.783725 1.568485 0.014945 0.009147 -409408.000000 0 0 1
-32.677405 32.854442 1.364969 46.358282 -0.788100 1.541348 0.020390 -0.001072 590780.000000 0 0 1
-31.806495 33.925842 1.830469 46.539946 -0.817629 1.531455 0.023384 0.002823 491542.000000 0 0 1
-31.423355 33.953642 3.298969 46.380602 -0.824082 1.499608 0.017599 0.014195 -119389.000000 0 0 1
-30.853845 -33.456867 3.648469 45.657782 0.825852 1.490802 0.024857 0.017307 118723.000000 0 0 1
-30.132235 -33.492467 4.869569 45.314564 0.838162 1.463127 0.029923 0.004233 -397288.000000 0 0 1
-30.277415 -32.195467 5.668869 44.557896 0.816091 1.443226 0.027864 0.001940 -137930.000000 0 0 1
-31.504195 -31.846667 6.255669 45.231161 0.790804 1.432047 0.032403 -0.004949 -171391.000000 0 0 1
-31.914575 -32.666467 7.352669 46.256891 0.797040 1.411166 0.041194 -0.023406 -333644.000000 0 0 1
-33.012325 -31.918367 8.275769 46.659234 0.768552 1.392487 0.059002 -0.028388 2212560.000000 0 0 1
-34.358700 -31.696967 7.792169 47.391306 0.745125 1.405624 0.050513 -0.022971 1087780.000000 0 0 1
-34.998851 -32.849867 7.282969 48.549716 0.753736 1.420217 0.053093 -0.021779 -397802.000000 0 0 1
35.613805 -32.709367 7.147269 48.880766 -0.742913 1.424052 0.047447 -0.012454 762269.000000 0 0 1
34.890575 -32.745667 8.379369 48.578233 -0.753696 1.397437 0.043708 -0.011563 -735328.000000 0 0 1
33.645825 -32.205867 8.174869 47.287291 -0.763535 1.397047 0.018475 0.000648 -1107910.000000 0 0 1
32.586535 -32.661167 9.195669 47.044600 -0.786542 1.374063 0.025195 -0.010854 502.357000 0 0 1
31.256755 -32.272767 8.862669 45.793702 -0.801390 1.376033 0.032420 -0.013833 156529.000000 0 0 1
30.350685 -32.469567 9.893469 45.533697 -0.819115 1.351771 0.046507 -0.014876 -424540.000000 0 0 1
30.298565 -31.403967 10.981369 44.997807 -0.803311 1.324264 0.053599 -0.012443 -799481.000000 0 0 1
29.780295 -30.142167 10.702369 43.703054 -0.791437 1.323392 0.045909 -0.010947 -354676.000000 0 0 1
30.505275 -29.381967 9.770569 43.466491 -0.766643 1.344075 0.042522 -0.015163 -522664.000000 0 0 1
29.928165 -28.065767 9.338169 42.078305 -0.753296 1.347010 0.044460 -0.021625 -303200.000000 0 0 1
30.426585 -27.627567 8.108569 41.890434 -0.737222 1.376001 0.045713 -0.026841 -233571.000000 0 0 1
29.701275 -26.488367 7.748769 40.544331 -0.728281 1.378495 0.050446 -0.028850 -93726.600000 0 0 1
29.752425 -26.061067 6.288569 40.049121 -0.719357 1.413122 0.039738 -0.016256 237199.000000 0 0 1
31.027705 -25.749567 5.750069 40.728638 -0.692702 1.429143 0.049432 -0.020272 -214569.000000 0 0 1
30.982875 -25.134567 4.439669 40.142193 -0.681558 1.459971 0.041387 -0.013569 1364080.000000 0 0 1
32.377545 -24.491167 3.957869 40.789550 -0.647600 1.473612 0.056903 -0.015841 1773760.000000 0 0 1
33.351555 -25.498867 3.781669 42.152336 -0.652747 1.480961 0.049580 -0.006457 -665502.000000 0 0 1
34.666115 -25.021267 3.704069 42.912975 -0.625194 1.484373 0.053529 -0.010489 -26407.800000 0 0 1
35.676325 -26.179367 3.724769 44.407582 -0.633054 1.486821 0.046521 -0.010482 -352380.000000 0 0 1
35.610705 -27.014167 4.896069 44.965087 -0.648980 1.461694 0.030476 -0.009571 -260405.000000 0 0 1
-35.992854 -28.326267 4.751869 46.048271 0.666762 1.467419 0.030239 -0.013531 -1181110.000000 0 0 1
35.659995 -29.201767 5.959669 46.474682 -0.686156 1.442208 0.036609 -0.011052 1071700.000000 0 0 1
34.342825 -29.744367 5.753369 45.795832 -0.713768 1.444833 0.017076 -0.005791 684918.000000 0 0 1
33.329525 -28.739567 5.697369 44.376570 -0.711583 1.442054 0.026252 -0.012193 -1112420.000000 0 0 1
31.926475 -29.397267 5.577169 43.756187 -0.744178 1.442989 0.037090 -0.011841 -129053.000000 0 0 1
31.716865 -29.865567 4.251969 43.772033 -0.755345 1.473504 0.027127 -0.013775 514167.000000 0 0 1
30.685095 -29.211567 3.479269 42.508776 -0.760802 1.488856 0.031025 -0.010386 -413190.000000 0 0 1
29.301385 -29.819267 3.563369 41.957806 -0.794158 1.485766 0.032990 -0.005124 -688347.000000 0 0 1
29.115195 -30.989767 2.837569 42.615866 -0.816576 1.504162 0.040564 0.001906 19561.100000 0 0 1
27.912605 -31.643267 3.240269 42.319135 -0.847958 1.494154 0.060894 -0.004825 288327.000000 0 0 1
27.939845 -33.005767 2.572969 43.320154 -0.868330 1.511367 0.061053 -0.003509 -69282.100000 0 0 1
27.682915 -33.032067 1.198569 43.114937 -0.873274 1.542993 0.062644 -0.004356 258665.000000 0 0 1
27.860355 34.288042 0.742169 44.186197 0.888457 1.553999 0.064620 0.000098 -44269.500000 0 0 1
27.554655 34.079042 -0.760331 43.831703 0.890863 1.588144 0.058285 -0.005433 136019.000000 0 0 1
28.534485 -33.944167 -1.615731 44.373797 -0.871767 1.607216 0.065554 -0.012993 706658.000000 0 0 1
28.201725 -34.102867 -2.992031 44.354200 -0.879831 1.638305 0.062508 -0.011956 -735797.000000 0 0 1
29.311095 -33.644967 -3.894331 44.791628 -0.854129 1.657850 0.062051 -0.013142 -599587.000000 0 0 1
29.583505 -32.288367 -3.814731 43.957645 -0.829088 1.657688 0.048858 -0.010793 324970.000000 0 0 1
30.555045 -31.794967 -4.737231 44.350559 -0.805282 1.677814 0.052307 -0.013422 132585.000000 0 0 1
30.921595 -30.312567 -4.554631 43.540113 -0.775453 1.675596 0.039998 -0.005362 -114158.000000 0 0 1
29.843735 -29.414367 -4.789031 42.175684 -0.778153 1.684591 0.029650 -0.014537 262244.000000 0 0 1
30.237015 -28.043367 -4.695931 41.506135 -0.747776 1.684177 0.030882 -0.013397 466254.000000 0 0 1
31.187125 -27.424567 -5.805331 41.933823 -0.721291 1.709683 0.037629 -0.015193 228136.000000 0 0 1
32.537995 -27.758967 -5.636531 43.139910 -0.706305 1.701828 0.042968 -0.010710 -441846.000000 0 0 1
33.451835 -27.303567 -6.599631 43.681405 -0.684544 1.722463 0.041155 -0.011148 -37036.000000 0 0 1
33.535105 -28.062867 -7.927731 44.440710 -0.696793 1.750145 0.037748 -0.011297 -1318340.000000 0 0 1
32.419395 -28.035867 -8.748231 43.744240 -0.713016 1.772140 0.029636 -0.011032 -690112.000000 0 0 1
32.376985 -29.005467 -9.759831 44.551550 -0.730527 1.791656 0.013674 -0.001919 139800.000000 0 0 1
32.218035 -30.488467 -9.331331 45.327940 -0.757823 1.778142 0.008924 -0.007921 -503430.000000 0 0 1
33.365265 -31.016267 -8.757131 46.388976 -0.748929 1.760712 0.021985 -0.003210 -792402.000000 0 0 1
33.167045 -32.372167 -8.391931 47.100261 -0.773270 1.749924 0.030303 -0.011839 812662.000000 0 0 1
34.493375 -32.981167 -7.816131 48.359510 -0.762990 1.733134 0.026455 -0.010091 641796.000000 0 0 1
34.365975 -34.246667 -7.195631 49.047238 -0.783659 1.718036 0.031864 -0.018986 -316799.000000 0 0 1
33.760365 -34.134767 -5.928931 48.374547 -0.790913 1.693668 0.035734 -0.013553 -3165.780000 0 0 1
33.716495 33.121742 -5.230731 47.552207 0.776500 1.681019 0.031862 -0.018568 304669.000000 0 0 1
32.690735 32.323542 -5.835931 46.341705 0.779750 1.697064 0.047547 -0.036218 539170.000000 0 0 1
32.917125 30.955742 -5.397231 45.507419 0.754700 1.689677 0.033987 -0.020575 89421.600000 0 0 1
31.631445 30.104242 -5.448831 44.005721 0.760665 1.694936 0.053629 -0.029861 73264.900000 0 0 1
31.308165 29.723342 -6.755531 43.695714 0.759437 1.726023 0.044076 -0.028241 633408.000000 0 0 1
29.917355 29.426442 -6.964931 42.537911 0.777126 1.735272 0.022353 -0.027155 667814.000000 0 0 1
29.452985 29.318942 -8.415131 42.401570 0.783117 1.770586 0.029410 -0.028353 -185662.000000 0 0 1
29.945125 28.118742 -9.105331 42.074710 0.753954 1.788931 0.040298 -0.027282 193356.000000 0 0 1
30.262145 28.313542 -10.493631 42.750092 0.752144 1.818795 0.025976 -0.030104 259243.000000 0 0 1
31.651475 28.946842 -10.727831 44.213368 0.740796 1.815880 0.056415 -0.028236 -1529480.000000 0 0 1
32.742385 28.129442 -10.505631 44.426316 0.709761 1.809531 0.048222 -0.029363 -298145.000000 0 0 1
33.961415 28.603142 -11.047231 45.755423 0.699963 1.814647 0.062777 -0.027357 203599.000000 0 0 1
34.575905 29.949742 -10.597831 46.955237 0.713826 1.798459 0.054191 -0.034027 -1189500.000000 0 0 1
35.045465 29.877542 -9.264931 46.975431 0.705965 1.769327 0.048880 -0.027502 223811.000000 0 0 1
35.227325 31.219942 -8.720431 47.871653 0.725162 1.753982 0.037907 -0.029606 -585012.000000 0 0 1
-35.963368 31.366442 -7.504831 48.306729 -0.717229 1.726786 0.038454 -0.018481 1407830.000000 0 0 1
-34.575273 31.595442 -7.855531 47.491377 -0.740396 1.736970 0.046957 -0.015988 1037940.000000 0 0 1
-33.858615 30.417742 -8.171631 46.243058 -0.731917 1.748440 0.052203 -0.016230 -1621680.000000 0 0 1
-32.448155 30.666542 -8.611631 45.469548 -0.757177 1.761341 0.053213 -0.007477 -1474580.000000 0 0 1
-31.594395 30.933142 -7.465031 44.841853 -0.774823 1.738050 0.038529 -0.008845 472672.000000 0 0 1
-30.228055 31.125442 -7.757731 44.076194 -0.800024 1.747725 0.036929 -0.015684 -4516.610000 0 0 1
-29.942375 32.405542 -8.561431 44.944000 -0.824884 1.762459 0.001994 -0.009558 -1040770.000000 0 0 1
-30.227655 33.660142 -7.948331 45.933564 -0.839073 1.744711 -0.018772 0.004235 68542.700000 0 0 1
-29.158765 34.076242 -7.110031 45.408991 -0.863007 1.728021 -0.000782 -0.000062 156441.000000 0 0 1
-29.183415 -33.098967 -6.400031 44.588942 0.848183 1.714828 -0.008592 0.010417 -566563.000000 0 0 1
-30.211505 -32.917667 -5.488731 45.015931 0.828239 1.693029 -0.015630 0.014503 -631281.000000 0 0 1
-29.876435 -33.325167 -4.200631 44.953459 0.839911 1.664377 -0.016029 0.007557 -676228.000000 0 0 1
-31.101195 -33.210667 -3.339731 45.622216 0.818187 1.644066 0.003014 0.006749 -785935.000000 0 0 1
-31.396475 -31.860367 -3.147431 44.841142 0.792732 1.641045 0.018782 0.012755 196958.000000 0 0 1
-32.304255 -31.722667 -2.053331 45.322276 0.776315 1.616117 0.020077 0.007480 172667.000000 0 0 1
-32.975365 -30.346167 -1.853131 44.851964 0.743901 1.612125 0.029468 0.013537 142842.000000 0 0 1
-34.051523 -30.464667 -0.936831 45.699889 0.729859 1.591297 0.034259 0.020660 -103078.000000 0 0 1
-34.703762 -29.233167 -0.730231 45.381300 0.700044 1.586888 0.050243 0.008976 209159.000000 0 0 1
-35.726798 -29.237967 0.443369 46.167731 0.685846 1.561193 0.049759 0.001851 -200754.000000 0 0 1
35.250015 -29.945167 0.160969 46.252594 -0.704208 1.567316 0.032903 -0.001378 107026.000000 0 0 1
34.310365 -29.883267 1.218169 45.515873 -0.716542 1.544030 0.031434 -0.006126 279567.000000 0 0 1
33.392695 -28.648067 1.365269 44.018721 -0.709071 1.539776 0.026552 0.003212 -733260.000000 0 0 1
32.415905 -28.476267 0.340769 43.148636 -0.720790 1.562899 0.025281 0.000011 292056.000000 0 0 1
31.635585 -27.343367 0.654869 41.819838 -0.712751 1.555136 0.023588 -0.002549 211417.000000 0 0 1
30.300055 -27.238867 -0.148431 40.743972 -0.732246 1.574439 0.020639 -0.015871 -34137.000000 0 0 1
29.211205 -27.936767 0.354369 40.421319 -0.763101 1.562029 0.024243 -0.004100 -311547.000000 0 0 1
29.076525 -29.314467 -0.001331 41.289009 -0.789473 1.570829 0.031027 -0.001992 -575175.000000 0 0 1
28.562375 -29.709167 -1.404331 41.236101 -0.805076 1.604859 0.038370 -0.008578 103671.000000 0 0 1
27.233765 -29.282367 -1.686431 40.024730 -0.821630 1.612944 0.042113 0.000719 388936.000000 0 0 1
26.927205 -29.686567 -3.054031 40.195693 -0.834100 1.646849 0.037226 0.002490 160443.000000 0 0 1
25.468105 -30.092067 -3.367531 39.566364 -0.868431 1.656010 0.028494 -0.000616 233495.000000 0 0 1
24.567605 -29.001067 -3.324631 38.153405 -0.867972 1.658045 0.031445 0.009401 -127161.000000 0 0 1
23.253405 -29.496367 -3.511231 37.723802 -0.903201 1.664009 0.038579 0.004553 -189870.000000 0 0 1
22.239805 -28.386167 -3.728231 36.253043 -0.906214 1.673818 0.043232 0.005676 -418507.000000 0 0 1
22.400505 -27.707967 -4.920331 35.968371 -0.890924 1.708023 0.042517 0.006573 -20037.700000 0 0 1
21.963705 -26.375767 -4.703631 34.644041 -0.876418 1.706987 0.047771 -0.006793 9623.000000 0 0 1
21.492005 -25.731367 -6.062531 34.069984 -0.874931 1.749692 0.056735 -0.026889 14967.300000 0 0 1
20.170205 -26.164767 -6.315531 33.635073 -0.914058 1.759684 0.061405 -0.028323 -484989.000000 0 0 1
19.651505 -25.369867 -7.317031 32.914294 -0.911736 1.794975 0.071695 -0.026511 457026.000000 0 0 1
18.132405 -25.684967 -7.552531 32.334848 -0.956086 1.806547 0.069477 -0.023744 654934.000000 0 0 1
17.360405 -25.064767 -6.556231 31.186702 -0.965039 1.782602 0.063749 -0.023362 -588429.000000 0 0 1
16.008405 -25.434467 -6.565231 30.761720 -1.009041 1.785873 0.065534 -0.025490 263132.000000 0 0 1
15.175505 -24.481967 -5.598531 29.342908 -1.015898 1.762770 0.053847 -0.017680 248852.000000 0 0 1
15.432005 -24.898167 -4.274431 29.602977 -1.015942 1.715695 0.046771 -0.009981 -124485.000000 0 0 1
14.796805 -24.098567 -3.302431 28.470905 -1.020138 1.687051 0.051028 -0.010449 -208512.000000 0 0 1
14.658905 -24.838667 -1.915031 28.905194 -1.037640 1.637097 0.045447 -0.008424 406629.000000 0 0 1
13.689505 -25.894567 -2.045531 29.361801 -1.084482 1.640519 0.038849 -0.003858 300669.000000 0 0 1
14.373105 -27.122467 -1.925031 30.755814 -1.083490 1.633428 0.036437 -0.010364 -341560.000000 0 0 1
13.595605 -28.414067 -2.100331 31.569148 -1.124511 1.637377 0.027719 -0.000444 -176207.000000 0 0 1
12.633705 -28.606167 -1.054331 31.289534 -1.154914 1.604499 0.041239 -0.009573 -211608.000000 0 0 1
11.987405 -29.835667 -1.154331 32.174484 -1.188756 1.606681 0.040790 -0.009183 -524146.000000 0 0 1
12.730405 -31.110767 -0.740131 33.622773 -1.182388 1.592811 0.033542 -0.005584 204643.000000 0 0 1
13.866905 -31.441867 -1.559031 34.399312 -1.155424 1.616133 0.035620 -0.004012 152266.000000 0 0 1
14.418605 -32.676667 -1.197731 35.736470 -1.155242 1.604318 0.035675 -0.004646 -73151.300000 0 0 1
15.879705 -32.870267 -1.681231 36.543755 -1.120758 1.616819 0.038876 0.000223 396411.000000 0 0 1
16.709705 -31.886467 -1.092331 36.016027 -1.088104 1.601130 0.035588 0.008955 1080570.000000 0 0 1
18.103205 -31.872467 -1.487331 36.685043 -1.054247 1.611351 0.041593 0.002223 1047300.000000 0 0 1
18.832405 -30.705667 -0.817331 36.030064 -1.020640 1.593483 0.045335 0.005761 -62471.700000 0 0 1
18.311305 -29.462167 -1.252831 34.711565 -1.014704 1.606897 0.047021 0.004480 476198.000000 0 0 1
19.078905 -28.445067 -0.645731 34.257020 -0.979987 1.589647 0.039948 0.004429 220077.000000 0 0 1
18.552305 -27.064767 -1.143731 32.832876 -0.969883 1.605638 0.039021 0.002656 46763.000000 0 0 1
18.986105 -26.659967 -2.451831 32.821297 -0.951957 1.645568 0.045228 -0.002112 -153977.000000 0 0 1
18.023905 -25.976667 -3.180331 31.776767 -0.964210 1.671048 0.058100 -0.002787 -1013950.000000 0 0 1
32.570775 -29.538867 13.856569 46.102110 -0.736621 1.265514 0.061863 -0.018863 -264297.000000 0 0 1
33.295465 -29.919067 14.955369 47.195356 -0.732037 1.248356 0.077408 -0.011417 -559687.000000 0 0 1
32.538345 -30.480867 15.983469 47.363471 -0.752761 1.226575 0.068099 -0.002519 -375937.000000 0 0 1
33.388175 -31.101067 17.099469 48.728210 -0.749948 1.212248 0.071227 0.002662 -712905.000000 0 0 1
32.695495 -31.522067 18.211069 48.931372 -0.767128 1.189444 0.058578 -0.000564 503446.000000 0 0 1
33.559855 -31.937067 19.307669 50.189901 -0.760627 1.175922 0.041037 -0.006142 356298.000000 0 0 1
34.306025 -33.296467 19.369469 51.582307 -0.770466 1.185854 0.034394 0.002825 103775.000000 0 0 1
35.259535 -33.341567 18.314769 51.868349 -0.757447 1.209913 0.049121 0.012911 17760.800000 0 0 1
35.879765 34.015742 18.268169 52.708199 0.758736 1.216862 0.030462 0.005119 -386720.000000 0 0 1
-35.256238 34.025242 17.129269 51.905022 -0.767632 1.234480 0.051791 0.003866 -448409.000000 0 0 1
-34.199034 -33.742167 17.408769 51.099638 0.778674 1.223153 0.046511 0.011091 -773986.000000 0 0 1
-33.222825 -33.757467 16.444669 50.137310 0.793380 1.236618 0.059669 0.009131 -112094.000000 0 0 1
-31.996965 -32.810767 16.782269 48.805704 0.797955 1.219773 0.041469 0.007610 765671.000000 0 0 1
-30.924635 -32.975567 15.878769 47.915096 0.817483 1.233016 0.053700 -0.000630 -137015.000000 0 0 1
-30.957735 -32.043467 14.829769 46.958356 0.802630 1.249489 0.059484 0.004097 210809.000000 0 0 1
-29.603035 -31.980767 14.059469 45.790587 0.823989 1.258717 0.044878 -0.001845 571064.000000 0 0 1
-28.503765 -31.493867 14.806769 44.984094 0.835194 1.235387 0.049407 -0.001800 83903.700000 0 0 1
-27.445565 -31.161767 13.916869 43.794909 0.848722 1.247416 0.034658 0.007471 -31236.500000 0 0 1
-26.203795 -30.565167 14.547969 42.807847 0.862074 1.224046 0.040729 0.002055 -179211.000000 0 0 1
-25.082865 -30.555267 13.715669 41.843686 0.883440 1.236840 0.034116 0.000455 -174461.000000 0 0 1
-23.904835 -30.006567 14.267369 40.931565 0.898099 1.214755 0.036085 0.001015 246658.000000 0 0 1
-22.567135 -30.195967 13.523769 40.049524 0.928990 1.226349 0.034306 -0.002692 40729.200000 0 0 1
-22.151135 -31.523267 13.509969 40.827790 0.958266 1.233538 0.025131 0.002931 -466589.000000 0 0 1
-20.988735 -31.505867 12.727669 39.939207 0.983127 1.246464 0.017416 -0.001531 -183514.000000 0 0 1
-20.572335 -32.969867 12.389969 40.789024 1.012935 1.262162 0.021269 0.001236 -260913.000000 0 0 1
-21.297735 -33.513167 11.319869 41.290015 1.004680 1.293085 0.020323 0.004782 3329.930000 0 0 1
-21.016235 33.795342 11.142669 41.327550 -1.014453 1.297800 0.029162 0.017439 27970.600000 0 0 1
-21.995635 33.128742 10.151269 41.041075 -0.984681 1.320858 0.012845 0.030012 -389345.000000 0 0 1
-21.826735 33.570542 8.824469 41.003158 -0.994298 1.353885 0.007573 0.029379 644777.000000 0 0 1
-23.082335 33.482642 8.139869 41.474559 -0.967232 1.373252 0.008230 0.028950 224547.000000 0 0 1
-22.983335 33.917342 6.650469 41.507211 -0.975244 1.409878 0.016656 0.020903 -343046.000000 0 0 1
-22.211135 33.120342 5.727269 40.287631 -0.980062 1.428154 0.013228 0.017903 740469.000000 0 0 1
-20.794535 33.161542 5.810069 39.570917 -1.010711 1.423437 0.019515 0.016287 221521.000000 0 0 1
-20.108235 -34.121467 5.349369 39.965378 1.038272 1.436543 0.021769 0.017810 -531846.000000 0 0 1
-20.038735 -33.022167 6.294769 39.136154 1.025372 1.409252 0.014773 0.013086 243065.000000 0 0 1
-19.369935 -33.333867 7.511069 39.277949 1.044398 1.378383 0.017070 0.015942 -269161.000000 0 0 1
-19.248835 -32.184667 8.540969 38.461911 1.031794 1.346866 0.016725 0.001891 -227267.000000 0 0 1
-18.369335 -31.173667 8.090369 37.076732 1.038313 1.350820 0.042246 -0.005386 -168939.000000 0 0 1
-18.159635 -30.059267 8.952569 36.241970 1.027347 1.321190 0.041594 -0.004834 242455.000000 0 0 1
-17.665135 -30.302367 10.398169 36.584319 1.042999 1.282599 0.029158 0.001530 -656996.000000 0 0 1
-16.367335 -30.788367 10.481669 36.409870 1.082183 1.278784 0.040073 -0.002145 -829180.000000 0 0 1
-16.008235 -31.053467 11.832369 36.886127 1.094821 1.244242 0.034506 -0.009356 -413344.000000 0 0 1
-14.574735 -31.486867 12.071769 36.736539 1.137281 1.235971 0.033232 -0.006552 596420.000000 0 0 1
-13.475835 -30.643467 11.628369 35.437821 1.156489 1.236468 0.031475 0.003097 737561.000000 0 0 1
-12.693235 -31.364967 10.680569 35.481741 1.186249 1.265039 0.036446 0.007543 557976.000000 0 0 1
-11.644935 -30.422067 9.953869 34.061506 1.205223 1.274236 0.043661 0.013283 957840.000000 0 0 1
-10.704435 -29.873567 10.890969 33.550382 1.226725 1.240191 0.036935 0.005641 -324727.000000 0 0 1
-9.846435 -28.954467 10.285569 32.266180 1.242999 1.246362 0.046164 0.008905 355774.000000 0 0 1
-9.011435 -28.267367 11.412669 31.788347 1.262189 1.203578 0.041080 0.017651 527641.000000 0 0 1
-9.849035 -27.455867 12.213569 31.622767 1.226372 1.174259 0.047500 -0.001798 -426025.000000 0 0 1
-9.160035 -27.054267 13.308969 31.511399 1.244331 1.134755 0.041151 -0.000417 -132006.000000 0 0 1
-9.591435 -25.674167 13.835569 30.701490 1.213268 1.103305 0.024251 -0.011952 301049.000000 0 0 1
-9.029535 -24.569467 13.085169 29.264533 1.218608 1.107238 0.027280 -0.011582 230981.000000 0 0 1
-9.689435 -24.268767 11.857169 28.695830 1.190932 1.144829 0.035489 -0.012587 273429.000000 0 0 1
-9.178535 -22.863167 11.295469 27.102722 1.189036 1.140913 0.026859 -0.019781 793283.000000 0 0 1
-7.914835 -22.912467 10.630569 26.469506 1.238191 1.157516 0.017007 -0.017763 262681.000000 0 0 1
-7.488635 -21.607167 10.263669 25.065758 1.237171 1.148924 0.012470 -0.011978 1168.040000 0 0 1
-6.260735 -21.671167 9.329969 24.410748 1.289557 1.178612 0.012289 -0.011837 142402.000000 0 1 0
-5.157735 -22.314967 9.927169 24.962145 1.343652 1.161800 0.027362 -0.009031 -16976.200000 0 1 0
-4.090335 -22.564367 9.007669 24.637768 1.391470 1.196515 0.024727 -0.006163 363336.000000 0 1 0
-2.846035 -23.200467 9.622569 25.277568 1.448735 1.180269 0.030832 -0.009488 -603855.000000 0 0 1
-2.052635 -22.385467 10.389869 24.764326 1.479357 1.137847 0.029630 -0.009112 -591463.000000 0 1 0
-1.074935 -23.271167 10.928269 25.731883 1.524637 1.132168 0.041958 -0.011000 220409.000000 0 0 1
-0.204235 -22.847967 12.096969 25.853587 1.561858 1.083880 0.042799 -0.007223 180639.000000 0 0 1
-0.942135 -22.735967 13.327369 26.371018 1.529382 1.040975 0.029276 -0.003001 319775.000000 0 0 1
-0.127535 -22.364767 14.459269 26.632115 1.565094 0.996879 0.051663 -0.008717 539943.000000 0 0 1
0.622465 -20.989567 14.570069 25.558488 -1.541149 0.964208 0.043451 -0.008633 -272462.000000 0 0 1
1.820665 -20.951167 13.880969 25.198165 -1.484114 0.987387 0.058717 -0.009137 -932957.000000 0 0 1
2.095465 -19.659767 13.364469 23.864334 -1.464611 0.976388 0.047683 -0.013605 285911.000000 0 1 0
3.577265 -19.529867 12.926569 23.691955 -1.389636 0.993679 0.049291 -0.014334 383965.000000 0 1 0
3.912365 -20.213467 11.763169 23.712086 -1.379608 1.051714 0.056915 -0.002455 -2279440.000000 0 1 0
5.250165 -20.151867 11.600669 23.837733 -1.315932 1.062544 0.059930 -0.010396 -1625660.000000 0 1 0
5.756165 -21.048567 10.453569 24.196130 -1.303853 1.124049 0.066738 -0.018270 -378179.000000 0 1 0
5.513365 -20.588667 9.139469 23.190953 -1.309149 1.165712 0.062699 -0.012810 -542219.000000 0 1 0
5.802765 -21.543667 8.166169 23.758956 -1.307691 1.219933 0.061795 -0.017083 -105102.000000 0 1 0
7.301165 -21.869167 7.899169 24.371384 -1.248575 1.240719 0.058652 -0.012576 -74849.400000 0 1 0
7.993765 -20.891067 7.107869 23.470381 -1.205344 1.263121 0.055123 -0.019265 -28319.600000 0 1 0
8.363965 -19.676267 7.740669 22.738280 -1.168859 1.223428 0.061861 -0.017888 -110214.000000 0 1 0
9.485065 -19.775867 8.781769 23.625640 -1.123579 1.189951 0.070652 -0.016881 -50384.100000 0 1 0
8.890765 -20.080167 10.004069 24.131726 -1.153977 1.143336 0.082934 -0.019928 -664602.000000 0 1 0
9.748665 -19.642467 11.014869 24.539567 -1.110109 1.105305 0.083414 -0.018911 8940.930000 0 1 0
9.234665 -19.705967 12.472569 25.083245 -1.132564 1.050374 0.085735 -0.017587 -51908.000000 0 0 1
9.419765 -20.978967 13.018069 26.425729 -1.148766 1.055689 0.073414 -0.019164 78604.300000 0 0 1
8.445665 -21.252967 14.032769 26.831632 -1.192544 1.020437 0.075600 -0.024117 438137.000000 0 0 1
8.604565 -22.582867 14.867669 28.373791 -1.206757 1.019264 0.069923 -0.021736 182469.000000 0 0 1
8.271765 -23.822867 14.197869 28.940121 -1.236601 1.058024 0.076487 -0.022663 -246376.000000 0 0 1
8.132165 -24.964767 15.018269 30.247647 -1.255890 1.051222 0.079560 -0.019539 466202.000000 0 0 1
7.782165 -26.275367 14.218869 30.872856 -1.282850 1.092168 0.080770 -0.027844 -39240.400000 0 0 1
8.944465 -26.730267 13.589369 31.291878 -1.247889 1.121560 0.074156 -0.013913 -479640.000000 0 0 1
8.716865 -27.752067 12.633069 31.713647 -1.266456 1.161081 0.062926 -0.015257 48277.100000 0 0 1
9.949965 -28.344867 11.897269 32.310653 -1.233202 1.193708 0.039143 -0.013040 -263437.000000 0 0 1
10.825665 -29.021767 12.713169 33.482573 -1.213764 1.181330 0.032241 -0.015602 -747347.000000 0 0 1
11.958665 -29.442067 12.025269 33.977229 -1.184977 1.209036 0.029420 -0.016103 -12492.400000 0 0 1
13.046065 -30.236067 12.810169 35.334403 -1.163455 1.199803 0.028705 -0.016371 203737.000000 0 0 1
13.742465 -29.500267 13.843469 35.366124 -1.134847 1.168608 0.028772 -0.013363 954924.000000 0 0 1
14.787065 -30.154667 14.578669 36.612824 -1.114879 1.161259 0.038797 -0.013048 795784.000000 0 0 1
16.146565 -30.373967 13.886669 37.096213 -1.082196 1.187109 0.037122 -0.005856 -648026.000000 0 0 1
16.748165 -29.188067 13.559469 36.280897 -1.049863 1.187763 0.027713 -0.013404 -302067.000000 0 0 1
17.966565 -29.437267 12.900869 36.820953 -1.022813 1.212833 0.026925 -0.013211 -346514.000000 0 0 1
18.835565 -28.210767 12.703769 36.221701 -0.982097 1.212454 0.014975 -0.017723 680867.000000 0 0 1
20.134665 -28.462467 12.109169 36.907300 -0.955114 1.236508 0.004897 -0.019782 1238620.000000 0 0 1
20.841465 -27.199767 12.110169 36.343503 -0.916984 1.231086 -0.004233 -0.010457 -896495.000000 0 0 1
22.187165 -27.249267 11.469369 36.964027 -0.887439 1.255304 0.006490 -0.014465 -461056.000000 0 0 1
23.169565 -27.945167 12.246769 38.311153 -0.878557 1.245419 0.015211 -0.019040 784483.000000 0 0 1
24.376565 -28.360967 11.605069 39.156596 -0.860806 1.269901 0.027636 -0.029489 531087.000000 0 0 1
25.425865 -29.050267 12.546369 40.593152 -0.851832 1.256575 0.044518 -0.024434 510665.000000 0 0 1
26.321265 -28.158167 13.219969 40.748730 -0.819103 1.240391 0.033807 -0.021195 946751.000000 0 0 1
27.541765 -28.045567 12.442569 41.230088 -0.794461 1.264233 0.026129 -0.021887 750246.000000 0 0 1
28.759265 -27.381467 13.156869 41.832323 -0.760861 1.250851 0.053054 -0.024698 264364.000000 0 0 1
28.668265 -25.970667 13.286969 40.900960 -0.736067 1.239936 0.063127 -0.023325 185745.000000 0 0 1
27.856365 -25.508367 14.376369 40.414525 -0.741427 1.207109 0.058138 -0.021733 -358336.000000 0 0 1
28.535565 -25.456467 15.757769 41.359612 -0.728431 1.179925 0.043107 -0.009753 -245325.000000 0 0 1
28.839065 -26.752767 16.292769 42.577653 -0.747887 1.178123 0.046432 -0.009742 48482.300000 0 0 1
29.620165 -26.539767 17.471369 43.439178 -0.730603 1.156875 0.064991 0.005990 382130.000000 0 0 1
30.012265 -27.925567 18.070369 44.800799 -0.749398 1.155622 0.061427 0.009788 925727.000000 0 0 1
28.825765 -28.513067 18.630369 44.620739 -0.779945 1.140074 0.039176 0.000576 718584.000000 0 0 1
29.249465 -29.609767 19.416169 45.926650 -0.791520 1.134302 0.054518 -0.008515 329956.000000 0 0 1
28.140065 -30.480667 20.083269 46.089826 -0.825305 1.119934 0.037434 0.003702 -973277.000000 0 0 1
27.343465 -29.763367 21.027569 45.559651 -0.827748 1.091067 0.044918 0.007204 658477.000000 0 0 1
26.245965 -30.515667 21.544569 45.653314 -0.860478 1.079333 0.041246 0.004681 955102.000000 0 0 1
25.133365 -30.931667 20.524769 44.829903 -0.888453 1.095236 0.054829 -0.004552 -1177150.000000 0 0 1
25.449165 -32.106867 19.838069 45.519885 -0.900560 1.119857 0.054669 0.000253 -324845.000000 0 0 1
24.746465 -32.381667 18.678169 44.831171 -0.918261 1.141057 0.053623 -0.001455 -628153.000000 0 0 1
24.937465 -31.492467 17.422369 43.785747 -0.901042 1.161569 0.044237 -0.002947 322235.000000 0 0 1
26.231365 -31.621467 16.823369 44.396255 -0.878299 1.182149 0.063803 -0.010022 521060.000000 0 0 1
26.379765 -30.646767 15.821169 43.421489 -0.860084 1.197848 0.051944 -0.027781 516084.000000 0 0 1
27.896565 -30.458567 15.426069 44.089752 -0.829274 1.213355 0.062992 -0.013835 879147.000000 0 0 1
28.492165 -31.331667 14.503169 44.764034 -0.832827 1.240851 0.093132 -0.010235 274170.000000 0 0 1
28.731365 -32.641067 14.993969 45.997279 -0.849017 1.238753 0.095821 -0.018150 -879334.000000 0 0 1
27.829565 -33.708667 14.429869 46.032381 -0.880645 1.251949 0.092004 -0.011933 -447877.000000 0 0 1
28.084465 -33.916967 13.018669 45.919316 -0.879193 1.283342 0.092456 -0.011463 420748.000000 0 0 1
27.679565 33.394042 12.681769 45.190128 0.878694 1.286344 0.079076 -0.019376 -408348.000000 0 0 1
28.006965 33.019242 11.188769 44.719671 0.867347 1.317912 0.081097 -0.024048 -18298.000000 0 0 1
29.377165 32.911742 10.860369 45.432898 0.842082 1.329417 0.065921 -0.017406 265708.000000 0 0 1
29.581365 32.080542 9.712769 44.705215 0.825906 1.351787 0.064882 -0.029859 -920542.000000 0 0 1
30.953365 31.464742 9.683269 45.187460 0.793591 1.354830 0.050677 -0.027856 -899242.000000 0 0 1
31.154665 30.552442 10.736369 44.937006 0.775639 1.329542 0.033796 -0.014835 276621.000000 0 0 1
32.448865 29.989742 10.607369 45.440398 0.746034 1.335188 0.043881 -0.017235 151630.000000 0 0 1
32.816265 29.099242 11.782069 45.414649 0.725436 1.308361 0.038219 -0.014820 -84921.700000 0 0 1
32.406165 27.766242 11.580669 44.218047 0.708440 1.305807 0.034809 -0.020881 209919.000000 0 0 1
32.623965 27.107242 12.818669 44.310766 0.693300 1.277311 0.036232 -0.026399 154099.000000 0 0 1
32.392765 25.585442 12.636669 43.169335 0.668522 1.273723 0.030774 -0.021997 808099.000000 0 0 1
33.521065 25.098342 11.874369 43.526879 0.642690 1.294488 0.034716 -0.017457 769211.000000 0 0 1
33.605565 23.670042 11.728969 42.745451 0.613639 1.292840 0.035122 -0.014354 484957.000000 0 0 1
32.390965 23.080242 10.886869 41.235860 0.619100 1.303614 0.022491 -0.015112 1830560.000000 0 0 1
31.201165 22.753342 11.639769 40.332512 0.630086 1.278037 0.019578 -0.010343 385981.000000 0 0 1
30.047265 22.867842 10.862069 39.290723 0.650544 1.290694 0.022720 -0.009220 -108843.000000 0 0 1
28.774165 22.427342 11.649669 38.296906 0.662070 1.261705 0.033412 -0.004482 83525.100000 0 0 1
28.200765 23.460142 12.417069 38.727833 0.693890 1.244408 0.037704 -0.003840 7404.000000 0 0 1
27.097365 22.924142 13.114869 37.838912 0.702162 1.216855 0.057177 0.003075 -407471.000000 0 0 1
24.185065 8.864342 25.656452 36.355845 0.351317 0.787381 0.015735 -0.005805 -242653.000000 0 0 1
23.644865 7.700642 26.226752 36.141694 0.314846 0.758796 0.021179 -0.013199 490162.000000 0 0 1
22.255565 7.917942 26.484012 35.488123 0.341809 0.728343 0.029769 -0.016252 327981.000000 0 0 1
21.688465 6.692042 27.325752 35.522805 0.299285 0.693137 0.046119 -0.024458 -438047.000000 0 0 1
22.108665 6.515742 28.630052 36.754970 0.286601 0.677817 0.048000 -0.027225 708734.000000 0 0 1
23.473565 6.096642 28.765552 37.624916 0.254109 0.700477 0.047084 -0.024729 355460.000000 0 0 1
23.845565 5.906842 30.242992 38.963320 0.242824 0.682194 0.045817 -0.029637 -221237.000000 0 0 1
23.871765 7.137142 31.008382 39.778383 0.290519 0.676884 0.049143 -0.020962 324759.000000 0 0 1
23.885965 6.801142 32.397842 40.821747 0.277393 0.654025 0.042754 -0.018923 -207458.000000 0 0 1
23.875165 8.048042 33.277459 41.739475 0.325126 0.648044 0.057297 -0.008298 -366360.000000 0 0 1
25.066865 8.773842 33.344229 42.628226 0.336690 0.672591 0.043082 -0.010363 -419396.000000 0 0 1
25.219365 9.538142 -33.951641 43.355582 0.361579 2.470427 0.046303 -0.004156 357287.000000 0 0 1
26.291065 10.678442 -33.954291 44.250911 0.385807 2.445437 0.029279 0.000105 289149.000000 0 0 1
25.773265 11.891442 33.971377 44.268748 0.432283 0.696036 0.026135 -0.003369 426478.000000 0 0 1
26.081665 13.012042 -33.692031 44.550190 0.462764 2.428391 0.025571 -0.002875 -495802.000000 0 0 1
25.563865 14.349842 -34.199960 45.045160 0.511503 2.432937 0.030379 -0.000891 -544409.000000 0 0 1
26.467765 15.014742 33.437518 45.211201 0.516016 0.738343 0.027740 -0.005571 165115.000000 0 0 1
26.169365 16.434642 33.383400 45.490488 0.560761 0.746817 0.036438 -0.008636 -215650.000000 0 0 1
26.738365 17.376042 -34.002131 46.615576 0.576273 2.388264 0.027661 -0.010336 -484744.000000 0 0 1
26.300165 17.229742 -32.646961 45.325344 0.579966 2.375003 0.025688 -0.013585 700355.000000 0 0 1
27.266965 16.732442 -31.705261 45.040932 0.550398 2.351699 0.011562 -0.007937 -190724.000000 0 0 1
26.477665 16.365442 -30.449361 43.543749 0.553611 2.345189 0.009570 -0.001895 -255857.000000 0 0 1
25.849765 15.189242 -30.729911 42.933098 0.531250 2.368512 0.018675 0.007678 60629.400000 0 0 1
25.070265 14.638542 -29.647691 41.494466 0.528498 2.366702 0.037141 -0.004826 184087.000000 0 0 1
24.474265 13.264942 -30.012111 40.935011 0.496677 2.393761 0.052646 -0.005634 -845704.000000 0 0 1
23.370965 13.376142 -30.851161 40.950181 0.519833 2.423988 0.046700 -0.004282 -214751.000000 0 0 1
23.060265 12.148842 -31.550151 40.924103 0.484881 2.451117 0.048471 0.001948 -262275.000000 0 0 1
22.088565 11.195442 -30.809091 39.527746 0.469107 2.464551 0.049744 -0.007755 -70465.800000 0 0 1
20.841565 11.858242 -30.602911 38.878360 0.517291 2.476963 0.054037 -0.010389 498122.000000 0 0 1
20.038065 11.099242 -29.713721 37.518295 0.505839 2.484841 0.057439 -0.014564 697186.000000 0 0 1
18.733365 11.847042 -29.248341 36.698186 0.563905 2.493103 0.070986 -0.009020 551115.000000 0 0 1
17.688965 12.054242 -30.173021 36.994803 0.598171 2.524565 0.044869 -0.000836 134788.000000 0 0 1
16.567365 12.478942 -29.436521 36.009865 0.645561 2.527779 0.039035 -0.006519 -844171.000000 0 0 1
15.306865 12.731342 -30.214591 36.184371 0.693798 2.558961 0.023575 -0.010841 -561847.000000 0 0 1
14.559765 11.639942 -30.720421 35.933540 0.674411 2.596199 0.010263 0.001205 171429.000000 0 0 1
13.185965 11.848742 -30.477621 35.258301 0.732034 2.614772 0.022265 -0.005984 443066.000000 0 0 1
12.175865 11.508342 -31.621121 35.785317 0.757221 2.654364 0.020442 -0.010218 70130.800000 0 0 1
12.116865 12.573042 -32.535291 36.924856 0.803872 2.649025 0.028420 -0.008110 -59975.000000 0 0 1
11.167065 12.274742 -33.521181 37.403773 0.832615 2.681920 0.050026 -0.012821 -240926.000000 0 0 1
10.851865 13.309242 33.853821 37.960244 0.886758 0.469437 0.062540 -0.005605 -407555.000000 0 0 1
11.742065 13.326542 32.770582 37.274440 0.848520 0.496678 0.036487 0.007374 -49046.400000 0 0 1
11.066865 13.504642 31.551122 36.060008 0.884286 0.505440 0.054952 -0.010285 -83462.200000 0 0 1
11.952665 13.271142 30.295932 35.168635 0.837622 0.532683 0.038204 -0.011169 -209833.000000 0 0 1
12.132865 11.861742 30.059572 34.517897 0.774099 0.513887 0.031238 -0.006651 -48327.600000 0 0 1
11.900065 11.547842 28.662642 33.113611 0.770378 0.524479 0.051743 -0.002770 -53466.100000 0 0 1
12.363865 10.124642 28.277642 32.480742 0.686153 0.514382 0.052332 -0.004959 -49627.800000 0 0 1
11.692565 9.078242 28.972382 32.535050 0.660191 0.472359 0.050065 -0.011714 283301.000000 0 0 1
12.137865 7.819642 28.509442 31.957204 0.572312 0.468795 0.023934 -0.011193 -31903.600000 0 0 1
11.016565 6.750842 28.586392 31.370693 0.549771 0.424499 0.018153 -0.012269 36225.600000 0 0 1
10.174965 6.737342 27.449302 30.039738 0.584868 0.418336 0.025399 -0.016687 -21764.000000 0 0 1
9.230165 5.661642 27.438542 29.497860 0.550203 0.375873 0.015668 -0.020505 -297770.000000 0 0 1
9.754865 4.287642 26.984392 29.012044 0.414120 0.376084 0.010918 -0.016021 91863.100000 0 0 1
10.731865 3.761342 27.891022 30.120254 0.337106 0.387150 0.005944 -0.010963 373247.000000 0 0 1
10.951365 2.396642 27.599852 29.789732 0.215448 0.385824 -0.005630 -0.008304 -221436.000000 0 0 1
11.579865 1.602842 28.734862 31.021842 0.137542 0.386382 -0.009288 -0.002320 38418.800000 0 0 1
10.638065 1.505542 29.772482 31.651789 0.140590 0.346328 -0.015303 0.001685 1175.420000 0 0 1
10.620665 0.191542 30.351242 32.156385 0.018033 0.336659 -0.012182 0.004079 -169425.000000 0 0 1
9.517065 0.130442 31.388902 32.800224 0.013705 0.294415 0.003626 0.007036 -315476.000000 0 0 1
9.821765 0.826042 32.569958 34.028688 0.083906 0.293862 -0.005222 0.004228 -357085.000000 0 0 1
8.675265 1.089142 33.328700 34.456475 0.124892 0.256556 0.006424 -0.002957 -329549.000000 0 0 1
8.865265 2.373042 34.205476 35.415235 0.261547 0.262128 0.009194 -0.005430 -285203.000000 0 0 1
8.800665 3.646342 33.500698 34.828785 0.392795 0.277044 0.007748 -0.012284 456784.000000 0 0 1
9.940265 3.915142 32.651478 34.354857 0.375208 0.316219 -0.009114 -0.004834 350654.000000 0 0 1
10.049165 5.269542 31.933342 33.889410 0.482958 0.341418 -0.006208 -0.003658 18529.200000 0 0 1
10.203065 6.258442 32.895937 35.005904 0.550206 0.348970 -0.004335 -0.006102 65370.500000 0 0 1
10.456165 7.520242 32.277322 34.752136 0.623507 0.379671 0.002488 -0.009653 -247716.000000 0 0 1
10.686365 8.724942 33.219056 35.969830 0.684695 0.393623 0.041695 -0.019249 -667240.000000 0 0 1
9.556165 9.318142 33.796033 36.336207 0.772788 0.376132 0.057820 -0.024015 -88737.200000 0 0 1
8.949665 8.561242 -33.620741 35.829396 0.763220 2.788641 0.045237 -0.021092 -423928.000000 0 0 1
7.557665 9.003942 -33.196371 35.216308 0.872504 2.801255 0.066965 -0.037655 -491877.000000 0 0 1
6.933465 8.369042 -32.102831 33.892559 0.878938 2.815166 0.079753 -0.042217 14129.100000 0 0 1
5.624965 8.885442 -31.931551 33.618675 1.006426 2.823443 0.078310 -0.041966 21823.100000 0 0 1
4.888565 8.123242 -30.843021 32.267276 1.029055 2.843372 0.080551 -0.042195 -880452.000000 0 0 1
5.417565 8.363542 -29.571341 31.205177 0.995998 2.816566 0.081212 -0.041588 144407.000000 0 0 1
4.821565 7.757642 -28.425211 29.856677 1.014700 2.830682 0.062293 -0.036918 -967718.000000 0 0 1
3.389965 8.051942 -28.036061 29.365735 1.172308 2.839514 0.063817 -0.034844 -1106030.000000 0 0 1
2.524165 7.346442 -28.877761 29.904293 1.239843 2.878817 0.053482 -0.033046 -486122.000000 0 0 1
1.188865 7.470842 -28.429741 29.418992 1.412986 2.881530 0.056499 -0.021949 434024.000000 0 0 1
0.158365 6.829342 -29.447891 30.229841 1.547612 2.913649 0.062152 -0.025425 268203.000000 0 0 1
-0.037235 7.636242 -30.627001 31.564645 -1.565920 2.897242 0.075857 -0.026352 70298.000000 0 0 1
-0.451835 6.831442 -31.666961 32.398599 -1.504752 2.928671 0.076274 -0.021606 -441882.000000 0 0 1
-0.401735 7.533442 -33.038481 33.888868 -1.517520 2.917097 0.083985 -0.030610 1192130.000000 0 0 1
0.946165 7.832042 -33.495461 34.411946 1.450572 2.910284 0.072053 -0.027704 1362010.000000 0 0 1
1.757365 6.809642 -34.076939 34.795076 1.318237 2.938071 0.077754 -0.030043 -4351.650000 0 0 1
1.585965 6.426442 32.961878 33.619932 1.328844 0.198179 0.095202 -0.037826 478088.000000 0 0 1
0.271765 5.895242 32.678776 33.207381 1.524730 0.178666 0.102509 -0.042536 610030.000000 0 0 1
0.064965 5.559642 31.290662 31.780802 1.559112 0.175854 0.111154 -0.041705 277665.000000 0 0 1
0.959565 4.396242 30.725312 31.053060 1.355897 0.145417 0.101106 -0.041479 320635.000000 0 0 1
0.806665 4.203042 29.343142 29.653604 1.381178 0.144831 0.089823 -0.044889 -512565.000000 0 0 1
1.906365 3.540642 28.830692 29.109778 1.076884 0.138584 0.072230 -0.034042 -474048.000000 0 0 1
2.070265 3.706542 27.314562 27.642535 1.061418 0.154197 0.079238 -0.028157 8151.310000 0 0 1
2.582165 4.935442 26.876052 27.447192 1.088771 0.204359 0.072712 -0.029391 -94056.600000 0 0 1
2.300665 5.138442 25.524282 26.137820 1.149827 0.217097 0.050347 -0.017975 -464488.000000 0 0 1
2.636265 6.571742 25.058362 26.039570 1.189298 0.275392 0.043737 -0.009272 939651.000000 0 0 1
4.049165 6.869842 25.095942 26.332428 1.038199 0.307665 0.029300 -0.007391 617645.000000 0 0 1
4.682465 6.633742 23.879672 25.222426 0.956151 0.327767 0.026824 -0.013663 -1482740.000000 0 0 1
6.182665 6.611642 24.063222 25.709489 0.818914 0.359802 0.015699 -0.014514 -798669.000000 0 0 1
6.754765 5.673642 25.010262 26.520375 0.698629 0.339088 0.016959 -0.019379 140414.000000 0 0 1
6.570565 4.233942 24.840652 26.041440 0.572414 0.304859 0.010938 -0.015284 -687331.000000 0 0 1
6.910465 3.651542 23.400932 24.671682 0.486115 0.322350 0.006641 -0.012182 340454.000000 0 1 0
6.000565 3.927242 22.318032 23.441940 0.579517 0.310910 0.010756 -0.007678 -88659.500000 0 1 0
4.802765 3.175942 22.370332 23.099457 0.584260 0.251921 0.004959 -0.008134 -91336.100000 0 1 0
3.919565 3.669942 21.202032 21.871388 0.752520 0.248039 0.000819 -0.004404 -310007.000000 0 1 0
3.467965 5.011242 21.348432 22.201236 0.965435 0.278068 0.000545 -0.009004 -620686.000000 0 1 0
2.307165 5.147742 20.615532 21.373405 1.149449 0.267096 0.004815 0.000241 -832595.000000 0 1 0
1.831665 6.614642 20.754732 21.860178 1.300655 0.319378 0.007851 0.004160 -736278.000000 0 1 0
2.728665 7.498242 20.253132 21.768294 1.221786 0.375305 0.005078 0.010230 -789319.000000 0 1 0
2.314365 8.846942 20.539332 22.483079 1.314930 0.418877 0.009556 0.012626 288975.000000 0 1 0
3.224865 9.937742 19.943332 22.514328 1.257011 0.482568 0.026826 0.001633 -431655.000000 0 1 0
3.124965 10.054242 18.498732 21.285119 1.269451 0.517432 0.009843 -0.002896 -169754.000000 0 1 0
3.847865 11.169442 17.987332 21.519912 1.239030 0.581124 0.008489 -0.005718 -435939.000000 0 1 0
5.368865 11.138742 18.018232 21.852986 1.121653 0.601442 0.012032 -0.004428 -1027360.000000 0 1 0
5.814765 10.173242 17.104332 20.733175 1.051540 0.600640 0.015599 -0.007013 -1537770.000000 0 1 0
7.057965 9.711742 17.400132 21.139948 0.942345 0.603961 0.014319 -0.005823 -1299140.000000 0 1 0
7.075465 8.339342 18.120732 21.165249 0.867206 0.543015 0.020675 -0.004576 -197176.000000 0 1 0
6.534165 8.340342 19.430632 22.131563 0.906234 0.499212 0.027529 -0.003161 -76522.000000 0 1 0
6.416865 7.052442 20.015632 22.170670 0.832550 0.444565 0.018477 -0.005098 429717.000000 0 1 0
7.732965 6.330542 20.463732 22.773644 0.686006 0.454295 0.027543 -0.011124 1344200.000000 0 1 0
8.670265 6.065442 19.384232 22.084192 0.610436 0.499666 0.022845 -0.007731 986289.000000 0 1 0
9.981365 5.566142 19.634232 22.718113 0.508700 0.527130 0.030542 -0.006340 683729.000000 0 1 0
10.081465 4.010842 19.539432 22.349769 0.378646 0.506894 0.023615 -0.005910 -128145.000000 0 1 0
9.655665 3.376442 20.783632 23.164447 0.336394 0.457361 0.033134 -0.010893 236299.000000 0 1 0
9.793665 2.023442 20.638832 22.934070 0.203741 0.451210 0.029770 -0.013045 -281030.000000 0 1 0
8.877865 1.102642 21.468632 23.257998 0.123569 0.394823 0.028984 -0.012895 -160749.000000 0 1 0
9.179865 1.147542 22.854032 24.655497 0.124361 0.384637 0.028423 -0.013110 319423.000000 0 1 0
8.412065 0.126142 23.438562 24.902709 0.014994 0.344616 0.019251 -0.016043 -781765.000000 0 1 0
8.703365 0.010842 24.937752 26.412879 0.001246 0.335787 0.007658 -0.011161 -418776.000000 0 0 1
10.032265 -0.352958 25.199552 27.125419 -0.035168 0.379091 0.018794 -0.015726 -25350.300000 0 0 1
10.230665 -1.719458 25.117822 27.175872 -0.166513 0.391680 0.026346 -0.012435 -938154.000000 0 0 1
11.675465 -2.120658 25.369692 28.007766 -0.179675 0.437511 0.024610 -0.007575 -496272.000000 0 0 1
11.858765 -3.472858 25.031402 27.915267 -0.284886 0.458557 0.027968 -0.001587 -262909.000000 0 0 1
13.133365 -3.912158 25.417322 28.876124 -0.289510 0.494472 0.031004 -0.001019 -298068.000000 0 0 1
13.108065 -5.444058 25.539142 29.218263 -0.393644 0.507255 0.034224 -0.007065 -123443.000000 0 0 1
12.824465 -6.170758 24.351542 28.205367 -0.448471 0.528894 0.032223 -0.004783 227157.000000 0 0 1
12.700265 -7.552158 24.563932 28.665634 -0.536473 0.541547 0.046353 -0.008471 -130693.000000 0 0 1
12.604265 -8.389858 23.272732 27.764676 -0.587289 0.576797 0.057430 -0.009038 147567.000000 0 0 1
12.108465 -9.688158 23.527812 28.178596 -0.674811 0.582748 0.055240 -0.004480 -233905.000000 0 0 1
12.117965 -10.410958 22.333732 27.459583 -0.709773 0.620941 0.064780 -0.007424 188843.000000 0 0 1
11.523465 -11.834458 22.447432 27.869909 -0.798712 0.634385 0.073663 -0.012028 209995.000000 0 0 1
10.119465 -11.810158 22.583032 27.420371 -0.862342 0.603092 0.055260 -0.005139 -395358.000000 0 0 1
9.588565 -13.114158 22.794232 27.991047 -0.939461 0.619205 0.064206 -0.003791 573221.000000 0 0 1
8.062765 -13.030958 23.078632 27.702658 -1.016712 0.586137 0.043545 -0.003035 682250.000000 0 0 1
7.199265 -12.616058 22.019832 26.379297 -1.052243 0.583137 0.037792 -0.005578 1724050.000000 0 0 1
5.803665 -12.497558 22.473832 26.361802 -1.136045 0.550018 0.017337 -0.001768 1973240.000000 0 0 1
5.085665 -11.403758 21.690932 25.028108 -1.151304 0.522322 0.003794 0.008287 -308481.000000 0 0 1
5.597865 -10.170058 21.959532 24.839227 -1.067626 0.486303 0.004825 0.006454 -319092.000000 0 1 0
4.879865 -9.090358 21.351232 23.713346 -1.078130 0.450134 0.000293 0.010078 -46488.300000 0 1 0
5.421265 -7.781558 21.815632 23.787908 -0.962301 0.410079 0.003431 -0.002979 -254977.000000 0 1 0
4.971165 -6.669658 21.130532 22.708945 -0.930284 0.375038 0.006907 -0.000754 -407646.000000 0 1 0
5.508065 -5.478458 21.618632 22.972103 -0.782703 0.344981 0.014250 -0.005239 -245408.000000 0 1 0
-7.891635 -14.623758 -20.801831 26.624206 1.075938 2.467563 0.036588 0.011592 96264.400000 0 0 1
-7.332435 -14.235558 -19.563431 25.281288 1.095159 2.455663 0.036631 0.004028 -353946.000000 0 0 1
-6.399235 -13.220558 -19.782031 24.638630 1.120001 2.502918 0.031202 -0.015188 -201183.000000 0 1 0
-5.598635 -12.765958 -18.555531 23.208234 1.157497 2.497298 0.028540 -0.012527 229106.000000 0 1 0
-4.753535 -13.825558 -18.114031 23.277892 1.239636 2.462534 0.027758 0.003307 185596.000000 0 1 0
-4.206435 -13.708358 -16.784331 22.075483 1.273065 2.434595 0.037986 -0.009198 -130595.000000 0 1 0
-3.243635 -14.769458 -16.336331 22.260588 1.354611 2.394795 0.038485 0.006755 771452.000000 0 1 0
-1.927535 -14.657358 -16.942931 22.485916 1.440040 2.424152 0.026571 -0.006800 466886.000000 0 1 0
-1.081235 -15.548258 -16.249931 22.516164 1.501368 2.377052 0.030690 0.000342 994447.000000 0 1 0
0.308565 -15.627658 -17.064431 23.141169 -1.551054 2.400018 0.027911 -0.000350 1245530.000000 0 1 0
0.404265 -16.426158 -18.254331 24.560185 -1.546190 2.408710 0.047006 -0.009021 -320616.000000 0 1 0
0.391565 -17.787558 -18.022131 25.324844 -1.548786 2.362624 0.040440 -0.003281 -262780.000000 0 0 1
0.007565 -18.511158 -19.307131 26.747492 -1.570388 2.377239 0.052349 -0.011975 316686.000000 0 0 1
-1.348635 -18.169158 -19.544531 26.719390 1.496706 2.391277 0.051651 -0.008101 14588.900000 0 0 1
-1.808035 -18.443458 -20.860131 27.902960 1.473077 2.415231 0.048731 -0.002670 130748.000000 0 0 1
-2.854735 -17.458858 -21.389231 27.757169 1.408718 2.450553 0.048375 -0.005178 -9635.690000 0 0 1
-2.298435 -16.150558 -21.464431 26.960065 1.429433 2.491713 0.047067 0.011498 34029.100000 0 0 1
-2.795735 -15.188158 -20.498731 25.665039 1.388761 2.495932 0.043837 0.006183 -1961.400000 0 0 1
-2.090135 -13.813858 -20.502831 24.810429 1.420628 2.543444 0.047184 -0.006809 -377381.000000 0 1 0
-2.291335 -13.137558 -21.706631 25.475939 1.398122 2.590675 0.052130 -0.015912 -296396.000000 0 0 1
-1.574735 -11.981458 -21.786931 24.913962 1.440114 2.635173 0.036499 -0.001826 -344690.000000 0 1 0
-1.856235 -11.250558 -23.117431 25.776661 1.407279 2.683360 0.054363 0.009869 -686601.000000 0 0 1
-2.973135 -10.438958 -23.094731 25.518189 1.293332 2.702247 0.047420 -0.001074 -687265.000000 0 0 1
-3.099735 -9.526158 -24.183731 26.176495 1.256210 2.748874 0.057168 -0.010246 -161909.000000 0 0 1
-4.228835 -8.520458 -23.937431 25.758141 1.110101 2.763350 0.066870 -0.019790 697163.000000 0 0 1
-5.567635 -9.054958 -23.859031 26.119804 1.019514 2.722469 0.039078 -0.021466 926821.000000 0 0 1
-6.433635 -7.991258 -23.601631 25.734973 0.892963 2.731549 0.067664 -0.028801 -10158.000000 0 0 1
-7.961535 -8.285258 -23.425031 26.091447 0.805321 2.685556 0.029106 -0.027942 1078210.000000 0 0 1
-8.761135 -8.583458 -24.579731 27.469918 0.775155 2.678751 0.012082 -0.019416 187731.000000 0 0 1
-8.928235 -7.542458 -25.492781 28.044321 0.701460 2.711717 0.011162 -0.020347 -283145.000000 0 0 1
-9.678835 -7.929458 -26.805521 29.581956 0.686373 2.704874 0.009276 -0.024784 257493.000000 0 0 1
-9.910535 -6.775258 -27.587511 30.086435 0.599663 2.731144 0.009707 -0.026743 -106617.000000 0 0 1
-10.642335 -7.228258 -28.709211 31.459908 0.596628 2.720310 0.018304 -0.020024 -176047.000000 0 0 1
-11.406335 -6.166458 -29.496851 32.221016 0.495611 2.727430 0.030391 -0.025962 -356953.000000 0 0 1
-10.638635 -5.258158 -30.219251 32.465858 0.459038 2.767394 0.006125 -0.015463 -390215.000000 0 0 1
-11.436535 -4.601158 -31.186131 33.534158 0.382506 2.765158 0.022572 -0.027568 -276915.000000 0 0 1
-10.661035 -3.730358 -32.111641 34.040134 0.336591 2.803372 0.014623 -0.025294 -195817.000000 0 0 1
-9.693535 -4.392258 -32.927591 34.604665 0.425439 2.828989 0.016180 -0.014946 55075.200000 0 0 1
-9.146335 -3.424158 -33.782421 35.165783 0.358222 2.860171 0.016550 -0.013582 268552.000000 0 0 1
-7.994035 -4.079458 33.813776 34.984540 0.471864 0.259436 0.019326 -0.008543 986194.000000 0 0 1
-6.770835 -4.297558 -33.978671 34.912223 0.565556 2.909817 0.023637 -0.013137 -276610.000000 0 0 1
-5.747535 -4.605058 33.597717 34.395455 0.675486 0.215793 0.015652 -0.006047 -317625.000000 0 0 1
-4.365335 -4.172558 34.102307 34.632842 0.762823 0.175260 0.033676 -0.005090 -157631.000000 0 0 1
-4.303535 -2.776458 34.118746 34.500985 0.572963 0.148994 0.050392 -0.010889 703655.000000 0 0 1
-2.919035 -2.390458 34.194024 34.401545 0.686172 0.109895 0.050090 -0.014178 1030310.000000 0 0 1
-2.789435 -0.934258 -33.867291 33.994811 0.323184 3.054950 0.063097 -0.016565 42571.000000 0 0 1
-2.897435 -0.684258 -32.508581 32.644620 0.231911 3.050267 0.059168 -0.018722 -56538.400000 0 0 1
-3.616035 0.485642 -32.210281 32.416258 -0.133504 3.028802 0.066438 -0.019264 -418356.000000 0 0 1
-4.267635 0.452442 -30.799371 31.096924 -0.105623 3.003145 0.076698 -0.022253 456470.000000 0 0 1
-5.392235 -0.368758 -30.549551 31.023979 0.068280 2.966485 0.067108 -0.025938 -899396.000000 0 0 1
-6.597835 0.173342 -30.926141 31.622582 -0.026267 2.931332 0.073549 -0.027162 -1176630.000000 0 0 1
-7.756535 -0.800158 -30.640981 31.617619 0.102796 2.892396 0.055676 -0.031310 -132688.000000 0 0 1
-7.956735 -1.148558 -29.272941 30.356777 0.143360 2.873571 0.058326 -0.029619 -77323.700000 0 0 1
-8.900635 -2.195558 -29.187171 30.593018 0.241846 2.837259 0.025090 -0.021686 -48464.800000 0 0 1
-9.222935 -2.780358 -27.806281 29.427575 0.292797 2.808102 0.020014 -0.024154 -184786.000000 0 0 1
-10.159035 -2.063658 -27.041131 28.960101 0.200408 2.775512 0.030081 -0.025311 -3431.000000 0 0 1
-10.298835 -2.644458 -25.695581 27.808669 0.251343 2.749243 0.027433 -0.021858 -66798.900000 0 0 1
-11.220635 -1.789758 -24.818931 27.296249 0.158173 2.712259 0.033452 -0.019977 -84353.900000 0 0 1
-10.713735 -0.511558 -24.494331 26.739822 0.047712 2.728851 0.044408 -0.025358 231443.000000 0 0 1
-11.582635 0.219442 -23.643431 26.329022 -0.018944 2.685996 0.044517 -0.024754 51313.500000 0 0 1
-10.771635 1.290242 -22.903031 25.342488 -0.119214 2.699225 0.041664 -0.024603 118751.000000 0 0 1
-10.588835 2.385142 -23.744731 26.107941 -0.221553 2.712835 0.030759 -0.023227 115636.000000 0 0 1
-9.719835 3.321642 -23.087331 25.269218 -0.329296 2.722981 0.035911 -0.025507 62878.600000 0 0 1
-9.525235 4.635942 -23.945731 26.184348 -0.452952 2.725080 0.043695 -0.027045 -132587.000000 0 0 1
-10.705835 5.281342 -24.386431 27.151529 -0.458285 2.686364 0.044178 -0.015921 -151761.000000 0 0 1
-11.132035 4.896142 -25.682991 28.416728 -0.414360 2.699360 0.038189 -0.017614 -832751.000000 0 0 1
-12.561035 5.282542 -25.996571 29.351432 -0.398095 2.658797 0.033564 -0.005995 -740832.000000 0 0 1
-12.767435 6.673542 -26.082881 29.796984 -0.481643 2.636962 0.021078 0.003380 760550.000000 0 0 1
-14.086635 6.941142 -26.588851 30.880087 -0.457828 2.608099 0.030396 -0.005749 737610.000000 0 0 1
-14.360235 8.462642 -26.832671 31.588367 -0.532523 2.585734 0.032397 0.005886 -308062.000000 0 0 1
-14.134335 9.226942 -25.614481 30.676009 -0.578343 2.558930 0.046077 0.005707 307221.000000 0 0 1
-14.715335 10.490642 -25.785301 31.487719 -0.619335 2.530289 0.032828 0.008271 -112549.000000 0 0 1
-14.242435 11.464642 -24.698931 30.729826 -0.677760 2.504359 0.030424 0.001763 1862.000000 0 0 1
-14.854535 11.139642 -23.455531 29.915060 -0.643447 2.471994 0.059170 0.000399 169279.000000 0 0 1
-14.389235 11.954442 -22.376231 29.165982 -0.693236 2.445265 0.057424 -0.001709 -262190.000000 0 0 1
-15.273835 12.048442 -21.108331 28.705690 -0.667892 2.396959 0.072914 -0.007108 -102997.000000 0 0 1
-16.489735 12.679442 -21.468231 29.892550 -0.655506 2.371980 0.063435 -0.004313 -130369.000000 0 0 1
-17.171835 13.007942 -20.253031 29.567952 -0.648294 2.325353 0.069257 0.001331 -78015.800000 0 0 1
-18.680535 13.272442 -20.403331 30.682504 -0.617735 2.298267 0.063715 -0.001789 -126300.000000 0 0 1
-18.895235 14.402142 -21.221031 31.855671 -0.651270 2.299847 0.047940 0.003776 509247.000000 0 0 1
-20.292235 14.704242 -21.176731 32.809198 -0.627062 2.272410 0.036378 0.000911 542575.000000 0 0 1
-20.492135 16.033342 -21.820431 33.957722 -0.663926 2.268652 0.032822 -0.002678 -176075.000000 0 0 1
-20.465735 15.988542 -23.232631 34.845874 -0.663193 2.300603 0.043864 -0.008269 158840.000000 0 0 1
-20.976535 17.163942 -23.848131 36.101929 -0.685767 2.292384 0.028054 -0.001062 74339.400000 0 0 1
-20.864635 17.032742 -25.376071 37.005301 -0.684628 2.326418 0.024145 0.002196 285172.000000 0 0 1
-19.559235 17.349042 -25.829821 36.752314 -0.725586 2.350133 0.018505 -0.004568 337287.000000 0 0 1
-19.319335 16.863842 -27.140871 37.339694 -0.717639 2.384541 0.008980 -0.010055 -319658.000000 0 0 1
-18.536935 17.793942 -28.074191 38.057884 -0.764950 2.400410 -0.002611 0.003638 -322344.000000 0 0 1
-19.217035 19.017842 -28.264491 39.113351 -0.780189 2.378396 0.005952 -0.009140 263309.000000 0 0 1
-18.386235 20.114342 -27.994601 39.068377 -0.830253 2.369646 -0.003939 -0.011343 -1327900.000000 0 0 1
-19.220135 21.436742 -28.055461 40.200204 -0.839864 2.343248 0.024596 -0.009001 416640.000000 0 0 1
-20.130335 21.593742 -26.983231 39.995186 -0.820457 2.311303 0.038143 0.003021 172831.000000 0 0 1
-21.295935 20.785742 -27.082091 40.236844 -0.773275 2.309144 0.074629 -0.016697 -798995.000000 0 0 1
-22.315935 21.240042 -25.979901 40.300070 -0.760702 2.271377 0.062328 0.000092 69278.800000 0 0 1
-22.064335 20.803542 -24.652731 39.081702 -0.755996 2.253380 0.023448 0.008433 149732.000000 0 0 1
-23.085135 21.305842 -23.800131 39.412037 -0.745337 2.219156 0.026835 -0.011042 -138040.000000 0 0 1
-22.990335 20.852042 -22.348131 38.246597 -0.736665 2.194834 0.038407 0.002024 -511978.000000 0 0 1
-21.967035 21.532642 -21.685731 37.636103 -0.775412 2.184862 0.043853 -0.002577 -135388.000000 0 0 1
-20.795035 20.739442 -21.553931 36.429794 -0.784060 2.203909 0.034601 0.003629 -115370.000000 0 0 1
-20.751235 19.954242 -20.196031 35.166251 -0.765821 2.182547 0.033439 -0.007490 -294402.000000 0 0 1
-21.662635 18.803242 -20.232631 35.102579 -0.714854 2.185095 0.043744 -0.009096 996550.000000 0 0 1
-22.161735 18.313442 -18.975031 34.446719 -0.690605 2.154181 0.028628 -0.006596 -448271.000000 0 0 1
-23.211935 19.250542 -18.383631 35.317633 -0.692376 2.118259 0.046914 -0.010879 -284798.000000 0 0 1
-24.501435 19.115542 -18.980731 36.414179 -0.662539 2.119106 0.031459 -0.014829 422356.000000 0 0 1
-25.429065 20.098842 -18.597431 37.369309 -0.668853 2.091702 0.044602 -0.023802 -441397.000000 0 0 1
-26.779175 19.955442 -19.356431 38.600717 -0.640412 2.096073 0.037535 -0.013081 638610.000000 0 0 1
-27.631775 18.849142 -18.970731 38.453788 -0.598649 2.086720 0.017760 -0.016080 864746.000000 0 0 1
-28.255675 19.008842 -17.683531 38.372210 -0.592198 2.049740 0.011528 -0.012792 -858766.000000 0 0 1
-29.240545 17.907442 -17.306131 38.408178 -0.549501 2.038216 0.005613 -0.015636 -195685.000000 0 0 1
-28.577935 16.689242 -16.927631 37.172219 -0.528565 2.043600 0.016780 -0.023948 209409.000000 0 0 1
-29.486515 15.738542 -16.492231 37.271302 -0.490285 2.029171 0.012441 -0.022400 120597.000000 0 0 1
-28.691835 14.592142 -15.775631 35.847211 -0.470489 2.026484 0.030432 -0.016923 138544.000000 0 0 1
-28.013135 14.928842 -14.590831 34.935633 -0.489638 2.001653 0.028202 -0.014268 175188.000000 0 0 1
-28.762635 14.897242 -13.345531 35.033130 -0.477894 1.961609 0.009257 -0.005306 326703.000000 0 0 1
-28.087035 15.748442 -12.202831 34.435506 -0.511022 1.933034 0.008117 -0.010368 42137.100000 0 0 1
-27.955575 17.156042 -12.324831 35.039199 -0.550425 1.930230 0.020073 -0.001997 -497371.000000 0 0 1
-29.133515 17.895442 -12.298931 36.335551 -0.550836 1.916100 0.011256 0.000803 -835437.000000 0 0 1
-28.880335 19.434542 -12.413031 36.957523 -0.592329 1.913328 0.051367 -0.010934 -394503.000000 0 0 1
-28.247675 20.008242 -11.340431 36.426176 -0.616285 1.887385 -0.001055 -0.019052 -314037.000000 0 0 1
-27.186245 20.755642 -11.887131 36.210392 -0.652061 1.905278 -0.008260 -0.019172 189544.000000 0 0 1
-26.266875 21.485242 -10.871931 35.633738 -0.685596 1.880842 0.024003 -0.014979 615086.000000 0 0 1
-26.923025 22.674742 -10.461331 36.721011 -0.699952 1.859685 0.031026 -0.026861 252744.000000 0 0 1
-25.969845 23.692542 -10.251631 36.617828 -0.739575 1.854552 0.037596 -0.020988 287886.000000 0 0 1
-26.499995 24.743442 -9.215431 37.408714 -0.751133 1.819703 0.067517 -0.013400 98572.900000 0 0 1
-26.488555 24.411742 -7.830031 36.863072 -0.744619 1.784835 0.068687 -0.021590 476169.000000 0 0 1
-27.370535 25.228542 -7.009031 37.878121 -0.744698 1.756911 0.075072 -0.028316 747277.000000 0 0 1
-27.234045 24.640442 -5.589631 37.149544 -0.735442 1.721833 0.082658 -0.021222 -46248.700000 0 0 1
-27.644895 23.276042 -5.651831 36.578102 -0.699811 1.725932 0.081181 -0.026798 147084.000000 0 0 1
-27.206215 22.590842 -4.482131 35.645670 -0.692979 1.696871 0.080716 -0.025638 -20334.200000 0 0 1
-27.427745 21.052442 -4.660631 34.888508 -0.654645 1.704783 0.076229 -0.018249 279452.000000 0 0 1
-26.543815 20.499442 -5.631831 34.007628 -0.657613 1.737168 0.067880 -0.025743 208352.000000 0 0 1
-26.929985 20.627342 -7.013631 34.639607 -0.653639 1.774680 0.053034 -0.023661 -284492.000000 0 0 1
-27.848265 19.470042 -7.495531 34.796428 -0.610154 1.787909 0.046806 -0.016181 -149335.000000 0 0 1
-27.227635 18.205242 -7.601931 33.623865 -0.589361 1.798855 0.041128 -0.010741 332444.000000 0 0 1
-26.931965 17.755542 -8.924131 33.469839 -0.582867 1.840693 0.018504 -0.005951 -163554.000000 0 0 1
-26.356125 16.374042 -8.991231 32.304749 -0.555906 1.852846 0.036086 -0.003697 -258044.000000 0 0 1
-27.269225 15.373842 -8.605431 32.465660 -0.513361 1.839065 0.041951 -0.007876 500087.000000 0 0 1
-26.628315 14.098742 -8.525031 31.313222 -0.486940 1.846527 0.053598 -0.014270 591130.000000 0 0 1
-27.586845 13.299142 -7.588331 31.551291 -0.449211 1.813685 0.064992 -0.010981 690868.000000 0 0 1
-28.843645 12.984742 -8.170131 32.669717 -0.423001 1.823562 0.076090 -0.013478 -124845.000000 0 0 1
-29.570785 12.235242 -7.245331 32.811999 -0.392313 1.793445 0.094332 -0.018004 80560.800000 0 0 1
-30.436885 11.086142 -7.840931 33.328467 -0.349299 1.808285 0.069876 -0.010387 225963.000000 0 0 1
-29.619325 10.127642 -8.436431 32.419854 -0.329465 1.834051 0.068557 -0.011929 278394.000000 0 0 1
-30.431585 9.034442 -8.844531 32.953425 -0.288589 1.842523 0.055522 -0.005245 249186.000000 0 0 1
-29.562475 7.758042 -9.131431 31.898436 -0.256642 1.861124 0.081233 -0.012526 27785.000000 0 0 1
-29.000505 7.805342 -10.420831 31.789092 -0.262915 1.904783 0.069272 -0.024231 241007.000000 0 0 1
-27.964855 6.840242 -10.507631 30.646898 -0.239891 1.920757 0.080139 -0.034741 -95865.200000 0 0 1
-27.293275 6.754642 -11.906831 30.533927 -0.242609 1.971378 0.059204 -0.033390 -50283.400000 0 0 1
-26.427075 7.847342 -12.163631 30.131794 -0.288650 1.986333 0.065987 -0.028692 693983.000000 0 0 1
-25.476685 7.541042 -13.190131 29.663249 -0.287781 2.031594 0.055165 -0.022918 286187.000000 0 0 1
-31.139975 26.053542 -34.192573 53.081232 -0.696698 2.270715 0.042413 -0.014594 -110329.000000 0 0 1
-31.632325 27.370342 -34.181826 54.019782 -0.713290 2.255915 0.040535 -0.023450 319782.000000 0 0 1
-31.783825 27.780742 32.959110 53.556364 -0.718293 0.907891 0.042519 -0.029810 -113761.000000 0 0 1
-32.364305 29.245142 32.964133 54.675046 -0.734813 0.923653 0.053896 -0.034927 -50173.100000 0 0 1
-32.310875 29.817742 31.678082 54.190325 -0.745291 0.946445 0.072152 -0.028839 129308.000000 0 0 1
-32.283135 31.231342 31.697672 54.975813 -0.768840 0.956266 0.078782 -0.032424 -134033.000000 0 0 1
-31.913355 31.895342 30.310812 54.355500 -0.785116 0.979256 0.089568 -0.031567 618579.000000 0 0 1
-30.565485 31.630642 29.908682 53.190936 -0.802522 0.973645 0.075657 -0.031775 509533.000000 0 0 1
-30.326715 32.230142 28.667872 52.728916 -0.815816 0.995976 0.056664 -0.021148 -77781.800000 0 0 1
-28.965525 31.912142 28.015962 51.403119 -0.833763 0.994378 0.078076 -0.022582 -457109.000000 0 0 1
-28.791335 30.654142 27.447422 50.219303 -0.816724 0.992556 0.104765 -0.027601 109510.000000 0 0 1
-27.770425 30.619342 26.462102 49.081397 -0.834151 1.001372 0.059521 -0.016606 -237584.000000 0 0 1
-28.122495 31.249442 25.078442 48.952330 -0.838017 1.032932 0.073441 -0.012829 -320139.000000 0 0 1
-28.156735 32.696042 25.176242 49.956742 -0.859855 1.042618 0.062913 -0.015315 486049.000000 0 0 1
-29.377655 33.228042 24.656162 50.745204 -0.846823 1.063425 0.077176 -0.014995 153709.000000 0 0 1
-29.508235 -33.918367 24.972992 51.428027 0.854818 1.063757 0.074343 -0.010663 -381062.000000 0 0 1
-29.916085 -33.684267 26.274262 52.153033 0.844577 1.042814 0.069090 -0.021981 94103.100000 0 0 1
-29.823005 -32.353667 26.688532 51.463085 0.826077 1.025589 0.064671 -0.027345 -186576.000000 0 0 1
-30.202395 -32.173667 28.146102 52.340545 0.816991 1.003031 0.076773 -0.033772 -327248.000000 0 0 1
-31.556305 -32.405067 28.425312 53.421785 0.798667 1.009727 0.060019 -0.039183 -398744.000000 0 0 1
-31.745995 -32.883667 29.739302 54.530449 0.802999 0.993965 0.056598 -0.032414 32377.900000 0 0 1
-33.187485 -33.321367 30.064102 55.817317 0.787411 1.002003 0.068659 -0.039409 141109.000000 0 0 1
-33.471895 -33.516067 31.471372 56.869515 0.786058 0.984360 0.058869 -0.040973 730237.000000 0 0 1
-34.878661 -33.650867 31.724152 57.925156 0.767484 0.991214 0.056870 -0.043158 647554.000000 0 0 1
-35.280628 -34.184267 33.118198 59.246113 0.769617 0.977625 0.054507 -0.034390 177084.000000 0 0 1
-34.873051 33.072142 33.395708 58.524949 -0.758899 0.963531 0.053651 -0.028329 593780.000000 0 0 1
-35.811861 32.537542 -34.136650 59.215639 -0.737529 2.185211 0.049626 -0.025099 439908.000000 0 0 1
-35.472994 31.147742 -33.543811 57.911160 -0.720566 2.188579 0.054142 -0.018901 -213584.000000 0 0 1
-34.369468 31.216442 -32.695621 56.786708 -0.737360 2.184332 0.053911 -0.021062 -640104.000000 0 0 1
-33.861405 29.924342 -32.390821 55.598798 -0.723753 2.192697 0.043355 -0.018151 -344063.000000 0 0 1
-32.885555 30.067442 -31.243251 54.421058 -0.740663 2.182304 0.040352 -0.015534 -379997.000000 0 0 1
-33.372385 30.350942 -29.931501 54.136776 -0.738019 2.156621 0.048119 -0.021480 -205313.000000 0 0 1
-34.036527 31.619342 -29.731221 55.156264 -0.748599 2.140089 0.044758 -0.008225 -127656.000000 0 0 1
-35.058597 31.543742 -28.627351 55.169178 -0.732673 2.116361 0.039770 -0.005659 -282325.000000 0 0 1
-34.475199 31.498542 -27.326511 54.105783 -0.740310 2.100244 0.031658 -0.013203 -393990.000000 0 0 1
-35.413663 31.070742 -26.394721 54.001851 -0.720168 2.081481 0.043316 -0.014993 -839979.000000 0 0 1
-34.935498 30.731142 -25.054031 52.845025 -0.721460 2.064742 0.046315 -0.018928 -508536.000000 0 0 1
-34.675844 31.919342 -24.304531 53.028000 -0.744030 2.046916 0.037637 -0.021331 -12112.500000 0 0 1
-34.309489 31.775842 -22.924931 52.080684 -0.747078 2.026597 0.030216 -0.022547 -412714.000000 0 0 1
-35.425275 31.328942 -21.939631 52.132525 -0.724111 2.005171 0.033904 -0.022920 -1289.040000 0 0 1
35.765735 32.366642 -21.794531 52.931927 0.735550 1.995166 0.035388 -0.026116 192901.000000 0 0 1
-36.032345 33.567542 -21.092631 53.572464 -0.749999 1.975473 0.033825 -0.026079 -532593.000000 0 0 1
-35.900954 33.579442 -19.523531 52.892587 -0.751998 1.948855 0.031035 -0.019586 -445423.000000 0 0 1
-34.898151 32.695042 -19.144731 51.510848 -0.752816 1.951597 0.024331 -0.022485 -417294.000000 0 0 1
-34.755260 32.457842 -17.766031 50.764865 -0.751230 1.928332 0.036895 -0.012845 982694.000000 0 0 1
-33.389455 31.695442 -17.494731 49.249593 -0.759376 1.933952 0.032950 -0.011396 899272.000000 0 0 1
-33.221155 31.120142 -16.262131 48.338032 -0.752756 1.913915 0.036963 -0.008081 410226.000000 0 0 1
-31.863835 30.691942 -16.107231 47.082292 -0.766667 1.919956 0.032713 -0.007130 447401.000000 0 0 1
-31.455285 30.327242 -14.645131 46.083147 -0.767142 1.894202 0.037802 -0.002038 -302044.000000 0 0 1
-32.353135 29.377142 -14.056631 45.905672 -0.737226 1.882002 0.046752 -0.004795 292715.000000 0 0 1
-31.901355 28.734542 -12.824931 44.809031 -0.733219 1.861069 0.074142 -0.011911 87267.600000 0 0 1
-33.044615 28.060642 -12.017131 44.986194 -0.704015 1.841209 0.070528 -0.015902 171286.000000 0 0 1
-32.594485 27.506542 -10.784731 43.992281 -0.700943 1.818471 0.088722 -0.011512 228228.000000 0 0 1
-33.658185 26.875842 -10.086631 44.237139 -0.673822 1.800832 0.093335 -0.015295 263254.000000 0 0 1
-33.191955 26.088742 -8.783131 43.121593 -0.666143 1.775915 0.088792 -0.014977 153347.000000 0 0 1
-32.815575 26.903042 -7.725131 43.131350 -0.686713 1.750875 0.095735 -0.020445 -599653.000000 0 0 1
-31.449915 27.049642 -7.512331 42.157033 -0.710321 1.749952 0.096428 -0.028317 -964148.000000 0 0 1
-31.182855 27.781042 -6.160831 42.215076 -0.727769 1.717259 0.088865 -0.030945 -253572.000000 0 0 1
-30.154155 27.114442 -5.472931 40.919666 -0.732370 1.704947 0.096789 -0.033824 201648.000000 0 0 1
-30.156045 27.433742 -4.126531 40.975914 -0.738163 1.671674 0.094281 -0.029787 116584.000000 0 0 1
-29.374335 26.356142 -3.352231 39.607263 -0.731294 1.655534 0.086999 -0.029958 -128451.000000 0 0 1
-30.160285 25.202842 -3.182831 39.432936 -0.696092 1.651599 0.085639 -0.019431 99381.400000 0 0 1
-29.478305 24.230242 -2.423031 38.235405 -0.687994 1.634210 0.071605 -0.017618 -492621.000000 0 0 1
-30.368775 23.147242 -1.869131 38.230236 -0.651267 1.619707 0.070437 -0.017170 -410204.000000 0 0 1
-30.735845 22.193442 -2.876331 38.019920 -0.625385 1.646522 0.065400 -0.015441 824581.000000 0 0 1
-31.858295 21.326042 -2.581131 38.424124 -0.589895 1.638022 0.085943 -0.011794 841803.000000 0 0 1
-32.303055 20.485242 -3.819631 38.441151 -0.565158 1.670324 0.077225 -0.003847 -248621.000000 0 0 1
-31.366125 19.497542 -4.167231 37.166568 -0.556159 1.683156 0.072510 -0.002931 279518.000000 0 0 1
-31.707745 18.859242 -5.333431 37.275966 -0.536575 1.714369 0.070766 -0.006010 40046.400000 0 0 1
-30.617105 17.798742 -5.642731 35.861438 -0.526581 1.728801 0.052256 -0.001249 113500.000000 0 0 1
-30.535725 16.691942 -4.759531 35.124131 -0.500257 1.706720 0.064858 -0.000249 374847.000000 0 0 1
-29.493005 15.815642 -5.168431 33.862731 -0.492226 1.724024 0.064136 -0.001686 179556.000000 0 0 1
-29.048355 14.649842 -4.210231 32.804738 -0.467102 1.699493 0.078386 -0.007233 -279639.000000 0 0 1
-30.145855 13.877542 -3.826431 33.406591 -0.431425 1.685589 0.090878 -0.007383 73084.000000 0 0 1
-29.756885 12.643042 -3.238331 32.493161 -0.401767 1.670624 0.092687 -0.012912 -524075.000000 0 0 1
-30.936935 11.834442 -2.723131 33.234973 -0.365360 1.652824 0.094712 -0.012371 -551760.000000 0 0 1
-31.773765 11.395642 -3.783831 33.966898 -0.344359 1.682426 0.089364 -0.005917 11318.100000 0 0 1
-32.618315 10.392942 -3.304431 34.393124 -0.308453 1.667023 0.062955 -0.000962 -659130.000000 0 0 1
-33.732055 10.031142 -4.271931 35.450314 -0.289049 1.691595 0.051496 0.002363 -500434.000000 0 0 1
-33.257055 9.255842 -5.335831 34.930981 -0.271443 1.724150 0.055932 -0.005848 364485.000000 0 0 1
-34.265609 8.835842 -6.224031 35.929690 -0.252366 1.744903 0.064698 -0.005211 -75261.400000 0 0 1
-33.666935 7.917442 -7.319131 35.351352 -0.230973 1.779344 0.072487 -0.016677 68588.800000 0 0 1
-32.983355 6.787142 -6.743231 34.342949 -0.202942 1.768430 0.062669 -0.016920 634915.000000 0 0 1
-32.572795 5.880142 -7.760431 33.996873 -0.178600 1.801096 0.071028 -0.019051 -525264.000000 0 0 1
-31.633655 4.765242 -7.290431 32.810761 -0.149514 1.794863 0.072918 -0.018620 -381015.000000 0 0 1
-30.302895 5.189742 -7.141031 31.562528 -0.169617 1.799023 0.073558 -0.017146 -183992.000000 0 0 1
-29.486365 4.092242 -6.848331 30.546552 -0.137903 1.796911 0.073770 -0.021585 -179216.000000 0 0 1
-27.983775 4.373742 -6.638431 29.091065 -0.155041 1.801020 0.104141 -0.017243 353376.000000 0 0 1
-27.290635 4.766042 -7.825031 28.787585 -0.172897 1.846080 0.098731 -0.019321 1291310.000000 0 0 1
-25.854885 4.666342 -7.709131 27.380295 -0.178560 1.856213 0.117897 -0.022029 1503700.000000 0 0 1
-24.988135 5.048042 -8.967831 27.024278 -0.199335 1.909053 0.111890 -0.015943 62113.200000 0 0 1
-25.184475 4.094642 -10.042031 27.420180 -0.161176 1.945748 0.103122 -0.029719 761399.000000 0 0 1
-24.149135 4.150642 -11.019231 26.866932 -0.170212 1.993405 0.099380 -0.030731 216841.000000 0 0 1
-24.600935 3.293242 -12.242731 27.675547 -0.133075 2.029032 0.093786 -0.035392 372893.000000 0 0 1
-25.655065 4.001742 -12.896431 28.991624 -0.154736 2.031784 0.077522 -0.026468 385527.000000 0 0 1
-26.107615 3.375042 -14.051231 29.840167 -0.128561 2.061088 0.071093 -0.033509 7779.410000 0 0 1
-26.956495 4.280842 -14.975731 31.132792 -0.157490 2.072623 0.057259 -0.031635 -23005.700000 0 0 1
-26.155005 5.314942 -15.597531 30.913037 -0.200480 2.099670 0.048431 -0.030160 577838.000000 0 0 1
-26.818485 6.379242 -16.314531 32.032636 -0.233528 2.105179 0.067955 -0.026187 -495795.000000 0 0 1
-27.649975 5.915142 -17.483331 33.244201 -0.210753 2.124577 0.028886 -0.018588 -228018.000000 0 0 1
-28.855835 5.227042 -17.206531 34.000675 -0.179200 2.101412 0.029578 -0.029596 -126274.000000 0 0 1
-29.299845 4.493242 -18.329331 34.851607 -0.152168 2.124599 0.039237 -0.021672 218642.000000 0 0 1
-30.730345 3.930342 -18.055031 35.857856 -0.127207 2.098461 0.036124 -0.026716 238786.000000 0 0 1
-30.852225 2.775742 -17.238731 35.450506 -0.089727 2.078619 0.044562 -0.033491 149103.000000 0 0 1
-30.422125 1.585342 -17.850131 35.307877 -0.052064 2.100823 0.076428 -0.030290 -199206.000000 0 0 1
-30.903415 0.423142 -17.010231 35.278153 -0.013692 2.073932 0.074103 -0.027162 -354779.000000 0 0 1
-30.029085 -0.691958 -17.019831 34.523896 0.023039 2.086316 0.072788 -0.017006 330466.000000 0 0 1
-30.568385 -1.674558 -16.188631 34.630941 0.054726 2.057213 0.091274 -0.029077 -187227.000000 0 0 1
-30.353395 -3.103958 -16.574431 34.722830 0.101906 2.068416 0.080323 -0.022104 -130655.000000 0 0 1
-30.959635 -3.299058 -17.827131 35.877422 0.106159 2.090808 0.082729 -0.022159 221062.000000 0 0 1
-30.628075 -4.539458 -18.474931 36.055634 0.147141 2.108774 0.084659 -0.019838 858182.000000 0 0 1
-31.773085 -4.856658 -19.539731 37.615384 0.151680 2.117017 0.092911 -0.017855 920283.000000 0 0 1
-31.591405 -6.143558 -20.108331 37.948717 0.192072 2.129257 0.082526 -0.012486 -62914.900000 0 0 1
-32.552745 -6.483358 -21.079531 39.319992 0.196592 2.136609 0.069714 -0.009064 -305283.000000 0 0 1
-32.212265 -7.721358 -21.915431 39.718201 0.235264 2.155285 0.068421 -0.015752 -423737.000000 0 0 1
-31.177055 -7.412058 -22.805731 39.332540 0.233408 2.189302 0.069636 -0.016788 -383161.000000 0 0 1
-31.098055 -8.305558 -23.929431 40.108465 0.260985 2.210077 0.058095 -0.008841 -132595.000000 0 0 1
-29.958985 -8.080558 -24.954331 39.819026 0.263451 2.248099 0.049212 -0.008514 -186506.000000 0 0 1
-29.961475 -6.863058 -25.633561 40.023381 0.225178 2.265899 0.051161 -0.004223 -44783.100000 0 0 1
-29.683315 -7.020858 -26.995061 40.732358 0.232257 2.295271 0.045836 -0.001267 52079.500000 0 0 1
-30.881025 -7.337958 -27.926771 42.277510 0.233294 2.292359 0.053279 -0.001642 419244.000000 0 0 1
-31.710255 -8.429858 -27.534821 42.834205 0.259831 2.268974 0.048905 -0.014519 -203285.000000 0 0 1
-33.042685 -8.380358 -27.980971 44.101975 0.248385 2.258107 0.043255 -0.009451 392345.000000 0 0 1
-33.893495 -9.561258 -27.440511 44.644914 0.274952 2.232725 0.033284 -0.011674 -308500.000000 0 0 1
-33.515595 -10.791858 -28.044271 45.013781 0.311512 2.243388 0.032807 -0.009185 508828.000000 0 0 1
-34.391116 -11.944058 -27.807961 45.811484 0.334268 2.223087 0.018934 -0.007946 909746.000000 0 0 1
-35.793416 -11.950858 -28.485161 47.279975 0.322246 2.217399 0.031789 -0.011766 196949.000000 0 0 1
35.462875 -11.042158 -27.957951 46.488620 -0.301857 2.216040 0.022189 -0.009052 -6969.670000 0 0 1
34.359885 -10.682258 -28.775651 46.073315 -0.301420 2.245367 0.018149 -0.008175 171512.000000 0 0 1
33.480275 -9.592358 -28.119441 44.762094 -0.279033 2.250031 0.025691 -0.003369 -161607.000000 0 0 1
32.675685 -10.159558 -27.118171 43.661335 -0.301446 2.240945 0.009726 0.008052 246034.000000 0 0 1
31.591835 -9.240858 -26.862101 42.485409 -0.284569 2.255272 0.010641 -0.005542 1159120.000000 0 0 1
30.489645 -9.726858 -25.845981 41.136905 -0.308815 2.250152 0.013136 0.001722 572125.000000 0 0 1
31.000075 -9.859658 -24.539031 40.747779 -0.307936 2.217072 0.011085 0.000344 -329692.000000 0 0 1
29.984325 -10.371558 -23.758831 39.637242 -0.333017 2.213556 0.003015 0.002190 -403167.000000 0 0 1
30.337405 -10.589658 -22.260131 39.089799 -0.335840 2.176647 0.001490 -0.005547 201174.000000 0 0 1
31.171165 -11.731158 -22.059631 39.948578 -0.359951 2.155798 0.004451 -0.003577 295050.000000 0 0 1
31.695415 -11.744258 -20.755831 39.665242 -0.354850 2.121486 0.024794 -0.005975 132054.000000 0 0 1
32.870145 -12.711658 -20.418831 40.730349 -0.369009 2.095917 0.042428 -0.008179 863501.000000 0 0 1
34.101445 -12.311558 -21.057631 41.927399 -0.346465 2.096984 0.043689 -0.004900 679326.000000 0 0 1
35.175205 -13.045358 -20.509231 42.756344 -0.355143 2.071083 0.045804 0.001832 -400296.000000 0 0 1
-35.647397 -12.879458 -21.210731 43.434001 0.346707 2.080987 0.035594 -0.009902 -739721.000000 0 0 1
-35.031360 -11.594758 -21.237131 42.575231 0.319633 2.093026 0.040271 -0.003759 91361.500000 0 0 1
-35.600156 -10.615458 -22.047131 43.198785 0.289791 2.106405 0.051335 -0.012768 -842966.000000 0 0 1
-35.233449 -10.694558 -23.614631 43.742660 0.294696 2.141059 0.036993 -0.011743 196974.000000 0 0 1
-35.785293 -11.758158 -24.435531 44.899183 0.317462 2.146269 0.037425 -0.006163 -447214.000000 0 0 1
34.987085 -11.751858 -24.436531 44.264504 -0.324051 2.155626 0.047134 -0.001549 -913186.000000 0 0 1
34.418385 -12.981758 -25.152871 44.562520 -0.360676 2.170551 0.027046 -0.012303 -289593.000000 0 0 1
34.728065 -14.213858 -24.488331 44.807930 -0.388489 2.148997 0.024054 -0.011580 287879.000000 0 0 1
33.857745 -14.537458 -23.431431 43.665965 -0.405565 2.137206 0.033392 -0.015587 -295148.000000 0 0 1
-29.296995 8.436442 -19.606731 36.247916 -0.280377 2.142311 0.010015 -0.017362 545498.000000 0 0 1
-28.120705 7.674042 -19.881531 35.283711 -0.266410 2.169384 0.018581 -0.016593 803159.000000 0 0 1
-27.184175 8.324542 -20.765831 35.206493 -0.297160 2.201644 0.023908 -0.026391 -607449.000000 0 0 1
-25.945115 7.527642 -21.000031 34.217184 -0.282384 2.231570 0.030450 -0.024584 -1370800.000000 0 0 1
-25.297085 7.350242 -19.789031 32.948055 -0.282771 2.215064 0.037864 -0.027399 -435512.000000 0 0 1
-24.228635 6.449542 -19.859531 31.984752 -0.260162 2.240695 0.059158 -0.029826 372422.000000 0 0 1
-22.817535 6.964342 -19.457631 30.785409 -0.296238 2.254980 0.058321 -0.023091 615581.000000 0 0 1
-22.247035 7.925042 -20.375631 31.191396 -0.342213 2.282659 0.064410 -0.017997 386235.000000 0 0 1
-20.978035 8.341342 -19.890531 30.088024 -0.378455 2.293051 0.063181 -0.005864 123297.000000 0 0 1
-20.260935 9.430442 -20.653331 30.430229 -0.435627 2.316802 0.060417 0.001923 -248368.000000 0 0 1
-19.749935 9.032842 -21.912931 30.851722 -0.428958 2.360672 0.072350 -0.009865 78766.500000 0 0 1
-19.104035 10.034642 -22.663131 31.293381 -0.483653 2.380691 0.065990 -0.004997 343575.000000 0 0 1
-18.116135 9.434642 -23.706331 31.292123 -0.480138 2.430396 0.075535 -0.000684 230693.000000 0 0 1
-18.811935 8.758642 -24.714131 32.270590 -0.435742 2.443144 0.073413 -0.003171 599906.000000 0 0 1
-17.855635 8.107742 -25.603721 32.250732 -0.426235 2.487986 0.054325 -0.000559 312256.000000 0 0 1
-18.445735 7.067842 -26.573971 33.111561 -0.365914 2.502368 0.041418 0.002158 -161221.000000 0 0 1
-18.816535 5.890642 -25.839981 32.503327 -0.303392 2.489796 0.053324 0.003402 481932.000000 0 0 1
-19.568735 4.907142 -26.564671 33.357116 -0.245698 2.492069 0.045425 0.001133 -643457.000000 0 0 1
-19.816635 3.642242 -25.772191 32.713465 -0.181769 2.478051 0.044837 0.005462 -130397.000000 0 0 1
-18.784735 2.714742 -25.504711 31.791923 -0.143525 2.501832 0.046920 0.005239 -43350.300000 0 0 1
-17.659735 3.258642 -24.828231 30.641900 -0.182471 2.515410 0.044259 -0.002280 -557970.000000 0 0 1
-16.830235 2.049042 -24.337331 29.660767 -0.121151 2.533121 0.043374 -0.008224 -155962.000000 0 0 1
-17.395735 1.325842 -23.241831 29.061180 -0.076069 2.497684 0.034246 -0.005589 210533.000000 0 0 1
-18.650835 0.679142 -23.356531 29.897198 -0.036397 2.467427 0.031128 -0.003835 135565.000000 0 0 1
-18.996735 -0.085758 -22.054031 29.107793 0.004514 2.430528 0.046837 -0.010958 44679.500000 0 0 1
-18.437635 -1.376358 -22.057931 28.781818 0.074511 2.443990 0.036721 -0.012434 393774.000000 0 0 1
-18.942935 -2.043058 -20.889431 28.273260 0.107438 2.402145 0.042283 -0.015523 73667.400000 0 0 1
-18.304235 -3.419258 -20.704431 27.846181 0.184673 2.409128 0.025791 -0.023795 -207884.000000 0 0 1
-18.634935 -4.343558 -21.751831 28.970148 0.228998 2.420123 0.029484 -0.025118 392823.000000 0 0 1
-18.910835 -5.630558 -21.275231 29.016518 0.289384 2.393828 0.028990 -0.022247 -410730.000000 0 0 1
-18.970935 -6.818858 -22.297931 30.059789 0.345057 2.406526 0.011841 -0.022421 482508.000000 0 0 1
-17.717335 -6.895758 -23.002731 29.842605 0.371170 2.450895 0.026297 -0.017363 751319.000000 0 0 1
-17.743935 -7.911258 -24.015831 30.890053 0.419403 2.461416 0.037361 -0.019122 332396.000000 0 0 1
-16.406535 -8.007458 -24.804731 30.798839 0.454054 2.507111 0.052463 -0.021592 152614.000000 0 0 1
-16.344435 -8.917758 -25.881891 31.883213 0.499470 2.517976 0.048946 -0.039453 815411.000000 0 0 1
-15.061235 -8.866058 -26.535831 31.774174 0.532045 2.559181 0.057875 -0.042735 2046180.000000 0 0 1
-13.783635 -9.660558 -25.984281 30.959616 0.611311 2.566783 0.059181 -0.046082 954377.000000 0 0 1
-13.226835 -8.958458 -24.885931 29.572161 0.595324 2.570910 0.045985 -0.038125 173003.000000 0 0 1
-12.346435 -9.808158 -24.147531 28.839863 0.671324 2.563117 0.031808 -0.036956 220248.000000 0 0 1
-11.715135 -9.153258 -22.879631 27.285601 0.663246 2.565365 0.033856 -0.030538 504426.000000 0 0 1
-12.675135 -8.763358 -21.864631 26.749160 0.604918 2.527671 0.041874 -0.024537 595501.000000 0 0 1
-11.979835 -8.502358 -20.673731 25.361579 0.617221 2.523801 0.040681 -0.026216 -959664.000000 0 0 1
-12.842835 -8.571158 -19.397631 24.792564 0.588502 2.469302 0.028355 -0.022429 355258.000000 0 1 0
-13.684835 -7.429258 -19.155231 24.685855 0.497362 2.459032 0.020465 -0.015358 1046490.000000 0 1 0
-14.842335 -7.365658 -20.005431 25.976241 0.460651 2.449862 0.028800 -0.019154 173787.000000 0 0 1
-15.677035 -6.043158 -19.806931 25.973134 0.367925 2.438109 0.027087 -0.013323 -209464.000000 0 0 1
-16.002735 -5.669258 -18.537131 25.136691 0.340472 2.400088 0.023151 -0.008261 245186.000000 0 0 1
-15.511035 -4.398458 -18.275031 24.370380 0.276316 2.418688 0.017807 -0.006867 -619339.000000 0 1 0
-15.205035 -4.154658 -16.773231 23.017288 0.266731 2.387252 0.029997 -0.002986 365087.000000 0 1 0
-16.388735 -3.987158 -16.003231 23.250623 0.238650 2.329929 0.041685 -0.011218 234326.000000 0 1 0
-16.996635 -2.751758 -16.043031 23.533734 0.160507 2.320885 0.023157 -0.016958 -328599.000000 0 1 0
-18.066635 -2.591358 -14.954131 23.595433 0.142462 2.257217 0.020874 -0.022147 -296911.000000 0 1 0
-17.517635 -2.573458 -13.662631 22.364206 0.145863 2.228012 0.025709 -0.022427 908977.000000 0 1 0
-18.494135 -2.070058 -12.748231 22.557384 0.111467 2.171407 0.022749 -0.027220 235827.000000 0 1 0
-17.952835 -0.868458 -11.927431 21.571326 0.048337 2.156673 0.021727 -0.029889 -12198.100000 0 1 0
-17.747335 0.247242 -12.800931 21.883621 -0.013930 2.195621 0.043219 -0.032249 362097.000000 0 1 0
-16.881135 1.211542 -12.290131 20.916211 -0.071646 2.198872 0.052633 -0.022131 -1300540.000000 0 1 0
-16.371335 2.270642 -13.300431 21.215039 -0.137817 2.248408 0.062467 -0.021558 176851.000000 0 1 0
-15.611535 1.806042 -14.417931 21.327413 -0.115174 2.313155 0.056833 -0.023463 627689.000000 0 1 0
-14.391535 1.175942 -14.042631 20.141862 -0.081530 2.342261 0.045052 -0.021390 -855411.000000 0 1 0
-13.923735 0.291742 -15.185231 20.604532 -0.020950 2.399395 0.040308 -0.019389 -95181.900000 0 1 0
-13.663335 0.976842 -16.369131 21.344540 -0.071372 2.444793 0.040464 -0.028476 31592.600000 0 1 0
-13.069435 0.030342 -17.191731 21.595524 -0.002322 2.491584 0.021281 -0.020464 -142480.000000 0 1 0
-12.538935 0.626842 -18.539131 22.390114 -0.049950 2.546337 0.038553 -0.025631 -416581.000000 0 1 0
-11.276935 1.201742 -18.339531 21.562742 -0.106166 2.587768 0.035835 -0.024401 -417600.000000 0 1 0
-10.861135 1.897442 -19.519731 22.418395 -0.172955 2.627423 0.034853 -0.016153 291917.000000 0 1 0
-9.444535 2.506942 -19.490531 21.802862 -0.259455 2.676865 0.025665 -0.010739 -388630.000000 0 1 0
-8.408335 1.589342 -19.623831 21.408430 -0.186816 2.730389 0.027415 -0.008143 693666.000000 0 1 0
-7.021135 1.982742 -19.484131 20.805263 -0.275229 2.783309 0.025080 -0.001981 1752680.000000 0 1 0
-6.476635 3.125042 -20.390431 21.621341 -0.449558 2.802539 0.024121 -0.001298 -644865.000000 0 1 0
-6.069635 2.769942 -21.729431 22.730623 -0.428131 2.843689 0.018957 -0.001282 296406.000000 0 1 0
-5.601735 3.864542 -22.508831 23.515136 -0.603904 2.847985 0.007898 -0.003958 -398771.000000 0 1 0
-5.139735 3.429942 -23.914831 24.700213 -0.588467 2.888743 0.028907 -0.012303 -51316.200000 0 1 0
-3.855835 2.848042 -23.820331 24.297880 -0.636186 2.943004 0.043750 -0.018810 -261908.000000 0 1 0
-3.494535 2.243242 -25.052831 25.394650 -0.570680 2.977333 0.066487 -0.018679 664776.000000 0 0 1
-2.040435 1.654442 -25.020031 25.157554 -0.681309 3.036984 0.044576 -0.017523 221239.000000 0 0 1
-1.037735 2.628242 -24.729031 24.889948 -1.194746 3.027820 0.035071 -0.019481 265380.000000 0 1 0
0.282465 2.135842 -24.832031 24.925316 1.439309 3.055049 0.032977 -0.013218 91578.700000 0 1 0
0.776465 1.280542 -23.639131 23.686520 1.025716 3.078326 0.030001 -0.014167 -1078810.000000 0 1 0
0.234565 -0.032858 -23.628931 23.630118 -0.139173 3.131569 0.029887 -0.017900 -119857.000000 0 1 0
0.931065 -0.830958 -22.717331 22.751582 -0.728645 3.086714 0.031596 -0.014229 -660755.000000 0 1 0
0.548565 -2.334658 -22.801831 22.927605 -1.340017 3.036800 0.037454 -0.019600 330790.000000 0 1 0
-0.626935 -2.767858 -22.103631 22.285076 1.348049 3.013897 0.041126 -0.020600 188116.000000 0 1 0
-1.823735 -2.773858 -22.843531 23.083483 0.989186 2.997280 0.050448 -0.024436 -100621.000000 0 1 0
-2.615235 -1.477258 -22.855131 23.051654 0.514185 3.010921 0.045409 -0.024822 -1678580.000000 0 1 0
-3.210135 -1.165858 -21.621931 21.890000 0.348368 2.984932 0.035721 -0.019338 323780.000000 0 1 0
-4.119535 -0.064058 -21.670231 22.058413 0.015548 2.953711 0.036500 -0.015251 1358440.000000 0 1 0
-5.473835 -0.204558 -22.484031 23.141659 0.037353 2.902624 0.036720 -0.006607 403741.000000 0 1 0
-6.351535 -1.095158 -21.814931 22.747145 0.170745 2.854314 0.037000 -0.007696 19726.900000 0 1 0
-7.700235 -0.836158 -22.156731 23.471547 0.108165 2.805294 0.023999 -0.003198 680479.000000 0 1 0
-8.767735 -1.865158 -21.632331 23.416015 0.209605 2.748755 0.038428 -0.007451 400225.000000 0 1 0
-8.793835 -3.106058 -22.390331 24.255021 0.339530 2.746917 0.059641 -0.020814 -68586.500000 0 1 0
-9.244835 -4.210858 -21.619231 23.887014 0.427404 2.702322 0.038095 -0.031430 -718415.000000 0 1 0
-9.913135 -5.254358 -22.579231 25.213096 0.487390 2.680430 0.027225 -0.031023 -899904.000000 0 0 1
-11.159635 -4.820658 -22.957831 25.977648 0.407762 2.654619 0.018403 -0.023155 -1139550.000000 0 0 1
-11.824435 -5.665558 -23.890931 27.252383 0.446821 2.639661 0.012614 -0.031774 939443.000000 0 0 1
-13.374835 -5.525658 -23.661331 27.735856 0.391781 2.592686 0.047009 -0.024431 893596.000000 0 0 1
-13.944335 -4.273458 -24.081131 28.153291 0.297378 2.597037 0.030812 -0.025672 438643.000000 0 0 1
-15.361935 -4.220358 -23.963731 28.776047 0.268114 2.554883 0.030706 -0.023683 928048.000000 0 0 1
-16.074635 -2.852858 -24.246631 29.230666 0.175647 2.548996 0.037831 -0.020751 24593.200000 0 0 1
-15.873635 -2.432658 -25.566981 30.192062 0.152068 2.580758 0.039069 -0.024319 -71225.300000 0 0 1
-16.391935 -1.173758 -25.874201 30.652039 0.071484 2.575730 0.030872 -0.016320 -673250.000000 0 0 1
-17.816535 -1.168558 -26.401441 31.872097 0.065495 2.546963 0.035263 -0.014873 -803542.000000 0 0 1
-17.977835 -1.802558 -27.683431 33.057891 0.099932 2.563347 0.045428 -0.027459 -141372.000000 0 0 1
-17.672835 -1.025558 -28.831851 33.832773 0.057965 2.590947 0.025021 -0.018586 -221076.000000 0 0 1
-17.695335 -1.805358 -30.158641 35.013252 0.101673 2.608716 0.021807 -0.020148 -723425.000000 0 0 1
-18.949335 -2.034358 -30.668121 36.107472 0.106948 2.585562 0.027028 -0.018437 -707762.000000 0 0 1
-18.754035 -2.782158 -31.847621 37.063799 0.147276 2.604627 0.037356 -0.027438 207841.000000 0 0 1
-20.147535 -3.137458 -32.453511 38.327499 0.154483 2.580628 0.011345 -0.022591 492223.000000 0 0 1
-20.914535 -2.055858 -32.939761 39.072653 0.097983 2.573705 0.017751 -0.029054 224647.000000 0 0 1
-21.861135 -1.603458 -32.003801 38.790767 0.073216 2.541063 0.012607 -0.010132 82687.700000 0 0 1
-22.899135 -0.534758 -32.538821 39.792351 0.023348 2.528227 0.019429 -0.003094 319065.000000 0 0 1
-22.414635 0.806442 -32.683151 39.639054 -0.035963 2.540148 0.016426 -0.006994 -119762.000000 0 0 1
-23.405635 1.614342 -33.236681 40.683004 -0.068863 2.526929 0.010610 -0.002689 -292452.000000 0 0 1
-22.929835 3.035042 -33.664841 40.844955 -0.131597 2.539603 0.009206 0.003556 -543371.000000 0 0 1
-22.588035 3.937642 -32.591841 39.849121 -0.172590 2.528515 0.005433 -0.005349 982084.000000 0 0 1
-23.663035 4.266242 -31.690421 39.779679 -0.178375 2.492526 0.002618 -0.006166 1010220.000000 0 0 1
-24.907135 5.098242 -32.244211 41.061498 -0.201901 2.473922 0.009310 -0.010717 545560.000000 0 0 1
-25.811885 4.203542 -32.871891 42.005766 -0.161436 2.469558 0.025668 -0.013897 -205326.000000 0 0 1
-26.743215 4.857942 -33.675881 43.276600 -0.179692 2.462518 0.032046 -0.012024 -368380.000000 0 0 1
-27.973535 4.033442 -34.113858 44.300594 -0.143201 2.449722 0.048060 -0.005236 -92745.900000 0 0 1
-27.700815 2.847942 33.601239 43.640454 -0.102451 0.692024 0.055951 -0.003228 162237.000000 0 0 1
-28.876945 2.424442 32.954143 43.883156 -0.083761 0.721294 0.058211 -0.002048 33790.700000 0 0 1
-28.786405 0.917242 32.654798 43.541179 -0.031853 0.722772 0.061300 0.006154 -227017.000000 0 0 1
-28.907245 0.259342 33.904175 44.555462 -0.008971 0.706031 0.049435 0.010703 257278.000000 0 0 1
-29.201815 -1.124358 33.814076 44.692303 0.038484 0.712703 0.040322 0.008627 -988701.000000 0 0 1
-28.909895 -1.961958 -33.389221 44.209404 0.067761 2.426834 0.007907 0.008594 1896480.000000 0 0 1
-27.495225 -2.134558 -32.999231 43.005732 0.077478 2.445450 0.019806 0.004630 2913200.000000 0 0 1
-26.705455 -0.906658 -32.798181 42.305130 0.033937 2.457949 0.015374 0.014644 -366210.000000 0 0 1
-26.841395 -0.297258 -31.417971 41.323574 0.011074 2.434558 0.045325 0.010366 -336235.000000 0 0 1
-26.082805 -1.000658 -30.451701 40.107607 0.038346 2.432956 0.034814 -0.000913 408068.000000 0 0 1
-26.556285 -0.725558 -29.164351 39.450248 0.027315 2.402781 0.037840 -0.002175 74235.200000 0 0 1
-25.564455 -1.115658 -28.025141 37.949896 0.043613 2.401606 0.040359 0.000223 180421.000000 0 0 1
-25.582895 -2.471958 -27.726821 37.807032 0.096326 2.394073 0.026124 0.012047 1191940.000000 0 0 1
-24.482535 -2.754658 -26.805521 36.407673 0.112044 2.398323 0.037157 0.004060 802915.000000 0 0 1
-24.581235 -4.184858 -26.205831 36.173136 0.168629 2.381041 0.023182 -0.000047 -223396.000000 0 0 1
-25.661015 -4.327158 -25.320421 36.308893 0.167056 2.342506 0.042218 0.000228 -326334.000000 0 0 1
-25.652445 -5.546758 -24.547231 35.935790 0.212949 2.322776 0.033038 -0.005944 -288981.000000 0 0 1
-26.912885 -5.652558 -23.687731 36.295501 0.207023 2.281854 0.046559 -0.016048 -199530.000000 0 0 1
-26.992155 -6.685758 -22.709031 35.902310 0.242806 2.255602 0.037405 -0.012767 597089.000000 0 0 1
-28.165665 -6.366158 -21.931031 36.260209 0.222290 2.220341 0.063680 -0.014119 560716.000000 0 0 1
-28.545135 -7.504858 -20.984831 36.214786 0.257094 2.188856 0.057825 -0.015379 44862.100000 0 0 1
-27.639525 -7.702158 -19.883831 34.908929 0.271770 2.176805 0.038247 -0.015493 612877.000000 0 0 1
-28.275795 -8.527258 -18.924131 35.076451 0.292901 2.140653 0.039122 -0.007162 398638.000000 0 0 1
-28.939765 -7.809958 -17.716031 34.819006 0.263590 2.104591 0.048447 -0.011103 195236.000000 0 0 1
-28.022435 -7.487958 -16.687731 33.463514 0.261112 2.092877 0.061867 -0.027097 217880.000000 0 0 1
-28.577165 -6.511758 -15.812631 33.303103 0.224040 2.065544 0.061463 -0.024647 -205953.000000 0 0 1
-27.604735 -5.862358 -14.825931 31.877843 0.209259 2.054528 0.068208 -0.030438 4999.480000 0 0 1
-26.766005 -4.842358 -15.362631 31.239044 0.178979 2.084925 0.076711 -0.023916 613513.000000 0 0 1
-25.632635 -4.654558 -14.524531 29.827150 0.179630 2.079398 0.061790 -0.038441 44728.800000 0 0 1
-13.935635 21.293442 -5.075331 25.949405 -0.991295 1.767651 0.058769 -0.018599 12642.300000 0 0 1
-14.116235 20.686942 -6.319131 25.829230 -0.971998 1.817955 0.083782 -0.025592 -126008.000000 0 0 1
-14.878435 19.526942 -6.207831 25.322055 -0.919695 1.818476 0.077387 -0.039570 -319214.000000 0 0 1
-15.195235 18.951442 -7.629931 25.461111 -0.894960 1.875143 0.090331 -0.031471 -942650.000000 0 0 1
-14.052235 18.527542 -8.297031 24.689590 -0.921908 1.913520 0.074025 -0.026110 -755456.000000 0 1 0
-14.165035 17.441442 -9.224831 24.288879 -0.888692 1.960373 0.058077 -0.024947 -633478.000000 0 1 0
-14.616535 16.094842 -8.593931 23.378253 -0.833497 1.947227 0.054961 -0.021557 275999.000000 0 1 0
-15.998435 16.186342 -8.244831 24.205885 -0.791236 1.918365 0.055484 -0.013247 533835.000000 0 1 0
-16.295235 15.077042 -7.336231 23.381022 -0.746587 1.889956 0.059670 -0.012161 166826.000000 0 1 0
-17.767535 15.224142 -6.887031 24.390388 -0.708458 1.857057 0.068908 -0.024422 455795.000000 0 1 0
-18.761835 14.675242 -7.772531 25.055567 -0.663784 1.886212 0.065735 -0.024802 198213.000000 0 0 1
-20.025735 15.098442 -7.307631 26.122682 -0.646026 1.854322 0.033976 -0.024179 495974.000000 0 0 1
-21.205835 14.513542 -8.185731 26.969178 -0.600188 1.879183 0.040379 -0.010903 441697.000000 0 0 1
-21.445835 13.166442 -7.908331 26.378414 -0.550606 1.875283 0.061037 -0.018195 123568.000000 0 0 1
-22.204635 12.609142 -8.993231 27.072394 -0.516452 1.909423 0.057372 -0.013333 248006.000000 0 0 1
-22.582535 11.113842 -8.797731 26.662492 -0.457342 1.907064 0.063469 -0.009537 -386378.000000 0 0 1
-21.490735 10.241142 -8.657131 25.331376 -0.444702 1.919580 0.063944 -0.006836 -307180.000000 0 0 1
-21.794135 9.226342 -7.717431 24.893141 -0.400464 1.886013 0.081460 -0.012649 -7668.580000 0 1 0
-20.627435 8.302742 -7.268731 23.393612 -0.382668 1.886741 0.056796 -0.004950 -205226.000000 0 1 0
-20.258835 7.351942 -8.320631 23.102042 -0.348121 1.939245 0.048165 -0.006725 187582.000000 0 1 0
-19.499935 6.330342 -7.728031 21.909887 -0.313901 1.931271 0.045639 -0.002779 -252080.000000 0 1 0
-19.340335 5.080642 -8.606131 21.769864 -0.256892 1.977216 0.043261 -0.014887 -43004.600000 0 1 0
-20.425135 4.156842 -8.556931 22.531901 -0.200774 1.960344 0.062146 -0.011839 656864.000000 0 1 0
-20.283635 3.186742 -9.518331 22.631390 -0.155835 2.004882 0.057526 -0.015547 -76457.200000 0 1 0
-21.191335 1.951242 -9.426131 23.275136 -0.091818 1.987761 0.054714 -0.017348 -83773.100000 0 1 0
-20.757735 1.122942 -8.376331 22.412217 -0.054045 1.953834 0.049259 -0.021241 914434.000000 0 1 0
-21.682235 0.073842 -7.986931 23.106619 -0.003406 1.923734 0.061227 -0.022867 361343.000000 0 1 0
-21.604335 -1.186758 -8.878331 23.387613 0.054876 1.960178 0.045838 -0.033148 -578170.000000 0 1 0
-20.516635 -1.953458 -8.517631 22.300187 0.094927 1.962705 0.034488 -0.025283 -404420.000000 0 1 0
-20.572935 -3.247858 -9.123431 22.738321 0.156578 1.983662 0.026479 -0.021287 228472.000000 0 1 0
-21.612635 -4.196158 -8.422431 23.572252 0.191767 1.936175 0.039526 -0.018612 288336.000000 0 1 0
-21.284935 -4.544458 -7.081531 22.887740 0.210348 1.885361 0.033266 -0.018468 30553.300000 0 1 0
-22.231135 -5.383458 -6.465531 23.769898 0.237585 1.846272 0.046433 -0.016323 -407349.000000 0 1 0
-22.203635 -6.921558 -6.799231 24.230949 0.302184 1.855217 0.037582 -0.018271 -302173.000000 0 1 0
-21.098535 -7.591058 -6.233131 23.272822 0.345370 1.841935 0.026649 -0.017927 703369.000000 0 1 0
-21.176835 -8.936758 -6.565231 23.904523 0.399332 1.849016 0.029771 -0.011359 -120431.000000 0 1 0
-20.114135 -9.832958 -5.863831 23.144114 0.454694 1.826950 0.027419 -0.006736 -333810.000000 0 1 0
-18.840235 -9.697458 -6.425631 22.142355 0.475355 1.865228 0.007227 -0.007761 -482976.000000 0 1 0
-17.927035 -10.498258 -5.741231 21.553509 0.529772 1.840422 0.016265 -0.002036 -409271.000000 0 1 0
-17.363735 -11.645758 -6.639331 21.936355 0.590786 1.878282 0.010887 0.004116 -203336.000000 0 1 0
-16.254335 -11.388458 -7.502831 21.217748 0.611156 1.932225 0.012209 -0.004412 651952.000000 0 1 0
-16.516435 -10.694358 -8.731931 21.526926 0.574614 1.988462 0.004137 -0.012324 -150350.000000 0 1 0
-15.416535 -10.929858 -9.770831 21.274409 0.616721 2.047977 0.004423 -0.004351 72519.600000 0 1 0
-15.643335 -12.246658 -10.215131 22.339281 0.664207 2.045722 0.014414 -0.003737 250220.000000 0 1 0
-14.756435 -12.596758 -11.261031 22.433045 0.706606 2.096688 0.030087 0.011395 161251.000000 0 1 0
-14.925435 -14.057158 -11.779631 23.645972 0.755449 2.092279 0.047233 0.002277 448789.000000 0 1 0
-15.747435 -14.031658 -12.964431 24.757738 0.727845 2.121928 0.045818 0.003989 232580.000000 0 1 0
-15.807235 -15.361958 -13.538431 25.867886 0.771113 2.121595 0.038852 0.006058 179684.000000 0 0 1
-16.093435 -15.309058 -15.065031 26.838798 0.760425 2.166771 0.051700 0.005560 177058.000000 0 0 1
-16.431535 -16.616158 -15.595631 28.094764 0.790985 2.159289 0.067710 0.009765 106451.000000 0 0 1
-16.787435 -16.444558 -16.948731 28.974143 0.775081 2.195628 0.069665 0.000561 -26426.000000 0 0 1
-17.439235 -17.670658 -17.636931 30.453906 0.791989 2.188464 0.075033 -0.010548 862769.000000 0 0 1
-18.801935 -17.884958 -17.227531 31.147589 0.760409 2.156869 0.048246 -0.009365 179027.000000 0 0 1
-19.583835 -18.297758 -18.288731 32.447068 0.751461 2.169592 0.061843 -0.007797 10051.400000 0 0 1
-21.093635 -18.341358 -17.925631 33.206552 0.715718 2.141022 0.050120 -0.007720 -96580.800000 0 0 1
-21.569435 -17.109158 -17.495731 32.620000 0.670589 2.136903 0.038429 0.013565 58525.000000 0 0 1
-21.838735 -17.168358 -16.089831 32.102422 0.666234 2.095785 0.037838 0.005202 -289686.000000 0 0 1
-21.438235 -15.849458 -15.349031 30.763550 0.636623 2.093167 0.030097 0.003963 11980.900000 0 0 1
-22.240535 -14.737758 -15.666531 30.939992 0.585219 2.101746 0.028431 0.003158 153496.000000 0 0 1
-21.777335 -13.622158 -14.939331 29.715301 0.558973 2.097572 0.037127 0.000747 225596.000000 0 0 1
-22.902735 -12.614958 -14.534931 29.915492 0.503462 2.078150 0.037675 -0.007251 142214.000000 0 0 1
-23.804435 -13.117758 -13.603031 30.393571 0.503659 2.034834 0.039891 0.000499 758188.000000 0 0 1
-24.808135 -12.168058 -13.147231 30.599916 0.456008 2.014901 0.063806 -0.010741 993714.000000 0 0 1
-25.780455 -12.726558 -12.043031 31.171008 0.458556 1.967471 0.056755 -0.014117 167958.000000 0 0 1
-26.801205 -11.822858 -11.701031 31.543600 0.415455 1.950826 0.057729 -0.027124 448568.000000 0 0 1
-27.516345 -12.257058 -10.505531 31.902208 0.419061 1.906363 0.052756 -0.026319 757025.000000 0 0 1
-28.468945 -11.145158 -9.903631 32.136852 0.373144 1.884066 0.062336 -0.031563 284937.000000 0 0 1
-27.763225 -10.151058 -9.160631 30.947662 0.350530 1.871303 0.072446 -0.036615 -376257.000000 0 0 1
-28.558005 -9.338158 -8.433331 31.207081 0.316030 1.844436 0.088929 -0.039050 -1027150.000000 0 0 1
-27.763895 -8.226458 -7.757731 29.978173 0.288059 1.832555 0.086859 -0.033856 320127.000000 0 0 1
-26.877205 -8.740658 -6.724531 29.051722 0.314419 1.804382 0.077589 -0.032327 423837.000000 0 0 1
-26.185105 -7.786258 -5.969731 27.962890 0.289028 1.785940 0.075181 -0.035179 -47356.600000 0 0 1
-27.013495 -6.674358 -5.195931 28.306778 0.242224 1.755401 0.085910 -0.036408 -617808.000000 0 0 1
-27.675165 -7.101558 -4.047531 28.857051 0.251184 1.711522 0.076751 -0.035888 219256.000000 0 0 1
-26.849945 -7.270458 -2.899131 27.967554 0.264440 1.674643 0.090920 -0.024660 24180.200000 0 0 1
-26.228515 -5.991858 -2.331431 27.005054 0.224594 1.657237 0.089654 -0.023402 262809.000000 0 0 1
-27.280265 -5.192558 -1.822931 27.829815 0.188091 1.636346 0.083045 -0.035540 591192.000000 0 0 1
-26.740765 -4.126258 -1.121031 27.080458 0.153098 1.612204 0.064186 -0.030737 -333114.000000 0 0 1
-27.809295 -3.107158 -0.680131 27.990604 0.111269 1.595097 0.065246 -0.036437 -450560.000000 0 0 1
-28.599275 -3.344858 0.448569 28.797705 0.116427 1.555219 0.059525 -0.034630 371566.000000 0 0 1
-27.917175 -3.439458 1.711269 28.180259 0.122584 1.510033 0.057100 -0.028466 -404755.000000 0 0 1
-29.006035 -3.643158 2.728169 29.360953 0.124946 1.477744 0.041744 -0.022902 -80944.600000 0 0 1
-29.673195 -4.910058 2.750569 30.202199 0.163985 1.479598 0.047579 -0.020234 421259.000000 0 0 1
-30.471635 -5.119558 3.896469 31.143424 0.166456 1.445354 0.067505 -0.022058 -70048.600000 0 0 1
-31.335755 -6.382958 3.864869 32.211937 0.200947 1.450524 0.056962 -0.019272 412834.000000 0 0 1
-30.534815 -7.546858 4.100769 31.719809 0.242300 1.441152 0.056793 -0.013659 1040630.000000 0 0 1
-31.423245 -8.622058 3.875869 32.814365 0.267794 1.452405 0.080063 -0.025921 230989.000000 0 0 1
-30.672425 -9.919658 4.143869 32.501829 0.312790 1.442952 0.065747 -0.014891 40320.400000 0 0 1
-30.514375 -10.195458 5.562069 32.649825 0.322458 1.399606 0.055372 -0.004157 449197.000000 0 0 1
-29.521695 -11.156058 5.844769 32.095941 0.361305 1.387671 0.038966 0.000579 -67520.700000 0 0 1
-29.773845 -11.621958 7.271869 32.778527 0.372152 1.347086 0.043513 -0.009695 -19509.700000 0 0 1
-29.493285 -10.606158 8.213769 32.400778 0.345213 1.314494 0.056157 -0.007483 412732.000000 0 0 1
-29.768675 -10.982758 9.525769 33.129070 0.353444 1.279144 0.057874 -0.012767 -368118.000000 0 0 1
-29.740475 -9.733158 10.483969 33.002179 0.316283 1.247520 0.050512 -0.008096 -378544.000000 0 0 1
-28.517025 -9.059458 10.730869 31.787514 0.307602 1.226450 0.044512 -0.001786 281335.000000 0 0 1
-28.638845 -8.064458 11.709469 31.973905 0.274484 1.195853 0.042366 -0.001829 -329461.000000 0 0 1
-27.507195 -7.051958 11.536669 30.650785 0.250963 1.184899 0.058244 0.002156 -510049.000000 0 0 1
-27.618415 -6.261258 10.390669 30.165314 0.222938 1.219135 0.061757 0.003277 -83266.100000 0 0 1
-26.773795 -5.174858 10.348769 29.166972 0.190926 1.208084 0.060444 -0.000402 -858500.000000 0 0 1
-27.219335 -4.165458 9.282069 29.058562 0.151855 1.245672 0.057472 -0.006527 -161363.000000 0 0 1
-26.921095 -4.579858 7.981369 28.450355 0.168508 1.286443 0.061013 -0.008213 209118.000000 0 0 1
-27.284385 -3.661358 7.019569 28.409814 0.133396 1.321128 0.047840 -0.019069 -133978.000000 0 0 1
-26.600525 -3.923658 5.650569 27.475661 0.146447 1.363661 0.046629 -0.006629 -1322340.000000 0 0 1
-25.261835 -3.687658 5.586469 26.133652 0.144954 1.355369 0.093266 -0.021074 -1125490.000000 0 0 1
-24.614935 -3.972458 4.388069 25.316607 0.160004 1.396589 0.120246 -0.017377 120336.000000 0 0 1
-23.085135 -3.709558 4.439669 23.799053 0.159328 1.383149 0.131305 -0.020803 228216.000000 0 1 0
-22.647035 -2.388458 4.583569 23.229336 0.105076 1.372175 0.087504 -0.015875 -320902.000000 0 1 0
-21.264335 -2.352158 4.391969 21.840192 0.110167 1.368320 0.082144 -0.011088 -534390.000000 0 1 0
-20.676535 -0.938058 4.675569 21.219331 0.045337 1.348628 0.052205 -0.014667 -276147.000000 0 1 0
-20.839735 0.088042 3.740169 21.172888 -0.004225 1.393215 0.059888 -0.012514 1419940.000000 0 1 0
-22.169235 0.653842 3.746769 22.493127 -0.029485 1.403442 0.059357 -0.027119 676644.000000 0 1 0
-22.300335 1.874442 2.757369 22.548205 -0.083857 1.448202 0.083455 -0.018019 -432401.000000 0 1 0
-21.651035 3.028042 3.233069 22.099527 -0.138955 1.423974 0.053036 -0.014933 226435.000000 0 1 0
-21.633435 4.138142 2.282969 22.143660 -0.189001 1.467515 0.060799 -0.008043 299637.000000 0 1 0
-20.463235 4.088742 1.257269 20.905562 -0.197212 1.510620 0.043400 0.001512 -505097.000000 0 1 0
-20.650935 4.947942 0.149869 21.235953 -0.235166 1.563739 0.052039 0.002557 454093.000000 0 1 0
-21.665135 4.561542 -0.765231 22.153359 -0.207517 1.605346 0.081910 -0.006192 -163199.000000 0 1 0
-21.334535 3.428742 -1.716631 21.676381 -0.159351 1.650073 0.083558 -0.009679 -305060.000000 0 1 0
-21.148135 2.153842 -1.052731 21.283583 -0.101496 1.620279 0.054273 -0.010753 817603.000000 0 1 0
-20.558035 1.105042 -1.889731 20.674260 -0.053701 1.662329 0.035830 -0.011904 -121135.000000 0 1 0
-19.637335 0.214742 -1.074331 19.667873 -0.010935 1.625447 0.029038 -0.012909 -39734.100000 0 1 0
-20.427635 -0.645558 -0.202831 20.438839 0.031592 1.580720 0.040230 -0.015878 1117310.000000 0 1 0
-19.693435 -1.351858 0.788569 19.755524 0.068538 1.530869 0.033543 -0.017928 -344327.000000 0 1 0
-18.917735 -2.619558 0.298169 19.100568 0.137596 1.555185 0.018308 -0.015050 -315466.000000 0 1 0
-18.191135 -3.176358 1.373969 18.517409 0.172867 1.496529 0.022773 -0.012650 556543.000000 0 1 0
-17.537835 -4.412358 1.050969 18.114886 0.246475 1.512747 0.013891 -0.008591 -265874.000000 0 1 0
-18.491435 -5.567558 0.702769 19.324201 0.292455 1.534421 0.012229 -0.005921 -285598.000000 0 1 0
-19.393335 -5.802458 1.761969 20.319313 0.290721 1.483973 0.063744 -0.015986 489970.000000 0 1 0
-20.209335 -6.927958 1.497769 21.416282 0.330255 1.500803 0.040080 -0.013702 -774760.000000 0 1 0
-21.016135 -7.388558 2.651369 22.434315 0.338069 1.452336 0.065138 -0.012273 -471058.000000 0 1 0
-20.257135 -7.928558 3.744969 22.073476 0.373067 1.400312 0.064855 -0.011412 984368.000000 0 1 0
-21.085735 -8.747458 4.589969 23.285061 0.393244 1.372376 0.079298 -0.013515 281012.000000 0 1 0
-20.296635 -9.540058 5.642169 23.125747 0.439387 1.324331 0.073626 -0.005331 -217961.000000 0 1 0
-19.534835 -10.587658 5.144069 22.807229 0.496672 1.343293 0.056032 -0.004477 551455.000000 0 1 0
-18.588035 -11.108058 6.115169 22.501095 0.538647 1.295562 0.067475 -0.012864 343716.000000 0 1 0
-17.897035 -12.409358 5.764569 22.528344 0.606266 1.312038 0.038907 -0.007127 -453854.000000 0 1 0
-18.713735 -13.553958 5.549269 23.763586 0.626835 1.335100 0.048515 -0.004989 -58429.300000 0 1 0
-17.992135 -14.649958 5.008169 23.736468 0.683365 1.358208 0.034566 -0.004770 -293876.000000 0 1 0
-18.792635 -15.962258 4.856269 25.130462 0.704139 1.376331 0.046815 -0.001930 -17314.000000 0 0 1
-18.021735 -17.170558 4.693469 25.330607 0.761216 1.384431 0.052077 -0.010878 -318295.000000 0 0 1
-18.718435 -18.397458 4.831169 26.686822 0.776750 1.388761 0.054212 -0.003523 -517273.000000 0 0 1
-17.972535 -19.706158 4.690169 27.080294 0.831376 1.396724 0.057667 -0.007033 -455181.000000 0 0 1
-17.559335 -19.949758 3.335969 26.785290 0.849041 1.445927 0.055512 -0.008948 36730.300000 0 0 1
-16.929635 -21.170958 3.058469 27.279593 0.896261 1.458444 0.050576 -0.002318 961431.000000 0 0 1
-15.357335 -21.145958 3.201069 26.329567 0.942667 1.448918 0.052040 0.000835 961310.000000 0 0 1
-14.843935 -22.424758 3.475269 27.116225 0.986070 1.442281 0.053179 -0.008271 -1143280.000000 0 0 1
-13.535735 -22.409458 3.898869 26.468870 1.027427 1.422958 0.061614 -0.006341 -928176.000000 0 0 1
-12.918135 -23.747358 4.237969 27.363764 1.072585 1.415295 0.064890 -0.004138 -101674.000000 0 0 1
-13.047035 -24.710258 3.163369 28.121679 1.085000 1.458069 0.067771 -0.012502 155961.000000 0 0 1
-12.523835 -26.020688 3.475169 29.086069 1.122218 1.451031 0.056762 -0.006874 221065.000000 0 0 1
18.840565 19.003842 -24.259431 36.119703 0.789713 2.307216 0.059378 -0.010295 571233.000000 0 0 1
17.807865 19.303042 -25.213641 36.406802 0.825666 2.335819 0.052558 -0.018004 704488.000000 0 0 1
18.294665 19.059942 -26.535901 37.445029 0.805882 2.358398 0.059641 -0.015356 46691.000000 0 0 1
17.268965 19.445342 -27.603531 37.924839 0.844608 2.385975 0.049697 -0.017246 -141869.000000 0 0 1
17.148165 20.829742 -27.801271 38.740785 0.882036 2.371179 0.048879 -0.013865 -153546.000000 0 0 1
16.257465 21.048742 -28.829451 39.223615 0.913130 2.396467 0.030741 -0.015377 -504482.000000 0 0 1
15.926765 22.559342 -29.111941 40.125938 0.956059 2.382578 0.045645 -0.018004 -355871.000000 0 0 1
15.318665 23.237042 -28.061131 39.522762 0.987957 2.360293 0.049875 -0.019241 320269.000000 0 0 1
14.809465 24.492042 -28.511001 40.398732 1.026954 2.354263 0.047196 -0.007367 -97264.000000 0 0 1
13.878265 25.267342 -27.577511 39.894410 1.068524 2.334031 0.043419 -0.008273 461211.000000 0 0 1
12.616065 24.626742 -27.352771 38.907784 1.097364 2.350425 0.049247 -0.018084 125409.000000 0 0 1
11.878865 25.293742 -26.392671 38.437663 1.131733 2.327648 0.038429 -0.009044 -162700.000000 0 0 1
10.329565 25.135842 -26.454551 37.925635 1.180886 2.342751 0.050177 -0.018241 818659.000000 0 0 1
9.601665 25.984842 -25.557621 37.690795 1.216847 2.315952 0.040359 -0.011703 222514.000000 0 0 1
9.485365 27.332042 -26.068861 38.943526 1.236759 2.304199 0.041914 -0.015045 -454420.000000 0 0 1
8.981565 28.265442 -24.939131 38.750019 1.263129 2.269976 0.046411 -0.019979 -103334.000000 0 0 1
10.028865 28.673142 -24.085131 38.766232 1.234331 2.241186 0.038369 -0.013711 95074.800000 0 0 1
9.545965 29.451642 -22.973831 38.552842 1.257358 2.209188 0.059320 -0.022201 -196774.000000 0 0 1
10.610165 29.811342 -21.921331 38.494629 1.228866 2.176651 0.039540 -0.025664 -132346.000000 0 0 1
11.504265 30.798342 -22.391531 39.777716 1.213310 2.168707 0.023237 -0.029735 -108300.000000 0 0 1
12.172765 31.437442 -21.363431 39.910966 1.201368 2.135632 0.016510 -0.019978 -462906.000000 0 0 1
13.457865 32.201242 -21.731931 41.113392 1.174929 2.127729 0.013594 -0.001343 47396.800000 0 0 1
14.583365 31.341342 -21.869431 40.905089 1.135286 2.134876 0.006781 -0.001229 -150941.000000 0 0 1
15.502065 32.048942 -22.677731 42.210523 1.120274 2.137973 0.007446 0.002210 792125.000000 0 0 1
16.731965 31.149142 -23.164131 42.270613 1.077867 2.150763 -0.001590 0.012532 776097.000000 0 0 1
17.515265 30.714742 -22.087031 41.689529 1.052535 2.129159 -0.008062 0.015025 127669.000000 0 0 1
18.695465 30.161742 -22.681231 42.115192 1.015916 2.139514 0.005291 0.017553 664497.000000 0 0 1
19.722365 29.501142 -21.702731 41.596846 0.981506 2.119685 0.008954 0.020441 117061.000000 0 0 1
20.423765 30.355542 -20.827831 42.099735 0.978547 2.088316 0.015807 0.024152 114008.000000 0 0 1
21.325065 29.601242 -20.044031 41.626375 0.946503 2.073187 0.024218 0.009807 -29062.300000 0 0 1
21.996865 30.461042 -18.970031 42.090370 0.945371 2.038343 0.029584 0.006127 -196797.000000 0 0 1
23.005665 31.340442 -19.414631 43.455861 0.937577 2.033944 0.042023 0.003907 -4763.710000 0 0 1
23.588765 31.988542 -18.300331 43.756129 0.935400 2.002297 0.050274 0.006294 -118959.000000 0 0 1
24.911665 32.687342 -18.638531 45.127024 0.919584 1.996568 0.051504 0.004323 478502.000000 0 0 1
26.025865 31.831242 -18.882031 45.244942 0.885403 2.001301 0.055625 0.006920 343314.000000 0 0 1
27.262165 32.513242 -18.986631 46.484715 0.873020 1.991550 0.057452 0.002662 477647.000000 0 0 1
28.440165 31.583942 -19.347531 46.698130 0.837726 1.997982 0.068131 -0.009455 100837.000000 0 0 1
28.855365 30.711642 -18.316931 45.949396 0.816551 1.980822 0.070022 -0.008377 -463920.000000 0 0 1
30.032465 30.061042 -18.695831 46.423586 0.785874 1.985286 0.049902 -0.014127 -275430.000000 0 0 1
30.475865 28.918042 -17.730231 45.600358 0.759176 1.970144 0.049808 -0.021216 -121247.000000 0 0 1
31.003865 29.419142 -16.550531 45.832801 0.759177 1.940251 0.048285 -0.014936 3153.430000 0 0 1
31.255665 28.425942 -15.533331 45.013722 0.738020 1.923120 0.053841 -0.020864 -190503.000000 0 0 1
31.754965 29.040542 -14.173831 45.305942 0.740779 1.888985 0.064493 -0.026011 402846.000000 0 0 1
33.091765 29.533542 -14.132831 46.551390 0.728642 1.879261 0.040683 -0.019912 305388.000000 0 0 1
33.165665 30.899542 -14.560131 47.610298 0.750041 1.881595 0.046450 -0.016622 -176637.000000 0 0 1
34.640765 31.319442 -14.759531 48.976870 0.735087 1.876912 0.044000 -0.019705 106563.000000 0 0 1
35.379765 31.334942 -13.573131 49.171499 0.724844 1.850464 0.041433 -0.023537 -814815.000000 0 0 1
-35.459375 31.685942 -13.821131 49.521610 -0.729259 1.853646 0.040215 -0.025364 -248887.000000 0 0 1
-34.725675 31.999742 -12.458231 48.837112 -0.744568 1.828745 0.036319 -0.014276 105111.000000 0 0 1
-35.281275 33.036242 -11.670531 49.722862 -0.752548 1.807718 0.040396 -0.024272 951121.000000 0 0 1
-34.291375 33.405642 -10.683031 49.050611 -0.772315 1.790352 0.026007 -0.015946 596948.000000 0 0 1
-34.789975 -34.036667 -9.890431 49.665458 0.774454 1.771278 0.026716 -0.008184 214931.000000 0 0 1
-33.775175 -33.458367 -9.071931 48.399635 0.780686 1.759350 0.014984 -0.001120 326082.000000 0 0 1
-33.568275 -34.144467 -7.793131 48.511922 0.793907 1.732139 0.016896 -0.002104 391315.000000 0 0 1
-32.995675 -33.168167 -6.754631 47.270148 0.788005 1.714181 0.028160 0.008842 242797.000000 0 0 1
-34.106975 -32.304267 -6.523931 47.427978 0.758260 1.708788 0.025927 0.000624 476319.000000 0 0 1
-33.883375 -31.399067 -5.451331 46.515605 0.747362 1.688260 0.030567 0.007357 -876775.000000 0 0 1
-35.069875 -30.510967 -5.238731 46.778837 0.715994 1.683021 0.028334 0.003923 -1004050.000000 0 0 1
36.025865 -31.239667 -4.693531 47.914601 -0.714364 1.668910 0.034925 0.000277 -390209.000000 0 0 1
34.802265 -30.555867 -4.662231 46.546698 -0.720518 1.671127 0.039691 0.003364 -242852.000000 0 0 1
34.538665 -29.699967 -3.410231 45.679723 -0.710216 1.645521 0.038490 0.006367 -450735.000000 0 0 1
35.177265 -28.427767 -3.448831 45.359369 -0.679678 1.646903 0.048826 -0.005669 426869.000000 0 0 1
34.540565 -27.554767 -2.525431 44.257131 -0.673368 1.627890 0.041122 -0.007249 -97162.400000 0 0 1
34.758665 -26.099867 -2.765931 43.554773 -0.644069 1.634344 0.056728 -0.015873 -289031.000000 0 0 1
34.173065 -25.645367 -3.946631 42.907565 -0.643793 1.662906 0.054927 -0.020956 255508.000000 0 0 1
33.978865 -24.256667 -4.017031 41.941456 -0.619978 1.666720 0.054489 -0.021885 -117978.000000 0 0 1
33.566965 -23.722967 -5.401831 41.457208 -0.615232 1.701467 0.053592 -0.024441 -130187.000000 0 0 1
34.682965 -23.765767 -6.251931 42.506545 -0.600743 1.718413 0.050473 -0.028625 414668.000000 0 0 1
34.257665 -23.334267 -7.539931 42.129873 -0.597956 1.750735 0.041004 -0.027658 -132094.000000 0 0 1
35.454665 -23.219167 -8.495431 43.224245 -0.579810 1.768627 0.030086 -0.033297 -341364.000000 0 0 1
36.031865 -24.457967 -8.858331 44.440494 -0.596347 1.771471 0.023740 -0.024172 291257.000000 0 0 1
-35.058675 -24.266367 -9.782731 43.745504 0.605448 1.796332 0.027722 -0.026284 511118.000000 0 0 1
-34.508075 -25.594367 -10.369231 44.197283 0.638163 1.807616 0.025479 -0.025994 -182810.000000 0 0 1
-33.805275 -26.388167 -9.462731 43.916685 0.662795 1.787970 0.018823 -0.019210 -99634.500000 0 0 1
-34.646875 -27.352367 -8.830431 45.017046 0.668282 1.768234 0.021873 -0.014045 225234.000000 0 0 1
-33.867275 -28.566667 -8.221331 45.062591 0.700702 1.754266 0.012552 -0.005901 384716.000000 0 0 1
-33.281075 -29.355067 -9.312931 45.344025 0.722800 1.777652 0.006298 -0.005318 98831.500000 0 0 1
-32.248275 -30.189967 -8.897131 45.061561 0.752445 1.769546 -0.001092 -0.005913 -386107.000000 0 0 1
-31.656575 -31.052667 -10.022731 45.462754 0.775768 1.793083 -0.011131 0.003904 -208309.000000 0 0 1
-31.071575 -30.303267 -11.060931 44.789228 0.772881 1.820333 -0.022493 0.010144 146654.000000 0 0 1
-30.690375 -31.164767 -12.112431 45.385601 0.793067 1.840949 -0.013627 0.012358 -204906.000000 0 0 1
-30.620075 -30.519667 -13.568431 45.311603 0.783756 1.874910 -0.025926 0.013853 536277.000000 0 0 1
-29.529575 -29.598567 -13.785631 44.024023 0.786565 1.889293 -0.016974 0.011531 394429.000000 0 0 1
-29.830475 -28.763967 -14.884731 44.031560 0.767199 1.915637 -0.023716 0.009444 -64929.200000 0 0 1
-28.641175 -27.945667 -15.421831 42.884847 0.773108 1.938647 -0.005666 0.005628 -480272.000000 0 0 1
-27.671975 -28.687267 -16.069831 42.976005 0.803411 1.954034 0.015988 -0.002767 -1479700.000000 0 0 1
-26.600575 -27.890067 -16.403731 41.887096 0.809058 1.973185 0.030167 0.000458 -353866.000000 0 0 1
-25.423675 -28.863367 -16.802531 41.973590 0.848675 1.982654 0.049659 -0.006219 -135032.000000 0 0 1
-25.579775 -29.567867 -18.081931 43.075978 0.857589 2.003986 0.036852 -0.005914 -37861.800000 0 0 1
-25.732275 -28.789867 -19.269731 43.154710 0.841419 2.033676 0.031143 0.003996 348539.000000 0 0 1
-24.438875 -27.992167 -19.619231 42.020641 0.853065 2.056573 0.047232 -0.000403 270214.000000 0 0 1
-24.266375 -26.815967 -18.827431 40.772849 0.835268 2.050779 0.055341 -0.004486 -31851.500000 0 0 1
-22.969775 -26.292867 -19.038631 39.766756 0.852753 2.070035 0.062006 -0.007514 164512.000000 0 0 1
-22.638375 -25.129067 -18.074231 38.348975 0.837493 2.061571 0.053512 -0.012286 -127897.000000 0 0 1
-22.444075 -25.610867 -16.738931 37.945287 0.851202 2.027657 0.053483 -0.008425 116833.000000 0 0 1
-22.182375 -24.558667 -15.907131 36.718152 0.836194 2.018862 0.051419 -0.009200 -192409.000000 0 0 1
-22.557075 -24.776467 -14.428731 36.481272 0.832252 1.977420 0.042849 -0.003562 -932559.000000 0 0 1
-23.913375 -24.619067 -14.229631 37.154143 0.799938 1.963826 0.009555 0.008791 -1031610.000000 0 0 1
-24.210175 -24.368067 -12.883931 36.686932 0.788648 1.929634 0.001588 0.012775 352391.000000 0 0 1
-25.740875 -24.392267 -12.605631 37.636117 0.758504 1.912332 -0.009697 0.018462 -451288.000000 0 0 1
-26.382575 -25.632767 -12.885831 38.975937 0.770984 1.907746 0.007406 0.008382 1420780.000000 0 0 1
-27.791875 -25.652067 -12.524731 39.840755 0.745381 1.890589 -0.004904 0.010844 1821090.000000 0 0 1
-28.760875 -24.602767 -13.272931 40.108039 0.707635 1.908085 0.004330 0.006630 -701976.000000 0 0 1
-28.923975 -23.327767 -12.599731 39.236899 0.678704 1.897708 -0.001272 0.012590 211509.000000 0 0 1
-29.502675 -23.308867 -11.302731 39.261468 0.668650 1.862812 0.026959 0.000035 -16352.600000 0 0 1
-31.010475 -23.711967 -11.171331 40.604256 0.652807 1.849518 0.013000 -0.005103 640296.000000 0 0 1
-32.031175 -22.755167 -11.420431 40.917234 0.617676 1.853664 0.033865 -0.022305 245083.000000 0 0 1
-32.165675 -22.454967 -12.783631 41.258665 0.609452 1.885822 0.036461 -0.012805 429106.000000 0 0 1
-33.678475 -22.278167 -13.227531 42.491458 0.584414 1.887356 0.015556 -0.024727 968552.000000 0 0 1
-34.437375 -23.453267 -13.145531 43.689742 0.597888 1.876415 0.022866 -0.023805 134586.000000 0 0 1
-35.795375 -23.081667 -13.381031 44.644420 0.572727 1.875200 0.038988 -0.033767 195375.000000 0 0 1
35.365265 -24.201267 -13.099531 44.810724 -0.600127 1.867459 0.026811 -0.020615 -408382.000000 0 0 1
35.521265 -25.344967 -13.946031 45.810691 -0.619739 1.880134 0.010489 -0.006738 176006.000000 0 0 1
34.852765 -26.510667 -13.437531 45.804999 -0.650281 1.868540 0.002789 -0.012155 157924.000000 0 0 1
34.786865 -27.683267 -14.430231 46.740997 -0.672173 1.884651 -0.001911 -0.005472 -15320.200000 0 0 1
33.845565 -27.492867 -15.446631 46.259901 -0.682198 1.911245 0.000450 -0.011389 -283309.000000 0 0 1
33.631865 -28.600767 -16.312131 47.065825 -0.704730 1.924720 -0.008188 0.007184 -584402.000000 0 0 1
32.708765 -28.320667 -17.462631 46.656907 -0.713620 1.954414 -0.008880 0.006526 -621786.000000 0 0 1
31.359865 -28.571367 -17.133731 45.752912 -0.738903 1.954636 0.031590 0.001748 -383947.000000 0 0 1
30.589865 -28.412267 -18.277231 45.574707 -0.748508 1.983447 0.030138 0.000043 -847827.000000 0 0 1
29.088965 -28.377767 -18.056031 44.468931 -0.773023 1.988910 0.044221 -0.008319 -501184.000000 0 0 1
28.586365 -27.405367 -17.131431 43.147658 -0.764309 1.979088 0.038957 -0.013399 546331.000000 0 0 1
27.153065 -27.387267 -17.165531 42.213823 -0.789692 1.989562 0.061362 -0.014952 578272.000000 0 0 1
26.638465 -26.495867 -16.013231 40.841919 -0.782714 1.973686 0.044270 -0.015703 -120591.000000 0 0 1
26.830965 -25.110467 -16.380731 40.233874 -0.752286 1.990115 0.032707 -0.022035 60770.200000 0 0 1
26.395665 -24.247167 -15.335831 38.985176 -0.742999 1.975097 0.041618 -0.018107 -146848.000000 0 0 1
26.297265 -22.734267 -15.567231 38.088473 -0.712858 1.991839 0.040010 -0.022481 -48815.800000 0 0 1
25.037965 -22.311667 -16.046831 37.178098 -0.727884 2.017085 0.048143 -0.018759 4439.030000 0 0 1
24.934265 -20.914467 -16.180931 36.344945 -0.697947 2.032199 0.043666 -0.026164 -183176.000000 0 0 1
23.474465 -20.437867 -16.303231 35.136196 -0.716357 2.053303 0.053533 -0.021317 -285184.000000 0 0 1
22.892565 -20.309467 -15.042231 34.100040 -0.725678 2.027643 0.065922 -0.023909 369541.000000 0 0 1
21.557065 -19.827267 -15.210731 33.002938 -0.743624 2.049794 0.064227 -0.024523 490689.000000 0 0 1
21.162765 -18.594167 -14.386031 31.631686 -0.720880 2.042942 0.060096 -0.015769 -153108.000000 0 0 1
20.994265 -18.948467 -12.977331 31.116149 -0.734225 2.001006 0.063542 -0.026869 227011.000000 0 0 1
20.281465 -17.906767 -12.351831 29.741518 -0.723294 1.999075 0.062960 -0.031124 -386973.000000 0 0 1
19.372265 -18.306467 -11.162031 28.896407 -0.757119 1.967389 0.064592 -0.019993 -421327.000000 0 0 1
19.966365 -18.665967 -9.915231 29.075520 -0.751750 1.918794 0.067747 -0.037684 362099.000000 0 0 1
18.996865 -18.681867 -8.856731 28.077299 -0.777038 1.891718 0.061646 -0.040938 147376.000000 0 0 1
19.496965 -19.331067 -7.526231 28.468684 -0.781126 1.838346 0.070530 -0.042483 -147333.000000 0 0 1
20.588965 -18.595767 -7.003931 28.614037 -0.734575 1.818081 0.071375 -0.043501 14572.800000 0 0 1
21.165565 -19.279667 -5.916431 29.235097 -0.738803 1.774578 0.064500 -0.031573 -1020580.000000 0 0 1
22.465165 -18.612867 -5.543931 29.696088 -0.691892 1.758587 0.061738 -0.030881 -883380.000000 0 0 1
23.412765 -18.684567 -6.605931 30.674239 -0.673551 1.787854 0.061241 -0.043606 473880.000000 0 0 1
24.496265 -17.821467 -6.209531 30.922968 -0.628957 1.772977 0.076369 -0.039486 -114742.000000 0 0 1
25.572465 -17.735667 -7.312731 31.968436 -0.606381 1.801588 0.085859 -0.053788 410621.000000 0 0 1
26.580065 -18.767767 -7.287631 33.344243 -0.614798 1.791132 0.093330 -0.057302 711737.000000 0 0 1
26.599465 -19.548967 -8.476631 34.081475 -0.633792 1.822151 0.086388 -0.058853 -309707.000000 0 0 1
27.531365 -20.804067 -8.391231 35.513350 -0.647107 1.809336 0.072929 -0.057106 291440.000000 0 0 1
28.867365 -20.336067 -8.441331 36.306149 -0.613717 1.805448 0.065198 -0.050658 -535385.000000 0 0 1
29.755165 -21.385267 -8.455531 37.605791 -0.623171 1.797582 0.050942 -0.039972 -496072.000000 0 0 1
-29.697775 29.816142 3.414269 42.221054 -0.787387 1.489841 0.029924 -0.014060 198441.000000 0 0 1
-28.976505 30.818842 2.724069 42.389379 -0.816199 1.506489 0.019856 0.005098 191252.000000 0 0 1
-27.915205 31.357342 3.511369 42.129222 -0.843406 1.487352 0.022139 0.013973 -35118.000000 0 0 1
-27.211175 32.554142 2.810769 42.522002 -0.874560 1.504647 0.018701 0.022100 -262953.000000 0 0 1
-26.325585 32.100142 1.799169 41.553491 -0.883914 1.527485 0.014143 0.019060 80015.400000 0 0 1
-25.694015 33.126742 1.045469 41.936338 -0.911094 1.545864 0.014672 0.006231 -11781.700000 0 0 1
-24.413135 33.734242 1.645869 41.673843 -0.944347 1.531292 0.005810 0.006521 -357658.000000 0 0 1
-23.192635 33.131842 1.279469 40.463000 -0.960063 1.539170 0.013994 0.010160 -315051.000000 0 0 1
-22.144635 33.765242 2.006569 40.428984 -0.990326 1.521144 0.020626 0.006997 885783.000000 0 0 1
-20.757535 33.473542 1.316769 39.409227 -1.015716 1.537377 0.033498 0.011220 372216.000000 0 0 1
-20.623735 33.916242 -0.020331 39.694463 -1.024458 1.571309 0.046939 0.000305 332244.000000 0 0 1
-19.281435 33.728342 -0.462531 38.853427 -1.051469 1.582701 0.057922 -0.009202 171474.000000 0 0 1
-18.827635 -33.906467 -1.506531 38.812344 1.063907 1.609622 0.066692 -0.023849 -242246.000000 0 0 1
-18.758735 -32.534367 -1.093531 37.570880 1.047774 1.599906 0.064455 -0.031402 694761.000000 0 0 1
-17.595235 -32.254367 -0.286931 36.742603 1.071403 1.578606 0.070374 -0.030476 384430.000000 0 0 1
-17.335935 -30.753667 0.053369 35.303336 1.057493 1.569285 0.063011 -0.029492 -111244.000000 0 0 1
-16.569735 -30.064967 -0.928031 34.341223 1.067085 1.597823 0.057291 -0.026326 49092.300000 0 0 1
-16.613935 -28.632767 -0.875531 33.115325 1.045031 1.597238 0.040015 -0.021105 -65939.700000 0 0 1
-15.648435 -27.951667 -1.864531 32.088093 1.060431 1.628936 0.037512 -0.015069 -14410.100000 0 0 1
-16.086035 -28.164067 -3.214631 32.593083 1.051857 1.669586 0.045529 -0.023369 541006.000000 0 0 1
-15.142435 -27.575267 -4.131331 31.729428 1.068621 1.701372 0.045176 -0.014017 600329.000000 0 0 1
-15.734635 -27.717567 -5.578631 32.356814 1.054483 1.744072 0.081473 -0.029217 51039.300000 0 0 1
-16.880635 -26.944667 -5.787431 32.318188 1.011124 1.750844 0.088273 -0.025762 -768101.000000 0 0 1
-17.228035 -26.776567 -7.164131 32.636092 0.999075 1.792114 0.105573 -0.037313 225330.000000 0 0 1
-17.997135 -25.491567 -7.494231 32.091749 0.956053 1.806498 0.093965 -0.031096 214128.000000 0 0 1
-17.156335 -24.372167 -7.316131 30.689871 0.957437 1.811503 0.059077 -0.014776 109055.000000 0 0 1
-17.793135 -23.152267 -7.603731 30.173496 0.915543 1.825543 0.033911 -0.005973 -290248.000000 0 0 1
-16.831035 -22.071567 -7.200931 28.675621 0.919301 1.824630 0.044914 -0.001299 1246420.000000 0 0 1
-15.684735 -21.940567 -8.114031 28.164462 0.950158 1.863033 0.064236 -0.008817 1497330.000000 0 0 1
-14.663035 -21.052667 -7.559431 26.746297 0.962428 1.857336 0.068256 -0.014496 1768940.000000 0 0 1
-13.497635 -20.716367 -8.565131 26.167069 0.993336 1.904267 0.070082 -0.018020 661917.000000 0 0 1
-14.063735 -20.154867 -9.717031 26.427789 0.961559 1.947312 0.076834 -0.009335 -217468.000000 0 0 1
-13.150435 -19.973967 -10.784431 26.233514 0.988554 1.994450 0.073448 -0.004174 64086.800000 0 0 1
-13.791535 -19.203067 -11.917431 26.476204 0.947963 2.037694 0.086771 -0.003605 136050.000000 0 0 1
-14.723735 -19.955067 -12.686531 27.855720 0.935120 2.043660 0.073060 0.012348 -188223.000000 0 0 1
-15.043135 -19.234067 -13.847731 28.071425 0.907060 2.086680 0.081801 -0.004777 479722.000000 0 0 1
-16.374135 -19.705667 -14.496631 29.437696 0.877475 2.085700 0.095229 -0.010926 118166.000000 0 0 1
-17.590035 -19.549167 -13.827831 29.711752 0.838100 2.054882 0.081565 -0.007603 616763.000000 0 0 1
-18.672935 -19.879267 -14.765831 31.014409 0.816679 2.067006 0.066726 -0.004233 323846.000000 0 0 1
-20.045035 -19.875967 -14.109631 31.558504 0.781163 2.034311 0.042426 0.001744 -439730.000000 0 0 1
-20.978035 -20.511267 -14.941831 32.924890 0.774148 2.041839 0.043049 -0.009777 664314.000000 0 0 1
-22.361135 -20.455967 -14.566231 33.625021 0.740932 2.018832 0.010557 0.000734 1197360.000000 0 0 1
-23.360835 -21.080767 -15.592531 35.117722 0.734138 2.030863 0.010609 -0.006490 -1425.230000 0 0 1
-23.311135 -20.415767 -16.831831 35.263623 0.719280 2.068392 0.017976 -0.022339 -114064.000000 0 0 1
-23.928735 -21.075667 -17.831631 36.534028 0.722088 2.080688 0.019649 -0.020794 -446268.000000 0 0 1
-24.355535 -20.236267 -19.050131 36.954108 0.693282 2.112396 0.019948 -0.019966 -1251380.000000 0 0 1
-23.267135 -20.021567 -19.805531 36.530560 0.710563 2.143806 0.034454 -0.021063 -1051830.000000 0 0 1
-23.594535 -19.551867 -21.085131 37.196241 0.691974 2.173488 0.025930 -0.019721 -480447.000000 0 0 1
-22.384135 -18.924567 -21.742431 36.495507 0.701844 2.209003 0.026262 -0.007158 -149873.000000 0 0 1
-21.313435 -19.795567 -22.044631 36.497846 0.748492 2.219305 0.038649 -0.007218 215718.000000 0 0 1
-20.212035 -19.099567 -22.620931 35.847264 0.757107 2.253685 0.049369 -0.007724 43715.500000 0 0 1
-18.932535 -19.925767 -22.739931 35.673261 0.810953 2.261981 0.059324 -0.005335 -393097.000000 0 0 1
-19.002635 -21.087367 -23.580731 36.902955 0.837353 2.263985 0.041132 -0.002473 -69152.400000 0 0 1
-17.828835 -21.866467 -23.445731 36.683948 0.886765 2.264160 0.046452 0.002188 39234.500000 0 0 1
-17.765935 -23.165867 -24.261831 37.959483 0.916566 2.264190 0.045582 0.006695 -158098.000000 0 0 1
-17.522735 -22.965267 -25.643461 38.626893 0.919021 2.296786 0.043300 0.004301 240918.000000 0 0 1
-17.721335 -24.076167 -26.523091 39.964758 0.936281 2.296500 0.046952 -0.002882 -156371.000000 0 0 1
-17.446335 -23.829467 -28.040031 40.724212 0.938829 2.330263 0.051068 0.004802 1238520.000000 0 0 1
-16.047635 -23.896467 -28.423031 40.452892 0.979422 2.349870 0.022308 0.006048 1266360.000000 0 0 1
-15.945235 -23.661967 -29.779131 41.242404 0.977819 2.377559 0.046224 -0.003758 -71249.400000 0 0 1
-14.524535 -23.847767 -30.374461 41.258769 1.023747 2.398226 0.011837 -0.007923 225153.000000 0 0 1
-14.065435 -25.169067 -30.235051 41.778903 1.061193 2.379933 0.029236 -0.006838 203090.000000 0 0 1
-12.678235 -25.243967 -30.525581 41.590944 1.105368 2.394913 0.034632 -0.013360 243846.000000 0 0 1
-12.064935 -26.584267 -30.012381 41.869189 1.144756 2.370017 0.040099 -0.017542 -571482.000000 0 0 1
-12.183335 -27.692367 -30.910391 43.252204 1.156329 2.366927 0.048652 -0.010648 572826.000000 0 0 1
-11.259735 -28.705867 -30.486141 43.361426 1.196993 2.350503 0.055805 -0.015466 1180580.000000 0 0 1
-9.805935 -28.601767 -31.065421 43.350638 1.240511 2.369723 0.054377 -0.015601 620942.000000 0 0 1
-9.081835 -27.451967 -30.624511 42.118297 1.251304 2.384895 0.054297 -0.015697 -170682.000000 0 0 1
-8.080835 -26.969667 -31.462991 42.220643 1.279682 2.411637 0.052759 -0.016060 -444573.000000 0 0 1
-7.327335 -25.685567 -31.020821 40.935676 1.292907 2.430722 0.067638 -0.017298 -144363.000000 0 0 1
-7.950335 -24.424667 -30.951691 40.221628 1.256108 2.448899 0.073022 -0.015273 -172890.000000 0 0 1
-8.964435 -24.272167 -29.979331 39.601256 1.217006 2.429551 0.059949 -0.012877 -154086.000000 0 0 1
-9.560435 -22.871967 -29.848931 38.800612 1.174871 2.448526 0.059632 -0.012358 -31746.000000 0 0 1
-10.198235 -22.357667 -31.015281 39.570405 1.142848 2.471558 0.053892 -0.013592 149992.000000 0 0 1
-10.686135 -21.040867 -30.763161 38.772202 1.100868 2.487226 0.039696 -0.009080 145299.000000 0 0 1
-11.216535 -20.462767 -32.086421 39.674601 1.069379 2.512802 0.025079 -0.009201 312058.000000 0 0 1
-11.937035 -19.223867 -31.841071 39.062817 1.015116 2.523741 0.026846 -0.009917 340738.000000 0 0 1
-12.299935 -18.666767 -33.106931 39.947534 0.988175 2.547685 0.034823 -0.014314 -782765.000000 0 0 1
-13.211235 -17.449767 -33.020851 39.615751 0.922766 2.556260 0.048697 -0.018036 -804286.000000 0 0 1
-12.786435 -16.097367 -32.954231 38.840694 0.899529 2.583839 0.056476 -0.016637 -442692.000000 0 0 1
-11.932735 -15.687767 -31.912901 37.509059 0.920521 2.588312 0.035994 -0.007834 -63063.400000 0 0 1
-11.531835 -14.188767 -31.944621 36.807107 0.888333 2.621741 0.033788 -0.005881 -513119.000000 0 0 1
-10.640535 -13.743267 -32.938231 37.242791 0.911964 2.656044 0.038900 -0.011897 -241832.000000 0 0 1
-11.079335 -13.834567 34.214241 38.532599 0.895541 0.477972 0.050532 -0.020266 -608859.000000 0 0 1
-11.595735 -12.491267 33.576260 37.654456 0.822560 0.469722 0.059408 -0.020239 -221674.000000 0 0 1
-12.687035 -11.950267 -34.205694 38.390093 0.755503 2.670346 0.041524 -0.012323 -247546.000000 0 0 1
-13.395435 -11.121767 33.322216 37.596562 0.692925 0.481481 0.030667 -0.020450 -64608.100000 0 0 1
-14.525935 -10.342767 33.962989 38.359617 0.618748 0.483477 0.040415 -0.016798 -82421.100000 0 0 1
-13.991135 -9.261267 -33.730891 37.673544 0.584722 2.680006 0.034716 -0.015533 -216042.000000 0 0 1
-14.924735 -8.835667 -32.801461 37.104617 0.534528 2.655203 0.043011 -0.019754 -318138.000000 0 0 1
-14.376235 -7.721467 -31.867451 35.802676 0.492885 2.668330 0.045593 -0.032026 -162379.000000 0 0 1
-14.186635 -6.413467 -32.427371 35.971205 0.424581 2.693976 0.040694 -0.034856 833489.000000 0 0 1
-15.390035 -5.609567 -32.457021 36.356274 0.349528 2.674206 0.043173 -0.029295 795453.000000 0 0 1
-15.771135 -4.994067 -31.047321 35.179619 0.306669 2.652027 0.045629 -0.036229 -198735.000000 0 0 1
-16.212835 -5.917867 -30.076681 34.676850 0.349985 2.620633 0.049581 -0.038315 -282270.000000 0 0 1
-16.462235 -5.309667 -28.817231 33.609977 0.312002 2.600995 0.053805 -0.039734 -60324.700000 0 0 1
-15.291135 -4.789467 -27.944241 32.212395 0.303539 2.620950 0.048363 -0.038787 -15016.000000 0 0 1
-14.742635 -3.649967 -28.542201 32.331483 0.242699 2.652584 0.043455 -0.031707 178286.000000 0 0 1
-13.514635 -3.235967 -27.928891 31.195189 0.235017 2.679889 0.037609 -0.029590 618714.000000 0 0 1
-13.118235 -1.886967 -28.495081 31.426396 0.142863 2.706247 0.016999 -0.015525 -76653.100000 0 0 1
-13.077935 -2.007967 -29.909921 32.705775 0.152349 2.725104 0.017481 -0.019014 27155.700000 0 0 1
-13.106335 -0.827967 -30.649481 33.344448 0.063089 2.736784 0.018480 -0.020685 -38267.400000 0 0 1
-13.161935 -1.039967 -32.192091 34.794379 0.078849 2.752384 0.007471 -0.019001 64238.300000 0 0 1
-14.393535 -1.606967 -32.645701 35.714115 0.111185 2.724040 0.010134 -0.023663 644163.000000 0 0 1
-14.471935 -1.550967 -34.046411 37.027024 0.106763 2.737607 -0.002885 -0.017266 -388924.000000 0 0 1
-15.840235 -1.859967 33.806415 37.379757 0.116885 0.440815 0.000993 -0.018516 -162399.000000 0 0 1
-15.835235 -1.830967 32.435463 36.140924 0.115115 0.456792 0.006001 -0.019332 326931.000000 0 0 1
-17.173135 -1.780967 31.964412 36.329218 0.103337 0.495241 0.011156 -0.014302 245090.000000 0 0 1
-17.354735 -1.701967 30.442952 35.083569 0.097757 0.520186 0.025974 -0.013278 -31453.900000 0 0 1
-16.716535 -0.613967 29.808422 34.181304 0.036712 0.511384 0.022171 0.001067 -35214.500000 0 0 1
-16.608435 -0.762967 28.417762 32.924025 0.045906 0.529358 0.022600 -0.004838 -81724.900000 0 0 1
-15.972435 0.483033 27.731962 32.006464 -0.030232 0.522751 0.023297 -0.005140 360205.000000 0 0 1
-16.684435 1.686033 28.046212 32.677256 -0.100712 0.538889 0.018191 -0.005169 -354710.000000 0 0 1
-17.992035 1.963033 27.677602 33.069873 -0.108676 0.579123 0.021901 -0.012608 -649199.000000 0 0 1
-18.170835 2.684033 26.359022 32.127579 -0.146651 0.608601 0.035981 -0.022995 -738608.000000 0 0 1
-18.063535 4.122033 26.541012 32.368314 -0.224355 0.609440 0.032096 -0.018679 108670.000000 0 0 1
-18.295235 4.802033 25.300152 31.589125 -0.256684 0.641977 0.036298 -0.017146 -502530.000000 0 0 1
-18.269835 6.353033 25.440542 31.958865 -0.334654 0.650072 0.037519 -0.011275 402113.000000 0 0 1
-16.995035 6.985033 25.305482 31.272821 -0.389957 0.628033 0.021615 -0.009525 424087.000000 0 0 1
-16.478035 7.045033 24.001712 29.953970 -0.404021 0.641354 0.023003 -0.007324 -731910.000000 0 0 1
-15.339035 8.043033 23.849442 29.474943 -0.482938 0.628104 0.027087 -0.009716 -721991.000000 0 0 1
-14.185735 7.512033 24.456892 29.254150 -0.487006 0.580817 0.006243 -0.009731 -873195.000000 0 0 1
-13.142135 8.248033 23.891842 28.487995 -0.560468 0.575972 0.026229 -0.012817 -158809.000000 0 0 1
-11.692835 8.054033 24.428212 28.254688 -0.603170 0.526498 0.017723 -0.008532 371380.000000 0 0 1
-10.812435 8.898033 23.695262 27.523611 -0.688576 0.533747 0.013841 -0.009796 300348.000000 0 0 1
-9.503635 8.922033 24.252282 27.533524 -0.753844 0.493189 0.005008 -0.011564 213083.000000 0 0 1
-9.234535 10.165033 25.111672 28.621680 -0.833326 0.500453 0.006508 -0.017823 -266155.000000 0 0 1
-10.055435 10.268033 26.311592 29.980729 -0.795858 0.499929 -0.002770 -0.020745 655782.000000 0 0 1
-10.136735 11.619033 26.816342 30.933340 -0.853427 0.521832 0.001562 -0.016588 -576243.000000 0 0 1
-10.812335 12.808033 26.049222 30.976027 -0.869689 0.571764 -0.012421 -0.016352 -295834.000000 0 0 1
-12.200235 12.729033 25.909732 31.339882 -0.806607 0.597520 -0.001651 -0.018309 -324012.000000 0 0 1
-12.670235 11.786033 24.949782 30.363416 -0.749259 0.606399 0.005714 -0.017075 -843056.000000 0 0 1
-14.169035 11.878033 24.653032 30.815924 -0.697668 0.643485 0.004286 -0.014558 -310712.000000 0 0 1
-14.528635 13.003033 23.860482 30.813677 -0.730042 0.685114 0.009255 -0.017151 -528522.000000 0 0 1
-15.800235 12.943033 23.289432 30.976881 -0.686319 0.719959 0.027548 -0.008059 -481877.000000 0 0 1
-15.974835 12.190033 21.936432 29.748938 -0.651818 0.741605 0.025915 -0.001330 -236000.000000 0 0 1
-15.775535 10.800033 21.975632 29.127935 -0.600320 0.715977 0.029777 -0.001599 75545.000000 0 0 1
-15.931635 10.280033 20.636732 28.024467 -0.573035 0.743088 0.027240 -0.008176 -100251.000000 0 0 1
-16.282435 8.813033 20.532232 27.647057 -0.496108 0.733770 0.029409 -0.014729 516870.000000 0 0 1
-17.661735 8.503033 20.687532 28.499341 -0.448688 0.758461 0.034103 -0.006794 39403.000000 0 0 1
-18.018835 7.150033 20.593532 28.282414 -0.377752 0.755193 0.031933 -0.003975 499544.000000 0 0 1
-19.532235 7.074033 20.973832 29.520362 -0.347477 0.780606 0.042771 -0.008284 412671.000000 0 0 1
-19.644235 7.411033 22.333632 30.653067 -0.360753 0.754530 0.039936 -0.013405 -519377.000000 0 0 1
-20.986135 7.319033 22.699032 31.768414 -0.335566 0.774865 0.028910 -0.008964 -465446.000000 0 0 1
-21.366335 8.008033 24.045142 33.148419 -0.358592 0.759213 0.043698 -0.001670 -730025.000000 0 0 1
-21.497935 9.400033 24.073122 33.616023 -0.412203 0.772568 0.051523 -0.011251 38699.000000 0 0 1
-20.445335 10.293033 23.713502 32.958890 -0.466397 0.767733 0.046046 -0.005066 1277200.000000 0 0 1
-19.065835 10.174033 24.508442 32.675384 -0.490185 0.722646 0.047986 -0.009645 802362.000000 0 0 1
-18.880735 10.903033 25.681562 33.688290 -0.523688 0.703892 0.065713 -0.013974 334247.000000 0 0 1
-19.500435 10.270033 26.844152 34.732536 -0.484745 0.687426 0.034822 -0.010841 210166.000000 0 0 1
-30.855645 -14.244558 20.662132 39.773131 0.432501 1.024531 0.050937 -0.008972 -23915.300000 0 0 1
-30.219165 -15.505758 20.855532 39.856990 0.474081 1.020125 0.050288 -0.006542 174460.000000 0 0 1
-30.788785 -16.614058 20.148432 40.372460 0.494834 1.048278 0.044287 -0.004628 -82751.400000 0 0 1
-30.568695 -16.709458 18.627532 39.504886 0.500244 1.079777 0.037036 -0.011363 288791.000000 0 0 1
-31.273955 -15.688758 17.988132 39.341712 0.464971 1.095921 0.041220 -0.019679 253519.000000 0 0 1
-30.508835 -15.377758 16.812932 38.078066 0.466877 1.113484 0.042473 -0.020587 -377318.000000 0 0 1
-31.038865 -14.092858 16.130032 37.712037 0.426208 1.128832 0.032019 -0.014189 953234.000000 0 0 1
-32.277095 -14.297258 15.391732 38.511399 0.416979 1.159643 0.052300 -0.015635 918288.000000 0 0 1
-33.493225 -14.273058 16.079732 39.800428 0.402842 1.154901 0.053274 -0.022134 -700605.000000 0 0 1
-34.067667 -12.915558 16.525132 40.006219 0.362373 1.144980 0.049721 -0.022314 -1758140.000000 0 0 1
-35.133025 -13.122958 17.317132 41.308892 0.357474 1.138220 0.029626 -0.017702 -1376820.000000 0 0 1
-35.765902 -11.926558 17.697532 41.649072 0.321866 1.131923 0.032951 -0.009215 -67840.000000 0 0 1
35.315965 -12.132158 18.759132 41.788894 -0.330901 1.105260 0.027633 0.008702 -250664.000000 0 0 1
35.852045 -12.571758 20.009132 42.939301 -0.337260 1.086047 0.025408 0.002542 207008.000000 0 0 1
35.093495 -12.067758 21.100032 42.689524 -0.331207 1.053805 0.023103 0.000934 -820508.000000 0 0 1
35.698735 -12.608358 22.402032 43.991151 -0.339512 1.036495 0.018502 -0.006216 1071780.000000 0 0 1
-35.224114 -11.983058 22.820332 43.647445 0.327913 1.020625 0.022155 -0.004439 969514.000000 0 0 1
-34.122235 -12.523158 22.111232 42.544835 0.351746 1.024278 0.027113 -0.009193 -556055.000000 0 0 1
-32.802105 -11.728658 22.309632 41.367369 0.343392 1.001185 0.046532 -0.007372 88892.200000 0 0 1
-32.774625 -10.517758 21.577332 40.624876 0.310530 1.010856 0.058801 -0.015225 319568.000000 0 0 1
-31.499645 -9.882458 21.493932 39.393905 0.304007 0.993673 0.070459 -0.018369 -115615.000000 0 0 1
-31.580625 -8.405858 20.982832 38.836498 0.260140 1.000019 0.074018 -0.011210 91397.500000 0 0 1
-31.963815 -8.253158 19.621032 38.402929 0.252684 1.034535 0.065683 -0.011540 1135490.000000 0 0 1
-33.358175 -8.519058 19.348532 39.493137 0.250037 1.058797 0.060713 -0.012130 521457.000000 0 0 1
-33.719295 -8.458458 17.831232 39.070311 0.245778 1.096864 0.056908 -0.014999 102345.000000 0 0 1
-35.126570 -8.427758 17.653732 40.206433 0.235474 1.116225 0.009525 -0.008546 178716.000000 0 0 1
-35.387364 -8.344858 16.278832 39.835945 0.231584 1.149825 0.024191 -0.012591 -386154.000000 0 0 1
35.269015 -8.298058 16.061132 39.632324 -0.231076 1.153540 0.029488 -0.009493 -338768.000000 0 0 1
34.644595 -9.553358 16.226032 39.430936 -0.269066 1.146691 0.028801 -0.005959 -856620.000000 0 0 1
33.350185 -9.615158 15.747832 38.114043 -0.280697 1.144857 0.015392 0.003130 -884652.000000 0 0 1
32.914925 -11.071958 15.625632 38.080715 -0.324491 1.147981 0.015656 0.003259 -106176.000000 0 0 1
32.743265 -11.792858 16.850732 38.667041 -0.345698 1.119880 0.010298 0.001985 95526.600000 0 0 1
31.617585 -12.647158 16.755532 37.952208 -0.380510 1.113537 0.019646 0.006945 123114.000000 0 0 1
31.206115 -13.170558 18.122432 38.414941 -0.399370 1.079516 0.015209 0.007172 -324260.000000 0 0 1
32.105545 -14.158658 18.475532 39.655754 -0.415347 1.086147 0.016723 0.003578 -366572.000000 0 0 1
31.990135 -14.160058 19.895432 40.245548 -0.416715 1.053708 0.014494 0.006760 83125.500000 0 0 1
32.762405 -15.334258 20.545932 41.601081 -0.437758 1.054250 0.013304 0.015422 137444.000000 0 0 1
32.888545 -15.122758 21.920032 42.318341 -0.430989 1.026309 0.006603 0.006410 -382221.000000 0 0 1
33.485555 -16.239958 22.492132 43.484648 -0.451563 1.027170 0.009325 0.021553 -25221.000000 0 0 1
33.792125 -16.078058 23.949712 44.429723 -0.444095 1.001491 0.024294 0.012848 538529.000000 0 0 1
34.959395 -15.275158 24.146742 45.150358 -0.411940 1.006517 0.021777 0.008427 252408.000000 0 0 1
35.098115 -14.966458 25.552772 45.921854 -0.403071 0.980701 0.025385 0.006123 -58953.000000 0 0 1
-35.857070 -14.074958 25.903352 46.420012 0.374050 0.978797 0.028357 0.001736 -626885.000000 0 0 1
-34.620838 -14.662558 25.669692 45.525005 0.400615 0.971745 0.013979 0.005445 -774258.000000 0 0 1
-33.620465 -13.676558 25.853372 44.562100 0.386348 0.951865 0.019094 0.001066 244722.000000 0 0 1
-32.198345 -14.303658 25.816372 43.678520 0.418050 0.938431 0.021969 0.007153 -103261.000000 0 0 1
-31.790555 -14.586658 24.507792 42.708803 0.430178 0.959616 0.019914 0.002345 -475947.000000 0 0 1
-30.468575 -15.044158 24.431582 41.851678 0.458643 0.947437 0.031593 -0.012259 -197418.000000 0 0 1
-30.185885 -16.524258 24.720072 42.371225 0.500858 0.947867 0.036903 -0.002263 -395682.000000 0 0 1
-30.333135 -16.887058 26.087332 43.426037 0.507988 0.926382 0.033215 -0.000649 -107267.000000 0 0 1
-29.723865 -18.093158 26.278292 43.605265 0.546798 0.923991 0.036213 -0.009434 -555992.000000 0 0 1
-29.328635 -18.327958 27.726712 44.326667 0.558540 0.895013 0.037542 -0.017465 91441.000000 0 0 1
-28.369775 -17.385058 28.209082 43.621516 0.549780 0.867575 0.036914 -0.019683 162160.000000 0 0 1
-27.794035 -17.785758 29.436852 44.219564 0.569251 0.842368 0.054608 -0.022091 379561.000000 0 0 1
-26.494265 -17.077158 29.890212 43.439615 0.572542 0.811948 0.044579 -0.025142 -62656.500000 0 0 1
-26.709615 -15.825058 30.521412 43.536107 0.534876 0.793914 0.056700 -0.029821 -37251.800000 0 0 1
-25.710395 -14.893758 30.147082 42.328418 0.525052 0.778143 0.030566 -0.024842 -601679.000000 0 0 1
-25.642525 -13.601658 30.957822 42.437376 0.487697 0.753214 0.035124 -0.018715 -100061.000000 0 0 1
-24.982335 -13.664558 32.201192 42.985509 0.500513 0.724068 0.039983 -0.021370 122708.000000 0 0 1
-24.805335 -12.413658 32.852199 42.996169 0.464002 0.701194 0.039309 -0.011804 -205616.000000 0 0 1
-24.143535 -12.576458 -34.218382 43.726139 0.480230 2.469566 0.048514 -0.016848 1073180.000000 0 0 1
-22.747635 -12.924758 34.049407 42.940265 0.516694 0.655164 0.021915 -0.013524 952871.000000 0 0 1
-22.392335 -14.325958 34.119745 43.252823 0.569150 0.661870 0.027786 -0.014242 -184847.000000 0 0 1
-22.411835 -14.952558 -32.977591 42.583927 0.588353 2.456585 0.036968 -0.009783 -177298.000000 0 0 1
-21.308635 -14.587058 -32.156581 41.241798 0.600289 2.464996 0.029786 -0.006488 197173.000000 0 0 1
-21.188335 -15.505958 -31.072271 40.680048 0.631761 2.440009 0.053421 -0.009738 410406.000000 0 0 1
-19.899035 -15.465558 -30.177511 39.317137 0.660684 2.445792 0.057251 -0.007684 418815.000000 0 0 1
-19.674135 -14.394958 -29.271431 38.093347 0.631666 2.447154 0.052226 -0.009327 -424861.000000 0 0 1
-20.549535 -14.237958 -28.216931 37.698780 0.605918 2.416569 0.060572 -0.003727 -322257.000000 0 0 1
-20.118135 -12.970958 -27.342631 36.340123 0.572668 2.422508 0.055067 -0.004506 634809.000000 0 0 1
-18.874035 -13.133158 -26.647751 35.196756 0.607923 2.429671 0.067702 -0.008719 449146.000000 0 0 1
-18.412635 -11.918558 -26.076911 34.074660 0.574477 2.442284 0.054321 -0.012601 -165024.000000 0 0 1
-17.005235 -12.084758 -25.504621 32.950039 0.617837 2.455992 0.076994 -0.025778 -1030060.000000 0 0 1
-17.064835 -12.837658 -24.291231 32.343128 0.644963 2.420444 0.087237 -0.027113 750577.000000 0 0 1
-15.790535 -12.990558 -23.630331 31.248810 0.688418 2.428281 0.083143 -0.030983 1065580.000000 0 0 1
-14.672935 -13.772158 -24.363831 31.600057 0.753742 2.451216 0.053667 -0.025094 -367780.000000 0 0 1
-13.834135 -13.020658 -25.233211 31.585373 0.755116 2.496242 0.049590 -0.031146 102700.000000 0 0 1
-13.159935 -13.934158 -26.086391 32.370425 0.813966 2.507942 0.048026 -0.031494 -487804.000000 0 0 1
-12.218635 -13.238258 -27.088111 32.531712 0.825430 2.554704 0.052495 -0.030275 -355589.000000 0 0 1
-12.891735 -12.558258 -28.118381 33.384877 0.772296 2.572238 0.064244 -0.029818 -550742.000000 0 0 1
-12.044135 -11.810658 -28.924021 33.483605 0.775611 2.613612 0.056315 -0.025972 -749599.000000 0 0 1
-12.762735 -10.748558 -29.732871 34.094905 0.699938 2.630196 0.033212 -0.016678 -199057.000000 0 0 1
-11.974435 -9.780758 -30.432521 34.134860 0.684903 2.671526 0.022206 -0.010334 -53714.800000 0 0 1
-11.489435 -10.263658 -31.649511 35.200019 0.729108 2.688582 0.033219 -0.008895 -395712.000000 0 0 1
-10.739435 -9.253758 -32.496401 35.453964 0.711225 2.730238 0.028945 -0.010450 548612.000000 0 0 1
-9.524335 -8.774258 -31.886551 34.415879 0.744430 2.755817 0.024867 -0.007282 310461.000000 0 0 1
-9.029035 -7.635258 -32.460491 34.547129 0.701954 2.792257 0.016785 -0.008690 315133.000000 0 0 1
-7.482035 -7.435358 -32.347101 34.023526 0.782269 2.826370 0.027686 -0.007172 867043.000000 0 0 1
-6.857635 -7.203458 -31.044241 32.598495 0.809987 2.831552 0.027195 -0.006790 240606.000000 0 0 1
-7.355335 -6.053658 -30.370861 31.829812 0.688626 2.837650 0.022779 -0.010259 -670787.000000 0 0 1
-6.689535 -4.757958 -30.808071 31.882994 0.618239 2.881186 0.025467 -0.008186 -379228.000000 0 0 1
-5.338035 -4.826658 -30.447771 31.286707 0.735131 2.909493 0.053220 -0.012208 -447824.000000 0 0 1
-4.621835 -3.616558 -30.699571 31.255472 0.663975 2.952708 0.059115 -0.022231 -337305.000000 0 0 1
-3.173735 -3.672758 -30.253531 30.640462 0.858157 2.982503 0.040618 -0.006314 -1611110.000000 0 0 1
-2.367335 -4.515158 -31.008951 31.425244 1.087892 2.978642 0.032694 -0.005710 -310236.000000 0 0 1
-0.985535 -4.310158 -30.763231 31.079336 1.346007 2.998847 0.045114 -0.006924 636008.000000 0 0 1
-0.392535 -2.956158 -31.373061 31.514472 1.438783 3.046824 0.040533 -0.001010 -216622.000000 0 0 1
0.614165 -2.309558 -30.544231 30.637580 -1.310888 3.063510 0.046427 -0.005627 953635.000000 0 0 1
1.119265 -1.045358 -31.081731 31.119440 -0.751268 3.092359 0.022377 0.001043 379707.000000 0 0 1
1.447465 -0.068658 -29.933141 29.968197 -0.047397 3.093219 0.027742 -0.010392 260785.000000 0 0 1
0.262865 0.402442 -29.317121 29.321062 0.992193 3.125198 0.048095 -0.011282 -228484.000000 0 0 1
0.416065 1.679342 -28.699211 28.751313 1.327932 3.081381 0.060558 -0.019545 144506.000000 0 0 1
-0.826135 2.417242 -28.134371 28.250104 -1.241474 3.051044 0.042305 -0.017031 -344852.000000 0 0 1
-1.804935 2.824042 -29.010471 29.203432 -1.002099 3.026573 0.029241 -0.021325 -813839.000000 0 0 1
-2.651835 3.832142 -28.596861 28.974092 -0.965461 2.980050 0.060303 -0.018622 -836873.000000 0 0 1
-3.839335 4.014042 -29.510051 30.028256 -0.807641 2.955544 0.072049 -0.022217 -686474.000000 0 0 1
-3.554735 4.491642 -30.813821 31.341706 -0.901315 2.957797 0.072458 -0.028502 890988.000000 0 0 1
-4.793735 4.633942 -31.543631 32.240564 -0.768450 2.933290 0.080773 -0.021288 515183.000000 0 0 1
-4.561635 5.620442 -32.796871 33.586197 -0.889013 2.924364 0.084266 -0.017845 364022.000000 0 0 1
-4.011035 5.116542 -34.035111 34.650486 -0.905928 2.952848 0.100981 -0.023193 208095.000000 0 0 1
-2.811435 4.390942 -33.877211 34.276085 -1.001284 2.988886 0.089921 -0.021807 -385966.000000 0 0 1
-2.284135 3.718442 33.321199 33.605750 -1.019949 0.130225 0.084200 -0.031301 -605059.000000 0 0 1
-3.253035 2.826942 32.875346 33.156632 -0.715431 0.130350 0.081906 -0.026062 -259678.000000 0 0 1
-2.946035 2.116242 31.709912 31.916706 -0.622926 0.113896 0.092000 -0.031445 -191474.000000 0 0 1
-2.842835 2.906142 30.393752 30.664434 -0.796410 0.132968 0.094987 -0.037877 -166984.000000 0 0 1
-4.002935 3.653242 30.119382 30.603053 -0.739755 0.178025 0.067889 -0.035248 -191552.000000 0 0 1
-3.731735 4.862442 29.413292 30.045148 -0.916214 0.205448 0.077608 -0.039247 215557.000000 0 0 1
-5.069935 5.564142 29.092212 30.050303 -0.831839 0.253195 0.079948 -0.033850 154746.000000 0 0 1
-5.030635 6.228342 27.845472 28.973606 -0.891378 0.279971 0.073106 -0.021337 -87919.300000 0 0 1
-6.227935 6.942042 27.562612 29.097710 -0.839567 0.326273 0.060130 -0.018092 -236220.000000 0 0 1
-6.147935 7.674242 26.213502 27.997121 -0.895377 0.358874 0.054824 -0.018920 165749.000000 0 0 1
-5.429435 8.923342 26.151212 28.160090 -1.024185 0.380007 0.063880 -0.010488 146520.000000 0 0 1
-5.368935 9.413342 24.859392 27.118736 -1.052461 0.411087 0.046925 -0.008006 -239430.000000 0 0 1
-4.594135 10.703442 24.929342 27.516211 -1.165356 0.437090 0.055815 -0.014230 -467748.000000 0 0 1
-4.279635 11.384542 23.700792 26.639268 -1.211223 0.474122 0.055083 -0.011636 379374.000000 0 0 1
-3.678335 12.712442 23.883812 27.305179 -1.289139 0.505982 0.033509 -0.000737 45037.900000 0 0 1
-2.156235 12.816042 24.127922 27.405418 -1.404112 0.494077 0.037136 0.000721 -441927.000000 0 0 1
-1.700435 12.262442 25.353402 28.214428 -1.433005 0.454235 0.039704 0.002848 -26670.000000 0 0 1
-2.072735 13.071742 26.495022 29.616767 -1.413539 0.463271 0.052541 -0.001128 68534.400000 0 0 1
-1.207035 12.623442 27.756482 30.516070 -1.475468 0.428550 0.052097 -0.002154 22945.200000 0 0 1
0.151965 12.869942 27.673522 30.520195 1.558989 0.435336 0.047851 0.000044 -914222.000000 0 0 1
0.917265 12.320442 28.748592 31.290833 1.496483 0.405882 0.050379 -0.009177 -306832.000000 0 0 1
2.408365 12.524842 28.517522 31.239734 1.380828 0.420560 0.047882 -0.004887 -524370.000000 0 0 1
2.758565 13.862342 28.743292 32.030471 1.374365 0.457016 0.039754 -0.000545 72065.900000 0 0 1
4.143765 14.034242 28.479822 32.019229 1.283693 0.474634 0.048609 -0.004758 108784.000000 0 0 1
4.621065 15.452242 28.736052 32.952795 1.280207 0.511448 0.041717 -0.002132 -358518.000000 0 0 1
4.714765 15.800742 30.093802 34.315148 1.280818 0.501249 0.049190 -0.001255 319159.000000 0 0 1
3.641965 16.593842 30.594132 34.994577 1.354745 0.506900 0.029156 0.004745 38414.600000 0 0 1
3.490965 18.074442 30.077352 35.263571 1.380002 0.549224 0.035943 0.003642 -114396.000000 0 0 1
4.443465 18.961142 30.623652 36.291561 1.340604 0.566428 0.052068 0.001166 50410.400000 0 0 1
4.689165 20.012942 29.775362 36.181187 1.340642 0.604209 0.039273 0.004970 36930.900000 0 0 1
5.799665 20.956842 30.314282 37.306582 1.300810 0.622245 0.042757 0.003967 -43504.300000 0 0 1
5.425465 21.927942 31.287272 38.589684 1.328245 0.625334 0.031896 -0.018620 -1932.070000 0 0 1
6.542265 22.616542 31.827522 39.589145 1.289213 0.636896 0.034480 -0.016175 82426.000000 0 0 1
6.946565 23.864042 31.074952 39.791958 1.287534 0.674634 0.034740 -0.007435 28714.000000 0 0 1
7.504065 23.676542 29.750082 38.755090 1.263871 0.695641 0.027720 -0.004483 324162.000000 0 0 1
7.802065 24.903742 29.168562 39.139157 1.267193 0.729883 0.030179 -0.005280 45470.300000 0 0 1
8.042165 24.833842 27.634512 38.013976 1.257615 0.756917 0.039286 -0.006115 -710303.000000 0 0 1
6.880565 24.537542 26.949192 37.090324 1.297408 0.757461 0.021912 -0.001330 -607584.000000 0 0 1
7.061065 24.528042 25.533432 36.103181 1.290498 0.785217 0.028967 -0.003017 -527571.000000 0 0 1
28.527795 2.093742 6.476369 29.328522 0.073262 1.348140 0.059071 0.007447 88361.800000 0 0 1
28.890065 3.162742 7.338569 29.974879 0.109041 1.323458 0.059491 0.001184 299157.000000 0 0 1
28.038205 3.165942 8.472569 29.460966 0.112439 1.279091 0.058935 0.009479 -321473.000000 0 0 1
28.433545 4.073742 9.668369 30.307412 0.142304 1.246112 0.070351 0.006678 42296.600000 0 0 1
28.136885 5.462542 9.432469 30.174412 0.191756 1.252869 0.067433 0.005133 467062.000000 0 0 1
29.215225 6.016942 8.703369 31.072199 0.203112 1.286897 0.076166 -0.013260 5379.170000 0 0 1
29.006355 7.531642 8.486769 31.146741 0.254045 1.294830 0.087669 -0.025233 -125502.000000 0 0 1
28.034885 7.846742 7.531669 30.070786 0.272909 1.317636 0.080588 -0.027076 -152098.000000 0 0 1
28.148765 9.220442 7.298469 30.506346 0.316547 1.329209 0.105977 -0.046733 -158308.000000 0 0 1
27.275635 9.800542 6.153269 29.628932 0.344949 1.361596 0.092972 -0.042813 179781.000000 0 0 1
25.926405 9.866042 6.610169 28.516865 0.363619 1.336870 0.080888 -0.025581 245534.000000 0 0 1
25.109905 9.867842 5.438669 27.522005 0.374445 1.371875 0.102570 -0.031415 189638.000000 0 0 1
23.632205 10.271842 5.641069 26.378277 0.410020 1.355279 0.050935 -0.022151 95976.500000 0 0 1
23.444205 11.630542 6.050069 26.860819 0.460518 1.343609 0.052090 -0.019802 352740.000000 0 0 1
22.115805 11.933742 6.446969 25.943909 0.494825 1.319669 0.043374 -0.008789 -21906.500000 0 0 1
21.861905 13.392742 6.825769 26.531105 0.549637 1.310596 0.024046 0.000350 -236528.000000 0 0 1
21.843105 14.297742 5.759169 26.734148 0.579578 1.353671 0.026455 0.005035 339960.000000 0 0 1
21.554905 15.564342 6.281569 27.318872 0.625391 1.338785 0.037755 -0.007211 -279684.000000 0 0 1
21.363005 16.647542 5.206069 27.579373 0.661972 1.380890 0.043767 -0.010304 -675432.000000 0 0 1
20.186205 16.557842 4.472069 26.488571 0.686970 1.401154 0.051418 -0.008167 -266869.000000 0 0 1
20.167105 17.491942 3.394169 26.910974 0.714481 1.444334 0.063404 -0.012456 48701.800000 0 0 1
18.740305 17.756942 2.868669 25.975706 0.758461 1.460134 0.054397 -0.008178 240816.000000 0 0 1
17.855605 18.403542 3.765369 25.917002 0.800509 1.424995 0.047782 -0.012830 1107180.000000 0 0 1
16.484905 18.336742 3.356969 24.884884 0.838529 1.435484 0.029283 -0.016492 1499010.000000 0 1 0
15.392405 19.116142 4.234069 24.905428 0.892890 1.399961 0.037810 -0.023107 820828.000000 0 1 0
14.066205 18.963342 3.800769 23.914688 0.932591 1.411189 0.035483 -0.026718 -66616.300000 0 1 0
13.265205 20.058542 4.217069 24.415046 0.986501 1.397202 0.020097 -0.026524 47211.100000 0 1 0
11.750405 19.912242 3.982769 23.461284 1.037681 1.400211 0.019935 -0.017420 -53561.200000 0 1 0
11.203905 19.110142 5.015769 22.713057 1.040526 1.348129 0.012864 -0.028051 -1649540.000000 0 1 0
9.845605 19.119042 4.960969 22.070001 1.095250 1.344076 0.018683 -0.018627 -1256100.000000 0 1 0
9.196405 18.574542 6.294969 21.661351 1.111070 1.275934 0.018634 -0.019494 -496773.000000 0 1 0
9.327505 19.384442 7.433869 22.760083 1.122314 1.238072 0.025626 -0.022038 -88526.800000 0 1 0
8.601205 18.846442 8.495269 22.390594 1.142647 1.181635 0.027288 -0.014351 -95755.400000 0 1 0
7.388505 19.699042 8.984469 22.877127 1.211965 1.167201 0.025708 -0.020912 313245.000000 0 1 0
6.309205 19.798442 8.106569 22.304727 1.262299 1.198832 0.022205 -0.031940 -443477.000000 0 1 0
6.393805 21.031742 7.404969 23.195872 1.275667 1.245873 0.014547 -0.021438 -67306.700000 0 1 0
5.121005 21.405342 6.596769 22.976743 1.335970 1.279592 -0.000659 -0.003867 461595.000000 0 1 0
3.903105 21.701142 7.264269 23.215155 1.392842 1.252540 0.000404 -0.001913 236346.000000 0 1 0
3.716705 22.823642 8.095969 24.500556 1.409369 1.234026 -0.000047 -0.012149 -427011.000000 0 1 0
3.860505 24.204642 7.418869 25.608745 1.412634 1.276882 -0.000827 -0.007196 -161596.000000 0 0 1
2.856905 24.274242 6.429069 25.273181 1.453642 1.313587 0.016731 -0.011496 37442.300000 0 0 1
3.049505 25.236242 5.405269 25.988158 1.450541 1.361277 0.023216 -0.003652 -353413.000000 0 0 1
1.810305 25.559542 4.569469 26.027821 1.500087 1.394321 0.034764 -0.009126 -534249.000000 0 0 1
0.712905 26.155142 5.198269 26.676239 1.543546 1.374676 0.049745 -0.007736 422845.000000 0 0 1
-0.325295 26.451942 4.234069 26.790640 -1.558499 1.412088 0.054137 -0.007083 -213759.000000 0 0 1
-1.627195 26.883642 4.883769 27.372051 -1.510343 1.391414 0.052268 -0.007565 -696189.000000 0 0 1
-2.465995 27.260542 3.798769 27.634199 -1.480582 1.432893 0.077790 -0.010239 -286065.000000 0 0 1
-3.721195 27.678242 4.299169 28.256243 -1.437153 1.418054 0.066406 -0.017961 -633665.000000 0 0 1
-4.560095 28.255742 3.198769 28.799541 -1.410789 1.459497 0.058317 -0.019643 -584529.000000 0 0 1
-4.184295 29.506942 2.670069 29.921518 -1.429928 1.481442 0.060367 -0.019428 128577.000000 0 0 1
-5.098195 29.836142 1.643069 30.313144 -1.401558 1.516567 0.071211 -0.024512 -320083.000000 0 0 1
-4.545595 30.760942 0.536969 31.099620 -1.424086 1.553529 0.064650 -0.030671 -208788.000000 0 0 1
-3.998895 32.040842 0.813769 32.299674 -1.446632 1.545599 0.056456 -0.025771 -144000.000000 0 0 1
-2.840795 32.016142 1.598669 32.181660 -1.482298 1.521099 0.061121 -0.024595 -757380.000000 0 0 1
-2.217695 33.456942 1.619669 33.569458 -1.504608 1.522529 0.050845 -0.023044 -1099540.000000 0 0 1
-1.394495 33.811242 0.598969 33.845288 -1.529576 1.553098 0.035748 -0.022596 -481817.000000 0 0 1
-0.732295 -33.571967 0.638769 33.586028 1.548987 1.551776 0.030287 -0.018454 422900.000000 0 0 1
0.558505 -33.644567 1.502869 33.682747 -1.554198 1.526163 0.031400 -0.007786 -485972.000000 0 0 1
0.280505 -33.842267 2.885669 33.966231 -1.562508 1.485737 0.033031 -0.008788 411203.000000 0 0 1
1.444405 -34.166167 3.656269 34.391592 -1.528546 1.464282 0.027153 -0.008074 571554.000000 0 0 1
1.030905 -34.155167 5.148369 34.556388 -1.540623 1.421255 0.034939 -0.006294 906643.000000 0 0 1
0.128405 33.451642 5.644269 33.924720 1.566958 1.403643 0.034247 -0.016680 395618.000000 0 0 1
-0.152595 33.523542 7.040269 34.255169 -1.566244 1.363797 0.036651 -0.009780 391912.000000 0 0 1
0.975505 33.309942 8.120969 34.299475 1.541519 1.331760 0.025361 -0.002502 384294.000000 0 0 1
1.207905 31.967942 8.444969 33.086642 1.533029 1.312702 0.025084 -0.011231 -146096.000000 0 0 1
2.387105 31.797042 9.196769 33.186303 1.495864 1.289995 0.033170 -0.002531 -70388.900000 0 0 1
2.901505 30.348342 9.226469 31.852290 1.475479 1.276920 0.018817 -0.007695 -622600.000000 0 0 1
2.041105 29.445442 9.813369 31.104701 1.501589 1.249818 0.036481 -0.020105 -33641.400000 0 0 1
2.664905 28.173142 9.826869 29.956552 1.476487 1.236571 0.020989 -0.021099 -281200.000000 0 0 1
2.419105 27.386542 11.101169 29.649801 1.482693 1.187036 0.030298 -0.039828 -606945.000000 0 0 1
2.844605 27.982142 12.287069 30.693063 1.469487 1.158930 0.019660 -0.023645 -149794.000000 0 0 1
2.880005 27.126042 13.432169 30.406246 1.465021 1.113240 0.022244 -0.021700 -612058.000000 0 0 1
1.534005 26.672142 14.034569 30.178229 1.513346 1.087098 0.037424 -0.030680 413537.000000 0 0 1
0.681005 27.705142 14.620569 31.333683 1.546221 1.085344 0.031567 -0.026716 927034.000000 0 0 1
0.003205 28.571142 13.691269 31.682188 1.570684 1.123927 0.033665 -0.027597 -190253.000000 0 0 1
-0.744395 29.793542 14.369069 33.085940 -1.545816 1.121541 0.024638 -0.019874 -551865.000000 0 0 1
-1.911695 29.550542 15.052469 33.218458 -1.506194 1.100517 0.018070 -0.018964 -623555.000000 0 0 1
-2.542495 30.779442 15.409769 34.515204 -1.488380 1.107988 0.016200 -0.007034 -586919.000000 0 0 1
-3.856795 30.578942 16.134969 34.789134 -1.445333 1.088524 0.016057 -0.004474 -695063.000000 0 0 1
-4.939395 30.158642 15.357369 34.202195 -1.408457 1.105131 0.018135 -0.012721 100234.000000 0 0 1
-6.081895 29.807342 16.129769 34.433074 -1.369519 1.083274 0.017069 -0.004298 -181736.000000 0 0 1
-7.216295 29.347242 15.189769 33.824025 -1.329686 1.105058 0.012759 -0.009042 -946267.000000 0 0 1
-8.352095 28.913242 15.848269 34.013243 -1.289584 1.086095 0.014324 -0.001722 -838487.000000 0 0 1
-9.362995 28.728242 14.886969 33.683816 -1.255736 1.113012 0.010436 -0.002238 -703578.000000 0 0 1
-10.631395 28.123642 15.467069 33.811182 -1.209378 1.095666 0.010450 0.003743 -958996.000000 0 0 1
-11.349095 28.974642 16.340869 35.147630 -1.197474 1.087251 0.008124 -0.005498 230070.000000 0 0 1
-10.925195 29.027542 17.688469 35.704902 -1.210822 1.052493 0.017973 -0.008959 -410754.000000 0 0 1
-11.665195 30.158842 18.461769 37.235326 -1.201728 1.052025 0.021934 -0.010240 -861460.000000 0 0 1
-13.008295 29.930842 18.689769 37.608224 -1.160813 1.050705 0.031999 -0.007704 -628038.000000 0 0 1
-13.570795 31.141442 19.201969 39.021424 -1.159831 1.056310 0.033836 -0.010972 125298.000000 0 0 1
-14.685595 31.037442 20.250669 39.863255 -1.128852 1.037931 0.040314 -0.011475 155614.000000 0 0 1
-14.191995 30.915642 21.575969 40.282901 -1.140437 1.005565 0.042280 -0.018345 85880.500000 0 0 1
-15.207395 30.400142 22.400369 40.708845 -1.106956 0.988123 0.035715 -0.011448 -180893.000000 0 0 1
-14.806895 30.343942 23.870169 41.349534 -1.116820 0.955405 0.044380 -0.009025 229928.000000 0 0 1
-13.690695 29.455742 24.117469 40.456498 -1.135712 0.932120 0.038362 -0.013884 781539.000000 0 0 1
-13.272595 29.148642 25.404369 40.880155 -1.143509 0.900223 0.045029 -0.014540 97056.200000 0 0 1
-12.679995 30.329442 26.227569 42.054045 -1.174805 0.897376 0.040054 -0.009068 -558138.000000 0 0 1
-13.698695 31.197242 26.620169 43.238358 -1.157044 0.907572 0.035556 -0.007405 -160920.000000 0 0 1
-13.226495 32.445942 26.930269 44.191840 -1.183715 0.915500 0.030194 -0.007326 -291574.000000 0 0 1
-14.337295 33.372342 27.479769 45.545680 -1.165022 0.923107 0.028373 -0.011317 -43801.600000 0 0 1
-14.978295 32.864442 28.646469 46.098168 -1.143163 0.900238 0.001821 -0.012385 189116.000000 0 0 1
-14.293195 33.039742 29.864969 46.774313 -1.162501 0.878261 0.021799 0.001726 -300316.000000 0 0 1
-15.029095 32.263242 30.966769 47.177657 -1.134859 0.854778 0.017930 0.001040 19283.700000 0 0 1
-16.289195 32.802542 31.308969 48.182945 -1.109886 0.863483 0.007284 0.005527 -346167.000000 0 0 1
-16.792595 32.122342 32.443069 48.645543 -1.089099 0.840718 -0.002629 0.010170 -303110.000000 0 0 1
-18.140895 32.685142 32.859169 49.770831 -1.064107 0.849699 0.001502 0.002341 -522682.000000 0 0 1
-18.152495 34.058442 33.199569 50.908761 -1.081114 0.860394 0.012506 0.003584 1377890.000000 0 0 1
-19.568695 -34.272567 33.394969 51.698807 1.051994 0.868526 0.022221 -0.004095 1539710.000000 0 0 1
-19.884895 -32.795367 33.799869 51.121193 1.025734 0.848417 0.026757 -0.002854 202863.000000 0 0 1
-19.453595 -32.384867 -33.368694 50.405275 1.029862 2.294291 0.031520 -0.004745 956187.000000 0 0 1
-20.472595 -32.838967 -32.412494 50.478656 1.013331 2.268035 0.031669 -0.002045 1129260.000000 0 0 1
-20.375895 -31.939767 -31.113494 49.024233 1.002941 2.258359 0.035353 -0.011183 -117682.000000 0 0 1
-20.601695 -30.580767 -31.285994 48.357281 0.977953 2.274408 0.051160 -0.014831 -64468.600000 0 0 1
-19.874295 -29.812367 -30.330494 46.943623 0.982808 2.273266 0.060806 -0.014426 138173.000000 0 0 1
-20.090695 -28.270967 -30.382194 46.108149 0.952960 2.290196 0.070338 -0.019385 -570685.000000 0 0 1
-21.371995 -27.864767 -30.052094 46.220513 0.916510 2.278630 0.069505 -0.018923 -888266.000000 0 0 1
-21.486095 -26.453567 -30.127094 45.487200 0.888649 2.294708 0.073508 -0.017111 784702.000000 0 0 1
-22.736895 -25.931067 -29.318694 45.265577 0.850936 2.275363 0.073217 -0.017367 673655.000000 0 0 1
-22.728095 -26.222267 -27.986994 44.580775 0.856659 2.249496 0.067470 -0.014939 9679.530000 0 0 1
-22.039695 -25.258567 -27.223394 43.183985 0.853348 2.252871 0.072054 -0.016741 -100478.000000 0 0 1
-21.978995 -25.647667 -25.732494 42.462223 0.862276 2.221830 0.070569 -0.009394 280505.000000 0 0 1
-23.226495 -25.469767 -25.081894 42.629574 0.831432 2.199836 0.056862 -0.010322 407984.000000 0 0 1
-23.084795 -25.936867 -23.732894 42.058045 0.843512 2.170368 0.057787 -0.003139 -1338980.000000 0 0 1
-24.292895 -25.611167 -22.900894 42.077638 0.811808 2.146295 0.047153 -0.003283 173239.000000 0 0 1
-25.512895 -26.319467 -23.186694 43.373321 0.800958 2.134812 0.040759 -0.002176 639603.000000 0 0 1
-25.480595 -27.692667 -22.930394 44.067534 0.826975 2.118053 0.043573 0.007242 -997913.000000 0 0 1
-26.868595 -28.386767 -23.049994 45.376560 0.812867 2.103624 0.014925 0.004353 405243.000000 0 0 1
-27.677695 -28.181567 -21.922594 45.175831 0.794418 2.077471 0.018030 0.009874 -33551.100000 0 0 1
-28.730495 -27.259967 -22.176994 45.391258 0.759140 2.081251 0.016920 0.006537 146848.000000 0 0 1
-29.507095 -26.827867 -20.904094 45.026485 0.737875 2.053598 0.022263 0.012148 -102573.000000 0 0 1
-30.230095 -27.827467 -20.245794 45.805227 0.744038 2.028621 0.001948 0.013811 64518.800000 0 0 1
-30.660295 -27.395467 -18.953594 45.274762 0.729221 2.002738 0.006572 0.013281 -834314.000000 0 0 1
-31.455795 -28.479967 -18.202294 46.172493 0.735789 1.976019 -0.007575 0.009271 -465595.000000 0 0 1
-32.818895 -28.703467 -18.470394 47.351076 0.718604 1.971508 -0.013371 0.012498 399225.000000 0 0 1
-33.744395 -27.640467 -18.290394 47.299241 0.686287 1.967842 -0.021597 0.019777 -695569.000000 0 0 1
-33.909095 -27.122067 -16.800594 46.558493 0.674647 1.939975 -0.002338 0.011316 -397827.000000 0 0 1
-32.788695 -26.409667 -16.249794 45.128981 0.678056 1.939144 -0.007224 0.013877 622529.000000 0 0 1
-33.069195 -25.845267 -14.967194 44.559695 0.663390 1.913347 -0.006574 0.006292 -558.311000 0 0 1
-32.971295 -26.802167 -13.752894 44.660996 0.682554 1.883823 -0.000210 0.006335 -124072.000000 0 0 1
-34.056295 -27.700967 -13.598194 45.957434 0.682851 1.871180 0.009994 0.012580 27083.100000 0 0 1
-33.903295 -28.705167 -12.545194 46.160611 0.702562 1.846031 -0.002783 -0.000468 -803165.000000 0 0 1
-34.873695 -29.838267 -12.353194 47.529972 0.707742 1.833718 0.006890 -0.000886 -477538.000000 0 0 1
-34.634895 -30.785367 -13.395494 48.236439 0.726623 1.852201 -0.012497 -0.000502 294817.000000 0 0 1
-34.725795 -32.061167 -12.857894 48.980861 0.745522 1.836417 -0.001637 -0.008601 -167808.000000 0 0 1
-34.126395 -33.126867 -13.797594 49.521448 0.770537 1.853152 -0.004451 0.002908 766585.000000 0 0 1
-32.691495 -33.106267 -13.855694 48.546257 0.791702 1.860233 -0.006330 0.004138 580613.000000 0 0 1
-32.218795 -33.755867 -14.966194 49.005064 0.808692 1.881156 0.015094 -0.008036 -309926.000000 0 0 1
-30.739395 -34.144067 -15.038694 48.341391 0.837824 1.887140 0.010897 -0.003555 -302662.000000 0 0 1
-30.471095 33.748042 -16.195394 48.267057 -0.836382 1.912972 0.025442 -0.006604 -92196.300000 0 0 1
-29.112595 33.323242 -16.180694 47.114717 -0.852736 1.921365 0.025509 -0.010402 55762.700000 0 0 1
9.879365 19.865242 -8.774731 23.858450 1.109296 1.947420 0.062365 -0.019912 -891180.000000 0 1 0
8.546465 20.317442 -8.733031 23.708782 1.172619 1.948025 0.056593 -0.009508 -147585.000000 0 1 0
7.917365 20.354742 -9.995631 24.019010 1.199835 2.000009 0.054734 -0.015423 87319.300000 0 1 0
7.685765 19.032342 -10.795231 23.191336 1.186996 2.054979 0.038206 -0.010312 -399148.000000 0 1 0
8.837765 18.551742 -11.460431 23.529019 1.126219 2.079535 0.052121 -0.012990 31387.300000 0 1 0
8.570665 17.412442 -12.181731 22.913839 1.113396 2.131323 0.042797 -0.020134 270021.000000 0 1 0
9.735765 17.229842 -13.197231 23.786961 1.056470 2.158930 0.052712 -0.007406 473344.000000 0 1 0
9.663665 15.938442 -13.793931 23.188206 1.025749 2.207898 0.055463 -0.026177 -260886.000000 0 1 0
10.784365 15.743942 -14.606131 24.031507 0.970219 2.224072 0.072416 -0.025832 -304583.000000 0 1 0
10.592765 14.508642 -15.554631 23.762448 0.940153 2.284435 0.073192 -0.025981 -272392.000000 0 1 0
10.575965 13.222742 -14.935231 22.577712 0.896158 2.293618 0.067666 -0.026227 1376710.000000 0 1 0
11.857165 12.721142 -14.465031 22.619835 0.820536 2.264624 0.082746 -0.021562 1095960.000000 0 1 0
12.774765 12.039842 -15.516031 23.428607 0.755790 2.294639 0.087652 -0.022809 59498.100000 0 1 0
13.552565 12.831142 -16.386631 24.836101 0.758061 2.291337 0.083629 -0.024748 380936.000000 0 1 0
14.472565 12.076342 -17.145431 25.480561 0.695385 2.308895 0.086897 -0.030987 103837.000000 0 0 1
15.289165 12.821142 -18.234331 27.030189 0.697825 2.311207 0.071843 -0.028816 115255.000000 0 0 1
16.302565 13.668742 -17.747631 27.705352 0.697745 2.266056 0.053045 -0.024198 197550.000000 0 0 1
17.007965 14.241842 -18.899631 29.142701 0.697112 2.276435 0.043473 -0.020454 -426619.000000 0 0 1
18.077265 15.187242 -18.400231 29.933399 0.698736 2.232809 0.040992 -0.019949 -1111540.000000 0 0 1
17.791865 16.440542 -17.820131 30.073227 0.745944 2.205027 0.042550 -0.019857 -44248.300000 0 0 1
17.265965 17.379742 -18.735331 30.841233 0.788682 2.223676 0.044203 -0.012083 -109029.000000 0 0 1
17.040065 18.800442 -18.172631 31.210014 0.834476 2.192313 0.043312 -0.013801 946136.000000 0 0 1
18.275565 19.541342 -18.016231 32.255929 0.818857 2.163421 0.040417 -0.007139 955453.000000 0 0 1
18.014865 20.801642 -17.459931 32.589767 0.857069 2.136191 0.028777 0.000474 -330204.000000 0 0 1
19.185565 21.772942 -17.621631 33.950977 0.848485 2.116514 0.036685 -0.000286 275707.000000 0 0 1
20.267365 21.570242 -16.704631 33.986558 0.816529 2.084616 0.042589 -0.007771 157869.000000 0 0 1
20.151665 22.538142 -15.682531 34.058762 0.841243 2.049304 0.046352 -0.005230 -118430.000000 0 0 1
21.434765 22.952542 -14.933131 34.774513 0.819579 2.014655 0.029632 -0.005757 -751550.000000 0 0 1
21.970165 22.114942 -13.926131 34.142290 0.788682 1.990933 0.046222 -0.009238 45978.100000 0 0 1
22.839465 22.942442 -13.162831 34.946487 0.787647 1.956981 0.035101 -0.005761 587341.000000 0 0 1
24.326765 23.071942 -13.605431 36.183059 0.758931 1.956290 0.034419 -0.010073 -223947.000000 0 0 1
24.512065 23.760142 -14.802031 37.208679 0.769823 1.979926 0.036510 -0.005698 23663.800000 0 0 1
25.803865 23.596742 -15.351831 38.188014 0.740750 1.984504 0.037154 -0.000220 -234415.000000 0 0 1
25.877265 24.287342 -16.734231 39.237002 0.753715 2.011406 0.038174 -0.008182 58165.800000 0 0 1
26.928165 23.671442 -17.478231 39.886737 0.721124 2.024388 0.044793 -0.012959 315892.000000 0 0 1
26.833165 24.015442 -18.864231 40.652422 0.730041 2.053344 0.048220 -0.014323 -549665.000000 0 0 1
27.525065 23.006942 -19.853331 41.001260 0.696224 2.076259 0.037365 -0.015209 567793.000000 0 0 1
28.945065 22.994242 -19.778931 41.925626 0.671323 2.062085 0.051919 -0.016104 218550.000000 0 0 1
29.376265 21.949942 -20.679631 42.100024 0.641707 2.084266 0.048056 -0.012673 -785183.000000 0 0 1
30.830865 22.018342 -21.056531 43.344286 0.620170 2.078071 0.067644 -0.013570 -1354890.000000 0 0 1
31.120665 23.103342 -21.896731 44.516593 0.638606 2.085042 0.053703 -0.011023 990422.000000 0 0 1
32.479965 23.573442 -21.736731 45.641437 0.627822 2.067181 0.057369 -0.009890 915932.000000 0 0 1
32.812765 24.886942 -22.411831 46.886327 0.648889 2.069177 0.043544 -0.010789 -168511.000000 0 0 1
32.957065 24.902642 -23.822531 47.684617 0.647081 2.093916 0.041215 -0.011099 30537.600000 0 0 1
31.703365 24.826542 -24.451831 47.110005 0.664344 2.116520 0.036390 -0.016815 -583718.000000 0 0 1
31.600165 25.140942 -25.910191 47.978906 0.672049 2.141273 0.034943 -0.018593 -424117.000000 0 0 1
31.478765 26.535942 -26.130241 48.763289 0.700404 2.136321 0.041971 -0.017578 316466.000000 0 0 1
30.154465 26.991642 -26.416241 48.328649 0.730108 2.149090 0.039562 -0.003148 209601.000000 0 0 1
29.814165 26.793842 -27.892911 48.834505 0.732094 2.178730 0.034164 -0.005762 -502522.000000 0 0 1
29.457965 25.454642 -28.262691 48.109149 0.712623 2.198725 0.023869 -0.009295 -86315.500000 0 0 1
29.292865 25.334642 -29.629071 48.762669 0.713066 2.223854 0.024181 -0.011373 -268000.000000 0 0 1
28.525765 24.033542 -29.997641 47.866365 0.700136 2.248102 0.023262 -0.011120 979507.000000 0 0 1
27.245165 23.957342 -29.333991 46.655507 0.721274 2.250723 0.024401 -0.008674 905194.000000 0 0 1
26.547765 22.716942 -29.585121 45.783433 0.707794 2.273387 0.039808 -0.022236 289789.000000 0 0 1
25.137165 22.728142 -28.960101 44.577270 0.735111 2.277934 0.031931 -0.013994 -150217.000000 0 0 1
25.146165 22.839342 -27.570891 43.750648 0.737362 2.252585 0.025247 -0.000826 -1974.580000 0 0 1
23.851465 23.049442 -27.062841 42.808487 0.768299 2.255165 0.022485 0.000469 -383194.000000 0 0 1
23.802265 23.174342 -25.543691 41.905586 0.772032 2.226293 0.031393 0.005810 -452700.000000 0 0 1
24.142265 21.999342 -24.813631 41.018731 0.738989 2.220479 0.036742 -0.003117 203501.000000 0 0 1
24.449765 22.366542 -23.479531 40.612087 0.740930 2.187245 0.038272 -0.000111 -228677.000000 0 0 1
24.891365 21.176542 -22.664031 39.770395 0.704934 2.177146 0.045997 -0.003152 448791.000000 0 0 1
26.235465 20.725542 -22.833331 40.487143 0.668602 2.169976 0.030863 -0.004288 456292.000000 0 0 1
26.433865 19.427742 -22.387731 39.716456 0.633804 2.169642 0.057838 -0.015091 -12644.200000 0 0 1
27.682765 18.666642 -22.857931 40.463119 0.593272 2.171118 0.073036 -0.019904 -1143870.000000 0 0 1
28.869665 18.915342 -22.250931 41.065212 0.580021 2.143426 0.088826 -0.024947 -1325670.000000 0 0 1
29.906465 18.238742 -22.916331 41.859367 0.547638 2.150122 0.064233 -0.025339 371510.000000 0 0 1
31.187465 17.968842 -22.079731 42.226198 0.522703 2.121036 0.060296 -0.018983 333619.000000 0 0 1
31.858365 19.116642 -21.618831 42.985757 0.540457 2.097782 0.049286 -0.015166 497593.000000 0 0 1
33.182465 18.856242 -21.145831 43.632328 0.516754 2.076744 0.059831 -0.020624 792249.000000 0 0 1
33.627665 20.051842 -20.268531 44.087522 0.537687 2.048492 0.041823 -0.022706 -322751.000000 0 0 1
32.919465 19.914342 -19.074131 42.942924 0.544045 2.031048 0.052522 -0.019986 290189.000000 0 0 1
33.138065 21.097542 -18.333431 43.351498 0.566937 2.007442 0.035482 -0.004640 66373.300000 0 0 1
32.440265 20.966542 -16.967131 42.188271 0.573778 1.984689 0.041997 -0.017496 3658.960000 0 0 1
33.107865 20.013742 -16.190631 41.938254 0.543723 1.967152 0.046434 -0.027559 246099.000000 0 0 1
32.565565 19.884042 -14.884331 40.956495 0.548166 1.942731 0.047239 -0.023448 -157427.000000 0 0 1
33.026665 18.568942 -14.230531 40.473130 0.512193 1.930081 0.051910 -0.015895 640013.000000 0 0 1
34.463365 18.415742 -14.319331 41.616179 0.490754 1.922056 0.056855 -0.021897 965870.000000 0 0 1
34.978765 17.360442 -13.604031 41.351767 0.460694 1.906023 0.047236 -0.014972 -90435.800000 0 0 1
34.891765 17.500342 -12.047231 40.851353 0.464895 1.870151 0.052701 -0.017120 -797954.000000 0 0 1
35.849365 18.408342 -11.544431 41.920376 0.474382 1.849791 0.053918 -0.015177 90150.400000 0 0 1
35.569265 19.044142 -10.293931 41.639128 0.491573 1.820604 0.045655 -0.009907 90478.900000 0 0 1
34.407965 20.096842 -10.250931 41.144535 0.528628 1.822593 0.052757 -0.011626 906551.000000 0 0 1
33.104165 19.527742 -10.385731 39.813087 0.532951 1.834712 0.063258 -0.023223 -220835.000000 0 0 1
32.140565 20.480742 -10.619831 39.563336 0.567341 1.842555 0.044948 -0.004006 -305007.000000 0 0 1
30.694365 19.956442 -10.759331 38.159754 0.576492 1.856627 0.027059 -0.003632 37933.100000 0 0 1
30.460765 19.381642 -12.023831 38.053630 0.566671 1.892276 0.040814 -0.011135 4401.800000 0 0 1
29.257965 18.639242 -12.059631 36.727164 0.567229 1.905360 0.031711 -0.007534 -19715.500000 0 0 1
29.030065 17.930642 -13.425231 36.667280 0.553302 1.945650 0.058142 -0.016019 -84346.300000 0 0 1
30.068465 16.985242 -13.655231 37.135918 0.514200 1.947341 0.058662 -0.013521 291118.000000 0 0 1
29.773665 16.158642 -14.743531 36.945156 0.497234 1.981294 0.050397 -0.018731 -216933.000000 0 0 1
31.006365 15.592242 -15.461731 37.994445 0.465943 1.989906 0.066054 -0.029547 -166067.000000 0 0 1
31.575965 14.503442 -14.778631 37.759758 0.430577 1.972933 0.053708 -0.027821 -254118.000000 0 0 1
32.840565 14.149642 -15.264731 38.880935 0.406823 1.974255 0.063331 -0.026626 -502409.000000 0 0 1
33.635665 13.345842 -14.256031 38.893494 0.377724 1.946084 0.047568 -0.039943 -392717.000000 0 0 1
34.399365 14.143842 -13.332731 39.511091 0.390095 1.914995 0.055448 -0.024113 341764.000000 0 0 1
35.057065 13.308542 -12.391131 39.492471 0.362819 1.889946 0.050054 -0.019551 -607866.000000 0 0 1
-36.019375 14.002042 -11.632731 40.358060 -0.370759 1.863183 0.068670 -0.007609 271682.000000 0 0 1
-34.747275 14.044642 -12.315331 39.449873 -0.384117 1.888280 0.056861 -0.014951 511023.000000 0 0 1
-33.759375 14.560242 -11.448331 38.506627 -0.407190 1.872668 0.044142 -0.011266 -1054140.000000 0 0 1
-32.413275 14.644342 -12.187531 37.598046 -0.424350 1.900913 0.059936 -0.016471 -448065.000000 0 0 1
-31.749475 13.439442 -12.442931 36.653435 -0.400427 1.917155 0.044957 -0.028401 -33171.500000 0 0 1
-31.396675 12.616942 -11.318531 35.679792 -0.382105 1.893599 0.069684 -0.012250 -1349250.000000 0 0 1
-30.263575 11.676742 -11.620931 34.456876 -0.368236 1.914801 0.068118 -0.020530 -690993.000000 0 0 1
-30.555875 10.762242 -12.678831 34.788505 -0.338647 1.943843 0.054988 -0.019031 -119032.000000 0 0 1
-29.757975 9.624542 -12.668031 33.743857 -0.312809 1.955643 0.061549 -0.032012 -523525.000000 0 0 1
-29.760375 8.971242 -14.102231 34.132624 -0.292786 1.996718 0.051891 -0.031077 -37767.600000 0 0 1
-30.971775 8.361542 -14.503231 35.206675 -0.263687 1.995384 0.038468 -0.025553 177717.000000 0 0 1
-30.831475 7.404142 -15.595331 35.335754 -0.235686 2.027896 0.041677 -0.035904 -16214.300000 0 0 1
-32.170975 7.004442 -16.285331 36.732082 -0.214380 2.030134 0.033125 -0.035856 -335469.000000 0 0 1
-32.888275 6.197842 -15.451531 36.861927 -0.186267 2.003331 0.048497 -0.034302 -237416.000000 0 0 1
-33.967975 5.564042 -16.127731 38.011651 -0.162361 2.008967 0.041511 -0.035939 784749.000000 0 0 1
-35.021975 4.871942 -15.176931 38.478744 -0.138224 1.976237 0.052357 -0.032479 70554.900000 0 0 1
-36.019975 4.066642 -15.687031 39.497583 -0.112424 1.979221 0.062414 -0.031448 -5285.850000 0 0 1
35.091565 3.833342 -14.732031 38.251081 0.108807 1.966156 0.070148 -0.029923 581511.000000 0 0 1
34.009865 2.948342 -15.347231 37.428614 0.086475 1.993294 0.068021 -0.029854 -457639.000000 0 0 1
34.595565 1.654342 -15.567031 37.972654 0.047783 1.993200 0.079488 -0.038960 511637.000000 0 0 1
33.743365 0.517542 -15.376931 37.085476 0.015336 1.998338 0.075482 -0.031786 47874.700000 0 0 1
33.184865 0.191542 -13.989531 36.013594 0.005772 1.969747 0.083330 -0.042249 -872167.000000 0 0 1
34.075865 -0.264358 -13.040631 36.486881 -0.007758 1.936285 0.100194 -0.047769 -253983.000000 0 0 1
33.573265 -0.320458 -11.687331 35.550816 -0.009545 1.905776 0.102179 -0.040835 -227798.000000 0 0 1
33.563865 1.037142 -10.972931 35.327240 0.030891 1.886629 0.102101 -0.040799 -520626.000000 0 0 1
32.741165 1.957342 -11.577731 34.783026 0.059711 1.910127 0.090984 -0.028758 -76314.500000 0 0 1
32.777565 3.187742 -10.878231 34.682364 0.096949 1.889834 0.095097 -0.024790 -433829.000000 0 0 1
31.858265 4.249942 -11.506731 34.138189 0.132619 1.914592 0.084065 -0.025868 -188755.000000 0 0 1
32.249765 4.670042 -12.803931 35.011388 0.143809 1.945189 0.077626 -0.023049 530516.000000 0 0 1
31.328165 5.622342 -13.286131 34.490375 0.177576 1.966235 0.082915 -0.026158 -34240.900000 0 0 1
31.843165 6.134442 -14.611131 35.568296 0.190314 1.994118 0.057106 -0.025033 -360970.000000 0 0 1
31.852965 5.193142 -15.623331 35.856221 0.161613 2.021636 0.053733 -0.018305 138596.000000 0 0 1
32.242665 5.722842 -16.901031 36.850851 0.175663 2.047253 0.044187 -0.012087 -377991.000000 0 0 1
31.251765 6.766042 -17.577231 36.488508 0.213211 2.073412 0.042061 -0.009966 1694660.000000 0 0 1
29.942465 6.376342 -18.056831 35.542342 0.209819 2.103701 0.033194 -0.013931 900576.000000 0 0 1
29.066665 5.912942 -17.059031 34.217604 0.200689 2.092716 0.033920 -0.005461 -765779.000000 0 0 1
27.656065 5.821942 -17.725631 33.360919 0.207483 2.130965 0.031208 -0.004203 81712.000000 0 0 1
27.516265 4.742942 -18.625131 33.563907 0.170691 2.159058 0.030333 -0.006189 363604.000000 0 0 1
26.388565 4.898042 -19.476031 33.161167 0.183524 2.198533 0.017871 -0.006730 138699.000000 0 0 1
26.040065 3.692842 -20.410331 33.291195 0.140875 2.230756 0.019930 0.010961 -455525.000000 0 0 1
25.344065 2.734042 -19.716531 32.226359 0.107461 2.229148 0.025576 -0.003489 -253742.000000 0 0 1
24.895165 1.742042 -20.595231 32.356877 0.069861 2.260751 0.026150 0.005784 -471352.000000 0 0 1
23.807665 0.855042 -19.966131 31.083475 0.035899 2.268343 0.029771 -0.004021 351195.000000 0 0 1
22.529065 1.428642 -19.722031 29.975962 0.063329 2.288861 0.025137 -0.001094 771126.000000 0 0 1
21.642565 0.536742 -19.040431 28.831003 0.024795 2.292168 0.027541 -0.006357 767919.000000 0 0 1
20.277865 1.150042 -18.601831 27.541651 0.056653 2.312313 0.030892 -0.009720 909220.000000 0 0 1
19.422665 1.515842 -19.731931 27.728808 0.077887 2.362575 0.041023 -0.016304 1517530.000000 0 0 1
18.314365 2.412942 -19.535131 26.886049 0.130997 2.384142 0.020009 -0.010013 1222790.000000 0 0 1
17.031165 2.140142 -18.713231 25.393421 0.125005 2.399317 0.034811 -0.017723 -312281.000000 0 0 1
17.219265 2.026342 -17.306231 24.497240 0.117140 2.355275 0.030245 -0.017666 765392.000000 0 1 0
15.984565 2.046042 -16.571331 23.114965 0.127309 2.370155 0.013847 -0.005466 602900.000000 0 1 0
15.258065 3.392742 -16.412731 22.664885 0.218798 2.380595 0.034646 -0.010520 -231516.000000 0 1 0
14.693565 3.853242 -17.634631 23.275063 0.256465 2.430520 0.040983 -0.002878 22828.400000 0 1 0
13.707565 4.805542 -17.407731 22.672002 0.337188 2.446208 0.056463 -0.016782 -664794.000000 0 1 0
-19.729235 -22.098058 -17.362331 34.336823 0.841971 2.100929 0.061335 -0.022805 -153383.000000 0 0 1
-19.483035 -22.333758 -18.715131 35.051983 0.853465 2.134032 0.066710 -0.013246 750808.000000 0 0 1
-20.664035 -22.343458 -19.536931 36.165234 0.824428 2.141487 0.069639 -0.013851 422334.000000 0 0 1
-20.351935 -23.123558 -20.771931 37.153375 0.849063 2.164079 0.059196 -0.009310 -15231.300000 0 0 1
-20.366235 -24.485558 -20.485531 37.867969 0.876984 2.142389 0.051354 -0.007211 318163.000000 0 0 1
-19.784135 -25.140438 -21.606831 38.604517 0.904067 2.164816 0.053214 -0.007286 -44943.700000 0 0 1
-19.587635 -26.674938 -21.516531 39.473901 0.937414 2.147284 0.049093 0.007594 -203030.000000 0 0 1
-20.715535 -27.479418 -21.817531 40.746245 0.924832 2.135835 0.061061 0.015284 -19471.000000 0 0 1
-20.548135 -28.891058 -21.671431 41.552015 0.952574 2.119462 0.075803 -0.003329 -212158.000000 0 0 1
-21.895935 -29.636308 -21.803531 42.815145 0.934488 2.105107 0.063685 -0.001495 315890.000000 0 0 1
-22.708335 -29.344068 -22.928031 43.616939 0.912196 2.124297 0.035900 0.001923 178909.000000 0 0 1
-22.260035 -30.008908 -24.130231 44.478217 0.932576 2.144228 0.035563 -0.003187 -164925.000000 0 0 1
-22.591035 -29.327728 -25.493601 44.948795 0.914432 2.173862 0.024671 0.006481 122832.000000 0 0 1
-23.955235 -29.493828 -25.827101 45.943207 0.888653 2.167783 0.019693 0.006951 227103.000000 0 0 1
-24.413635 -28.852788 -27.043761 46.474444 0.868545 2.191867 0.020865 0.015869 -75298.700000 0 0 1
-23.906735 -29.246788 -28.442061 47.284854 0.885527 2.216180 0.036092 -0.011413 -436751.000000 0 0 1
-24.188635 -30.586888 -28.828161 48.494439 0.901680 2.207394 0.019651 -0.002295 90034.200000 0 0 1
-23.722335 -30.696168 -30.168521 49.144110 0.912855 2.231761 0.049535 -0.010689 -40145.200000 0 0 1
-24.219835 -31.997868 -30.908161 50.653513 0.922881 2.227094 0.026461 -0.010910 -37114.100000 0 0 1
-23.544035 -33.170268 -30.520371 50.853528 0.953528 2.214500 0.017980 -0.014462 -334246.000000 0 0 1
-24.288235 -34.297871 -30.858641 52.139409 0.954618 2.204147 0.019511 -0.011831 -147162.000000 0 0 1
-23.451235 33.046921 -30.782731 50.888466 -0.953633 2.220444 0.031785 -0.012510 116439.000000 0 0 1
-22.555635 32.923586 -31.851431 51.061070 -0.970147 2.244380 0.030296 -0.018201 -400694.000000 0 0 1
-21.869035 31.688572 -31.840991 49.962676 -0.966730 2.261780 0.024237 -0.005567 429798.000000 0 0 1
-20.645335 31.724092 -32.832131 50.105855 -0.993875 2.285317 0.021864 -0.003721 431993.000000 0 0 1
-20.992335 31.588022 -34.225924 51.087133 -0.984249 2.304940 0.020455 -0.004113 -4973.270000 0 0 1
-21.019735 30.195812 33.960211 50.069075 -0.962683 0.825394 0.006303 0.006553 -158880.000000 0 0 1
-21.095735 29.841352 32.434340 48.862284 -0.955435 0.844920 0.013362 -0.000160 759584.000000 0 0 1
-20.075335 30.451482 31.578532 48.244332 -0.987941 0.857203 0.013499 0.000608 1069520.000000 0 0 1
-20.359635 30.199302 30.210242 47.319883 -0.977613 0.878345 0.026286 -0.002969 -89564.400000 0 0 1
-19.797835 31.418412 29.378462 47.351504 -1.008513 0.901501 0.023822 -0.015621 90745.000000 0 0 1
-20.697235 32.524352 29.436892 48.505048 -1.004069 0.918663 0.023914 -0.013820 257980.000000 0 0 1
-20.087535 33.653143 28.877402 48.682106 -1.032660 0.935789 0.020485 -0.020896 45005.400000 0 0 1
-20.882135 -33.666098 29.023262 49.110278 1.015604 0.938521 0.027477 -0.026368 -111206.000000 0 0 1
-20.873935 -33.255888 30.375662 49.642281 1.010275 0.912347 0.020757 -0.011964 319908.000000 0 0 1
-21.995235 -32.421178 30.651402 49.743658 0.974700 0.906904 0.047970 -0.018723 371409.000000 0 0 1
-21.827735 -30.942398 30.080012 48.359995 0.956435 0.899499 0.050734 -0.010399 -267261.000000 0 0 1
-21.698135 -30.699558 28.674842 47.281270 0.955528 0.919178 0.044969 -0.008080 -206820.000000 0 0 1
-21.687335 -29.289768 28.358372 46.178223 0.933441 0.909542 0.050288 -0.014842 576798.000000 0 0 1
-23.021735 -28.512008 27.940182 46.082411 0.891535 0.919385 0.052790 -0.015249 771254.000000 0 0 1
-23.940235 -28.354608 29.029132 47.114850 0.869612 0.906970 0.054723 -0.012946 929610.000000 0 0 1
-24.929635 -29.414078 29.136912 48.328401 0.867732 0.923673 0.051103 -0.005016 1209330.000000 0 0 1
-26.130415 -29.500218 28.091032 48.395945 0.845899 0.951525 0.043280 -0.005618 403276.000000 0 0 1
-25.651615 -29.672978 26.778202 47.492768 0.857957 0.971771 0.049673 -0.003372 -136918.000000 0 0 1
-26.666525 -29.990968 25.837532 47.729862 0.844007 0.998780 0.038553 -0.001258 71571.900000 0 0 1
-26.170905 -30.181488 24.370122 46.794672 0.856448 1.023022 0.049223 -0.005896 -425392.000000 0 0 1
-25.753395 -29.095168 23.584762 45.453351 0.846250 1.025258 0.029911 0.001158 220775.000000 0 0 1
-25.347965 -29.418188 22.237332 44.748721 0.859582 1.050730 0.060024 0.000411 735339.000000 0 0 1
-23.979535 -30.180228 22.090232 44.427948 0.899391 1.050411 0.047176 -0.006793 34130.100000 0 0 1
-24.031035 -31.531448 22.541932 45.605499 0.919578 1.053789 0.056622 -0.027829 346670.000000 0 0 1
-22.911735 -32.382398 22.296632 45.505022 0.955030 1.058727 0.058020 -0.006950 506286.000000 0 0 1
-21.979535 -32.734758 23.489042 45.895527 0.979494 1.033525 0.054463 -0.012403 -134541.000000 0 0 1
-21.338235 -31.693968 24.110372 45.178954 0.978244 1.007869 0.051928 -0.022067 -193574.000000 0 0 1
-20.658135 -32.185168 25.244702 45.825086 1.000170 0.987363 0.038365 -0.028813 -609454.000000 0 0 1
-19.397635 -31.406688 25.644552 44.947651 1.017516 0.963630 0.028350 -0.009192 -1062580.000000 0 0 1
-18.197135 -31.696788 24.991832 44.276560 1.049638 0.971031 0.044221 -0.009316 185582.000000 0 0 1
-17.052235 -31.438828 25.812992 44.107699 1.073811 0.945637 0.070186 -0.006574 189577.000000 0 0 1
-16.742535 -32.256878 27.086352 45.326472 1.092035 0.930312 0.033803 -0.023643 -714391.000000 0 0 1
-17.600035 -32.085258 28.196462 46.198111 1.069075 0.914309 0.025281 -0.017322 407842.000000 0 0 1
-16.926935 -32.618228 29.335402 47.021651 1.092111 0.897111 0.025930 -0.014395 263827.000000 0 0 1
-17.434335 -31.909678 30.584822 47.514365 1.070748 0.871478 0.036182 -0.008923 102443.000000 0 0 1
-16.979435 -30.541938 30.655842 46.485394 1.063405 0.850679 0.036971 -0.011190 274260.000000 0 0 1
-17.366935 -29.857748 31.836042 46.974771 1.043974 0.826130 0.041487 -0.004487 -5725.830000 0 0 1
-17.088935 -28.308088 31.732122 45.829107 1.027678 0.805985 0.052917 -0.011422 256012.000000 0 0 1
-18.086835 -27.581708 30.999432 45.264213 0.990386 0.816391 0.054530 -0.014382 470119.000000 0 0 1
-18.236335 -27.750538 29.636672 44.508298 0.989409 0.842139 0.055024 -0.014831 293454.000000 0 0 1
-16.983835 -27.368738 28.752862 43.176678 1.015399 0.842050 0.039931 -0.015369 597786.000000 0 0 1
-16.731035 -25.959818 28.664082 42.136318 0.998299 0.822665 0.040753 -0.008485 -664841.000000 0 0 1
-15.646935 -25.717708 27.861972 41.018490 1.024215 0.824051 0.035997 -0.005897 -954800.000000 0 0 1
-15.581035 -24.333458 27.256982 39.721894 1.001261 0.814551 0.034979 -0.000982 -72070.000000 0 0 1
-16.299235 -24.277258 26.018882 39.141187 0.979539 0.843645 0.056897 0.000239 -8958.660000 0 0 1
-16.185935 -23.033558 25.291642 37.844371 0.958253 0.838866 0.044510 0.003062 -363345.000000 0 0 1
-17.074835 -21.878658 25.736402 37.849545 0.908101 0.823080 0.047656 0.002250 -552624.000000 0 0 1
-16.846035 -20.782458 24.862522 36.521835 0.889632 0.822000 0.047887 -0.000102 129377.000000 0 0 1
-17.388835 -19.569458 25.325852 36.424360 0.844332 0.801959 0.045104 -0.000048 -92648.100000 0 0 1
-16.809435 -18.436558 24.464702 34.942602 0.831530 0.795203 0.037368 -0.007604 -365537.000000 0 0 1
-15.449135 -18.174158 24.609472 34.272465 0.866267 0.769794 0.032796 -0.012058 -750243.000000 0 0 1
-15.169135 -17.061958 23.741612 32.937474 0.844057 0.765828 0.031110 -0.007783 225131.000000 0 0 1
-13.709435 -16.570858 23.881412 32.138198 0.879616 0.733128 0.034793 -0.011480 271148.000000 0 0 1
-12.693635 -17.434658 23.365732 31.797061 0.941479 0.745367 0.015729 -0.013735 1068550.000000 0 0 1
-11.366635 -16.889258 23.526562 31.111839 0.978415 0.713321 0.015399 -0.014900 587103.000000 0 0 1
-10.884135 -15.934558 22.366932 29.540720 0.971535 0.711848 0.021559 -0.012270 -210497.000000 0 0 1
-10.491735 -16.519058 21.119132 28.791900 1.004946 0.747325 0.036683 -0.010165 628947.000000 0 0 1
-9.345635 -17.393358 21.302532 29.045958 1.077748 0.747475 0.025743 -0.011772 -15645.900000 0 0 1
-9.066735 -18.558858 20.327532 28.980087 1.116359 0.793393 0.029314 -0.011130 -215321.000000 0 0 1
-8.760935 -18.064358 19.031832 27.663796 1.119233 0.812110 0.030167 -0.011665 -130820.000000 0 0 1
-8.314035 -19.188658 18.272432 27.770659 1.161935 0.852668 0.029414 -0.011693 96032.000000 0 0 1
-7.884035 -18.896458 16.864432 26.526273 1.175531 0.881799 0.031573 -0.014634 -507808.000000 0 0 1
-6.813135 -18.031258 16.782732 25.557878 1.209528 0.854420 0.032280 -0.011403 -781552.000000 0 0 1
-6.548435 -17.649558 15.406332 24.325788 1.215515 0.884943 0.040783 -0.019047 67994.000000 0 1 0
-5.700835 -16.406958 15.221132 23.094818 1.236382 0.851213 0.036441 -0.015852 -226862.000000 0 1 0
-6.311935 -15.314058 15.755832 22.860602 1.179846 0.810394 0.044057 -0.025997 -602547.000000 0 1 0
-5.384535 -14.301558 15.945232 22.085701 1.210711 0.764150 0.036433 -0.018585 -222357.000000 0 1 0
-5.704335 -13.498958 17.208932 22.603288 1.170981 0.705409 0.028759 -0.002168 -166855.000000 0 1 0
-5.356235 -14.074458 18.491632 23.847852 1.207156 0.683448 0.030022 0.004584 234660.000000 0 1 0
-6.252835 -15.079058 19.058532 25.093895 1.177708 0.708269 0.047468 -0.010618 91502.500000 0 0 1
-7.474835 -14.427858 19.714332 25.547820 1.092787 0.689343 0.051167 -0.013283 -453333.000000 0 0 1
-7.229335 -13.543858 20.788532 25.843034 1.080497 0.636106 0.049663 -0.014950 -225383.000000 0 0 1
-8.397935 -12.891758 21.275032 26.255470 0.993424 0.626118 0.050148 -0.010754 480305.000000 0 0 1
-8.020435 -11.922058 22.360132 26.578908 0.978601 0.571162 0.057789 -0.010665 -276741.000000 0 0 1
-7.531035 -10.694958 21.832832 25.451349 0.957279 0.539772 0.047687 -0.013319 208664.000000 0 0 1
-6.977035 -9.738858 22.737332 25.700401 0.949140 0.484931 0.039566 -0.018283 700094.000000 0 0 1
-5.610535 -10.145658 23.402432 26.116782 1.065654 0.459963 0.053372 -0.013764 320570.000000 0 0 1
-5.610235 -11.130758 24.415132 27.412902 1.103930 0.472037 0.064971 -0.008674 -433433.000000 0 0 1
-4.263435 -11.433758 24.667872 27.521112 1.213884 0.459385 0.054711 -0.008727 -229369.000000 0 0 1
-4.121635 -12.664458 25.603762 28.860509 1.256158 0.479652 0.058345 -0.012793 -842713.000000 0 0 1
-2.801035 -13.085358 25.693732 28.969643 1.359920 0.480164 0.051087 -0.020747 -574014.000000 0 0 1
-2.679635 -14.228658 26.582782 30.270108 1.384650 0.498740 0.054024 -0.023995 142241.000000 0 0 1
-2.854235 -15.558858 25.821352 30.281462 1.389366 0.549642 0.053634 -0.038560 -4915.030000 0 0 1
-1.730735 -15.855858 25.028082 29.678419 1.462072 0.567385 0.055910 -0.029315 -24393.900000 0 0 1
-1.894535 -17.231158 24.599872 30.094115 1.461288 0.613859 0.055649 -0.025859 -48919.600000 0 0 1
-0.604935 -18.107458 24.585662 30.540150 1.537401 0.635074 0.063636 -0.030585 457154.000000 0 0 1
-0.100435 -18.505158 25.827542 31.772832 1.565369 0.621714 0.072260 -0.036036 -25654.600000 0 0 1
0.610765 -17.562158 26.601632 31.881801 -1.536033 0.583784 0.084000 -0.036935 -359702.000000 0 0 1
1.072065 -18.100458 27.973472 33.336032 -1.511637 0.575103 0.077874 -0.032644 368982.000000 0 0 1
2.215365 -19.005058 27.940442 33.863968 -1.454753 0.600455 0.073589 -0.042820 1011930.000000 0 0 1
2.976765 -18.946158 29.146352 34.890226 -1.414953 0.581985 0.071736 -0.044174 635178.000000 0 0 1
3.980865 -17.778758 29.306412 34.507931 -1.350518 0.556203 0.085705 -0.038596 84881.600000 0 0 1
3.244865 -16.598058 29.535042 34.034444 -1.377735 0.520041 0.071009 -0.040987 899776.000000 0 0 1
4.190965 -15.666658 30.120122 34.208626 -1.309408 0.493916 0.077916 -0.044383 1173090.000000 0 0 1
3.413165 -14.588158 30.961472 34.395883 -1.340962 0.450681 0.069284 -0.045545 420037.000000 0 0 1
2.755565 -15.177358 32.064722 35.582183 -1.391195 0.448392 0.061837 -0.045688 -179796.000000 0 0 1
1.937565 -14.186358 32.656649 35.657589 -1.435057 0.413201 0.039381 -0.030446 -156979.000000 0 0 1
1.120765 -14.729558 33.848924 36.931905 -1.494853 0.411498 0.028254 -0.027361 -242793.000000 0 0 1
1.856465 -14.931858 -33.470961 36.697576 -1.447102 2.719114 0.040347 -0.027233 -933018.000000 0 0 1
1.107265 -15.434558 -32.430271 35.932911 -1.499180 2.696389 0.023391 -0.029645 -198563.000000 0 0 1
1.890665 -15.620558 -31.085761 34.841082 -1.450345 2.673024 0.024221 -0.015721 136766.000000 0 0 1
1.220965 -16.498458 -30.209731 34.442963 -1.496926 2.640575 0.023477 -0.017886 -275474.000000 0 0 1
1.794565 -16.457758 -28.907031 33.312080 -1.462185 2.621482 0.021519 -0.011499 30724.400000 0 0 1
1.437065 -17.674458 -28.005961 33.147933 -1.489667 2.577133 0.031767 -0.015326 -49110.400000 0 0 1
2.024165 -18.866358 -28.504881 34.242736 -1.463916 2.554286 0.044565 -0.014401 -26000.000000 0 0 1
1.745265 -19.977658 -27.662551 34.166789 -1.483657 2.514322 0.028725 -0.005980 -512216.000000 0 0 1
2.648765 -21.248358 -27.745661 35.047544 -1.446779 2.484314 0.035308 -0.017680 1163020.000000 0 0 1
3.991865 -21.124758 -27.203151 34.672782 -1.384032 2.472795 0.046251 -0.017759 871121.000000 0 0 1
4.063165 -21.104158 -25.808351 33.585202 -1.380595 2.447203 0.049727 -0.017533 -1296600.000000 0 0 1
5.396165 -21.523958 -25.167101 33.552680 -1.325154 2.418975 0.036909 -0.023201 -178585.000000 0 0 1
5.721865 -22.918858 -25.327581 34.633800 -1.326140 2.391017 0.038971 -0.025295 190784.000000 0 0 1
5.983865 -23.322858 -26.671921 35.932627 -1.319647 2.407257 0.032748 -0.019663 -1078580.000000 0 0 1
5.393165 -24.673858 -27.028091 36.991934 -1.355603 2.390067 0.017415 -0.019677 -250560.000000 0 0 1
5.985965 -25.716038 -26.379591 37.323306 -1.342097 2.355741 0.026907 -0.016313 -410602.000000 0 0 1
5.435165 -26.883968 -26.909391 38.424004 -1.371314 2.346653 0.023290 -0.015526 -81619.900000 0 0 1
5.694265 -28.118528 -26.006871 38.722520 -1.370989 2.307191 0.029250 -0.015443 -762566.000000 0 0 1
7.034665 -28.366668 -25.750041 38.951495 -1.327710 2.293053 0.047117 -0.021196 -897094.000000 0 0 1
7.272365 -29.591988 -25.074931 39.462960 -1.329817 2.259328 0.042885 -0.020697 -59187.300000 0 0 1
8.691965 -30.173258 -25.276991 40.310073 -1.290321 2.248575 0.039193 -0.021487 92832.600000 0 0 1
8.993765 -30.168038 -26.669451 41.258428 -1.281063 2.273653 0.042997 -0.021468 -1685000.000000 0 0 1
10.345265 -30.077488 -26.786761 41.583775 -1.239518 2.270726 0.065683 -0.015370 -1449500.000000 0 0 1
10.704265 -30.037598 -28.259501 42.607957 -1.228465 2.295942 0.070720 -0.029417 -99275.200000 0 0 1
10.323765 -31.243998 -28.920081 43.807974 -1.251667 2.291822 0.065236 -0.024144 119470.000000 0 0 1
10.613465 -31.111218 -30.307631 44.711363 -1.242031 2.315632 0.073478 -0.011743 40784.100000 0 0 1
-34.782324 -4.795858 -5.811031 35.589021 0.137018 1.734812 0.134637 -0.037637 -138214.000000 0 0 1
-34.465355 -4.057358 -4.629631 35.010803 0.117183 1.703419 0.125848 -0.049395 704230.000000 0 0 1
-33.629745 -2.917958 -4.920031 34.112768 0.086550 1.715530 0.122422 -0.052481 230156.000000 0 0 1
-34.362470 -1.626058 -5.440731 34.828508 0.047285 1.727654 0.140777 -0.044826 318418.000000 0 0 1
-35.334762 -1.150858 -4.501231 35.638897 0.032559 1.697436 0.118752 -0.039955 820177.000000 0 0 1
35.961135 -0.190458 -5.091531 36.320286 -0.005296 1.711444 0.129685 -0.042074 320449.000000 0 0 1
35.261215 0.707942 -4.043631 35.499372 0.020074 1.684951 0.126653 -0.036545 -128635.000000 0 0 1
-36.016819 1.595042 -3.436131 36.215500 -0.044257 1.665819 0.112214 -0.027036 279690.000000 0 0 1
35.410125 2.577142 -2.698231 35.606166 0.072652 1.646649 0.105921 -0.027593 7129.100000 0 0 1
-36.057355 3.963542 -2.473331 36.358766 -0.109484 1.638875 0.081414 -0.030236 -376626.000000 0 0 1
-35.833706 4.646742 -3.712231 36.323923 -0.128956 1.673173 0.092997 -0.025903 790502.000000 0 0 1
-34.480875 4.542142 -4.173731 35.028300 -0.130975 1.690233 0.068561 -0.024153 239036.000000 0 0 1
-33.580175 5.723842 -3.730631 34.268180 -0.168830 1.679878 0.055288 -0.024534 -510787.000000 0 0 1
-33.360835 5.677442 -2.343131 33.921511 -0.168568 1.639926 0.074837 -0.024237 315394.000000 0 0 1
-32.944605 6.976942 -1.959431 33.732241 -0.208694 1.628917 0.077387 -0.031492 -256848.000000 0 0 1
-32.536335 7.098042 -0.457331 33.304721 -0.214792 1.584528 0.083755 -0.032723 -355012.000000 0 0 1
-31.160825 6.792142 -0.333731 31.894225 -0.214614 1.581260 0.085311 -0.023915 299573.000000 0 0 1
-30.636445 7.088542 0.943569 31.459967 -0.227375 1.540799 0.090997 -0.026107 12345.400000 0 0 1
-30.226075 8.572042 1.253369 31.443067 -0.276342 1.530924 0.090666 -0.026784 -421983.000000 0 0 1
-31.307795 9.488942 1.182369 32.735547 -0.294285 1.534670 0.075565 -0.027792 135719.000000 0 0 1
-31.006815 10.857742 1.429669 32.883995 -0.336829 1.527306 0.072818 -0.010175 241242.000000 0 0 1
-32.279205 11.758242 1.346469 34.380464 -0.349328 1.531623 0.072047 -0.019044 25787.000000 0 0 1
-32.809705 11.868242 0.013969 34.890287 -0.347086 1.570396 0.062109 -0.013447 993807.000000 0 0 1
-34.041639 12.599142 -0.023131 36.298376 -0.354476 1.571434 0.046749 -0.000949 688145.000000 0 0 1
-35.359492 11.866242 0.295069 37.298639 -0.323779 1.562885 0.058598 -0.011903 -444089.000000 0 0 1
-35.768614 10.992842 -0.683831 37.425980 -0.298170 1.589069 0.058087 -0.007174 929037.000000 0 0 1
35.142985 10.359742 -0.307031 36.639431 0.286669 1.579176 0.060318 -0.012633 1171210.000000 0 0 1
34.757405 9.221342 -1.252531 35.981650 0.259331 1.605614 0.052665 -0.013985 42492.900000 0 0 1
34.468545 9.526942 -2.574731 35.853486 0.269663 1.642671 0.053095 -0.008103 177727.000000 0 0 1
34.220095 8.351042 -3.263631 35.375218 0.239361 1.663185 0.041734 -0.013234 -180885.000000 0 0 1
33.775525 8.622742 -4.695331 35.173625 0.249957 1.704686 0.042343 -0.005068 1367440.000000 0 0 1
32.384815 9.048342 -4.803431 33.966479 0.272453 1.712689 0.053273 -0.009869 1526090.000000 0 0 1
32.081435 9.607042 -6.058631 34.032642 0.290959 1.749774 0.037155 -0.005160 572379.000000 0 0 1
30.647155 10.220242 -6.196531 32.895265 0.321883 1.760300 0.048149 -0.001413 483446.000000 0 0 1
29.572145 9.315042 -6.081131 31.595283 0.305155 1.764474 0.045726 0.000793 109837.000000 0 0 1
28.350595 9.976042 -6.289931 30.705714 0.338350 1.777102 0.062955 -0.002444 37973.100000 0 0 1
27.133405 9.004942 -6.381831 29.292293 0.320439 1.790425 0.081256 0.000965 -48357.600000 0 0 1
27.208805 8.121042 -7.506931 29.370468 0.290054 1.829259 0.078679 -0.006522 1090570.000000 0 0 1
26.028805 7.307542 -7.725431 28.117275 0.273702 1.849134 0.089399 -0.010820 649264.000000 0 0 1
26.139705 6.397842 -9.000431 28.376475 0.240037 1.893550 0.076591 -0.008567 -519260.000000 0 0 1
27.003505 5.310642 -8.907331 28.926333 0.194187 1.883815 0.076708 -0.009477 247655.000000 0 0 1
27.104505 4.421342 -10.013331 29.231306 0.161698 1.920431 0.071814 -0.013339 -329870.000000 0 0 1
27.917975 3.161242 -9.658331 29.710101 0.112753 1.901899 0.070785 -0.011325 -1525150.000000 0 0 1
29.267635 3.358042 -9.736231 31.026845 0.114236 1.889989 0.101626 -0.010661 -677415.000000 0 0 1
30.102935 2.835142 -8.690031 31.460155 0.093905 1.850659 0.077846 -0.017121 -34029.700000 0 0 1
30.275985 1.272942 -8.560331 31.488647 0.042020 1.846116 0.083018 -0.024609 -394874.000000 0 0 1
29.065285 0.697142 -8.076631 30.174637 0.023981 1.841763 0.087674 -0.028305 708202.000000 0 0 1
29.173045 -0.687058 -7.672531 30.172940 -0.023547 1.827905 0.080880 -0.030893 -323596.000000 0 0 1
29.052365 -1.694258 -8.800431 30.403256 -0.058251 1.864456 0.067175 -0.023365 -788708.000000 0 0 1
30.120135 -1.717258 -9.682831 31.684834 -0.056952 1.881363 0.085920 -0.033137 -178040.000000 0 0 1
29.971185 -2.850858 -10.530131 31.894874 -0.094835 1.907260 0.063007 -0.040585 -209248.000000 0 0 1
31.042135 -3.118558 -11.615931 33.290680 -0.100126 1.927219 0.075685 -0.044088 -504323.000000 0 0 1
32.335175 -3.366458 -11.119631 34.359027 -0.103738 1.900360 0.105915 -0.039960 -293442.000000 0 0 1
33.155305 -3.845358 -12.156831 35.522522 -0.115464 1.920084 0.090412 -0.056156 402492.000000 0 0 1
34.631175 -4.016558 -11.667431 36.763840 -0.115465 1.893742 0.108451 -0.048682 275960.000000 0 0 1
34.849395 -5.072858 -10.797431 36.834749 -0.144550 1.868297 0.100473 -0.041946 9557.050000 0 0 1
-35.999978 -5.202858 -10.322431 37.810326 0.143530 1.847312 0.118991 -0.038421 -167548.000000 0 0 1
-35.855006 -6.496458 -9.450831 37.644437 0.179242 1.824567 0.104442 -0.035408 -281959.000000 0 0 1
35.856235 -6.417258 -8.134831 37.323267 -0.177097 1.790516 0.094128 -0.031482 121081.000000 0 0 1
35.429555 -7.698058 -7.878731 37.102397 -0.213952 1.784777 0.083602 -0.018954 -473411.000000 0 0 1
35.294535 -7.938258 -6.383831 36.735179 -0.221233 1.745463 0.083046 -0.012750 -53393.700000 0 0 1
-35.656751 -7.917558 -5.633931 36.957175 0.218504 1.723838 0.079019 -0.016426 661398.000000 0 0 1
-35.665728 -8.682658 -4.439731 36.974909 0.238800 1.691161 0.085292 -0.018330 -393681.000000 0 0 1
-35.254502 -10.172158 -4.482731 36.965492 0.280906 1.692364 0.076332 -0.023887 -635042.000000 0 0 1
35.925525 -10.970058 -5.072531 37.904037 -0.296363 1.705025 0.059766 -0.022375 -128017.000000 0 0 1
-35.708520 -12.035758 -5.800231 38.126114 0.325097 1.723522 0.040942 -0.015867 -343452.000000 0 0 1
35.833005 -12.252458 -7.196031 38.547501 -0.329469 1.758578 0.040399 -0.008259 -149152.000000 0 0 1
35.872075 -11.186858 -8.130731 38.445550 -0.302296 1.783892 0.068798 -0.011406 240379.000000 0 0 1
35.803175 -11.625758 -9.472331 38.816886 -0.313972 1.817312 0.061269 -0.005383 -141315.000000 0 0 1
36.060355 -10.596358 -10.621231 39.056914 -0.285806 1.846207 0.061386 -0.006563 -681153.000000 0 0 1
35.058235 -9.641458 -10.851631 37.944636 -0.268378 1.860831 0.069832 -0.008101 244824.000000 0 0 1
35.231155 -9.067958 -12.159431 38.357709 -0.251917 1.893362 0.074184 -0.014872 -425833.000000 0 0 1
34.078375 -8.146358 -12.545531 37.216785 -0.234644 1.914624 0.077721 -0.023966 -377335.000000 0 0 1
34.349735 -7.553058 -13.807231 37.783496 -0.216442 1.944891 0.086839 -0.027480 360853.000000 0 0 1
33.246215 -6.828858 -14.300131 36.829850 -0.202585 1.969556 0.086636 -0.037405 -229844.000000 0 0 1
33.453215 -5.906258 -15.479631 37.331226 -0.174752 1.998361 0.082026 -0.038893 -454082.000000 0 0 1
34.473345 -4.980058 -15.260631 38.027613 -0.143469 1.983736 0.088160 -0.030219 90709.400000 0 0 1
34.108125 -3.715858 -15.774031 37.762307 -0.108516 2.001730 0.101406 -0.039395 -496936.000000 0 0 1
35.277545 -2.759358 -15.675931 38.702119 -0.078060 1.987820 0.099972 -0.043431 -761900.000000 0 0 1
-35.994284 -2.962658 -16.755431 39.813444 0.082124 2.005177 0.098040 -0.034912 -135296.000000 0 0 1
-34.670712 -2.522158 -16.654731 38.546071 0.072618 2.017587 0.092079 -0.030467 -167800.000000 0 0 1
-34.436905 -1.004558 -16.382431 38.148311 0.029163 2.014670 0.086067 -0.026572 -1026990.000000 0 0 1
-34.540831 -0.225858 -17.525431 38.733200 0.006539 2.040324 0.071483 -0.021217 238483.000000 0 0 1
-34.434880 1.148842 -17.105831 38.466742 -0.033350 2.031626 0.064599 -0.029076 -432891.000000 0 0 1
-34.803082 2.074642 -18.229931 39.343221 -0.059540 2.052575 0.057173 -0.028862 440249.000000 0 0 1
-33.856165 2.170642 -19.327531 39.044911 -0.064026 2.088640 0.042065 -0.021629 660797.000000 0 0 1
-34.081083 3.339942 -20.153331 39.734521 -0.097688 2.102729 0.036686 -0.019582 -564522.000000 0 0 1
-33.098175 3.515942 -21.302431 39.517649 -0.105831 2.140118 0.040257 -0.012735 -512751.000000 0 0 1
-31.786055 3.896542 -20.978831 38.283778 -0.121978 2.150746 0.046942 -0.018445 147342.000000 0 0 1
-31.146035 4.358242 -22.208131 38.500271 -0.139027 2.185640 0.047162 -0.014417 -1289990.000000 0 0 1
-29.760235 4.899642 -22.092931 37.386838 -0.163173 2.203005 0.053667 -0.016669 -1167970.000000 0 0 1
-28.915255 3.809842 -21.705931 36.355939 -0.131004 2.210602 0.061752 -0.011144 750124.000000 0 0 1
-27.559435 4.286542 -21.687031 35.330217 -0.154302 2.231710 0.044213 -0.013021 563317.000000 0 0 1
-26.520765 3.348742 -21.051531 34.025461 -0.125604 2.237882 0.062666 -0.010981 -89219.500000 0 0 1
-26.707275 3.275842 -19.684831 33.339200 -0.122048 2.202401 0.056719 -0.014432 123434.000000 0 0 1
-26.021705 2.152942 -19.126131 32.366235 -0.082548 2.203006 0.058738 -0.021710 -228102.000000 0 0 1
-25.298815 2.450742 -17.801431 31.031067 -0.096571 2.181769 0.067240 -0.024179 649292.000000 0 0 1
-24.204335 3.389442 -17.946831 30.322053 -0.139130 2.204178 0.060946 -0.025474 650217.000000 0 0 1
-23.437635 3.435042 -16.749731 29.011648 -0.145525 2.186270 0.061155 -0.029256 348597.000000 0 0 1
-22.196035 4.372542 -16.843731 28.204510 -0.194506 2.210802 0.076355 -0.032220 977220.000000 0 0 1
-21.063335 3.805842 -17.517331 27.658731 -0.178757 2.256656 0.082375 -0.036212 409142.000000 0 0 1
-19.989335 4.686242 -17.701131 27.108383 -0.230278 2.282304 0.074331 -0.033989 59298.700000 0 0 1
-18.676135 4.017442 -18.176731 26.369138 -0.211882 2.331344 0.086872 -0.034816 -137518.000000 0 0 1
-18.092235 3.159342 -17.193931 25.158332 -0.172881 2.323246 0.091892 -0.036352 288666.000000 0 0 1
-16.973935 2.521042 -17.808131 24.730541 -0.147446 2.374723 0.069451 -0.035100 -383073.000000 0 1 0
-17.018835 1.038542 -17.368431 24.338893 -0.060948 2.365432 0.054765 -0.027530 504744.000000 0 1 0
-18.006935 0.179642 -18.009031 25.467768 -0.009976 2.356228 0.049491 -0.027961 415905.000000 0 0 1
-19.280135 0.446142 -17.461831 26.016114 -0.023136 2.306613 0.056055 -0.031056 -652886.000000 0 0 1
-20.280735 -0.679758 -17.882831 27.047476 0.033505 2.293166 0.041592 -0.031391 -133856.000000 0 0 1
-20.127735 -1.853258 -17.193131 26.536089 0.091816 2.275640 0.026074 -0.032541 178305.000000 0 0 1
-21.155535 -2.739358 -17.575731 27.639954 0.128770 2.259946 0.041740 -0.026820 -60966.500000 0 0 1
-21.296235 -3.929558 -16.670431 27.329001 0.182467 2.226845 0.051221 -0.031781 -200249.000000 0 0 1
-21.604935 -3.464158 -15.393431 26.753155 0.158988 2.183874 0.044346 -0.034311 374402.000000 0 0 1
-21.757135 -4.474458 -14.406431 26.475252 0.202827 2.146169 0.033479 -0.044687 -522173.000000 0 0 1
-21.909735 -3.910558 -12.995531 25.772326 0.176625 2.099302 0.045136 -0.037109 31180.200000 0 0 1
-23.104035 -3.128458 -12.895031 26.643301 0.134589 2.076002 0.035896 -0.039106 767487.000000 0 0 1
-23.439135 -2.793658 -11.564331 26.285573 0.118628 2.026339 0.044804 -0.045605 -429046.000000 0 0 1
-24.535435 -1.702558 -11.584531 27.186166 0.069281 2.010994 0.088284 -0.048890 -249894.000000 0 0 1
-24.914335 -1.258258 -10.324831 26.998323 0.050460 1.963216 0.086925 -0.047227 406504.000000 0 0 1
-25.563865 -0.007558 -10.411631 27.602777 0.000296 1.957562 0.100746 -0.043807 -37089.800000 0 0 1
-26.263265 0.291942 -9.050031 27.780342 -0.011116 1.902623 0.108325 -0.035012 -183751.000000 0 0 1
-25.279305 0.575742 -8.085331 26.547077 -0.022771 1.880279 0.093967 -0.033329 621410.000000 0 0 1
-25.826845 0.816442 -6.809431 26.721917 -0.031602 1.828464 0.101468 -0.039193 170165.000000 0 0 1
-24.724135 1.190642 -5.770031 25.416407 -0.048120 1.799813 0.079923 -0.028943 161177.000000 0 0 1
-24.143435 2.482942 -5.928731 24.984401 -0.102481 1.810379 0.091553 -0.027298 350612.000000 0 1 0
-22.833035 2.542942 -5.416831 23.604154 -0.110914 1.802346 0.079954 -0.015415 -16269.900000 0 1 0
-22.193635 3.948442 -5.396131 23.178996 -0.176067 1.805755 0.082283 -0.013232 -273002.000000 0 1 0
-22.761835 4.795942 -4.454231 23.684222 -0.207664 1.759990 0.085922 -0.013905 495105.000000 0 1 0
-22.393035 6.131142 -4.744431 23.697016 -0.267247 1.772371 0.092673 -0.015663 -476892.000000 0 1 0
-22.907035 7.266842 -3.822931 24.334216 -0.307190 1.728551 0.089145 -0.015875 -260159.000000 0 1 0
-22.279635 7.388142 -2.530031 23.608639 -0.320198 1.678168 0.078787 -0.009831 976689.000000 0 1 0
-20.884535 7.651742 -2.463431 22.378147 -0.351195 1.681102 0.077247 -0.010016 182229.000000 0 1 0
-20.444835 9.118842 -2.744531 22.553869 -0.419541 1.692786 0.069212 -0.016680 -743905.000000 0 1 0
-20.391535 9.593742 -4.078331 22.901689 -0.439751 1.749831 0.061437 -0.012942 490375.000000 0 1 0
-20.059635 10.960942 -4.045831 23.214219 -0.500089 1.745973 0.086277 -0.013072 -605168.000000 0 1 0
-19.795235 11.548142 -5.426931 23.551274 -0.528109 1.803316 0.073055 -0.015366 -308033.000000 0 1 0
-18.570035 11.140342 -6.007131 22.473074 -0.540353 1.841390 0.039904 -0.004433 423698.000000 0 1 0
-18.605935 11.483342 -7.382431 23.077007 -0.552961 1.896425 0.048446 -0.005294 270009.000000 0 1 0
-17.193935 11.271642 -8.021431 22.068636 -0.580273 1.942793 0.035312 -0.002075 335458.000000 0 1 0
-16.824235 9.976242 -8.467031 21.313632 -0.535233 1.979324 0.022193 -0.001003 143110.000000 0 1 0
-17.663435 9.471142 -9.474731 22.169123 -0.492187 2.012394 0.029974 -0.000963 -258861.000000 0 1 0
-17.648335 10.024442 -10.896331 23.036562 -0.516566 2.063491 0.025268 0.002817 461268.000000 0 1 0
-16.563335 9.623442 -11.729631 22.461945 -0.526338 2.120225 0.034302 -0.001565 219737.000000 0 1 0
-16.777935 10.226842 -12.979131 23.548785 -0.547406 2.154549 0.045221 0.003291 370897.000000 0 1 0
-15.689235 9.931242 -14.062831 23.292593 -0.564329 2.218989 0.041779 0.009390 64749.800000 0 1 0
-15.703035 8.645142 -14.677031 23.167629 -0.503257 2.256884 0.047191 -0.008060 -13742.900000 0 1 0
-15.401835 7.561842 -13.806431 22.023068 -0.456398 2.248374 0.034704 -0.008244 -498736.000000 0 1 0
-15.287035 6.210742 -14.529031 21.985439 -0.385904 2.292744 0.033054 -0.015179 -7946.650000 0 1 0
-14.168535 6.183242 -15.399331 21.820157 -0.411492 2.354262 0.031182 -0.016573 477509.000000 0 1 0
-14.066935 4.928542 -16.057131 21.908917 -0.336999 2.393377 0.014298 -0.022052 -118484.000000 0 1 0
32.475965 -15.790858 28.633072 46.085706 -0.452573 0.900395 0.022694 0.008242 -272821.000000 0 0 1
31.341935 -14.961558 28.640682 45.016150 -0.445377 0.881193 0.018279 0.013499 380230.000000 0 0 1
30.359595 -15.222858 29.684002 45.106323 -0.464782 0.852518 0.019757 0.010262 966347.000000 0 0 1
30.819955 -14.967058 31.171662 46.320135 -0.452085 0.832591 0.013955 -0.000153 -146864.000000 0 0 1
30.959305 -13.588458 31.511612 46.218031 -0.413596 0.820571 0.021063 -0.005343 -89270.200000 0 0 1
31.169845 -13.451758 32.933560 47.298291 -0.407417 0.800574 0.008781 -0.008979 -172813.000000 0 0 1
31.296655 -11.988758 33.435769 47.340908 -0.365825 0.786572 0.036884 -0.012184 -24694.900000 0 0 1
31.352605 -11.942258 -33.629151 47.502875 -0.363935 2.357373 0.013895 -0.014969 50975.600000 0 0 1
31.516805 -10.653858 -33.160781 46.972876 -0.325978 2.354568 0.013099 -0.009800 -277307.000000 0 0 1
30.997295 -10.313358 -31.726571 45.538697 -0.321197 2.341576 0.016600 -0.009454 -89273.300000 0 0 1
29.608555 -10.456658 -31.557851 44.518605 -0.339490 2.358690 0.034376 -0.015765 -106945.000000 0 0 1
29.192365 -9.785158 -30.405241 43.271493 -0.323426 2.349928 0.043319 -0.010686 192307.000000 0 0 1
28.101055 -10.602358 -29.640281 42.197459 -0.360780 2.349586 0.033240 -0.004319 167497.000000 0 0 1
27.830945 -10.216758 -28.313661 40.995207 -0.351827 2.333195 0.031250 -0.005941 74964.000000 0 0 1
27.048605 -11.154758 -27.645641 40.253411 -0.391147 2.327860 0.050948 -0.011300 -945176.000000 0 0 1
26.598405 -10.874458 -26.182151 38.874593 -0.388103 2.309734 0.044380 -0.005487 277417.000000 0 0 1
25.619705 -9.820958 -25.929951 37.751594 -0.366059 2.327952 0.040402 -0.004805 940873.000000 0 0 1
24.471605 -9.631658 -26.731991 37.499701 -0.374964 2.364362 0.034287 -0.004206 -99170.700000 0 0 1
23.430905 -10.773958 -26.778381 37.177509 -0.430989 2.375009 0.047886 -0.006446 -966474.000000 0 0 1
23.804405 -11.937758 -27.495861 38.277697 -0.464842 2.372189 0.038403 -0.009884 -24440.400000 0 0 1
22.854905 -12.962658 -27.346291 37.923565 -0.515931 2.376170 0.037310 -0.024674 -233325.000000 0 0 1
23.426005 -14.274858 -27.981341 39.185516 -0.547273 2.366096 0.041825 -0.007372 209986.000000 0 0 1
23.595105 -14.085458 -29.350971 40.207071 -0.538185 2.389111 0.040463 -0.016927 817219.000000 0 0 1
24.798805 -14.745658 -29.777041 41.461878 -0.536448 2.371978 0.031565 -0.011626 445701.000000 0 0 1
24.969905 -14.809858 -31.384411 42.752886 -0.535337 2.395120 0.037517 -0.016152 -495843.000000 0 0 1
23.913305 -15.477858 -32.008301 42.847889 -0.574439 2.414367 0.053176 -0.017372 -242250.000000 0 0 1
24.160105 -15.895058 -33.336151 44.132329 -0.581912 2.427012 0.058567 -0.015105 -208618.000000 0 0 1
24.206905 -14.912058 34.036109 44.348623 -0.552119 0.695916 0.028033 -0.009256 -214038.000000 0 0 1
23.099405 -14.056958 33.903436 43.366156 -0.546677 0.673257 0.047860 -0.016883 -200169.000000 0 0 1
23.178305 -13.321458 32.739488 42.267826 -0.521638 0.684758 0.036863 -0.014613 -686493.000000 0 0 1
22.349005 -12.023858 32.859412 41.518576 -0.493587 0.657637 0.056896 -0.023885 1090210.000000 0 0 1
20.914905 -12.103158 32.766748 40.713381 -0.524600 0.635432 0.049616 -0.015749 1163900.000000 0 0 1
20.398905 -12.444458 31.466602 39.511098 -0.547780 0.649479 0.045601 -0.006767 -350873.000000 0 0 1
18.855705 -12.548758 31.543562 38.833043 -0.587205 0.622734 0.059172 -0.003581 550599.000000 0 0 1
18.184705 -11.283058 31.789822 38.322104 -0.555335 0.592508 0.060123 -0.004985 -302917.000000 0 0 1
17.109305 -11.412358 32.659021 38.595102 -0.588252 0.561991 0.052618 0.003971 -681561.000000 0 0 1
16.295705 -10.165658 32.834184 38.039114 -0.557753 0.529284 0.062287 -0.003335 397790.000000 0 0 1
15.303805 -9.910758 31.741762 36.605587 -0.574687 0.521388 0.068204 -0.007327 1317650.000000 0 0 1
14.455105 -8.786158 31.911062 36.117343 -0.546152 0.487432 0.074089 -0.004401 368892.000000 0 0 1
13.410505 -8.856458 33.027557 36.730069 -0.583660 0.452866 0.072745 -0.005507 -1268440.000000 0 0 1
12.561505 -9.970358 32.966155 36.660153 -0.670902 0.452775 0.062884 -0.002448 764735.000000 0 0 1
11.436205 -9.887458 33.874747 37.095109 -0.712895 0.419761 0.044478 0.001439 1507530.000000 0 0 1
10.193405 -9.022558 33.436620 36.101518 -0.724542 0.386635 0.043806 0.003612 -11050.100000 0 0 1
10.435205 -7.637058 33.450729 35.863204 -0.631787 0.368882 0.070186 -0.001479 765861.000000 0 0 1
9.378505 -7.056458 32.686909 34.730159 -0.645040 0.344727 0.052149 0.002564 400008.000000 0 0 1
9.786205 -5.591558 32.412404 34.316166 -0.519103 0.334657 0.046842 0.004543 194968.000000 0 0 1
10.051805 -4.800058 33.592809 35.391470 -0.445512 0.320182 0.046692 -0.004489 357898.000000 0 0 1
10.375805 -3.456858 33.260702 35.012590 -0.321599 0.317676 0.016995 -0.004864 -283744.000000 0 0 1
10.262305 -2.539958 -33.991561 35.597648 -0.242628 2.840059 0.012433 -0.008953 -186371.000000 0 0 1
8.946605 -2.403158 -33.500241 34.757489 -0.262417 2.871807 0.011324 0.001826 -410117.000000 0 0 1
8.837005 -1.620658 -32.376661 33.600110 -0.181379 2.870908 0.010482 -0.005913 -1207360.000000 0 0 1
7.470905 -1.243758 -31.883491 32.770694 -0.164967 2.908371 0.010518 0.000259 -908752.000000 0 0 1
6.826305 -0.239058 -32.665641 33.372139 -0.035006 2.935460 0.013071 0.005094 -636278.000000 0 0 1
5.540105 0.013842 -32.214451 32.687365 0.002499 2.971282 0.010883 0.007581 -615654.000000 0 0 1
4.880005 1.074542 -33.103191 33.478207 0.216734 2.991774 0.036077 0.008032 332703.000000 0 0 1
5.644505 2.294542 -32.996421 33.554272 0.386105 2.958991 0.018776 -0.004510 534536.000000 0 0 1
5.162205 3.173342 -34.041231 34.576349 0.551177 2.965431 0.054735 -0.009822 77842.700000 0 0 1
5.889705 4.506942 -34.140983 34.937199 0.653173 2.927691 0.039589 -0.014531 -115823.000000 0 0 1
5.355605 5.376542 33.312881 34.166325 0.787349 0.223981 0.067048 -0.033784 -64932.700000 0 0 1
6.102505 6.536642 33.307228 34.486805 0.819733 0.262299 0.068563 -0.036737 -509372.000000 0 0 1
5.621505 7.635242 32.371002 33.730995 0.936149 0.284930 0.092711 -0.038139 299928.000000 0 0 1
4.284105 8.056242 32.718928 33.967409 1.082053 0.271966 0.099646 -0.040922 859418.000000 0 0 1
3.901505 9.191342 31.900492 33.426694 1.169370 0.303348 0.111940 -0.041874 24060.200000 0 0 1
3.606905 8.901842 30.365602 31.848428 1.185827 0.306348 0.096197 -0.039234 1327.280000 0 0 1
2.352305 8.283042 30.109892 31.316892 1.294091 0.278538 0.094146 -0.039916 84894.100000 0 0 1
2.079505 8.244742 28.736812 29.968391 1.323728 0.287682 0.064515 -0.022496 350597.000000 0 0 1
0.698405 7.690442 28.273482 29.309051 1.480230 0.266619 0.072609 -0.024556 424601.000000 0 0 1
-0.400995 8.466442 28.713822 29.938688 -1.523469 0.287035 0.080540 -0.022199 -813198.000000 0 0 1
-1.489595 8.187942 27.907832 29.122300 -1.390839 0.289812 0.078345 -0.023242 -610150.000000 0 0 1
-2.859895 8.592542 28.461302 29.867315 -1.249495 0.308056 0.055848 -0.020410 -254994.000000 0 0 1
-3.022495 9.964942 28.620302 30.455824 -1.276303 0.348952 0.070359 -0.016147 -967940.000000 0 0 1
-4.283395 10.155442 29.154692 31.168519 -1.171653 0.361439 0.051614 -0.010142 -834496.000000 0 0 1
-4.562695 11.592242 29.679982 32.188501 -1.195820 0.397407 0.037903 -0.005344 -211572.000000 0 0 1
-4.655495 12.582942 28.639932 31.626726 -1.216430 0.438096 0.035798 -0.008262 83884.000000 0 0 1
-5.868795 12.751642 27.927612 31.256978 -1.139461 0.465752 0.025373 -0.010402 7119.380000 0 0 1
-6.048595 14.187342 27.402942 31.444990 -1.167793 0.512632 0.008660 -0.005393 545680.000000 0 0 1
-5.214095 14.475042 26.251202 30.427607 -1.225052 0.530127 0.024241 -0.004401 497837.000000 0 0 1
-5.498095 15.830442 25.895372 30.844809 -1.236519 0.574365 0.009323 0.003102 723227.000000 0 0 1
-4.349095 16.477742 25.028022 30.279242 -1.312744 0.597804 0.043293 0.006994 617283.000000 0 0 1
-4.093395 15.941342 23.745112 28.891394 -1.319448 0.606102 0.034830 0.001035 -366483.000000 0 0 1
-2.946295 16.491242 23.153732 28.578612 -1.394003 0.626342 0.035253 0.003806 -34824.900000 0 0 1
-2.703295 16.225642 21.659032 27.197297 -1.405706 0.649532 0.031432 0.006772 255123.000000 0 0 1
-1.928795 15.029042 21.389332 26.212514 -1.443156 0.616345 0.027057 0.008481 382966.000000 0 0 1
-1.410395 15.016542 20.044132 25.084916 -1.477148 0.645081 0.021722 0.003927 363008.000000 0 0 1
-0.599695 13.732942 19.725932 24.042998 -1.527156 0.608609 0.038681 -0.001985 121744.000000 0 1 0
-1.472295 12.613042 19.779632 23.505113 -1.454594 0.570736 0.032685 0.002158 323106.000000 0 1 0
-1.005395 11.531342 18.972832 22.225009 -1.483828 0.547804 0.030789 -0.006914 -404050.000000 0 1 0
-1.780495 10.244442 19.106832 21.752926 -1.398714 0.498383 0.015269 -0.000830 -737746.000000 0 1 0
-1.723095 9.647742 20.413432 22.644121 -1.394059 0.447598 0.018167 -0.001118 431234.000000 0 1 0
-2.684795 10.135942 21.358332 23.793356 -1.311864 0.456367 0.043055 -0.003060 1672980.000000 0 1 0
-4.252295 10.180842 21.094132 23.805335 -1.175145 0.481914 0.039709 -0.002979 836179.000000 0 1 0
-4.830895 8.905842 20.955632 23.276385 -1.073775 0.450348 0.031775 -0.004838 143205.000000 0 1 0
-6.238595 9.140442 20.927532 23.673389 -0.971894 0.486423 0.030810 -0.001577 140616.000000 0 1 0
-7.015895 7.839242 20.972732 23.463418 -0.840767 0.464941 0.027708 -0.011194 -393714.000000 0 1 0
-6.886195 7.114342 22.212232 24.319063 -0.801692 0.419317 0.033589 -0.020669 371750.000000 0 1 0
-7.605295 5.873142 22.137332 24.132878 -0.657586 0.409525 0.030661 -0.022807 214132.000000 0 1 0
-7.585095 5.033942 23.443232 25.148745 -0.585920 0.370399 0.026025 -0.025133 -218886.000000 0 0 1
-8.500195 5.551942 24.370872 26.401076 -0.578590 0.394727 0.009007 -0.020741 24327.500000 0 0 1
-8.597895 4.777742 25.561502 27.388702 -0.507199 0.367339 0.012215 -0.010930 -389446.000000 0 0 1
-9.677795 5.373342 26.444342 28.667678 -0.506845 0.396432 0.002859 -0.007425 -753443.000000 0 0 1
-9.286195 6.589642 26.975222 29.280017 -0.617151 0.399426 0.001463 -0.012541 707963.000000 0 0 1
-10.331895 7.134942 27.831532 30.532763 -0.604372 0.423807 0.006330 -0.004506 756801.000000 0 0 1
-9.769595 8.288242 28.659712 31.392978 -0.703548 0.420380 0.011143 -0.011388 -490297.000000 0 0 1
-8.734395 7.899842 29.486842 31.751709 -0.735269 0.379987 0.008914 -0.012773 -430196.000000 0 0 1
-8.393295 8.891842 30.446692 32.810262 -0.814233 0.381889 0.017082 -0.013139 278597.000000 0 0 1
-7.425095 8.416842 31.555312 33.491984 -0.847919 0.341734 0.041879 -0.015230 832195.000000 0 0 1
-6.099895 7.969842 31.293712 32.863711 -0.917529 0.310349 0.045737 -0.019504 909166.000000 0 0 1
-5.310195 7.519142 32.443264 33.723894 -0.955906 0.276466 0.069953 -0.023837 354452.000000 0 0 1
-3.801595 7.556242 32.252602 33.343354 -1.104667 0.256486 0.058714 -0.023577 -365797.000000 0 0 1
-3.247295 8.831242 32.208542 33.554820 -1.218436 0.284229 0.043348 -0.019613 -93603.600000 0 0 1
-1.829595 8.879142 32.151892 33.405550 -1.367585 0.274829 0.062125 -0.022047 471801.000000 0 0 1
-1.172095 10.103442 31.514892 33.115582 -1.455303 0.312189 0.061457 -0.021800 -121001.000000 0 0 1
-1.240095 11.254542 32.354552 34.278559 -1.461053 0.336635 0.064023 -0.023877 83966.300000 0 0 1
-1.343295 12.479742 31.663852 34.060944 -1.463571 0.377407 0.051611 -0.012826 -339586.000000 0 0 1
-1.430495 13.684742 32.578019 35.364471 -1.466642 0.399623 0.047145 -0.022670 283011.000000 0 0 1
-0.235595 14.198642 33.173055 36.084741 -1.554205 0.404473 0.081152 -0.028127 -43523.300000 0 0 1
-0.451295 15.054342 34.196357 37.366131 -1.540828 0.414867 0.074636 -0.030375 -106063.000000 0 0 1
0.810205 15.479342 -33.509191 36.920622 1.518503 2.708330 0.062563 -0.034459 -112049.000000 0 0 1
1.782005 16.147242 34.195943 37.858572 1.460881 0.443501 0.061363 -0.027567 -164461.000000 0 0 1
2.910505 16.431342 -33.506491 37.431871 1.395483 2.679525 0.069795 -0.034463 -271897.000000 0 0 1
3.862305 17.412842 -34.181751 38.555370 1.352522 2.660657 0.079610 -0.028184 -67692.200000 0 0 1
3.288505 18.674342 -34.035261 38.960805 1.396486 2.633300 0.057362 -0.021139 172721.000000 0 0 1
4.057405 19.641642 33.759038 39.267408 1.367090 0.536072 0.046230 -0.008228 -11676.600000 0 0 1
3.479605 21.087342 33.962681 40.127888 1.407261 0.561681 0.043984 -0.013041 -21665.100000 0 0 1
3.765005 21.557942 -33.217411 39.778343 1.397894 2.559043 0.048757 -0.030470 129429.000000 0 0 1
3.334905 22.921742 -33.114161 40.411329 1.426319 2.531208 0.036215 -0.021673 50516.100000 0 0 1
3.496605 23.692542 -31.768851 39.784705 1.424272 2.495628 0.037470 -0.011466 -111019.000000 0 0 1
3.257205 25.079242 -31.962281 40.757394 1.441643 2.472215 0.041959 -0.015596 91415.000000 0 0 1
3.030205 25.620342 -30.683771 40.088376 1.453070 2.442464 0.044986 -0.014358 -93299.900000 0 0 1
2.843805 27.188642 -30.548571 40.994203 1.466580 2.411620 0.052335 -0.011603 382196.000000 0 0 1
4.057005 27.918442 -30.670941 41.672597 1.426490 2.397936 0.041434 -0.012932 113269.000000 0 0 1
3.793005 29.240542 -30.307371 42.283956 1.441799 2.369938 0.031262 -0.008876 -426394.000000 0 0 1
4.933705 30.243242 -30.076411 42.936996 1.409087 2.346863 0.050443 -0.015692 -491679.000000 0 0 1
5.681605 29.943342 -28.958451 42.041364 1.383280 2.330641 0.036599 -0.022659 -263528.000000 0 0 1
6.273305 31.126242 -28.449841 42.633212 1.371917 2.301396 0.047290 -0.027229 -1366630.000000 0 0 1
7.258205 30.934742 -27.264731 41.868907 1.340335 2.279951 0.049034 -0.025076 837142.000000 0 0 1
8.554505 30.385342 -27.605611 41.934692 1.296366 2.289355 0.049926 -0.010923 1616180.000000 0 0 1
9.585805 31.314642 -28.005571 43.090678 1.273741 2.278278 0.058490 -0.022065 58004.200000 0 0 1
9.270705 32.356542 -29.140251 44.520176 1.291755 2.284371 0.057775 -0.021096 -1660250.000000 0 0 1
8.458805 33.432142 -28.706921 44.870334 1.322983 2.265002 0.051323 -0.023353 -46410.400000 0 0 1
8.371105 -34.201167 -29.721461 46.077766 -1.330755 2.271857 0.052310 -0.021214 175848.000000 0 0 1
7.070305 -34.316567 -30.569581 46.498552 -1.367608 2.288200 0.034744 -0.004506 151222.000000 0 0 1
7.148405 33.269142 -31.525121 46.387162 1.359148 2.318025 0.023787 0.003606 214474.000000 0 0 1
5.921805 33.263142 -32.219881 46.686456 1.394613 2.332470 0.021388 0.004858 10004.100000 0 0 1
5.955505 32.371842 -33.479671 46.949895 1.388859 2.364697 0.023166 -0.006527 -93355.100000 0 0 1
6.857305 32.870542 34.051006 47.822235 1.365131 0.778407 0.034832 -0.002912 -53100.500000 0 0 1
6.759105 32.270942 32.785388 46.497106 1.364332 0.788224 0.028546 -0.003373 -154893.000000 0 0 1
5.756505 32.884142 31.724962 46.054070 1.397498 0.810876 0.033891 -0.010914 327159.000000 0 0 1
5.922105 34.231342 31.289122 46.753238 1.399490 0.837611 0.036316 -0.014618 -160788.000000 0 0 1
5.127305 -34.244667 30.165612 45.923313 -1.422175 0.854137 0.030367 -0.028106 -224881.000000 0 0 1
18.071565 -22.147158 29.678862 41.205739 -0.886389 0.766619 0.053241 0.002006 -645140.000000 0 0 1
17.208065 -21.100358 29.973702 40.494017 -0.886655 0.737427 0.053255 0.000327 -52606.200000 0 0 1
15.873165 -21.511858 30.213712 40.343349 -0.935097 0.724374 0.045220 -0.001689 384976.000000 0 0 1
15.475765 -22.193858 31.597982 41.599268 -0.961885 0.708129 0.040491 -0.007551 -658661.000000 0 0 1
15.916365 -23.508658 31.768522 42.605477 -0.975645 0.729295 0.060228 -0.011722 157609.000000 0 0 1
15.862565 -23.892258 33.122953 43.813137 -0.984697 0.713608 0.052174 -0.017816 -159006.000000 0 0 1
16.865765 -24.989358 33.485044 45.057410 -0.977103 0.733010 0.045389 -0.021822 -180319.000000 0 0 1
16.438465 -26.309528 33.085372 45.354782 -1.012333 0.753236 0.060915 -0.025689 10457.800000 0 0 1
17.049265 -27.234528 33.920472 46.722536 -1.011466 0.758312 0.066309 -0.020564 20074.500000 0 0 1
16.512765 -28.669438 33.708598 47.232167 -1.048233 0.776060 0.057194 -0.018896 -68548.400000 0 0 1
17.271665 -29.361118 32.732021 47.241622 -1.039062 0.805343 0.050841 -0.021624 -33612.000000 0 0 1
16.700465 -30.551738 32.228562 47.444646 -1.070545 0.824005 0.052698 -0.022650 -217565.000000 0 0 1
17.509865 -31.297678 31.117132 47.480690 -1.060718 0.856132 0.049460 -0.016656 469611.000000 0 0 1
18.726665 -31.795888 31.683682 48.636634 -1.038530 0.861320 0.051170 -0.018934 156654.000000 0 0 1
19.513265 -32.347028 30.673922 48.661969 -1.027992 0.888796 0.038069 -0.017175 -198230.000000 0 0 1
20.957265 -32.744788 31.075652 49.770716 -1.001470 0.896464 0.051710 -0.025737 197200.000000 0 0 1
21.825565 -31.622408 31.097512 49.430630 -0.966683 0.890383 0.052884 -0.022176 -676437.000000 0 0 1
22.929665 -31.871078 31.874782 50.572096 -0.947135 0.888877 0.049435 -0.025419 -704227.000000 0 0 1
24.050265 -30.782538 31.829052 50.389170 -0.907565 0.887098 0.042141 -0.020377 531756.000000 0 0 1
24.782065 -30.803298 30.580852 49.981821 -0.893301 0.912412 0.043246 -0.019481 -122787.000000 0 0 1
25.451465 -29.580388 30.414132 49.475204 -0.860286 0.908747 0.034836 -0.013004 40373.400000 0 0 1
26.515965 -29.695498 29.284362 49.421583 -0.841902 0.936586 0.042301 -0.011339 276894.000000 0 0 1
27.703465 -30.346508 29.713842 50.708036 -0.830897 0.944709 0.032139 -0.010600 -30834.400000 0 0 1
28.618265 -30.354928 28.641562 50.604010 -0.814838 0.969158 0.027270 -0.024805 534830.000000 0 0 1
29.758365 -31.447128 28.766792 51.980866 -0.812983 0.984342 -0.002476 -0.012023 824405.000000 0 0 1
29.298365 -32.829208 28.749112 52.561036 -0.842169 0.992060 0.000844 -0.014105 382171.000000 0 0 1
30.375865 -33.666488 29.166032 53.914590 -0.836735 0.999209 -0.003406 -0.011528 -159103.000000 0 0 1
29.923065 33.675913 29.953712 54.098815 0.844338 0.984013 -0.007243 -0.006475 -465728.000000 0 0 1
29.383765 33.837025 31.245112 54.631556 0.855722 0.961947 0.008031 0.002890 1344590.000000 0 0 1
28.276165 -33.871878 31.503882 54.215682 -0.875194 0.950736 -0.000183 0.014695 855937.000000 0 0 1
26.952565 -34.098530 30.749532 53.241752 -0.901917 0.955078 0.006224 0.005527 -392921.000000 0 0 1
26.230765 33.394994 31.256852 52.728261 0.904978 0.936276 0.006554 -0.002518 -328477.000000 0 0 1
24.938565 33.323962 30.743772 51.745512 0.928341 0.934608 0.017841 -0.006682 -163887.000000 0 0 1
24.269865 31.930402 30.926172 50.645879 0.920871 0.913933 0.024271 -0.011976 -5045.190000 0 0 1
24.452065 31.043912 29.868232 49.535233 0.903625 0.923578 0.026577 -0.009302 355523.000000 0 0 1
23.644465 29.864972 29.986052 48.478249 0.901129 0.903905 0.053294 -0.020871 229527.000000 0 0 1
23.239465 29.226912 28.571512 47.017193 0.899026 0.917657 0.052170 -0.028075 225402.000000 0 0 1
22.046365 29.803442 28.059072 46.492999 0.933903 0.922898 0.066587 -0.035665 345914.000000 0 0 1
21.387965 29.055002 27.057032 45.096798 0.936238 0.927324 0.066892 -0.028610 212231.000000 0 0 1
19.976565 29.624192 26.787662 44.656856 0.977505 0.927476 0.082879 -0.018426 13533.000000 0 0 1
19.996565 30.805562 26.019062 45.009298 0.995039 0.954420 0.087875 -0.028998 926221.000000 0 0 1
18.661065 31.274172 25.714582 44.581935 1.032812 0.955998 0.075390 -0.025400 566192.000000 0 0 1
18.653865 32.723641 25.059912 45.241602 1.052696 0.983740 0.078997 -0.027193 -356658.000000 0 0 1
19.115665 32.972251 23.769652 44.917417 1.045400 1.013156 0.070989 -0.021149 -37486.700000 0 0 1
20.470765 33.371324 23.753092 45.791996 1.020565 1.025447 0.067501 -0.014823 -71334.600000 0 0 1
20.950865 33.542299 22.329932 45.416411 1.012477 1.056789 0.070226 -0.018246 -175914.000000 0 0 1
20.571565 -33.823578 21.832032 45.209084 -1.024368 1.066819 0.058315 -0.005408 299387.000000 0 0 1
21.113465 -33.584118 20.539232 44.671371 -1.009559 1.093043 0.062216 -0.007397 31843.700000 0 0 1
20.807865 -32.161618 20.001432 43.213356 -0.996548 1.089585 0.054644 -0.009343 -116987.000000 0 0 1
21.550765 -31.106788 20.595532 43.084146 -0.964919 1.072385 0.046741 -0.000728 112015.000000 0 0 1
21.264965 -29.878168 20.082632 41.811670 -0.952246 1.069786 0.054176 -0.004634 -20563.100000 0 0 1
21.978065 -29.462588 18.728932 41.253513 -0.929882 1.099551 0.038187 -0.000869 -225614.000000 0 0 1
21.459865 -30.076518 17.527632 40.894261 -0.951061 1.127844 0.032817 -0.012936 327254.000000 0 0 1
22.000965 -29.390138 16.422032 40.218227 -0.928203 1.150180 0.025097 -0.012869 -612168.000000 0 0 1
21.722765 -29.868608 15.012332 39.867058 -0.941997 1.184716 0.021389 -0.016965 -146885.000000 0 0 1
22.389165 -31.092508 14.798532 41.073292 -0.946719 1.202211 0.041731 -0.017758 142775.000000 0 0 1
22.614965 -31.522348 13.437232 41.056720 -0.948470 1.237368 0.056614 -0.022910 426545.000000 0 0 1
21.340465 -31.742078 12.530732 40.249151 -0.978898 1.254205 0.049071 -0.022403 452168.000000 0 0 1
20.528665 -32.788538 12.991232 40.807921 -1.011412 1.246807 0.056273 -0.019671 -412853.000000 0 0 1
19.458965 -33.103778 12.150632 40.275914 -1.039383 1.264337 0.059243 -0.014234 -237674.000000 0 0 1
18.375665 -33.872858 12.939332 40.650484 -1.073738 1.246853 0.059741 -0.005783 -42015.900000 0 0 1
17.949665 -33.136608 14.102332 40.238054 -1.074358 1.212721 0.048081 -0.002425 367503.000000 0 0 1
18.539665 -33.692518 15.276232 41.379562 -1.067753 1.192677 0.044560 -0.003751 -300802.000000 0 0 1
18.169765 -32.755568 16.563032 40.956093 -1.064346 1.154463 0.044709 -0.007910 870191.000000 0 0 1
16.790365 -32.515238 16.882832 40.301204 -1.094127 1.138545 0.052496 -0.014543 634295.000000 0 0 1
16.049865 -33.619668 17.365832 41.102948 -1.125396 1.134599 0.050975 -0.009614 -390916.000000 0 0 1
16.390465 -34.235019 18.766032 42.342033 -1.124282 1.111630 0.048601 -0.019562 -334732.000000 0 0 1
17.518365 33.564492 18.614532 42.189679 1.089758 1.113849 0.039438 -0.009377 114280.000000 0 0 1
17.696365 32.793634 19.797432 42.196233 1.075951 1.082440 0.034247 -0.010598 -26667.100000 0 0 1
18.663765 31.621342 19.680732 41.660252 1.037594 1.078773 0.039442 -0.008236 -256729.000000 0 0 1
17.991765 30.450682 19.323232 40.303039 1.037132 1.070770 0.036318 -0.011155 262171.000000 0 0 1
18.930065 29.365962 19.206732 39.869859 0.998208 1.068162 0.034343 -0.013599 249721.000000 0 0 1
18.348965 27.981062 18.772532 38.367073 0.990380 1.059524 0.032466 -0.009537 -699977.000000 0 0 1
17.813565 27.388282 19.914632 38.262693 0.994134 1.023394 0.032435 -0.014682 -119354.000000 0 0 1
17.390265 26.054012 19.680232 36.993843 0.982238 1.009851 0.045171 -0.017570 -965252.000000 0 0 1
16.967565 25.219602 20.867132 36.869551 0.978565 0.969185 0.058061 -0.013648 -479615.000000 0 0 1
15.733165 25.480582 21.475632 36.850988 1.017640 0.948664 0.072544 -0.010254 40450.300000 0 0 1
14.756865 24.533322 21.007632 35.510133 1.029272 0.937760 0.072966 -0.012006 441238.000000 0 0 1
13.352965 24.747512 21.653732 35.491198 1.075998 0.914590 0.087312 -0.019607 321951.000000 0 0 1
12.776965 25.978752 21.184232 35.873641 1.113711 0.939089 0.095412 -0.020270 -562727.000000 0 0 1
11.518165 26.190702 21.727332 35.926285 1.156473 0.921313 0.076659 -0.022667 -473023.000000 0 0 1
10.773565 27.455182 21.150332 36.293158 1.196854 0.948671 0.067359 -0.032786 238716.000000 0 0 1
11.226465 28.751782 21.611732 37.679775 1.198540 0.959947 0.069767 -0.036704 -4168.810000 0 0 1
11.174965 29.671772 20.506732 37.760032 1.210607 0.996695 0.060911 -0.032263 -117344.000000 0 0 1
11.541665 31.140952 20.827932 39.201680 1.215865 1.010660 0.062667 -0.034912 -259255.000000 0 0 1
10.763965 31.760962 21.855032 40.028291 1.244039 0.993226 0.056265 -0.034036 -199566.000000 0 0 1
11.153965 31.402522 23.170332 40.588097 1.229502 0.963237 0.057427 -0.032798 287398.000000 0 0 1
10.466665 32.388532 24.214722 41.772250 1.258230 0.952455 0.050479 -0.028579 14789.900000 0 0 1
9.102365 32.223632 24.454752 41.463845 1.295494 0.940004 0.040841 -0.026440 -750445.000000 0 0 1
8.789465 32.768414 25.678172 42.548704 1.308735 0.922912 0.045356 -0.016990 346229.000000 0 0 1
7.289965 32.680868 26.092662 42.450086 1.351324 0.908833 0.077237 -0.029668 868406.000000 0 0 1
6.267165 33.402625 25.351142 42.399212 1.385328 0.929898 0.059849 -0.027636 988831.000000 0 0 1
5.736265 32.815251 24.184982 41.166234 1.397740 0.942836 0.055640 -0.029569 80174.900000 0 0 1
4.741265 31.648962 24.384292 40.233445 1.422094 0.919686 0.031986 -0.027883 -332844.000000 0 0 1
5.457465 30.513052 24.861912 39.735940 1.393811 0.894796 0.033073 -0.018358 -96489.800000 0 0 1
4.764665 29.332272 24.679392 38.628443 1.409765 0.877740 0.013491 -0.012083 -891440.000000 0 0 1
5.670765 28.167242 25.124752 38.168106 1.372127 0.852284 0.032846 -0.010502 843101.000000 0 0 1
6.749165 27.770092 24.258932 37.486331 1.332382 0.866968 0.051152 -0.015073 1016070.000000 0 0 1
7.905765 28.600832 24.233792 38.311688 1.301113 0.885964 0.064893 -0.022635 -54998.300000 0 0 1
9.124665 28.079692 25.009012 38.693401 1.256604 0.868021 0.056300 -0.024584 -815644.000000 0 0 1
8.942465 28.115992 26.405422 39.594482 1.262858 0.840760 0.053138 -0.020435 458617.000000 0 0 1
10.142165 27.856972 27.119402 40.178805 1.221634 0.829875 0.062582 -0.014275 135418.000000 0 0 1
11.225565 28.937082 27.179522 41.256448 1.200738 0.851581 0.050576 -0.011148 -600012.000000 0 0 1
10.847165 30.117632 27.852142 42.432000 1.225099 0.854766 0.051160 -0.017527 -365274.000000 0 0 1
11.897965 31.017462 27.877572 43.368232 1.204517 0.872634 0.050923 -0.009879 -602381.000000 0 0 1
11.717165 32.208272 28.874872 44.815433 1.221886 0.870680 0.037102 -0.011486 -178604.000000 0 0 1
11.719965 31.944582 30.300972 45.562735 1.219160 0.843251 0.034527 -0.025851 -252841.000000 0 0 1
10.423665 31.738752 30.769762 45.417832 1.253474 0.826462 0.051374 -0.021532 -621497.000000 0 0 1
10.264665 31.631182 32.330072 46.380261 1.257007 0.799500 0.068256 -0.016956 -385345.000000 0 0 1
10.500065 30.312592 32.810240 45.886997 1.237339 0.774140 0.056150 -0.016391 228471.000000 0 0 1
10.660665 30.319732 34.229286 46.952955 1.232690 0.753918 0.071104 -0.010985 -120651.000000 0 0 1
10.686365 28.937162 -33.640141 45.642271 1.217036 2.399475 0.052839 -0.007891 -27063.100000 0 0 1
11.809265 28.212822 -34.124713 45.824864 1.174378 2.410847 0.065150 -0.009809 315309.000000 0 0 1
11.687165 26.835792 -33.811851 44.721257 1.160060 2.428065 0.072984 -0.014708 109794.000000 0 0 1
13.014065 26.114172 -34.157485 44.922708 1.108468 2.434665 0.077993 -0.020323 134549.000000 0 0 1
13.127065 24.764842 -33.743651 43.866288 1.083384 2.448445 0.061297 -0.022443 -185863.000000 0 0 1
13.429665 24.557252 -32.379381 42.799987 1.070358 2.428784 0.067439 -0.022351 -261726.000000 0 0 1
13.467165 23.075652 -31.944931 41.645275 1.042516 2.445061 0.052217 -0.032732 449219.000000 0 0 1
14.477765 22.325552 -32.647481 42.117621 0.995488 2.457749 0.039309 -0.018739 473885.000000 0 0 1
14.364765 20.933952 -32.429701 41.185706 0.969396 2.477379 0.035515 -0.009242 414942.000000 0 0 1
15.659165 20.243352 -33.003951 41.764381 0.912395 2.481999 0.045290 -0.013268 989582.000000 0 0 1
16.782565 20.616552 -32.190641 41.748462 0.887557 2.451303 0.036115 -0.018599 -539811.000000 0 0 1
17.895765 19.913852 -32.626331 42.205419 0.838723 2.454410 0.033200 -0.011245 -1338710.000000 0 0 1
19.049465 20.140452 -31.682511 42.098711 0.813229 2.422763 0.025661 -0.011708 -838868.000000 0 0 1
19.625765 21.421352 -31.854251 43.113087 0.829115 2.402164 0.019161 -0.015490 834008.000000 0 0 1
20.758765 21.745052 -31.005871 43.187240 0.808599 2.371636 0.013485 -0.008373 999856.000000 0 0 1
20.319365 22.156352 -29.572811 42.170270 0.828619 2.347976 0.020709 -0.017312 243526.000000 0 0 1
19.525065 23.349052 -29.647831 42.490002 0.874354 2.343062 0.013084 -0.008665 106935.000000 0 0 1
19.284965 23.996472 -28.388741 41.876738 0.893829 2.315715 0.017930 0.000989 -332008.000000 0 0 1
20.506865 24.525712 -27.602231 42.236539 0.874405 2.283016 0.010693 0.002658 -311535.000000 0 0 1
21.231765 25.542582 -28.254721 43.606658 0.877301 2.275680 0.013648 0.009804 -596614.000000 0 0 1
20.650065 26.806382 -28.392461 44.171701 0.914403 2.268911 0.014537 0.009698 -732991.000000 0 0 1
21.401865 27.781472 -29.307071 45.702893 0.914389 2.266925 0.009195 0.012917 -519778.000000 0 0 1
21.317665 27.532052 -30.733621 46.443646 0.911933 2.293934 0.024774 0.008643 60250.800000 0 0 1
21.776265 26.250152 -31.204201 46.227464 0.878285 2.311780 0.022465 0.003702 68678.600000 0 0 1
23.248465 25.869932 -30.915071 46.534784 0.838718 2.297411 0.029378 0.002100 -290280.000000 0 0 1
24.213765 26.704232 -31.489221 47.864324 0.834271 2.288803 0.024342 0.013101 -310488.000000 0 0 1
25.504265 26.400172 -31.021621 48.060146 0.802657 2.272441 0.029080 -0.002341 60956.500000 0 0 1
26.590965 27.458672 -31.372331 49.449785 0.801451 2.258065 0.014844 0.006411 8999.690000 0 0 1
26.583365 28.705712 -30.621941 49.682960 0.823766 2.234892 0.003062 0.011883 170820.000000 0 0 1
27.812665 29.385382 -30.792581 50.845138 0.812887 2.221335 0.010309 0.007849 183559.000000 0 0 1
27.960365 30.536892 -29.757621 50.988232 0.829415 2.193973 0.003378 0.011596 -340970.000000 0 0 1
28.211965 30.126062 -28.403391 50.102368 0.818197 2.173543 0.018489 0.000047 418579.000000 0 0 1
27.583065 31.075812 -27.476801 49.814719 0.844871 2.155054 0.009916 0.007010 67395.900000 0 0 1
28.142265 31.055722 -26.018531 49.329595 0.834574 2.126384 0.030960 0.000945 -332735.000000 0 0 1
28.243665 29.889212 -25.197121 48.228255 0.813697 2.120525 0.032355 0.008562 480404.000000 0 0 1
27.038865 29.121022 -25.033831 46.966231 0.822457 2.132959 0.034135 0.008728 571711.000000 0 0 1
26.275465 29.337312 -23.683031 45.956109 0.840399 2.112201 0.037303 0.013699 -84126.800000 0 0 1
25.706565 30.579002 -23.520231 46.358431 0.871749 2.102910 0.061984 0.009735 488487.000000 0 0 1
24.745065 30.590952 -22.453331 45.302061 0.890651 2.089363 0.045677 0.021005 514656.000000 0 0 1
3.618865 -25.967988 -19.340731 32.580614 -1.432329 2.206355 0.044473 0.000943 -69347.500000 0 0 1
3.288765 -27.171308 -18.679031 33.136115 -1.450344 2.169662 0.047985 0.001331 200237.000000 0 0 1
3.042965 -26.968538 -17.281031 32.174457 -1.458438 2.137796 0.053937 -0.003175 -311319.000000 0 0 1
3.055965 -28.338518 -16.546031 32.957270 -1.463374 2.096758 0.054770 -0.005978 742022.000000 0 0 1
4.408565 -28.784228 -16.362931 33.402286 -1.418818 2.082742 0.042848 -0.005757 744613.000000 0 0 1
4.380665 -29.650068 -15.252831 33.629832 -1.424112 2.041542 0.047444 -0.010258 155675.000000 0 0 1
5.788165 -30.013358 -14.756631 33.942048 -1.380282 2.020568 0.066741 -0.008130 70053.800000 0 0 1
6.453865 -29.068418 -13.902831 32.862045 -1.352317 2.007623 0.052927 0.000096 -10074.600000 0 0 1
7.859765 -29.151808 -13.886931 33.233276 -1.307443 2.001887 0.062742 -0.004165 -10715.100000 0 0 1
8.483765 -30.196468 -12.935131 33.928138 -1.296905 1.961945 0.065332 -0.011273 -686531.000000 0 0 1
8.366965 -29.703088 -11.631131 32.978216 -1.296224 1.931242 0.069027 -0.022761 -171639.000000 0 0 1
8.403565 -30.725948 -10.660331 33.590868 -1.303825 1.893739 0.080797 -0.021814 98840.000000 0 0 1
9.721665 -31.481198 -10.392931 34.548366 -1.271278 1.876351 0.070994 -0.020931 -170018.000000 0 0 1
10.794665 -30.820238 -9.775031 34.087579 -1.233902 1.861642 0.081154 -0.028701 80546.500000 0 0 1
11.870165 -31.752288 -9.746931 35.271961 -1.213046 1.850776 0.074388 -0.027411 581739.000000 0 0 1
13.174265 -31.348288 -8.995431 35.173771 -1.172952 1.829412 0.067314 -0.023212 1059460.000000 0 0 1
14.142965 -30.481118 -9.671431 34.966535 -1.136369 1.851041 0.062759 -0.035313 1054610.000000 0 0 1
15.009965 -30.035608 -8.642431 34.671723 -1.107358 1.822717 0.055744 -0.026514 -120841.000000 0 0 1
16.308765 -29.237088 -8.936931 34.650423 -1.061976 1.831662 0.066776 -0.029551 111675.000000 0 0 1
16.321865 -27.895448 -9.379631 33.653183 -1.041398 1.853252 0.068234 -0.028105 132316.000000 0 0 1
15.568965 -27.639458 -10.576831 33.439522 -1.057809 1.892620 0.062789 -0.027523 -14018.800000 0 0 1
15.285865 -26.100318 -10.815031 32.122409 -1.040989 1.914187 0.074170 -0.028675 -1147420.000000 0 0 1
14.406565 -25.457708 -9.975731 30.905650 -1.055826 1.899462 0.064329 -0.024144 -147228.000000 0 0 1
13.793965 -24.241258 -10.397731 29.766170 -1.053461 1.927635 0.045913 -0.010461 515333.000000 0 0 1
13.232865 -24.041558 -11.832531 29.885013 -1.067634 1.977882 0.031470 -0.010500 -171696.000000 0 0 1
14.241865 -23.804158 -12.783331 30.543120 -1.031633 2.002627 0.047807 -0.012916 44943.200000 0 0 1
13.595765 -23.607358 -14.034031 30.644839 -1.048277 2.046492 0.047466 -0.014703 550234.000000 0 0 1
14.503665 -23.052058 -15.185931 31.182786 -1.009204 2.079445 0.054886 -0.018338 21217.900000 0 0 1
15.478965 -23.940158 -15.644931 32.519123 -0.996837 2.072705 0.052369 -0.019700 217394.000000 0 0 1
16.308765 -23.304258 -16.624531 32.946005 -0.960192 2.099714 0.072056 -0.023376 -802774.000000 0 0 1
17.120065 -24.289858 -17.509331 34.491600 -0.956840 2.103240 0.071490 -0.021042 757371.000000 0 0 1
18.277365 -24.942558 -16.958231 35.267192 -0.938409 2.072420 0.076915 -0.020398 498704.000000 0 0 1
19.330665 -24.012958 -16.792731 35.104025 -0.893008 2.069595 0.071133 -0.022921 -123037.000000 0 0 1
20.696965 -24.590258 -16.250431 36.015575 -0.871156 2.038912 0.064143 -0.019687 1105370.000000 0 0 1
21.296765 -25.390218 -17.281131 37.374494 -0.872853 2.051471 0.074621 -0.018139 121236.000000 0 0 1
22.467465 -26.100018 -16.901431 38.362172 -0.860053 2.027036 0.080544 -0.021802 302923.000000 0 0 1
23.138165 -26.805748 -18.087431 39.762771 -0.858701 2.043038 0.072299 -0.012357 -342843.000000 0 0 1
23.916365 -26.006708 -18.943031 40.089647 -0.827245 2.062941 0.075990 -0.012655 -13974.800000 0 0 1
24.534965 -26.767218 -19.962831 41.436253 -0.828883 2.073472 0.070745 -0.011159 -214995.000000 0 0 1
25.622965 -25.925348 -20.616831 41.877365 -0.791264 2.085543 0.053386 -0.012837 -426002.000000 0 0 1
25.080965 -24.845458 -21.390131 41.278194 -0.780681 2.115535 0.063437 -0.012763 131160.000000 0 0 1
25.141765 -23.610958 -20.708631 40.229753 -0.754009 2.111523 0.062810 -0.007688 53953.500000 0 0 1
23.904865 -22.646058 -20.992331 39.050793 -0.758363 2.138343 0.094788 -0.013637 187961.000000 0 0 1
23.728765 -22.128158 -22.290031 39.364389 -0.750508 2.172744 0.083417 -0.006486 46699.000000 0 0 1
23.452765 -23.067358 -23.267131 40.292612 -0.777114 2.186403 0.054042 -0.011040 -756101.000000 0 0 1
22.864465 -22.286358 -24.401331 40.185700 -0.772595 2.223346 0.047375 -0.011592 892306.000000 0 0 1
23.855965 -21.548358 -25.193841 40.843217 -0.734618 2.235521 0.042910 -0.004313 915755.000000 0 0 1
23.116565 -20.826258 -26.147041 40.642051 -0.733325 2.269662 0.035859 -0.003141 -108800.000000 0 0 1
23.828265 -20.103658 -27.289771 41.432775 -0.700819 2.289822 0.033224 -0.004001 79012.300000 0 0 1
22.890265 -19.227558 -27.929391 40.911051 -0.698653 2.322228 0.031298 -0.007477 592018.000000 0 0 1
23.367365 -18.861058 -29.214011 41.895485 -0.679088 2.342430 0.040934 -0.009924 -397494.000000 0 0 1
22.545365 -17.749258 -29.865531 41.415934 -0.666930 2.376202 0.064084 -0.018044 -1719780.000000 0 0 1
21.448065 -18.305358 -30.427121 41.483916 -0.706507 2.394206 0.063910 -0.016823 -1145910.000000 0 0 1
20.609965 -17.296558 -30.985321 41.036955 -0.698210 2.426540 0.067102 -0.024307 426747.000000 0 0 1
19.270065 -17.942858 -31.448611 41.015810 -0.749748 2.444549 0.053054 -0.017896 270875.000000 0 0 1
19.534365 -18.661458 -32.621551 42.355720 -0.762549 2.449920 0.054768 -0.013529 832038.000000 0 0 1
18.314965 -19.223058 -33.092911 42.427640 -0.809585 2.465438 0.061257 -0.018784 429293.000000 0 0 1
18.611665 -20.040258 34.074822 43.693243 -0.822342 0.676347 0.075287 -0.014086 -334939.000000 0 0 1
19.524165 -21.053858 -34.207598 44.661143 -0.823078 2.443293 0.076637 -0.009538 -279623.000000 0 0 1
19.598465 -21.874058 33.112588 44.260792 -0.840213 0.725565 0.069219 -0.011746 -254983.000000 0 0 1
20.523565 -23.079458 33.341975 45.448492 -0.843948 0.747161 0.055612 -0.013003 -225410.000000 0 0 1
20.098865 -24.133558 34.220415 46.448141 -0.876362 0.742553 0.065796 -0.017453 -6355.870000 0 0 1
20.192665 -23.841458 -32.851181 45.336066 -0.868072 2.381271 0.072551 -0.024488 -10915.700000 0 0 1
19.239065 -24.709458 -31.956761 44.742971 -0.909234 2.366319 0.071990 -0.024270 171706.000000 0 0 1
19.453465 -26.140158 -31.956761 45.639673 -0.931019 2.346470 0.073326 -0.031314 283560.000000 0 0 1
20.598265 -26.503318 -31.185801 45.817775 -0.910116 2.319444 0.063439 -0.032793 327906.000000 0 0 1
20.738365 -28.044058 -31.042211 46.692267 -0.934054 2.298057 0.057584 -0.038122 -454142.000000 0 0 1
19.593565 -28.590058 -30.458471 46.141279 -0.969985 2.291766 0.061581 -0.036525 -413122.000000 0 0 1
19.548965 -30.004468 -30.314941 46.919354 -0.993343 2.273270 0.060578 -0.031699 -990959.000000 0 0 1
18.189765 -30.542578 -29.875001 46.435248 -1.033652 2.269687 0.077126 -0.027919 -37341.300000 0 0 1
17.132965 -30.522918 -30.836321 46.648319 -1.059308 2.292998 0.075251 -0.034455 264512.000000 0 0 1
17.354165 -31.263368 -32.051921 48.019692 -1.064049 2.301608 0.070962 -0.036419 -801592.000000 0 0 1
16.034465 -31.934918 -32.512921 48.311832 -1.105472 2.309027 0.070155 -0.036767 285021.000000 0 0 1
15.096665 -30.931948 -32.912101 47.622485 -1.116746 2.333812 0.073007 -0.034203 -878600.000000 0 0 1
13.924765 -31.554608 -33.286791 47.933316 -1.155208 2.338437 0.054178 -0.016694 -706786.000000 0 0 1
13.038765 -30.695818 -34.221765 47.784640 -1.169118 2.369091 0.054097 -0.007109 -248906.000000 0 0 1
12.326965 -29.698668 -33.632611 46.530823 -1.177368 2.378646 0.074899 -0.018617 -783109.000000 0 0 1
11.435865 -29.114628 33.951459 46.164295 -1.196523 0.744468 0.058170 -0.011555 -190632.000000 0 0 1
10.619665 -27.956458 -33.880291 45.190872 -1.207768 2.418428 0.072116 -0.017793 744874.000000 0 0 1
9.650965 -28.553868 -32.979641 44.677972 -1.244859 2.401140 0.068552 -0.009807 270977.000000 0 0 1
8.850265 -27.623898 -32.277771 43.396560 -1.260745 2.409514 0.043151 -0.006962 -187530.000000 0 0 1
7.753465 -28.249738 -31.391341 42.936933 -1.302931 2.390734 0.016951 -0.003183 -510061.000000 0 0 1
6.754865 -28.807638 -32.171091 43.709121 -1.340476 2.397979 0.018338 -0.002134 -728474.000000 0 0 1
6.914865 -30.123148 -32.610391 44.929467 -1.345152 2.383012 0.020507 -0.001457 128936.000000 0 0 1
5.528265 -30.772878 -32.970291 45.437559 -1.393045 2.382728 0.030801 -0.008272 619783.000000 0 0 1
4.779465 -31.162168 -31.870881 44.829422 -1.418608 2.361626 0.036516 -0.015721 97452.500000 0 0 1
3.813265 -32.145008 -32.244851 45.689965 -1.452721 2.354252 0.052138 -0.026943 -502732.000000 0 0 1
2.891365 -32.695978 -31.094991 45.213775 -1.482594 2.329158 0.043710 -0.037253 466282.000000 0 0 1
1.824665 -31.861498 -30.696511 44.280472 -1.513590 2.336756 0.038142 -0.036448 -228518.000000 0 0 1
0.762665 -31.797428 -31.599851 44.835350 -1.546816 2.352934 0.029974 -0.000755 -541179.000000 0 0 1
-0.316735 -30.745658 -31.127921 43.753208 1.560495 2.362346 0.019960 0.004216 512442.000000 0 0 1
-0.953935 -30.985468 -29.863031 43.044277 1.540020 2.337513 0.013520 -0.004816 963511.000000 0 0 1
-1.761035 -29.809588 -29.455201 41.944268 1.511789 2.349344 0.039226 -0.004627 548259.000000 0 0 1
-2.416435 -29.881418 -28.117351 41.101383 1.490104 2.324162 0.040855 -0.007635 -717690.000000 0 0 1
-1.460835 -29.867258 -27.091731 40.350328 1.521924 2.306910 0.028988 -0.005977 -118206.000000 0 0 1
-2.089235 -29.921818 -25.861151 39.604030 1.501086 2.282326 0.042626 -0.009880 755181.000000 0 0 1
-1.051335 -30.392408 -24.748231 39.208146 1.536218 2.253897 0.027623 -0.011347 578912.000000 0 0 1
-1.613635 -30.333098 -23.473931 38.389140 1.517649 2.228717 0.052741 -0.011607 -959385.000000 0 0 1
-0.713835 -30.647438 -22.490231 38.020856 1.547509 2.203743 0.046461 -0.003574 -595080.000000 0 0 1
-1.201535 -30.583928 -21.036031 37.139398 1.531530 2.172936 0.021777 0.003206 -64798.600000 0 0 1
-1.364835 -29.370668 -20.303931 35.731618 1.524360 2.175155 0.028961 -0.008286 238316.000000 0 0 1
-0.115035 -28.910478 -19.789631 35.035103 1.566817 2.171050 0.041022 -0.018465 446518.000000 0 0 1
-0.091535 -27.542548 -19.031531 33.478343 1.567473 2.175445 0.042359 -0.016257 -220029.000000 0 0 1
-0.786635 -27.587838 -17.792231 32.837038 1.542290 2.143414 0.046824 -0.018255 154912.000000 0 0 1
-0.682735 -26.281768 -17.212231 31.423850 1.544825 2.150462 0.055210 -0.018410 -313376.000000 0 0 1
-1.540035 -26.295078 -15.966931 30.801716 1.512296 2.115749 0.044526 -0.013532 -407549.000000 0 0 1
-1.591535 -25.069828 -15.338031 29.432710 1.507397 2.118961 0.031524 -0.004864 218239.000000 0 0 1
-2.599835 -24.970458 -14.345431 28.914949 1.467054 2.089926 0.027936 -0.006483 -47128.200000 0 0 1
-2.539635 -23.693858 -13.526831 27.401164 1.464019 2.087088 0.023693 0.000820 333329.000000 0 0 1
-1.509535 -23.819258 -12.539331 26.960537 1.507506 2.054543 0.025057 -0.006395 298369.000000 0 0 1
-1.429035 -22.665158 -11.766231 25.577250 1.507830 2.048822 0.029725 -0.000521 255724.000000 0 0 1
-0.242535 -22.670058 -10.770431 25.099652 1.560098 2.014300 0.018723 -0.002755 212316.000000 0 0 1
0.241665 -21.384458 -10.443831 23.799728 -1.559496 2.025083 0.017442 0.001123 -150940.000000 0 1 0
1.438765 -21.520158 -9.704631 23.650943 -1.504039 1.993609 0.016060 -0.002782 198185.000000 0 1 0
1.902665 -20.165958 -9.184031 22.240333 -1.476724 1.996481 0.017387 0.004427 -412390.000000 0 1 0
2.264965 -19.297158 -10.305831 21.993647 -1.453958 2.058482 0.009974 0.009733 847331.000000 0 1 0
3.277665 -18.278458 -10.080431 21.129605 -1.393364 2.068121 0.003585 0.004841 1286870.000000 0 1 0
4.749765 -18.683358 -9.772031 21.612975 -1.321846 2.039956 0.017518 -0.004599 328865.000000 0 1 0
4.778665 -19.185058 -8.421331 21.490018 -1.326681 1.973462 0.022284 -0.007244 -369487.000000 0 1 0
5.853865 -20.072358 -8.228931 22.469592 -1.287029 1.945745 0.029802 -0.002756 -368417.000000 0 1 0
5.633165 -21.233458 -7.248331 23.132889 -1.311473 1.889499 0.031260 0.001515 -592496.000000 0 1 0
4.628965 -22.110558 -7.622831 23.841385 -1.364422 1.896242 0.034939 -0.008226 -317402.000000 0 1 0
4.606265 -23.273858 -6.807031 24.682500 -1.375406 1.850201 0.047380 -0.009185 -95367.500000 0 1 0
3.428465 -24.165258 -7.229631 25.455483 -1.429861 1.858771 0.042437 -0.016060 -27890.800000 0 0 1
3.620665 -24.763058 -8.480431 26.424155 -1.425613 1.897513 0.042737 -0.014523 -329672.000000 0 0 1
2.525465 -25.500028 -8.913431 27.130769 -1.472081 1.905549 0.026323 -0.011286 -134751.000000 0 0 1
2.963165 -26.412758 -10.071331 28.422629 -1.459077 1.933007 0.031037 -0.014062 44830.100000 0 0 1
3.690065 -27.569038 -9.728031 29.466981 -1.437739 1.907241 0.034505 -0.022693 -342275.000000 0 0 1
4.392265 -28.019228 -10.823731 30.356585 -1.415303 1.935372 0.052363 -0.018448 -87797.800000 0 0 1
4.576465 -29.554648 -10.875131 31.822786 -1.417169 1.919564 0.060246 -0.022819 -114579.000000 0 0 1
3.389965 -30.243948 -11.158631 32.414553 -1.459175 1.922234 0.066059 -0.018792 -183489.000000 0 0 1
3.584465 -31.593798 -11.123231 33.685942 -1.457825 1.907316 0.076078 -0.018291 -231418.000000 0 0 1
2.335065 -32.345608 -11.592431 34.439444 -1.498730 1.914104 0.062371 -0.021019 -218237.000000 0 0 1
2.101665 -31.941978 -12.934631 34.525521 -1.505095 1.954804 0.066891 -0.025121 418297.000000 0 0 1
1.329365 -32.966308 -13.572831 35.675852 -1.530493 1.961078 0.045022 -0.012992 -132401.000000 0 0 1
0.883065 -32.788938 -15.013431 36.073499 -1.543871 2.000048 0.047515 -0.004128 -192591.000000 0 0 1
-0.119235 -31.809198 -15.124631 35.222063 1.567048 2.014633 0.039253 -0.011353 -298140.000000 0 0 1
-0.406935 -31.684788 -16.494831 35.723533 1.557954 2.050747 0.026725 -0.011619 517293.000000 0 0 1
-1.693935 -30.833038 -16.802931 35.155143 1.515913 2.069133 0.029573 -0.000918 561945.000000 0 0 1
-2.895235 -31.317308 -16.259331 35.405112 1.478610 2.047932 0.033943 -0.009005 -960389.000000 0 0 1
-3.927335 -31.079328 -17.152731 35.715049 1.445098 2.071755 0.046032 -0.007645 -389616.000000 0 0 1
-5.312135 -31.204018 -16.484531 35.688223 1.402174 2.050937 0.045598 -0.006170 -228472.000000 0 0 1
-5.498035 -30.147728 -15.592131 34.383549 1.390409 2.041458 0.032214 -0.002637 398781.000000 0 0 1
-6.818635 -29.844688 -15.139731 34.152754 1.346181 2.030067 0.037850 -0.008722 659852.000000 0 0 1
-7.498835 -30.658318 -14.020631 34.536112 1.330912 1.988836 0.025319 -0.012800 115174.000000 0 0 1
-7.634735 -32.029758 -14.309031 35.901851 1.336799 1.980742 0.023741 -0.005836 -3686.030000 0 0 1
-8.499435 -32.706828 -13.403931 36.354399 1.316553 1.948408 0.024226 -0.008315 274752.000000 0 0 1
-8.909235 -34.123298 -13.782531 37.864655 1.315408 1.943349 0.054849 -0.018808 -238787.000000 0 0 1
-7.883235 33.563280 -13.804331 37.137565 -1.340101 1.951645 0.045948 -0.013901 -356488.000000 0 0 1
-8.456935 32.292942 -14.128631 36.248753 -1.314666 1.971177 0.068349 -0.026255 70284.700000 0 0 1
-6.865935 -21.572558 -3.086131 22.848206 1.262662 1.706281 0.018470 -0.016894 203786.000000 0 1 0
-7.068435 -20.829858 -4.261431 22.405480 1.243648 1.762158 0.020944 -0.008388 -115110.000000 0 1 0
-5.899035 -20.854658 -5.046131 22.252613 1.295134 1.799552 0.012337 -0.008095 -12023.900000 0 1 0
-5.935835 -19.815358 -6.148731 21.579838 1.279746 1.859729 0.016662 -0.009445 -172491.000000 0 1 0
-6.860235 -20.177458 -7.122031 22.470335 1.243062 1.893311 0.020504 -0.009511 -557762.000000 0 1 0
-7.092435 -19.135458 -8.037731 21.933388 1.215850 1.945999 0.020935 -0.012111 112338.000000 0 1 0
-7.930135 -19.557858 -9.267031 23.049397 1.185583 1.984552 0.029594 -0.006839 700273.000000 0 1 0
-7.205035 -20.359358 -10.257931 23.909018 1.230658 2.014226 0.018976 0.000429 -52341.800000 0 1 0
-8.079435 -20.761658 -11.270731 24.967040 1.199677 2.039157 0.035909 0.011165 5608.190000 0 1 0
-7.374435 -21.555158 -12.432231 25.953179 1.241159 2.070340 0.027171 0.006500 -392188.000000 0 0 1
-6.604235 -20.824958 -13.306631 25.580485 1.263698 2.117866 0.033711 0.005112 -514569.000000 0 0 1
-6.224435 -21.693958 -14.394731 26.769006 1.291382 2.138549 0.023495 0.010833 -352925.000000 0 0 1
-5.369335 -20.916158 -15.386131 26.515061 1.319515 2.189867 0.031828 0.015148 -670256.000000 0 0 1
-4.106835 -20.711258 -14.805131 25.787869 1.375046 2.182316 0.027927 0.004514 -378820.000000 0 0 1
-3.214935 -19.963758 -15.631031 25.558102 1.411129 2.228863 0.032159 0.014017 212850.000000 0 0 1
-3.420435 -18.414158 -15.723631 24.454307 1.387139 2.269179 0.034956 0.016820 188247.000000 0 1 0
-4.539035 -17.939458 -16.508331 24.798225 1.322978 2.299236 0.046913 0.020953 300660.000000 0 1 0
-4.351235 -17.949258 -17.872031 25.700556 1.332966 2.339765 0.053766 0.012011 -50010.300000 0 0 1
-5.661935 -17.823758 -18.700531 26.447187 1.263215 2.356170 0.040933 0.027698 137936.000000 0 0 1
-6.530835 -18.865758 -18.345131 27.112957 1.237534 2.313957 0.037016 0.032051 -368822.000000 0 0 1
-7.765635 -18.814358 -19.038631 27.870318 1.179347 2.322816 0.032540 0.028627 -393210.000000 0 0 1
-8.767135 -19.659258 -18.318131 28.264872 1.151312 2.275868 0.037673 0.014056 -850134.000000 0 0 1
-8.415835 -21.066658 -18.333831 29.167785 1.190733 2.250502 0.041810 0.014983 357708.000000 0 0 1
-9.394935 -21.977958 -17.853031 29.833306 1.166835 2.212332 0.041579 0.005861 -14609.400000 0 0 1
-8.926235 -23.413258 -18.102631 30.912191 1.206560 2.196434 0.051932 -0.006965 -669962.000000 0 0 1
-9.089735 -23.828958 -19.459531 32.079836 1.206376 2.222569 0.040484 -0.008150 786103.000000 0 0 1
-8.169935 -24.856558 -19.960931 32.909498 1.253237 2.222498 0.064083 -0.027846 1672100.000000 0 0 1
-6.648735 -24.424458 -20.004531 32.263618 1.305020 2.239582 0.071811 -0.020803 81439.600000 0 0 1
-6.318535 -23.403458 -20.909831 32.013540 1.307100 2.282541 0.088816 -0.016476 352600.000000 0 0 1
-5.838535 -22.141558 -20.315331 30.611268 1.312974 2.296491 0.066585 -0.008946 1042640.000000 0 0 1
-4.794635 -22.171858 -19.073231 29.637273 1.357827 2.269931 0.078825 0.004815 -101727.000000 0 0 1
-3.516035 -22.541958 -19.450531 29.980419 1.416066 2.276769 0.067996 -0.008382 -1133780.000000 0 0 1
-2.625435 -22.129958 -18.452031 28.932773 1.452711 2.262377 0.040280 -0.003101 309344.000000 0 0 1
-1.205035 -22.764058 -18.608931 29.426973 1.517910 2.255414 0.056392 -0.006442 479802.000000 0 0 1
-0.359735 -22.078658 -19.520231 29.472631 1.554504 2.294704 0.058428 -0.011572 765872.000000 0 0 1
0.912865 -22.781258 -19.543831 30.029658 -1.530747 2.279457 0.041450 -0.011912 1129090.000000 0 0 1
1.961565 -22.225958 -20.539831 30.326978 -1.482769 2.314855 0.043915 -0.014286 143662.000000 0 0 1
1.742865 -22.358958 -21.947631 31.379278 -1.493004 2.345397 0.048250 -0.023476 -489737.000000 0 0 1
1.181565 -21.277858 -22.568931 31.040296 -1.515323 2.384863 0.048767 -0.015638 -617696.000000 0 0 1
0.830465 -21.562358 -24.052231 32.313074 -1.532301 2.410357 0.056624 -0.019233 -24723.300000 0 0 1
0.309565 -20.469558 -24.808131 32.164297 -1.555674 2.451668 0.043902 -0.013079 -300427.000000 0 0 1
-1.033535 -20.185458 -24.514631 31.772441 1.519639 2.452100 0.044167 -0.012872 -653195.000000 0 0 1
-1.658735 -18.975458 -25.207101 31.594578 1.483603 2.494484 0.035699 -0.004237 -56796.900000 0 0 1
-1.312535 -17.715158 -24.703131 30.426867 1.496840 2.518171 0.039872 -0.003194 -27335.800000 0 0 1
-1.646635 -16.765658 -25.691651 30.722298 1.472896 2.561212 0.033889 -0.004834 -294490.000000 0 0 1
-1.215835 -15.335758 -25.329741 29.635443 1.491681 2.595790 0.043715 -0.001418 1221350.000000 0 0 1
0.207665 -15.103458 -25.509811 29.646383 -1.557048 2.606987 0.038374 -0.009269 1059150.000000 0 0 1
0.733765 -13.903058 -24.965631 28.585244 -1.518068 2.632885 0.039870 -0.010862 237622.000000 0 0 1
0.478365 -12.610258 -25.758691 28.683751 -1.532880 2.686053 0.037910 -0.008390 -158019.000000 0 0 1
1.077865 -11.439658 -25.209041 27.704211 -1.476852 2.713924 0.034499 -0.006266 44533.900000 0 0 1
0.835665 -10.355758 -26.112761 28.103671 -1.490275 2.762926 0.023560 -0.007064 -100037.000000 0 0 1
1.806165 -9.148658 -25.982291 27.605065 -1.375879 2.797004 0.041697 -0.019298 1438090.000000 0 0 1
3.175665 -9.179358 -26.441321 28.168935 -1.237728 2.789548 0.044920 -0.014931 783382.000000 0 0 1
3.361165 -9.451158 -27.831911 29.584406 -1.229110 2.795670 0.041762 -0.012427 -1023870.000000 0 0 1
4.743865 -8.995258 -28.240511 30.015752 -1.085490 2.795945 0.028382 -0.005859 -1230390.000000 0 0 1
4.914265 -7.564658 -28.389791 29.788492 -0.994678 2.833935 0.027215 -0.008848 259031.000000 0 0 1
6.139565 -6.969358 -28.798081 30.258812 -0.848614 2.829605 0.020657 -0.008886 414516.000000 0 0 1
7.372965 -7.069458 -27.827431 29.642938 -0.764386 2.789793 0.025978 -0.011845 429505.000000 0 0 1
7.788765 -8.357758 -27.317291 29.609988 -0.820623 2.745486 0.020184 -0.011837 416562.000000 0 0 1
8.513165 -9.072358 -28.330121 30.941516 -0.817186 2.727799 0.025358 -0.011242 -564783.000000 0 0 1
8.923065 -10.445358 -27.957241 31.150183 -0.863834 2.684860 0.034296 -0.006751 194950.000000 0 0 1
7.810565 -11.325658 -27.731681 30.956770 -0.967061 2.681068 0.029726 -0.013044 555925.000000 0 0 1
8.108065 -12.510158 -26.999711 30.842003 -0.995745 2.637101 0.037005 -0.014229 100844.000000 0 0 1
9.091965 -13.606958 -27.532391 32.028826 -0.981743 2.605308 0.040688 -0.018923 -167213.000000 0 0 1
8.548765 -14.411158 -28.568031 33.119409 -1.035388 2.611137 0.047325 -0.022852 5047.990000 0 0 1
9.414265 -15.483358 -28.897591 34.109141 -1.024497 2.581507 0.046530 -0.027725 -135409.000000 0 0 1
8.826965 -16.363358 -29.970421 35.268980 -1.076101 2.586340 0.054430 -0.034167 -239686.000000 0 0 1
8.723665 -15.640558 -31.195211 35.970412 -1.062015 2.620441 0.047042 -0.030555 479034.000000 0 0 1
7.992965 -16.427858 -32.127971 36.959011 -1.117967 2.624553 0.061378 -0.035009 140286.000000 0 0 1
6.689265 -15.828258 -32.744961 36.979893 -1.170947 2.658323 0.068023 -0.030598 396289.000000 0 0 1
6.925565 -14.720558 -33.581391 37.314449 -1.131051 2.690467 0.066407 -0.025564 397158.000000 0 0 1
5.707065 -14.320258 -34.205537 37.518784 -1.191557 2.718177 0.051328 -0.031192 546839.000000 0 0 1
5.890465 -12.998958 33.480014 36.394804 -1.145327 0.402941 0.080178 -0.024868 -340741.000000 0 0 1
6.630065 -13.050958 32.313022 35.474169 -1.100758 0.425364 0.069874 -0.022492 -306157.000000 0 0 1
6.729965 -11.780858 31.730282 34.509301 -1.051775 0.404065 0.067863 -0.023830 -106776.000000 0 0 1
7.346265 -11.735758 30.315742 33.327764 -1.011498 0.428418 0.045192 -0.022463 -400253.000000 0 0 1
6.576365 -12.268558 29.305782 32.443720 -1.078739 0.443441 0.049220 -0.024021 -92770.800000 0 0 1
7.064165 -11.909558 28.007932 31.243947 -1.035428 0.459155 0.033923 -0.025742 99888.100000 0 0 1
6.357365 -12.784058 26.910142 30.463157 -1.109320 0.487798 0.033903 -0.038274 -61407.600000 0 0 1
6.570165 -14.164658 26.966562 31.160874 -1.136491 0.524852 0.047572 -0.033128 -33065.400000 0 0 1
6.064265 -14.984358 25.893772 30.525296 -1.186239 0.558082 0.036073 -0.031034 539052.000000 0 0 1
4.549465 -15.384058 25.955712 30.513372 -1.283265 0.553606 0.030577 -0.037123 1302880.000000 0 0 1
3.677265 -14.220658 25.673832 29.578624 -1.317753 0.519664 0.012105 -0.037006 23785.300000 0 0 1
2.480165 -14.688858 25.117802 29.203043 -1.403527 0.535313 0.016083 -0.029436 -462423.000000 0 0 1
1.458665 -13.553758 25.032252 28.503433 -1.463588 0.498671 0.022650 -0.026774 -724225.000000 0 0 1
1.720365 -12.583058 24.011832 27.163598 -1.434918 0.486508 0.001330 -0.007624 76451.100000 0 0 1
0.708565 -11.608758 23.765332 26.458577 -1.509835 0.455118 0.010355 0.002016 -199087.000000 0 0 1
-0.666835 -12.025358 23.283432 26.213968 1.515401 0.477368 0.032705 0.002629 -946618.000000 0 0 1
-0.760135 -12.448958 21.918632 25.218659 1.509812 0.517329 0.032622 -0.007675 295807.000000 0 0 1
-2.064535 -12.989158 21.667832 25.347100 1.413172 0.545545 0.041896 -0.013683 686912.000000 0 0 1
-2.324635 -13.531358 20.194132 24.419347 1.400661 0.597095 0.052011 -0.022048 310673.000000 0 1 0
-1.541535 -14.692358 19.855032 24.748010 1.466258 0.639678 0.053202 -0.030633 -317759.000000 0 1 0
-1.818535 -15.265458 18.603132 24.133333 1.452228 0.690625 0.051196 -0.032337 423371.000000 0 1 0
-2.890135 -16.380958 18.632032 24.976815 1.396161 0.728802 0.026037 -0.032216 437415.000000 0 1 0
-2.320535 -17.537558 18.049632 25.273307 1.439242 0.775348 0.011484 -0.016949 -260382.000000 0 0 1
-3.342135 -18.491358 18.060732 26.063196 1.391986 0.805211 0.015076 -0.006333 112367.000000 0 0 1
-2.983235 -19.820658 17.422032 26.557209 1.421406 0.855264 0.018677 -0.002837 421248.000000 0 0 1
-1.962735 -20.506058 18.139732 27.448144 1.475372 0.848815 0.025092 -0.007261 -246165.000000 0 0 1
-1.947235 -21.877958 17.675332 28.193157 1.482026 0.893181 0.017041 -0.020859 147347.000000 0 0 1
-0.821035 -22.829458 18.222532 29.221891 1.534848 0.897467 0.037112 -0.016763 -207443.000000 0 0 1
0.325365 -22.603358 17.488532 28.580874 -1.556403 0.912340 0.061938 -0.020354 -1665970.000000 0 0 1
1.328665 -23.503558 17.823032 29.526988 -1.514326 0.922765 0.076697 -0.020014 174671.000000 0 0 1
2.655265 -23.291558 17.021732 28.970441 -1.457285 0.942762 0.086286 -0.027071 161384.000000 0 0 1
3.300965 -22.098358 17.318532 28.269512 -1.422517 0.911422 0.077614 -0.029910 -543559.000000 0 0 1
4.347165 -21.931158 16.374632 27.712851 -1.375114 0.938662 0.075957 -0.024811 -72387.700000 0 0 1
5.096565 -20.672658 16.734532 27.080958 -1.329080 0.904671 0.069631 -0.021803 -90667.000000 0 0 1
6.036165 -20.781058 17.845132 28.048821 -1.288110 0.881212 0.072387 -0.016570 212828.000000 0 0 1
6.354165 -19.585158 18.434132 27.636408 -1.257073 0.840590 0.064556 -0.017542 -17975.100000 0 0 1
7.314165 -18.643658 17.745232 26.757732 -1.196933 0.845735 0.078433 -0.020529 -488585.000000 0 0 1
6.739265 -18.151358 16.564832 25.481035 -1.215290 0.863100 0.064084 -0.021532 -199291.000000 0 0 1
7.713065 -17.421458 15.890332 24.809297 -1.154002 0.875648 0.070130 -0.016453 115029.000000 0 1 0
7.043565 -16.449558 14.853132 23.255435 -1.166225 0.877995 0.041309 -0.012010 397029.000000 0 1 0
6.368665 -17.140558 13.779632 22.896219 -1.215049 0.925006 0.048720 -0.015177 111008.000000 0 1 0
5.817865 -16.236058 12.869332 21.519220 -1.226720 0.929744 0.033263 -0.020232 -182644.000000 0 1 0
6.146365 -16.491958 11.376532 20.956811 -1.214054 0.996962 0.036313 -0.016214 54485.900000 0 1 0
7.499565 -16.153958 11.193332 21.035316 -1.136151 1.009693 0.047845 -0.013447 -343739.000000 0 1 0
8.058665 -16.482858 9.981032 20.886543 -1.116058 1.072569 0.055339 -0.014517 126547.000000 0 1 0
9.491565 -15.933158 9.799332 20.975753 -1.033536 1.084704 0.053692 -0.013184 118523.000000 0 1 0
10.143965 -16.408258 8.669632 21.149313 -1.017085 1.148425 0.054261 -0.015615 -650768.000000 0 1 0
11.450365 -15.907358 8.617232 21.410548 -0.946895 1.156576 0.050117 -0.017803 504509.000000 0 1 0
12.571065 -16.703358 7.845632 22.329079 -0.925629 1.211769 0.066295 -0.027507 747665.000000 0 1 0
13.011865 -17.870758 8.577732 23.711813 -0.941453 1.200653 0.076478 -0.028133 316243.000000 0 1 0
13.662065 -18.804658 7.696132 24.484640 -0.942489 1.251051 0.061623 -0.027444 490922.000000 0 1 0
14.274465 -20.101158 8.336832 26.025366 -0.953303 1.244713 0.061680 -0.026992 92782.000000 0 0 1
13.272865 -21.037358 8.698332 26.351477 -1.007952 1.234398 0.066522 -0.025619 241198.000000 0 0 1
13.806765 -22.243758 9.233232 27.760837 -1.015293 1.231738 0.049188 -0.016567 201654.000000 0 0 1
12.673465 -23.046558 9.915232 28.108226 -1.068024 1.210286 0.056697 -0.017716 280970.000000 0 0 1
12.556265 -22.573558 11.247832 28.173374 -1.063177 1.160113 0.066522 -0.022706 -432686.000000 0 0 1
11.561765 -23.214558 12.031132 28.589128 -1.108718 1.136437 0.078412 -0.022180 -67026.600000 0 0 1
11.729065 -24.706258 12.421632 30.037761 -1.127560 1.144464 0.057147 -0.025078 243687.000000 0 0 1
12.805665 -24.882258 13.343932 31.002779 -1.095497 1.125848 0.035716 -0.019719 202566.000000 0 0 1
12.761665 -26.075238 14.001432 32.230703 -1.115651 1.121410 0.037200 -0.026072 737800.000000 0 0 1
13.973565 -26.286418 14.998032 33.334325 -1.082198 1.104112 0.037051 -0.019121 673246.000000 0 0 1
13.796565 -25.708638 16.278832 33.410771 -1.078260 1.061878 0.039344 -0.011825 66365.500000 0 0 1
14.670265 -26.308638 17.211732 34.693008 -1.062120 1.051677 0.037896 -0.008336 -332474.000000 0 0 1
14.592665 -25.704418 18.600132 34.923171 -1.054458 1.009125 0.047870 -0.005127 -25114.600000 0 0 1
15.124465 -24.402258 18.758232 34.294181 -1.015947 0.992044 0.040088 -0.005220 -787439.000000 0 0 1
16.504265 -24.351558 18.891532 34.961108 -0.975160 0.999933 0.042272 -0.005356 -679372.000000 0 0 1
17.092365 -22.887658 19.136132 34.382922 -0.929350 0.980558 0.043100 -0.006437 140507.000000 0 0 1
16.943665 -22.041258 18.050432 33.146989 -0.915419 0.994935 0.035633 -0.007326 388201.000000 0 0 1
15.676665 -21.404658 17.887932 31.998364 -0.938658 0.977585 0.050446 -0.005989 -21390.800000 0 0 1
15.791365 -20.201658 16.913732 30.717235 -0.907322 0.987681 0.033351 -0.006126 278214.000000 0 0 1
16.471665 -19.041958 17.461832 30.640292 -0.857647 0.964415 0.034883 -0.004726 906987.000000 0 0 1
17.846465 -19.034158 17.042432 31.164723 -0.817591 0.992199 0.029293 -0.002465 499887.000000 0 0 1
18.677065 -17.846458 17.512632 31.209311 -0.762660 0.975040 0.031297 -0.006197 -314083.000000 0 0 1
18.841265 -17.731658 18.935432 32.061746 -0.755068 0.939003 0.035910 -0.010263 151778.000000 0 0 1
19.280065 -16.426158 19.320032 31.855976 -0.705640 0.919170 0.039857 -0.017914 -151567.000000 0 0 1
19.781665 -16.327058 20.805832 33.026803 -0.690016 0.889284 0.034042 -0.017355 221923.000000 0 0 1
21.042665 -16.978158 20.858832 34.148828 -0.678900 0.913699 0.025851 -0.008208 146643.000000 0 0 1
21.665965 -16.941458 22.138632 35.306459 -0.663631 0.893046 0.028255 -0.004304 170908.000000 0 0 1
33.267565 -1.383758 -8.216531 34.295146 -0.041571 1.812733 0.134922 -0.042953 466932.000000 0 0 1
34.547355 -1.202458 -8.827831 35.677671 -0.034792 1.820826 0.124005 -0.044186 845969.000000 0 0 1
35.506205 -2.184758 -8.420531 36.556382 -0.061454 1.803227 0.140365 -0.054405 -437269.000000 0 0 1
-35.279202 -1.808758 -8.910731 36.432058 0.051225 1.817888 0.112136 -0.051081 -631131.000000 0 0 1
-34.263463 -2.768158 -8.606531 35.436139 0.080615 1.816124 0.116456 -0.043357 -293185.000000 0 0 1
-33.045345 -2.234258 -9.018031 34.326544 0.067509 1.836629 0.150857 -0.044277 -639488.000000 0 0 1
-31.833615 -3.164458 -8.780931 33.173748 0.099081 1.838684 0.133615 -0.037698 -283939.000000 0 0 1
-31.411165 -3.427758 -7.427831 32.458951 0.108695 1.801680 0.118881 -0.038263 813243.000000 0 0 1
-30.411755 -4.453458 -7.285731 31.587814 0.145405 1.803542 0.115191 -0.039520 351332.000000 0 0 1
-29.959605 -4.447658 -5.803831 30.839002 0.147379 1.760123 0.099902 -0.047044 -136647.000000 0 0 1
-29.324655 -3.224158 -5.431931 29.997274 0.109507 1.752882 0.101187 -0.043584 616330.000000 0 0 1
-29.515865 -3.030758 -4.050431 29.946248 0.102324 1.706469 0.097899 -0.043912 -235577.000000 0 0 1
-29.412815 -1.555358 -3.420131 29.651815 0.052831 1.686397 0.108115 -0.046901 -522870.000000 0 0 1
-28.070245 -1.274558 -3.127131 28.272639 0.045375 1.681629 0.096920 -0.039866 360062.000000 0 0 1
-28.077805 0.045842 -2.717931 28.209083 -0.001633 1.667296 0.101751 -0.046496 -839858.000000 0 0 1
-26.685265 0.627842 -2.614931 26.820429 -0.023523 1.668449 0.115339 -0.028097 -641971.000000 0 0 1
-25.995145 0.195242 -1.447331 26.036137 -0.007511 1.626414 0.078457 -0.032768 715180.000000 0 0 1
-24.580935 0.283242 -1.477131 24.626906 -0.011522 1.630813 0.076892 -0.028208 220580.000000 0 1 0
-23.908135 -0.404458 -0.285831 23.913264 0.016916 1.582749 0.058163 -0.028993 -194864.000000 0 1 0
-24.172935 -1.815258 -0.232431 24.242112 0.074954 1.580384 0.071859 -0.032428 568647.000000 0 1 0
-23.249435 -2.472858 0.635069 23.389198 0.105964 1.543641 0.057410 -0.025378 -87932.500000 0 1 0
-23.260035 -4.059858 0.683769 23.621584 0.172801 1.541845 0.056934 -0.015773 136824.000000 0 1 0
-24.410035 -4.615958 1.322569 24.877823 0.186894 1.517609 0.051028 -0.020244 616000.000000 0 1 0
-24.448435 -6.080558 1.141869 25.219100 0.243764 1.525503 0.040252 -0.006190 518303.000000 0 0 1
-25.779225 -6.714958 1.698169 26.693499 0.254817 1.507136 0.051329 -0.006712 573874.000000 0 0 1
-25.905265 -6.857158 3.102169 26.976412 0.258767 1.455546 0.054381 -0.005451 566853.000000 0 0 1
-27.161365 -7.458058 3.423069 28.373928 0.267979 1.449860 0.061880 -0.001651 372834.000000 0 0 1
-27.386585 -7.692758 4.928469 28.870285 0.273839 1.399245 0.060507 -0.008935 -530203.000000 0 0 1
-26.647065 -8.765058 5.414269 28.569330 0.317784 1.380130 0.071862 0.003559 -130201.000000 0 0 1
-26.584505 -8.940158 6.868669 28.876304 0.324411 1.330629 0.050667 0.002184 -293999.000000 0 0 1
-25.982725 -7.852058 7.733069 28.223344 0.293477 1.293251 0.053227 0.004250 -1088080.000000 0 0 1
-24.621335 -7.710558 7.520269 26.874101 0.303491 1.287176 0.077438 -0.013576 -878185.000000 0 0 1
-24.187035 -6.445158 7.898569 26.247669 0.260420 1.265134 0.070038 -0.009754 -9312.390000 0 0 1
-22.679135 -6.230958 7.635769 24.727979 0.268128 1.256875 0.087583 -0.014401 627544.000000 0 1 0
-21.740735 -6.990358 8.414369 24.337754 0.311093 1.217776 0.097176 -0.025838 471241.000000 0 1 0
-20.431335 -6.828558 7.902469 22.945973 0.322548 1.219202 0.088542 -0.023720 169429.000000 0 1 0
-19.306735 -6.960458 8.947769 22.388849 0.346016 1.159658 0.106932 -0.024302 -87436.200000 0 1 0
-19.081635 -5.835158 9.720869 22.195791 0.296769 1.117468 0.089083 -0.024125 45451.000000 0 1 0
-18.102535 -6.139458 10.675969 21.894543 0.326976 1.061448 0.083653 -0.025580 6204.600000 0 1 0
-17.736435 -4.929058 11.627569 21.773311 0.271066 1.007438 0.067516 -0.014482 419914.000000 0 1 0
-18.842135 -4.717858 12.486469 23.091040 0.245344 0.999468 0.082727 -0.016136 454103.000000 0 1 0
-18.688535 -3.457158 13.145169 23.108629 0.182920 0.965699 0.069414 -0.007519 325912.000000 0 1 0
-19.861235 -3.150258 14.113369 24.567864 0.157303 0.958846 0.064987 -0.010985 190999.000000 0 1 0
-19.867635 -4.113758 15.194369 25.347875 0.204173 0.928003 0.079980 -0.011088 -118328.000000 0 0 1
-21.037435 -4.072958 15.957769 26.717280 0.191239 0.930688 0.078803 -0.002438 -336951.000000 0 0 1
-20.834735 -4.831058 17.290369 27.502403 0.227849 0.890934 0.065153 0.005476 229676.000000 0 0 1
-21.940635 -4.729758 18.175569 28.881021 0.212322 0.890111 0.063584 0.004703 531281.000000 0 0 1
-21.585735 -5.370958 19.397669 29.513737 0.243868 0.853643 0.059108 0.008051 187432.000000 0 0 1
-22.359635 -4.894658 20.690969 30.854937 0.215507 0.835794 0.063939 -0.000880 11102.900000 0 0 1
-22.238135 -3.483558 20.951169 30.750956 0.155385 0.821235 0.061803 -0.011714 197146.000000 0 0 1
-22.788835 -3.081058 22.211369 31.971375 0.134385 0.802756 0.066857 -0.010442 -20582.700000 0 0 1
-22.818735 -1.541858 22.219069 31.886659 0.067467 0.799850 0.068560 -0.011773 -299380.000000 0 0 1
-23.946035 -0.907858 21.671269 32.309143 0.037894 0.835580 0.078376 -0.018461 -171334.000000 0 0 1
-23.870835 0.491542 21.840769 32.358578 -0.020589 0.829885 0.075265 -0.016144 -305674.000000 0 0 1
-25.251035 1.008642 21.479269 33.166114 -0.039923 0.866330 0.074564 -0.021802 287196.000000 0 0 1
-26.349895 0.637542 22.314869 34.535153 -0.024191 0.868268 0.077009 -0.019819 877845.000000 0 0 1
-27.565035 1.347542 22.038769 35.317904 -0.048847 0.896931 0.074403 -0.016044 775852.000000 0 0 1
-28.504035 1.326542 23.280169 36.826702 -0.046505 0.886466 0.067158 -0.013353 -55060.100000 0 0 1
-28.067905 2.165642 24.419569 37.266777 -0.077005 0.856265 0.063751 -0.010631 56295.600000 0 0 1
-28.909565 2.058842 25.519769 38.616841 -0.071097 0.848851 0.064738 -0.006751 -335528.000000 0 0 1
-28.406515 2.964842 26.677869 39.082337 -0.103995 0.819472 0.077636 -0.008309 720306.000000 0 0 1
-27.276065 2.382042 27.351769 38.701125 -0.087110 0.785912 0.063312 -0.009957 725954.000000 0 0 1
-26.717875 3.263942 28.309969 39.063442 -0.121561 0.760172 0.055936 -0.007583 -230321.000000 0 0 1
-25.601585 2.605642 29.146769 38.881418 -0.101427 0.723290 0.058461 -0.004999 -286021.000000 0 0 1
-25.925375 1.580442 30.039269 39.711214 -0.060886 0.712939 0.063019 -0.004680 -75775.200000 0 0 1
-24.862535 1.302642 30.925769 39.701961 -0.052346 0.677810 0.043140 -0.010851 71882.400000 0 0 1
-25.181735 0.233642 31.985169 40.709033 -0.009278 0.666966 0.050137 -0.019091 -192180.000000 0 0 1
-25.220795 -1.014058 31.374369 40.267454 0.040186 0.677488 0.055646 -0.016198 122442.000000 0 0 1
-25.861665 -1.974358 32.202769 41.349028 0.076195 0.678040 0.051374 -0.019773 -114564.000000 0 0 1
-26.487465 -3.151558 31.348369 41.161127 0.118426 0.705016 0.055855 -0.021558 255549.000000 0 0 1
-27.712055 -2.960358 30.669769 41.440999 0.106422 0.737603 0.059018 -0.017242 167608.000000 0 0 1
-27.634105 -2.042258 29.546269 40.506747 0.073769 0.753329 0.058707 -0.007871 -755244.000000 0 0 1
-29.019105 -1.714158 28.992769 41.056393 0.059001 0.786723 0.055502 -0.011426 83565.600000 0 0 1
-29.824995 -1.079558 29.994569 42.312763 0.036181 0.782891 0.056631 -0.001544 -85811.000000 0 0 1
-31.149305 -0.898058 29.531069 42.932153 0.028823 0.812267 0.035120 -0.004738 418862.000000 0 0 1
-32.176095 -0.472858 30.618669 44.418775 0.014695 0.810249 0.030559 -0.006713 37002.100000 0 0 1
-32.462755 -1.474758 31.510869 45.265221 0.045398 0.800792 0.035332 -0.001158 165993.000000 0 0 1
-33.241665 -1.084158 32.659569 46.613637 0.032603 0.794497 0.051750 0.003592 231869.000000 0 0 1
-33.503705 -2.289658 33.581569 47.491710 0.068234 0.785402 0.050214 0.001310 120737.000000 0 0 1
-34.276396 -3.331258 32.981669 47.683950 0.096884 0.806994 0.054534 -0.021091 46135.300000 0 0 1
-34.311685 -4.460658 33.815769 48.380734 0.129279 0.796866 0.044109 -0.009606 -113562.000000 0 0 1
-35.532713 -5.348658 33.447469 49.090885 0.149406 0.821208 0.036745 -0.006120 -433688.000000 0 0 1
35.498655 -4.801858 34.022369 49.403784 -0.134453 0.811158 0.049091 -0.014520 -1678520.000000 0 0 1
34.377655 -5.473958 33.571469 48.361461 -0.157904 0.803519 0.046670 -0.020169 -985377.000000 0 0 1
33.033355 -4.935358 34.115669 47.743472 -0.148308 0.774799 0.069166 -0.024513 -341611.000000 0 0 1
32.645655 -5.423158 -33.100194 46.805686 -0.164619 2.356303 0.071110 -0.021858 112907.000000 0 0 1
32.286035 -6.796658 -33.032794 46.687772 -0.207484 2.356787 0.066680 -0.019975 -586336.000000 0 0 1
30.896255 -7.184358 -33.587594 46.198702 -0.228472 2.384775 0.048188 -0.018828 39563.600000 0 0 1
29.790025 -6.742658 -32.788694 44.810796 -0.222589 2.391630 0.049655 -0.022440 -290319.000000 0 0 1
28.654405 -7.373658 -33.282294 44.532649 -0.251866 2.414889 0.038967 -0.018435 -1316030.000000 0 0 1
27.399655 -6.852358 -32.606294 43.137760 -0.245063 2.427770 0.052517 -0.019469 -398269.000000 0 0 1
26.219405 -7.553158 -32.995694 42.816156 -0.280481 2.450636 0.036749 -0.014976 540005.000000 0 0 1
25.117505 -7.083558 -32.223194 41.465649 -0.274878 2.460850 0.051443 -0.010948 -63441.900000 0 0 1
23.759705 -7.696558 -32.610594 41.075679 -0.313267 2.488017 0.050868 -0.016482 -212892.000000 0 0 1
23.660305 -9.096958 -32.438294 41.168041 -0.367057 2.478266 0.039675 -0.024920 99822.300000 0 0 1
23.485105 -9.543058 -31.130894 40.146639 -0.385964 2.458192 0.043589 -0.020213 -483404.000000 0 0 1
23.195005 -11.058658 -31.169794 40.396265 -0.444891 2.452150 0.047144 -0.017562 98700.900000 0 0 1
21.931805 -11.328358 -31.764494 40.228334 -0.476781 2.480961 0.053743 -0.024513 414463.000000 0 0 1
21.762705 -12.721458 -31.735294 40.528751 -0.528984 2.470321 0.043443 -0.021774 -395103.000000 0 0 1
20.603005 -13.396058 -32.551394 40.786412 -0.576515 2.494922 0.052987 -0.019379 435075.000000 0 0 1
19.288705 -13.107958 -32.134394 39.705062 -0.596880 2.513802 0.068831 -0.016723 -5120.110000 0 0 1
18.843505 -11.822458 -32.624794 39.487028 -0.560325 2.543153 0.071328 -0.017849 -160520.000000 0 0 1
17.459605 -11.408858 -32.025794 38.218468 -0.578792 2.564342 0.077514 -0.020697 149046.000000 0 0 1
16.359305 -11.983858 -32.647394 38.432955 -0.632233 2.585764 0.074723 -0.013542 -675376.000000 0 0 1
15.157705 -11.670058 -31.987894 37.271593 -0.656122 2.602623 0.073481 -0.016611 -663215.000000 0 0 1
13.930305 -12.112358 -32.727394 37.574525 -0.715705 2.628030 0.058900 -0.011165 -1175820.000000 0 0 1
13.609805 -13.490958 -32.842794 38.024753 -0.781013 2.613404 0.065083 -0.010441 51065.200000 0 0 1
12.329805 -13.725458 -33.378194 38.138119 -0.838912 2.636630 0.048273 -0.017815 739051.000000 0 0 1
11.101905 -13.701958 -32.386794 36.876827 -0.889841 2.642971 0.034154 -0.015909 462683.000000 0 0 1
10.422305 -12.432358 -32.389994 36.225677 -0.873122 2.677252 0.055351 -0.014704 346401.000000 0 0 1
9.422805 -12.445458 -31.369294 35.038711 -0.922749 2.679845 0.045060 -0.017983 817173.000000 0 0 1
8.204205 -11.475758 -31.655694 34.656673 -0.950130 2.722377 0.031681 -0.005496 336220.000000 0 0 1
8.555105 -10.066358 -31.774794 34.411610 -0.866377 2.747575 0.031177 -0.000726 830953.000000 0 0 1
7.448405 -9.159658 -31.964194 34.074738 -0.888073 2.787788 0.030124 -0.004490 641777.000000 0 0 1
7.979805 -7.721358 -32.295594 34.151165 -0.768939 2.810433 0.037848 0.002029 129019.000000 0 0 1
8.513705 -6.985258 -31.236594 33.121018 -0.687100 2.802644 0.023437 -0.006856 163647.000000 0 0 1
9.132905 -5.768258 -31.629394 33.423066 -0.563325 2.812495 0.027876 -0.003749 -97871.200000 0 0 1
9.416405 -4.858758 -30.408294 32.201561 -0.476357 2.806291 0.033302 -0.008821 -532857.000000 0 0 1
8.233105 -4.402158 -29.846494 31.272611 -0.491013 2.838431 0.027036 -0.012437 -375722.000000 0 0 1
8.514905 -3.496958 -28.806894 30.241850 -0.389685 2.832305 0.034568 -0.008795 718271.000000 0 0 1
7.149005 -2.977858 -28.215594 29.259112 -0.394685 2.873717 0.028848 -0.010809 283897.000000 0 0 1
6.423005 -2.199658 -29.195194 29.974203 -0.329947 2.913108 0.018893 0.001179 398701.000000 0 0 1
5.098205 -1.896458 -28.771694 29.281370 -0.356125 2.954740 0.034684 -0.003945 864003.000000 0 0 1
4.054105 -3.059558 -28.806194 29.250530 -0.646491 2.967069 0.026257 -0.005609 -515887.000000 0 0 1
4.092105 -3.953458 -27.766394 28.343391 -0.768167 2.939470 0.027950 -0.011996 -244982.000000 0 0 1
2.966805 -4.802558 -27.678094 28.247892 -1.017424 2.940399 0.048446 -0.014284 48650.800000 0 0 1
3.040205 -5.802358 -26.490494 27.288395 -1.088165 2.899175 0.040486 -0.027116 -78197.200000 0 0 1
2.762805 -5.174258 -25.261594 25.933649 -1.080358 2.913439 0.043213 -0.028834 -149248.000000 0 0 1
3.134405 -6.085758 -24.277994 25.224630 -1.095190 2.866764 0.050410 -0.036709 -38948.500000 0 0 1
2.961605 -5.522958 -22.830894 23.675386 -1.078582 2.873698 0.049579 -0.038723 356155.000000 0 1 0
3.977405 -4.536558 -22.627394 23.417922 -0.850979 2.881020 0.031577 -0.033520 279873.000000 0 1 0
3.891205 -3.939558 -21.369794 22.075545 -0.791573 2.888051 0.035579 -0.029972 96492.000000 0 1 0
4.866305 -2.724758 -21.202194 21.923464 -0.510430 2.884371 0.044083 -0.027200 225828.000000 0 1 0
6.176905 -3.171758 -20.937394 22.058755 -0.474379 2.821368 0.039373 -0.026277 -172863.000000 0 1 0
7.024205 -2.116558 -20.467294 21.742341 -0.292671 2.797425 0.054405 -0.017359 -612394.000000 0 1 0
8.468905 -2.480458 -20.293294 22.129004 -0.284921 2.731403 0.055296 -0.014986 -2222290.000000 0 1 0
9.227005 -2.486558 -21.502094 23.529994 -0.263234 2.723380 0.061294 -0.024311 394962.000000 0 1 0
10.489205 -3.111858 -21.312794 23.957092 -0.288401 2.667317 0.054561 -0.022548 237256.000000 0 1 0
11.548105 -2.303158 -20.559594 23.693041 -0.196857 2.621450 0.046573 -0.021224 -1468230.000000 0 1 0
11.300205 -2.149558 -19.170794 22.356980 -0.187977 2.601159 0.039722 -0.011402 291868.000000 0 1 0
12.387105 -1.510258 -18.501994 22.316922 -0.121323 2.548215 0.035800 -0.013600 322014.000000 0 1 0
12.562505 0.048342 -18.552194 22.405418 0.003848 2.546368 0.027288 -0.014827 -112053.000000 0 1 0
12.964905 0.560842 -19.789694 23.665065 0.043232 2.561188 0.021293 -0.015374 71574.600000 0 1 0
12.966605 1.941142 -19.765294 23.718510 0.148600 2.555897 0.037044 -0.024571 29304.400000 0 1 0
13.569705 2.565542 -21.065994 25.189184 0.186858 2.561316 0.043782 -0.029647 347088.000000 0 0 1
14.991705 2.605042 -21.204894 26.099521 0.172048 2.519161 0.044009 -0.024535 669611.000000 0 0 1
15.332605 3.490142 -22.257794 27.252142 0.223815 2.526527 0.050490 -0.033302 -1238170.000000 0 0 1
16.741805 3.362442 -22.714294 28.417129 0.198204 2.496954 0.031025 -0.024247 -1268710.000000 0 0 1
16.789305 2.221842 -23.545694 29.003742 0.131572 2.518051 0.025652 -0.020325 162321.000000 0 0 1
18.095105 1.752142 -23.815794 29.961557 0.096529 2.489603 0.013293 -0.012094 -326386.000000 0 0 1
9.061365 26.858042 3.259969 28.532266 1.245408 1.456291 -0.028310 0.012400 -121981.000000 0 0 1
8.950365 27.453442 4.486269 29.222032 1.255642 1.416663 -0.030524 0.007963 666774.000000 0 0 1
10.220165 27.723442 5.113369 29.986457 1.217607 1.399436 -0.011732 0.005650 520101.000000 0 0 1
10.218465 28.492242 6.413269 30.941153 1.226445 1.362010 -0.014069 -0.003146 -194014.000000 0 0 1
9.919965 27.635642 7.446069 30.291556 1.226166 1.322438 -0.020030 -0.007326 -69016.200000 0 0 1
9.930865 28.286042 8.704369 31.216795 1.233153 1.288214 -0.002918 -0.009349 -907999.000000 0 0 1
9.845165 27.242042 9.893869 30.609554 1.224005 1.241658 -0.001904 -0.020076 227441.000000 0 0 1
11.021665 26.555742 10.334969 30.553169 1.177393 1.225727 0.017732 -0.013068 25004.900000 0 0 1
11.561665 25.695042 9.398269 29.702437 1.147978 1.248849 0.016173 -0.010016 -503656.000000 0 0 1
12.798965 24.970442 9.983769 29.782749 1.097148 1.228958 0.026307 -0.016734 254739.000000 0 0 1
13.905565 25.891842 10.089069 31.073165 1.077939 1.240115 0.041148 -0.015450 -71820.800000 0 0 1
14.934065 25.174342 10.711669 31.169114 1.035373 1.219982 0.050862 -0.017357 183000.000000 0 0 1
16.209065 26.074342 10.918469 32.585550 1.014611 1.229116 0.051361 -0.013628 -646439.000000 0 0 1
16.825065 26.514142 9.763969 32.884915 1.005345 1.269338 0.067702 -0.023665 81764.200000 0 0 1
18.237565 26.540342 9.796369 33.659581 0.968737 1.275480 0.083489 -0.034307 564891.000000 0 0 1
19.000565 27.344542 10.910069 35.039622 0.963530 1.254169 0.077771 -0.030184 -913425.000000 0 0 1
19.116865 28.775942 10.630469 36.145764 0.984410 1.272283 0.076217 -0.035584 390419.000000 0 0 1
18.021365 29.574842 11.073969 36.360331 1.023532 1.261318 0.063021 -0.019575 158426.000000 0 0 1
18.406565 31.056642 11.222169 37.805472 1.035779 1.269415 0.056837 -0.004012 -819419.000000 0 0 1
18.579465 31.808042 10.015269 38.173992 1.042141 1.305331 0.075817 -0.030866 721475.000000 0 0 1
17.471165 31.921642 9.085269 37.506999 1.070018 1.326134 0.064447 -0.033015 1883630.000000 0 0 1
16.132465 32.552442 9.709969 37.605870 1.110688 1.309634 0.062531 -0.028035 673902.000000 0 0 1
16.255865 33.934842 10.024669 38.939962 1.124064 1.310425 0.060201 -0.028814 -297781.000000 0 0 1
14.998765 -34.159267 10.273069 38.695664 -1.157058 1.302091 0.054280 -0.014711 -321729.000000 0 0 1
15.113665 -32.636867 10.488269 37.464540 -1.137114 1.287052 0.043110 -0.008860 -163019.000000 0 0 1
15.610265 -31.926967 9.348869 36.747966 -1.116038 1.313564 0.045346 -0.012720 31070.600000 0 0 1
15.829265 -30.525567 9.661969 35.717356 -1.092413 1.296872 0.039555 -0.005342 -251309.000000 0 0 1
16.619465 -29.891267 8.523469 35.246901 -1.063360 1.326553 0.026911 -0.006921 -384569.000000 0 0 1
15.978565 -29.947167 7.276769 34.714532 -1.080664 1.359613 0.017352 -0.012853 -325769.000000 0 0 1
16.691265 -29.341667 6.244069 34.329582 -1.053590 1.387892 0.021063 -0.007821 -116103.000000 0 0 1
15.976965 -29.511167 4.879569 33.911393 -1.074590 1.426403 0.030725 -0.002017 -262626.000000 0 0 1
16.189365 -30.776967 4.256569 35.034778 -1.086548 1.449000 0.032535 -0.010891 20682.400000 0 0 1
16.161965 -30.647167 2.855469 34.765093 -1.085504 1.488568 0.031880 -0.002236 -77191.800000 0 0 1
16.330765 -32.031367 2.152969 36.018574 -1.099310 1.510987 0.020768 -0.005913 657028.000000 0 0 1
17.643565 -32.615067 2.253869 37.149939 -1.074917 1.510090 0.045815 0.002660 713755.000000 0 0 1
17.684665 -33.933467 1.788169 38.306985 -1.090367 1.524099 0.049758 0.002795 -975331.000000 0 0 1
19.068865 34.083142 1.849569 39.098633 1.060703 1.523473 0.061140 -0.004627 -437148.000000 0 0 1
19.467165 33.887342 3.244169 39.215394 1.049363 1.487975 0.067786 -0.035352 -260298.000000 0 0 1
20.787465 33.431842 3.290869 39.504893 1.014511 1.487397 0.077573 -0.022935 -614071.000000 0 0 1
21.448865 33.211542 4.636469 39.806497 0.997361 1.454056 0.077167 -0.028435 -258893.000000 0 0 1
20.958265 32.164542 5.456069 38.775964 0.993300 1.429620 0.078250 -0.033459 -743078.000000 0 0 1
21.944865 31.277742 5.775369 38.642323 0.958989 1.420777 0.066566 -0.038564 -557173.000000 0 0 1
21.384865 30.148342 6.678569 37.561127 0.953842 1.392041 0.081961 -0.041108 691810.000000 0 0 1
20.370765 29.392242 6.000869 36.261307 0.964739 1.404542 0.086922 -0.038331 202280.000000 0 0 1
19.335865 29.001042 6.875569 35.527589 0.982750 1.376040 0.084589 -0.049672 -274160.000000 0 0 1
17.970365 28.978042 6.172369 34.651971 1.015701 1.391716 0.096052 -0.041106 -199046.000000 0 0 1
17.331865 30.279742 6.126469 35.423015 1.050925 1.396971 0.082943 -0.039473 179707.000000 0 0 1
17.715165 31.136742 5.083169 36.182349 1.053523 1.429843 0.086927 -0.037779 -380886.000000 0 0 1
17.449965 32.612342 5.338869 37.370706 1.079486 1.427443 0.081695 -0.032174 47517.600000 0 0 1
16.085165 32.968242 5.408769 37.079541 1.116876 1.424405 0.057633 -0.026766 -239352.000000 0 0 1
15.980465 -34.251467 5.651169 38.216148 -1.134254 1.422378 0.053129 -0.027209 -364125.000000 0 0 1
14.596665 -33.617767 5.821869 37.109447 -1.161163 1.413262 0.034040 -0.023530 -54484.800000 0 0 1
13.793365 -33.671367 4.653569 36.683424 -1.182002 1.443596 0.023488 -0.011741 -843296.000000 0 0 1
12.695565 -32.835267 4.721169 35.519313 -1.201856 1.437483 0.005802 -0.005187 -217510.000000 0 0 1
11.755165 -33.001967 3.464569 35.203934 -1.228612 1.472223 0.011830 -0.001663 -34614.900000 0 0 1
10.868365 -31.924367 3.389869 33.893625 -1.242663 1.470614 0.010485 -0.007865 -242604.000000 0 0 1
10.358365 -31.738867 2.039569 33.448636 -1.255333 1.509782 0.018544 -0.001603 -105366.000000 0 0 1
9.444565 -30.434867 1.982169 31.928200 -1.269898 1.508674 0.024375 -0.002350 433535.000000 0 0 1
8.943265 -29.975667 0.745469 31.290228 -1.280853 1.546970 0.039822 -0.000909 -693753.000000 0 0 1
8.007265 -30.838567 0.227469 31.861972 -1.316755 1.563657 0.033191 -0.001373 -1391540.000000 0 0 1
8.466165 -31.479267 -1.090231 32.616082 -1.308069 1.604229 0.045895 -0.005543 286960.000000 0 0 1
9.650665 -32.270967 -1.019331 33.698512 -1.280210 1.601049 0.041395 -0.010837 88897.600000 0 0 1
9.789465 -33.043267 -2.246331 34.536027 -1.282772 1.635885 0.050041 -0.001161 655047.000000 0 0 1
11.006865 -34.035667 -2.045331 35.829612 -1.258019 1.627912 0.034864 0.002690 597974.000000 0 0 1
10.965465 33.829642 -0.859131 35.572802 1.257344 1.594950 0.022258 0.004478 -63537.900000 0 0 1
12.090965 32.978442 -0.849631 35.135324 1.219382 1.594980 0.037948 -0.000412 -159235.000000 0 0 1
12.265665 32.078342 0.394169 34.345625 1.205584 1.559320 0.022809 -0.001422 -456965.000000 0 0 1
12.588265 32.795842 1.627569 35.166471 1.204301 1.524498 0.028533 -0.006096 -533257.000000 0 0 1
13.855665 33.325542 1.775169 36.134782 1.176772 1.521650 0.041763 -0.006798 -1159950.000000 0 0 1
15.066165 32.416142 1.952869 35.799571 1.135725 1.516219 0.051615 -0.014814 -1065290.000000 0 0 1
15.507165 31.707142 0.870369 35.306835 1.115927 1.546142 0.054232 -0.015716 -347826.000000 0 0 1
16.512965 30.802942 1.222069 34.971313 1.078700 1.535844 0.065801 -0.014322 -429446.000000 0 0 1
17.095165 30.064042 -0.017831 34.584558 1.053766 1.571312 0.059939 -0.008516 -563861.000000 0 0 1
18.086465 30.785542 -0.655931 35.711344 1.039620 1.589165 0.047432 0.003305 -518812.000000 0 0 1
17.616265 31.810242 -1.494231 36.393091 1.065046 1.611866 0.057172 -0.010784 365540.000000 0 0 1
18.775865 32.621142 -2.214731 37.703807 1.048531 1.629570 0.042820 -0.001018 687487.000000 0 0 1
19.603965 33.308442 -1.297331 38.671060 1.038832 1.604350 0.038233 0.008563 964.689000 0 0 1
20.493865 34.150242 -2.003331 39.877950 1.030297 1.621054 0.040561 0.009169 -1199950.000000 0 0 1
21.593865 -33.913467 -1.097331 40.219677 -1.003803 1.598083 0.045246 0.007657 -31954.700000 0 0 1
22.560465 33.804842 -0.528631 40.645066 0.982304 1.583803 0.041795 0.008450 1209080.000000 0 0 1
23.275865 32.882442 -1.387931 40.310635 0.954821 1.605234 0.045438 0.007771 422026.000000 0 0 1
24.239165 33.594742 -2.472231 41.500069 0.945775 1.630403 0.048214 0.001001 -87654.600000 0 0 1
23.557565 34.272342 -3.518731 41.736480 0.968602 1.655205 0.035834 -0.010319 207343.000000 0 0 1
24.482365 -33.681967 -4.346631 41.865909 -0.942264 1.674806 0.043675 -0.008620 384452.000000 0 0 1
23.811165 -33.112667 -5.687531 41.179708 -0.947369 1.709354 0.031626 -0.012159 7422.210000 0 0 1
22.950765 -32.021067 -5.573731 39.788853 -0.948924 1.711341 0.036213 -0.006033 259931.000000 0 0 1
22.377665 -31.716767 -6.879131 39.421259 -0.956357 1.746197 0.038500 -0.010654 634495.000000 0 0 1
21.306865 -30.564867 -6.909431 37.893718 -0.962017 1.754159 0.045994 -0.010619 1167850.000000 0 0 1
20.114865 -30.745467 -6.126131 37.248101 -0.991447 1.736015 0.057735 -0.007009 321198.000000 0 0 1
19.448965 -29.516567 -6.025531 35.858012 -0.988178 1.739636 0.065586 -0.012835 298600.000000 0 0 1
18.247865 -29.589767 -5.021631 35.124859 -1.018191 1.714253 0.057220 -0.007542 736529.000000 0 0 1
17.035865 -30.059267 -5.601831 35.002297 -1.055190 1.731529 0.058302 -0.016292 308086.000000 0 0 1
15.990365 -29.965967 -4.636331 34.280411 -1.080618 1.706459 0.037133 -0.009074 153081.000000 0 0 1
14.659365 -30.618367 -5.007931 34.314148 -1.124271 1.717263 0.039676 -0.009722 -249901.000000 0 0 1
14.712565 -32.006567 -5.114231 35.595439 -1.139927 1.714972 0.032679 0.008813 -642064.000000 0 0 1
13.462965 -32.621667 -5.230331 35.676056 -1.179390 1.717933 0.043201 0.004582 -448637.000000 0 0 1
13.569165 -34.143467 -5.391331 37.134419 -1.192519 1.716495 0.039958 -0.002903 -16140.200000 0 0 1
13.917565 33.783642 -4.184431 36.776930 1.180021 1.684822 0.039821 -0.010309 40717.000000 0 0 1
14.368465 32.429342 -4.386431 35.740115 1.153720 1.693838 0.040300 -0.013448 325913.000000 0 0 1
13.290965 31.401142 -4.912531 34.450174 1.170397 1.713882 0.038068 -0.013938 925258.000000 0 0 1
12.236365 31.092442 -3.999531 33.652115 1.195864 1.689927 0.036849 -0.004600 296505.000000 0 0 1
12.698365 30.190942 -3.009131 32.890673 1.172657 1.662413 0.046630 -0.007712 -541751.000000 0 0 1
11.618765 29.316942 -2.404731 31.626912 1.193470 1.646904 0.031547 -0.000137 -95991.500000 0 0 1
10.596265 29.942842 -1.626031 31.804066 1.230666 1.621945 0.017039 -0.006980 79974.600000 0 0 1
9.987865 28.910242 -0.858531 30.598965 1.238155 1.598858 0.004592 0.004226 -280047.000000 0 0 1
8.869765 29.596742 -0.068931 30.897324 1.279627 1.573027 -0.009460 0.011977 -236829.000000 0 0 1
8.020165 28.750742 0.683169 29.856238 1.298757 1.547912 -0.016084 0.005094 -143963.000000 0 0 1
6.898665 29.531842 1.041469 30.344785 1.341311 1.536468 -0.002686 0.003971 -357442.000000 0 0 1
5.802165 28.729342 1.733969 29.360635 1.371517 1.511704 -0.002828 0.004567 -481050.000000 0 0 1
5.099965 27.857142 0.898369 28.334380 1.389726 1.539085 -0.000603 0.003493 138152.000000 0 0 1
4.073165 27.201142 1.648169 27.553753 1.422158 1.510944 0.003478 -0.001192 -61982.200000 0 0 1
3.386665 26.227342 0.730169 26.455172 1.442380 1.543193 0.010537 -0.005604 -569423.000000 0 0 1
2.205065 25.723342 1.298969 25.850338 1.485283 1.520526 0.033829 -0.008102 -354304.000000 0 0 1
1.674365 24.841742 0.374969 24.900929 1.503497 1.555737 0.030047 -0.007507 872548.000000 0 1 0
0.304565 24.187542 0.840169 24.204046 1.558205 1.536077 0.031507 -0.006406 1278530.000000 0 1 0
-0.882635 24.926942 0.621369 24.950303 -1.535402 1.545889 0.038857 -0.010157 134132.000000 0 1 0
-2.040935 24.114342 0.720269 24.211273 -1.486362 1.541043 0.036014 -0.007708 18376.600000 0 1 0
-3.268735 24.970142 1.099869 25.207189 -1.440631 1.527149 0.056931 -0.016558 -776927.000000 0 0 1
-4.343135 24.177442 1.555769 24.613654 -1.393056 1.507547 0.051161 -0.019894 550941.000000 0 1 0
-5.518435 24.918342 1.925669 25.594631 -1.352853 1.495488 0.057689 -0.017862 463371.000000 0 0 1
-6.465635 25.282742 0.789469 26.108328 -1.320429 1.540554 0.067418 -0.016524 -822503.000000 0 0 1
-6.254935 26.552742 0.296669 27.281136 -1.339448 1.559922 0.066704 -0.023413 5741.120000 0 0 1
-7.089835 26.738942 -0.815931 27.674944 -1.311610 1.600283 0.058039 -0.019578 -196165.000000 0 0 1
-6.858435 28.014042 -1.558231 28.883435 -1.330698 1.624771 0.055991 -0.017243 525268.000000 0 0 1
-7.588235 29.155442 -0.995831 30.143205 -1.316177 1.603839 0.070362 -0.025279 458730.000000 0 0 1
-7.574835 30.174542 -1.967631 31.172948 -1.324845 1.633958 0.066273 -0.026319 -310906.000000 0 0 1
-7.497635 31.588942 -1.382131 32.495940 -1.337759 1.613342 0.055850 -0.025116 -468978.000000 0 0 1
-7.480035 32.657442 -2.345031 33.585096 -1.345635 1.640677 0.045288 -0.017017 -23204.000000 0 0 1
-6.357635 32.668642 -3.197531 33.434771 -1.378589 1.666578 0.034403 -0.012816 1296970.000000 0 0 1
-4.918235 33.130042 -2.690831 33.601032 -1.423420 1.650964 0.042229 -0.029627 725636.000000 0 0 1
-4.865535 -34.074967 -2.678031 34.524610 1.428966 1.648443 0.040054 -0.027016 -25740.500000 0 0 1
-3.980535 -33.606567 -1.695331 33.883922 1.452900 1.620851 0.038042 -0.023524 -113660.000000 0 0 1
-3.989735 -32.064567 -1.651131 32.353991 1.447004 1.621852 0.041671 -0.029242 -310304.000000 0 0 1
-5.200035 -31.517467 -1.222631 31.966951 1.407280 1.609052 0.036998 -0.024031 -444124.000000 0 0 1
-5.344535 -30.361067 -1.989831 30.892036 1.396549 1.635253 0.040403 -0.014512 85075.900000 0 0 1
-6.758435 -29.785267 -1.746431 30.592297 1.347669 1.627915 0.054633 -0.010392 56553.000000 0 0 1
-6.863235 -29.155267 -0.491031 29.956214 1.339603 1.587189 0.041073 -0.004576 819610.000000 0 0 1
-8.224635 -28.782067 -0.191131 29.934738 1.292459 1.577181 0.018102 -0.002195 959934.000000 0 0 1
-8.260135 -28.030767 1.190169 29.246714 1.284226 1.530091 0.035370 -0.000092 -117392.000000 0 0 1
-7.492335 -26.872967 1.316369 27.928915 1.298895 1.523646 0.034973 -0.004994 -431726.000000 0 0 1
-7.227535 -26.484867 2.642969 27.580260 1.304390 1.474821 0.048426 0.007994 924152.000000 0 0 1
-8.412235 -25.645767 3.262269 27.186642 1.253839 1.450511 0.034203 0.009263 1098490.000000 0 0 1
-7.916835 -24.331967 3.326769 25.802874 1.256232 1.441506 0.028620 0.004179 -381965.000000 0 0 1
-8.854535 -23.463067 3.874769 25.375818 1.209939 1.417501 0.034242 0.004344 78151.100000 0 0 1
-8.218235 -22.066867 4.225869 23.923712 1.214286 1.393225 0.004617 0.013458 348068.000000 0 1 0
-7.556835 -22.057967 5.453469 23.945772 1.240738 1.341038 0.005727 0.006875 -303814.000000 0 1 0
-6.864235 -20.837967 5.706769 22.669491 1.252581 1.316321 -0.011261 0.011917 93543.400000 0 1 0
-7.766335 -19.670067 6.200669 22.038054 1.194755 1.285583 -0.000466 0.002913 111179.000000 0 1 0
-8.077435 -19.815867 7.570769 22.698681 1.183734 1.230747 0.001267 -0.002009 -11167.500000 0 1 0
-9.116935 -18.947967 7.978269 22.489926 1.122337 1.208151 0.006484 -0.005549 -1164660.000000 0 1 0
-27.091215 28.959642 -6.508531 40.186513 -0.818720 1.733471 0.066371 -0.019189 -68654.200000 0 0 1
-26.425715 29.722642 -5.560831 40.158147 -0.844049 1.709716 0.049227 -0.022323 -621280.000000 0 0 1
-25.355535 29.015042 -5.006131 38.856624 -0.852604 1.699991 0.033854 -0.014433 -469999.000000 0 0 1
-24.677835 29.927642 -3.970431 38.992610 -0.881244 1.672798 0.025600 -0.010688 -201065.000000 0 0 1
-25.399415 30.042842 -2.757231 39.437355 -0.868956 1.640768 0.029524 -0.019744 116905.000000 0 0 1
-24.842835 31.015242 -1.899831 39.783427 -0.895453 1.618569 0.028961 -0.009167 42782.900000 0 0 1
-23.632535 30.658342 -1.011331 38.722777 -0.914093 1.596917 0.021562 0.001876 473026.000000 0 0 1
-22.461135 30.462842 -1.804531 37.891209 -0.935454 1.618438 0.039259 -0.014994 732273.000000 0 0 1
-21.268335 30.428942 -1.008431 37.138653 -0.960775 1.597953 0.043965 -0.012623 1058270.000000 0 0 1
-19.968335 30.050842 -1.776131 36.123983 -0.984306 1.619984 0.036211 -0.017556 1488580.000000 0 0 1
-18.742335 29.985042 -1.002831 35.374900 -1.012157 1.599149 0.049744 -0.014045 1212330.000000 0 0 1
-17.651435 29.434342 -1.763031 34.366582 -1.030606 1.622120 0.055830 -0.018972 104873.000000 0 0 1
-16.318835 29.963542 -1.267431 34.142710 -1.072091 1.607926 0.056841 -0.022600 -714740.000000 0 0 1
-15.868635 29.378742 -0.087431 33.390593 -1.075555 1.573415 0.050993 -0.014208 -353173.000000 0 0 1
-14.696635 30.038942 0.332769 33.443084 -1.115783 1.560846 0.053262 -0.014523 75878.100000 0 0 1
-14.099935 29.294842 1.548869 32.548348 -1.122211 1.523192 0.065322 -0.012277 218352.000000 0 0 1
-14.988435 29.375342 2.676969 33.086706 -1.098991 1.489800 0.041251 -0.005033 137931.000000 0 0 1
-14.593635 28.608742 3.794569 32.339343 -1.099093 1.453189 0.050600 -0.013241 1190280.000000 0 0 1
-13.305935 29.055542 4.642769 32.292844 -1.141352 1.426526 0.064982 -0.013490 1232830.000000 0 0 1
-13.398235 30.274042 5.374469 33.539756 -1.154142 1.409861 0.054754 -0.013443 -328685.000000 0 0 1
-13.320935 31.499642 4.666469 34.517397 -1.170713 1.435189 0.071078 -0.014509 -264965.000000 0 0 1
-13.094335 32.814642 5.510569 35.757919 -1.191118 1.416072 0.062513 -0.002785 -355590.000000 0 0 1
-14.170435 33.303042 6.254069 36.728834 -1.168502 1.399686 0.052085 0.005647 -249139.000000 0 0 1
-13.734735 34.297442 7.195669 37.639542 -1.189894 1.378439 0.065857 -0.005967 -680451.000000 0 0 1
-14.795335 -33.756867 8.064169 37.728754 1.157722 1.355394 0.047007 -0.000671 -581367.000000 0 0 1
-15.131835 33.978942 9.119569 38.297617 -1.151833 1.330363 0.035617 -0.001275 -105055.000000 0 0 1
-16.292235 34.301542 9.853469 39.231666 -1.127372 1.316917 0.042577 -0.004407 -294646.000000 0 0 1
-16.570535 33.330742 11.064469 38.832248 -1.109428 1.281863 0.043278 -0.007584 186224.000000 0 0 1
-15.848135 33.570142 12.254269 39.093285 -1.129725 1.251959 0.043385 -0.007004 889216.000000 0 0 1
-14.453535 33.201142 12.255269 38.228421 -1.160207 1.244455 0.047236 -0.006118 843686.000000 0 0 1
-13.654035 33.512442 13.541669 38.637977 -1.183900 1.212717 0.044336 -0.002936 -217297.000000 0 0 1
-13.974835 32.683442 14.695669 38.463829 -1.166741 1.178767 0.044133 0.001235 -161853.000000 0 0 1
-13.471935 31.355642 14.712469 37.163505 -1.164994 1.163765 0.031948 0.000530 -802675.000000 0 0 1
-14.156735 30.207742 14.051469 36.198959 -1.132545 1.172148 0.037567 -0.003916 -448216.000000 0 0 1
-13.896635 30.155042 12.610269 35.517065 -1.138965 1.207831 0.032545 -0.001170 946409.000000 0 0 1
-15.056135 29.669442 11.908069 35.337871 -1.101196 1.227091 0.028278 0.002811 665194.000000 0 0 1
-14.843135 29.796742 10.339669 34.857901 -1.108633 1.269641 0.023242 0.008050 -84749.700000 0 0 1
-14.134135 28.620242 9.979969 33.443861 -1.112080 1.267770 0.015918 0.006612 142538.000000 0 0 1
-14.137435 28.408842 8.580169 32.871701 -1.109037 1.306718 0.027896 0.007639 -201240.000000 0 0 1
-13.459635 27.063442 8.111069 31.295066 -1.109282 1.308623 0.032610 0.001680 140537.000000 0 0 1
-12.077435 27.079442 8.413469 30.821212 -1.151274 1.294311 0.022244 -0.002787 116050.000000 0 0 1
-11.480435 25.842842 8.091569 29.413031 -1.152742 1.292101 0.032722 -0.003016 483875.000000 0 0 1
-10.273535 25.998842 7.090969 28.840374 -1.194475 1.322380 0.055299 -0.013212 142345.000000 0 0 1
-10.688335 26.191542 5.764969 28.869920 -1.183341 1.369757 0.064015 -0.014623 -479417.000000 0 0 1
-9.633335 26.319442 4.900269 28.452185 -1.219925 1.397705 0.081480 -0.012092 -1041610.000000 0 0 1
-9.991135 26.592542 3.390269 28.609090 -1.211402 1.452014 0.088120 -0.018679 -69088.600000 0 0 1
-10.161035 27.944242 3.164469 29.902194 -1.222041 1.464770 0.090562 -0.019395 159845.000000 0 0 1
-10.144335 28.180942 1.760969 30.002901 -1.225266 1.512069 0.089425 -0.017282 47164.500000 0 0 1
-9.760635 29.628742 1.387669 31.225919 -1.252562 1.526342 0.098002 -0.021753 -437249.000000 0 0 1
-10.723935 30.564142 1.712769 32.436140 -1.233350 1.517967 0.091702 -0.026153 -412662.000000 0 0 1
-10.283535 31.891342 1.439869 33.539261 -1.258868 1.527852 0.087649 -0.030612 253519.000000 0 0 1
-11.074435 32.956142 2.285469 34.842127 -1.246616 1.505154 0.080358 -0.027584 372979.000000 0 0 1
-12.415835 33.247242 1.983069 35.545248 -1.213394 1.514977 0.074950 -0.028596 -344950.000000 0 0 1
-12.488335 34.226842 0.946169 36.446269 -1.220937 1.544833 0.071619 -0.025168 194623.000000 0 0 1
-13.884535 -33.988967 0.381869 36.717517 1.182983 1.560396 0.083820 -0.028346 633715.000000 0 0 1
-14.533135 33.609242 -0.379131 36.618806 -1.162662 1.581150 0.072344 -0.028394 123211.000000 0 0 1
-14.353035 33.728542 -1.772431 36.698307 -1.168464 1.619112 0.075033 -0.030595 430997.000000 0 0 1
-12.986435 33.221942 -2.345431 35.746972 -1.198160 1.636456 0.065883 -0.024205 509498.000000 0 0 1
-12.893335 31.832642 -2.465931 34.433066 -1.185957 1.642473 0.067051 -0.022802 -58408.000000 0 0 1
-11.515935 31.533942 -2.400631 33.656639 -1.220652 1.642184 0.055088 -0.011968 38583.900000 0 0 1
-11.331935 30.046042 -2.609631 32.217815 -1.210140 1.651885 0.057705 -0.017827 -188349.000000 0 0 1
-11.540235 29.606442 -3.952931 32.020995 -1.199124 1.694560 0.053022 -0.016711 472739.000000 0 0 1
-10.429235 29.747442 -4.886331 31.899146 -1.233594 1.724582 0.042987 -0.019561 657162.000000 0 0 1
-10.690235 29.071542 -6.206331 31.590414 -1.218422 1.768545 0.046015 -0.013978 -206680.000000 0 0 1
-10.878735 27.679542 -6.188731 30.377695 -1.196318 1.775959 0.041555 -0.004607 -14293.300000 0 0 1
-10.953035 27.159342 -7.501031 30.230189 -1.187459 1.821546 0.028582 -0.001499 -93561.600000 0 0 1
-11.318135 25.667642 -7.594331 29.062036 -1.155494 1.835180 0.056601 -0.013016 -202881.000000 0 0 1
-10.466635 24.895342 -6.808931 27.851213 -1.172807 1.817775 0.036906 -0.010717 -313259.000000 0 0 1
-10.867935 23.531442 -6.834031 26.805686 -1.138134 1.828589 0.053611 -0.014451 -241868.000000 0 0 1
-10.216635 22.476042 -5.927631 25.390725 -1.144160 1.806427 0.049232 -0.016153 -414535.000000 0 0 1
-8.853835 22.187542 -6.203631 24.681217 -1.191113 1.824871 0.040298 -0.020300 220577.000000 0 1 0
-8.476935 20.926342 -5.711231 23.289234 -1.185915 1.818554 0.052609 -0.019909 -386959.000000 0 1 0
-8.255035 20.823442 -4.169031 22.784692 -1.193371 1.754808 0.054860 -0.029515 -346629.000000 0 1 0
-9.393235 20.722542 -3.333131 22.994921 -1.145213 1.716260 0.062928 -0.028951 -35424.400000 0 1 0
-10.092235 19.488442 -3.379731 22.205296 -1.092965 1.723594 0.065980 -0.032059 587153.000000 0 1 0
-11.503235 19.608942 -2.689031 22.892486 -1.040264 1.688532 0.066917 -0.029650 492731.000000 0 1 0
-11.476735 19.569242 -1.289031 22.722947 -1.040386 1.627555 0.069315 -0.026339 48367.200000 0 1 0
-11.043235 18.425642 -0.639531 21.491076 -1.030862 1.600559 0.061605 -0.022003 -433045.000000 0 1 0
-10.897635 18.595742 0.909769 21.572848 -1.040713 1.528612 0.057675 -0.012050 -104979.000000 0 1 0
-12.092635 18.350942 1.613969 22.036193 -0.988144 1.497489 0.065590 -0.024548 227039.000000 0 1 0
-11.842935 18.455042 3.028669 22.136317 -1.000265 1.433547 0.062028 -0.022505 331798.000000 0 1 0
-13.171835 18.465342 3.833569 23.003529 -0.951182 1.403364 0.054052 -0.022375 318997.000000 0 1 0
-13.766435 17.193542 4.020669 22.389694 -0.895644 1.390240 0.041292 -0.019448 -853064.000000 0 1 0
-14.982935 17.331042 4.632369 23.373323 -0.857936 1.371285 0.044721 -0.027426 -1153620.000000 0 1 0
-15.479335 16.007542 5.279269 22.884971 -0.802172 1.338013 0.033548 -0.017795 -853183.000000 0 1 0
-14.691835 15.458742 6.252869 22.224336 -0.810829 1.285593 0.031150 -0.014077 -485030.000000 0 1 0
-14.951835 16.013442 7.525969 23.165231 -0.819669 1.239909 0.023138 -0.011448 -757727.000000 0 1 0
-13.909735 15.850742 8.662169 22.798244 -0.850527 1.181055 0.017002 -0.002287 414214.000000 0 1 0
-12.791335 16.718942 8.635069 22.753147 -0.917713 1.181529 0.025930 -0.017456 842094.000000 0 1 0
-11.777235 16.416442 7.636169 21.598933 -0.948485 1.209439 0.025752 -0.015435 440126.000000 0 1 0
-10.674835 17.510842 7.541169 21.850651 -1.023339 1.218426 0.043784 -0.019826 622635.000000 0 1 0
-9.659935 17.521142 8.543569 21.755398 -1.066932 1.167220 0.038908 -0.012695 626999.000000 0 1 0
-8.736635 18.612542 8.370969 22.199744 -1.131931 1.184160 0.032336 -0.021708 85812.800000 0 1 0
-7.570235 18.571042 9.376669 22.138518 -1.183724 1.133441 0.024435 -0.019354 206162.000000 0 1 0
-6.500735 17.698542 8.859969 20.832595 -1.218790 1.131510 0.016114 -0.018894 1308510.000000 0 1 0
-5.299935 17.817742 9.657169 20.948083 -1.281678 1.091669 0.013637 -0.021027 360077.000000 0 1 0
-4.393435 18.904442 9.136769 21.451358 -1.342448 1.130807 0.011709 -0.023674 -1846190.000000 0 1 0
-4.875835 20.239842 9.335069 22.815970 -1.334398 1.149278 0.019520 -0.028029 -122194.000000 0 1 0
-4.293135 21.228242 8.535069 23.279104 -1.371251 1.195401 0.027385 -0.026206 -831535.000000 0 1 0
-2.861635 21.702942 8.687569 23.551656 -1.439698 1.193000 0.034447 -0.020630 -1047390.000000 0 1 0
-1.930135 20.831042 8.159569 22.455207 -1.478403 1.198913 0.020208 -0.010461 -502590.000000 0 1 0
-0.665635 21.463942 8.049069 22.933194 -1.539794 1.212180 0.011195 -0.011906 150988.000000 0 1 0
0.531965 20.535142 7.830169 21.983781 1.544897 1.206620 -0.000900 -0.007927 83895.000000 0 1 0
0.927865 20.016342 9.077169 21.997952 1.524474 1.145449 0.002719 -0.011350 -834694.000000 0 1 0
2.247565 19.566142 9.087869 21.690432 1.456427 1.138474 0.001674 -0.014333 -403651.000000 0 1 0
2.694665 18.853842 10.371169 21.686165 1.428834 1.072148 -0.003534 -0.036129 -51452.000000 0 1 0
4.062765 18.560342 10.564369 21.739325 1.355300 1.063339 0.024500 -0.016951 106146.000000 0 1 0
4.330165 18.248442 11.929969 22.227914 1.337816 1.004262 0.017368 -0.017419 -99613.600000 0 1 0
5.816565 18.074142 12.260669 22.601572 1.259446 0.997422 0.027453 -0.017830 -464003.000000 0 1 0
6.576565 17.196342 11.499269 21.707109 1.205519 1.012494 0.021023 -0.018055 -201074.000000 0 1 0
7.715365 16.822042 12.253869 22.196064 1.140776 0.985947 0.030783 -0.009940 763496.000000 0 1 0
8.967065 16.182542 11.525669 21.797339 1.064796 1.013652 0.032942 -0.014415 681095.000000 0 1 0
9.848865 17.139642 11.026569 22.635209 1.049244 1.061982 0.041380 -0.023555 -36777.900000 0 1 0
10.917665 16.552442 10.295569 22.342281 0.987716 1.091888 0.039086 -0.022684 198422.000000 0 1 0
11.892365 17.560942 9.664269 23.306933 0.975533 1.143236 0.039016 -0.009821 -281388.000000 0 1 0
13.014565 17.005142 9.035669 23.242140 0.917555 1.171508 0.042151 -0.007234 -492561.000000 0 1 0
13.765265 18.035442 8.463869 24.215631 0.918879 1.213737 0.036446 -0.001408 -245459.000000 0 1 0
14.799965 17.512942 7.440769 24.106164 0.869161 1.257005 0.030359 -0.013020 -160919.000000 0 1 0
15.832365 16.850642 8.141669 24.513154 0.816544 1.232230 0.036341 -0.011737 -377464.000000 0 1 0
16.849665 16.469242 7.268969 24.657353 0.773981 1.271551 0.056041 -0.010663 208286.000000 0 1 0
18.250565 16.294142 7.960069 25.728290 0.728824 1.256245 0.039350 -0.006642 303319.000000 0 0 1
18.377065 15.240642 8.874369 25.470534 0.692371 1.214915 0.038246 0.003548 326439.000000 0 0 1
19.531665 15.441342 9.687769 26.716547 0.668971 1.199726 0.037173 0.001589 50311.300000 0 0 1
19.999665 14.315542 10.620569 26.790256 0.621244 1.163167 0.038385 0.002960 -265318.000000 0 0 1
20.645265 13.268042 9.986169 26.495122 0.571203 1.184343 0.039966 -0.001001 29244.800000 0 0 1
20.834065 12.126942 10.799569 26.414990 0.527133 1.149611 0.051357 -0.016264 -380854.000000 0 0 1
21.765865 11.080042 10.195469 26.466352 0.470866 1.175346 0.057146 -0.011948 -1538210.000000 0 0 1
23.114665 11.385742 10.170569 27.701324 0.457691 1.194852 0.058898 -0.019509 -184403.000000 0 0 1
23.907365 10.539742 9.325469 27.741893 0.415225 1.227969 0.068865 -0.022136 -7363.100000 0 0 1
24.091665 9.056542 9.696569 27.503686 0.359577 1.210496 0.077536 -0.027296 -1022150.000000 0 0 1
22.936765 8.278542 9.528469 26.180549 0.346378 1.198289 0.070112 -0.022399 44179.600000 0 0 1
22.966265 6.920842 9.986169 25.982128 0.292693 1.176295 0.073199 -0.016052 -147752.000000 0 0 1
23.923265 5.952542 9.255169 26.332746 0.243866 1.211656 0.087811 -0.019331 264888.000000 0 0 1
23.480865 5.740342 7.926969 25.438934 0.239766 1.253912 0.063478 -0.010324 559414.000000 0 0 1
24.582965 5.382042 7.106569 26.149414 0.215533 1.295567 0.071273 -0.007624 129595.000000 0 0 1
24.227265 5.126342 5.632369 25.396128 0.208518 1.347156 0.065238 -0.012508 -516945.000000 0 0 1
23.582965 3.900242 5.471169 24.521456 0.163900 1.345785 0.077672 -0.013837 371995.000000 0 1 0
23.490965 3.585342 4.086169 24.111758 0.151458 1.400507 0.083000 -0.014273 70526.800000 0 1 0
22.657865 2.228342 3.793269 23.081015 0.098032 1.405702 0.092159 -0.010913 38315.100000 0 1 0
23.191665 1.031542 4.288369 23.607361 0.044450 1.388128 0.092981 -0.009996 151115.000000 0 1 0
22.425165 -0.098258 3.893869 22.760929 -0.004382 1.398874 0.074498 -0.010179 -159533.000000 0 1 0
22.948465 -1.501158 4.314169 23.398666 -0.065321 1.385359 0.076497 -0.009283 -364673.000000 0 1 0
22.858165 -1.778158 5.757269 23.639029 -0.077635 1.324773 0.073906 -0.009537 828765.000000 0 1 0
22.436365 -3.132158 6.031969 23.443241 -0.138705 1.310568 0.045184 -0.010088 -674789.000000 0 1 0
22.298765 -3.394058 7.563369 23.789895 -0.151049 1.247258 0.071975 -0.012414 -196629.000000 0 1 0
22.211665 -4.777158 7.823269 24.028792 -0.211847 1.239172 0.056720 -0.017580 495338.000000 0 1 0
22.285465 -5.142258 9.173069 24.642036 -0.226776 1.189361 0.080217 -0.022973 -277902.000000 0 1 0
22.122165 -6.678358 9.277369 24.901008 -0.293186 1.189019 0.083200 -0.029001 -485240.000000 0 1 0
20.801165 -7.011058 8.988969 23.720138 -0.325093 1.182125 0.074426 -0.023102 -261505.000000 0 1 0
20.519565 -8.332758 9.388069 24.054589 -0.385744 1.169859 0.071842 -0.024474 -175540.000000 0 1 0
-25.965625 -33.034267 4.891469 42.301335 0.904638 1.454903 0.019940 -0.003695 185343.000000 0 0 1
-26.901725 -34.038367 5.267169 43.704191 0.901976 1.449984 0.019055 0.000620 246785.000000 0 0 1
-26.800385 -34.232767 6.714669 43.991247 0.906578 1.417561 0.011424 0.019147 -417858.000000 0 0 1
-27.501055 33.190242 7.315669 43.719781 -0.878865 1.402675 0.016081 0.007248 -259319.000000 0 0 1
-28.898665 33.313942 7.375669 44.714115 -0.856250 1.405087 0.030571 -0.001741 -326634.000000 0 0 1
-29.504055 32.033442 7.278869 44.154418 -0.826478 1.405190 0.046478 -0.009238 509349.000000 0 0 1
-31.032225 32.100242 7.588469 45.288071 -0.802314 1.402442 0.068241 -0.015711 276542.000000 0 0 1
-31.787355 32.539042 6.477669 45.947638 -0.797083 1.429346 0.054264 -0.015132 267497.000000 0 0 1
-33.157105 32.621242 6.886969 47.020947 -0.777252 1.423802 0.046994 -0.015990 634802.000000 0 0 1
-34.087505 32.586342 5.627069 47.492016 -0.762887 1.452033 0.049795 -0.006124 -147307.000000 0 0 1
-33.956195 31.340642 5.000269 46.478616 -0.745363 1.463006 0.046960 -0.008898 259993.000000 0 0 1
-34.596182 31.314742 3.743469 46.813700 -0.735653 1.490746 0.050236 0.000588 -100054.000000 0 0 1
-34.336208 30.001642 2.887069 45.688170 -0.718128 1.507563 0.051146 -0.001969 36170.100000 0 0 1
-34.653041 28.769642 3.516869 45.176254 -0.692898 1.492870 0.070671 -0.013254 527308.000000 0 0 1
-34.167264 27.696942 2.650069 44.062971 -0.681188 1.510617 0.056955 0.001297 -36491.100000 0 0 1
-34.398424 26.367642 3.380369 43.473337 -0.654001 1.492960 0.082069 -0.007384 519347.000000 0 0 1
-35.788899 26.032842 3.387069 44.384980 -0.628879 1.494411 0.077843 -0.005042 338799.000000 0 0 1
35.990925 25.064742 4.335269 44.072469 0.608318 1.472270 0.086009 -0.012853 1092180.000000 0 0 1
34.447325 24.737942 4.250069 42.622143 0.622796 1.470915 0.082189 -0.014090 670772.000000 0 0 1
33.973555 23.915242 3.212969 41.670906 0.613363 1.493616 0.065572 -0.003141 176558.000000 0 0 1
34.448825 22.559442 3.198869 41.302333 0.579790 1.493269 0.055266 -0.003610 -97990.800000 0 0 1
33.489575 21.680842 2.320969 39.962450 0.574539 1.512685 0.048431 -0.007352 1559260.000000 0 0 1
32.178405 21.374942 2.870369 38.737281 0.586337 1.496630 0.056640 -0.021790 1356080.000000 0 0 1
32.216145 20.291042 3.880969 38.270985 0.562073 1.469214 0.043774 -0.000793 -171339.000000 0 0 1
32.618365 18.853342 3.386169 37.826874 0.524084 1.481159 0.033834 -0.008642 323244.000000 0 0 1
31.654755 18.376142 2.427069 36.682377 0.525971 1.504584 0.034076 -0.015795 776250.000000 0 0 1
31.960565 17.131242 1.822969 36.308131 0.492040 1.520567 0.024555 -0.008905 -284740.000000 0 0 1
31.664195 15.920742 2.756569 35.548417 0.465885 1.493174 0.042101 -0.011592 324971.000000 0 0 1
30.268215 15.731142 2.948369 34.239254 0.479303 1.484579 0.059740 -0.006831 337771.000000 0 0 1
29.979855 14.758242 3.922269 33.644934 0.457446 1.453952 0.088485 -0.020242 405337.000000 0 0 1
28.470885 14.809342 4.340169 32.384332 0.479643 1.436371 0.087119 -0.017756 805724.000000 0 0 1
27.680995 14.392642 3.215669 31.364409 0.479477 1.468090 0.071626 -0.020406 688093.000000 0 0 1
26.389705 15.009742 3.153269 30.522975 0.517142 1.467304 0.051994 -0.009378 1038890.000000 0 0 1
25.475405 14.562342 1.941569 29.407954 0.519293 1.504726 0.048308 -0.013900 61586.700000 0 0 1
25.685705 15.138542 0.676469 29.822617 0.532571 1.548111 0.051931 -0.011982 635903.000000 0 0 1
26.627305 14.470242 -0.180831 30.305676 0.497790 1.576763 0.053837 -0.007729 -578258.000000 0 0 1
26.764405 15.296642 -1.511531 30.864305 0.519222 1.619789 0.052030 -0.007418 -65505.500000 0 0 1
27.410445 16.560242 -1.449531 32.057374 0.543471 1.616029 0.037224 -0.008623 -396400.000000 0 0 1
28.683665 16.562142 -0.928731 33.134872 0.523641 1.598829 0.043717 -0.013573 -1608880.000000 0 0 1
29.246725 17.968642 -0.687931 34.332437 0.550927 1.590835 0.046048 -0.002406 -129145.000000 0 0 1
29.650645 18.667442 -1.854931 35.086677 0.561886 1.623688 0.026474 0.005973 623879.000000 0 0 1
30.446555 19.803442 -1.474331 36.350277 0.576680 1.611366 0.020792 0.017215 241866.000000 0 0 1
30.581705 20.770042 -2.664731 37.063946 0.596606 1.642754 0.021887 0.010831 -168255.000000 0 0 1
31.512685 21.792542 -2.455931 38.392653 0.605031 1.634809 -0.015640 0.022187 -49851.900000 0 0 1
31.443145 22.693342 -3.540131 38.938306 0.625159 1.661838 -0.000513 0.015331 9419.410000 0 0 1
32.485525 23.851842 -3.484631 40.451976 0.633332 1.657046 -0.015956 0.019704 -213881.000000 0 0 1
32.398925 24.656542 -2.334431 40.780939 0.650523 1.628071 0.004688 0.017606 30227.100000 0 0 1
33.026465 24.155842 -1.186031 40.934811 0.631496 1.599774 0.018761 0.027597 -440726.000000 0 0 1
32.738115 24.955442 0.117269 41.165180 0.651311 1.567948 0.018588 0.008754 -2306.930000 0 0 1
33.217675 26.294042 0.148069 42.365227 0.669578 1.567301 0.027755 0.014146 589287.000000 0 0 1
34.538725 26.466942 0.679969 43.518788 0.653850 1.555171 0.046034 0.003107 936140.000000 0 0 1
35.244455 27.817542 0.245769 44.900419 0.668167 1.565323 0.036504 0.002231 -73041.900000 0 0 1
35.672535 27.931842 -1.137431 45.321201 0.664293 1.595896 0.026062 0.007385 218824.000000 0 0 1
34.693925 27.981042 -2.168131 44.624074 0.678699 1.619402 0.021933 0.002564 -188496.000000 0 0 1
35.238965 27.477542 -3.528231 44.824640 0.662270 1.649590 0.025020 -0.000517 435184.000000 0 0 1
-35.899704 28.301742 -4.095331 45.897158 -0.667600 1.660144 0.013777 0.001271 360750.000000 0 0 1
-35.537594 27.822742 -5.415231 45.457126 -0.664233 1.690208 0.018472 -0.005770 449505.000000 0 0 1
35.558745 27.968442 -6.554531 45.712361 0.666481 1.714679 0.021072 -0.008242 -469781.000000 0 0 1
34.419785 27.236142 -6.464431 44.365729 0.669409 1.717025 0.020132 0.003647 -1183900.000000 0 0 1
33.483515 27.467542 -7.506631 43.954080 0.687015 1.742421 0.010720 -0.003054 322593.000000 0 0 1
32.256535 26.525742 -7.357931 42.405639 0.688213 1.745192 -0.000259 0.015683 -369853.000000 0 0 1
32.340955 25.143942 -7.696131 41.681958 0.660848 1.756501 0.002116 0.012506 -378593.000000 0 0 1
33.422275 24.442042 -7.119231 42.013633 0.631432 1.741068 0.005550 0.009054 40113.900000 0 0 1
33.301555 22.894842 -7.458631 41.094994 0.602288 1.753305 0.001991 0.017295 221596.000000 0 0 1
32.428915 22.073542 -6.692431 39.795281 0.597638 1.739771 -0.012761 0.026752 279373.000000 0 0 1
32.722865 20.705942 -6.823331 39.320221 0.564165 1.745212 0.014229 0.012814 -220346.000000 0 0 1
31.711515 19.876142 -6.012731 37.905595 0.559878 1.730093 0.024379 0.008588 221043.000000 0 0 1
30.422885 19.911542 -6.599331 36.953655 0.579527 1.750343 0.023957 0.002165 -1799.500000 0 0 1
29.499945 19.104842 -5.904631 35.638552 0.574702 1.737245 0.044114 -0.005025 222255.000000 0 0 1
28.252485 18.795642 -6.783131 34.604767 0.587038 1.768091 0.026433 -0.008261 201787.000000 0 0 1
28.427625 17.748542 -7.701231 34.386764 0.558126 1.796671 0.028695 -0.010155 -211302.000000 0 0 1
27.253325 17.645342 -8.445731 33.547462 0.574585 1.825289 0.033958 -0.011615 -305053.000000 0 0 1
27.398255 16.534742 -9.537031 33.391871 0.542986 1.860439 0.042084 -0.008847 152124.000000 0 0 1
26.378205 16.583842 -10.526331 32.888253 0.561252 1.896593 0.048608 -0.010040 307405.000000 0 0 1
26.599505 15.607242 -11.526631 32.923895 0.530619 1.928473 0.053815 -0.010354 325.842000 0 0 1
25.865405 15.878142 -12.882931 32.971267 0.550560 1.972223 0.054195 -0.003075 -755468.000000 0 0 1
24.510405 15.575842 -12.907931 31.780206 0.566099 1.989047 0.046791 -0.001564 -614013.000000 0 0 1
23.901305 15.780542 -14.159531 31.949808 0.583539 2.029940 0.045768 -0.010834 -229079.000000 0 0 1
23.776605 14.353142 -14.854531 31.495979 0.543111 2.061938 0.047170 -0.013563 -85263.800000 0 0 1
25.042805 13.824742 -15.240431 32.411978 0.504412 2.060325 0.056899 -0.018363 468270.000000 0 0 1
25.401505 14.244542 -16.531431 33.487783 0.511079 2.087085 0.061092 -0.024529 -147106.000000 0 0 1
26.778705 13.681742 -16.982631 34.535472 0.472344 2.084889 0.074189 -0.020219 281632.000000 0 0 1
26.792205 12.298842 -17.203131 34.132557 0.430351 2.099031 0.078360 -0.025887 286260.000000 0 0 1
28.116045 11.919642 -17.534231 35.214189 0.400976 2.092008 0.071480 -0.019958 300246.000000 0 0 1
28.224505 10.405742 -17.850731 34.979290 0.353216 2.106356 0.055368 -0.012142 -510363.000000 0 0 1
27.513705 9.961842 -18.953331 34.863606 0.347385 2.145567 0.059618 -0.015951 7515.990000 0 0 1
28.053475 8.787542 -19.584431 35.323764 0.303561 2.158470 0.046910 -0.013061 844162.000000 0 0 1
29.481365 8.874342 -20.240331 36.845296 0.292388 2.152362 0.039365 -0.006308 -148795.000000 0 0 1
29.463405 9.669742 -21.438231 37.698725 0.317119 2.175688 0.043261 -0.013561 306841.000000 0 0 1
30.137275 9.115342 -22.560131 38.733762 0.293713 2.192525 0.028346 -0.009111 1344680.000000 0 0 1
31.642175 8.561142 -22.414631 39.710654 0.264235 2.170562 0.018920 -0.006679 786442.000000 0 0 1
32.560715 9.599742 -22.416531 40.679922 0.286703 2.154414 0.024482 -0.008486 -78064.300000 0 0 1
33.880025 9.068642 -22.520131 41.680363 0.261538 2.141597 0.008288 -0.005423 430541.000000 0 0 1
35.005745 10.112842 -22.376331 42.759466 0.281234 2.121524 0.026723 -0.012161 -267673.000000 0 0 1
35.075885 10.739842 -21.129531 42.333426 0.297125 2.093381 0.018031 -0.016085 780788.000000 0 0 1
36.043645 11.811042 -21.043131 43.375781 0.316660 2.077314 -0.000624 -0.013299 392679.000000 0 0 1
35.849845 12.545742 -19.661331 42.768855 0.336632 2.048467 -0.001596 -0.009280 -145510.000000 0 0 1
-36.016677 11.760142 -18.541631 42.181679 -0.315605 2.025912 -0.000572 -0.007766 287332.000000 0 0 1
35.874735 12.496442 -17.358531 41.766928 0.335191 1.999404 0.016456 -0.013169 -177521.000000 0 0 1
-35.768000 11.720242 -16.120331 40.946050 -0.316649 1.975446 0.006569 -0.008934 -325812.000000 0 0 1
35.613735 10.557442 -15.854631 40.387709 0.288190 1.974211 0.013282 -0.014440 386508.000000 0 0 1
-35.863307 9.638142 -15.063631 40.074725 -0.262543 1.956152 0.018107 -0.020918 176156.000000 0 0 1
35.448885 8.335942 -14.932131 39.358352 0.230958 1.959932 0.052942 -0.020210 -108476.000000 0 0 1
34.322145 8.433742 -14.113331 38.056849 0.240949 1.950719 0.075267 -0.021888 -108133.000000 0 0 1
34.449585 8.260442 -12.730031 37.643890 0.235340 1.915768 0.069742 -0.022352 -1107680.000000 0 0 1
33.325795 8.878342 -11.929731 36.493178 0.260363 1.903821 0.070876 -0.021660 -686507.000000 0 0 1
33.198565 10.279342 -11.953331 36.751758 0.300270 1.902067 0.078438 -0.025138 784018.000000 0 0 1
32.173325 10.657142 -10.985131 35.628228 0.319867 1.884230 0.054837 -0.019067 256946.000000 0 0 1
32.541675 10.507442 -9.440031 35.475077 0.312324 1.840145 0.052413 -0.010508 535376.000000 0 0 1
33.680925 11.312042 -9.054031 36.665276 0.324022 1.820315 0.051054 -0.002212 866113.000000 0 0 1
33.365945 12.656842 -8.735831 36.739579 0.362565 1.810873 0.048492 -0.005571 -376892.000000 0 0 1
32.909485 12.934842 -7.247631 36.095325 0.374495 1.772962 0.041900 -0.001282 -500762.000000 0 0 1
33.945185 12.759142 -6.330531 36.812320 0.359537 1.743623 0.060814 0.001741 -60723.900000 0 0 1
33.591405 13.083942 -5.008131 36.395788 0.371424 1.708836 0.043078 0.007935 -591582.000000 0 0 1
34.746075 12.872842 -4.019531 37.271389 0.354805 1.678851 0.057263 0.010004 -469555.000000 0 0 1
35.671085 13.890842 -4.163531 38.506062 0.371348 1.679135 0.064425 0.014123 472925.000000 0 0 1
-35.268390 13.597742 -3.439731 37.955101 -0.367988 1.661547 0.050937 0.004079 906608.000000 0 0 1
-34.281715 14.766842 -3.396031 37.481044 -0.406731 1.661527 0.066189 -0.004825 -119394.000000 0 0 1
-34.623320 15.761742 -2.466931 38.122075 -0.427199 1.635553 0.056342 -0.003281 375279.000000 0 0 1
-33.765345 16.905042 -2.615531 37.851288 -0.464177 1.639952 0.080362 -0.002301 352958.000000 0 0 1
-33.920465 17.915842 -1.468631 38.389220 -0.485930 1.609062 0.063494 0.002440 204839.000000 0 0 1
-35.133583 18.633142 -1.636031 39.802503 -0.487633 1.611912 0.037752 0.009392 238038.000000 0 0 1
-35.448787 19.327542 -0.468631 40.378088 -0.499169 1.582403 0.019534 0.012066 -140879.000000 0 0 1
35.515055 20.271542 -0.713831 40.899439 0.518663 1.588251 0.010404 0.015821 49.563900 0 0 1
35.688305 21.404842 -1.558631 41.644348 0.540252 1.608232 0.033948 0.016653 -81439.300000 0 0 1
35.620985 21.168942 -2.914331 41.538801 0.536205 1.641013 0.008662 0.021937 -150452.000000 0 0 1
35.881885 22.444642 -3.717731 42.486388 0.558969 1.658412 0.039379 -0.008140 -226079.000000 0 0 1
-34.931769 22.836242 -3.754931 41.902529 -0.578999 1.660528 0.053194 0.004158 -145000.000000 0 0 1
-34.764527 24.034942 -4.448631 42.497543 -0.604906 1.675668 0.070418 -0.013340 55066.600000 0 0 1
-33.277975 24.215842 -4.809431 41.436231 -0.629065 1.687127 0.078736 -0.020023 402958.000000 0 0 1
-32.710695 23.279242 -5.782331 40.562890 -0.618516 1.713836 0.057083 -0.006925 913310.000000 0 0 1
-31.324425 23.590342 -6.020131 39.673238 -0.645480 1.723128 0.063098 0.001256 1277080.000000 0 0 1
-30.639775 22.697842 -7.151631 38.796053 -0.637585 1.756196 0.052643 -0.019978 353137.000000 0 0 1
-31.113145 23.127542 -8.420931 39.671439 -0.639223 1.784690 0.058800 -0.030604 300872.000000 0 0 1
-30.344095 22.519342 -9.454731 38.952238 -0.638447 1.815972 0.026592 -0.029095 64320.600000 0 0 1
-31.104605 22.270242 -10.743531 39.735169 -0.621370 1.844582 0.029203 -0.009776 -67887.400000 0 0 1
-31.584405 23.448242 -11.470331 40.975154 -0.638619 1.854521 0.036007 -0.010688 346523.000000 0 0 1
-31.964565 23.137842 -12.796131 41.482938 -0.626560 1.884378 0.000958 -0.010801 -291571.000000 0 0 1
-32.646505 24.333342 -13.474231 42.888935 -0.640524 1.890374 0.040332 -0.009727 -55683.000000 0 0 1
-31.755625 25.403642 -13.687131 42.908068 -0.674724 1.895457 0.035906 -0.014881 -87785.400000 0 0 1
-30.911855 25.254442 -14.811231 42.575841 -0.685011 1.926104 0.028260 -0.013589 -56375.800000 0 0 1
-29.569365 26.022242 -14.627331 42.017416 -0.721678 1.926367 0.019361 -0.007851 374525.000000 0 0 1
-28.496055 25.437542 -13.904731 40.650157 -0.728750 1.919903 0.027947 -0.010473 316775.000000 0 0 1
-28.735725 25.185542 -12.513531 40.207486 -0.719653 1.887277 0.036631 -0.008062 -923792.000000 0 0 1
-28.968515 26.368442 -11.578731 40.847725 -0.738447 1.858197 0.052657 -0.003991 184400.000000 0 0 1
-27.839695 27.201342 -11.321031 40.535508 -0.773801 1.853848 0.039400 -0.007530 29166.800000 0 0 1
-28.114955 28.185742 -10.427031 41.153490 -0.786655 1.826958 0.034190 -0.014946 -705098.000000 0 0 1
-26.951265 29.081142 -10.159331 40.930374 -0.823391 1.821628 0.047446 -0.019090 -765956.000000 0 0 1
-27.367935 30.230942 -9.467331 41.863398 -0.835063 1.798918 0.017712 -0.013132 10777.900000 0 0 1
-26.339275 31.197142 -9.344231 41.884768 -0.869630 1.795783 0.027317 -0.008050 -84644.300000 0 0 1
34.250825 -25.151238 34.081434 54.472451 -0.633393 0.894814 -0.006355 0.000667 -65077.800000 0 0 1
33.821985 -23.832158 -34.198168 53.678795 -0.613830 2.261512 -0.007684 -0.003981 -149378.000000 0 0 1
33.095555 -23.710558 -33.011281 52.414225 -0.621666 2.252112 -0.009050 0.005099 -91069.100000 0 0 1
32.824485 -22.227858 -32.692491 51.384077 -0.595241 2.260408 -0.010504 0.011297 623346.000000 0 0 1
31.921965 -21.639258 -33.664551 51.191516 -0.595725 2.288451 -0.012124 0.003419 411565.000000 0 0 1
31.633305 -20.338958 -33.306481 50.236051 -0.571410 2.295615 -0.017114 0.009781 15031.700000 0 0 1
31.431415 -19.434758 33.918197 50.160619 -0.553783 0.828215 -0.016515 0.011295 171563.000000 0 0 1
32.626385 -19.275158 33.186383 50.372102 -0.533616 0.851541 -0.004357 0.000744 143686.000000 0 0 1
32.259395 -18.925358 31.902632 49.159085 -0.530554 0.864570 0.004872 0.014155 -334657.000000 0 0 1
33.477165 -18.853058 30.996962 49.365676 -0.512892 0.891938 -0.000169 0.016708 -193636.000000 0 0 1
34.301085 -17.693058 31.007602 49.508384 -0.476220 0.893985 -0.004434 -0.002130 -461743.000000 0 0 1
35.303035 -17.787258 30.076852 49.672002 -0.466719 0.920391 0.008470 0.001091 -1026350.000000 0 0 1
-35.980011 -16.538258 30.226212 49.816654 0.430851 0.918832 0.019543 -0.006279 -513573.000000 0 0 1
-34.980668 -16.484558 29.229602 48.474296 0.440382 0.923550 0.027436 -0.004833 112281.000000 0 0 1
-33.865855 -15.665558 29.443092 47.531058 0.433263 0.902755 0.031749 -0.010006 510197.000000 0 0 1
-32.687195 -16.287458 30.257332 47.426154 0.462273 0.878913 0.045118 -0.019234 154348.000000 0 0 1
-31.693195 -15.357158 30.658072 46.692808 0.451217 0.854506 0.047003 -0.020065 162872.000000 0 0 1
-30.716085 -15.887658 31.513852 46.786947 0.477346 0.831781 0.049859 -0.027121 222374.000000 0 0 1
-29.587625 -14.891558 31.858862 45.958385 0.466287 0.804861 0.050430 -0.028148 326148.000000 0 0 1
-30.075895 -14.020958 32.881820 46.715745 0.436232 0.789965 0.061169 -0.026445 151606.000000 0 0 1
-28.995575 -13.272858 33.334813 46.131571 0.429284 0.763236 0.059352 -0.028231 -306383.000000 0 0 1
-29.171375 -12.566058 -33.757021 46.350959 0.406745 2.386622 0.053107 -0.017092 -157895.000000 0 0 1
-29.151915 -13.534558 -32.688551 45.842772 0.434663 2.364646 0.061582 -0.018371 80656.500000 0 0 1
-29.305795 -12.971758 -31.412401 44.875774 0.416712 2.346174 0.057889 -0.011279 -514342.000000 0 0 1
-29.654475 -13.971058 -30.277581 44.624100 0.440285 2.316519 0.057921 -0.015224 274783.000000 0 0 1
-30.987275 -14.454058 -30.182321 45.608152 0.436450 2.293980 0.052362 -0.022381 142541.000000 0 0 1
-31.122115 -15.231658 -29.019201 45.196277 0.455145 2.267992 0.034243 -0.009363 1334040.000000 0 0 1
-32.432885 -16.133458 -29.030721 46.421582 0.461599 2.246403 0.030686 -0.014399 822732.000000 0 0 1
-32.207245 -17.159258 -29.998581 47.240466 0.489524 2.258829 0.031838 -0.019651 398794.000000 0 0 1
-33.246065 -18.131058 -29.910091 48.256084 0.499273 2.239310 0.021966 -0.012935 -30081.800000 0 0 1
-32.836635 -19.606258 -30.206481 48.734807 0.538273 2.239301 0.018714 -0.007433 -255597.000000 0 0 1
-33.940765 -20.471658 -30.329231 49.909183 0.542739 2.223943 -0.000774 -0.010447 135958.000000 0 0 1
-33.606265 -21.645158 -31.127281 50.663611 0.572203 2.232411 -0.010201 -0.008528 -450467.000000 0 0 1
-34.777223 -22.587458 -31.325021 51.970236 0.576017 2.217738 -0.024102 -0.002955 -428446.000000 0 0 1
-35.302404 -23.222758 -30.168551 51.920109 0.581856 2.190823 -0.014695 -0.005016 -39115.200000 0 0 1
35.843515 -24.153458 -30.440851 52.865797 -0.592965 2.184395 -0.004360 -0.005746 -156821.000000 0 0 1
-35.837221 -25.512628 -30.972891 53.800749 0.618670 2.184252 -0.006500 -0.001775 -266881.000000 0 0 1
-35.347100 -25.505148 -32.319691 54.263178 0.625051 2.208821 -0.010005 -0.000326 -8945.600000 0 0 1
-34.584612 -26.707828 -32.460951 54.434518 0.657587 2.209718 -0.009412 -0.000204 -80617.000000 0 0 1
-35.093488 -27.550178 -33.675321 55.898054 0.665559 2.217353 -0.001985 -0.006842 279279.000000 0 0 1
35.778115 -28.089048 -33.460771 56.468498 -0.665583 2.205025 0.004112 0.000649 -224475.000000 0 0 1
35.481155 -29.144668 34.139938 57.217649 -0.687662 0.931454 0.008020 0.000989 -133199.000000 0 0 1
35.993375 -30.449508 -33.779931 57.998097 -0.702153 2.192513 0.014759 -0.004722 62214.000000 0 0 1
35.405315 -30.751088 -32.527701 57.072034 -0.715162 2.177231 0.016021 -0.008508 29122.100000 0 0 1
-35.752538 -31.436978 -31.814501 57.259846 0.721257 2.159900 0.019600 -0.016887 30722.200000 0 0 1
36.007885 -31.854288 -30.388051 56.874397 -0.724268 2.134477 0.018838 -0.015850 -100896.000000 0 0 1
35.256725 -33.053708 -30.442221 57.116662 -0.753159 2.132919 0.032193 -0.015068 68638.200000 0 0 1
34.915665 -33.389758 -29.128021 56.412952 -0.763062 2.113363 0.023925 -0.019343 -378999.000000 0 0 1
33.873305 34.132742 -29.106931 56.210838 0.789213 2.115094 0.028291 -0.019754 1209230.000000 0 0 1
32.544295 -34.037448 -29.494771 55.566361 -0.807820 2.130344 0.027658 -0.012115 1418520.000000 0 0 1
31.518635 33.681466 -29.138981 54.561394 0.818558 2.134190 0.029400 -0.014418 -427479.000000 0 0 1
30.140525 33.995934 -29.645581 54.249749 0.845439 2.148934 0.013043 -0.000535 -961559.000000 0 0 1
29.875835 33.381451 -30.875541 54.407590 0.840760 2.174246 0.013249 0.005461 -207846.000000 0 0 1
28.729765 33.936497 -31.470871 54.474774 0.868294 2.186722 0.011295 0.000667 -169622.000000 0 0 1
28.502975 33.540704 -32.929611 54.970516 0.866417 2.213100 0.012966 -0.005835 -91377.000000 0 0 1
28.151945 32.206132 -33.106101 54.090488 0.852466 2.229447 0.006893 0.001856 27147.400000 0 0 1
27.787405 31.815892 34.065876 54.266700 0.852884 0.892138 0.008967 0.005008 152950.000000 0 0 1
27.621485 30.308822 33.861303 53.180438 0.831754 0.880553 0.016372 -0.001107 -672098.000000 0 0 1
28.838755 29.653402 33.945695 53.509889 0.799325 0.883588 0.018390 0.003418 -767780.000000 0 0 1
28.721475 28.245132 33.963878 52.690185 0.777037 0.870302 0.030765 -0.000001 599928.000000 0 0 1
30.069025 27.482952 34.186099 53.180337 0.740494 0.872605 0.038010 -0.010056 672814.000000 0 0 1
30.531325 27.479602 -32.955141 52.662431 0.732841 2.246929 0.032245 -0.003226 238495.000000 0 0 1
31.805085 26.886632 -32.695101 52.947371 0.701792 2.236359 0.041949 -0.012486 645182.000000 0 0 1
32.414655 27.270832 -31.333111 52.689392 0.699428 2.207659 0.051268 -0.015270 80418.800000 0 0 1
33.196245 28.491232 -31.345091 53.816872 0.709274 2.192523 0.034330 -0.013240 1067250.000000 0 0 1
32.409115 29.711702 -31.187581 53.905484 0.742003 2.187759 0.058244 -0.012345 795453.000000 0 0 1
31.505635 29.938802 -29.923341 52.766876 0.759904 2.173760 0.047576 -0.006654 -363824.000000 0 0 1
32.180815 30.118142 -28.701931 52.597606 0.752301 2.148007 0.022161 -0.007229 -454856.000000 0 0 1
31.361935 30.298702 -27.575871 51.594680 0.768157 2.134678 0.032441 -0.003976 -835563.000000 0 0 1
32.124115 30.542882 -26.253191 51.517535 0.760171 2.105513 0.044033 -0.014704 -285431.000000 0 0 1
32.757295 31.792952 -26.348971 52.707689 0.770460 2.094288 0.045185 -0.013977 293543.000000 0 0 1
33.421315 32.267742 -25.161621 52.832742 0.767839 2.067182 0.036463 -0.023130 259890.000000 0 0 1
33.746595 33.750670 -25.228301 53.985253 0.785459 2.057051 0.037936 -0.023843 328485.000000 0 0 1
32.550895 -34.130671 -25.042831 53.400438 -0.809085 2.058913 0.039359 -0.013811 579665.000000 0 0 1
32.703985 -32.747628 -24.692531 52.456447 -0.786065 2.060908 0.031658 -0.014993 -1252090.000000 0 0 1
32.992325 -31.762688 -25.898411 52.612636 -0.766411 2.085466 0.025640 -0.017682 -364485.000000 0 0 1
34.315605 -31.897588 -26.291971 53.724152 -0.748896 2.082184 0.030505 -0.021705 396048.000000 0 0 1
35.366265 -31.386818 -25.411151 53.680831 -0.725854 2.063914 0.030260 -0.015105 139498.000000 0 0 1
-35.351275 -31.570128 -25.918941 54.020155 0.728957 2.071225 0.018900 -0.015020 -166943.000000 0 0 1
-34.869007 -32.896528 -25.816971 54.447637 0.756299 2.064808 0.026236 -0.018195 -40118.200000 0 0 1
-34.526217 -33.455458 -24.524231 53.970040 0.769649 2.042500 0.026944 -0.009693 -145954.000000 0 0 1
-33.359805 -32.865748 -23.681131 52.476947 0.777938 2.038981 0.008257 -0.007594 -6729.830000 0 0 1
-33.316835 -31.458038 -23.570331 51.528440 0.756710 2.045892 -0.014706 -0.002781 -353149.000000 0 0 1
-32.847275 -31.008368 -22.318031 50.384093 0.756608 2.029692 0.003307 -0.007303 -498085.000000 0 0 1
-32.568945 -29.467188 -22.343231 49.277493 0.735441 2.041391 0.003395 0.003822 434489.000000 0 0 1
-33.640345 -28.517158 -22.552731 49.533088 0.703161 2.043513 -0.015489 0.013501 245873.000000 0 0 1
-34.151588 -28.491888 -23.872131 50.477691 0.695295 2.063403 -0.013349 0.008745 -495266.000000 0 0 1
-35.281931 -27.484418 -24.060531 50.785008 0.661801 2.064366 -0.018329 0.009388 -433126.000000 0 0 1
-35.002127 -26.154438 -23.671131 49.694325 0.641722 2.067278 -0.028523 0.015344 496173.000000 0 0 1
-35.996911 -25.184178 -24.190231 50.151647 0.610471 2.074122 -0.009818 0.013356 982889.000000 0 0 1
-35.574960 -24.626558 -25.592971 50.269725 0.605502 2.104950 -0.001693 0.002011 -330436.000000 0 0 1
-34.505565 -23.716058 -25.536981 49.043071 0.602159 2.118473 -0.013696 0.000083 -380707.000000 0 0 1
-34.319932 -23.101658 -26.801281 49.293539 0.592462 2.145645 -0.000266 -0.009933 -573211.000000 0 0 1
-33.217955 -22.063458 -26.921851 48.114600 0.586295 2.164622 0.002229 -0.016602 -848885.000000 0 0 1
-33.216865 -20.833758 -26.213331 47.165075 0.560183 2.160095 0.014809 -0.002469 104012.000000 0 0 1
-34.336365 -19.954758 -26.398561 47.687130 0.526448 2.157451 0.004670 -0.001893 188790.000000 0 0 1
-35.386828 -20.071458 -25.273401 47.894006 0.515954 2.126680 0.016380 -0.006164 -229346.000000 0 0 1
-35.054943 -19.582158 -23.980931 46.769595 0.509432 2.109177 0.023104 -0.005123 -11968.300000 0 0 1
-34.403830 -20.557858 -23.133331 46.275264 0.538613 2.094288 -0.001377 -0.003817 326478.000000 0 0 1
-35.371725 -21.698858 -22.635531 47.269087 0.550252 2.070158 0.015793 0.001118 389770.000000 0 0 1
35.987115 -21.114358 -21.614331 46.990082 -0.530598 2.048765 0.015087 0.000525 -359110.000000 0 0 1
35.477345 -22.197358 -20.945131 46.798111 -0.559086 2.034835 0.012293 0.009487 -312148.000000 0 0 1
34.377625 -22.012258 -19.857431 45.394693 -0.569531 2.023546 0.017857 -0.005235 178965.000000 0 0 1
33.164435 -21.660758 -20.495631 44.599765 -0.578574 2.048280 0.050740 -0.001735 313867.000000 0 0 1
32.063795 -21.752758 -19.558431 43.402783 -0.596096 2.038263 0.039444 -0.010107 382187.000000 0 0 1
30.762975 -21.220258 -20.158331 42.461962 -0.603847 2.065463 0.029782 -0.006293 -1237430.000000 0 0 1
30.318485 -21.957958 -21.234331 43.037881 -0.626812 2.086776 0.029364 -0.002891 701833.000000 0 0 1
29.052465 -21.529758 -21.766131 42.205931 -0.637758 2.112636 0.046111 -0.008837 617535.000000 0 0 1
29.054595 -20.229658 -22.561731 41.981427 -0.608214 2.138173 0.057608 -0.016998 -804850.000000 0 0 1
29.354405 -19.151258 -21.689031 41.217300 -0.578071 2.124936 0.054490 -0.013533 32895.300000 0 0 1
29.068865 -17.935758 -22.298431 40.791057 -0.552832 2.149155 0.059822 -0.017967 -159574.000000 0 0 1
29.993445 -16.817958 -21.734331 40.679621 -0.511037 2.134453 0.060342 -0.020797 -67032.900000 0 0 1
29.490955 -16.569558 -20.446831 39.526441 -0.511897 2.114484 0.049567 -0.019575 867088.000000 0 0 1
30.464755 -15.962458 -19.580631 39.576539 -0.482635 2.088347 0.035536 -0.016572 216161.000000 0 0 1
31.674995 -16.761158 -19.105231 40.610978 -0.486703 2.060591 0.045563 -0.019509 -719813.000000 0 0 1
32.592035 -17.067058 -20.103131 41.924468 -0.482394 2.070891 0.043813 -0.018477 -731358.000000 0 0 1
33.603625 -17.896458 -19.626931 42.833436 -0.489367 2.046782 0.047796 -0.019568 -193735.000000 0 0 1
34.780115 -18.091358 -20.616631 44.294459 -0.479648 2.054934 0.029247 -0.014539 185427.000000 0 0 1
35.641105 -16.961358 -20.692831 44.566459 -0.444177 2.053656 0.036790 -0.010151 -497397.000000 0 0 1
-35.362847 -17.360258 -21.314531 44.790833 0.456356 2.066747 0.028365 0.003462 -550183.000000 0 0 1
-34.234542 -16.324058 -21.502331 43.598497 0.444940 2.086549 0.018298 0.000791 -24242.300000 0 0 1
-33.494455 -15.938958 -20.380231 42.323548 0.444157 2.073201 0.009254 -0.003454 -632628.000000 0 0 1
-32.729845 -14.814858 -20.666231 41.446542 0.425048 2.092807 -0.001997 -0.001348 -62726.600000 0 0 1
-31.477295 -14.712558 -19.694831 39.939527 0.437231 2.086465 0.003470 -0.007920 1099520.000000 0 0 1
-30.414245 -15.654658 -19.900231 39.574156 0.475350 2.097700 -0.007689 -0.000637 460672.000000 0 0 1
-30.796355 -16.974458 -19.558131 40.237646 0.503752 2.078378 -0.005863 -0.003281 -1253870.000000 0 0 1
-29.731175 -18.042158 -19.522731 39.882317 0.545436 2.082322 -0.011155 -0.011595 -753563.000000 0 0 1
-30.318555 -19.286958 -19.369731 40.821416 0.566573 2.065191 -0.002024 -0.012191 -389172.000000 0 0 1
-29.415765 -20.342258 -19.512031 40.740815 0.605027 2.070233 -0.005986 -0.017536 -592225.000000 0 0 1
-29.975235 -21.747658 -19.188831 41.709550 0.627649 2.048857 0.009228 -0.004997 -770465.000000 0 0 1
-30.941255 -22.116658 -20.122231 43.028037 0.620587 2.057431 -0.004172 -0.004874 2846.840000 0 0 1
-31.401755 -23.449858 -19.775131 43.897857 0.641430 2.038100 0.001154 0.004221 3258.910000 0 0 1
-32.250205 -23.978058 -20.968431 45.328778 0.639329 2.051705 -0.013500 0.008298 238319.000000 0 0 1
-31.499215 -24.215458 -22.166831 45.496784 0.655402 2.079697 -0.012269 0.002829 562398.000000 0 0 1
-32.255685 -25.077138 -22.997331 46.884638 0.660838 2.083470 -0.012920 0.003178 -408542.000000 0 0 1
-31.803425 -24.977758 -24.473731 47.268486 0.665762 2.115027 -0.011787 0.007207 -148898.000000 0 0 1
-30.429085 -25.287568 -24.553631 46.564698 0.693379 2.126218 -0.002644 -0.008881 -262873.000000 0 0 1
-30.069655 -26.225388 -25.550381 47.379079 0.717216 2.140373 0.004168 -0.003084 590027.000000 0 0 1
-28.520685 -26.423068 -25.666021 46.587043 0.747239 2.154270 0.015864 -0.016433 595983.000000 0 0 1
-27.947035 -25.272308 -26.192681 45.888810 0.735182 2.178259 0.023609 -0.013053 -795207.000000 0 0 1
-26.546845 -25.307888 -26.124781 45.030305 0.761510 2.189721 0.027064 -0.004717 -143849.000000 0 0 1
-25.936335 -23.966358 -26.612141 44.218614 0.745942 2.216588 0.042084 -0.002357 -123410.000000 0 0 1
-25.963925 -23.760958 -28.016911 44.985062 0.741124 2.243119 0.043564 -0.010308 248185.000000 0 0 1
-25.096205 -22.671358 -28.351861 44.132052 0.734678 2.268464 0.057899 -0.013614 314407.000000 0 0 1
-25.038125 -22.169058 -29.822641 44.808088 0.724697 2.299045 0.052595 -0.007872 -106286.000000 0 0 1
-24.418635 -23.103958 -30.672411 45.506696 0.757741 2.310433 0.061304 -0.015026 181556.000000 0 0 1
-24.408235 -22.631658 -32.021171 46.187761 0.747649 2.336830 0.064109 -0.013104 -135178.000000 0 0 1
-24.012335 -23.785058 -32.986621 47.227517 0.780643 2.344042 0.054766 -0.017685 97708.300000 0 0 1
-25.011435 -24.761158 -33.246561 48.415087 0.780370 2.327734 0.025212 -0.014224 -48957.700000 0 0 1
-24.515935 -25.747868 -34.100946 49.263153 0.809903 2.335357 0.052678 -0.012118 140069.000000 0 0 1
-19.480435 -14.750658 -12.095131 27.264656 0.648096 2.030430 0.010724 0.026752 -46564.900000 0 0 1
-19.958035 -14.182258 -10.923531 26.810131 0.617807 1.990446 0.007520 0.022646 -304064.000000 0 0 1
-19.219735 -14.518558 -9.787031 25.999475 0.646947 1.956738 0.001305 0.011223 -448112.000000 0 0 1
-19.646335 -13.867658 -8.462731 25.493298 0.614651 1.909176 0.026247 -0.005178 35990.100000 0 0 1
-20.722835 -14.606058 -7.873531 26.547416 0.613960 1.871910 0.039596 -0.007720 392484.000000 0 0 1
-20.978935 -14.087258 -6.600731 26.117737 0.591338 1.826297 0.040425 -0.014847 425556.000000 0 0 1
-22.288435 -14.709558 -5.989431 27.368206 0.583348 1.791428 0.045464 -0.019628 67669.400000 0 0 1
-22.303935 -16.006258 -5.328631 27.965338 0.622469 1.762513 0.036695 -0.021658 113927.000000 0 0 1
-21.610435 -16.115758 -4.099631 27.267848 0.640769 1.721715 0.044052 -0.020849 -110237.000000 0 0 1
-21.285435 -17.584158 -3.705731 27.856862 0.690461 1.704219 0.025807 -0.008973 -462470.000000 0 0 1
-22.387735 -18.173858 -3.114531 29.003449 0.681881 1.678389 0.037142 -0.012860 -287364.000000 0 0 1
-22.050335 -19.374658 -2.458631 29.455721 0.720897 1.654362 0.023807 -0.006074 -710570.000000 0 0 1
-23.261535 -20.227158 -2.189531 30.903575 0.715737 1.641706 0.023529 -0.018089 -664678.000000 0 0 1
-23.508135 -21.121158 -3.267931 31.771293 0.731965 1.673837 0.009644 -0.024959 -613407.000000 0 0 1
-24.539735 -22.006458 -3.055831 33.103185 0.731027 1.663240 0.016536 -0.018792 -733466.000000 0 0 1
-24.742935 -23.145658 -4.074731 34.125324 0.752056 1.690487 0.018364 -0.014102 -515406.000000 0 0 1
-23.729135 -24.101458 -4.006831 34.058873 0.793182 1.688714 0.018208 -0.012400 -558451.000000 0 0 1
-23.761235 -24.852758 -5.210631 34.776523 0.807847 1.721195 0.026307 -0.016337 871814.000000 0 0 1
-22.339935 -25.014858 -5.897931 34.052920 0.841825 1.744873 0.037212 -0.016763 1771450.000000 0 0 1
-21.609635 -23.861358 -6.392531 32.820804 0.834878 1.766820 0.019614 -0.009155 451572.000000 0 0 1
-21.302935 -22.800258 -5.496031 31.683957 0.819336 1.745142 0.012417 -0.008567 -804549.000000 0 0 1
-21.348735 -21.438858 -6.168931 30.877966 0.787504 1.771934 0.011809 0.002870 -285485.000000 0 0 1
-20.239135 -21.036758 -6.923031 30.001602 0.804720 1.803650 0.005276 0.007690 -283998.000000 0 0 1
-20.382435 -19.721058 -7.403631 29.311730 0.768908 1.826145 -0.002616 0.003010 200291.000000 0 0 1
-19.173135 -19.293058 -8.263831 28.427488 0.788516 1.865753 0.013430 0.004635 -326.511000 0 0 1
-19.097935 -19.958658 -9.543931 29.226114 0.807432 1.903453 0.009972 0.002334 237382.000000 0 0 1
-17.934035 -19.756958 -10.362731 28.624346 0.833725 1.941236 0.058596 0.002985 396960.000000 0 0 1
-17.812035 -18.366958 -11.072231 27.878451 0.800735 1.979218 0.057277 0.007406 97862.600000 0 0 1
-17.373735 -17.281958 -10.213831 26.548730 0.782750 1.965701 0.035241 0.008741 -365479.000000 0 0 1
-16.084935 -17.282758 -9.685131 25.519024 0.821280 1.960080 0.069692 0.004973 -806969.000000 0 0 1
-15.873935 -16.139358 -8.707931 24.254664 0.793689 1.938015 0.045555 0.009674 -23409.400000 0 1 0
-16.585035 -16.280358 -7.484531 24.415807 0.776128 1.882357 0.034767 0.006632 187383.000000 0 1 0
-16.443235 -15.067158 -6.733431 23.296745 0.741755 1.864009 0.025172 0.001821 -112562.000000 0 1 0
-17.007535 -15.300658 -5.337731 23.491653 0.732616 1.800017 0.024161 -0.005943 -76815.600000 0 1 0
-17.537635 -14.124258 -4.745031 23.012575 0.678006 1.778479 0.025546 -0.002287 389840.000000 0 1 0
-17.930835 -14.348958 -3.379031 23.212610 0.674887 1.716884 0.027733 -0.007227 36584.300000 0 1 0
-18.728235 -13.183458 -2.714431 23.063358 0.613362 1.688764 0.031060 -0.005572 -395064.000000 0 1 0
-19.955135 -13.019358 -3.360331 24.062479 0.578083 1.710905 0.052138 -0.019291 31679.100000 0 1 0
-20.815035 -12.219558 -2.513131 24.267243 0.530846 1.674543 0.059158 -0.012146 1106660.000000 0 1 0
-22.326935 -12.265258 -2.963731 25.645902 0.502343 1.686619 0.057759 -0.013154 839498.000000 0 0 1
-22.639135 -11.651258 -4.171931 25.800916 0.475300 1.733206 0.065607 -0.024606 1951870.000000 0 0 1
-24.070635 -11.756358 -4.484831 27.161022 0.454333 1.736676 0.063878 -0.018096 1852400.000000 0 0 1
-24.637735 -11.085958 -5.764631 27.625123 0.422819 1.781015 0.073772 -0.025849 -116835.000000 0 0 1
-24.357235 -11.845258 -6.906031 27.951356 0.452639 1.820455 0.062374 -0.029732 228203.000000 0 0 1
-24.685035 -11.005858 -7.985831 28.182501 0.419399 1.858094 0.077437 -0.030955 -146448.000000 0 0 1
-23.763735 -11.219758 -9.215431 27.848200 0.441110 1.908071 0.084956 -0.039081 41192.500000 0 0 1
-22.474135 -10.682958 -9.003931 26.462863 0.443729 1.917977 0.072574 -0.028540 -159294.000000 0 0 1
-21.601135 -11.095358 -10.017731 26.269201 0.474505 1.962051 0.052406 -0.023829 -938093.000000 0 0 1
-20.380135 -10.196858 -9.970631 24.874471 0.463914 1.983228 0.045297 -0.023858 -971452.000000 0 1 0
-20.548435 -8.915658 -10.539431 24.754934 0.409372 2.010588 0.055359 -0.030181 165881.000000 0 1 0
-19.554135 -8.038958 -10.095831 23.428932 0.390050 2.016301 0.045654 -0.024603 -284629.000000 0 1 0
-19.481235 -6.731458 -10.886231 23.309678 0.332692 2.056721 0.043882 -0.030693 -250393.000000 0 1 0
-19.119135 -7.061958 -12.188431 23.748061 0.353822 2.109751 0.051075 -0.019787 346709.000000 0 1 0
-18.782135 -5.866758 -12.878731 23.516997 0.302756 2.150331 0.039741 -0.024528 -567545.000000 0 1 0
-18.170835 -5.966658 -14.313931 23.888677 0.317272 2.213289 0.050877 -0.019571 -26829.800000 0 1 0
-19.008935 -6.707658 -15.207631 25.250828 0.339228 2.217129 0.049381 -0.030258 469746.000000 0 0 1
-18.528335 -6.544058 -16.530531 25.678441 0.339516 2.270187 0.056758 -0.037003 -332258.000000 0 0 1
-19.162835 -7.394558 -17.617131 27.060248 0.368275 2.279742 0.036683 -0.025053 5793.320000 0 0 1
-20.497635 -7.093658 -17.982831 28.175437 0.333171 2.263013 0.032556 -0.035654 354427.000000 0 0 1
-20.957635 -7.989958 -18.963031 29.371048 0.364233 2.272653 0.029887 -0.027593 -510807.000000 0 0 1
-22.316735 -7.673458 -19.577931 30.662909 0.331179 2.263330 0.030062 -0.025666 -1152520.000000 0 0 1
-22.484735 -6.466958 -20.306531 30.979672 0.280056 2.285613 0.032318 -0.023267 136581.000000 0 0 1
-23.783435 -6.147558 -20.748831 32.155221 0.252944 2.272174 0.027790 -0.017351 191398.000000 0 0 1
-24.862835 -5.825258 -19.691531 32.246714 0.230144 2.227680 0.045034 -0.020569 -578156.000000 0 0 1
-24.832935 -4.536758 -19.114831 31.664390 0.180698 2.218892 0.054864 -0.022843 -154715.000000 0 0 1
-25.949935 -4.163858 -18.356431 32.057689 0.159101 2.180478 0.079405 -0.018422 -794817.000000 0 0 1
-26.100295 -2.640558 -18.044231 31.840104 0.100827 2.173308 0.071206 -0.019261 -146535.000000 0 0 1
-26.435525 -1.866658 -19.149331 32.695845 0.070495 2.196516 0.081278 -0.019389 49561.200000 0 0 1
-27.823135 -1.940658 -19.408531 33.979171 0.069637 2.178750 0.081134 -0.012773 -251155.000000 0 0 1
-28.273285 -0.749158 -20.300631 34.814588 0.026491 2.193344 0.077832 -0.012686 -141192.000000 0 0 1
-27.516925 -0.607658 -21.491831 34.920613 0.022079 2.233751 0.076122 -0.013573 255300.000000 0 0 1
-28.038815 -1.470558 -22.517631 35.991407 0.052399 2.246747 0.077288 -0.003391 -104201.000000 0 0 1
-27.188895 -1.643758 -23.800631 36.171923 0.060383 2.288938 0.078393 -0.001659 -481134.000000 0 0 1
-27.133085 -0.526758 -24.723731 36.711642 0.019411 2.309672 0.093359 0.003402 127733.000000 0 0 1
-26.670515 0.730442 -24.242131 36.049006 -0.027381 2.308347 0.075686 -0.001710 -193908.000000 0 0 1
-25.156675 0.799542 -23.938431 34.735372 -0.031772 2.331134 0.075131 -0.003092 -232507.000000 0 0 1
-24.397435 0.587442 -25.094541 35.004513 -0.024073 2.370134 0.062901 0.004208 -711100.000000 0 0 1
-23.019835 0.531242 -24.859031 33.884605 -0.023074 2.394456 0.045011 0.000924 71984.900000 0 0 1
-22.179435 0.040842 -26.097621 34.249304 -0.001841 2.437177 0.038393 0.002448 117768.000000 0 0 1
-22.064035 1.024542 -27.042451 34.916550 -0.046402 2.456702 0.018995 0.007315 428307.000000 0 0 1
-21.227235 0.528142 -28.106711 35.225866 -0.024875 2.494599 0.008671 0.007211 304516.000000 0 0 1
-21.104535 1.346142 -29.410411 36.224105 -0.063698 2.518199 0.006776 0.014500 -506156.000000 0 0 1
-20.387035 2.544442 -29.250331 35.744751 -0.124165 2.529263 0.015087 0.012348 225771.000000 0 0 1
-20.111935 3.224342 -30.473461 36.654033 -0.158967 2.552384 0.007908 0.010441 1659.230000 0 0 1
-19.395335 2.525442 -31.648911 37.204979 -0.129480 2.588042 -0.000027 0.007670 -506880.000000 0 0 1
-18.059835 2.122342 -31.523351 36.392082 -0.116981 2.618372 -0.009384 0.014509 -265474.000000 0 0 1
-17.594735 1.654542 -32.792411 37.251234 -0.093761 2.647299 -0.017193 0.016891 1469800.000000 0 0 1
-16.018835 1.538542 -32.952031 36.671604 -0.095752 2.687298 -0.006752 0.000261 1234820.000000 0 0 1
-15.384735 2.791642 -32.918171 36.442960 -0.179502 2.698148 -0.000081 0.006414 981360.000000 0 0 1
-13.960535 2.719342 -33.164891 36.086027 -0.192379 2.736462 0.007552 -0.002105 1221550.000000 0 0 1
-13.333835 4.078642 -33.604861 36.382869 -0.296849 2.748282 0.011848 0.003588 -141577.000000 0 0 1
-13.126835 4.900442 -32.459061 35.354190 -0.357292 2.734083 0.026618 -0.008838 111536.000000 0 0 1
-12.775435 6.194142 -32.887651 35.821456 -0.451453 2.734054 0.032846 0.000681 -62316.000000 0 0 1
-12.300235 7.132242 -31.698101 34.740960 -0.525469 2.719938 0.035856 -0.003977 -534199.000000 0 0 1
-11.218035 6.725642 -30.927681 33.579756 -0.540080 2.741492 0.060346 -0.014668 -281233.000000 0 0 1
-11.494235 5.697142 -29.978601 32.608149 -0.460163 2.737245 0.059336 -0.020020 550254.000000 0 0 1
-10.165235 4.943442 -29.558911 31.646467 -0.452635 2.776344 0.069134 -0.025980 992766.000000 0 0 1
-9.483935 4.227142 -30.594981 32.308925 -0.419286 2.814410 0.058875 -0.023945 817858.000000 0 0 1
-10.205135 3.015442 -30.957491 32.735362 -0.287307 2.810506 0.059170 -0.020552 165951.000000 0 0 1
-9.639435 2.379942 -32.227931 33.722728 -0.242056 2.842737 0.054175 -0.022394 310433.000000 0 0 1
-10.400835 1.161942 -32.460491 34.105879 -0.111255 2.829706 0.052092 -0.020746 828073.000000 0 0 1
-10.089435 0.485642 -33.720471 35.200891 -0.048097 2.850545 0.039929 -0.010452 -482756.000000 0 0 1
-10.676235 1.172842 33.529897 35.208118 -0.109417 0.309998 0.044406 -0.004870 254490.000000 0 0 1
-12.075635 0.948442 33.358179 35.489274 -0.078381 0.348310 0.009132 -0.004474 247374.000000 0 0 1
-12.313235 1.283642 32.015812 34.326021 -0.103874 0.368974 0.007991 0.007488 18876.400000 0 0 1
-13.753535 1.086742 31.505862 34.394187 -0.078852 0.412746 0.012387 0.007848 680910.000000 0 0 1
-14.678035 2.168942 31.740782 35.037498 -0.146706 0.437275 0.006306 0.016088 715850.000000 0 0 1
-15.968235 1.914042 31.214162 35.113701 -0.119296 0.475759 0.002773 0.012520 307897.000000 0 0 1
-16.864135 3.153342 31.005682 35.435786 -0.184851 0.505397 0.000081 0.014143 -171761.000000 0 0 1
-17.388035 3.796342 32.159562 36.755862 -0.214958 0.505463 -0.002975 0.009005 624494.000000 0 0 1
-16.580635 4.926042 32.542661 36.853875 -0.288791 0.488541 -0.001776 0.011136 83843.800000 0 0 1
-17.134335 5.552242 33.816191 38.313804 -0.313365 0.489408 -0.001834 0.013287 1141990.000000 0 0 1
-18.508235 5.972942 33.646961 38.863206 -0.312167 0.524091 -0.004665 0.014462 788767.000000 0 0 1
-19.338135 5.590242 -33.736681 39.285849 -0.281407 2.603619 -0.007994 0.019002 -65968.800000 0 0 1
-20.679135 6.316642 -33.914421 40.220822 -0.296458 2.574015 -0.007035 0.014228 -603223.000000 0 0 1
-20.693335 7.724242 -33.583551 40.196181 -0.357255 2.559822 -0.003120 0.005562 218586.000000 0 0 1
-20.011635 8.611142 33.997795 40.379046 -0.406357 0.569879 -0.003586 0.005923 -105226.000000 0 0 1
-19.946335 10.103942 -34.114679 40.789181 -0.468879 2.561416 0.013898 -0.004653 -20352.500000 0 0 1
-18.857435 10.291042 -33.207541 39.550590 -0.499558 2.567383 0.009961 -0.000572 451874.000000 0 0 1
-18.674135 11.671842 -32.934671 39.618781 -0.558619 2.552220 0.024166 -0.012836 142148.000000 0 0 1
-17.924035 12.580242 -33.939161 40.390595 -0.611976 2.568584 0.013775 -0.020614 -27677.800000 0 0 1
-18.760535 12.866242 33.419681 40.427379 -0.601142 0.597651 0.032053 -0.017951 372833.000000 0 0 1
-18.032235 12.866142 32.210692 39.092554 -0.619734 0.602432 0.034529 -0.016289 145105.000000 0 0 1
-18.838335 12.286742 30.980392 38.283568 -0.577934 0.627948 0.039581 -0.016416 -29764.800000 0 0 1
-18.994535 10.836542 30.962262 37.906262 -0.518452 0.614934 0.019530 -0.007103 377240.000000 0 0 1
-17.900135 10.134242 30.374972 36.684556 -0.515161 0.595257 0.009383 -0.009083 357704.000000 0 0 1
-17.895335 8.633842 30.664332 36.538849 -0.449520 0.574939 0.015535 0.009236 -356261.000000 0 0 1
-18.834835 7.990342 29.884292 36.216950 -0.401220 0.600335 0.018395 -0.001240 -193668.000000 0 0 1
-18.975935 6.619042 30.185932 36.264147 -0.335616 0.587389 0.018770 -0.002990 -337343.000000 0 0 1
-19.368635 5.734642 28.998432 35.340334 -0.287856 0.608428 0.023418 -0.008957 -301655.000000 0 0 1
-20.732835 5.846742 28.653422 35.847642 -0.274866 0.644648 0.049830 -0.016725 -297764.000000 0 0 1
-21.084635 4.972742 27.661042 35.134360 -0.231614 0.664390 0.041182 -0.016541 -155339.000000 0 0 1
-22.631535 4.986042 27.533862 35.988339 -0.216850 0.699635 0.042211 -0.010230 174034.000000 0 0 1
-23.069335 6.054742 26.680842 35.787169 -0.256669 0.729448 0.049884 -0.013735 706915.000000 0 0 1
-24.495335 6.109542 26.762722 36.791184 -0.244429 0.756239 0.047776 -0.010587 452980.000000 0 0 1
-25.264775 6.922342 25.692952 36.692717 -0.267429 0.795092 0.049326 -0.013635 -64809.700000 0 0 1
-25.225665 6.360042 24.373832 35.649236 -0.246978 0.817958 0.047877 -0.015207 837121.000000 0 0 1
-26.165735 5.275742 24.110382 35.969288 -0.198960 0.836177 0.048844 -0.010134 336778.000000 0 0 1
-26.158385 4.934142 22.551332 34.887956 -0.186435 0.867949 0.058795 -0.006519 -276281.000000 0 0 1
-27.044295 5.617542 21.732332 35.146051 -0.204804 0.904163 0.056392 -0.004056 -356215.000000 0 0 1
-27.283235 4.946442 20.512732 34.490787 -0.179352 0.933866 0.073023 -0.002107 201479.000000 0 0 1
-28.131705 5.709742 19.465432 34.682806 -0.200245 0.974911 0.075805 -0.007626 758821.000000 0 0 1
-29.528405 5.739742 19.764632 35.993222 -0.191986 0.989484 0.081489 -0.007003 243489.000000 0 0 1
-30.281915 6.214342 18.681432 36.119362 -0.202406 1.027204 0.084821 -0.005233 -257399.000000 0 0 1
-31.754945 6.321442 19.118732 37.601371 -0.196501 1.037403 0.082140 0.001595 -121715.000000 0 0 1
-31.975625 7.320042 20.116932 38.480054 -0.225048 1.020677 0.081136 -0.020964 -155477.000000 0 0 1
-33.340215 7.366342 20.449032 39.799445 -0.217451 1.031186 0.071187 -0.012367 -152665.000000 0 0 1
-33.828855 8.376042 21.501532 40.949547 -0.242719 1.017995 0.079960 -0.017046 -71101.600000 0 0 1
-33.659225 8.097342 22.867232 41.490007 -0.236082 0.987054 0.075427 -0.015997 247164.000000 0 0 1
-34.418418 8.938742 23.723872 42.747523 -0.254095 0.982462 0.069474 -0.009466 -106390.000000 0 0 1
-0.782635 32.307042 11.424169 34.276364 -1.546576 1.230999 0.035058 -0.000690 -79252.500000 0 0 1
-0.869235 32.469942 12.827669 34.922798 -1.544032 1.194676 0.019649 -0.001193 63809.200000 0 0 1
-0.513235 33.764442 13.242569 36.272119 -1.555597 1.197067 0.017905 -0.003011 -103742.000000 0 0 1
-0.257635 33.946042 14.769569 37.020810 -1.563207 1.160421 0.009178 0.008839 848444.000000 0 0 1
-1.497535 33.950742 15.509369 37.355536 -1.526716 1.142653 0.004535 0.016430 705682.000000 0 0 1
-1.283435 -34.286967 16.861669 38.230344 1.533382 1.114023 -0.004157 0.005056 635197.000000 0 0 1
-2.570835 -34.079667 17.743569 38.508014 1.495503 1.091927 0.005967 0.009542 487112.000000 0 0 1
-3.133135 33.379342 18.277669 38.184686 -1.477206 1.071663 0.004757 0.004497 130892.000000 0 0 1
-4.060735 33.770342 19.289069 39.102350 -1.451125 1.054920 0.011498 0.005879 314953.000000 0 0 1
-5.237235 32.806242 19.590169 38.567511 -1.412491 1.037999 0.011388 0.003164 -92107.900000 0 0 1
-6.261035 32.891242 18.645969 38.323707 -1.382691 1.062673 0.016084 -0.001623 -100864.000000 0 0 1
-7.335135 32.030242 19.012469 37.963332 -1.345672 1.046260 0.020291 -0.014187 235419.000000 0 0 1
-8.383235 31.860042 17.874669 37.481258 -1.313502 1.073676 0.007631 -0.014903 -404004.000000 0 0 1
-9.171735 33.009642 17.739869 38.580567 -1.299782 1.093011 0.016947 -0.009170 -258928.000000 0 0 1
-9.964835 32.978042 16.562769 38.225313 -1.277354 1.122653 0.015386 -0.003608 384585.000000 0 0 1
-10.931735 34.218642 16.431569 39.502086 -1.261577 1.141790 0.032452 -0.009336 217495.000000 0 0 1
-12.023635 34.094342 17.309369 40.082493 -1.231756 1.124261 0.034394 -0.005873 -136729.000000 0 0 1
-13.107935 -33.739067 16.899869 39.946817 1.200235 1.133977 0.019166 -0.004086 -353307.000000 0 0 1
-14.339035 -33.857567 17.769169 40.837313 1.170188 1.120624 0.043203 0.000696 -514904.000000 0 0 1
-14.151935 -33.357867 19.083469 40.953673 1.169565 1.086058 0.032246 0.010084 -44386.600000 0 0 1
-15.120635 -33.820467 20.006069 42.103449 1.150369 1.075645 0.020560 -0.001416 61053.200000 0 0 1
-14.840035 -33.239567 21.426169 42.239510 1.150893 1.038801 0.025656 -0.007850 -133310.000000 0 0 1
-15.258635 -31.892967 21.656869 41.460913 1.124551 1.021199 0.033525 -0.000533 6347.450000 0 0 1
-14.811235 -31.417267 22.914269 41.611069 1.130260 0.987621 0.026359 -0.000863 53479.600000 0 0 1
-15.181835 -29.923267 23.153969 40.767589 1.101279 0.966783 0.033289 -0.004216 -39060.700000 0 0 1
-14.901935 -29.470467 24.464869 41.098734 1.102634 0.933194 0.035116 -0.015188 -315332.000000 0 0 1
-14.908835 -28.031867 24.697269 40.224545 1.081992 0.909697 0.024326 -0.005013 221472.000000 0 0 1
-16.191135 -27.222667 24.352969 39.953643 1.034234 0.915328 0.045797 -0.002355 97622.700000 0 0 1
-17.284035 -27.404567 25.209969 41.052292 1.008109 0.909559 0.062622 -0.004404 -714873.000000 0 0 1
-18.301935 -26.516567 24.903669 40.722008 0.966673 0.912774 0.067570 -0.000661 -800011.000000 0 0 1
-19.500035 -26.588767 25.888669 41.921797 0.938008 0.905177 0.061308 0.005021 212472.000000 0 0 1
-20.247735 -27.801867 25.954469 43.087690 0.941337 0.924337 0.065045 0.003077 120545.000000 0 0 1
-20.870635 -28.318767 24.801469 43.042408 0.935674 0.956712 0.062036 0.003771 -954010.000000 0 0 1
-22.222935 -27.755067 24.377869 43.110128 0.895641 0.969782 0.049460 0.016455 -710510.000000 0 0 1
-22.287235 -26.359567 24.154669 42.130697 0.868916 0.960235 0.058324 0.011980 -869012.000000 0 0 1
-23.566435 -26.174767 23.675169 42.438296 0.837788 0.978976 0.063953 0.010136 -890539.000000 0 0 1
-23.971035 -24.695967 23.420969 41.629834 0.800293 0.973268 0.050784 0.020326 318.043000 0 0 1
-24.435635 -24.102067 24.642269 42.252235 0.778526 0.948112 0.044181 0.018083 31348.400000 0 0 1
-24.851035 -22.822267 24.367969 41.620040 0.742868 0.945316 0.031874 0.015412 101656.000000 0 0 1
-25.458845 -22.121267 25.633969 42.362762 0.715366 0.920897 0.038051 0.014070 526186.000000 0 0 1
-26.820875 -22.410767 25.923869 43.516075 0.696058 0.932621 0.033756 0.016700 432395.000000 0 0 1
-27.161665 -21.633067 27.101469 44.048102 0.672576 0.908068 0.022427 0.010245 -710788.000000 0 0 1
-28.436315 -22.030867 27.886869 45.515498 0.659150 0.911337 0.019254 0.006750 549376.000000 0 0 1
-29.724955 -21.812867 27.315869 45.886064 0.633067 0.933160 0.014747 -0.001366 646544.000000 0 0 1
-29.979425 -22.495367 26.129769 45.689958 0.643732 0.961985 0.004891 0.010485 -383221.000000 0 0 1
-31.509195 -22.858567 26.035469 46.831497 0.627608 0.981304 0.002042 0.000438 614446.000000 0 0 1
-31.927805 -23.490167 24.892669 46.806171 0.634304 1.010043 -0.000631 0.000373 -122262.000000 0 0 1
-31.460445 -24.797367 24.595269 47.006343 0.667509 1.020156 -0.000374 0.000947 -712571.000000 0 0 1
-31.803525 -25.238267 23.168269 46.746155 0.670807 1.052249 0.007662 0.002910 789568.000000 0 0 1
-33.207845 -25.500067 23.012969 47.776680 0.654855 1.068228 0.021468 0.000500 573838.000000 0 0 1
-33.490785 -25.972767 21.744369 47.634388 0.659635 1.096756 0.030463 0.005893 609817.000000 0 0 1
-34.836640 -26.780067 21.676169 48.996120 0.655383 1.112517 0.042180 0.000985 424641.000000 0 0 1
-34.902099 -28.017867 22.429369 50.062301 0.676419 1.106237 0.027665 0.000209 -319620.000000 0 0 1
-33.945365 -28.999767 22.156669 49.841672 0.706989 1.110135 0.011461 0.009201 -816460.000000 0 0 1
-34.229129 -30.030067 21.039969 50.160926 0.720145 1.137958 0.026254 0.007608 -122746.000000 0 0 1
-34.491054 -29.529667 19.765769 49.520902 0.708056 1.160218 0.028012 0.012028 350610.000000 0 0 1
-34.839811 -30.580967 18.871369 50.051339 0.720391 1.184198 0.039449 0.014735 -139634.000000 0 0 1
-35.171679 -30.178267 17.403069 49.503956 0.709136 1.211571 0.040846 0.019152 -845945.000000 0 0 1
-34.035400 -29.992167 16.625069 48.314920 0.722334 1.219518 0.036530 0.022760 -390785.000000 0 0 1
-34.232594 -29.419967 15.311169 47.663790 0.709934 1.243765 0.045957 0.019665 -119948.000000 0 0 1
-34.966816 -30.235967 14.252769 48.373892 0.712969 1.271720 0.053622 0.005686 -59307.600000 0 0 1
-34.199885 -31.328167 13.797669 48.388654 0.741602 1.281641 0.050443 -0.004660 -163299.000000 0 0 1
-34.791794 -32.160067 12.823769 49.083479 0.746111 1.306464 0.068604 -0.010449 -60266.800000 0 0 1
-35.026075 -31.599367 11.398569 48.531158 0.734011 1.333710 0.065550 -0.016479 741255.000000 0 0 1
35.995355 -30.725567 11.329369 48.662929 -0.706579 1.335827 0.071506 -0.021282 703107.000000 0 0 1
36.056335 -29.842367 10.203469 47.903413 -0.691380 1.356151 0.053669 -0.018399 -54685.700000 0 0 1
34.932355 -28.784567 10.144369 46.386732 -0.689210 1.350323 0.077599 -0.014752 67924.700000 0 0 1
35.059885 -27.847767 9.109569 45.691114 -0.671250 1.370078 0.082273 -0.043529 -221417.000000 0 0 1
33.879615 -27.104767 9.031269 44.317722 -0.674760 1.365574 0.070722 -0.035996 -325339.000000 0 0 1
33.813775 -25.946867 8.006569 43.367228 -0.654510 1.385109 0.064051 -0.038743 -97712.300000 0 0 1
34.657735 -24.883467 8.335469 43.472124 -0.622690 1.377859 0.072111 -0.043005 -163491.000000 0 0 1
34.760035 -24.049467 7.168769 42.872230 -0.605250 1.402795 0.069503 -0.044919 145509.000000 0 0 1
35.403685 -22.655267 7.390369 42.676687 -0.569251 1.396748 0.079102 -0.047795 -336091.000000 0 0 1
34.568875 -21.753867 8.060869 41.631904 -0.561679 1.375943 0.074568 -0.043272 -424341.000000 0 0 1
34.931255 -20.374467 7.979469 41.218726 -0.528030 1.375978 0.083311 -0.031742 443817.000000 0 0 1
34.120715 -19.476067 9.006769 40.307099 -0.518671 1.345440 0.092631 -0.021858 604506.000000 0 0 1
34.559535 -19.688867 10.335869 41.095536 -0.517849 1.316558 0.083706 -0.034052 -27132.500000 0 0 1
33.821385 -18.847267 11.188769 40.302532 -0.508399 1.289481 0.096484 -0.024188 258350.000000 0 0 1
34.421295 -18.823067 12.640269 41.217833 -0.500417 1.259104 0.085844 -0.038031 1504230.000000 0 0 1
35.670365 -18.079467 12.812269 41.992812 -0.469111 1.260746 0.040455 -0.026659 1288740.000000 0 0 1
36.037815 -18.186967 14.158269 42.777873 -0.467371 1.233463 0.045768 -0.021366 -416880.000000 0 0 1
-34.916956 -17.365367 14.603469 41.641459 0.461512 1.212483 0.064716 -0.031247 -854743.000000 0 0 1
-33.765325 -17.661467 13.882569 40.555522 0.481929 1.221422 0.047771 -0.022588 -1201080.000000 0 0 1
-32.671335 -17.225467 14.615269 39.720762 0.485197 1.193993 0.028595 -0.021150 -1364740.000000 0 0 1
-31.368345 -17.500767 13.901769 38.516349 0.508897 1.201530 0.043868 -0.017038 -744264.000000 0 0 1
-30.829935 -18.766967 13.701869 38.606025 0.546811 1.207973 0.028126 -0.017164 -774875.000000 0 0 1
-29.698165 -18.806267 12.924269 37.452549 0.564508 1.218468 -0.007139 -0.005137 -833111.000000 0 0 1
-29.176655 -20.209167 12.631969 37.672991 0.605775 1.228867 -0.001400 -0.007802 189275.000000 0 0 1
-29.914725 -21.025167 11.643669 38.373473 0.612627 1.262506 0.006050 -0.004419 -194616.000000 0 0 1
-29.081565 -21.827367 10.829569 37.940097 0.643857 1.281332 0.007813 0.000424 -652067.000000 0 0 1
-29.733675 -22.454067 9.541169 38.461805 0.646804 1.320110 0.016540 0.001500 564726.000000 0 0 1
-30.426985 -23.710967 9.699769 39.775582 0.661975 1.324450 0.022022 -0.006022 220487.000000 0 0 1
-31.541385 -23.680967 10.574269 40.834573 0.644007 1.308857 0.041429 -0.012506 -664158.000000 0 0 1
-32.229235 -25.057267 10.622069 42.183155 0.660851 1.316248 0.065853 -0.023413 -309372.000000 0 0 1
-32.778515 -25.456167 9.415769 42.557070 0.660316 1.347700 0.058895 -0.021504 -194559.000000 0 0 1
-33.430045 -26.714667 9.557869 43.847397 0.674205 1.351052 0.070900 -0.021684 260446.000000 0 0 1
-33.577805 -27.407367 8.166669 44.105864 0.684562 1.384561 0.062320 -0.022318 1009110.000000 0 0 1
-32.278745 -27.667667 7.601069 43.187885 0.708629 1.393875 0.052983 -0.023314 659996.000000 0 0 1
-32.376375 -28.423267 6.400969 43.555530 0.720471 1.423301 0.043801 -0.019939 559535.000000 0 0 1
-30.982085 -28.616067 5.717269 42.561204 0.745719 1.436058 0.042305 -0.012744 558269.000000 0 0 1
-30.558605 -27.529367 4.962069 41.428451 0.733296 1.450734 0.043082 -0.009207 -249553.000000 0 0 1
-29.188805 -27.750567 4.664769 40.544302 0.760144 1.455487 0.032714 -0.011502 -164017.000000 0 0 1
-28.536965 -26.538667 3.998469 39.174571 0.749131 1.468550 0.020139 -0.009822 132088.000000 0 0 1
-29.059915 -26.218867 2.681669 39.231353 0.734048 1.502388 0.032836 -0.009248 -48632.900000 0 0 1
-28.461595 -25.016967 2.302569 37.963310 0.721076 1.510107 0.020766 -0.014290 -100892.000000 0 0 1
-28.801045 -24.531667 0.865369 37.842460 0.705517 1.547927 0.029660 -0.010921 -37261.800000 0 0 1
-28.241915 -25.320967 -0.178931 37.931375 0.730919 1.575514 0.028591 -0.016388 -70644.200000 0 0 1
-28.144455 -24.746567 -1.487531 37.506209 0.721243 1.610468 0.038341 -0.023657 -393296.000000 0 0 1
-29.503775 -24.635867 -2.178331 38.498621 0.695725 1.627409 0.060856 -0.018697 -181910.000000 0 0 1
-30.316505 -23.597967 -1.663831 38.454166 0.661423 1.614078 0.051243 -0.009493 80561.300000 0 0 1
-31.604645 -23.648567 -2.271731 39.538198 0.642388 1.628285 0.067830 -0.014406 392800.000000 0 0 1
-32.404195 -22.350867 -2.020731 39.416703 0.603815 1.622085 0.055738 -0.017809 -81162.100000 0 0 1
-32.642545 -22.125367 -0.686231 39.440316 0.595676 1.588196 0.062637 -0.020381 323093.000000 0 0 1
-33.617155 -21.110267 -0.491031 39.698836 0.560726 1.583166 0.065662 -0.014495 -39254.100000 0 0 1
-33.820815 -20.498367 0.894169 39.557934 0.544883 1.548190 0.057640 -0.016842 -49008.400000 0 0 1
-34.319092 -21.422467 1.864469 40.499363 0.558034 1.524743 0.075143 -0.020254 418036.000000 0 0 1
-34.671433 -20.751967 3.082569 40.524741 0.539340 1.494656 0.068414 -0.022492 -1657760.000000 0 0 1
-35.658284 -21.520967 3.956069 41.836775 0.543014 1.476095 0.090424 -0.009731 -860083.000000 0 0 1
35.234065 -21.610967 3.447469 41.477202 -0.550181 1.487583 0.081654 -0.008864 -776952.000000 0 0 1
34.484105 -20.386767 3.424869 40.205764 -0.533919 1.485509 0.085321 -0.021804 391071.000000 0 0 1
33.085855 -20.467667 2.667069 38.996313 -0.554000 1.502350 0.066748 -0.012849 1187510.000000 0 0 1
32.018525 -21.079367 3.325769 38.478389 -0.582222 1.484256 0.054479 -0.004099 187347.000000 0 0 1
30.763425 -20.735567 2.727169 37.199321 -0.593085 1.497418 0.053006 -0.012167 722381.000000 0 0 1
29.550865 -21.593167 3.109769 36.731310 -0.631042 1.486032 0.035824 0.003832 -227239.000000 0 0 1
29.367115 -22.869067 2.469269 37.303069 -0.661637 1.504553 0.022789 0.002279 -447947.000000 0 0 1
28.103515 -23.440367 2.637369 36.690790 -0.695174 1.498853 0.014423 0.005649 -507415.000000 0 0 1
27.815315 -24.401567 1.511269 37.032582 -0.720115 1.529976 0.017279 0.003291 -90070.700000 0 0 1
27.491455 -23.948367 0.179469 36.460068 -0.716628 1.565874 0.014378 -0.003585 289336.000000 0 0 1
27.079305 -25.051667 -0.625931 36.895346 -0.746523 1.587762 0.015193 0.000490 -33210.300000 0 0 1
26.286705 -24.707667 -1.912331 36.126399 -0.754443 1.623756 0.030123 -0.002299 -181212.000000 0 0 1
27.111805 -24.253967 -2.958131 36.497335 -0.729818 1.651936 0.014010 -0.013369 321160.000000 0 0 1
27.406235 -25.315967 -3.922231 37.515114 -0.745772 1.675538 0.012704 -0.010929 516697.000000 0 0 1
26.189905 -25.609467 -4.902031 36.956540 -0.774193 1.703832 0.020297 -0.014566 776498.000000 0 0 1
25.903305 -24.607167 -5.845131 36.203031 -0.759743 1.732960 0.029208 -0.029379 359434.000000 0 0 1
24.875905 -23.707067 -5.470631 34.796027 -0.761344 1.728671 0.045058 -0.031973 -238491.000000 0 0 1
24.345305 -22.710167 -6.491731 33.920320 -0.750663 1.763366 0.059604 -0.038833 -278443.000000 0 0 1
23.602205 -23.228267 -7.563631 33.967999 -0.777413 1.795348 0.057327 -0.042607 -221337.000000 0 0 1
22.554805 -22.395867 -7.965831 32.768103 -0.781862 1.816354 0.055693 -0.044738 -397243.000000 0 0 1
22.908205 -21.065567 -8.752131 32.328683 -0.743520 1.844941 0.061989 -0.040330 -541750.000000 0 0 1
23.262105 -21.310767 -10.086931 33.121300 -0.741648 1.880257 0.061515 -0.038560 235448.000000 0 0 1
23.496505 -20.030367 -10.676531 32.669400 -0.705934 1.903718 0.063736 -0.038128 -419383.000000 0 0 1
24.190805 -19.872867 -12.016731 33.533979 -0.687717 1.937291 0.052504 -0.041277 745215.000000 0 0 1
25.627205 -19.962967 -11.969831 34.620089 -0.661789 1.923832 0.058305 -0.037337 515110.000000 0 0 1
26.168805 -19.731367 -13.205031 35.334205 -0.646058 1.953811 0.050364 -0.031535 329676.000000 0 0 1
27.723935 -19.916967 -13.181031 36.592919 -0.622971 1.939286 0.038326 -0.039831 366945.000000 0 0 1
28.167985 -21.234867 -13.291431 37.696380 -0.645970 1.931136 0.031477 -0.037885 -282338.000000 0 0 1
28.187075 -22.034167 -12.083431 37.762746 -0.663490 1.896508 0.044008 -0.041068 -362529.000000 0 0 1
28.530815 -23.496867 -12.490531 39.014402 -0.688943 1.896686 0.034673 -0.025819 172121.000000 0 0 1
29.776405 -23.657467 -13.166331 40.245028 -0.671381 1.904087 0.021602 -0.034164 511636.000000 0 0 1
29.965415 -24.963967 -13.533431 41.282920 -0.694596 1.904793 0.016245 -0.021347 -167175.000000 0 0 1
-4.926435 -9.204758 -27.553151 29.464783 1.079383 2.779398 0.083580 -0.015431 212773.000000 0 0 1
-4.310135 -7.989258 -27.031461 28.515003 1.076057 2.817604 0.049305 -0.013981 413095.000000 0 0 1
-4.651335 -6.828558 -27.815321 29.016482 0.972827 2.852855 0.040419 -0.013046 -130425.000000 0 0 1
-4.217135 -5.515558 -27.089531 27.965126 0.918023 2.890694 0.039697 -0.017535 -220657.000000 0 0 1
-4.977235 -5.362858 -25.927441 26.940032 0.822675 2.866548 0.025648 -0.017655 79772.200000 0 0 1
-4.877335 -4.047658 -25.410311 26.188850 0.692703 2.897149 0.034329 -0.021742 181821.000000 0 0 1
-5.678135 -3.979958 -24.079331 25.057842 0.611348 2.861211 0.031072 -0.017063 153170.000000 0 0 1
-5.152035 -4.874958 -23.128531 24.191685 0.757772 2.844027 0.038132 -0.032161 148824.000000 0 1 0
-5.744435 -4.697558 -21.864431 23.089368 0.685476 2.814399 0.044943 -0.018655 -679418.000000 0 1 0
-5.024635 -5.458058 -20.763731 22.049260 0.826721 2.798436 0.038467 -0.017633 -515424.000000 0 1 0
-5.174235 -6.825658 -20.911231 22.597387 0.922159 2.752840 0.025799 -0.019023 165929.000000 0 1 0
-4.575535 -7.598058 -19.924331 21.809286 1.028762 2.722776 0.039289 -0.030477 -1396380.000000 0 1 0
-5.105535 -9.051158 -19.875731 22.428433 1.057211 2.659841 0.039646 -0.033365 371694.000000 0 1 0
-6.333335 -9.275358 -19.220431 22.261365 0.971699 2.612764 0.042900 -0.018581 493186.000000 0 1 0
-7.497735 -8.586658 -19.692031 22.753523 0.852996 2.616844 0.027977 -0.015135 -1378320.000000 0 1 0
-8.693935 -8.832958 -18.836531 22.548183 0.793330 2.559639 0.029732 -0.012113 -1151850.000000 0 1 0
-9.228635 -10.141458 -18.962931 23.401060 0.832489 2.515537 0.047680 -0.002809 404119.000000 0 1 0
-9.910935 -10.592158 -17.778131 22.945204 0.818611 2.457208 0.035973 0.003334 169087.000000 0 1 0
-10.473135 -12.042358 -17.837331 23.934814 0.854981 2.411700 0.035833 0.007510 32141.500000 0 1 0
-11.630235 -12.124358 -18.653631 25.104190 0.806196 2.408410 0.047293 -0.009181 -117268.000000 0 0 1
-11.446735 -12.332058 -20.064531 26.185736 0.822613 2.443764 0.046818 -0.016330 -985274.000000 0 0 1
-12.678335 -12.166158 -20.985631 27.370646 0.764786 2.444513 0.050985 -0.026151 798649.000000 0 0 1
-13.688335 -13.196158 -20.940131 28.284239 0.767093 2.404382 0.061916 -0.017535 256430.000000 0 0 1
-14.373835 -13.428358 -19.731831 27.861678 0.751404 2.357751 0.056612 -0.009591 -489892.000000 0 0 1
-15.531635 -14.446458 -19.921431 29.099746 0.749215 2.324839 0.048792 -0.007107 413823.000000 0 0 1
-15.090135 -15.780358 -20.145931 29.708423 0.807753 2.316000 0.068397 0.002017 -261204.000000 0 0 1
-16.048435 -16.448258 -20.924331 31.079335 0.797701 2.309399 0.087901 -0.004332 151128.000000 0 0 1
-15.653535 -17.894958 -21.217531 31.866068 0.852110 2.299408 0.056585 -0.005579 -109269.000000 0 0 1
-15.928835 -18.773158 -20.171231 31.828255 0.867180 2.257191 0.063698 -0.003732 102762.000000 0 0 1
-15.519235 -20.053758 -20.641731 32.696803 0.912185 2.254034 0.049475 -0.002917 258823.000000 0 0 1
-16.270835 -21.229258 -19.910731 33.344545 0.916860 2.210704 0.051130 -0.003908 -3551.700000 0 0 1
-15.626935 -22.377858 -20.256231 33.989476 0.961198 2.209252 0.041478 0.004381 -14036.800000 0 0 1
-16.339035 -23.483858 -19.752331 34.765072 0.962924 2.175072 0.047131 0.002237 169271.000000 0 0 1
-15.850335 -24.885658 -20.286731 35.806152 1.003667 2.173135 0.042457 -0.005553 -199648.000000 0 0 1
-16.110635 -25.010758 -21.689531 36.817473 0.998546 2.200753 0.043730 0.002965 419746.000000 0 0 1
-15.525335 -26.241918 -22.147131 37.685139 1.036559 2.198996 0.044874 0.001529 -158692.000000 0 0 1
-15.859835 -26.605828 -23.651831 38.971958 1.033247 2.222943 0.054938 -0.001641 232448.000000 0 0 1
-17.127435 -27.259208 -23.785931 40.027290 1.009815 2.207120 0.068031 -0.000505 397463.000000 0 0 1
-17.081135 -28.631278 -23.575431 40.832783 1.032888 2.186294 0.067811 0.002399 -354349.000000 0 0 1
-18.014635 -29.418538 -24.526931 42.326679 1.021341 2.188871 0.070267 0.000347 -184206.000000 0 0 1
-17.752335 -29.408368 -25.956701 43.055172 1.027698 2.217891 0.066689 -0.004654 -30522.200000 0 0 1
-17.955535 -28.194498 -26.652611 42.751522 1.003724 2.243919 0.089007 -0.011138 331507.000000 0 0 1
-16.745535 -27.762048 -27.532521 42.534503 1.028041 2.274831 0.095030 -0.018142 170737.000000 0 0 1
-16.896835 -28.276918 -28.877631 43.806446 1.032181 2.290564 0.089856 -0.013588 -4505.410000 0 0 1
-15.714735 -27.997288 -29.571501 43.649452 1.059323 2.315123 0.051741 -0.006705 -284277.000000 0 0 1
-15.878735 -28.322008 -31.025431 44.909328 1.059813 2.333455 0.065060 -0.013812 86785.500000 0 0 1
-15.774735 -29.726628 -31.367861 46.004971 1.082923 2.321066 0.052355 -0.013317 524635.000000 0 0 1
-16.443435 -29.824018 -32.657451 47.184401 1.066918 2.335224 0.048811 -0.008249 311942.000000 0 0 1
-16.405335 -31.248588 -33.230471 48.475493 1.087354 2.326101 0.036007 -0.009140 891630.000000 0 0 1
-15.136235 -31.642338 -33.810421 48.718453 1.124615 2.337821 0.045592 -0.003840 431192.000000 0 0 1
-15.217435 -32.684988 33.717025 49.363109 1.135063 0.818878 0.026096 0.000452 -27502.700000 0 0 1
-13.926435 -33.121388 32.981333 48.772331 1.172772 0.828163 0.024316 0.000469 208773.000000 0 0 1
-13.054235 -33.887208 33.780202 49.596955 1.203091 0.821540 0.034428 0.002827 -579884.000000 0 0 1
-12.044535 34.154645 33.027778 49.014740 -1.231765 0.831411 0.036031 -0.000080 -244422.000000 0 0 1
-11.180935 33.204748 33.910158 48.759281 -1.245995 0.801736 0.047409 0.000219 -53376.400000 0 0 1
-10.386935 33.953275 -33.709721 48.959765 -1.273919 2.330241 0.057723 -0.009051 -386958.000000 0 0 1
-9.628135 33.252294 -32.748211 47.653556 -1.288956 2.328444 0.067257 -0.012593 195251.000000 0 0 1
-8.822235 34.119215 -31.737031 47.425645 -1.317767 2.303922 0.059785 -0.017848 -188695.000000 0 0 1
-9.592535 -33.743208 -30.876151 46.732831 1.293823 2.292541 0.067775 -0.017198 -347439.000000 0 0 1
-8.879235 -32.709258 -30.208261 45.401271 1.305725 2.298774 0.060361 -0.018212 -94542.600000 0 0 1
-9.822235 -31.855918 -29.290801 44.375971 1.271712 2.291695 0.066160 -0.017419 396934.000000 0 0 1
-9.957935 -32.142788 -27.900711 43.712343 1.270370 2.263058 0.093224 -0.015434 -97628.100000 0 0 1
-10.401035 -33.420938 -27.524361 44.527868 1.269084 2.237168 0.097626 -0.019835 -245597.000000 0 0 1
-10.604235 -33.470978 -25.997171 43.687630 1.263982 2.208148 0.091964 -0.027400 613503.000000 0 0 1
-9.420235 -33.461418 -25.197951 42.934183 1.296374 2.198018 0.104348 -0.033946 175235.000000 0 0 1
-9.806335 -33.770568 -23.873331 42.503545 1.288187 2.167210 0.100511 -0.035764 -259156.000000 0 0 1
-8.677135 -34.058325 -22.902531 41.949828 1.321331 2.148320 0.113947 -0.040624 -628380.000000 0 0 1
-8.147235 33.317002 -23.065531 41.333023 -1.330966 2.162820 0.108769 -0.043393 -332357.000000 0 0 1
-7.377935 33.002589 -21.938331 40.309989 -1.350856 2.146280 0.106722 -0.041372 -456820.000000 0 0 1
-6.636435 31.640712 -21.872031 39.032841 -1.364050 2.165604 0.097499 -0.044424 28899.600000 0 0 1
-5.492035 31.662062 -22.698631 39.343062 -1.399047 2.185775 0.076029 -0.045224 -43022.900000 0 0 1
-4.674435 30.508882 -22.619831 38.266160 -1.418763 2.203241 0.061066 -0.035845 426070.000000 0 0 1
-3.173935 30.821502 -22.915331 38.537661 -1.468180 2.207591 0.053898 -0.037319 342393.000000 0 0 1
-3.015635 31.075112 -24.287631 39.555603 -1.474056 2.231930 0.064676 -0.035422 -1138250.000000 0 0 1
-1.815135 31.685202 -24.507131 40.097958 -1.513572 2.228349 0.038236 -0.041186 -1148730.000000 0 0 1
-1.720235 32.134112 -25.952271 41.341030 -1.517314 2.249469 0.064166 -0.015133 -614988.000000 0 0 1
-0.843435 33.130534 -26.261131 42.284639 -1.545344 2.240886 0.060178 -0.030516 -892012.000000 0 0 1
-1.497435 -34.267740 -26.323501 43.237102 1.527126 2.225365 0.050254 -0.021023 -123339.000000 0 0 1
-0.667935 -33.091248 -26.882441 42.639682 1.550614 2.252937 0.025360 -0.010398 125347.000000 0 0 1
0.499965 -32.910078 -26.087171 41.998377 -1.555606 2.241002 0.028354 -0.012157 -84606.600000 0 0 1
1.413365 -32.101228 -26.810411 41.848352 -1.526796 2.266149 0.008911 -0.002355 -209294.000000 0 0 1
2.657065 -31.772258 -25.981501 41.128758 -1.487362 2.254555 0.012064 -0.012089 -607742.000000 0 0 1
2.324465 -31.135828 -24.756131 39.846065 -1.496279 2.241190 0.020574 -0.008645 68552.500000 0 0 1
3.507765 -30.523328 -24.328831 39.190177 -1.456377 2.240545 0.006293 -0.008721 -427641.000000 0 0 1
3.566665 -29.883188 -22.946331 37.845212 -1.452005 2.222222 0.018462 -0.012364 -228818.000000 0 0 1
3.535565 -30.814418 -21.877231 37.955787 -1.456559 2.185097 0.022742 -0.011804 466179.000000 0 0 1
3.734865 -30.007138 -20.683731 36.635969 -1.446967 2.170714 0.026673 -0.003379 -348611.000000 0 0 1
3.610865 -30.771108 -19.322731 36.513934 -1.453985 2.128439 0.034478 0.000157 211376.000000 0 0 1
2.316265 -31.270918 -18.988431 36.657822 -1.496860 2.115297 0.039758 -0.007430 425294.000000 0 0 1
2.047165 -32.608088 -19.325631 37.959956 -1.508098 2.104942 0.046555 -0.006825 -425501.000000 0 0 1
2.666665 -33.649098 -18.403231 38.445439 -1.491712 2.069952 0.025831 -0.010971 392619.000000 0 0 1
3.999965 -34.031208 -18.739131 39.054806 -1.453795 2.071242 0.028891 0.000472 309617.000000 0 0 1
4.404265 33.465743 -17.988931 38.248597 1.439943 2.060445 0.037983 -0.013124 -654156.000000 0 0 1
5.437665 32.732628 -18.744731 38.109816 1.406176 2.085022 0.041345 -0.009841 -806542.000000 0 0 1
6.657165 33.394427 -18.976431 38.982183 1.374026 2.079216 0.063526 -0.009709 -335027.000000 0 0 1
7.550665 32.474962 -19.615131 38.683189 1.342348 2.102580 0.050373 -0.018234 1250870.000000 0 0 1
8.977765 33.081923 -19.961531 39.667073 1.305799 2.098125 0.045645 -0.027515 1072260.000000 0 0 1
9.748065 33.341329 -18.775531 39.486575 1.286352 2.066319 0.046058 -0.018473 424869.000000 0 0 1
10.913465 34.099922 -19.151531 40.604059 1.261054 2.061975 0.041019 -0.013001 646080.000000 0 0 1
11.800365 -34.179368 -17.919031 40.355538 -1.238361 2.030887 0.030553 -0.010166 -111639.000000 0 0 1
12.454665 33.351893 -17.352431 39.605231 1.213401 2.024319 0.028056 -0.012891 -93470.100000 0 0 1
13.121365 33.741270 -16.163431 39.647195 1.199911 1.990710 0.025508 -0.017154 -556473.000000 0 0 1
14.308165 32.880465 -15.721731 39.153817 1.160354 1.983991 0.024847 -0.017049 -350961.000000 0 0 1
14.042265 31.607082 -15.155931 37.761026 1.152713 1.983802 0.030840 -0.008913 -569882.000000 0 0 1
15.200065 30.816692 -15.156031 37.555503 1.112570 1.986205 0.020589 -0.008326 -98943.800000 0 0 1
15.024965 29.530662 -14.284231 36.081143 1.100140 1.977835 0.029346 -0.006088 -191514.000000 0 0 1
15.055765 29.912452 -12.903331 35.887697 1.104490 1.938579 0.025701 -0.009437 -481732.000000 0 0 1
13.792865 29.966052 -12.306631 35.208814 1.139424 1.927869 0.032926 -0.010836 -169441.000000 0 0 1
13.210965 28.598202 -11.775931 33.631226 1.138049 1.928526 0.034900 -0.004640 -66373.300000 0 0 1
12.561165 27.824462 -12.793731 33.100803 1.146743 1.967639 0.036789 -0.006973 -59422.800000 0 0 1
12.267265 26.474742 -12.540231 31.759332 1.136890 1.976703 0.049566 -0.008735 586496.000000 0 0 1
11.285065 26.188102 -11.324131 30.682330 1.163919 1.948812 0.054966 -0.008663 891753.000000 0 0 1
9.936365 26.627122 -11.556731 30.680499 1.213634 1.957006 0.058722 -0.014043 613519.000000 0 0 1
9.370065 26.759332 -10.226831 30.140472 1.233978 1.916975 0.052829 -0.008855 609732.000000 0 0 1
8.240465 27.832812 -10.145431 30.748992 1.282949 1.907040 0.056431 -0.015382 878914.000000 0 0 1
8.840565 29.098932 -10.556231 32.192196 1.275847 1.904890 0.063872 -0.018633 434921.000000 0 0 1
7.847165 30.102252 -10.659331 32.883810 1.315788 1.900911 0.057322 -0.015198 244849.000000 0 0 1
8.412865 31.501772 -10.954031 34.396639 1.309827 1.894903 0.080414 -0.024298 -420160.000000 0 0 1
9.281165 31.946122 -9.940831 34.720525 1.288054 1.861170 0.062627 -0.022612 -476579.000000 0 0 1
9.766965 33.241521 -10.231631 36.125872 1.285020 1.857948 0.083078 -0.022781 100006.000000 0 0 1
10.961565 33.364174 -11.188431 36.857903 1.253363 1.879219 0.062661 -0.018530 449202.000000 0 0 1
12.301865 33.063175 -10.744531 36.877560 1.214596 1.866441 0.041563 -0.018636 1231610.000000 0 0 1
13.200565 33.689024 -11.685031 38.022956 1.197348 1.883167 0.054702 -0.014710 -459149.000000 0 0 1
14.689065 33.611027 -11.451631 38.426678 1.158779 1.873406 0.036991 -0.020162 -787244.000000 0 0 1
15.068265 34.115630 -10.202331 38.665442 1.154881 1.837820 0.051042 -0.018077 -358383.000000 0 0 1
16.409865 -34.117565 -10.312731 39.238301 -1.122480 1.836743 0.035686 -0.028479 -402893.000000 0 0 1
16.829365 -33.176268 -9.203031 38.322161 -1.101349 1.813316 0.051744 -0.029212 -268842.000000 0 0 1
16.946265 -33.824858 -7.922731 38.653157 -1.106349 1.777229 0.052673 -0.027665 115859.000000 0 0 1
17.232165 -32.931128 -6.855231 37.794191 -1.088699 1.753189 0.045415 -0.018632 -1165420.000000 0 0 1
17.422765 -33.815068 -5.579431 38.446607 -1.095034 1.716432 0.036215 -0.012268 521767.000000 0 0 1
18.429565 33.775130 -5.558931 38.875571 1.071295 1.714281 0.019498 -0.018604 826674.000000 0 0 1
19.726165 -34.298904 -5.755231 39.983235 -1.048868 1.715239 0.033113 -0.011530 -709536.000000 0 0 1
20.638465 33.551586 -6.730231 39.961872 1.019329 1.740019 0.015609 -0.004199 7729.880000 0 0 1
21.011665 32.264582 -6.356131 39.024271 0.993557 1.734402 0.025946 0.005411 -366650.000000 0 0 1
22.043765 32.222012 -5.419931 39.415242 0.970807 1.708742 0.032015 0.002075 -1042880.000000 0 0 1
22.277765 30.841922 -4.737731 38.340176 0.945246 1.694684 0.022005 -0.005884 -202653.000000 0 0 1
22.777665 29.897192 -5.651931 38.008005 0.919744 1.720054 0.024562 -0.005593 148145.000000 0 0 1
23.297665 28.730452 -5.013931 37.327732 0.889441 1.705525 0.016649 0.005111 -340622.000000 0 0 1
24.148865 27.843362 -5.902931 37.326467 0.856338 1.729606 0.007189 0.014141 -73014.100000 0 0 1
25.492065 28.303492 -6.068131 38.571431 0.837612 1.728775 0.030350 -0.002415 118918.000000 0 0 1
26.262065 27.404072 -6.805431 38.561550 0.806675 1.748208 0.015443 0.000567 -173500.000000 0 0 1
27.080165 26.464682 -5.896931 38.320863 0.773904 1.725293 0.010163 0.001232 -656602.000000 0 0 1
28.196365 27.055032 -5.275031 39.431405 0.764744 1.704976 0.006378 -0.006438 -65531.900000 0 0 1
28.817265 26.164332 -4.355931 39.166072 0.737184 1.682244 0.000295 0.004407 813825.000000 0 0 1
30.126165 26.843762 -3.782131 40.527496 0.727845 1.664255 0.004694 0.005589 546532.000000 0 0 1
29.847665 27.913432 -2.953431 40.972742 0.751924 1.642942 0.023011 -0.004863 36739.400000 0 0 1
30.894565 28.228862 -2.054431 41.899445 0.740342 1.619848 0.034169 -0.005926 -54299.300000 0 0 1
30.741165 29.615122 -1.350631 42.707129 0.766744 1.602427 0.047203 -0.003974 -2960.070000 0 0 1
31.310965 30.640822 -2.148131 43.861726 0.774581 1.619791 0.037987 -0.009691 146399.000000 0 0 1
30.928465 31.957302 -1.760031 44.507717 0.801757 1.610351 0.068235 -0.009559 -10604.400000 0 0 1
33.475135 22.828442 19.089332 44.789787 0.598510 1.130510 0.035048 0.006526 30829.900000 0 0 1
34.000265 22.452642 20.363732 45.550200 0.583628 1.107319 0.034845 0.001013 188000.000000 0 0 1
34.763555 23.510542 20.898932 46.883000 0.594641 1.108765 0.019652 -0.001628 -170091.000000 0 0 1
34.757285 23.520142 22.420032 47.580708 0.594914 1.080145 0.037189 -0.008503 286528.000000 0 0 1
33.468845 23.801142 22.944932 47.043893 0.618166 1.061303 0.044294 -0.013099 364602.000000 0 0 1
33.572635 24.150342 24.327972 47.981362 0.623592 1.039061 0.039776 -0.015850 686407.000000 0 0 1
32.229575 24.481042 25.097962 47.623257 0.649606 1.015717 0.059756 -0.017896 722037.000000 0 0 1
31.742175 25.756642 24.871032 47.849122 0.681673 1.024203 0.034893 -0.010363 87759.800000 0 0 1
30.461445 25.951542 25.426422 47.411867 0.705623 1.004763 0.030770 -0.023545 96838.000000 0 0 1
30.066935 27.421742 25.806282 48.186478 0.739418 1.005637 0.021005 -0.011777 -253113.000000 0 0 1
29.924065 28.357642 24.721502 48.070346 0.758528 1.030631 0.014594 -0.009171 335427.000000 0 0 1
29.739075 29.635142 25.248712 48.991343 0.783648 1.029356 -0.002152 -0.001956 -319213.000000 0 0 1
29.501315 30.624042 24.110782 48.882403 0.804069 1.054985 0.010012 -0.014942 -24733.300000 0 0 1
30.652775 31.002642 23.360932 49.462001 0.791073 1.078897 0.004063 -0.014019 -3078.210000 0 0 1
30.439105 31.964942 22.383132 49.490416 0.809844 1.101485 0.006955 -0.012724 679191.000000 0 0 1
31.780655 32.576042 21.817332 50.469838 0.797757 1.123772 -0.003427 -0.018355 1171360.000000 0 0 1
32.536815 33.480342 22.627532 51.880467 0.799689 1.119483 -0.004176 -0.002322 503823.000000 0 0 1
33.925965 33.344142 22.332732 52.550488 0.776749 1.131860 0.007699 0.006811 715871.000000 0 0 1
34.728765 -34.206767 23.147532 53.962934 -0.777826 1.127464 0.019887 0.006847 43349.000000 0 0 1
34.388735 -32.886367 22.594832 52.674706 -0.763070 1.127466 0.013028 0.002443 111262.000000 0 0 1
34.903145 -31.876467 23.381332 52.735428 -0.740106 1.111441 0.021381 -0.003868 -1110010.000000 0 0 1
34.195285 -30.554967 23.143832 51.366920 -0.729236 1.103405 0.028899 -0.003611 1685530.000000 0 0 1
32.767185 -30.475067 23.468522 50.529097 -0.749171 1.087777 0.023816 -0.005698 2111040.000000 0 0 1
31.901575 -30.898967 22.413832 49.747729 -0.769435 1.103415 0.034918 0.001169 -313978.000000 0 0 1
31.116825 -32.210067 22.533532 50.134871 -0.802660 1.104638 0.020650 0.003397 -217430.000000 0 0 1
30.116565 -32.126867 23.530502 49.928224 -0.817684 1.080047 0.022962 -0.001933 61587.100000 0 0 1
29.401175 -33.331767 23.669882 50.355726 -0.847972 1.081445 0.009115 0.002267 -95863.200000 0 0 1
28.768805 -33.504667 25.040842 50.766629 -0.861302 1.054970 0.002121 0.004526 -187267.000000 0 0 1
28.272335 33.809542 25.212912 50.775004 0.874355 1.051163 -0.006326 -0.008066 349764.000000 0 0 1
27.757625 33.648142 26.574432 51.077232 0.881033 1.023618 -0.002634 0.001268 -837826.000000 0 0 1
27.527355 32.150642 26.982662 50.194453 0.862714 1.003252 0.007599 0.005346 833884.000000 0 0 1
26.559105 31.454942 26.129672 48.760222 0.869589 1.005246 0.003574 0.006668 608066.000000 0 0 1
25.244605 31.930142 26.379882 48.504868 0.901801 0.995766 0.009169 -0.001673 -533351.000000 0 0 1
24.331405 31.541142 25.162332 47.116917 0.913728 1.007424 0.040094 -0.008201 115317.000000 0 0 1
24.601905 32.355742 23.993402 47.199906 0.920700 1.037545 0.043871 -0.015110 896574.000000 0 0 1
25.824905 32.090842 23.281332 47.315624 0.893170 1.056361 0.020799 -0.009978 422995.000000 0 0 1
25.940405 32.787342 21.888832 47.191476 0.901462 1.088483 0.028314 0.000837 625789.000000 0 0 1
27.247385 33.119942 21.385532 47.923810 0.882373 1.108237 0.037833 -0.001730 761848.000000 0 0 1
27.209005 33.757642 20.098732 47.789825 0.892401 1.136728 0.040056 -0.011396 -295154.000000 0 0 1
28.506845 -34.243467 19.549132 48.656180 -0.876565 1.157335 0.054736 -0.017632 -10527.100000 0 0 1
29.357615 33.491842 18.901332 48.382160 0.851083 1.169440 0.055607 -0.021972 -78048.400000 0 0 1
30.536655 34.153042 18.474632 49.398680 0.841244 1.187488 0.050354 -0.021536 211474.000000 0 0 1
31.580165 33.229342 17.792032 49.173696 0.810839 1.200577 0.031238 -0.005289 61965.800000 0 0 1
32.254195 32.308842 18.605232 49.298570 0.786245 1.183810 0.015256 -0.013532 771731.000000 0 0 1
33.145515 31.411142 17.862432 49.034187 0.758539 1.197931 0.030583 -0.013850 636690.000000 0 0 1
34.007135 30.440842 18.719532 49.331035 0.730119 1.181575 0.040096 -0.019594 242457.000000 0 0 1
35.039695 31.228442 19.287032 50.744314 0.727949 1.180911 0.031665 -0.014159 -44767.000000 0 0 1
35.938385 30.545542 20.129232 51.281416 0.704460 1.167421 0.046951 -0.017080 460476.000000 0 0 1
-35.065835 31.397042 20.704232 51.420349 -0.730254 1.156390 0.079001 -0.015352 1020910.000000 0 0 1
-34.116243 32.021742 19.777032 50.798042 -0.753740 1.170896 0.080914 -0.013653 1477600.000000 0 0 1
-33.031005 32.737242 20.416332 50.789772 -0.780932 1.157121 0.068316 -0.001226 631120.000000 0 0 1
-33.268945 34.091542 21.091032 52.094986 -0.797609 1.153974 0.057432 0.000283 -337314.000000 0 0 1
-33.565385 34.047142 22.496932 52.838953 -0.792523 1.130990 0.056557 -0.000019 175642.000000 0 0 1
-33.335875 -33.351467 23.124432 52.519904 0.785632 1.114865 0.044031 0.011452 -58935.300000 0 0 1
-33.435015 -33.487167 24.664602 53.363220 0.786177 1.090319 0.049509 -0.000909 24750.300000 0 0 1
-34.730130 -33.877867 25.068962 54.610848 0.772977 1.093874 0.047997 -0.002595 -92427.300000 0 0 1
-34.704621 -34.311567 26.417362 55.493886 0.779703 1.074649 0.054912 -0.011022 608635.000000 0 0 1
36.069865 34.122642 27.096072 56.564892 0.757664 1.071251 0.043468 -0.018795 119788.000000 0 0 1
-35.986626 33.454142 28.313722 56.708763 -0.748945 1.048025 0.067832 -0.027213 -207879.000000 0 0 1
34.948265 33.387442 28.980752 56.355891 0.762562 1.030669 0.068533 -0.033838 -539050.000000 0 0 1
35.032875 32.401542 30.129082 56.435129 0.746397 1.007624 0.068678 -0.024765 -98708.100000 0 0 1
35.123515 31.011942 29.848152 55.554604 0.723309 1.003592 0.052805 -0.024219 559295.000000 0 0 1
-35.887309 30.613842 29.111812 55.431073 -0.706265 1.017859 0.054732 -0.025144 -33006.800000 0 0 1
-35.935413 29.180042 28.578822 54.402002 -0.682023 1.017697 0.050288 -0.019024 -477074.000000 0 0 1
35.211585 29.013742 27.625842 53.337042 0.689195 1.026345 0.047241 -0.016752 246963.000000 0 0 1
35.085375 27.676442 27.111862 52.268748 0.667894 1.025465 0.042236 -0.016315 -90999.100000 0 0 1
34.548555 26.526042 28.028252 51.795912 0.654790 0.999018 0.036297 -0.018064 245779.000000 0 0 1
35.539425 26.025642 28.969852 52.722264 0.632079 0.989054 0.032613 -0.014985 696690.000000 0 0 1
35.158815 24.827342 29.667512 52.275237 0.614841 0.967299 0.026192 -0.019660 -326245.000000 0 0 1
35.659465 23.573242 29.013202 51.662956 0.584115 0.974495 0.016623 -0.012177 125359.000000 0 0 1
35.033195 23.445642 27.717612 50.450856 0.589783 0.989152 0.016089 -0.013016 634700.000000 0 0 1
35.785005 22.572542 26.840372 50.104808 0.562746 1.005478 0.011632 -0.012992 -517620.000000 0 0 1
35.598665 21.002142 27.092552 49.420252 0.533012 0.990577 0.002555 -0.016716 -894616.000000 0 0 1
34.267285 20.550842 26.902962 48.170046 0.540215 0.978220 0.037705 -0.011863 473021.000000 0 0 1
34.080065 19.276042 27.525812 47.861121 0.514749 0.958047 0.030666 -0.012110 -573650.000000 0 0 1
33.785725 19.311242 29.052522 48.563858 0.519260 0.929502 0.024717 -0.024798 -1157860.000000 0 0 1
32.541485 19.699442 29.501882 48.139145 0.544354 0.911139 0.025270 -0.025530 -485840.000000 0 0 1
32.414015 21.103042 29.426402 48.599587 0.577111 0.920419 0.038525 -0.026480 -1640590.000000 0 0 1
31.213375 21.697642 30.154192 48.521518 0.607456 0.900191 0.049381 -0.031019 -1126850.000000 0 0 1
29.964685 21.558342 29.576742 47.301460 0.623666 0.895304 0.068542 -0.042425 -606463.000000 0 0 1
29.733855 22.195642 28.315132 46.674354 0.641243 0.918953 0.075041 -0.037385 -756428.000000 0 0 1
29.651235 23.729842 28.300422 47.362591 0.674923 0.930383 0.073356 -0.031582 -869322.000000 0 0 1
30.896315 24.340142 28.311792 48.462175 0.667258 0.946897 0.059047 -0.026701 -697589.000000 0 0 1
30.887645 25.613842 28.911982 49.457236 0.692329 0.946427 0.039837 -0.017381 -130822.000000 0 0 1
31.008045 25.700942 30.426612 50.475895 0.692085 0.923797 0.045658 -0.022905 -276866.000000 0 0 1
32.298205 25.390942 30.888512 51.400138 0.666233 0.926117 0.039066 -0.020308 -318630.000000 0 0 1
32.568055 25.389342 32.281052 52.415296 0.662164 0.907305 0.048143 -0.016990 -203043.000000 0 0 1
32.100385 24.141242 33.002125 51.984368 0.644815 0.882986 0.063617 -0.022360 -178860.000000 0 0 1
32.569765 24.008442 -34.157589 52.952203 0.635219 2.271904 0.041673 -0.022206 504510.000000 0 0 1
31.940455 22.858242 -33.547391 51.653842 0.621153 2.277678 0.021390 -0.021443 66060.100000 0 0 1
32.376255 22.634142 -32.124171 50.916487 0.610120 2.253533 0.020383 -0.022206 -317851.000000 0 0 1
31.951045 23.690842 -31.225511 50.568348 0.638022 2.236346 0.008964 -0.020672 433548.000000 0 0 1
32.462755 23.490642 -29.918931 50.007831 0.626402 2.212155 0.035648 -0.027900 -923895.000000 0 0 1
33.856925 23.994942 -29.621531 50.985132 0.616552 2.190733 0.035778 -0.007749 -708230.000000 0 0 1
34.430445 23.393842 -28.461261 50.425894 0.596802 2.170524 0.024495 -0.011527 -364889.000000 0 0 1
35.490715 24.156842 -27.950901 51.228866 0.597623 2.147911 0.036319 -0.001406 -352667.000000 0 0 1
36.030575 23.356942 -26.767211 50.598742 0.575146 2.128229 0.025364 0.002213 95883.900000 0 0 1
-35.256122 22.285442 -27.170751 49.778357 -0.563690 2.148181 0.023249 0.000116 457483.000000 0 0 1
-35.264412 21.323242 -26.156371 48.809991 -0.543844 2.136348 0.002032 -0.001378 -771849.000000 0 0 1
-34.323785 20.186142 -26.381561 47.765985 -0.531631 2.155927 0.014310 0.002291 -897348.000000 0 0 1
-32.999265 20.505142 -26.046581 46.774317 -0.555993 2.161393 0.020754 -0.001546 -442109.000000 0 0 1
-32.226255 19.325242 -26.202771 45.810280 -0.540180 2.179720 -0.000562 -0.004026 467093.000000 0 0 1
-30.806115 19.492142 -25.575661 44.531728 -0.564143 2.182575 0.013890 -0.005646 199991.000000 0 0 1
-30.839325 19.624442 -24.131231 43.800674 -0.566716 2.154278 0.019166 -0.009697 650039.000000 0 0 1
-29.586835 19.651742 -23.421031 42.545464 -0.586297 2.153752 0.026532 -0.007925 500434.000000 0 0 1
-29.814825 19.970842 -21.971731 42.077492 -0.590189 2.120193 0.012613 -0.012219 -123293.000000 0 0 1
-30.551435 18.992042 -21.314331 41.813737 -0.556181 2.105684 0.008599 -0.017933 -19276.400000 0 0 1
-31.150655 19.471542 -20.089331 41.869864 -0.558654 2.071228 0.017181 -0.015744 -952572.000000 0 0 1
-32.262865 18.549242 -19.606731 42.064127 -0.521790 2.055691 0.015123 -0.015186 -534337.000000 0 0 1
-33.037885 18.900542 -18.509031 42.323948 -0.519642 2.023411 0.020325 -0.020473 548339.000000 0 0 1
-33.916955 20.022242 -18.772531 43.630929 -0.533280 2.015574 0.014337 -0.019390 -77299.600000 0 0 1
-35.103181 20.196542 -17.775531 44.227855 -0.522096 1.984396 0.023486 -0.021486 189900.000000 0 0 1
-34.641954 20.660742 -16.511231 43.583850 -0.537774 1.959337 0.029505 -0.027645 301379.000000 0 0 1
-35.665896 20.545042 -15.532631 43.993381 -0.522617 1.931644 0.042088 -0.015197 -404970.000000 0 0 1
-35.441491 21.468242 -14.284031 43.829422 -0.544628 1.902760 0.049815 -0.013026 -56480.200000 0 0 1
-35.638786 22.830842 -14.535031 44.750839 -0.569751 1.901596 0.067691 -0.027245 1032680.000000 0 0 1
35.141055 23.103442 -14.818031 44.589649 0.581594 1.909559 0.066839 -0.017148 575681.000000 0 0 1
34.916555 24.629242 -15.160231 45.338703 0.614324 1.911741 0.068700 -0.025440 -156862.000000 0 0 1
34.929165 25.436942 -13.967831 45.411286 0.629431 1.883450 0.082378 -0.024094 -87742.900000 0 0 1
34.785685 26.842842 -14.192831 46.173786 0.657222 1.883233 0.068891 -0.022459 -352085.000000 0 0 1
36.028245 27.579942 -14.708331 47.697197 0.653353 1.884274 0.078544 -0.010310 -130741.000000 0 0 1
-35.867768 27.384542 -16.081731 47.906493 -0.652076 1.913134 0.072570 -0.008318 -187379.000000 0 0 1
-34.590373 27.908742 -16.358331 47.360182 -0.678895 1.923464 0.057005 -0.005681 -541119.000000 0 0 1
-34.162335 27.851542 -17.848231 47.553474 -0.683983 1.955549 0.036809 -0.008615 -263213.000000 0 0 1
-33.804835 26.634242 -18.445531 46.822936 -0.667309 1.975713 0.034937 -0.019441 632046.000000 0 0 1
-32.574335 26.081142 -17.964831 45.431800 -0.675147 1.977326 0.035457 -0.015855 255634.000000 0 0 1
-32.330835 24.640242 -18.502531 44.662827 -0.651218 1.997938 0.029976 -0.014936 -231707.000000 0 0 1
-32.016635 24.635542 -19.866631 45.018417 -0.655840 2.027843 0.016029 -0.011210 161926.000000 0 0 1
-31.917625 23.331942 -20.280031 44.434153 -0.631233 2.044749 0.017492 -0.009810 -678957.000000 0 0 1
-31.495735 23.280642 -21.725931 44.788232 -0.636533 2.077252 0.009867 0.000860 -466863.000000 0 0 1
-32.394195 23.670742 -22.737431 46.115927 -0.631040 2.086388 0.025524 0.002269 38372.700000 0 0 1
-31.892685 23.474342 -24.052431 46.332576 -0.634508 2.116624 0.026578 0.001559 274935.000000 0 0 1
-32.801315 24.163842 -25.140691 47.873499 -0.634917 2.123686 0.011322 0.012945 147917.000000 0 0 1
-32.689095 25.547442 -25.113171 48.496599 -0.663376 2.115113 0.011712 0.014501 -225572.000000 0 0 1
-33.294245 26.160342 -26.194411 49.789732 -0.665980 2.124805 0.030224 0.002081 -323753.000000 0 0 1
-32.777335 27.564842 -26.410921 50.316111 -0.699230 2.123394 0.025108 0.005575 251503.000000 0 0 1
-31.501975 27.730542 -27.001011 49.904028 -0.721812 2.142492 -0.004918 0.001173 -266523.000000 0 0 1
-31.100905 29.046242 -27.204421 50.507732 -0.751251 2.139593 0.011701 -0.004940 -267148.000000 0 0 1
-29.729985 29.138042 -27.854361 50.087553 -0.775343 2.160498 0.020977 -0.002267 -893098.000000 0 0 1
-28.740435 28.369642 -27.194311 48.686546 -0.778906 2.163444 -0.003275 0.006266 1953550.000000 0 0 1
-27.378285 28.416942 -27.793181 48.265454 -0.804012 2.184428 -0.000309 0.017299 2499870.000000 0 0 1
-26.621795 29.746642 -27.548821 48.502786 -0.840778 2.174851 -0.000408 0.003200 -738831.000000 0 0 1
-26.222635 30.057842 -26.197561 47.722245 -0.853438 2.151915 -0.011345 0.003681 405730.000000 0 0 1
-27.304685 30.437542 -25.336001 48.103043 -0.839601 2.125513 -0.009351 0.006574 534692.000000 0 0 1
-26.719425 30.818442 -23.895431 47.272568 -0.856518 2.100737 -0.023483 -0.001441 390105.000000 0 0 1
-26.130885 32.094642 -23.960431 47.822500 -0.887467 2.095583 -0.015348 0.005212 -344215.000000 0 0 1
-25.176885 32.268542 -22.949631 46.923554 -0.908227 2.081837 -0.008585 0.021010 -15104.500000 0 0 1
-24.537635 33.665942 -23.058631 47.615036 -0.940965 2.076327 -0.008801 0.025368 -8569.300000 0 0 1
-25.419705 -33.983467 -22.570131 48.067123 0.928575 2.059582 -0.019369 0.012843 136916.000000 0 0 1
-24.849635 -32.701867 -22.736531 46.945355 0.920999 2.076381 0.000003 0.012584 7250.590000 0 0 1
16.680365 8.654642 -25.181491 31.420454 0.478615 2.500489 0.042928 -0.024051 -577872.000000 0 0 1
15.453065 8.070142 -24.903531 30.399182 0.481278 2.530841 0.046671 -0.029848 -448489.000000 0 0 1
15.443165 6.757942 -25.247531 30.357848 0.412495 2.552894 0.053507 -0.041382 -715933.000000 0 0 1
14.038965 6.204042 -25.311941 29.601977 0.416111 2.596494 0.074739 -0.047528 -636998.000000 0 0 1
13.421765 6.037742 -24.034131 28.182221 0.422727 2.592143 0.072342 -0.050640 1053960.000000 0 0 1
12.014465 5.749242 -24.163131 27.590905 0.446322 2.637813 0.067261 -0.048590 892284.000000 0 0 1
11.359565 5.925042 -22.750631 26.110095 0.480771 2.628712 0.068628 -0.048689 -159393.000000 0 0 1
11.786165 4.972142 -21.796831 25.273261 0.399210 2.610879 0.060343 -0.034020 223360.000000 0 0 1
11.211265 5.105542 -20.466231 23.887772 0.427330 2.599762 0.067480 -0.032039 -99604.500000 0 1 0
11.460265 6.494042 -19.747531 23.737634 0.515542 2.553334 0.064107 -0.039083 -193899.000000 0 1 0
11.192865 6.547742 -18.375231 22.490048 0.529312 2.527052 0.063898 -0.032231 -396406.000000 0 1 0
11.351265 7.853942 -17.857631 22.570570 0.605269 2.483550 0.062375 -0.032826 -410196.000000 0 1 0
12.761765 8.414342 -17.683231 23.374355 0.582913 2.428776 0.056754 -0.026840 -565336.000000 0 1 0
13.195665 7.864042 -16.435731 22.496711 0.537441 2.389973 0.058723 -0.026371 433296.000000 0 1 0
14.552465 8.151642 -16.130531 23.203826 0.510607 2.339448 0.051199 -0.023773 83998.500000 0 1 0
15.081465 7.522542 -14.829731 22.449057 0.462682 2.292407 0.051694 -0.025863 117117.000000 0 1 0
16.500165 7.394842 -14.736231 23.325858 0.421329 2.254612 0.054422 -0.030175 928102.000000 0 1 0
17.006965 7.795142 -13.493231 23.066608 0.429776 2.195637 0.050999 -0.025884 -243352.000000 0 1 0
17.405365 9.237442 -13.287031 23.765990 0.487924 2.164069 0.067643 -0.027445 -654849.000000 0 1 0
16.289365 10.103942 -13.283431 23.321291 0.555197 2.176796 0.067076 -0.014852 541517.000000 0 1 0
16.679665 11.456142 -13.143831 24.129126 0.601834 2.146862 0.089990 -0.020555 -47323.200000 0 1 0
15.469965 12.349842 -12.816131 23.581595 0.673710 2.145374 0.088834 -0.018701 142857.000000 0 1 0
14.939865 12.392242 -11.470831 22.546556 0.692457 2.104542 0.097823 -0.015272 99819.000000 0 1 0
15.513265 13.325242 -10.623231 23.045097 0.709672 2.049891 0.098780 -0.015078 -300050.000000 0 1 0
15.076265 14.828242 -10.766231 23.729355 0.777105 2.041720 0.089981 -0.008845 701779.000000 0 1 0
13.784965 15.086942 -10.187531 22.834774 0.830463 2.033245 0.088045 -0.016325 607564.000000 0 1 0
13.476765 16.472942 -10.371231 23.675799 0.885107 2.024227 0.080336 -0.017461 335165.000000 0 1 0
12.406965 17.054942 -9.392031 23.087098 0.941871 1.989754 0.072823 -0.012978 253954.000000 0 1 0
12.803765 16.894442 -8.066831 22.681101 0.922278 1.934420 0.077661 -0.016686 65577.100000 0 1 0
11.790565 17.283042 -7.193331 22.123856 0.972114 1.901955 0.068517 -0.013108 -275309.000000 0 1 0
12.292665 17.106042 -5.780231 21.843474 0.947686 1.838607 0.062879 -0.010669 690438.000000 0 1 0
13.299065 18.042342 -5.358131 23.045625 0.935601 1.805445 0.072827 -0.008898 365739.000000 0 1 0
13.805865 17.786542 -4.107731 22.887474 0.910739 1.751249 0.079284 -0.009838 -358593.000000 0 1 0
14.778265 18.917042 -3.724431 24.292447 0.907615 1.724720 0.067134 -0.014192 -390510.000000 0 1 0
15.967465 18.887742 -4.489631 25.136896 0.868986 1.750367 0.070588 -0.014867 -246556.000000 0 0 1
16.671365 20.047042 -4.138131 26.399668 0.877075 1.728195 0.042560 -0.009317 397991.000000 0 0 1
18.165065 20.175242 -4.615131 27.537419 0.837780 1.739186 0.045195 -0.007171 686177.000000 0 0 1
19.057565 19.151442 -4.248931 27.349990 0.787855 1.726782 0.044308 -0.021667 30371.400000 0 0 1
18.895665 17.833542 -4.781631 26.418656 0.756489 1.752794 0.048360 -0.019516 -834376.000000 0 0 1
20.028865 16.936242 -4.294731 26.578872 0.701929 1.733092 0.065298 -0.022483 234332.000000 0 0 1
21.332965 17.187142 -4.789331 27.810627 0.678183 1.743871 0.053126 -0.022367 -21909.300000 0 0 1
22.297265 16.419842 -4.145331 27.999340 0.634744 1.719394 0.055848 -0.027409 -164036.000000 0 0 1
23.721365 16.697142 -4.691731 29.385542 0.613329 1.731144 0.047143 -0.022031 227763.000000 0 0 1
24.245865 17.965742 -4.329631 30.485662 0.637704 1.713300 0.051303 -0.021949 165317.000000 0 0 1
25.641665 17.994542 -4.102531 31.593184 0.611913 1.701019 0.043426 -0.009692 60980.400000 0 0 1
26.114165 19.227742 -3.332131 32.599981 0.634672 1.673188 0.045884 -0.007949 -171280.000000 0 0 1
26.372865 20.367142 -4.150631 33.579402 0.657606 1.694720 0.055389 -0.012385 282519.000000 0 0 1
26.540565 21.509342 -3.336231 34.324683 0.681070 1.668146 0.061957 0.003295 -198228.000000 0 0 1
26.456665 22.823442 -4.128831 35.183972 0.711805 1.688417 0.032860 0.005643 -22628.900000 0 0 1
27.540565 23.234242 -4.962431 36.372221 0.700788 1.707658 0.016873 0.011021 362550.000000 0 0 1
27.677165 22.463642 -6.157831 36.174018 0.681793 1.741857 0.022549 0.006731 -435222.000000 0 0 1
28.685165 23.100742 -7.100531 37.508673 0.677977 1.761249 0.007829 0.010056 -562007.000000 0 0 1
28.240965 24.196642 -7.901531 38.019256 0.708424 1.780152 0.008809 0.006116 -403437.000000 0 0 1
29.244865 24.871142 -8.586031 39.338986 0.704752 1.790825 0.001277 0.004358 -422072.000000 0 0 1
29.942365 24.020242 -9.736431 39.601962 0.676091 1.819200 0.004579 -0.004643 434041.000000 0 0 1
29.141665 23.942842 -10.907831 39.261650 0.687775 1.852325 0.009309 -0.003904 -46885.500000 0 0 1
29.948165 23.349242 -11.879131 39.789364 0.662212 1.873970 -0.004977 -0.004773 -107997.000000 0 0 1
29.369965 22.992242 -13.281331 39.593330 0.664195 1.912872 0.024767 0.000141 -94253.400000 0 0 1
29.507065 24.121442 -14.114131 40.641353 0.685309 1.925471 0.019169 -0.008264 130099.000000 0 0 1
29.638665 23.654842 -15.458331 40.950727 0.673586 1.957876 0.037241 -0.012382 -224823.000000 0 0 1
29.780065 24.691442 -16.565731 42.082574 0.692250 1.975393 0.043062 -0.015549 -177773.000000 0 0 1
31.149565 24.767042 -16.915131 43.241455 0.671746 1.972708 0.037719 -0.009313 63214.800000 0 0 1
31.277565 25.235942 -18.224531 44.127910 0.678897 1.996535 0.046914 -0.016606 1193780.000000 0 0 1
32.761865 25.699942 -18.537731 45.579319 0.665185 1.989650 0.040693 -0.018917 1389150.000000 0 0 1
33.663765 24.617542 -18.653431 45.686135 0.631410 1.991382 0.041735 -0.015635 -102203.000000 0 0 1
35.027765 24.944942 -18.721531 46.900855 0.618832 1.981410 0.043215 -0.018706 486603.000000 0 0 1
36.060265 23.776942 -18.725431 47.077887 0.582932 1.979864 0.033420 -0.028417 88583.400000 0 0 1
35.827165 22.930442 -19.836831 46.934964 0.569334 2.007158 0.030614 -0.023183 112230.000000 0 0 1
-35.454075 23.119642 -20.912831 47.210759 -0.577851 2.029702 0.021485 -0.018378 -584522.000000 0 0 1
-35.501375 22.060342 -22.054331 47.258860 -0.556002 2.056319 0.024675 -0.011052 -208805.000000 0 0 1
-34.866075 20.870442 -21.730431 46.080692 -0.539381 2.061871 0.021398 -0.014154 113009.000000 0 0 1
-34.800575 19.998542 -22.800331 46.161421 -0.521580 2.087396 0.018746 -0.011172 24107.700000 0 0 1
-34.277075 18.569842 -22.570431 45.046434 -0.496493 2.095606 0.009142 -0.014942 -115583.000000 0 0 1
-35.145875 17.771242 -21.809431 45.018894 -0.468151 2.076531 0.016082 -0.019117 265736.000000 0 0 1
-34.830375 16.479842 -22.219931 44.479945 -0.441934 2.093875 0.007897 -0.018023 -229731.000000 0 0 1
-36.019575 15.548442 -21.937831 44.949219 -0.407504 2.080660 0.001718 -0.014905 -254049.000000 0 0 1
35.176665 15.754642 -22.935531 44.851367 0.421083 2.107572 0.043904 -0.014206 350436.000000 0 0 1
34.063265 14.842742 -22.913231 43.653513 0.410933 2.123381 0.062233 -0.016813 409453.000000 0 0 1
34.230065 13.526342 -23.727331 43.790930 0.376327 2.143412 0.020364 -0.019815 -450064.000000 0 0 1
34.408065 13.709142 -25.137671 44.763356 0.379151 2.167076 0.027863 -0.006805 356622.000000 0 0 1
34.840765 12.474142 -25.692601 45.051003 0.343813 2.177668 0.025239 -0.002753 -399358.000000 0 0 1
34.557665 12.384942 -27.237421 45.711007 0.344125 2.209134 0.040928 -0.007707 430464.000000 0 0 1
33.132765 12.385342 -27.419511 44.754960 0.357727 2.230216 0.033712 -0.005040 1087340.000000 0 0 1
32.609765 13.651742 -27.892451 45.030608 0.396471 2.238788 0.032050 -0.005354 -182978.000000 0 0 1
32.761965 13.878342 -29.480531 46.206671 0.400694 2.262713 0.040619 -0.003895 -641861.000000 0 0 1
34.088165 14.024742 -29.901411 47.463573 0.390317 2.252332 0.032735 0.002245 -460391.000000 0 0 1
34.210465 14.042142 -31.344481 48.476945 0.389494 2.273896 0.038582 -0.002413 -952701.000000 0 0 1
35.661165 14.276342 -31.749721 49.835504 0.380793 2.261514 0.055335 -0.008251 45277.100000 0 0 1
-35.482575 13.361942 -31.374611 49.213015 -0.360153 2.262080 0.053475 -0.005822 499302.000000 0 0 1
-35.221075 13.138142 -29.985841 48.086230 -0.357033 2.244116 0.038464 -0.011520 -362756.000000 0 0 1
-34.012275 12.229442 -29.506411 46.658573 -0.345166 2.255431 0.044901 -0.015477 756552.000000 0 0 1
-34.218575 10.831142 -29.657311 46.559431 -0.306550 2.261367 0.053996 -0.018797 1175350.000000 0 0 1
-32.990675 10.127142 -29.358911 45.308821 -0.297839 2.275717 0.052986 -0.025758 808276.000000 0 0 1
-33.086175 8.720942 -29.857701 45.411806 -0.257721 2.288276 0.071700 -0.014797 -542453.000000 0 0 1
-33.159375 8.623442 -31.279781 46.393239 -0.254425 2.310720 0.065632 -0.013025 250493.000000 0 0 1
-33.461975 7.297542 -31.783921 46.724464 -0.214723 2.318888 0.062837 -0.004641 579336.000000 0 0 1
-34.875175 6.685242 -31.420471 47.415359 -0.189393 2.295167 0.065790 0.008509 521921.000000 0 0 1
-34.869375 6.117942 -30.137561 46.492742 -0.173685 2.276042 0.069918 -0.003525 434490.000000 0 0 1
36.022865 5.635842 -29.723811 47.041625 0.155194 2.254749 0.055253 0.005646 87898.700000 0 0 1
35.882565 4.872342 -28.422761 46.034243 0.134960 2.236263 0.053081 0.003749 -207329.000000 0 0 1
-35.891475 3.514042 -28.461531 45.941323 -0.097596 2.238926 0.075689 0.009919 196204.000000 0 0 1
35.930365 2.837942 -27.312921 45.222126 0.078821 2.219272 0.064728 0.008497 -392038.000000 0 0 1
-35.664075 1.405142 -27.275471 44.920507 -0.039379 2.223321 0.091992 0.007804 -638673.000000 0 0 1
-34.269475 1.413342 -27.189881 43.768528 -0.041219 2.241095 0.084272 0.010595 -383387.000000 0 0 1
-33.730575 0.121842 -26.941741 43.169711 -0.003612 2.244761 0.097494 0.007433 -61124.800000 0 0 1
-32.450775 0.112042 -26.089871 41.638284 -0.003453 2.247958 0.091709 0.003979 -153293.000000 0 0 1
-32.732975 0.325442 -24.713131 41.015758 -0.009942 2.217461 0.085460 0.000535 -165057.000000 0 0 1
-31.585775 0.500742 -23.961431 39.649238 -0.015852 2.219728 0.107687 -0.003821 -613441.000000 0 0 1
-31.949675 0.224942 -22.521031 39.090013 -0.007040 2.184785 0.101141 -0.006395 -240554.000000 0 0 1
-32.086375 -1.124758 -22.071631 38.960973 0.035040 2.173056 0.111924 -0.016817 200503.000000 0 0 1
-32.317575 -1.295958 -20.678131 38.388673 0.040079 2.139633 0.088085 -0.013258 -332717.000000 0 0 1
-33.797875 -1.125958 -20.314231 39.449108 0.033302 2.111743 0.072352 -0.008278 -444573.000000 0 0 1
-34.570075 -2.297058 -20.533231 40.273814 0.066349 2.105796 0.068134 -0.010371 -345378.000000 0 0 1
-35.890775 -2.109958 -20.115731 41.197600 0.058721 2.080908 0.053421 -0.006465 -112431.000000 0 0 1
35.519065 -3.464058 -19.811531 40.817894 -0.097219 2.077576 0.062085 -0.014467 -4364.330000 0 0 1
35.085765 -4.210358 -20.942031 41.076839 -0.119431 2.105779 0.051963 -0.009527 157676.000000 0 0 1
-36.058375 -4.837058 -21.693731 42.358252 0.133349 2.108481 0.039021 -0.012046 -85568.400000 0 0 1
35.586665 -5.754858 -22.856331 42.684201 -0.160326 2.135867 0.038846 -0.011776 -689563.000000 0 0 1
35.126765 -7.009258 -22.487831 42.293284 -0.196955 2.131417 0.044558 -0.010329 149801.000000 0 0 1
34.729565 -7.680158 -23.680531 42.730493 -0.217639 2.158178 0.040841 -0.002559 909349.000000 0 0 1
33.326765 -7.335758 -24.337231 41.914048 -0.216661 2.190318 0.028911 0.005238 308182.000000 0 0 1
33.270865 -6.116558 -25.015031 42.072729 -0.181811 2.207523 0.033626 0.001674 177639.000000 0 0 1
31.927765 -5.798558 -25.349521 41.177708 -0.179657 2.233960 0.027602 -0.000486 388949.000000 0 0 1
31.600065 -4.541558 -26.206291 41.303263 -0.142742 2.258138 0.044463 -0.023289 -7780.280000 0 0 1
31.980765 -4.759758 -27.555921 42.482389 -0.147747 2.276597 0.053530 -0.015564 344707.000000 0 0 1
31.454865 -3.738358 -28.389251 42.536260 -0.118293 2.301526 0.058537 -0.021256 -62736.800000 0 0 1
31.212965 -4.085458 -29.823781 43.363557 -0.130150 2.329197 0.072760 -0.020212 34344.000000 0 0 1
30.810865 -2.985958 -30.628961 43.547200 -0.096611 2.350897 0.070674 -0.030858 -126446.000000 0 0 1
30.357765 -3.404258 -31.869151 44.145506 -0.111671 2.377357 0.064509 -0.034047 -1150100.000000 0 0 1
29.862365 -2.297558 -32.750531 44.380591 -0.076787 2.400820 0.072403 -0.039290 371896.000000 0 0 1
28.730465 -1.535658 -32.279401 43.240694 -0.053400 2.413590 0.061870 -0.032290 736488.000000 0 0 1
27.503465 -2.198958 -32.066291 42.302754 -0.079782 2.431067 0.060424 -0.029013 -374846.000000 0 0 1
26.620765 -2.496658 -33.294741 42.701735 -0.093513 2.464990 0.066950 -0.035658 -583824.000000 0 0 1
27.153965 -3.548558 -34.068811 43.710570 -0.129946 2.464533 0.067938 -0.038546 67618.300000 0 0 1
26.315765 -3.815558 33.307387 42.619949 -0.143988 0.673734 0.054223 -0.034350 -385079.000000 0 0 1
26.658765 -5.154058 32.603665 42.429389 -0.190978 0.694425 0.038287 -0.032871 1468930.000000 0 0 1
27.946665 -5.350258 31.910232 42.753997 -0.189157 0.728208 0.042572 -0.034813 1612700.000000 0 0 1
28.228465 -4.535758 30.791162 42.018032 -0.159318 0.748356 0.059442 -0.034866 -756437.000000 0 0 1
28.720465 -3.077758 30.990392 42.364397 -0.106755 0.750248 0.051943 -0.028738 -250748.000000 0 0 1
29.954765 -2.965558 31.681362 43.701158 -0.098680 0.759828 0.050564 -0.028890 132601.000000 0 0 1
30.429465 -1.673458 31.795642 44.042203 -0.054939 0.764201 0.051000 -0.024035 -291471.000000 0 0 1
31.798165 -1.559058 32.488074 45.486579 -0.048991 0.775267 0.044810 -0.026924 494600.000000 0 0 1
32.832565 -2.125358 31.647562 45.651535 -0.064643 0.804819 0.048448 -0.023294 722210.000000 0 0 1
34.121965 -1.946858 32.240402 46.984490 -0.056994 0.814555 0.049178 -0.022438 1510920.000000 0 0 1
35.338165 -2.496758 31.371592 47.320149 -0.070536 0.846024 0.041475 -0.013487 701594.000000 0 0 1
35.535065 -1.753858 30.159392 46.641246 -0.049316 0.867645 0.032991 -0.006653 339148.000000 0 0 1
-35.493075 -2.239158 29.442672 46.169721 0.063004 0.879281 0.034864 -0.011984 421119.000000 0 0 1
-35.307975 -1.613858 28.027312 45.108623 0.045676 0.900358 0.032554 -0.005329 354007.000000 0 0 1
35.810265 -1.849458 27.086512 44.938566 -0.051600 0.923859 0.021082 -0.019528 437988.000000 0 0 1
-35.807075 -1.522858 25.795232 44.157216 0.042504 0.946942 0.033724 -0.012748 318353.000000 0 0 1
-26.457485 15.094842 12.258769 32.834893 -0.518470 1.188183 0.065064 -0.016927 -461171.000000 0 0 1
-27.701695 14.621942 12.640869 33.778346 -0.485667 1.187230 0.037583 0.002449 -99164.900000 0 0 1
-28.571205 15.535842 13.298569 35.135852 -0.498039 1.182632 0.054777 -0.011603 704235.000000 0 0 1
-29.918605 14.893742 13.747969 36.137974 -0.461893 1.180535 0.062187 -0.008025 721547.000000 0 0 1
-30.833785 15.749842 14.429169 37.509742 -0.472249 1.175937 0.053211 -0.013863 241700.000000 0 0 1
-32.105035 15.119342 14.546369 38.352635 -0.440125 1.181779 0.049336 -0.009546 528539.000000 0 0 1
-32.984085 15.718142 15.724669 39.777821 -0.444702 1.164388 0.051060 -0.007413 183094.000000 0 0 1
-32.417935 15.695642 17.038269 39.844426 -0.450900 1.128938 0.045292 -0.002774 -475041.000000 0 0 1
-33.219915 16.320842 18.001769 41.158187 -0.456661 1.118113 0.030752 0.000522 -494885.000000 0 0 1
-32.634835 16.553642 19.368369 41.402769 -0.469422 1.083992 0.031080 0.001759 -198656.000000 0 0 1
-32.201075 15.412842 20.155469 40.996437 -0.446417 1.056825 0.037994 -0.002708 -483987.000000 0 0 1
-30.973695 15.651442 20.757369 40.437678 -0.467890 1.031750 0.039975 -0.005389 -411862.000000 0 0 1
-31.026555 16.290442 22.211369 41.489403 -0.483485 1.005874 0.048563 -0.013116 -247784.000000 0 0 1
-31.711865 17.548442 22.185669 42.494636 -0.505428 1.021507 0.031577 -0.006639 220342.000000 0 0 1
-31.815145 18.102542 23.511069 43.504895 -0.517307 0.999856 0.021898 -0.005255 -8835.140000 0 0 1
-32.804915 17.371642 24.527569 44.492000 -0.487002 0.986898 0.006398 -0.011225 1318790.000000 0 0 1
-34.200313 17.289042 24.194769 45.320627 -0.468056 1.007640 0.026800 -0.004979 1003320.000000 0 0 1
-34.950831 18.492742 24.182069 46.349914 -0.486661 1.021921 0.024854 -0.006613 475517.000000 0 0 1
35.713835 18.221142 23.790269 46.620434 0.471773 1.035266 -0.000034 -0.008988 1051910.000000 0 0 1
34.978345 17.557842 24.813169 46.340649 0.465217 1.005754 0.016707 -0.008623 438469.000000 0 0 1
33.892565 16.756642 24.352669 44.972697 0.459161 0.998577 0.025433 -0.002719 431749.000000 0 0 1
33.420215 15.783442 25.463069 44.882020 0.441220 0.967532 0.012262 0.008168 -118975.000000 0 0 1
32.886415 16.338042 26.666269 45.382131 0.461086 0.942714 0.016540 -0.003186 400988.000000 0 0 1
32.972325 15.392742 27.766869 45.772368 0.436768 0.918982 0.013605 -0.005617 -723185.000000 0 0 1
31.858965 14.364842 27.807569 44.660981 0.423593 0.898688 0.017515 0.009492 -840448.000000 0 0 1
32.150705 13.154342 27.213169 44.127781 0.388366 0.906265 0.009678 0.003953 98717.100000 0 0 1
31.041105 12.272142 27.215569 43.067886 0.376493 0.886765 0.007438 0.008453 -196071.000000 0 0 1
31.309205 10.813142 26.597869 42.481019 0.332541 0.894240 0.021020 0.010609 -353531.000000 0 0 1
32.206525 10.099842 27.397569 43.472909 0.303883 0.888958 0.025373 0.004741 -496218.000000 0 0 1
32.696845 9.036042 26.685069 43.160475 0.269629 0.904250 0.015739 0.001937 -378775.000000 0 0 1
33.745975 8.241342 27.491069 44.299767 0.239529 0.901328 0.040027 -0.001703 -100634.000000 0 0 1
34.935885 8.980642 27.608169 45.424431 0.251613 0.917531 0.067184 -0.004897 -121774.000000 0 0 1
35.978195 8.225142 28.198869 46.446309 0.224752 0.918355 0.052606 -0.004997 154879.000000 0 0 1
-34.900130 8.944142 28.597869 45.998422 -0.250879 0.899867 0.047806 -0.004746 105098.000000 0 0 1
-34.099370 9.332242 27.468469 44.770242 -0.267137 0.910257 0.045278 -0.012448 334168.000000 0 0 1
-32.865835 9.785842 28.014569 44.280265 -0.289392 0.885807 0.077261 -0.009066 575498.000000 0 0 1
-31.871665 10.527042 27.054669 43.111214 -0.319013 0.892387 0.084910 -0.018148 377055.000000 0 0 1
-31.322115 9.613942 26.134269 41.910652 -0.297810 0.897494 0.075490 -0.014474 -235288.000000 0 0 1
-30.277475 10.196442 25.420469 40.827603 -0.324837 0.898698 0.057073 -0.016891 -221675.000000 0 0 1
-29.586335 9.225142 24.438669 39.467746 -0.302251 0.903065 0.064076 -0.017875 292889.000000 0 0 1
-28.447225 9.749042 23.770669 38.331882 -0.330162 0.901891 0.051383 -0.021294 281400.000000 0 0 1
-27.752995 8.685242 23.140969 37.164050 -0.303293 0.898645 0.044174 -0.011924 104608.000000 0 0 1
-26.731565 9.124142 22.069769 35.845519 -0.328925 0.907534 0.046561 -0.006662 85210.100000 0 0 1
-25.572305 9.809742 22.598369 35.508592 -0.366296 0.880949 0.053356 -0.011623 731998.000000 0 0 1
-24.756835 10.380542 21.624169 34.471165 -0.397033 0.892700 0.040417 -0.006497 214412.000000 0 0 1
-24.010935 9.506042 20.543369 32.998786 -0.376971 0.898800 0.031339 -0.003144 -207288.000000 0 0 1
-24.736335 9.441242 19.280769 32.753189 -0.364610 0.941386 0.033672 -0.004227 605813.000000 0 0 1
-24.231735 8.559342 18.258869 31.525000 -0.339548 0.953065 0.033946 -0.006848 -224323.000000 0 0 1
-24.045135 7.048342 18.490569 31.140790 -0.285142 0.935056 0.042793 -0.001319 638045.000000 0 0 1
-22.797235 6.703042 19.148869 30.517600 -0.285970 0.892497 0.031130 -0.004984 1258100.000000 0 0 1
-22.658135 5.402842 19.757269 30.543927 -0.234079 0.867353 0.045701 -0.008810 -520246.000000 0 0 1
-22.971835 4.124242 18.992069 30.090086 -0.177642 0.887731 0.061254 -0.013310 -532657.000000 0 0 1
-24.356035 4.001742 18.756969 31.000875 -0.162847 0.920972 0.067511 -0.019061 100808.000000 0 0 1
-24.675635 3.196442 17.595269 30.474542 -0.128821 0.955285 0.080275 -0.013644 -11815.800000 0 0 1
-24.454735 1.624742 17.726669 30.247457 -0.066341 0.944615 0.077452 -0.010500 -812252.000000 0 0 1
-23.164735 1.196142 17.998769 29.359690 -0.051591 0.910889 0.074555 -0.013076 -599043.000000 0 0 1
-23.137435 -0.201658 18.284869 29.490982 0.008715 0.902034 0.081958 -0.016250 52495.800000 0 0 1
-21.786735 -0.995858 18.242869 28.433358 0.045678 0.874213 0.080041 -0.012366 -104979.000000 0 0 1
-20.952935 -0.576158 19.249369 28.458666 0.027491 0.827936 0.072390 -0.012714 -814962.000000 0 0 1
-20.047835 -1.553558 19.660469 28.122291 0.077338 0.796650 0.063905 -0.010710 -124549.000000 0 0 1
-18.976835 -1.154658 20.714469 28.116592 0.060771 0.742568 0.057061 -0.013510 162255.000000 0 0 1
-19.449235 -0.887158 21.971169 29.356295 0.045582 0.725103 0.055470 -0.020717 -1018890.000000 0 0 1
-18.386835 -0.668258 22.825269 29.317489 0.036328 0.678437 0.058147 -0.019886 -673565.000000 0 0 1
-18.714035 -0.684758 24.329469 30.701906 0.036574 0.655995 0.050424 -0.012494 256587.000000 0 0 1
-19.464135 0.428442 24.767269 31.503234 -0.022008 0.666190 0.049956 -0.026759 514771.000000 0 0 1
-20.889735 0.300942 24.842169 32.459281 -0.014405 0.699237 0.062128 -0.024136 451787.000000 0 0 1
-21.450335 1.326642 25.855569 33.621233 -0.061768 0.693482 0.053120 -0.027549 -584811.000000 0 0 1
-21.483435 2.647542 25.376669 33.354502 -0.122618 0.706225 0.051253 -0.029394 -648485.000000 0 0 1
-22.615035 3.009442 24.671469 33.603243 -0.132295 0.746310 0.047182 -0.026259 -1455930.000000 0 0 1
-22.364735 4.044042 23.544469 32.724267 -0.178889 0.767742 0.050839 -0.019535 -27429.500000 0 0 1
-21.787135 3.606642 22.323769 31.401238 -0.164052 0.779991 0.047314 -0.020468 1119670.000000 0 0 1
-20.496935 2.962942 22.420769 30.522029 -0.143561 0.745754 0.052851 -0.020570 365468.000000 0 0 1
-20.051135 2.304642 21.055269 29.166483 -0.114436 0.764253 0.057928 -0.022751 -39459.300000 0 0 1
-19.495935 3.173042 20.090669 28.174362 -0.161339 0.776910 0.052522 -0.012366 152921.000000 0 0 1
-19.246235 2.535242 18.848669 27.057667 -0.130973 0.800133 0.067995 -0.024846 21176.900000 0 0 1
-18.724535 3.423042 17.720569 26.006614 -0.180814 0.821140 0.045386 -0.016514 972833.000000 0 0 1
-17.344535 3.846342 17.833669 25.172743 -0.218229 0.783495 0.048092 -0.022773 1044820.000000 0 0 1
-17.015535 4.576342 16.621769 24.223017 -0.262734 0.814548 0.047093 -0.018409 -555005.000000 0 1 0
-15.538035 4.786342 16.282669 23.010105 -0.298817 0.784656 0.051946 -0.017374 -269396.000000 0 1 0
-14.800235 5.532042 17.257369 23.398018 -0.357701 0.741351 0.032717 -0.025779 82485.000000 0 1 0
-15.058235 6.987542 17.308769 23.982695 -0.434464 0.764514 0.021619 -0.029925 -1052090.000000 0 1 0
-14.652435 7.966242 16.177069 23.234725 -0.497978 0.800643 0.007937 -0.020572 -134631.000000 0 1 0
-15.291935 7.748242 14.877869 22.698668 -0.468984 0.856016 0.017004 -0.016900 180175.000000 0 1 0
-16.665635 8.090442 14.924769 23.789649 -0.451945 0.892633 0.015378 -0.011275 -163637.000000 0 1 0
-17.352035 7.580642 13.609069 23.318791 -0.411884 0.947630 0.019602 -0.005759 56051.400000 0 1 0
-17.181335 6.137142 13.677069 22.801864 -0.343073 0.927517 0.024624 -0.006473 571179.000000 0 1 0
-17.726335 5.560042 12.459269 22.368961 -0.303941 0.980040 0.022358 -0.008548 364845.000000 0 1 0
-17.421835 4.039042 12.524669 21.833496 -0.227813 0.959848 0.024578 -0.005870 82417.700000 0 1 0
-18.189835 3.333742 13.489669 22.890066 -0.181263 0.940574 0.036564 -0.007780 372278.000000 0 1 0
-17.711235 2.028942 13.667269 22.463274 -0.114060 0.916719 0.038755 -0.012033 -196016.000000 0 1 0
-18.608335 1.245242 14.650569 23.716238 -0.066819 0.904925 0.048446 -0.014527 -375040.000000 0 1 0
-19.864135 1.039642 14.111169 24.388313 -0.052290 0.953781 0.061298 -0.005943 172855.000000 0 1 0
-20.908035 0.636542 15.028369 25.756611 -0.030435 0.947794 0.071063 -0.013959 2587070.000000 0 0 1
-22.369335 0.356942 14.418169 26.615750 -0.015955 0.998319 0.077637 -0.012702 1809710.000000 0 0 1
-22.198635 -0.818658 13.633669 26.063893 0.036862 1.020328 0.080923 -0.012407 -550811.000000 0 0 1
-23.449735 -1.230658 13.257669 26.966097 0.052433 1.056822 0.092062 -0.012824 -1129580.000000 0 0 1
-23.611035 -2.320258 12.200869 26.678189 0.097956 1.095800 0.086380 -0.016595 -178232.000000 0 0 1
-23.435035 -3.618358 12.787769 26.941054 0.153190 1.076222 0.090780 -0.014776 175157.000000 0 0 1
-23.383835 -4.639358 11.789069 26.595291 0.195857 1.111546 0.099060 -0.020636 -100058.000000 0 0 1
-23.207335 -6.141258 12.224869 26.939615 0.258696 1.099785 0.094855 -0.022408 212145.000000 0 0 1
-24.277135 -6.544758 13.061669 28.334084 0.263325 1.091688 0.077240 -0.017342 267596.000000 0 0 1
-24.250435 -7.920458 13.341569 28.789142 0.315688 1.088941 0.079299 -0.017898 -492258.000000 0 0 1
-25.053005 -8.281058 14.554569 30.134108 0.319236 1.066726 0.071474 -0.014977 522524.000000 0 0 1
-26.430745 -7.884958 14.446969 31.136341 0.289920 1.088302 0.071809 -0.016463 740099.000000 0 0 1
-27.227805 -8.456958 15.457069 32.431381 0.301153 1.074004 0.063830 -0.015184 -777841.000000 0 0 1
-28.587385 -7.755858 15.655369 33.503470 0.264926 1.084589 0.057772 -0.016675 372760.000000 0 0 1
-29.667155 -8.154358 14.777969 34.132419 0.268237 1.123022 0.050901 -0.013763 1183600.000000 0 0 1
-30.115775 -9.534258 14.705069 34.843952 0.306604 1.135117 0.058456 -0.020701 -862926.000000 0 0 1
-30.522875 -10.169458 16.036569 35.947675 0.321608 1.108384 0.058937 -0.028327 -1415140.000000 0 0 1
-29.479555 -10.414058 16.899169 35.539818 0.339579 1.075264 0.061806 -0.015783 -563966.000000 0 0 1
-29.827875 -11.238158 18.019169 36.615417 0.360319 1.056273 0.065908 -0.012426 213431.000000 0 0 1
-28.700075 -11.262358 19.108669 36.272252 0.373951 1.015950 0.074889 -0.003856 551702.000000 0 0 1
-27.575225 -11.950058 18.593669 35.340083 0.408932 1.016747 0.070564 0.000738 36937.900000 0 0 1
-26.408765 -11.802558 19.409269 34.834508 0.420288 0.979804 0.061632 -0.001875 282887.000000 0 0 1
-25.304135 -12.703958 18.852969 34.016529 0.465287 0.983359 0.062809 0.000358 -484910.000000 0 0 1
-24.864435 -12.334558 17.564469 32.846492 0.460501 1.006591 0.051975 0.002716 262739.000000 0 0 1
-23.816035 -13.193358 17.119869 32.161438 0.505886 1.009469 0.046346 -0.005738 188044.000000 0 0 1
-23.566535 -12.963358 15.582369 31.084408 0.502901 1.045705 0.036786 -0.011931 -481903.000000 0 0 1
-22.874335 -11.829158 15.220069 29.913453 0.477263 1.037002 0.041918 -0.008318 -407416.000000 0 0 1
-22.792835 -11.666258 13.828269 29.100445 0.473074 1.075615 0.038131 -0.010860 1405210.000000 0 0 1
-21.343535 -11.245158 13.300069 27.547992 0.484908 1.066951 0.052321 -0.020659 642059.000000 0 0 1
-21.167935 -9.894958 13.499469 26.985687 0.437270 1.046914 0.067629 -0.020124 -219363.000000 0 0 1
-19.846035 -9.428758 13.384669 25.727727 0.443526 1.023661 0.083092 -0.022612 -368932.000000 0 0 1
-19.259235 -9.485258 11.957469 24.573752 0.457633 1.062608 0.081663 -0.013609 -837062.000000 0 1 0
-18.852635 -10.745958 11.486769 24.552868 0.518067 1.083953 0.082510 -0.026048 -36791.800000 0 1 0
-18.740535 -10.832158 10.104269 23.888063 0.524091 1.134060 0.101270 -0.027745 -739134.000000 0 1 0
-17.969735 -12.140558 9.637569 23.731566 0.594170 1.152606 0.071241 -0.017953 1453590.000000 0 1 0
-16.530435 -12.193358 9.685669 22.710029 0.635538 1.130184 0.080604 -0.031394 1206690.000000 0 1 0
-15.989135 -11.885558 10.955669 22.736438 0.639233 1.068026 0.081006 -0.025525 -1617080.000000 0 1 0
-14.526635 -12.268958 11.131869 22.033360 0.701341 1.041150 0.066666 -0.017932 -391542.000000 0 1 0
-14.172235 -13.637158 10.924969 22.498428 0.766160 1.063761 0.050768 -0.020161 -673341.000000 0 1 0
-12.792635 -13.796258 10.878169 21.732989 0.823126 1.046577 0.053775 -0.019673 -560108.000000 0 1 0
-12.326035 -15.302158 10.702269 22.374667 0.892705 1.072055 0.049018 -0.019985 93058.600000 0 1 0
-12.600835 -15.885658 9.458569 22.374085 0.900203 1.134322 0.034903 -0.020380 -107050.000000 0 1 0
-12.541135 -17.300658 9.509669 23.388600 0.943558 1.152073 0.036001 -0.015323 96003.000000 0 1 0
-12.795635 -18.079558 8.194469 23.616689 0.954894 1.216449 0.032202 -0.011762 365833.000000 0 1 0
-11.738135 -17.885058 7.241169 22.585252 0.989998 1.244418 0.021576 -0.014000 -113950.000000 0 1 0
-12.035535 -18.589358 6.050869 22.957163 0.996221 1.304073 -0.000836 -0.008332 -290241.000000 0 1 0
-11.091835 -18.332158 4.886369 21.976656 1.026673 1.346579 0.011354 -0.008696 -225946.000000 0 1 0
-11.654635 -18.949758 3.764969 22.563218 1.019400 1.403149 0.025477 -0.011308 98331.600000 0 1 0
-10.822635 -18.799858 2.621569 21.850325 1.048454 1.450528 0.028963 -0.019558 200904.000000 0 1 0
-11.139735 -19.720658 1.442169 22.695327 1.056603 1.507209 0.027987 -0.010182 52221.400000 0 1 0
-10.829735 -21.084458 1.766769 23.768866 1.096300 1.496396 0.023728 -0.011192 -263850.000000 0 1 0
-11.275735 -22.023058 0.804169 24.754877 1.097597 1.538305 0.026637 -0.005360 -238554.000000 0 1 0
-10.513835 -22.303458 -0.490931 24.662237 1.130290 1.590704 0.034547 -0.002053 -325109.000000 0 1 0
-10.558435 -21.327758 -1.453731 23.842549 1.111112 1.631806 0.032389 -0.011942 -396494.000000 0 1 0
-11.614135 -21.385558 -2.368931 24.450809 1.073279 1.667834 0.046712 -0.009744 -959949.000000 0 1 0
-12.503935 -20.188658 -2.318631 23.860141 1.016267 1.668126 0.046397 -0.011883 -64450.900000 0 1 0
-13.433735 -20.257158 -1.215431 24.337110 0.985225 1.620759 0.048961 -0.010476 511287.000000 0 1 0
-14.395535 -19.216258 -1.213731 24.040988 0.927850 1.621304 0.056577 -0.008117 398677.000000 0 1 0
26.665165 -19.623158 -3.952031 33.342434 -0.634422 1.689604 0.078585 -0.041451 -194760.000000 0 0 1
25.394865 -19.851658 -3.382131 32.410281 -0.663494 1.675340 0.077420 -0.031946 177919.000000 0 0 1
25.457765 -21.116858 -2.746131 33.189768 -0.692463 1.653631 0.060295 -0.026959 564398.000000 0 0 1
24.135165 -21.666558 -2.098631 32.501541 -0.731553 1.635411 0.053051 -0.019642 272132.000000 0 0 1
23.144765 -22.125658 -2.959431 32.155608 -0.762890 1.662961 0.055098 -0.025874 86070.700000 0 0 1
22.005865 -22.537758 -2.224231 31.577774 -0.797339 1.641291 0.056536 -0.022777 530702.000000 0 0 1
20.726665 -23.058558 -2.919931 31.141896 -0.838605 1.664696 0.057926 -0.031583 263912.000000 0 0 1
19.993665 -22.120658 -3.642631 30.038956 -0.835860 1.692359 0.063020 -0.036259 249965.000000 0 0 1
19.060665 -22.743758 -4.561431 30.023226 -0.873274 1.723317 0.065114 -0.030005 1221010.000000 0 0 1
18.032865 -21.715758 -5.264231 28.713594 -0.877789 1.755175 0.056470 -0.021407 395581.000000 0 0 1
16.969565 -21.296258 -4.434631 27.589177 -0.897989 1.732235 0.051811 -0.010384 469916.000000 0 0 1
17.336765 -20.336858 -3.405131 26.939675 -0.864864 1.697534 0.049324 -0.018606 -87309.300000 0 0 1
16.079665 -20.115858 -2.526631 25.876383 -0.896450 1.668595 0.038011 -0.007664 67730.600000 0 0 1
15.790465 -21.166858 -1.640731 26.458772 -0.929860 1.632847 0.049861 -0.015555 -201102.000000 0 0 1
15.051065 -20.634958 -0.593731 25.547770 -0.940612 1.594038 0.047999 -0.007779 -461814.000000 0 0 1
14.768265 -21.480958 0.666469 26.076376 -0.968506 1.545235 0.046631 -0.006684 -397260.000000 0 0 1
13.787165 -22.441758 0.433369 26.342100 -1.019890 1.554344 0.052040 -0.008462 -329056.000000 0 0 1
13.151765 -22.770058 1.675969 26.348687 -1.047018 1.507146 0.053477 -0.003910 205888.000000 0 0 1
12.282165 -24.038958 1.667369 27.046315 -1.098445 1.509109 0.051616 -0.000953 -380513.000000 0 0 1
12.976165 -25.213898 1.770669 28.412264 -1.095503 1.508435 0.030314 -0.001795 -784506.000000 0 0 1
12.173065 -26.346448 1.679169 29.071264 -1.137977 1.513004 0.021775 -0.001614 -298782.000000 0 0 1
12.744565 -27.603568 2.345669 30.493984 -1.138255 1.493798 0.011742 0.003688 -84229.900000 0 0 1
12.818665 -27.583428 3.781069 30.650614 -1.135766 1.447121 0.023477 -0.000275 14221.600000 0 0 1
12.379965 -28.800908 4.311469 31.644029 -1.164828 1.434122 0.022515 0.001177 -148252.000000 0 0 1
12.456665 -28.872438 5.865069 31.987266 -1.163485 1.386397 0.030826 0.005221 -234002.000000 0 0 1
12.201465 -30.140018 6.422069 33.144221 -1.186136 1.375802 0.013709 -0.001347 -231840.000000 0 0 1
12.468465 -30.244128 7.817369 33.634523 -1.179765 1.336230 0.025981 -0.005774 83399.700000 0 0 1
12.115965 -31.690458 8.252269 34.916782 -1.205622 1.332198 0.012739 -0.005054 170503.000000 0 0 1
12.116765 -31.833478 9.669069 35.407304 -1.207099 1.294202 0.015038 -0.003901 -620035.000000 0 0 1
11.300665 -32.899168 10.053669 36.209619 -1.239929 1.289447 0.009131 -0.001308 -244486.000000 0 0 1
11.043065 -33.083028 11.553769 36.741333 -1.248627 1.250906 0.011639 -0.002664 -776803.000000 0 0 1
12.084365 -33.674538 12.263569 37.820649 -1.226252 1.240571 0.019019 -0.005965 -498713.000000 0 0 1
11.877065 -34.052005 13.602769 38.543988 -1.235198 1.210111 0.028530 -0.007700 -380820.000000 0 0 1
10.744765 33.607927 13.928969 37.933612 1.261357 1.194807 0.032140 -0.004818 -295065.000000 0 0 1
10.799765 32.439402 13.122569 36.621736 1.249417 1.204321 0.043520 -0.010512 11736.400000 0 0 1
9.646165 31.645992 13.296469 35.655482 1.274928 1.188648 0.030004 -0.003992 -214996.000000 0 0 1
9.596765 30.531452 12.236769 34.263771 1.266251 1.205598 0.023691 -0.001382 -270181.000000 0 0 1
9.392965 30.974202 10.927669 34.162010 1.276359 1.245196 -0.014603 0.005008 758835.000000 0 0 1
10.459765 31.747602 10.273269 34.969372 1.252530 1.272618 0.000963 -0.002116 812478.000000 0 0 1
10.101265 32.225982 8.864869 34.916119 1.267045 1.314096 -0.000410 -0.002863 -99856.700000 0 0 1
9.115165 33.218744 8.754769 35.541767 1.302990 1.321911 -0.003722 -0.004589 -365661.000000 0 0 1
8.587665 33.203580 7.483269 35.103063 1.317706 1.355968 -0.008080 -0.007708 -120197.000000 0 0 1
8.962765 -34.212871 6.502169 35.960115 -1.314583 1.388980 -0.002123 0.003964 245278.000000 0 0 1
8.391865 -33.021048 7.064769 34.795459 -1.321928 1.366338 0.004492 0.007072 310950.000000 0 0 1
8.746765 -31.890568 6.225869 33.649304 -1.303105 1.384702 0.015993 -0.004917 135336.000000 0 0 1
8.274965 -30.640468 6.945669 32.489315 -1.307022 1.355350 0.017697 -0.005871 -91313.200000 0 0 1
9.024865 -30.432578 8.112569 32.762841 -1.282505 1.320579 0.012081 -0.001664 -198750.000000 0 0 1
8.675565 -29.232928 8.821069 31.743357 -1.282302 1.289202 0.048315 -0.005600 -69630.800000 0 0 1
9.330765 -27.983948 8.196869 30.616224 -1.248956 1.299761 0.041255 -0.012106 -157848.000000 0 0 1
9.595465 -26.980448 9.188369 30.073969 -1.229101 1.260306 0.046603 -0.007612 84203.500000 0 0 1
10.257765 -25.815358 8.686269 29.105080 -1.192575 1.267733 0.041181 -0.014991 465776.000000 0 0 1
9.427965 -24.846258 7.731869 27.676792 -1.208128 1.287666 0.044210 -0.011686 297654.000000 0 0 1
9.136765 -25.394008 6.462269 27.750622 -1.225418 1.335769 0.046533 -0.009393 -387863.000000 0 0 1
8.377965 -24.538158 5.661469 26.539851 -1.241780 1.355825 0.056969 -0.007663 -37133.000000 0 0 1
8.231865 -24.992858 4.221269 26.650059 -1.252618 1.411730 0.049443 -0.001644 491613.000000 0 0 1
7.426565 -26.183648 3.985569 27.506763 -1.294421 1.425390 0.044192 -0.002138 158986.000000 0 0 1
8.047265 -27.395368 4.291069 28.873481 -1.285087 1.421627 0.042182 0.001666 36727.800000 0 0 1
7.096465 -28.548168 3.908669 29.675501 -1.327156 1.438699 0.040862 -0.002081 -174405.000000 0 0 1
5.906865 -28.672148 4.651569 29.641528 -1.367625 1.413218 0.038624 -0.002977 -498336.000000 0 0 1
4.981665 -29.437178 3.920769 30.112071 -1.403154 1.440220 0.036038 0.002838 -27513.300000 0 0 1
4.987565 -30.987168 4.166769 31.661369 -1.411209 1.438809 0.026747 0.004864 -33800.300000 0 0 1
6.116765 -31.550908 3.521369 32.330707 -1.379302 1.461663 0.030939 0.001755 39344.800000 0 0 1
6.187265 -32.948938 3.846769 33.744812 -1.385175 1.456552 0.022154 -0.000733 -273093.000000 0 0 1
7.220565 -33.794548 3.085469 34.694785 -1.360301 1.481747 0.016218 -0.003834 -254471.000000 0 0 1
7.067865 -33.968358 1.680969 34.736576 -1.365651 1.522386 0.017609 -0.004085 -263296.000000 0 0 1
7.991865 33.717168 1.190069 34.671799 1.338065 1.536466 0.010555 -0.003264 -627228.000000 0 0 1
7.540865 33.197390 -0.158931 34.043452 1.347434 1.575465 0.019565 0.000157 655043.000000 0 0 1
6.390765 32.352662 -0.124931 32.978057 1.375773 1.574585 0.006719 -0.000881 572699.000000 0 0 1
5.166065 33.094073 -0.023131 33.494872 1.415944 1.571487 0.013173 -0.007106 423851.000000 0 0 1
3.872565 32.239312 0.212769 32.471762 1.451250 1.564244 0.020501 -0.010322 640002.000000 0 0 1
3.773465 31.157972 -0.691131 31.393247 1.450276 1.592813 0.025327 -0.006578 -114722.000000 0 0 1
2.836965 30.155812 -0.338131 30.290852 1.476996 1.581959 0.020790 -0.020047 97668.700000 0 0 1
2.680765 29.078122 -1.437931 29.236815 1.478864 1.619998 0.022012 -0.014357 163149.000000 0 0 1
2.166465 29.505932 -2.713531 29.709542 1.497503 1.662259 0.034136 -0.016812 161719.000000 0 0 1
1.841965 28.444832 -3.528831 28.722012 1.506131 1.693969 0.046848 -0.021837 -428677.000000 0 0 1
1.732065 28.882342 -4.980931 29.359827 1.510898 1.741272 0.040755 -0.031226 573796.000000 0 0 1
0.526565 29.622492 -5.259731 30.090432 1.553022 1.746496 0.037170 -0.030282 651852.000000 0 0 1
0.576765 30.419342 -6.412731 31.093282 1.551838 1.778529 0.033049 -0.023760 53900.200000 0 0 1
0.687965 29.718502 -7.859031 30.747798 1.547651 1.829261 0.034713 -0.024829 302174.000000 0 0 1
-0.557635 29.027202 -8.092231 30.139238 -1.551588 1.842627 0.032963 -0.019208 955942.000000 0 0 1
-0.888435 28.720592 -9.453031 30.249323 -1.539872 1.888624 0.022428 -0.022787 159289.000000 0 0 1
-1.356935 29.978972 -10.268931 31.717992 -1.525564 1.900494 0.011118 -0.023605 397816.000000 0 0 1
-0.193535 30.756282 -10.587431 32.528143 -1.564504 1.902321 0.020599 -0.029159 509735.000000 0 0 1
-0.509635 31.962602 -11.235431 33.883663 -1.554853 1.908783 0.007206 -0.021850 -30287.400000 0 0 1
-0.825235 33.091473 -10.266831 34.657387 -1.545863 1.871548 0.005848 -0.013634 130877.000000 0 0 1
0.312265 33.495070 -9.521131 34.823400 1.561474 1.847735 0.018015 -0.025199 189683.000000 0 0 1
-0.025935 -34.244516 -8.452731 35.272315 1.570039 1.812794 0.016560 -0.021273 224377.000000 0 0 1
1.127565 -34.110619 -7.363431 34.914550 -1.537752 1.783291 0.030311 -0.021240 595377.000000 0 0 1
2.201065 -33.399178 -7.957431 34.404512 -1.504990 1.804200 0.037256 -0.018019 -466501.000000 0 0 1
3.118365 -33.117878 -6.918131 33.976147 -1.476914 1.775848 0.042502 -0.027458 -878043.000000 0 0 1
4.311665 -32.265238 -7.409131 33.384596 -1.437951 1.794592 0.028887 -0.025392 103787.000000 0 0 1
5.135365 -32.959478 -8.318931 34.378827 -1.416231 1.815201 0.045175 -0.020971 -23918.300000 0 0 1
6.043565 -33.884428 -7.760431 35.283189 -1.394294 1.792556 0.055150 -0.003933 -1200670.000000 0 0 1
6.387665 33.610421 -8.702531 35.301511 1.382986 1.819884 0.052701 -0.000651 3778.170000 0 0 1
5.432365 32.578412 -8.955331 34.220776 1.405569 1.835572 0.032620 -0.002541 -351862.000000 0 0 1
4.318565 33.020326 -9.690031 34.682685 1.440749 1.853956 0.053295 -0.010521 -9209.700000 0 0 1
3.268265 31.916142 -9.971131 33.596803 1.468750 1.872124 0.051360 -0.022500 116458.000000 0 0 1
3.792665 30.941152 -10.844331 33.005132 1.448828 1.905580 0.054652 -0.015239 366418.000000 0 0 1
3.050665 29.713862 -10.579431 31.688240 1.468487 1.911192 0.035060 -0.022941 126742.000000 0 0 1
3.620665 28.411002 -11.178131 30.744835 1.444041 1.942902 0.042455 -0.023945 -272660.000000 0 0 1
3.693865 28.488962 -12.616631 31.375867 1.441856 1.984619 0.032683 -0.021536 761842.000000 0 0 1
5.002865 28.728082 -13.180631 32.000944 1.398380 1.995315 0.040252 -0.024937 766546.000000 0 0 1
4.877165 29.208292 -14.630031 33.029516 1.405344 2.029669 0.047904 -0.019662 148323.000000 0 0 1
4.288765 28.231332 -15.536031 32.507997 1.420034 2.069075 0.025560 -0.013713 108968.000000 0 0 1
4.272665 28.836302 -16.833131 33.662179 1.423697 2.094465 0.050669 -0.020392 -3707.030000 0 0 1
3.213365 28.360892 -17.853331 33.666116 1.457975 2.129757 0.034375 -0.011267 23844.300000 0 0 1
3.517765 27.168532 -18.483631 33.047669 1.442033 2.164340 0.043338 -0.006007 -583254.000000 0 0 1
2.441165 26.654172 -19.202731 32.941601 1.479465 2.193130 0.043844 -0.016815 -66223.300000 0 0 1
2.849465 25.393262 -20.061131 32.486708 1.459050 2.236380 0.052332 -0.015492 261557.000000 0 0 1
3.074665 24.215282 -19.311331 31.124925 1.444500 2.240107 0.037618 -0.017393 -768742.000000 0 0 1
4.096465 23.461752 -19.850431 31.004427 1.397937 2.265614 0.049995 -0.020044 -316442.000000 0 0 1
4.646565 22.293952 -18.940731 29.620300 1.365315 2.264580 0.048414 -0.020040 -215456.000000 0 0 1
3.769765 21.225052 -18.773931 28.586264 1.395020 2.287293 0.052125 -0.016230 -438016.000000 0 0 1
4.468265 20.137152 -18.179531 27.494830 1.352442 2.293211 0.038365 -0.003018 277549.000000 0 0 1
3.474965 19.021652 -17.826131 26.299612 1.390104 2.315576 0.029949 -0.013877 -78321.800000 0 0 1
2.561565 19.367852 -16.805231 25.769965 1.439301 2.281180 0.027259 -0.014931 -138341.000000 0 0 1
1.592765 18.322352 -16.658031 24.814018 1.484084 2.306778 0.023207 -0.010431 443240.000000 0 1 0
2.114165 17.185552 -15.674231 23.355822 1.448391 2.306496 0.016411 -0.003326 1728780.000000 0 1 0
3.299465 16.377052 -16.085231 23.191140 1.371989 2.337262 0.010237 -0.016451 1030780.000000 0 1 0
3.121965 15.306452 -16.981031 23.073569 1.369592 2.397868 0.024343 -0.025730 -214658.000000 0 1 0
3.098665 15.651352 -18.461831 24.400938 1.375343 2.428899 0.036157 -0.024327 -268110.000000 0 1 0
4.267165 16.250552 -18.969031 25.339954 1.314008 2.416717 0.036101 -0.019250 -451694.000000 0 0 1
4.232665 16.539552 -20.369531 26.577999 1.320261 2.444023 0.047819 -0.018512 -427197.000000 0 0 1
4.512565 15.361252 -21.337931 26.676556 1.285071 2.497885 0.041934 -0.018107 595016.000000 0 0 1
3.489565 14.353152 -21.329331 25.944757 1.332302 2.535896 0.046646 -0.021252 326735.000000 0 0 1
2.320365 14.664152 -22.059931 26.590638 1.413864 2.549210 0.063443 -0.024176 77938.600000 0 0 1
1.473165 13.483752 -22.550231 26.315294 1.461973 2.600070 0.071230 -0.021809 158434.000000 0 0 1
0.631465 12.791052 -21.649031 25.153336 1.521469 2.607405 0.064298 -0.013991 212950.000000 0 0 1
0.052365 11.626252 -22.248431 25.103091 1.566292 2.660052 0.049165 -0.015107 252490.000000 0 0 1
-0.610435 10.727052 -21.149331 23.722068 -1.513952 2.671545 0.035303 -0.015892 -647420.000000 0 1 0
-1.715535 11.267352 -20.455631 23.416429 -1.419700 2.633264 0.028780 -0.013999 -132745.000000 0 1 0
-2.172135 10.401552 -19.464531 22.176078 -1.364927 2.641893 0.018105 -0.009684 -296783.000000 0 1 0
-3.105935 9.293252 -19.935731 22.213616 -1.248253 2.684763 0.014154 -0.012062 -1169270.000000 0 1 0
-2.464635 8.347452 -20.688531 22.444815 -1.283698 2.743368 0.012729 -0.012081 314527.000000 0 1 0
-3.477335 7.368252 -21.048231 22.570136 -1.129852 2.772264 0.010496 -0.005438 723571.000000 0 1 0
-2.952935 6.189452 -21.866431 22.916587 -1.125643 2.837687 0.014833 -0.011016 -204034.000000 0 1 0
-2.077235 5.365652 -21.126631 21.896111 -1.201429 2.875698 0.021063 -0.006377 35240.200000 0 1 0
-1.885535 4.212252 -21.865631 22.347352 -1.149914 2.933583 0.031886 -0.011242 -579110.000000 0 1 0
-1.112235 3.126852 -21.107331 21.366649 -1.229049 2.985636 0.031361 -0.006498 191383.000000 0 1 0
0.281465 3.360252 -20.968131 21.237539 1.487228 2.982141 0.025714 -0.007903 -2339.400000 0 1 0
0.884065 2.306752 -20.249031 20.399165 1.204812 3.020194 0.022701 -0.000100 -495373.000000 0 1 0
2.396765 2.408652 -20.265931 20.548821 0.787872 2.975470 0.021599 -0.003825 -325621.000000 0 1 0
3.084265 1.742952 -21.338531 21.630615 0.514371 2.977071 0.032730 -0.007066 732808.000000 0 1 0
4.508965 1.868752 -21.186231 21.741191 0.392903 2.915164 0.055681 -0.009270 796043.000000 0 1 0
5.264265 1.041652 -22.263831 22.901435 0.195349 2.905071 0.048578 -0.009930 61244.100000 0 1 0
6.669365 1.175552 -22.162031 23.173648 0.174469 2.845029 0.047072 -0.016808 -94441.500000 0 1 0
7.289265 0.498152 -23.196231 24.319677 0.068234 2.836453 0.047726 -0.019600 441053.000000 0 1 0
8.844665 0.649752 -23.209331 24.845992 0.073331 2.776604 0.056331 -0.028572 638872.000000 0 1 0
9.183165 1.970352 -23.634331 25.432153 0.211357 2.763334 0.049009 -0.030856 1648220.000000 0 0 1
10.629165 2.202352 -23.638931 26.012085 0.204308 2.711117 0.050327 -0.034310 1480660.000000 0 0 1
13.270265 -21.010858 22.798332 33.724175 -1.007472 0.828444 0.069513 -0.009035 -1122490.000000 0 0 1
12.223265 -21.794658 23.328132 34.185041 -1.059671 0.819745 0.057386 -0.003945 218791.000000 0 0 1
10.925765 -21.225558 23.207132 33.293657 -1.095422 0.799530 0.059756 -0.020002 505000.000000 0 0 1
10.348065 -21.090658 21.785432 32.039091 -1.114659 0.823083 0.076830 -0.021826 -1125470.000000 0 0 1
11.054665 -20.044358 21.084932 31.121636 -1.066794 0.826437 0.082802 -0.023712 -154472.000000 0 0 1
10.791565 -20.024158 19.707232 30.096507 -1.076494 0.856877 0.083873 -0.014794 254024.000000 0 0 1
11.180665 -18.646958 19.059832 28.913552 -1.030673 0.851041 0.083341 -0.018897 458914.000000 0 0 1
10.350765 -17.612158 19.590732 28.304120 -1.039466 0.806331 0.103217 -0.021439 167550.000000 0 0 1
10.722365 -16.370258 18.964332 27.250694 -0.990921 0.801095 0.096504 -0.022143 -438497.000000 0 0 1
9.799365 -15.204758 19.205132 26.382746 -0.998302 0.755479 0.087250 -0.021793 302510.000000 0 0 1
8.476065 -15.493158 18.752332 25.759106 -1.070194 0.755413 0.075731 -0.016526 146471.000000 0 0 1
7.523165 -14.513858 19.113332 25.150935 -1.092582 0.707568 0.044820 -0.008234 37748.800000 0 0 1
6.107865 -14.809158 18.612332 24.556793 -1.179613 0.710662 0.015412 0.000132 -517336.000000 0 1 0
5.816765 -14.674058 17.219332 23.359540 -1.193399 0.741963 0.011161 -0.005259 -300565.000000 0 1 0
4.456465 -14.826258 16.899132 22.918522 -1.278808 0.741647 -0.005091 -0.002865 -200964.000000 0 1 0
3.804065 -16.235658 17.034732 23.837986 -1.340645 0.774738 -0.003088 -0.001726 62788.200000 0 1 0
2.455765 -16.188958 16.559932 23.288291 -1.420250 0.779758 -0.009883 0.001369 -88593.400000 0 1 0
1.909665 -17.484258 16.638032 24.210952 -1.462006 0.813153 -0.002695 -0.009381 -562479.000000 0 1 0
0.425565 -17.359358 16.351432 23.851577 -1.546286 0.815438 0.008296 -0.005145 -839349.000000 0 1 0
0.160865 -17.204258 15.001532 22.826702 -1.561446 0.853709 0.013685 -0.008161 -162646.000000 0 1 0
-1.230935 -17.349558 14.761732 22.812959 1.499966 0.867052 0.012931 -0.002685 241658.000000 0 1 0
-1.631235 -17.814058 13.344532 22.317664 1.479481 0.929873 0.014667 -0.010613 353506.000000 0 1 0
-3.014235 -18.152858 13.295932 22.702283 1.406250 0.945096 0.012649 -0.006607 91018.100000 0 1 0
-3.233535 -19.240658 12.440932 23.139478 1.404295 1.003149 0.023738 -0.018183 -121884.000000 0 1 0
-4.744535 -19.531458 12.423232 23.628905 1.332494 1.017183 0.020803 -0.018044 -112659.000000 0 1 0
-5.145735 -19.946058 13.724432 24.752451 1.318319 0.983073 0.012430 -0.016931 -195147.000000 0 1 0
-5.701335 -21.258958 13.525932 25.834073 1.308777 1.019761 -0.005880 -0.006604 99176.700000 0 0 1
-6.382635 -21.896658 14.764932 27.169926 1.287166 0.996280 0.004488 -0.005596 369552.000000 0 0 1
-7.746135 -21.605558 14.988032 27.412476 1.226547 0.992307 0.013024 -0.008976 52097.200000 0 0 1
-8.464635 -22.562858 15.780432 28.805462 1.211887 0.991031 0.000996 -0.013119 1508660.000000 0 0 1
-10.024335 -22.298758 15.691232 29.050588 1.148319 1.000199 0.024455 -0.013867 1226680.000000 0 0 1
-10.285535 -21.049458 16.324032 28.554263 1.116281 0.962239 0.014760 -0.016463 -446203.000000 0 0 1
-11.516935 -20.482258 15.924932 28.386020 1.058568 0.975187 0.050994 -0.014885 -5908.080000 0 0 1
-11.904535 -19.289958 16.749032 28.184224 1.017872 0.934439 0.049122 -0.008702 -314258.000000 0 0 1
-12.277235 -19.666258 18.063432 29.390130 1.012716 0.908906 0.041009 -0.011796 -199088.000000 0 0 1
-12.506635 -18.573558 18.890632 29.295886 0.978176 0.870006 0.036693 -0.020420 -280199.000000 0 0 1
-12.925235 -19.018758 20.284432 30.663219 0.973890 0.847948 0.035328 -0.016895 -441870.000000 0 0 1
-14.202435 -19.587058 20.300332 31.582677 0.943427 0.872690 0.043769 -0.012872 -414293.000000 0 0 1
-14.459935 -20.087758 21.607932 32.855904 0.946880 0.853091 0.039487 -0.007432 373428.000000 0 0 1
-15.826835 -20.829158 21.635832 33.947780 0.921027 0.879772 0.045102 -0.009053 -274987.000000 0 0 1
-15.801135 -21.943058 20.733832 34.074410 0.946709 0.916644 0.043778 -0.014308 983478.000000 0 0 1
-17.075735 -22.286658 20.139832 34.552694 0.917016 0.948536 0.050271 -0.006162 1125710.000000 0 0 1
-18.170635 -22.895658 21.050932 36.021172 0.899953 0.946650 0.044233 -0.001164 -484863.000000 0 0 1
-18.754035 -21.937858 21.857832 36.204257 0.863481 0.922616 0.051168 -0.001434 -649607.000000 0 0 1
-19.624435 -22.591758 22.735632 37.582109 0.855571 0.921082 0.059378 -0.001014 -390115.000000 0 0 1
-20.275235 -21.627358 23.712222 37.961786 0.817655 0.896134 0.048538 0.007267 -144368.000000 0 0 1
-21.307635 -20.830658 23.158432 37.739165 0.774079 0.910128 0.055273 0.009766 74746.500000 0 0 1
-21.591535 -19.819058 24.058852 37.918568 0.742622 0.883451 0.048553 0.009519 57140.900000 0 0 1
-22.506435 -18.781258 23.388732 37.500774 0.695417 0.897346 0.057333 0.007733 64493.100000 0 0 1
-21.836335 -17.894358 22.511432 36.108145 0.686504 0.897656 0.052611 0.013369 -651721.000000 0 0 1
-22.705035 -16.979958 21.949432 35.855476 0.642124 0.912002 0.052692 0.007788 -533434.000000 0 0 1
-22.339135 -16.488958 20.521632 34.526223 0.635854 0.934304 0.050257 0.011816 550614.000000 0 0 1
-21.221935 -15.585058 20.538132 33.392805 0.633432 0.908351 0.055197 0.010157 16423.600000 0 0 1
-20.882935 -15.227158 19.232232 32.215556 0.630034 0.931058 0.055236 0.003441 379121.000000 0 0 1
-19.878835 -14.043958 19.077832 30.925143 0.615060 0.905994 0.044523 0.002356 326243.000000 0 0 1
-19.735035 -13.713658 17.712932 29.854379 0.607287 0.935630 0.040130 0.002411 -8137.990000 0 0 1
-19.037235 -12.495458 17.420932 28.671269 0.580840 0.917749 0.051344 -0.004861 -149698.000000 0 0 1
-18.709535 -12.614658 15.910032 27.609879 0.593225 0.956671 0.048775 -0.008027 161836.000000 0 0 1
-18.127235 -11.593958 15.128832 26.303955 0.569021 0.958004 0.052582 -0.010740 614665.000000 0 0 1
-16.791535 -11.225858 15.504132 25.462789 0.589300 0.916131 0.057686 -0.020967 613065.000000 0 0 1
-16.223835 -9.972058 14.785232 24.109289 0.551125 0.910617 0.055838 -0.029236 106397.000000 0 1 0
-16.864535 -8.797058 15.235432 24.370457 0.480802 0.895460 0.063555 -0.024293 74571.600000 0 1 0
-16.265535 -7.647958 14.673632 23.202896 0.439520 0.886142 0.045804 -0.021480 -478290.000000 0 1 0
-16.493035 -6.304058 15.427732 23.447308 0.365090 0.852670 0.058467 -0.014304 384506.000000 0 1 0
-15.801735 -6.177758 16.668432 23.784368 0.372684 0.794258 0.048866 -0.008855 -762607.000000 0 1 0
-14.427635 -6.043658 16.562732 22.781715 0.396688 0.756826 0.045265 -0.014125 -1050330.000000 0 1 0
-13.684735 -5.988758 17.948232 23.351150 0.412514 0.694110 0.044353 -0.006761 68033.900000 0 1 0
-13.581235 -7.194958 18.773432 24.262298 0.487181 0.686026 0.030453 -0.015900 193350.000000 0 1 0
-13.071835 -8.400258 18.168232 23.906523 0.571172 0.707530 0.023751 -0.016008 -488215.000000 0 1 0
-13.239435 -9.650358 19.027532 25.108943 0.629866 0.710863 0.030875 -0.016562 45043.200000 0 0 1
-14.535835 -10.200258 19.099132 26.078968 0.611887 0.749018 0.042769 -0.013026 -63732.100000 0 0 1
-15.351635 -9.596458 20.105932 27.055742 0.558678 0.733061 0.034902 -0.008484 134022.000000 0 0 1
-16.765735 -10.306658 20.183032 28.189924 0.551191 0.772789 0.037588 -0.004528 1510110.000000 0 0 1
-17.610335 -10.230658 18.991732 27.847372 0.526292 0.820311 0.055449 -0.007111 628151.000000 0 0 1
-18.125935 -8.914058 18.736832 27.551385 0.457054 0.822940 0.048496 -0.007393 -682649.000000 0 0 1
-19.269835 -8.797658 17.727432 27.622222 0.428288 0.873977 0.066006 -0.010110 -613786.000000 0 0 1
-20.515035 -9.084858 18.287932 28.945634 0.416883 0.886920 0.063632 -0.005622 -549284.000000 0 0 1
-21.479235 -8.989858 17.227332 28.964738 0.396384 0.933818 0.082767 -0.015394 -262412.000000 0 0 1
-22.911435 -9.246658 17.671032 30.375976 0.383591 0.949926 0.071720 -0.005390 -613635.000000 0 0 1
-23.366435 -8.301458 18.631132 31.016505 0.341364 0.926439 0.071966 -0.004293 1611400.000000 0 0 1
-24.794735 -8.516458 18.826532 32.276109 0.330853 0.948015 0.066460 -0.000017 1213630.000000 0 0 1
-25.487785 -7.383758 19.567532 32.970219 0.281979 0.935407 0.071502 -0.003501 -188109.000000 0 0 1
-25.338115 -7.448058 20.962832 33.718451 0.285894 0.899882 0.072714 -0.007410 342390.000000 0 0 1
-26.091715 -6.373958 21.515132 34.413745 0.239598 0.895421 0.068734 -0.011824 -468573.000000 0 0 1
-26.037175 -6.296158 23.094732 35.368669 0.237260 0.859295 0.072404 -0.009337 688707.000000 0 0 1
-24.807035 -5.889358 23.683652 34.799266 0.233092 0.822244 0.058291 -0.011296 -302505.000000 0 0 1
-23.677835 -6.647658 23.520332 34.029946 0.273708 0.807696 0.059831 -0.007905 -1028530.000000 0 0 1
-22.628235 -6.525058 24.664452 34.102032 0.280743 0.762293 0.057334 -0.007365 -202394.000000 0 0 1
-22.019935 -5.327058 24.556852 33.410987 0.237359 0.745140 0.053517 -0.004679 -760675.000000 0 0 1
-21.130135 -5.095358 25.593442 33.577813 0.236624 0.704072 0.051570 -0.004586 -266857.000000 0 0 1
-20.666835 -3.630258 25.590262 33.093177 0.173882 0.686800 0.053065 -0.010885 299413.000000 0 0 1
-19.637735 -3.244658 26.517262 33.156200 0.163746 0.643888 0.046313 -0.005593 181192.000000 0 0 1
-19.973535 -3.228058 27.949472 34.504137 0.160231 0.626589 0.047043 -0.015850 -14808.500000 0 0 1
-20.834435 -2.018958 28.370332 35.256568 0.096603 0.635656 0.051336 -0.024629 84245.600000 0 0 1
-22.050935 -1.987358 27.673882 35.440613 0.089883 0.674767 0.057018 -0.028000 -357256.000000 0 0 1
-23.002235 -1.108258 28.270922 36.463353 0.048143 0.683568 0.058265 -0.026819 760146.000000 0 0 1
-24.361535 -0.900358 27.550112 36.787276 0.036941 0.724391 0.062758 -0.026511 -118904.000000 0 0 1
-24.275335 -0.218758 26.290382 35.784409 0.009011 0.745589 0.054486 -0.029599 80151.900000 0 0 1
-25.467295 -0.140158 25.515962 36.050896 0.005503 0.784451 0.059548 -0.024044 131114.000000 0 0 1
-26.120915 -1.457658 25.022832 36.201783 0.055746 0.807642 0.063837 -0.023548 1122.700000 0 0 1
-27.025005 -2.019558 25.974002 37.537692 0.074591 0.806617 0.058592 -0.017583 469127.000000 0 0 1
-27.667865 -3.241158 25.646122 37.864752 0.116614 0.826698 0.060287 -0.014855 348818.000000 0 0 1
-26.770295 -4.496458 25.912872 37.527906 0.166411 0.808622 0.058706 -0.023222 -19114.500000 0 0 1
-26.430075 -4.682858 27.268652 38.263003 0.175359 0.777508 0.062560 -0.022791 -167329.000000 0 0 1
-25.650315 -5.856458 27.347952 37.949272 0.224471 0.766064 0.049121 -0.023702 -360121.000000 0 0 1
-25.038205 -6.169358 28.720122 38.598162 0.241585 0.731640 0.049830 -0.020153 -193245.000000 0 0 1
-25.992165 -6.507358 29.696602 39.997831 0.245316 0.734068 0.063061 -0.018250 199186.000000 0 0 1
-25.513755 -7.501558 30.600002 40.541154 0.285962 0.715465 0.064323 -0.016253 -732053.000000 0 0 1
-26.680845 -8.017858 31.413022 41.987278 0.291925 0.725518 0.041182 -0.019590 -379841.000000 0 0 1
-27.590585 -8.760958 30.668672 42.173003 0.307465 0.756546 0.025795 -0.021650 -901110.000000 0 0 1
-28.822555 -8.968458 31.256642 43.452855 0.301665 0.767969 0.030310 -0.016860 -708073.000000 0 0 1
-29.728845 -9.810858 30.370582 43.616848 0.318758 0.800561 0.023581 -0.021023 -290759.000000 0 0 1
-29.224745 -11.096658 30.178452 43.450667 0.362885 0.803009 0.027161 -0.020699 1039770.000000 0 0 1
-30.257135 -11.878058 29.498622 43.894774 0.374085 0.833849 0.022518 -0.012717 918268.000000 0 0 1
-29.613955 -13.112958 28.763372 43.315904 0.416847 0.844591 0.027122 -0.013802 64334.400000 0 0 1
-28.781945 -12.717258 27.728952 41.940717 0.416054 0.848451 0.034468 -0.012612 -136169.000000 0 0 1
-27.800775 -13.706458 27.357052 41.341969 0.458051 0.847678 0.035341 -0.007493 238260.000000 0 0 1
-26.520555 -13.052858 26.797432 39.897610 0.457371 0.834356 0.044483 -0.013126 -359921.000000 0 0 1
-25.716555 -12.433158 27.785142 39.848949 0.450336 0.799226 0.035423 -0.014126 -280226.000000 0 0 1
-26.120955 -11.162658 28.333962 40.121349 0.403855 0.786670 0.039437 -0.016297 -712398.000000 0 0 1
-26.282805 -9.887058 27.432662 39.256728 0.359805 0.797076 0.043906 -0.012067 466909.000000 0 0 1
-25.071125 -9.299758 26.945612 37.961992 0.355202 0.781575 0.041087 -0.011260 459416.000000 0 0 1
-24.403035 -10.005158 25.903522 36.967604 0.389094 0.794406 0.042765 -0.012811 78012.300000 0 0 1
-25.086505 -9.914358 24.505392 36.443675 0.376367 0.833325 0.055199 -0.004720 798962.000000 0 0 1
-26.302325 -10.680958 24.304742 37.371321 0.385740 0.862741 0.051375 -0.008219 429429.000000 0 0 1
-26.694555 -10.479858 22.977532 36.747703 0.374097 0.895309 0.059727 0.001154 -613617.000000 0 0 1
-27.925315 -11.364958 22.771832 37.782824 0.386506 0.923912 0.065239 -0.006525 1134070.000000 0 0 1
-29.221975 -10.985658 23.326432 38.970898 0.359593 0.929094 0.056743 -0.008972 1183500.000000 0 0 1
-29.324365 -11.049258 24.718162 39.912304 0.360343 0.902930 0.055328 -0.012225 -1838750.000000 0 0 1
-30.723285 -10.924658 25.233822 41.231228 0.341639 0.912200 0.028812 -0.006169 -1260370.000000 0 0 1
-31.197885 -9.572458 25.150502 41.200579 0.297711 0.914180 0.029323 -0.013488 883357.000000 0 0 1
-32.565585 -9.399158 25.625692 42.491618 0.280986 0.923444 0.033501 -0.009764 1341180.000000 0 0 1
-32.868865 -9.499458 27.120082 43.658915 0.281345 0.900548 0.026938 -0.006838 -256858.000000 0 0 1
-33.129105 -10.856858 27.527382 44.420330 0.316684 0.902433 0.018309 -0.011286 30076.500000 0 0 1
-33.647155 -10.783958 28.831752 45.603670 0.310158 0.886376 0.028998 -0.008234 -1279520.000000 0 0 1
-34.299476 -12.101858 29.361962 46.744345 0.339193 0.891637 0.038750 -0.007451 401601.000000 0 0 1
-35.527351 -12.424558 28.716572 47.341354 0.336424 0.919038 0.022096 -0.000145 692506.000000 0 0 1
35.544195 -11.615858 29.166562 47.423689 -0.315859 0.908384 0.031602 0.003089 -71680.500000 0 0 1
34.164125 -12.091358 28.628762 46.184352 -0.340163 0.902206 0.028013 0.000855 391458.000000 0 0 1
34.017655 -11.859458 27.238662 45.164059 -0.335451 0.923409 0.027849 0.004624 491678.000000 0 0 1
32.800695 -12.422258 26.691122 44.075095 -0.362027 0.920298 0.037370 0.008931 751283.000000 0 0 1
32.491335 -12.017558 25.277912 42.884512 -0.354265 0.940429 0.039299 0.002340 -21257.600000 0 0 1
32.212105 -10.644858 25.089062 42.194712 -0.319164 0.934026 0.044060 -0.011409 -154785.000000 0 0 1
32.286025 -10.302858 23.686222 41.346987 -0.308897 0.960800 0.036838 -0.010988 -422092.000000 0 0 1
31.830605 -8.809158 23.454292 40.507931 -0.269994 0.953289 0.035327 0.007371 -286989.000000 0 0 1
30.484275 -8.498958 23.640812 39.502041 -0.271894 0.929206 0.049657 0.003107 -685417.000000 0 0 1
30.085195 -7.244458 23.095232 38.613351 -0.236299 0.929649 0.042109 0.009344 -75905.500000 0 0 1
28.585895 -6.977458 23.310932 37.539817 -0.239406 0.900822 0.053194 0.006817 25693.000000 0 0 1
27.821385 -7.918958 22.538432 36.670427 -0.277302 0.908890 0.052640 0.014780 -133287.000000 0 0 1
26.442005 -7.673758 22.513932 35.566041 -0.282452 0.885351 0.049021 0.002012 -182189.000000 0 0 1
14.702465 -16.881058 26.398232 34.612125 -0.854268 0.703338 0.068361 -0.019783 238208.000000 0 0 1
14.146965 -18.226658 26.400232 35.061659 -0.910756 0.718239 0.071955 -0.017684 -79205.600000 0 0 1
15.130465 -19.190858 26.438312 36.002838 -0.903156 0.746103 0.046453 -0.001097 -840537.000000 0 0 1
14.458965 -20.602058 26.297032 36.401103 -0.958849 0.763495 0.039922 -0.013088 335867.000000 0 0 1
13.660765 -21.194758 27.292642 37.158075 -0.998272 0.745865 0.032041 -0.013143 1190420.000000 0 0 1
12.413465 -20.465158 27.481052 36.443449 -1.025563 0.716553 0.048849 -0.017212 908094.000000 0 0 1
11.543765 -20.951558 28.690492 37.354660 -1.067206 0.694996 0.033688 -0.009989 396125.000000 0 0 1
12.256565 -20.566758 29.865762 38.277652 -1.033367 0.675747 0.041841 -0.013405 326577.000000 0 0 1
11.587665 -19.774758 30.874742 38.452109 -1.040747 0.638585 0.055137 -0.012502 18582.400000 0 0 1
11.286965 -18.332458 30.361802 37.219801 -1.018926 0.616783 0.057383 -0.016941 377605.000000 0 0 1
12.403865 -17.450458 30.327932 37.123548 -0.952856 0.614701 0.044883 -0.001829 -170918.000000 0 0 1
12.116965 -16.244758 29.750272 35.997106 -0.929924 0.598001 0.044133 -0.002445 134946.000000 0 0 1
13.097165 -15.118358 30.162462 36.192189 -0.856910 0.585570 0.044101 -0.004146 225643.000000 0 0 1
12.606965 -13.900458 29.738212 35.164180 -0.834157 0.562928 0.056886 -0.006599 -116017.000000 0 0 1
13.270965 -12.816358 30.369672 35.534413 -0.767974 0.545910 0.058333 0.002339 184777.000000 0 0 1
12.700465 -11.364758 30.020692 34.521029 -0.729951 0.516334 0.055644 0.006081 58072.000000 0 0 1
12.935465 -10.940558 28.674422 33.305323 -0.702039 0.533650 0.067799 -0.001846 408106.000000 0 0 1
14.281065 -10.802258 28.217882 33.419851 -0.647587 0.565455 0.077220 -0.001074 22551.400000 0 0 1
14.470565 -9.840358 27.022742 32.194075 -0.597194 0.574673 0.070562 -0.004671 130110.000000 0 0 1
14.725365 -8.445258 27.425212 32.253697 -0.520720 0.554248 0.065454 -0.003792 360306.000000 0 0 1
16.127465 -8.275458 27.615162 33.032946 -0.474095 0.580865 0.069626 -0.009641 -251018.000000 0 0 1
16.385265 -6.779858 27.941712 33.093544 -0.392327 0.565492 0.056515 -0.012600 -890570.000000 0 0 1
17.742065 -6.485358 27.930822 33.719009 -0.350447 0.594657 0.053190 -0.018603 -688038.000000 0 0 1
18.038565 -5.130758 27.851762 33.577301 -0.277114 0.592617 0.062504 -0.021648 119416.000000 0 0 1
19.512865 -4.928058 27.426682 34.018532 -0.247381 0.633049 0.063360 -0.019074 -964187.000000 0 0 1
19.874465 -5.518758 26.203812 33.348026 -0.270857 0.666859 0.064467 -0.015999 -113897.000000 0 0 1
21.213165 -5.405858 25.795652 33.832489 -0.249524 0.703702 0.062020 -0.015121 931655.000000 0 0 1
22.367565 -5.905458 26.798562 35.402617 -0.258129 0.712139 0.067079 -0.020044 100412.000000 0 0 1
22.838665 -4.864258 27.629232 36.175131 -0.209848 0.701673 0.060886 -0.022925 -131604.000000 0 0 1
23.888265 -5.284358 28.468972 37.537395 -0.217706 0.709917 0.067715 -0.034031 -172112.000000 0 0 1
24.566065 -4.014758 29.024462 38.236491 -0.161995 0.708901 0.072384 -0.033225 -66658.700000 0 0 1
25.480365 -3.344958 28.163802 38.126598 -0.130529 0.739669 0.063431 -0.023249 389533.000000 0 0 1
25.850165 -2.033558 28.564612 38.578536 -0.078505 0.737090 0.055880 -0.029768 182646.000000 0 0 1
27.032665 -1.330258 27.808552 38.805285 -0.049170 0.771856 0.060022 -0.029688 -577281.000000 0 0 1
28.289565 -1.637058 28.264542 40.023290 -0.057803 0.786676 0.072759 -0.024743 -1402930.000000 0 0 1
29.204865 -1.187558 27.300352 39.995545 -0.040641 0.819503 0.064360 -0.008534 336228.000000 0 0 1
30.689765 -1.235558 27.787882 41.419255 -0.040238 0.835384 0.045476 -0.014545 407782.000000 0 0 1
31.028865 -0.212258 28.651002 42.234055 -0.006841 0.825232 0.042658 -0.004444 -1690240.000000 0 0 1
32.365065 -0.216358 28.877682 43.375855 -0.006685 0.842291 0.052426 -0.010471 -1496350.000000 0 0 1
32.774565 0.949342 29.832482 44.328888 0.028958 0.832565 0.037701 -0.012349 -277436.000000 0 0 1
32.579665 2.214642 29.274562 43.855891 0.067872 0.839927 0.028731 0.000894 90820.700000 0 0 1
33.008765 3.223342 30.109482 44.794524 0.097342 0.833662 0.030211 -0.000514 -304732.000000 0 0 1
33.285665 4.559942 29.318152 44.590163 0.136147 0.853297 0.022709 0.001168 -37917.900000 0 0 1
33.114265 5.738842 30.036192 45.073958 0.171600 0.841459 0.033677 0.009087 543822.000000 0 0 1
31.761165 6.049642 30.364862 44.355322 0.188218 0.816766 0.022811 0.002238 247398.000000 0 0 1
31.671365 6.986442 31.551812 45.248233 0.217115 0.799166 0.025065 0.000442 92208.200000 0 0 1
32.177165 6.319442 32.748774 46.344228 0.193927 0.786055 0.036422 0.006301 412441.000000 0 0 1
32.064865 7.225142 33.808877 47.152926 0.221628 0.771300 0.042039 0.007847 -283874.000000 0 0 1
32.363965 6.814942 -33.214721 46.873099 0.207540 2.358322 0.048852 0.011576 210882.000000 0 0 1
31.413365 5.950342 -32.550581 45.626159 0.187203 2.365162 0.045696 0.002108 265233.000000 0 0 1
31.466065 4.569942 -32.967591 45.802398 0.144226 2.374280 0.054672 -0.002666 -23283.900000 0 0 1
31.889065 3.594742 -31.888861 45.240846 0.112253 2.353035 0.052096 -0.002122 27880.800000 0 0 1
32.272665 2.282242 -32.393481 45.782870 0.070600 2.356816 0.051544 -0.006283 341216.000000 0 0 1
32.702365 1.520542 -31.269231 45.271642 0.046463 2.333256 0.043044 -0.002903 -74190.500000 0 0 1
33.015965 0.105842 -31.612621 45.710206 0.003206 2.334481 0.051283 -0.014326 -662866.000000 0 0 1
34.108765 0.013742 -32.529481 47.133589 0.000403 2.332500 0.064399 -0.007249 568714.000000 0 0 1
34.804565 -1.269158 -32.421711 47.582937 -0.036449 2.320433 0.069944 -0.011234 1060070.000000 0 0 1
35.621865 -1.518158 -31.077921 47.297561 -0.042593 2.287725 0.065547 -0.007296 -328031.000000 0 0 1
34.763365 -1.657658 -29.937021 45.907130 -0.047648 2.281176 0.048288 -0.012313 256862.000000 0 0 1
35.430565 -1.617058 -28.688001 45.617335 -0.045609 2.250913 0.041513 -0.010844 -108997.000000 0 0 1
34.369365 -1.550858 -27.559231 44.081398 -0.045093 2.246171 0.048627 -0.011547 -226906.000000 0 0 1
33.766565 -0.301458 -27.641211 43.638381 -0.008927 2.256755 0.028742 -0.006044 138747.000000 0 0 1
32.825265 -0.046758 -26.608031 42.255030 -0.001424 2.251964 0.035980 -0.005059 -181817.000000 0 0 1
32.454365 1.434142 -26.543321 41.951048 0.044161 2.255859 0.019066 -0.010179 -44106.300000 0 0 1
31.451565 1.760542 -27.488471 41.808091 0.055918 2.288281 0.037428 -0.021151 -52571.700000 0 0 1
30.742565 2.880142 -27.176031 41.133164 0.093413 2.292526 0.020702 -0.009076 -18623.300000 0 0 1
30.041065 3.468342 -28.460801 41.527246 0.114944 2.325884 0.043794 -0.010057 -104260.000000 0 0 1
28.963465 4.314642 -28.234441 40.677784 0.147881 2.337965 0.030021 -0.007578 -117295.000000 0 0 1
28.413365 4.933342 -29.390221 41.175749 0.171914 2.365670 0.019604 -0.008074 -268502.000000 0 0 1
27.118765 5.686642 -29.022621 40.125775 0.206699 2.379353 0.010686 -0.003711 -455470.000000 0 0 1
26.100865 4.775142 -28.629421 39.034611 0.180948 2.394161 0.018749 -0.000638 195209.000000 0 0 1
25.111865 5.592942 -27.989281 38.016926 0.219144 2.398282 0.018518 -0.007601 248198.000000 0 0 1
23.756465 4.844742 -27.775681 36.869088 0.201175 2.423952 0.037891 -0.001368 435521.000000 0 0 1
22.988065 4.861242 -28.981151 37.309381 0.208398 2.460332 0.047387 -0.005281 732818.000000 0 0 1
21.635665 4.475942 -28.752701 36.260914 0.204000 2.486414 0.050646 -0.004814 722797.000000 0 0 1
20.761065 4.036142 -29.987591 36.695611 0.192014 2.527329 0.041431 0.001041 243184.000000 0 0 1
20.989865 2.653942 -30.349801 36.996328 0.125772 2.532813 0.047673 -0.011452 94880.200000 0 0 1
20.382665 2.099542 -31.520131 37.594943 0.102644 2.565163 0.038801 -0.013157 -236993.000000 0 0 1
20.605865 2.763742 -32.902191 38.920356 0.133328 2.578058 0.044492 -0.020792 -274514.000000 0 0 1
21.902665 2.677442 -33.432091 40.057461 0.121639 2.558209 0.035916 -0.019478 -522070.000000 0 0 1
21.986365 3.437942 33.875501 40.531090 0.155111 0.581225 0.044970 -0.036776 177213.000000 0 0 1
23.397165 3.137342 33.296969 40.816154 0.133296 0.616721 0.059576 -0.030464 298908.000000 0 0 1
23.558065 1.757042 32.938238 40.533901 0.074446 0.622180 0.063770 -0.037366 780630.000000 0 0 1
24.959465 1.481342 32.751219 41.204510 0.059280 0.652043 0.053829 -0.039068 412282.000000 0 0 1
25.274965 -0.039058 32.582559 41.236495 -0.001545 0.659761 0.055081 -0.037939 -602815.000000 0 0 1
24.793465 -0.648358 31.377032 39.995680 -0.026144 0.668890 0.059646 -0.040756 -211059.000000 0 0 1
23.414365 -0.656458 31.150012 38.974180 -0.028029 0.644754 0.066459 -0.046574 -854707.000000 0 0 1
22.609065 -1.652258 32.023662 39.235376 -0.072950 0.616004 0.066588 -0.045362 -1051270.000000 0 0 1
22.896765 -2.994258 31.785312 39.287829 -0.130034 0.628284 0.069784 -0.049619 191801.000000 0 0 1
22.174565 -3.961858 32.552228 39.586048 -0.176801 0.605328 0.072074 -0.043604 -24790.200000 0 0 1
22.267165 -5.340858 31.945482 39.304773 -0.235406 0.621916 0.072856 -0.039314 -679165.000000 0 0 1
23.466565 -5.982158 32.197302 40.288114 -0.249606 0.644873 0.058214 -0.026921 -598368.000000 0 0 1
23.297765 -7.387058 32.088352 40.336296 -0.307044 0.650930 0.073620 -0.030010 -96905.900000 0 0 1
24.667365 -8.033958 31.807292 41.045428 -0.314857 0.684194 0.045986 -0.025198 -78675.500000 0 0 1
25.035465 -7.993658 30.488662 40.252100 -0.309062 0.711409 0.058128 -0.027572 -556375.000000 0 0 1
26.370365 -8.392858 30.324192 41.053536 -0.308132 0.739731 0.037739 -0.017935 -187644.000000 0 0 1
26.759165 -8.002558 28.866292 40.166611 -0.290593 0.768917 0.043344 -0.024548 -501736.000000 0 0 1
25.914865 -8.523158 27.890102 39.013872 -0.317747 0.774349 0.035341 -0.017066 -540760.000000 0 0 1
26.290465 -8.257858 26.583762 38.289387 -0.304343 0.803370 0.046559 -0.013999 -214675.000000 0 0 1
25.615865 -9.185858 25.594832 37.358372 -0.344316 0.816033 0.030916 -0.010330 -799073.000000 0 0 1
24.355365 -8.751058 25.222812 36.138000 -0.344942 0.798254 0.039427 -0.010974 -996207.000000 0 0 1
23.718365 -9.758158 24.494072 35.464659 -0.390310 0.808393 0.047591 -0.015040 132453.000000 0 0 1
22.262165 -9.479958 24.037582 34.106875 -0.402576 0.788694 0.038752 -0.009952 -162061.000000 0 0 1
21.380365 -9.295258 25.089772 34.249357 -0.410106 0.748718 0.031505 -0.007239 -1220040.000000 0 0 1
20.200665 -8.793058 24.551162 32.987032 -0.410550 0.731360 0.046915 -0.002124 39138.400000 0 0 1
19.026965 -8.652058 25.600272 33.049318 -0.426777 0.684701 0.049313 0.001024 152478.000000 0 0 1
18.402365 -9.879558 25.951982 33.313031 -0.492702 0.677673 0.066339 -0.003764 308588.000000 0 0 1
19.163965 -10.703658 26.879252 34.703314 -0.509369 0.684802 0.051232 -0.005750 -98113.900000 0 0 1
18.294865 -11.579858 27.796512 35.234092 -0.564301 0.661764 0.055664 -0.003465 -72985.400000 0 0 1
17.753565 -12.596858 26.998972 34.681614 -0.617100 0.678554 0.065071 -0.006942 289886.000000 0 0 1
16.948365 -13.555258 27.712222 35.198854 -0.674617 0.664371 0.065996 -0.004519 702455.000000 0 0 1
17.792865 -14.753258 28.264132 36.511722 -0.692274 0.685486 0.067841 0.003003 576983.000000 0 0 1
16.884965 -15.565258 29.012762 37.001617 -0.744752 0.669561 0.053360 0.003948 601801.000000 0 0 1
17.474265 -16.711158 29.641552 38.252246 -0.763079 0.684244 0.057102 0.002841 40232.000000 0 0 1
17.937465 -17.931758 28.775712 38.358078 -0.785239 0.722452 0.055424 0.008631 336035.000000 0 0 1
18.962865 -17.639558 27.837162 38.021728 -0.749260 0.749340 0.046085 0.009167 407776.000000 0 0 1
19.428265 -18.797958 27.186812 38.339841 -0.768911 0.782574 0.038046 0.008736 -89485.300000 0 0 1
20.518165 -18.611458 26.083622 38.049136 -0.736709 0.815472 0.027808 0.005093 -788814.000000 0 0 1
21.719665 -18.453058 26.751992 39.088723 -0.704263 0.817027 0.032293 0.010538 -1089130.000000 0 0 1
22.569765 -17.631558 25.983742 38.670673 -0.663174 0.833993 0.024163 0.007357 434375.000000 0 0 1
24.023765 -17.415758 26.518612 39.795561 -0.627268 0.841465 0.023259 0.003759 365270.000000 0 0 1
24.677265 -18.654358 26.525252 40.749742 -0.647287 0.861987 0.023037 0.005540 191372.000000 0 0 1
26.066165 -18.484958 26.801042 41.706528 -0.616844 0.872896 0.014989 0.002951 536234.000000 0 0 1
26.830765 -19.850458 26.978002 42.915536 -0.636967 0.891006 0.006170 0.010272 -12721.200000 0 0 1
26.511165 -20.489058 28.134272 43.751350 -0.657963 0.872323 0.014723 0.012932 -303277.000000 0 0 1
27.222265 -21.666558 28.236262 44.808235 -0.672244 0.889040 0.022846 0.012000 -213730.000000 0 0 1
26.544665 -22.669758 29.202482 45.511780 -0.706825 0.874153 0.033557 0.009881 -438705.000000 0 0 1
26.505665 -22.279258 30.571892 46.190434 -0.698980 0.847491 0.025899 0.003063 -296302.000000 0 0 1
25.870965 -23.322958 31.209562 46.768621 -0.733649 0.840194 0.039403 -0.002972 -505600.000000 0 0 1
25.517065 -23.125658 32.709627 47.495645 -0.736275 0.811120 0.029988 -0.000234 24057.800000 0 0 1
25.210065 -24.375858 33.262856 48.333709 -0.768576 0.811803 0.031316 -0.007883 -92189.200000 0 0 1
25.004565 -24.230058 -33.857251 48.565805 -0.769669 2.342199 0.043912 -0.008530 -464911.000000 0 0 1
24.690465 -25.566958 -33.049081 48.533804 -0.802836 2.319855 0.042446 -0.015602 770888.000000 0 0 1
23.381865 -26.115528 -33.234091 48.303594 -0.840571 2.329561 0.058234 -0.020951 242668.000000 0 0 1
23.114865 -26.575968 33.945079 48.916740 -0.854939 0.803855 0.049678 -0.023685 119427.000000 0 0 1
21.812565 -27.397758 33.664701 48.577126 -0.898411 0.805133 0.062388 -0.027168 604078.000000 0 0 1
21.890965 -28.762798 33.971232 49.604007 -0.920238 0.816400 0.064138 -0.025559 -488399.000000 0 0 1
20.616765 -29.321518 34.058871 49.445011 -0.957974 0.810932 0.067474 -0.027694 -454366.000000 0 0 1
20.497865 -30.890848 -34.218636 50.451184 -0.984949 2.316178 0.054838 -0.028074 -662929.000000 0 0 1
20.999665 -31.152578 -32.985951 49.995420 -0.977672 2.291322 0.043012 -0.035602 656333.000000 0 0 1
21.916465 -32.288258 -33.083391 51.160275 -0.974458 2.273996 0.026814 -0.021179 -7842.650000 0 0 1
22.700565 -32.530758 -31.823981 50.855989 -0.961536 2.246910 0.026107 -0.011892 -965890.000000 0 0 1
23.722165 -33.473188 -32.167571 52.133943 -0.954261 2.235744 0.014569 -0.004193 196463.000000 0 0 1
24.426565 -33.982608 -31.108371 52.146001 -0.947567 2.210008 0.015924 0.002350 -246790.000000 0 0 1
25.346365 -33.094788 -30.259251 51.510440 -0.917214 2.198687 0.017090 -0.005898 -1050870.000000 0 0 1
25.891065 -33.703518 -29.167221 51.546107 -0.915748 2.172257 0.027548 0.002230 -550814.000000 0 0 1
26.977765 -32.899928 -28.807521 51.381692 -0.883982 2.165976 0.016281 0.002213 -447329.000000 0 0 1
27.457565 -32.922808 -27.326011 50.838371 -0.875666 2.138275 0.014660 -0.001885 210600.000000 0 0 1
28.110065 -34.173618 -27.082651 51.879494 -0.882446 2.120026 0.015342 0.003657 -53670.700000 0 0 1
29.013665 -34.032768 -26.013711 51.737174 -0.864840 2.097637 0.022049 -0.000841 206351.000000 0 0 1
-26.204615 -30.643167 9.603169 41.447635 0.863318 1.336978 0.025106 -0.006562 -332566.000000 0 0 1
-26.418585 -31.811467 10.348869 42.626402 0.877748 1.325565 0.018099 0.005456 422494.000000 0 0 1
-25.147575 -32.268567 10.839969 42.322168 0.908792 1.311780 0.011974 0.004327 814637.000000 0 0 1
-25.253645 -33.632967 11.656269 43.643919 0.926745 1.300438 0.000718 0.013218 2901.530000 0 0 1
-25.324145 33.906542 10.752169 43.664346 -0.929295 1.321991 -0.001912 0.021168 -68518.600000 0 0 1
-25.348675 32.700742 11.454369 42.931299 -0.911379 1.300718 -0.004269 0.024624 -145369.000000 0 0 1
-25.320735 31.390842 10.602669 41.700614 -0.892027 1.313717 -0.004202 0.020508 578842.000000 0 0 1
-26.572635 31.112742 9.954769 42.109442 -0.863941 1.332135 0.004953 0.008699 494757.000000 0 0 1
-26.671075 29.874442 9.282669 41.109567 -0.841989 1.343029 0.012818 -0.002098 -218080.000000 0 0 1
-25.887015 29.641942 7.954969 40.150515 -0.852916 1.371348 0.012469 0.004193 -331498.000000 0 0 1
-24.519935 29.411442 8.120569 39.143375 -0.875849 1.361822 0.020131 0.007573 -219962.000000 0 0 1
-23.781635 29.519342 6.910369 38.531947 -0.892633 1.390479 0.012030 0.006953 367579.000000 0 0 1
-22.360235 28.911342 6.825869 37.181155 -0.912482 1.386165 0.036675 0.007798 63179.400000 0 0 1
-22.310235 27.490342 6.787669 36.049105 -0.889042 1.381376 0.039544 0.005546 212533.000000 0 0 1
-22.995035 26.882442 5.692169 35.830687 -0.863180 1.411257 0.038975 0.000800 -392491.000000 0 0 1
-23.185835 25.365842 6.034669 34.891634 -0.830269 1.396968 0.043697 -0.000068 -96753.400000 0 0 1
-24.147835 25.121242 7.084069 35.558104 -0.805153 1.370229 0.050312 -0.007019 721215.000000 0 0 1
-24.428135 23.754442 7.334769 34.854069 -0.771417 1.358769 0.052731 -0.018368 -101638.000000 0 0 1
-25.078275 22.935442 6.195069 34.544656 -0.740798 1.390486 0.050014 -0.032301 -1142330.000000 0 0 1
-26.401585 23.213742 5.869269 35.642248 -0.721235 1.405371 0.049476 -0.032135 -429843.000000 0 0 1
-26.911035 22.566442 4.694469 35.432840 -0.697813 1.437916 0.055995 -0.026862 165176.000000 0 0 1
-26.657665 23.387742 3.439069 35.629269 -0.720152 1.474122 0.048134 -0.026511 46057.200000 0 0 1
-25.274355 23.582842 3.182969 34.714187 -0.750790 1.478977 0.043848 -0.026551 396620.000000 0 0 1
-25.056145 24.370442 2.035869 35.012478 -0.771526 1.512617 0.034506 -0.016837 409767.000000 0 0 1
-23.624835 24.987942 2.012469 34.446772 -0.813431 1.512340 0.039460 -0.012962 425734.000000 0 0 1
-23.336635 26.009942 1.088469 34.961413 -0.839519 1.539658 0.021908 -0.019302 56462.800000 0 0 1
-21.927635 26.181442 1.070769 34.167758 -0.873589 1.539453 0.025637 -0.014818 -168202.000000 0 0 1
-21.331135 26.850442 -0.177631 34.292785 -0.899453 1.575976 0.028287 -0.015704 35273.600000 0 0 1
-21.111835 26.005542 -1.290331 33.521080 -0.888889 1.609299 0.035180 -0.009203 796167.000000 0 0 1
-20.011235 25.057042 -1.202231 32.089722 -0.896893 1.608270 0.044285 -0.011496 409507.000000 0 0 1
-19.886035 24.098142 -2.429231 31.338092 -0.880871 1.648391 0.041013 -0.023043 221974.000000 0 0 1
-20.993835 23.195342 -2.528231 31.387210 -0.835177 1.651433 0.031088 -0.026057 268528.000000 0 0 1
-20.644535 22.115942 -3.444531 30.449574 -0.819795 1.684161 0.030899 -0.020643 427136.000000 0 0 1
-21.815735 21.629042 -4.363331 31.028703 -0.781101 1.711886 0.038409 -0.015313 402126.000000 0 0 1
-22.053635 22.583642 -5.361631 32.017664 -0.797271 1.739048 0.038857 -0.011319 1090580.000000 0 0 1
-23.374035 22.212042 -5.855531 32.772055 -0.759914 1.750435 0.051485 -0.010853 1369570.000000 0 0 1
-23.859535 22.818042 -7.206831 33.791699 -0.763089 1.785719 0.034701 -0.011238 4210.990000 0 0 1
-23.269035 22.166942 -8.342831 33.202773 -0.761147 1.824788 0.039985 -0.010117 282090.000000 0 0 1
-22.143735 22.821142 -8.908331 33.022839 -0.800462 1.843943 0.035830 -0.017887 31755.900000 0 0 1
-21.383735 22.011442 -9.942831 32.258760 -0.799862 1.884119 0.037019 -0.025971 47415.700000 0 0 1
-22.127235 21.904642 -11.178731 33.081595 -0.780343 1.915496 0.036450 -0.017785 644150.000000 0 0 1
-21.356935 21.350742 -12.255431 32.590926 -0.785253 1.956313 0.033847 -0.010220 725175.000000 0 0 1
-22.271035 21.115042 -13.526231 33.538082 -0.758760 1.985927 0.028723 -0.011466 672058.000000 0 0 1
-23.193935 20.037542 -13.435431 33.465991 -0.712516 1.983912 0.012610 -0.002473 -131751.000000 0 0 1
-24.067135 20.119942 -14.501931 34.559298 -0.696306 2.003828 0.024218 -0.010251 -442000.000000 0 0 1
-25.050745 18.949742 -14.696531 34.678821 -0.647619 2.008422 0.044109 -0.015264 -224341.000000 0 0 1
-24.491935 17.746942 -15.065631 33.790266 -0.627048 2.032928 0.036004 -0.012840 -185418.000000 0 0 1
-25.484475 16.817442 -15.466731 34.227250 -0.583310 2.039672 0.056270 -0.021713 -94010.200000 0 0 1
-25.205115 16.162242 -16.873631 34.369104 -0.570184 2.083980 0.060093 -0.019257 -398820.000000 0 0 1
-24.197035 15.211242 -16.803931 33.154947 -0.561213 2.102300 0.063208 -0.013589 -616831.000000 0 0 1
-23.861335 14.719542 -18.050631 33.344468 -0.552738 2.142824 0.056588 -0.016760 123998.000000 0 0 1
-23.143935 13.355742 -17.821831 32.119079 -0.523391 2.159000 0.054169 -0.015584 1380660.000000 0 0 1
-21.863135 13.357342 -17.129731 30.819522 -0.548434 2.160131 0.063022 -0.019225 1070270.000000 0 0 1
-21.053935 12.254342 -17.484231 29.985587 -0.527113 2.193321 0.064060 -0.005245 880106.000000 0 0 1
-19.772535 12.135942 -16.563831 28.506047 -0.550489 2.190831 0.064767 -0.009412 695873.000000 0 0 1
-18.862735 13.170942 -16.794231 28.483727 -0.609552 2.201370 0.059509 -0.000254 467083.000000 0 0 1
-17.715335 13.174642 -15.913831 27.214965 -0.639448 2.195363 0.059846 0.008800 1241410.000000 0 0 1
-16.759635 14.401942 -16.148431 27.369201 -0.709882 2.201882 0.038097 0.012618 426823.000000 0 0 1
-16.010735 14.370042 -17.375531 27.654129 -0.731446 2.250183 0.051588 -0.002150 445136.000000 0 0 1
-15.187135 15.539842 -17.481231 27.887797 -0.796876 2.248289 0.031519 0.004259 -81869.600000 0 0 1
-14.313335 15.496442 -18.734931 28.213630 -0.825066 2.297003 0.030422 -0.000044 500178.000000 0 0 1
-13.290735 14.471742 -18.608631 27.062079 -0.827912 2.329013 0.031111 -0.001321 161557.000000 0 0 1
-12.365835 14.563242 -19.652931 27.408751 -0.866818 2.370330 0.035471 -0.001421 193751.000000 0 0 1
-11.263735 13.477642 -19.590731 26.311886 -0.874642 2.410669 0.030042 -0.004804 507217.000000 0 0 1
-11.823935 12.233742 -20.051831 26.297259 -0.802431 2.437975 0.048121 -0.000661 931070.000000 0 0 1
-10.814235 11.193642 -20.063131 25.392411 -0.802636 2.481806 0.021073 0.010247 482026.000000 0 0 1
-11.273735 9.895242 -20.709631 25.571503 -0.720371 2.514729 0.028220 -0.001847 -164476.000000 0 0 1
-11.325335 10.096042 -22.136031 26.836489 -0.728075 2.540730 0.031752 -0.004160 52913.300000 0 0 1
-11.468335 8.913442 -22.870431 27.092966 -0.660697 2.575767 0.039843 0.008638 -30867.900000 0 0 1
-11.204435 9.017642 -24.426131 28.345954 -0.677678 2.609436 0.031772 0.001753 -552099.000000 0 0 1
-9.833635 9.074142 -24.724531 28.113038 -0.745251 2.645541 0.010757 0.005939 -425777.000000 0 0 1
-9.564035 8.605342 -26.030071 29.035965 -0.732683 2.682549 -0.006138 -0.001230 -379611.000000 0 0 1
-9.680735 9.754442 -27.119401 30.402758 -0.789191 2.672557 0.019416 -0.001904 -300251.000000 0 0 1
-8.544735 10.529242 -27.410611 30.581351 -0.889068 2.682191 0.007298 -0.007157 -134676.000000 0 0 1
-8.137835 11.428542 -26.372841 29.872440 -0.952021 2.652690 -0.001988 0.002670 971741.000000 0 0 1
-6.611235 11.848142 -26.436171 29.714610 -1.061834 2.667416 0.019165 -0.001753 1049490.000000 0 0 1
-6.169435 12.521942 -27.586681 30.917405 -1.113014 2.673145 0.015079 -0.013472 -139915.000000 0 0 1
-4.767335 12.657042 -27.537241 30.679437 -1.210576 2.685045 0.040539 -0.018630 -69984.200000 0 0 1
-4.157135 12.704542 -28.970601 31.905844 -1.254561 2.709289 0.044768 -0.016797 981080.000000 0 0 1
-2.727135 12.888042 -28.898451 31.759398 -1.362270 2.713883 0.066390 -0.025888 986946.000000 0 0 1
-2.142535 12.856142 -30.209601 32.901229 -1.405659 2.734285 0.067360 -0.028739 569827.000000 0 0 1
-0.623435 12.541842 -30.191971 32.699260 -1.521129 2.747441 0.088816 -0.040496 149821.000000 0 0 1
-0.225935 11.250042 -29.813341 31.866123 -1.550716 2.780697 0.070317 -0.023582 1367490.000000 0 0 1
1.207165 10.984842 -29.852481 31.832289 1.461342 2.787049 0.092440 -0.035329 1535720.000000 0 0 1
1.739565 10.435942 -31.181721 32.927720 1.405625 2.814482 0.099476 -0.044096 -433044.000000 0 0 1
1.712165 11.412442 -32.147441 34.156014 1.421881 2.796944 0.106175 -0.050624 189249.000000 0 0 1
1.775965 10.838442 -33.420041 35.178474 1.408382 2.824077 0.111930 -0.044497 -52956.900000 0 0 1
1.899465 11.858442 33.930918 35.993580 1.411967 0.340183 0.106015 -0.042225 -802612.000000 0 0 1
3.164865 12.405642 33.815856 36.158380 1.321009 0.361931 0.110215 -0.046537 -729155.000000 0 0 1
3.326965 13.042242 32.562522 35.234736 1.321031 0.391966 0.101694 -0.039887 -136909.000000 0 0 1
4.775665 13.307842 32.102822 35.078438 1.226249 0.414861 0.099897 -0.034643 -59754.900000 0 0 1
5.407265 12.070542 31.843492 34.481074 1.149630 0.393673 0.094320 -0.039433 -685020.000000 0 0 1
6.792065 12.210642 31.859532 34.788816 1.063174 0.413306 0.073333 -0.023723 -327502.000000 0 0 1
7.610665 10.943242 31.487372 34.192563 0.963119 0.400455 0.046078 -0.017955 159308.000000 0 0 1
7.451065 10.571942 30.129472 32.788251 0.956859 0.405486 0.050876 -0.020539 6620.480000 0 0 1
8.266065 9.464742 29.815972 32.355855 0.852900 0.398867 0.039169 -0.008427 27513.900000 0 0 1
7.704965 8.608742 28.634422 30.877290 0.840741 0.383497 0.034600 -0.013131 -483879.000000 0 0 1
6.541565 7.943542 29.007412 30.778595 0.881885 0.340900 0.045513 -0.022046 -594380.000000 0 0 1
6.099665 7.238842 27.862102 29.426238 0.870597 0.327512 0.056252 -0.027286 -129660.000000 0 0 1
5.374665 5.875442 28.115012 29.220913 0.829882 0.275998 0.059389 -0.032053 76439.400000 0 0 1
6.239165 4.863542 28.611912 29.685396 0.662127 0.269748 0.033869 -0.027025 33580.300000 0 0 1
5.804065 4.460242 29.838732 30.723458 0.655217 0.240565 0.033721 -0.029633 -245357.000000 0 0 1
6.515765 3.207242 30.296412 31.154681 0.457411 0.235270 0.054578 -0.019271 -16582.400000 0 0 1
6.106465 2.017042 29.661482 30.350632 0.319029 0.213508 0.030525 -0.016145 72085.300000 0 0 1
6.970265 1.708142 28.578792 29.466077 0.240325 0.246026 0.016134 -0.008700 55533.500000 0 0 1
6.930765 0.272542 28.014752 28.860633 0.039303 0.242707 0.004883 -0.004835 -79949.100000 0 0 1
7.256465 -0.763658 28.946502 29.851959 -0.104852 0.246926 0.006902 -0.001309 201578.000000 0 0 1
7.532765 -1.919958 28.210302 29.261748 -0.249567 0.268886 0.021022 -0.002858 -251743.000000 0 0 1
8.036865 -3.106958 29.087292 30.336693 -0.368891 0.287994 0.018846 0.009859 -211194.000000 0 0 1
9.361565 -3.004858 29.523732 31.117822 -0.310590 0.321468 0.017009 0.001048 -523487.000000 0 0 1
10.216365 -3.868258 28.835112 30.835065 -0.361952 0.362141 0.030034 0.002681 -321244.000000 0 0 1
11.694265 -3.858858 29.273522 31.758238 -0.318728 0.398197 0.020022 0.000147 182425.000000 0 0 1
12.525365 -4.755658 28.574362 31.559392 -0.362869 0.438439 0.038108 -0.004562 -47172.000000 0 0 1
13.011065 -5.850158 29.250772 32.544121 -0.422546 0.453764 0.053582 -0.006299 -267774.000000 0 0 1
12.255165 -7.161558 28.905122 32.202221 -0.528848 0.456473 0.058386 -0.006687 1281230.000000 0 0 1
10.840865 -7.181458 29.245542 32.006240 -0.585073 0.418388 0.046677 -0.000306 1054140.000000 0 0 1
10.340165 -8.485958 29.155142 32.077294 -0.687224 0.430151 0.053883 -0.004002 -19463.400000 0 0 1
8.836065 -8.461258 28.769012 31.262197 -0.763733 0.402080 0.044411 -0.002913 -137014.000000 0 0 1
8.191765 -7.826758 29.820302 31.900056 -0.762616 0.363089 0.052160 -0.006447 -1514940.000000 0 0 1
6.849765 -7.713258 29.533392 31.283140 -0.844622 0.336042 0.042270 0.003830 -829622.000000 0 0 1
5.989565 -6.945658 30.582042 31.927705 -0.859178 0.291364 0.032577 0.002941 71058.400000 0 0 1
5.786165 -7.684958 31.785252 33.209043 -0.925428 0.293883 0.036355 -0.001769 8302.180000 0 0 1
5.004865 -6.976058 32.717229 33.825007 -0.948465 0.256634 0.033263 -0.006272 -243379.000000 0 0 1
5.692065 -5.894958 33.544391 34.530802 -0.802907 0.239596 0.034229 0.001744 -240304.000000 0 0 1
5.894065 -4.754958 32.838606 33.700499 -0.678835 0.226649 0.042033 0.004406 -75126.000000 0 0 1
6.507665 -3.700258 33.580150 34.404478 -0.517011 0.219345 0.032612 0.005192 -246526.000000 0 0 1
6.625465 -2.368458 32.844362 33.589559 -0.343321 0.211035 0.023878 0.005011 -323064.000000 0 0 1
5.338265 -1.865658 32.593932 33.080843 -0.336218 0.171785 0.035875 -0.000432 -217276.000000 0 0 1
5.401865 -0.638458 31.921762 32.381888 -0.117646 0.168779 0.022991 -0.000323 -168939.000000 0 0 1
4.037365 -0.088658 31.471932 31.729965 -0.021956 0.127618 0.043147 -0.015867 416497.000000 0 0 1
3.160465 0.306842 32.564612 32.719056 0.096784 0.097201 0.044932 -0.012508 -525054.000000 0 0 1
2.105565 0.998742 32.028912 32.113581 0.442905 0.072632 0.053233 -0.013399 -563998.000000 0 0 1
1.054865 1.452342 33.100394 33.149029 0.942624 0.054176 0.067379 -0.015510 222065.000000 0 0 1
1.507065 2.479042 33.953054 34.076778 1.024572 0.085240 0.059440 -0.006186 39986.900000 0 0 1
0.719665 2.530042 -33.351651 33.455219 1.293668 3.062887 0.047841 -0.008971 -192215.000000 0 0 1
1.134765 3.559342 -32.293631 32.509002 1.262170 3.026421 0.049032 -0.002258 323902.000000 0 0 1
2.230765 3.157242 -31.457011 31.693659 0.955685 3.019314 0.029987 0.007079 577041.000000 0 0 1
2.776365 4.334142 -30.783901 31.211241 1.001072 2.975923 0.032374 -0.001041 -185192.000000 0 0 1
3.837265 3.876542 -29.782121 30.277499 0.790490 2.960452 0.029648 -0.002619 -544315.000000 0 0 1
3.414765 3.265842 -28.611611 28.999149 0.763110 2.977924 0.029641 -0.003261 -802182.000000 0 0 1
4.458465 2.986142 -27.760801 28.274671 0.590147 2.950650 0.041121 -0.009589 -818511.000000 0 0 1
4.068765 2.151842 -26.546361 26.942431 0.486475 2.969914 0.030996 -0.012257 -194599.000000 0 0 1
3.967765 0.759842 -26.675631 26.979804 0.189213 2.991291 0.034483 -0.013006 18768.400000 0 0 1
3.526065 0.229042 -25.462491 25.706498 0.064866 3.003701 0.039281 -0.014266 -567662.000000 0 0 1
3.817465 -1.269958 -25.307051 25.624845 -0.321154 2.983938 0.033598 -0.019305 279355.000000 0 0 1
5.220165 -1.420158 -25.170971 25.745772 -0.265624 2.929887 0.032208 -0.022642 96633.200000 0 0 1
5.550165 -2.821258 -25.150981 25.910146 -0.470281 2.898924 0.035213 -0.017570 160194.000000 0 0 1
6.865765 -3.176558 -24.387931 25.534299 -0.433337 2.840810 0.040379 -0.028515 252115.000000 0 0 1
7.937665 -2.766858 -25.154641 26.522029 -0.335403 2.819084 0.039065 -0.020675 -971581.000000 0 0 1
9.242965 -2.950358 -24.665931 26.505569 -0.308977 2.766829 0.025361 -0.022671 367561.000000 0 0 1
-29.389895 -4.253058 17.701232 34.571492 0.143714 1.033264 0.085710 -0.008441 234062.000000 0 0 1
-30.805565 -4.186158 17.762032 35.804979 0.135062 1.051721 0.076220 -0.005038 76088.300000 0 0 1
-31.270545 -5.233458 18.595132 36.756156 0.165824 1.040365 0.071099 -0.012558 -768874.000000 0 0 1
-32.685305 -5.052658 19.100632 38.192835 0.153371 1.047070 0.052601 -0.008945 -615978.000000 0 0 1
-33.647285 -5.221458 18.087132 38.555775 0.153954 1.082507 0.044205 -0.001124 -616447.000000 0 0 1
-34.950509 -5.178358 18.586032 39.922350 0.147092 1.086535 0.041598 -0.001830 -432263.000000 0 0 1
-35.998077 -4.961258 17.477532 40.322943 0.136957 1.122491 0.037252 -0.001875 934256.000000 0 0 1
34.799855 -5.154658 17.897932 39.470702 -0.147054 1.100166 0.029291 0.005966 641412.000000 0 0 1
33.934265 -4.963958 16.805232 38.191504 -0.145251 1.115169 0.019871 0.002506 -332939.000000 0 0 1
32.503275 -5.367858 17.169732 37.149380 -0.163671 1.090343 0.013424 0.010740 -358276.000000 0 0 1
31.856145 -4.559958 18.138832 36.940823 -0.142176 1.057531 0.017907 0.005012 -748429.000000 0 0 1
30.627525 -5.086258 18.455732 36.118269 -0.164566 1.034471 0.043634 -0.002578 -1063420.000000 0 0 1
30.001175 -4.469058 19.677732 36.155997 -0.147875 0.995307 0.045360 -0.002399 -333321.000000 0 0 1
29.184215 -3.314158 19.576932 35.298134 -0.113076 0.982894 0.059336 -0.002926 147529.000000 0 0 1
29.803385 -2.079858 19.210332 35.519071 -0.069673 0.999354 0.050388 -0.000733 -231625.000000 0 0 1
28.907135 -0.827258 19.429332 34.839715 -0.028610 0.979211 0.068368 0.001799 132539.000000 0 0 1
29.449775 0.437942 19.054732 35.079393 0.014870 0.996566 0.053457 -0.003152 -83688.500000 0 0 1
28.515035 1.429042 19.396332 34.516185 0.050074 0.974056 0.068655 -0.008957 137542.000000 0 0 1
28.863465 2.815042 18.801132 34.561635 0.097222 0.995613 0.054636 -0.010770 5976.160000 0 0 1
28.671735 2.852842 17.419932 33.669884 0.099174 1.027017 0.060557 -0.008042 7694.120000 0 0 1
28.736375 4.113342 16.823332 33.551800 0.142175 1.045564 0.058481 -0.007613 77508.300000 0 0 1
28.287915 4.002042 15.350432 32.432364 0.140543 1.077756 0.063686 -0.002062 -19697.400000 0 0 1
27.970735 5.227742 14.826132 32.085908 0.184769 1.090462 0.061074 -0.007880 177914.000000 0 0 1
27.353585 5.094342 13.542632 30.944689 0.184131 1.117824 0.068028 -0.004644 -26281.100000 0 0 1
26.880305 6.496642 13.029232 30.569888 0.237140 1.130496 0.067554 0.005718 622887.000000 0 0 1
25.745805 6.996142 13.775032 30.025722 0.265332 1.094181 0.051745 0.001080 816466.000000 0 0 1
25.267905 8.275542 13.290232 29.725105 0.316502 1.107271 0.064280 -0.015787 461817.000000 0 0 1
23.939705 8.602542 14.050232 29.060664 0.344973 1.066171 0.060077 -0.018249 747302.000000 0 0 1
22.691705 7.979042 13.797532 27.729956 0.338125 1.050004 0.064594 -0.012272 690351.000000 0 0 1
22.613605 6.567042 14.118232 27.455885 0.282628 1.030704 0.067405 -0.016090 15214.600000 0 0 1
21.182005 5.931042 13.942932 26.043424 0.273012 1.005848 0.070561 -0.010319 388426.000000 0 0 1
20.787705 5.892342 12.601032 25.012684 0.276208 1.042821 0.069979 -0.008831 390302.000000 0 0 1
19.872605 4.846042 12.376532 23.907804 0.239187 1.026662 0.065440 -0.007726 -413238.000000 0 1 0
19.614205 4.494442 10.928232 22.898543 0.225254 1.073279 0.075593 -0.006467 -424133.000000 0 1 0
20.631705 3.819342 10.242732 23.348837 0.183048 1.116664 0.080382 -0.013603 138459.000000 0 1 0
20.322005 3.592742 8.886332 22.469058 0.174983 1.164193 0.089882 -0.012541 -404119.000000 0 1 0
21.471005 3.001242 8.079332 23.136272 0.138881 1.214072 0.089349 -0.008751 -1166910.000000 0 1 0
21.732905 1.604242 8.388932 23.350951 0.073683 1.203327 0.089473 -0.014509 417010.000000 0 1 0
22.532505 0.888942 7.466032 23.753855 0.039431 1.251068 0.080506 -0.010643 393042.000000 0 1 0
24.064505 1.232642 7.583232 25.261140 0.051178 1.265901 0.079374 -0.002386 86694.300000 0 0 1
24.775905 0.760742 8.688832 26.266328 0.030695 1.233648 0.072878 0.007958 472604.000000 0 0 1
24.657505 1.624642 9.814532 26.588664 0.065793 1.192729 0.079544 0.004392 -297020.000000 0 0 1
25.505105 1.086542 11.006832 27.800023 0.042575 1.163717 0.067002 0.001145 650412.000000 0 0 1
26.925905 1.109442 10.882432 29.063078 0.041180 1.187002 0.082331 -0.000851 548302.000000 0 0 1
27.532665 0.500042 11.985032 30.032294 0.018160 1.160292 0.078838 -0.007089 -76774.300000 0 0 1
29.071705 0.598242 11.942232 31.434675 0.020575 1.181101 0.082243 -0.003928 -83927.700000 0 0 1
29.595885 1.846242 12.293932 32.100869 0.062301 1.177778 0.075144 0.007295 -411383.000000 0 0 1
30.995855 1.741842 12.245932 33.372741 0.056137 1.195074 0.071734 0.006096 -299742.000000 0 0 1
31.631675 2.997442 12.850632 34.273696 0.094479 1.186463 0.053864 0.004386 -673980.000000 0 0 1
31.524915 4.077542 11.963932 33.964426 0.128629 1.210823 0.057490 0.002449 198623.000000 0 0 1
32.402605 5.163142 12.206532 35.008374 0.158015 1.214640 0.043888 -0.006273 1639660.000000 0 0 1
33.884195 4.906042 11.661532 36.169037 0.143789 1.242514 0.051169 -0.007439 1375410.000000 0 0 1
34.704475 3.940742 12.347032 37.045637 0.113067 1.231003 0.051525 -0.006620 808610.000000 0 0 1
36.069745 4.027242 11.971332 38.217247 0.111191 1.252189 0.060840 -0.001562 34105.300000 0 0 1
-35.196342 3.092642 12.763732 37.566738 -0.087643 1.224133 0.071281 0.001837 -946472.000000 0 0 1
-35.145871 1.707842 12.397132 37.307343 -0.048555 1.232058 0.066677 -0.000714 336281.000000 0 0 1
35.879555 0.885642 12.584532 38.032844 0.024679 1.233554 0.067472 0.001502 126467.000000 0 0 1
35.276445 0.682442 13.988632 37.954909 0.019343 1.193338 0.054509 0.007861 -233209.000000 0 0 1
-35.997922 -0.049758 14.821032 38.929627 0.001382 1.180229 0.041128 0.005885 242812.000000 0 0 1
35.749675 -0.304258 16.155232 39.231662 -0.008511 1.146378 0.032294 0.004505 -15765.300000 0 0 1
-35.363468 -1.069358 17.016832 39.259279 0.030230 1.122482 0.025201 -0.001778 438141.000000 0 0 1
-34.301756 -0.273658 17.533832 38.524286 0.007978 1.098270 0.045045 0.003440 -130437.000000 0 0 1
-33.405875 -1.011558 18.321232 38.113558 0.030272 1.069342 0.040400 -0.004065 -109155.000000 0 0 1
-33.638365 -1.149258 19.861032 39.080954 0.034152 1.037700 0.039777 -0.002543 -271578.000000 0 0 1
-34.799562 -1.853258 20.229032 40.294638 0.053205 1.044854 0.032545 -0.014493 -150684.000000 0 0 1
-34.968928 -1.761158 21.643832 41.162885 0.050321 1.017130 0.032996 -0.010396 27978.500000 0 0 1
-35.220392 -3.035958 22.427032 41.864840 0.085986 1.005459 0.022666 -0.008676 4315.190000 0 0 1
-34.153039 -3.972758 22.342732 41.005006 0.115802 0.994553 0.042692 -0.013938 293064.000000 0 0 1
-34.485193 -5.240258 22.965932 41.762697 0.150803 0.988534 0.046480 -0.016714 -11607.800000 0 0 1
-34.503277 -5.250458 24.501092 42.642079 0.151014 0.958711 0.045813 -0.018649 -239404.000000 0 0 1
-33.324225 -4.880858 25.156812 42.037982 0.145432 0.929256 0.051902 -0.020663 -556511.000000 0 0 1
-33.542865 -4.699958 26.521802 43.018826 0.139212 0.906486 0.054916 -0.027157 421307.000000 0 0 1
-32.415525 -3.837258 27.181922 42.477614 0.117829 0.876413 0.050517 -0.023138 264558.000000 0 0 1
-32.400065 -2.454058 26.780052 42.106505 0.075598 0.881483 0.045419 -0.015759 -166205.000000 0 0 1
-31.736225 -2.108558 25.582572 40.817913 0.066343 0.893423 0.046441 -0.015493 -212781.000000 0 0 1
-31.687215 -0.541158 25.374542 40.598520 0.017076 0.895650 0.046403 -0.010588 207.900000 0 0 1
-32.968425 0.017242 25.199182 41.495977 -0.000523 0.918179 0.045144 -0.015765 -61772.000000 0 0 1
-32.852635 1.309742 24.658262 41.097943 -0.039846 0.927311 0.043042 -0.008404 -142589.000000 0 0 1
-34.208655 1.979042 24.375962 42.051590 -0.057788 0.952475 0.040890 -0.005757 -264972.000000 0 0 1
-34.890117 1.349442 23.295832 41.974243 -0.038658 0.982430 0.033010 0.001996 591680.000000 0 0 1
36.075645 2.004942 22.846232 42.748360 0.055519 1.006957 0.024603 0.010325 721659.000000 0 0 1
-35.904855 3.385942 22.199832 42.349212 -0.094025 1.019011 0.030891 0.004888 -935106.000000 0 0 1
-35.293733 3.389142 20.959232 41.187659 -0.095733 1.036923 0.037428 0.000188 -160796.000000 0 0 1
-36.012998 3.056642 19.755232 41.189177 -0.084673 1.070573 0.024012 0.003525 -91462.400000 0 0 1
-35.055766 2.477242 18.680832 39.799711 -0.070548 1.082218 0.042839 0.000368 -6633.190000 0 0 1
-34.254027 3.350542 17.944732 38.814661 -0.097504 1.090188 0.067282 -0.004019 -35215.500000 0 0 1
-33.594135 2.650042 16.871832 37.686169 -0.078721 1.106613 0.070073 0.002216 -91894.400000 0 0 1
-32.692315 3.447642 15.947632 36.537661 -0.105069 1.119124 0.076125 0.002974 393380.000000 0 0 1
-33.378815 4.623642 15.417632 37.057074 -0.137644 1.141698 0.071326 -0.001196 284346.000000 0 0 1
-32.487455 5.256442 14.537832 35.977958 -0.160409 1.154828 0.087551 -0.002793 -314233.000000 0 0 1
-32.919225 6.641042 14.017032 36.390328 -0.199066 1.175387 0.094456 -0.012134 -83434.100000 0 0 1
-31.969455 7.241242 13.172232 35.326893 -0.222746 1.188699 0.113367 -0.012136 -463602.000000 0 0 1
-32.404295 8.460442 12.797632 35.852431 -0.255389 1.205792 0.092619 -0.013465 -356099.000000 0 0 1
-31.516765 9.295142 11.847632 34.929537 -0.286796 1.224744 0.102592 -0.011725 -175096.000000 0 0 1
-31.845445 10.680942 11.872832 35.625539 -0.323609 1.231029 0.083649 -0.009329 86484.600000 0 0 1
-31.293495 11.451742 10.795532 35.028114 -0.350810 1.257500 0.080480 -0.020204 36756.800000 0 0 1
-31.485065 12.983642 10.907932 35.761254 -0.391128 1.260836 0.058831 -0.006741 460388.000000 0 0 1
-30.790185 13.543542 9.767232 35.026588 -0.414394 1.288198 0.064298 -0.006616 396477.000000 0 0 1
-30.933725 14.965342 9.759932 35.722725 -0.450594 1.294064 0.051459 -0.007484 -234676.000000 0 0 1
-30.106495 15.593142 8.642532 34.989148 -0.477891 1.321207 0.062409 -0.012943 -262951.000000 0 0 1
-28.737015 15.685042 8.977432 33.947472 -0.499623 1.303162 0.064084 -0.005363 -235297.000000 0 0 1
-28.065245 16.440042 8.014232 33.498670 -0.529898 1.329213 0.059175 -0.027706 -1206360.000000 0 0 1
-26.592195 16.529342 8.343132 32.403269 -0.556141 1.310385 0.071296 -0.023179 -1060450.000000 0 0 1
-26.350195 17.159642 9.629932 32.886497 -0.577229 1.273618 0.060017 -0.021320 255875.000000 0 0 1
-26.604105 18.545142 9.811632 33.881689 -0.608762 1.277003 0.061122 -0.031469 -354230.000000 0 0 1
-26.459275 18.955142 11.278532 34.447002 -0.621641 1.237228 0.076470 -0.021811 -470731.000000 0 0 1
-25.130605 18.832642 11.715332 33.518125 -0.643111 1.213735 0.060208 -0.009879 24337.100000 0 0 1
-24.976535 19.226942 13.116732 34.140171 -0.656053 1.176453 0.073481 -0.024202 -406133.000000 0 0 1
-25.614475 18.406542 14.217032 34.598065 -0.623100 1.147334 0.065639 -0.015892 -406585.000000 0 0 1
-24.964335 17.187742 14.460232 33.581763 -0.602961 1.125641 0.068242 -0.017276 249892.000000 0 0 1
-25.443535 16.519742 15.635132 34.128181 -0.575862 1.094906 0.067763 -0.013347 -231274.000000 0 0 1
-24.384335 15.516342 16.106832 33.087501 -0.566701 1.062379 0.072664 -0.011270 190894.000000 0 0 1
-23.247935 16.211842 16.686832 32.889826 -0.608942 1.038683 0.073625 -0.012501 871078.000000 0 0 1
-22.139335 15.344842 16.951132 31.826957 -0.606082 1.009123 0.053129 -0.027265 435586.000000 0 0 1
-22.410635 14.145642 17.943332 32.004670 -0.563047 0.975629 0.067954 -0.010057 -864318.000000 0 0 1
-22.656035 14.550342 19.279132 33.116360 -0.570892 0.949409 0.077873 -0.013258 102885.000000 0 0 1
-22.913135 13.401942 20.023232 33.249867 -0.529244 0.924536 0.069539 -0.011803 -579357.000000 0 0 1
-22.566535 13.557442 21.520132 34.002483 -0.540990 0.885505 0.073055 -0.016690 -36714.600000 0 0 1
-21.204735 13.614342 21.886332 33.376678 -0.570761 0.855638 0.070861 -0.014186 -52601.000000 0 0 1
-20.652535 14.908842 21.777432 33.512048 -0.625266 0.863424 0.073072 -0.003350 -867731.000000 0 0 1
-19.177835 14.949342 22.143832 32.888014 -0.662122 0.832120 0.079928 -0.014552 133581.000000 0 0 1
-18.171635 14.575042 21.194732 31.493759 -0.676006 0.832563 0.054230 -0.012058 468014.000000 0 0 1
-17.594835 15.645042 20.461732 31.193398 -0.726807 0.855338 0.046718 -0.018621 -841580.000000 0 0 1
-16.437735 15.101442 19.581532 29.693250 -0.743054 0.850695 0.050271 -0.010363 1169400.000000 0 0 1
-15.194535 14.730642 20.198732 29.254991 -0.769898 0.808703 0.043249 -0.002075 1000860.000000 0 0 1
-14.529435 15.722942 20.997532 29.986860 -0.824829 0.795085 0.033445 -0.004745 -1100410.000000 0 0 1
-13.375835 15.194842 21.830532 29.771939 -0.848979 0.747694 -0.000421 0.000328 -427681.000000 0 0 1
-12.230035 14.753442 21.130932 28.526376 -0.878644 0.736609 0.018385 -0.000476 159088.000000 0 0 1
-11.246935 14.206842 22.003832 28.504325 -0.901164 0.688898 0.007669 0.001514 584102.000000 0 0 1
-9.986935 13.651342 21.273232 27.178087 -0.939194 0.671748 0.012629 0.001768 -579854.000000 0 0 1
-9.388035 12.627742 22.097332 27.127240 -0.931503 0.618790 0.016264 -0.001122 618379.000000 0 0 1
-8.212235 11.974842 21.592532 26.020667 -0.969671 0.592007 0.025794 -0.004114 1607000.000000 0 0 1
-6.913735 12.899842 21.761832 26.225617 -1.078800 0.592060 0.028755 0.000313 174012.000000 0 0 1
-6.861235 13.889142 20.831832 25.960548 -1.111960 0.639420 0.016126 0.003318 -265508.000000 0 0 1
-6.187635 15.053142 21.231132 26.751540 -1.180798 0.654025 0.013045 0.011875 -171507.000000 0 0 1
-7.100835 15.947142 22.147332 28.199956 -1.151880 0.667507 0.017390 0.001138 665975.000000 0 0 1
-8.142135 16.632142 21.446932 28.335374 -1.115550 0.712246 -0.010643 0.001878 11852.000000 0 0 1
-7.715035 17.758242 20.675732 28.326010 -1.160950 0.752591 -0.004634 0.006893 -849519.000000 0 0 1
-8.719535 18.141142 19.544732 28.055800 -1.122748 0.800096 0.002331 0.010106 1275210.000000 0 0 1
-9.952935 18.806242 19.834032 29.088219 -1.084035 0.820497 -0.007040 0.003646 49621.600000 0 0 1
-10.914635 18.040442 20.469932 29.387156 -1.026702 0.800204 -0.007227 -0.000063 48040.500000 0 0 1
-12.311235 18.778242 20.656332 30.510211 -0.990486 0.827077 -0.004538 -0.007086 777296.000000 0 0 1
-12.943535 18.851442 19.413532 29.996620 -0.969116 0.866903 0.004937 -0.005905 -721998.000000 0 0 1
-14.128935 19.575842 19.579532 31.083733 -0.945619 0.889377 -0.000190 -0.012377 -397854.000000 0 0 1
-14.997835 19.478642 18.315632 30.656401 -0.914641 0.930480 0.023902 -0.002705 -505545.000000 0 0 1
-15.535335 18.229142 18.018032 29.971616 -0.865012 0.925832 0.040549 -0.005719 -373100.000000 0 0 1
-16.325135 18.428842 16.891032 29.856980 -0.845856 0.969476 0.049110 -0.014259 -869449.000000 0 0 1
-17.306735 17.285442 16.599932 29.561247 -0.784783 0.974546 0.048108 -0.018960 63913.000000 0 0 1
-18.366635 17.020642 17.476232 30.536114 -0.747380 0.961472 0.055021 -0.020535 594650.000000 0 0 1
-19.462435 17.975042 17.430032 31.712687 -0.745689 0.988883 0.064882 -0.020701 265606.000000 0 0 1
34.061155 -9.221758 11.453769 37.099756 -0.264403 1.256940 0.021166 -0.009925 -456019.000000 0 0 1
32.735075 -9.658858 11.449369 35.999537 -0.286920 1.247133 0.026370 -0.011432 -349680.000000 0 0 1
32.656885 -10.907458 12.138769 36.507457 -0.322352 1.231842 0.030666 -0.010024 -859950.000000 0 0 1
31.260915 -11.529558 12.118169 35.454555 -0.353339 1.221971 0.051725 -0.007002 -763917.000000 0 0 1
30.462115 -10.698058 12.979669 34.797423 -0.337737 1.188549 0.045528 -0.003741 -1152410.000000 0 0 1
29.160625 -11.098658 12.973969 33.791213 -0.363675 1.176731 0.053600 -0.013475 -1422990.000000 0 0 1
28.683635 -12.066258 14.059669 34.147031 -0.398195 1.146435 0.044291 -0.006627 -1169310.000000 0 0 1
28.761945 -11.575158 15.396869 34.616431 -0.382614 1.109862 0.052965 -0.008250 373694.000000 0 0 1
27.688765 -12.010658 16.210869 34.259537 -0.409279 1.077901 0.055846 -0.013111 -198500.000000 0 0 1
26.299805 -11.445758 15.936269 32.812341 -0.410481 1.063656 0.050568 -0.026812 -941143.000000 0 0 1
26.068905 -10.114858 16.374869 32.404235 -0.370123 1.041031 0.036351 -0.009072 -462727.000000 0 0 1
25.143105 -9.424058 15.602869 31.055403 -0.358610 1.044400 0.061299 -0.016414 -294814.000000 0 0 1
24.905505 -8.018858 16.093469 30.717845 -0.311490 1.019358 0.091223 -0.024622 589631.000000 0 0 1
26.077005 -7.177358 16.054669 31.452774 -0.268587 1.035103 0.072056 -0.017878 805077.000000 0 0 1
25.795805 -5.770658 16.352369 31.082535 -0.220082 1.016794 0.076415 -0.012315 345027.000000 0 0 1
27.060505 -4.901858 16.104069 31.869110 -0.179201 1.041045 0.074898 -0.010576 283832.000000 0 0 1
27.254625 -4.607858 14.771669 31.340854 -0.167483 1.080006 0.088084 -0.010627 640384.000000 0 0 1
28.540415 -4.018558 14.588269 32.303586 -0.139883 1.102240 0.078981 -0.006978 326965.000000 0 0 1
28.849785 -3.456558 13.184569 31.907534 -0.119244 1.144818 0.082135 -0.013332 -247464.000000 0 0 1
29.120155 -4.455758 12.209669 31.889076 -0.151835 1.177885 0.067398 -0.018638 381116.000000 0 0 1
29.152645 -3.904858 10.907769 31.370432 -0.133153 1.215670 0.073865 -0.021655 -95310.700000 0 0 1
29.790075 -4.792858 9.798469 31.724281 -0.159521 1.256799 0.076777 -0.015603 -232830.000000 0 0 1
31.188675 -4.877458 9.844969 33.067301 -0.155129 1.268487 0.076361 -0.018492 -45404.900000 0 0 1
31.726675 -5.639158 8.797469 33.403255 -0.175905 1.304281 0.080007 -0.025749 -130626.000000 0 0 1
33.182625 -6.116158 8.802869 34.870969 -0.182272 1.315594 0.064767 -0.027267 -313819.000000 0 0 1
34.193215 -5.152158 8.799069 35.681147 -0.149553 1.321623 0.078758 -0.026987 654072.000000 0 0 1
35.467615 -5.790358 8.531169 36.935901 -0.161830 1.337719 0.078283 -0.024890 699763.000000 0 0 1
-35.607911 -4.800658 8.170869 36.847425 0.134012 1.347189 0.078235 -0.028889 -276550.000000 0 0 1
-35.754258 -4.404658 6.804369 36.661525 0.122575 1.384114 0.089941 -0.033665 124914.000000 0 0 1
-34.638253 -3.598158 6.531969 35.431934 0.103507 1.385383 0.082687 -0.017338 -191906.000000 0 0 1
-34.613946 -2.997958 5.138569 35.121473 0.086396 1.423961 0.095719 -0.028024 -228275.000000 0 0 1
-34.272771 -3.843958 4.016669 34.720779 0.111691 1.454852 0.084637 -0.029733 210410.000000 0 0 1
-34.157451 -3.028858 2.853669 34.410011 0.088442 1.487770 0.086036 -0.025041 -237988.000000 0 0 1
-33.342645 -3.659558 1.724969 33.587198 0.109319 1.519416 0.093438 -0.031396 -168156.000000 0 0 1
-33.864725 -4.819558 1.091069 34.223357 0.141369 1.538910 0.096074 -0.026477 829438.000000 0 0 1
-35.069376 -4.619358 0.310069 35.373659 0.130967 1.562031 0.097496 -0.029222 447734.000000 0 0 1
-34.821980 -5.009358 -1.178731 35.200190 0.142876 1.604289 0.113542 -0.030157 -1938600.000000 0 0 1
-34.550588 -6.364458 -1.417831 35.160485 0.182165 1.611132 0.101818 -0.039363 397641.000000 0 0 1
-33.506215 -6.498758 -2.373231 34.213046 0.191578 1.640218 0.082631 -0.035857 558364.000000 0 0 1
-32.115515 -5.883658 -1.992931 32.710786 0.181194 1.631760 0.077018 -0.041219 -1412180.000000 0 0 1
-31.471825 -6.760258 -1.123831 32.209313 0.211588 1.605695 0.068745 -0.033280 -149722.000000 0 0 1
-30.298275 -6.184358 -0.564731 30.928153 0.201350 1.589057 0.075647 -0.039017 -73909.500000 0 0 1
-29.621435 -7.286158 0.238569 30.505318 0.241188 1.562976 0.060394 -0.032028 -484908.000000 0 0 1
-29.152425 -8.395958 -0.487031 30.341279 0.280413 1.586849 0.072325 -0.022031 395742.000000 0 0 1
-28.875015 -9.444458 0.378069 30.382679 0.316113 1.558352 0.072330 -0.019231 -332091.000000 0 0 1
-28.475005 -10.772758 -0.232131 30.445560 0.361681 1.578421 0.069418 -0.020509 -841182.000000 0 0 1
-27.274605 -10.625358 -0.929731 29.285947 0.371482 1.602548 0.070076 -0.021249 61279.800000 0 0 1
-26.674375 -11.873858 -1.323631 29.227774 0.418806 1.616099 0.054351 -0.013248 75137.500000 0 0 1
-27.484135 -12.853558 -2.234531 30.423424 0.437452 1.644310 0.050644 -0.013760 35186.800000 0 0 1
-28.593375 -13.530158 -1.631131 31.675019 0.441972 1.622315 0.056927 -0.021358 875187.000000 0 0 1
-29.010045 -14.603858 -2.514631 32.575738 0.466369 1.648067 0.046634 -0.023499 171867.000000 0 0 1
-29.981115 -15.601458 -1.821631 33.846581 0.479815 1.624643 0.059419 -0.025733 335880.000000 0 0 1
-29.277725 -16.241958 -0.770631 33.490002 0.506486 1.593809 0.031604 -0.013841 563172.000000 0 0 1
-30.121345 -17.089158 0.000869 34.631412 0.516061 1.570771 0.038735 -0.003645 -85539.700000 0 0 1
-30.080015 -18.531558 -0.467331 35.333332 0.552156 1.584023 0.037121 0.001352 654943.000000 0 0 1
-28.898625 -19.235558 -0.014031 34.715089 0.587279 1.571201 0.045283 -0.006863 981331.000000 0 0 1
-28.975965 -20.663758 -0.046331 35.589318 0.619487 1.572098 0.052901 -0.006867 -577419.000000 0 0 1
-29.877245 -21.257958 1.009969 36.682020 0.618409 1.543260 0.052241 -0.005366 -700153.000000 0 0 1
-29.381125 -21.390458 2.291669 36.415023 0.629294 1.507823 0.048507 -0.007553 80231.300000 0 0 1
-30.458985 -21.618358 3.213269 37.489042 0.617242 1.484979 0.047899 -0.005576 598767.000000 0 0 1
-29.945735 -21.989158 4.640169 37.440637 0.633377 1.446543 0.030758 -0.001932 -250388.000000 0 0 1
-29.143615 -20.966258 5.094269 36.261354 0.623635 1.429842 0.028148 -0.001791 -290586.000000 0 0 1
-28.800465 -21.032358 6.489669 36.248347 0.630759 1.390792 0.016545 -0.000527 126510.000000 0 0 1
-28.294775 -19.725358 7.076869 35.210312 0.608802 1.368429 0.021674 0.008286 -129914.000000 0 0 1
-27.791085 -19.881758 8.334469 35.172320 0.620987 1.331560 0.007341 0.000322 -530738.000000 0 0 1
-27.024165 -18.755958 8.702369 34.026793 0.606717 1.312172 0.025870 -0.005097 -113442.000000 0 0 1
-25.882155 -19.167058 9.633269 33.616393 0.637426 1.280157 0.026215 -0.001105 -615358.000000 0 0 1
-26.324755 -19.724458 10.822469 34.629074 0.643036 1.252946 0.023857 0.000194 -978521.000000 0 0 1
-25.392155 -20.046558 11.795069 34.434716 0.668292 1.221183 0.027968 -0.002929 -641153.000000 0 0 1
-25.019695 -18.844258 12.718269 33.805999 0.645531 1.185090 0.024402 -0.002578 37052.900000 0 0 1
-24.014135 -17.994658 12.137069 32.369659 0.643076 1.186451 0.020401 -0.001542 295252.000000 0 0 1
-23.667535 -16.884158 12.965569 31.832891 0.619655 1.151299 0.022264 -0.000604 403955.000000 0 0 1
-22.760835 -17.158658 14.205369 31.847569 0.645972 1.108458 0.031682 -0.001103 -413160.000000 0 0 1
-23.432335 -17.870358 15.258269 33.184918 0.651540 1.093032 0.036523 -0.000100 165519.000000 0 0 1
-22.693035 -17.954358 16.487369 33.304146 0.669342 1.052899 0.045063 0.001381 -681162.000000 0 0 1
-23.523735 -18.649158 17.545469 34.770687 0.670323 1.041872 0.041720 0.003560 -154818.000000 0 0 1
-24.554935 -17.851958 18.063469 35.325998 0.628632 1.034057 0.043259 0.010601 -488195.000000 0 0 1
-25.411385 -18.619358 18.861169 36.717335 0.632348 1.031321 0.033802 0.011569 -214656.000000 0 0 1
-26.452935 -17.701058 19.540569 37.348615 0.589722 1.020202 0.041206 0.010422 -155663.000000 0 0 1
-25.879625 -16.874058 20.532069 37.095211 0.577795 0.984240 0.055779 0.010331 -252133.000000 0 0 1
-26.657015 -15.772958 20.810069 37.315434 0.534294 0.979208 0.058606 -0.000952 -195993.000000 0 0 1
-26.076245 -15.004358 22.059969 37.306079 0.522137 0.938097 0.054665 0.000123 498497.000000 0 0 1
-24.873735 -14.338158 21.667769 35.969121 0.522914 0.924293 0.056714 -0.000762 195989.000000 0 0 1
-24.384135 -13.543758 22.714569 35.971809 0.507005 0.887368 0.050365 0.000875 -83235.900000 0 0 1
-23.122135 -12.775658 22.262269 34.546478 0.504783 0.870538 0.047362 0.006422 -73603.800000 0 0 1
-23.397535 -11.844858 21.235069 33.744236 0.468630 0.890151 0.060646 0.004266 124625.000000 0 0 1
-22.257535 -11.070558 20.981269 32.529506 0.461553 0.869784 0.058962 0.009192 -731566.000000 0 0 1
-22.126335 -9.775558 21.838569 32.589252 0.416019 0.836432 0.066729 0.002039 -47673.600000 0 0 1
-21.511235 -9.999158 23.105069 33.114356 0.435121 0.798565 0.058969 -0.005416 1365910.000000 0 0 1
-20.068335 -10.093058 23.010269 32.157120 0.465992 0.773374 0.034154 -0.001481 658124.000000 0 0 1
-19.455835 -10.023958 24.396169 32.774720 0.475746 0.731221 0.027751 0.002828 -96180.200000 0 0 1
-19.765635 -11.128758 25.178169 33.889080 0.512796 0.733317 0.030263 0.006197 -132039.000000 0 0 1
-18.919535 -11.198258 26.294069 34.274303 0.534434 0.696386 0.030555 0.005852 -809586.000000 0 0 1
-19.140335 -12.387258 27.246369 35.526908 0.574391 0.696765 0.035929 -0.011325 200299.000000 0 0 1
-20.389535 -12.579058 27.899169 36.774032 0.552780 0.709535 0.029036 -0.008829 -455805.000000 0 0 1
-21.391335 -13.099458 27.076869 36.909915 0.549467 0.747202 0.017809 -0.005151 -743931.000000 0 0 1
-22.665935 -13.234558 27.916569 38.317528 0.528494 0.754581 0.012766 -0.007628 -674537.000000 0 0 1
-22.817335 -14.430258 28.698969 39.401700 0.563921 0.754858 0.016279 -0.007591 -770598.000000 0 0 1
-21.932835 -14.619358 29.739569 39.739361 0.587923 0.725202 0.018889 -0.011222 -710843.000000 0 0 1
-22.336835 -15.723058 30.744469 41.126282 0.613343 0.726412 0.006213 -0.013528 -813317.000000 0 0 1
-22.023535 -17.058758 30.456769 41.275320 0.659041 0.740853 0.011103 -0.010698 -211723.000000 0 0 1
-22.232635 -17.925958 31.580569 42.578896 0.678565 0.735202 0.019657 -0.012049 218420.000000 0 0 1
-23.675435 -18.198458 32.120169 43.856759 0.655340 0.748974 0.035569 -0.015985 231917.000000 0 0 1
-24.149535 -17.132658 32.908869 44.268743 0.617034 0.732674 0.040769 -0.014634 -978638.000000 0 0 1
-25.454755 -17.448858 33.254869 45.368419 0.600918 0.748080 0.054261 -0.021411 -338256.000000 0 0 1
-26.307085 -16.418958 34.124569 46.109989 0.557971 0.737624 0.060754 -0.019846 366533.000000 0 0 1
-25.728715 -16.148658 -33.104894 44.929722 0.560503 2.399144 0.072846 -0.020460 -142638.000000 0 0 1
-26.358985 -15.060858 -32.370894 44.379053 0.519106 2.388268 0.066453 -0.021205 -251287.000000 0 0 1
-25.684545 -14.609558 -31.070894 42.878147 0.517168 2.381297 0.056312 -0.013547 -269630.000000 0 0 1
-25.967295 -15.522458 -30.020394 42.620079 0.538778 2.352334 0.062730 -0.003828 70682.700000 0 0 1
-25.542355 -15.123958 -28.730894 41.311140 0.534600 2.339878 0.064846 -0.001200 -397810.000000 0 0 1
-26.213295 -15.920258 -27.615794 41.270129 0.545796 2.303857 0.050131 0.001842 629060.000000 0 0 1
-27.523475 -15.499158 -27.198994 41.683940 0.512864 2.281682 0.051769 -0.001377 585431.000000 0 0 1
-27.625365 -14.284158 -26.448394 40.825427 0.477208 2.275543 0.033217 0.004907 -757859.000000 0 0 1
-26.893055 -14.039158 -25.079394 39.361280 0.481121 2.261603 0.044815 0.004886 55554.900000 0 0 1
-25.525195 -13.789658 -25.405594 38.563382 0.495317 2.290020 0.047515 -0.001709 265568.000000 0 0 1
-24.643235 -14.130458 -24.363394 37.423707 0.520632 2.279717 0.031652 -0.003602 51034.400000 0 0 1
-24.088135 -15.610658 -24.499194 37.737798 0.575013 2.277322 0.036694 0.004598 -583719.000000 0 0 1
-23.106835 -15.818058 -25.489994 37.866563 0.600289 2.309261 0.062464 0.006104 131256.000000 0 0 1
-22.678835 -17.171858 -25.468294 38.181622 0.648078 2.301012 0.066741 0.005449 -300060.000000 0 0 1
-21.722635 -17.458658 -26.641994 38.554811 0.676998 2.333690 0.068080 0.005851 -287793.000000 0 0 1
-22.177135 -17.483658 -27.984494 39.757207 0.667606 2.351648 0.074801 0.000805 91141.400000 0 0 1
-23.098935 -18.528958 -28.266994 40.937831 0.676054 2.332957 0.074655 -0.001229 97537.300000 0 0 1
-23.742435 -18.423158 -29.670694 42.231103 0.659909 2.349812 0.066357 -0.006245 96587.000000 0 0 1
-22.813435 -18.805058 -30.656494 42.589948 0.689382 2.374319 0.077976 -0.012657 264484.000000 0 0 1
-23.402535 -18.534858 -31.894794 43.686354 0.669845 2.389244 0.058305 -0.010139 -511410.000000 0 0 1
-22.616735 -18.891858 -33.162594 44.364137 0.695900 2.415100 0.056196 -0.016160 -297062.000000 0 0 1
-21.397535 -18.189758 -33.271794 43.540028 0.704544 2.440543 0.048199 -0.011818 670175.000000 0 0 1
-20.143135 -18.758158 -32.904994 42.899336 0.749811 2.444993 0.052458 -0.020654 697446.000000 0 0 1
-19.617035 -20.015658 -33.702394 43.832705 0.795456 2.447895 0.049750 -0.019596 -606302.000000 0 0 1
-19.309335 -19.709758 33.430569 43.346602 0.795660 0.690012 0.043301 -0.019568 76949.000000 0 0 1
-19.092435 -20.786358 32.585469 43.109239 0.827849 0.713797 0.039431 -0.023544 -728722.000000 0 0 1
-20.339435 -21.508158 32.090669 43.658957 0.813319 0.745085 0.038222 -0.022367 -710400.000000 0 0 1
-21.102435 -22.111458 33.126669 45.073335 0.808743 0.745203 0.044098 -0.022814 16886.900000 0 0 1
-22.328735 -22.639358 32.647569 45.573859 0.792306 0.772216 0.055130 -0.013165 1762.330000 0 0 1
-22.286435 -23.864958 31.622869 45.455772 0.819588 0.801424 0.050666 -0.000801 -879329.000000 0 0 1
-21.894835 -25.069798 32.273269 46.362080 0.852899 0.800827 0.053517 0.006090 4825.020000 0 0 1
-21.849135 -26.247128 31.503969 46.462850 0.876586 0.825695 0.062036 0.014196 -419395.000000 0 0 1
-21.292135 -27.392018 32.320069 47.415867 0.910044 0.820809 0.057974 0.005018 -152022.000000 0 0 1
-22.209635 -27.981048 33.256169 48.807578 0.899885 0.821159 0.052271 -0.003227 22551.000000 0 0 1
-21.704335 -28.991928 34.121569 49.758331 0.928170 0.815168 0.051542 -0.015574 -699691.000000 0 0 1
-22.790335 -29.658168 -33.461294 50.186298 0.915602 2.300625 0.052996 -0.019405 105237.000000 0 0 1
-23.671735 -30.452748 34.201569 51.550637 0.910034 0.845368 0.045590 -0.009234 794245.000000 0 0 1
-24.807335 -29.783928 33.641769 51.324992 0.876308 0.855997 0.042256 -0.007584 490526.000000 0 0 1
-26.050205 -29.554138 -33.908094 51.979025 0.848330 2.281467 0.028628 -0.009071 -134852.000000 0 0 1
-26.900345 -28.519928 34.153269 51.994813 0.814613 0.854151 0.033330 -0.000804 515200.000000 0 0 1
-28.047735 -28.445858 -33.464194 52.112326 0.792445 2.268103 0.025876 0.008810 -41229.700000 0 0 1
-29.064665 -27.378028 -33.735394 52.272249 0.755525 2.272315 0.015613 -0.002964 -396276.000000 0 0 1
-29.708325 -27.723248 33.510869 52.670118 0.750848 0.881181 0.012851 -0.001364 -73770.700000 0 0 1
-30.621545 -26.767938 33.017869 52.386842 0.718350 0.888895 0.000073 -0.002466 -98277.800000 0 0 1
