# x y z rho theta phi s1 s2 stress_xx np intf bulk
-0.706534 -10.767598 -14.430227 18.018652 1.505274 2.499509 -0.009900 0.007407 335092.000000 1 0 0
2.242966 -13.350498 -13.053127 18.805607 -1.404345 2.337977 0.003964 0.010094 -351037.000000 1 0 0
2.163866 -11.132498 -14.742627 18.599997 -1.378816 2.485881 -0.005705 0.005576 -22504.300000 1 0 0
-5.386534 -6.353198 -16.731027 18.689707 0.867554 2.679676 0.012604 0.007327 -2891790.000000 1 0 0
4.559566 -14.135998 -11.333527 18.683280 -1.258782 2.222590 -0.002349 0.007691 2638030.000000 1 0 0
14.142166 -10.601498 -7.933427 19.373485 -0.643269 1.992701 0.053262 -0.012840 115712.000000 1 0 0
7.088966 10.843002 -10.820427 16.879152 0.991767 2.266666 0.016113 -0.008368 124456.000000 1 0 0
5.706966 -4.235398 -12.501627 14.380499 -0.638455 2.624673 0.003846 -0.004276 1475160.000000 1 0 0
13.769566 0.503002 -9.977627 17.011967 0.036514 2.197535 0.025929 -0.008983 1386120.000000 1 0 0
14.196566 5.150702 -10.394027 18.333249 0.348044 2.173594 0.010977 -0.000416 -677066.000000 1 0 0
4.075866 4.377202 -13.468527 14.736818 0.821031 2.723678 0.014844 0.005068 2278860.000000 1 0 0
10.289666 -5.013098 -13.528627 17.720952 -0.453353 2.439396 0.026021 -0.013634 -871940.000000 1 0 0
2.577866 -7.627998 -11.975227 14.430448 -1.244898 2.549650 -0.002005 -0.000145 1659670.000000 1 0 0
-5.595434 -2.000998 -15.119127 16.245026 0.343441 2.767098 0.008371 -0.002196 1527180.000000 1 0 0
10.771366 0.024802 -9.627227 14.446676 0.002303 2.300163 0.015831 -0.006050 3060180.000000 1 0 0
-1.574434 -9.559798 -16.914527 19.492815 1.407568 2.621416 -0.002256 0.002491 521404.000000 1 0 0
8.755766 1.647602 -17.955627 20.044515 0.185998 2.680996 0.029463 0.005096 -830227.000000 1 0 0
16.529466 -5.934398 -8.712527 19.604808 -0.344687 2.031309 0.055825 -0.006738 -29963.900000 1 0 0
10.132666 7.610302 -9.873627 16.064748 0.644183 2.232694 0.011408 -0.002106 628768.000000 1 0 0
13.937466 -2.287298 -10.615827 17.668630 -0.162662 2.215334 0.046305 -0.010014 -1527420.000000 1 0 0
7.160766 -1.929898 -13.546527 15.443752 -0.263255 2.640697 0.015856 -0.006581 -867456.000000 1 0 0
-2.803834 6.661702 -13.723627 15.510567 -1.172413 2.656844 0.005749 -0.002466 216127.000000 1 0 0
11.321366 1.771302 -13.909327 18.021660 0.155198 2.452482 0.015158 -0.002117 1289010.000000 1 0 0
-2.309034 10.740902 -12.849627 16.905961 -1.359043 2.434209 0.009811 0.000591 -1520090.000000 1 0 0
2.885266 -1.026298 -15.194927 15.500447 -0.341747 2.942718 0.013309 -0.001506 -194844.000000 1 0 0
-9.028534 0.618602 -15.337427 17.808250 -0.068409 2.608529 0.016528 0.003376 -1329910.000000 1 0 0
2.328666 -1.779598 -17.983527 18.220783 -0.652536 2.980041 0.020285 -0.010337 2103020.000000 1 0 0
1.049466 7.871802 -13.222027 15.423639 1.438258 2.600715 0.011910 -0.000892 -925191.000000 1 0 0
9.391166 -9.038998 -9.794927 16.304542 -0.766292 2.215233 0.023813 -0.005194 403830.000000 1 0 0
3.968566 7.367702 -13.549927 15.925862 1.076714 2.588327 0.013363 0.000604 1937480.000000 1 0 0
-2.761434 9.149602 -15.450427 18.167455 -1.277681 2.587628 0.009444 0.003492 1090540.000000 1 0 0
5.537266 -7.632498 -15.213027 17.898395 -0.943170 2.586717 0.003619 -0.002641 -82977.500000 1 0 0
4.315666 7.418902 -16.482527 18.583293 1.043932 2.661504 0.023121 0.010798 -1119210.000000 1 0 0
-0.246934 5.085302 -13.509627 14.437150 -1.522276 2.781189 0.012241 -0.003596 1843750.000000 1 0 0
8.895166 4.195302 -16.608527 19.302014 0.440702 2.606960 0.024210 0.008128 -474959.000000 1 0 0
5.402566 0.332002 -14.269227 15.261350 0.061375 2.779031 0.009361 0.005457 1346610.000000 1 0 0
6.300666 7.943902 -11.540327 15.361742 0.900249 2.420732 0.007365 -0.004221 -539333.000000 1 0 0
2.736566 -8.313198 -15.046827 17.407041 -1.252785 2.614773 -0.005761 0.000308 774860.000000 1 0 0
4.100966 11.353202 -13.804427 18.337811 1.224164 2.423079 0.018624 -0.012117 -1182590.000000 1 0 0
0.567766 -4.475698 -13.663927 14.389480 -1.444615 2.822682 0.004822 -0.000148 1726040.000000 1 0 0
8.515966 -0.094198 -11.563027 14.360855 -0.011061 2.506770 0.007333 -0.004347 -26830.400000 1 0 0
-0.903534 -5.097098 -16.213327 17.019658 1.395354 2.832545 -0.001081 -0.005165 -118846.000000 1 0 0
4.436666 0.901502 -11.697227 12.542800 0.200464 2.772306 0.009115 -0.001105 1086180.000000 1 0 0
-2.835334 -7.219798 -15.652827 17.469276 1.196585 2.681520 0.000660 0.003676 733560.000000 1 0 0
11.424566 -3.771198 -11.344127 16.535776 -0.318834 2.326822 0.027553 -0.011142 544308.000000 1 0 0
6.466366 -7.084398 -12.453927 15.719507 -0.830975 2.485299 0.005363 -0.001382 -1821510.000000 1 0 0
3.418566 -3.941498 -14.559927 15.466528 -0.856329 2.797503 0.007726 -0.005828 3104970.000000 1 0 0
-0.568234 -1.503698 -18.264627 18.335229 1.209494 3.053808 0.014688 -0.014028 1438160.000000 1 0 0
14.920266 2.998102 -8.499527 17.431148 0.198301 2.080142 0.010093 -0.000771 -927545.000000 1 0 0
6.999166 4.304302 -14.301927 16.494256 0.551357 2.620118 0.013394 0.005456 3976370.000000 1 0 0
10.152766 -9.525098 -13.978727 19.728431 -0.753512 2.358248 0.044393 -0.013901 8700.570000 1 0 0
8.940866 -3.195298 -15.412827 18.102604 -0.343235 2.589473 0.029444 -0.022124 92820.800000 1 0 0
-5.150734 -2.218198 -18.069527 18.919785 0.406652 2.840658 0.003556 0.005205 -526575.000000 1 0 0
5.002166 -9.144898 -11.074327 15.208273 -1.070267 2.386456 -0.006968 0.001977 733850.000000 1 0 0
-2.469934 3.923702 -17.161227 17.776494 -1.008974 2.877726 0.006847 -0.002674 1351060.000000 1 0 0
9.625266 9.306902 -14.488027 19.727319 0.768584 2.395600 0.035062 -0.007507 -940959.000000 1 0 0
9.865866 10.077602 -11.541327 18.223491 0.796015 2.256634 0.018369 -0.007136 -1026540.000000 1 0 0
12.062866 -5.901198 -9.647327 16.535048 -0.454973 2.193763 0.038177 -0.012434 689501.000000 1 0 0
8.151766 6.962002 -13.600027 17.317087 0.706840 2.474063 0.012340 0.001839 780057.000000 1 0 0
3.996466 -4.172898 -17.481627 18.411739 -0.806992 2.822380 0.021205 -0.015202 -413982.000000 1 0 0
9.302266 -7.420098 -12.255327 17.081659 -0.673316 2.370939 0.031209 -0.011893 257653.000000 1 0 0
12.023766 -8.681198 -8.779727 17.234204 -0.625341 2.105326 0.043072 -0.009277 1287970.000000 1 0 0
-2.934834 -2.507298 -13.794527 14.324412 0.706999 2.868748 0.005383 -0.001658 -1911500.000000 1 0 0
-0.371334 6.061502 -17.615027 18.632468 -1.509612 2.809598 0.025306 -0.002852 2908420.000000 1 0 0
1.080166 -8.424498 -17.468627 19.424003 -1.443275 2.689036 -0.002264 -0.002986 -655118.000000 1 0 0
-0.020134 8.534902 -16.015527 18.147784 -1.568437 2.651961 0.014967 0.003249 -745386.000000 1 0 0
1.818566 3.427502 -14.960427 15.455398 1.082984 2.887828 0.019964 0.001044 1666400.000000 1 0 0
-1.994734 -0.463598 -15.772527 15.904921 0.228357 3.012475 0.009855 -0.006711 2141650.000000 1 0 0
14.151566 -4.264998 -8.515227 17.057730 -0.292722 2.093472 0.039033 -0.004770 1630820.000000 1 0 0
0.549666 0.677902 -14.576527 14.602631 0.889483 3.081791 0.009744 -0.002854 1920040.000000 1 0 0
8.868266 2.799002 -12.559727 15.627774 0.305725 2.504250 0.010347 0.003271 522056.000000 1 0 0
6.103266 0.956302 -17.027427 18.113466 0.155423 2.793551 0.025477 0.007463 946675.000000 1 0 0
15.452166 1.599902 -12.229127 19.770703 0.103171 2.237690 0.033030 -0.014089 73201.800000 1 0 0
8.839966 -11.166898 -11.854927 18.530621 -0.901185 2.264967 0.022529 -0.005784 1261250.000000 1 0 0
-4.690134 0.754102 -14.979927 15.715096 -0.159420 2.834508 0.008101 -0.004467 832484.000000 1 0 0
2.443166 5.231202 -17.270227 18.209758 1.133865 2.818964 0.028768 -0.000405 793217.000000 1 0 0
5.982866 -11.714698 -12.305927 18.012904 -1.098614 2.322895 0.002277 0.001521 936122.000000 1 0 0
12.859666 7.197902 -8.594427 17.060041 0.510280 2.098760 0.007741 -0.001934 1913940.000000 1 0 0
-5.025334 3.646802 -15.651427 16.838062 -0.627756 2.763924 0.005616 -0.006037 693852.000000 1 0 0
-0.474634 -4.351798 -18.994627 19.492545 1.462160 2.915082 0.007407 -0.011058 -910535.000000 1 0 0
9.839066 4.480102 -10.270527 14.911817 0.427284 2.330561 0.005843 0.001320 675458.000000 1 0 0
13.385866 3.609402 -12.763027 18.844205 0.263379 2.314872 0.015724 -0.006477 1017350.000000 1 0 0
-6.180034 5.825602 -17.099127 19.092161 -0.755885 2.680597 0.003907 0.003044 -1606330.000000 1 0 0
-10.124834 3.320102 -15.430027 18.751562 -0.316868 2.537233 0.012364 0.000440 -2096510.000000 1 0 0
10.613366 13.521202 -8.291327 19.084354 0.905304 2.020231 0.033021 -0.013846 -878413.000000 1 0 0
7.363566 13.383502 -12.330927 19.631403 1.067802 2.249934 0.031750 -0.015208 -673885.000000 1 0 0
5.202866 15.177102 -11.323527 19.637630 1.240541 2.185387 0.024148 -0.010344 -16802.500000 1 0 0
14.160966 9.608102 -9.807827 19.724149 0.596145 2.091222 0.040097 -0.013378 -1763560.000000 1 0 0
8.296366 -17.329398 -1.980127 19.314726 -1.124297 1.673496 0.030776 -0.001696 -491060.000000 1 0 0
0.731766 -15.856698 -0.055927 15.873673 -1.524680 1.574320 0.006013 -0.008178 1077960.000000 1 0 0
-9.230234 -11.737798 7.647273 16.776588 0.904423 1.097492 0.019347 -0.009959 -203861.000000 1 0 0
2.101866 -15.900798 -2.671727 16.260116 -1.439372 1.735857 0.010686 -0.004985 2441640.000000 1 0 0
-1.304034 -11.002998 -9.532427 14.616212 1.452830 2.281255 -0.002090 0.001130 1370480.000000 1 0 0
-4.600134 -12.660398 -13.056327 18.759387 1.222280 2.340593 0.009055 0.002117 687814.000000 1 0 0
-8.285134 -17.827198 -1.591127 19.722681 1.135747 1.651559 0.021728 -0.011784 -2123890.000000 1 0 0
-11.408334 -7.054398 -8.955027 16.127837 0.553807 2.159463 0.018340 -0.008779 1521100.000000 1 0 0
-13.563334 -11.572698 -4.669427 18.430814 0.706369 1.826937 0.012409 -0.011400 -446618.000000 1 0 0
-5.841934 -13.376898 9.816673 17.590812 1.159042 0.978754 0.015202 -0.010086 906362.000000 1 0 0
0.137866 -14.013098 -3.701627 14.494412 -1.560958 1.829040 0.004982 -0.001392 584278.000000 1 0 0
-14.798334 -11.655298 1.991473 18.942086 0.667140 1.465467 0.012878 -0.002060 -1035180.000000 1 0 0
-3.984534 -16.479098 -7.608127 18.582809 1.333557 1.992612 0.007423 -0.001367 432736.000000 1 0 0
0.533866 -15.244798 -9.307927 17.869706 -1.535791 2.118675 0.011852 0.005190 38923.500000 1 0 0
4.593966 -14.201598 -2.681027 15.165020 -1.257938 1.748521 0.006395 0.000138 -1009400.000000 1 0 0
-3.589634 -18.080198 -2.457527 18.596195 1.374805 1.703336 -0.001520 -0.009185 1383740.000000 1 0 0
-0.896534 -13.421498 0.647673 13.466992 1.504097 1.522684 0.008444 -0.002151 2299660.000000 1 0 0
-8.339034 -11.168398 -10.681427 17.560339 0.929434 2.224676 0.005369 -0.004016 1373920.000000 1 0 0
-3.651934 -14.133498 -0.430927 14.604044 1.317938 1.600308 0.003963 -0.002370 3796890.000000 1 0 0
-1.578934 -14.863198 -7.378727 16.668933 1.464962 2.029363 0.000783 0.002438 -81912.100000 1 0 0
-14.263134 -7.894598 -1.964427 16.420129 0.505524 1.690719 0.006529 -0.007639 1007790.000000 1 0 0
-10.784634 -7.231998 -11.731027 17.499346 0.590709 2.305503 0.025070 -0.004980 -534342.000000 1 0 0
-9.509334 -14.757898 6.954473 18.883529 0.998399 1.193635 0.012264 -0.000080 1345720.000000 1 0 0
-2.288634 -14.298098 -12.340227 19.025106 1.412077 2.276577 0.020618 0.000581 1175250.000000 1 0 0
2.333266 -17.849798 -4.814627 18.634379 -1.440817 1.832134 0.015863 -0.004313 769859.000000 1 0 0
-6.441434 -9.643298 -9.202627 14.804514 0.981892 2.241592 0.006735 -0.006108 -867515.000000 1 0 0
-10.855234 -15.251298 0.461673 18.725687 0.952223 1.546139 0.012231 -0.012553 860026.000000 1 0 0
-12.701334 -10.997098 3.957373 17.260384 0.713608 1.339464 0.019424 -0.005653 1583740.000000 1 0 0
-17.032134 -8.930398 -1.743427 19.310234 0.482919 1.661205 0.005067 -0.008069 -106364.000000 1 0 0
-1.411634 -19.155198 -4.007227 19.620709 1.497235 1.776478 0.014016 -0.009132 -27960.600000 1 0 0
3.192966 -14.239098 -8.658027 16.967864 -1.350206 2.106284 0.000298 0.009301 209549.000000 1 0 0
-4.340434 -8.017098 -13.165727 16.014044 1.074582 2.535950 0.006061 0.003683 160711.000000 1 0 0
5.484466 -16.662898 1.228373 17.585234 -1.252822 1.500887 0.022857 -0.003676 4396210.000000 1 0 0
-2.836434 -13.803998 -3.306127 14.475020 1.368138 1.801233 0.001757 -0.002340 -1530040.000000 1 0 0
-0.325634 -13.992798 3.658873 14.466921 1.547529 1.315106 0.010900 -0.004255 -3985310.000000 1 0 0
1.239366 -16.165998 7.097873 17.699021 -1.494281 1.158153 0.028692 -0.007600 2944350.000000 1 0 0
-5.469534 -10.377398 -14.693627 18.801832 1.085734 2.467862 0.012436 0.002358 604206.000000 1 0 0
-0.343134 -17.272998 -6.014727 18.293473 1.550934 1.905819 0.012759 -0.002839 1432650.000000 1 0 0
-6.457534 -13.333698 -1.321227 14.873900 1.119786 1.659742 0.005206 -0.003485 2864900.000000 1 0 0
-1.679734 -17.615298 -0.220327 17.696576 1.475727 1.583247 0.003028 -0.009169 1917770.000000 1 0 0
-9.415834 -9.732198 -4.917027 14.406622 0.801919 1.919099 0.014617 -0.008447 1611690.000000 1 0 0
-0.826934 -16.657098 4.856273 17.370266 1.521193 1.287446 0.022241 -0.009937 1941200.000000 1 0 0
-6.661034 -9.870398 -6.313127 13.477749 0.977150 2.058288 0.012895 -0.007991 2478960.000000 1 0 0
-6.050834 -14.526898 -8.680827 17.972204 1.176125 2.074890 0.006111 -0.002067 24201.400000 1 0 0
-5.612334 -12.166898 -10.379527 16.948932 1.138603 2.229889 0.002793 -0.003429 483870.000000 1 0 0
-10.492734 -12.141698 -8.985327 18.391694 0.858122 2.081228 0.007083 -0.015970 -526880.000000 1 0 0
3.958466 -17.241998 6.588273 18.877534 -1.345124 1.214292 0.028394 -0.002592 359957.000000 1 0 0
-6.624234 -14.324898 -4.184827 16.327767 1.137656 1.829990 0.006894 -0.006827 -1420120.000000 1 0 0
-2.726534 -12.173298 -7.115227 14.361394 1.350456 2.089139 0.003490 -0.001980 4190270.000000 1 0 0
-7.166034 -12.785398 4.502173 15.332580 1.059938 1.272770 0.009801 -0.004019 1146990.000000 1 0 0
2.513966 -16.503898 2.306473 16.852849 -1.419633 1.433506 0.017149 -0.006161 1571210.000000 1 0 0
-6.287234 -11.951998 7.317473 15.359849 1.086534 1.074238 0.007225 -0.004615 1421570.000000 1 0 0
-11.295934 -12.764998 -0.979027 17.073424 0.846378 1.628170 0.016130 -0.008660 1157350.000000 1 0 0
-14.328934 -8.647298 4.558673 17.345766 0.542978 1.304861 0.014473 -0.004268 288293.000000 1 0 0
-7.975834 -15.551898 4.545173 18.059182 1.096919 1.316378 0.011934 0.000410 129131.000000 1 0 0
-16.516934 -9.270298 1.087273 18.971813 0.511447 1.513455 -0.000040 -0.004699 -663143.000000 1 0 0
-6.567434 -17.027198 2.418373 18.409378 1.202676 1.439049 0.009864 -0.001603 2380500.000000 1 0 0
-11.524234 -14.934098 -4.648027 19.427800 0.913568 1.812386 0.023559 -0.010186 -542301.000000 1 0 0
-9.923634 -9.814298 -12.775027 18.920895 0.779859 2.312006 0.002274 0.003680 -201719.000000 1 0 0
-4.327934 -16.027598 -4.611727 17.230292 1.307056 1.841752 -0.000151 -0.005211 -1557580.000000 1 0 0
-11.882934 -8.264898 -0.090127 14.474833 0.607717 1.577023 0.003506 -0.002866 1815200.000000 1 0 0
-9.657434 -11.183298 3.495273 15.183844 0.858483 1.338516 0.007334 -0.002606 1506370.000000 1 0 0
-14.224634 -12.987298 -0.521427 19.268679 0.739959 1.597861 0.016990 -0.009391 491862.000000 1 0 0
5.598066 -14.798798 -7.120627 17.350681 -1.209155 1.993683 0.007169 -0.000823 1305640.000000 1 0 0
-7.481734 -10.510998 -1.312627 12.968439 0.952194 1.672187 0.005401 -0.002489 1286060.000000 1 0 0
-11.639434 -8.257998 -6.144027 15.537697 0.617063 1.977329 0.013906 -0.011161 2481590.000000 1 0 0
-14.437334 -6.681898 -9.267727 18.411277 0.433464 2.098294 0.031046 -0.015758 2741440.000000 1 0 0
-3.817434 -16.435998 1.439973 16.934827 1.342582 1.485663 0.002771 -0.007527 452602.000000 1 0 0
-7.877534 -15.460698 0.208673 17.353163 1.099562 1.558771 0.017346 -0.006854 -85063.700000 1 0 0
1.023966 -18.600298 3.866273 19.025448 -1.515801 1.366155 0.019321 -0.010882 -760787.000000 1 0 0
-14.076434 -8.758298 -4.647327 17.217765 0.556580 1.844101 0.007443 -0.015145 -362267.000000 1 0 0
-3.354234 -14.483898 11.134473 18.574463 1.343224 0.927982 0.006373 -0.010986 1453260.000000 1 0 0
-10.820234 -12.098398 -3.787127 16.667064 0.841110 1.800021 0.014205 -0.011464 544398.000000 1 0 0
-10.008134 -10.606498 0.529273 14.592487 0.814416 1.534518 0.007637 -0.001286 1700220.000000 1 0 0
0.115166 -13.079298 -11.146427 17.184998 -1.561991 2.276558 0.011606 0.001091 824574.000000 1 0 0
-5.825434 -12.690898 -6.371127 15.348806 1.140463 1.998837 0.003437 -0.006485 2557950.000000 1 0 0
1.682566 -15.927998 9.922273 18.841010 -1.465551 1.016163 0.029874 -0.008633 373501.000000 1 0 0
-8.938534 -15.588798 -5.590027 18.819044 1.050169 1.872389 0.024692 -0.010029 -326055.000000 1 0 0
-3.273034 -15.479798 5.898073 16.885620 1.362426 1.213977 0.007804 -0.002987 -1749560.000000 1 0 0
-17.474634 -5.526498 -6.660627 19.500486 0.306305 1.919375 0.022744 -0.012029 -1468090.000000 1 0 0
18.906466 5.679602 -2.890827 19.951672 0.291829 1.716200 0.019247 0.010887 -336580.000000 1 0 0
12.999866 -12.489998 -5.931627 18.978430 -0.765398 1.888668 0.050051 -0.002722 -338062.000000 1 0 0
11.108266 -13.553398 -1.604527 17.597236 -0.884222 1.662104 0.034249 -0.001333 1093880.000000 1 0 0
18.418766 -3.103198 4.942173 19.321125 -0.166913 1.312130 0.029313 -0.010772 -257528.000000 1 0 0
8.783266 -16.957098 4.941773 19.725873 -1.092876 1.317577 0.032077 -0.015126 -1071160.000000 1 0 0
17.948266 -1.004498 6.765073 19.207173 -0.055908 1.210859 0.045749 -0.015394 -2174090.000000 1 0 0
18.133466 -4.158198 -4.818527 19.217997 -0.225414 1.824231 0.057598 -0.012702 -313576.000000 1 0 0
5.525266 -11.744498 14.652473 19.574390 -1.131062 0.724919 0.022612 -0.005115 294278.000000 1 0 0
16.002366 -8.952198 -0.728327 18.350696 -0.510054 1.610496 0.021112 -0.001165 -265977.000000 1 0 0
13.933266 -12.650698 -1.424927 18.873434 -0.737190 1.646367 0.027435 0.008389 638010.000000 1 0 0
11.075066 -2.118798 13.975273 17.957022 -0.189028 0.678903 0.019167 -0.001037 887445.000000 1 0 0
17.014666 -6.179298 -1.347627 18.152099 -0.348363 1.645106 0.030806 -0.003183 74240.100000 1 0 0
17.877766 3.667602 -0.952527 18.274932 0.202341 1.622942 0.022004 0.010287 1406930.000000 1 0 0
9.785466 -11.207398 9.597673 17.705266 -0.853029 0.997886 0.016218 -0.002748 -375364.000000 1 0 0
9.182166 -11.148098 4.192473 15.038920 -0.881798 1.288278 0.007666 -0.002088 -1280180.000000 1 0 0
14.118666 -10.211898 6.938473 18.755320 -0.626187 1.191844 0.024066 -0.011615 503327.000000 1 0 0
16.311766 -0.511398 -4.796227 17.009969 -0.031341 1.856639 0.022104 0.000406 -452223.000000 1 0 0
15.746866 -0.454098 -1.728227 15.847927 -0.028829 1.680064 0.013563 0.004934 -497743.000000 1 0 0
12.983566 -5.155598 -0.295527 13.972850 -0.377992 1.591948 0.008088 0.000361 1034110.000000 1 0 0
14.286366 -7.541598 1.031773 16.187666 -0.485708 1.507015 0.013007 0.002873 1838340.000000 1 0 0
15.508266 2.547702 3.634573 16.130940 0.162826 1.343528 0.017680 0.001131 1717340.000000 1 0 0
15.924166 -7.169998 5.150873 18.207675 -0.423069 1.283985 0.028853 -0.012221 -1444330.000000 1 0 0
13.727366 -12.208798 3.404573 18.683856 -0.726915 1.387553 0.017800 -0.003638 1912240.000000 1 0 0
14.018966 -0.947198 9.362973 16.884723 -0.067463 0.983006 0.031507 -0.009028 1667970.000000 1 0 0
14.262966 -2.817498 -1.656227 14.632621 -0.195029 1.684227 0.004676 0.003676 690731.000000 1 0 0
15.116466 1.850002 9.221573 17.803580 0.121778 1.026330 0.049264 -0.010668 -1597420.000000 1 0 0
14.461466 -10.172998 -2.986527 17.931627 -0.613041 1.738127 0.028118 -0.000098 1249080.000000 1 0 0
7.535066 -12.692798 6.093873 15.969334 -1.035060 1.179271 0.003299 -0.001060 206346.000000 1 0 0
12.422066 -4.825998 7.075573 15.088463 -0.370555 1.082707 0.005216 -0.002930 2306000.000000 1 0 0
15.036066 -8.974098 -5.646727 18.398458 -0.538091 1.882744 0.051956 -0.007621 -1003780.000000 1 0 0
14.258566 -4.667898 4.761573 15.740666 -0.316379 1.263480 0.009683 -0.002994 -1137910.000000 1 0 0
17.127466 -4.244098 1.058773 17.677202 -0.242902 1.510866 0.016892 -0.008538 1122950.000000 1 0 0
10.182466 -14.467798 1.140973 17.728554 -0.957523 1.506394 0.024641 -0.007494 -562756.000000 1 0 0
16.392666 -2.561198 8.744173 18.754728 -0.154987 1.085762 0.045489 -0.015583 1303100.000000 1 0 0
15.949566 -2.676598 3.339473 16.513780 -0.166267 1.367169 0.013696 -0.002292 12804.400000 1 0 0
7.839866 -15.329098 2.611473 17.414493 -1.098041 1.420269 0.014318 -0.003046 3854010.000000 1 0 0
16.631566 -7.149398 8.003473 19.793395 -0.405988 1.154528 0.048870 -0.008565 -1187900.000000 1 0 0
10.295766 -8.541998 5.094473 14.315104 -0.692567 1.206940 0.004893 -0.002625 1342320.000000 1 0 0
11.060366 -11.893698 2.146973 16.382956 -0.821687 1.439369 0.020507 -0.002298 34668.300000 1 0 0
12.406866 -7.392198 12.023273 18.791860 -0.537337 0.876542 0.015983 -0.010982 -66996.400000 1 0 0
15.205366 -9.880598 4.370573 18.652917 -0.576242 1.334287 0.024096 -0.006485 -312719.000000 1 0 0
7.440966 -10.294098 7.804773 14.908082 -0.944907 1.019812 0.008137 -0.001983 1110600.000000 1 0 0
15.253666 -3.275998 -4.498827 16.237178 -0.211554 1.851539 0.026186 -0.001257 484457.000000 1 0 0
11.847566 -9.116298 9.899073 17.929399 -0.655843 0.985899 0.009908 -0.008382 -1888500.000000 1 0 0
16.914466 -6.656398 2.535573 18.353091 -0.374919 1.432198 0.025844 -0.007530 1059010.000000 1 0 0
17.574966 4.041402 2.002173 18.144450 0.226023 1.460225 0.024456 0.009241 856262.000000 1 0 0
14.779966 -4.999298 8.880173 17.952656 -0.326167 1.053371 0.031695 -0.011447 40345.800000 1 0 0
12.803366 -12.712598 6.192973 19.075882 -0.781841 1.240155 0.018499 -0.008630 51159.400000 1 0 0
18.251166 0.769202 -0.905427 18.289793 0.042120 1.620321 0.029855 0.003552 65564.700000 1 0 0
11.627066 -2.147498 11.044173 16.179437 -0.182640 0.819474 0.012920 -0.003508 1047010.000000 1 0 0
5.790666 -12.477698 10.488473 17.298348 -1.136294 0.919362 0.012330 -0.001184 -1324080.000000 1 0 0
10.817166 -5.063198 10.952373 16.204985 -0.437779 0.828659 0.010005 -0.006593 1419530.000000 1 0 0
17.819866 1.212302 4.906873 18.522816 0.067926 1.302686 0.044590 -0.006570 -491734.000000 1 0 0
12.293266 -7.923398 7.200173 16.301752 -0.572521 1.113325 0.010477 -0.008055 -1753500.000000 1 0 0
10.787366 -7.880898 14.369073 19.620043 -0.630948 0.749005 0.036038 -0.005897 -25278.700000 1 0 0
14.209466 -0.205498 3.863273 14.726712 -0.014461 1.305359 0.001892 0.003487 2143010.000000 1 0 0
11.693666 -7.679298 2.483973 14.208574 -0.581075 1.395071 0.005929 0.003444 1056820.000000 1 0 0
9.324666 6.128302 3.561873 11.712917 0.581430 1.261805 0.006069 0.001735 1282320.000000 1 0 0
-3.939934 14.787302 -9.845927 18.196968 -1.310405 2.142511 -0.005047 -0.005714 140220.000000 1 0 0
8.894566 -6.404498 9.242773 14.337355 -0.624053 0.870213 0.012380 -0.003812 -995389.000000 1 0 0
5.849266 -10.576498 -8.443727 14.743567 -1.065619 2.180599 -0.001533 -0.002471 579827.000000 1 0 0
5.388066 1.089702 0.602973 5.530125 0.199552 1.461545 0.007128 -0.002416 4025020.000000 1 0 0
-0.529034 9.846302 11.042473 14.804247 -1.517119 0.728913 -0.006003 0.004421 -868948.000000 1 0 0
-6.298034 -5.274598 0.983373 8.273671 0.697192 1.451659 0.008787 -0.005299 3243930.000000 1 0 0
-1.044734 3.984202 -10.849127 11.604693 -1.314351 2.778749 0.011897 -0.005875 1006320.000000 1 0 0
10.981366 5.821302 1.227073 12.489342 0.487442 1.472388 0.004726 0.003315 1700350.000000 1 0 0
-10.121434 -1.732298 -13.700227 17.121347 0.169509 2.498398 0.014428 0.001222 2285280.000000 1 0 0
7.448566 10.974902 -6.042727 14.575464 0.974515 1.998280 0.001573 -0.000324 1306430.000000 1 0 0
-12.448034 -2.833698 -9.721127 16.046299 0.223828 2.221589 0.012330 -0.003258 1315910.000000 1 0 0
-3.964434 -8.713298 2.484773 9.890015 1.143803 1.316835 0.011126 -0.002371 -985267.000000 1 0 0
8.021366 -6.713598 -5.893127 12.005985 -0.696877 2.083860 0.005320 -0.004532 1417170.000000 1 0 0
14.435966 3.197402 -4.215427 15.374990 0.217970 1.848527 0.016624 0.003194 967343.000000 1 0 0
-2.659834 -5.078298 9.749273 11.309825 1.088318 0.531559 0.006623 -0.002205 2646300.000000 1 0 0
3.474966 -1.915798 -4.565427 6.048868 -0.503852 2.426080 0.005569 -0.003120 -1555660.000000 1 0 0
-4.023734 8.476102 -3.451827 9.997492 -1.127580 1.923322 0.003649 -0.001849 313104.000000 1 0 0
5.863966 0.024102 11.710473 13.096635 0.004110 0.464247 0.001865 -0.004342 2065370.000000 1 0 0
7.009166 4.658802 12.425373 15.007422 0.586621 0.595357 0.005595 -0.002017 1526000.000000 1 0 0
1.263066 -14.550398 12.463873 19.200457 -1.484207 0.864337 0.015225 -0.001766 178882.000000 1 0 0
3.025766 8.715402 -9.024227 12.905432 1.236641 2.345155 0.008136 -0.003652 636911.000000 1 0 0
-4.368134 -8.824998 -4.501927 10.827213 1.111179 1.999616 0.005796 -0.003189 693251.000000 1 0 0
5.710966 -6.504698 -4.028427 9.547485 -0.850284 2.006376 0.004165 -0.003705 1710910.000000 1 0 0
-3.106434 3.444902 8.553273 9.730146 -0.837016 0.496933 -0.002105 0.001209 2173960.000000 1 0 0
-3.721434 3.065302 -11.087427 12.090335 -0.689019 2.731412 0.006430 -0.008927 -1189340.000000 1 0 0
3.045166 -6.166898 8.428973 10.878936 -1.112127 0.684402 0.011825 -0.002455 1950570.000000 1 0 0
-5.243034 -8.623198 10.496173 14.560858 1.024504 0.765771 0.006505 -0.007761 185111.000000 1 0 0
-13.255534 -2.559198 6.439173 14.957326 0.190720 1.125746 0.008420 -0.005303 1103120.000000 1 0 0
3.997866 -5.923498 -8.260227 10.922551 -0.977104 2.428366 0.001257 -0.001661 2664540.000000 1 0 0
2.927066 -0.628998 12.337673 12.695728 -0.211671 0.238061 0.003995 -0.002324 2031530.000000 1 0 0
1.495466 -1.399698 -7.514027 7.788208 -0.752332 2.875461 0.004729 -0.005437 -215451.000000 1 0 0
3.587266 -3.490098 3.434973 6.070280 -0.771670 0.969312 0.008467 -0.002567 3337000.000000 1 0 0
1.503766 0.444102 -11.792927 11.896709 0.287163 3.009409 0.010153 -0.004554 338304.000000 1 0 0
4.084766 3.606902 -10.618627 11.935255 0.723350 2.667453 0.005606 -0.000826 1533240.000000 1 0 0
2.820466 3.233002 3.364673 5.452371 0.853442 0.905741 -0.001256 0.001334 71008.800000 1 0 0
-5.406034 0.868702 2.494773 6.016954 -0.159329 1.143267 0.005996 -0.002544 1414090.000000 1 0 0
-9.513134 -9.281798 5.751373 14.482050 0.773090 1.162400 0.007678 -0.005099 -1587230.000000 1 0 0
-3.069634 3.936102 -0.665827 5.035759 -0.908453 1.703405 0.006618 -0.004722 -367503.000000 1 0 0
-15.986534 -6.419698 4.812773 17.886994 0.381858 1.298374 0.024505 -0.005888 277033.000000 1 0 0
1.032966 6.718502 -8.044727 10.531995 1.418241 2.440034 0.006508 -0.004892 569775.000000 1 0 0
-1.602534 6.523902 -9.429927 11.578123 -1.329925 2.522596 0.007833 -0.005168 236988.000000 1 0 0
2.046466 -0.316198 5.253973 5.647321 -0.153297 0.375436 0.006399 -0.001209 2582380.000000 1 0 0
-3.419334 -0.593398 -6.241327 7.141298 0.171831 2.634122 0.010976 -0.009601 853144.000000 1 0 0
1.915066 -1.090698 -2.403327 3.260841 -0.517718 2.399457 0.009659 -0.004495 1836160.000000 1 0 0
2.427766 -8.581398 -7.633627 11.739111 -1.295091 2.278740 -0.001161 -0.000948 4496520.000000 1 0 0
-2.400834 13.998102 -5.573127 15.256821 -1.400938 1.944738 -0.000944 -0.000629 2050880.000000 1 0 0
6.966166 -5.042698 -8.138427 11.840198 -0.626576 2.328638 0.004410 -0.005906 3520940.000000 1 0 0
-14.213934 -4.952198 -2.334827 15.231927 0.335253 1.724688 0.002828 -0.005423 246358.000000 1 0 0
-2.703534 6.866902 -6.752027 10.002665 -1.195728 2.311792 0.009131 -0.005559 -2939200.000000 1 0 0
-5.681134 -1.123998 -8.058127 9.923309 0.195325 2.518436 0.015240 -0.012488 452478.000000 1 0 0
-5.765234 -10.627998 3.537173 12.597772 1.073763 1.286192 0.006169 -0.002864 -2273360.000000 1 0 0
8.136766 -7.578398 6.720073 12.992246 -0.749883 1.027177 0.007826 -0.004105 136895.000000 1 0 0
8.902266 -6.036998 13.117573 16.963679 -0.595905 0.686808 0.026405 -0.004626 1440390.000000 1 0 0
-4.755834 9.606602 -0.723427 10.743747 -1.111109 1.638182 -0.000931 -0.001345 449331.000000 1 0 0
2.701366 6.502802 12.140573 14.034861 1.177072 0.525587 0.004495 -0.000518 1589480.000000 1 0 0
6.087766 -2.884598 10.864773 12.783782 -0.442498 0.555025 0.008066 -0.002638 -893226.000000 1 0 0
-9.752634 -6.505998 -1.190227 11.783824 0.588304 1.671974 0.006970 -0.004323 -1407740.000000 1 0 0
0.903166 -13.388298 6.313573 14.829816 -1.503439 1.131022 0.014377 -0.004843 298808.000000 1 0 0
-0.624834 -3.188798 8.711073 9.297399 1.377301 0.357037 0.007075 -0.002988 2009330.000000 1 0 0
4.206666 0.745502 3.411173 5.466984 0.175398 0.896998 0.003742 0.000830 1192550.000000 1 0 0
-10.186034 5.522402 8.187973 14.187850 -0.496800 0.955609 0.004374 -0.007072 1682150.000000 1 0 0
9.373066 8.002502 0.065173 12.324717 0.706682 1.565508 0.007578 0.003061 1826310.000000 1 0 0
4.317866 2.880202 8.204073 9.708055 0.588263 0.564084 -0.001234 -0.001657 4337120.000000 1 0 0
1.349666 2.755902 -9.797327 10.266656 1.115393 2.838059 0.009309 -0.006727 2426100.000000 1 0 0
-1.411034 -10.170398 3.043973 10.709519 1.432937 1.282593 0.012662 -0.002580 -2019690.000000 1 0 0
-9.897134 9.529902 9.003473 16.426649 -0.766497 0.990703 0.007007 -0.010469 1811540.000000 1 0 0
9.857466 -1.981898 -7.623327 12.617951 -0.198410 2.219514 0.019153 -0.003903 1694050.000000 1 0 0
-5.316434 -1.914598 6.618073 8.702243 0.345669 0.706711 0.005180 -0.003178 881378.000000 1 0 0
3.134866 -7.769498 -4.910827 9.711268 -1.187290 2.100970 0.000269 -0.002697 2397350.000000 1 0 0
-5.072234 4.833202 -12.973527 14.744484 -0.761271 2.646427 0.002179 -0.010132 3441670.000000 1 0 0
-5.615234 9.635002 5.451173 12.412872 -1.043123 1.116139 -0.000829 -0.000487 1154340.000000 1 0 0
-0.447634 -1.665698 -9.362127 9.519683 1.308263 2.959404 0.005870 -0.006325 296481.000000 1 0 0
-16.862434 0.184902 6.384173 18.031459 -0.010965 1.208890 0.031915 -0.009799 357082.000000 1 0 0
-6.041834 -2.933198 3.960973 7.797224 0.451965 1.037938 -0.002295 -0.002134 2233170.000000 1 0 0
0.962866 -5.663198 -5.147027 7.713029 -1.402385 2.301395 0.003711 -0.003080 1024150.000000 1 0 0
-6.956934 1.381602 -8.498627 11.069526 -0.196043 2.446118 0.011649 -0.009833 317806.000000 1 0 0
8.047666 1.999602 4.848173 9.605630 0.243538 1.041736 0.001693 0.001484 440677.000000 1 0 0
0.452766 -8.022998 -0.536727 8.053669 -1.514423 1.637490 0.006131 -0.000002 1232030.000000 1 0 0
5.460466 5.528002 -3.387327 8.476407 0.791544 1.981897 0.004677 0.000048 -48270.500000 1 0 0
-0.766834 -0.281998 -1.227427 1.474495 0.352394 2.554292 0.011782 -0.005707 1297540.000000 1 0 0
9.239766 6.443802 -6.275527 12.894887 0.608978 2.079068 0.003974 -0.000737 -18181.400000 1 0 0
-14.997334 -7.129198 2.301573 16.764329 0.443746 1.433071 -0.003328 -0.005247 149266.000000 1 0 0
-6.411134 6.880502 8.924473 12.964958 -0.820697 0.811580 0.001472 -0.001911 576914.000000 1 0 0
-9.478934 -3.100698 -9.684927 13.901882 0.316143 2.341532 0.012591 -0.006352 673206.000000 1 0 0
14.971466 3.452002 -1.259027 15.415780 0.226612 1.652559 0.007278 0.008576 425784.000000 1 0 0
12.164866 1.761002 -5.811427 13.596242 0.143763 2.012443 0.013350 -0.000103 112754.000000 1 0 0
1.562966 -9.499898 12.620073 15.873159 -1.407733 0.651694 0.003421 -0.003184 -332357.000000 1 0 0
-3.606134 6.374902 7.852673 10.738158 -1.055997 0.750590 -0.004017 0.002418 1180720.000000 1 0 0
-4.034834 13.099602 -12.330727 18.437090 -1.272005 2.303390 0.002890 -0.000848 1726530.000000 1 0 0
-10.253634 7.759802 6.421473 14.373129 -0.647830 1.107645 0.003738 -0.007868 552400.000000 1 0 0
8.078066 -9.349098 -7.094127 14.247366 -0.858203 2.092001 0.008789 -0.005300 287985.000000 1 0 0
5.895666 -3.755598 -0.337927 6.998400 -0.567189 1.619101 0.010095 -0.003257 -1434490.000000 1 0 0
-1.682734 -4.451998 4.147673 6.313087 1.209422 0.853969 0.008288 -0.000396 1703230.000000 1 0 0
9.977066 -1.988798 -2.553727 10.488980 -0.196758 1.816736 0.006714 -0.001915 -2368160.000000 1 0 0
13.591466 7.160402 1.379873 15.424116 0.484881 1.481215 0.000529 0.008216 -901635.000000 1 0 0
5.442366 -3.600298 -3.205427 7.270231 -0.584439 2.027395 0.008392 -0.006033 -2293990.000000 1 0 0
-12.281034 -5.999098 1.861173 13.794090 0.454393 1.435458 0.003011 -0.003866 941890.000000 1 0 0
3.809866 -5.725598 -0.328527 6.885164 -0.983665 1.618530 0.009573 -0.000815 402237.000000 1 0 0
-5.123534 3.741702 -8.683727 10.754443 -0.630772 2.510621 0.009037 -0.009549 922306.000000 1 0 0
-1.816534 -9.283898 7.220173 11.900481 1.377573 0.918878 0.009917 -0.004331 998524.000000 1 0 0
-7.474834 -7.432298 2.575273 10.851001 0.782545 1.331180 0.010042 -0.004357 -3650330.000000 1 0 0
-5.709834 13.026902 -8.499827 16.569533 -1.157705 2.109448 -0.002205 -0.008637 489081.000000 1 0 0
9.315966 -13.905498 -4.147927 17.243997 -0.980525 1.813722 0.025667 -0.000040 89834.000000 1 0 0
-6.507634 -5.117598 -6.813827 10.722283 0.666393 2.259430 0.011917 -0.007429 2182900.000000 1 0 0
3.421266 0.443202 -6.177327 7.075370 0.128826 2.632270 0.006347 -0.006580 1344250.000000 1 0 0
-3.600134 5.793702 4.943973 8.424417 -1.014799 0.943618 0.001188 0.002180 681050.000000 1 0 0
-2.641934 -10.822598 -2.862227 11.502208 1.331366 1.822280 0.006874 -0.000799 935519.000000 1 0 0
-12.583834 -0.523298 1.683973 12.706788 0.041561 1.437880 0.003111 -0.001980 -293422.000000 1 0 0
8.494466 -12.010398 -6.030627 15.898871 -0.955215 1.959849 0.012705 -0.004447 545317.000000 1 0 0
6.172666 3.946402 1.053473 7.401736 0.568841 1.427984 0.007089 -0.000626 564896.000000 1 0 0
3.370966 -4.844698 -10.884027 12.381299 -0.962891 2.644704 0.002251 -0.001825 1056560.000000 1 0 0
-7.583434 4.220902 8.529173 12.168453 -0.507892 0.794103 0.000997 -0.000685 1934060.000000 1 0 0
8.230166 8.788702 4.117773 12.725288 0.818205 1.241275 0.010363 -0.000653 2188130.000000 1 0 0
0.267266 10.562002 -6.304327 12.303327 1.545497 2.108783 0.004011 -0.000921 3021390.000000 1 0 0
5.417366 8.131402 3.344073 10.327167 0.983098 1.241039 0.007264 -0.001474 2578820.000000 1 0 0
8.106866 6.669202 -3.732627 11.141456 0.688407 1.912424 0.006702 -0.000136 603618.000000 1 0 0
10.567966 2.623002 -8.220427 13.643221 0.243287 2.217462 0.008330 -0.001085 597478.000000 1 0 0
3.410366 -12.556898 -0.277527 13.014735 -1.305600 1.592122 0.003979 -0.000298 -2252580.000000 1 0 0
0.654066 2.107102 5.213473 5.661093 1.269816 0.400335 0.002769 0.000406 -1038420.000000 1 0 0
-4.894434 13.532002 1.503473 14.468275 -1.223743 1.466693 -0.002764 0.003817 2732180.000000 1 0 0
8.271766 4.201502 -8.035227 12.273533 0.469974 2.284555 0.004864 -0.000665 746159.000000 1 0 0
-13.900434 -0.581598 -3.705127 14.397509 0.041816 1.831070 0.000909 0.000303 638248.000000 1 0 0
-8.718334 0.013202 -0.537627 8.734905 -0.001514 1.632385 0.000877 -0.002222 -850028.000000 1 0 0
1.845766 -3.808498 -1.152027 4.386192 -1.119509 1.836563 0.009538 -0.002299 -1162520.000000 1 0 0
8.122566 -5.568898 -0.269327 9.851967 -0.601002 1.598137 0.006746 -0.002921 1601380.000000 1 0 0
-2.380134 -1.197798 7.437573 7.900458 0.466243 0.344009 0.006236 -0.000412 3576650.000000 1 0 0
-5.918234 8.862102 -11.663327 15.798593 -0.982000 2.401270 0.005238 -0.005489 -1380300.000000 1 0 0
-6.217034 9.143302 -8.791927 14.126198 -0.973650 2.242582 0.003373 -0.007011 -213589.000000 1 0 0
-1.467834 13.967502 -8.398827 16.364166 -1.466091 2.109758 0.006725 -0.003335 -751723.000000 1 0 0
-1.471134 7.201602 9.803773 12.253214 -1.369290 0.643338 -0.004942 0.000942 1115120.000000 1 0 0
10.086266 2.344002 -4.000427 11.100925 0.228342 1.939460 0.005014 -0.000827 -645094.000000 1 0 0
-3.001434 -7.455998 -6.900127 10.593030 1.188091 2.280203 0.005353 -0.002977 1380080.000000 1 0 0
-5.562834 -5.005798 -1.655427 7.664436 0.732740 1.788500 0.009635 -0.005284 253776.000000 1 0 0
5.680366 7.434402 -8.745327 12.806937 0.918354 2.322465 0.002176 -0.000150 -173747.000000 1 0 0
-9.655934 5.207902 -7.501627 13.290361 -0.494628 2.170552 0.004304 -0.004388 -535942.000000 1 0 0
-0.382034 6.141202 -5.307727 8.126025 -1.508668 2.282568 0.009062 -0.005667 -1319740.000000 1 0 0
-8.296934 2.778002 -6.420227 10.852452 -0.323090 2.203829 0.008557 -0.004386 1564690.000000 1 0 0
3.721066 1.435402 -1.970427 4.448516 0.368162 2.029672 0.005712 -0.004558 2322030.000000 1 0 0
-6.711034 12.449502 -3.478027 14.564503 -1.076391 1.811928 0.002701 -0.000511 1324150.000000 1 0 0
-6.756234 3.174702 -2.366327 7.831023 -0.439273 1.877768 0.008566 -0.002394 -2353720.000000 1 0 0
12.198266 4.049602 -0.764927 12.875639 0.320534 1.630240 -0.000905 0.004413 2006140.000000 1 0 0
2.310066 12.375402 -5.471227 13.726664 1.386254 1.980769 0.005688 -0.000937 -1113320.000000 1 0 0
-9.163634 -1.474498 -4.343827 10.247691 0.159540 2.008525 0.007965 -0.001216 -2082090.000000 1 0 0
-1.185534 5.817602 3.391273 6.837449 -1.369765 1.051827 0.000023 -0.001527 1165360.000000 1 0 0
11.500166 2.566502 12.101273 16.890280 0.219573 0.772076 0.026195 -0.000877 659720.000000 1 0 0
-7.024534 -2.344098 -5.728827 9.362603 0.322082 2.229237 0.015838 -0.007789 -317734.000000 1 0 0
7.563566 -7.447998 10.847373 15.177144 -0.777700 0.774576 0.019008 -0.004427 -465112.000000 1 0 0
-5.532534 -1.976198 -10.885727 12.369856 0.343071 2.646702 0.013567 -0.001360 -353778.000000 1 0 0
0.742666 -6.237398 4.446073 7.695730 -1.452288 0.954848 0.007563 -0.000992 1433410.000000 1 0 0
-4.881134 -9.294098 7.427373 12.859689 1.087203 0.955047 0.002492 -0.003355 2653830.000000 1 0 0
-8.766534 9.382102 1.710773 12.953868 -0.819303 1.438343 0.008087 -0.002157 325562.000000 1 0 0
-8.163534 7.151402 -9.061927 14.138754 -0.719406 2.266503 0.004350 -0.007098 130718.000000 1 0 0
-1.241334 -10.615998 -0.092327 10.688726 1.454394 1.579434 0.008814 -0.001350 -770307.000000 1 0 0
-3.970434 10.392202 7.734673 13.549441 -1.205851 0.963258 -0.000208 0.003874 2109460.000000 1 0 0
-7.508634 12.065902 1.991773 14.350356 -1.014140 1.431551 0.005443 -0.004390 1432880.000000 1 0 0
-8.183934 -8.240298 -2.869627 11.963028 0.788830 1.813033 0.013978 -0.005258 52053.700000 1 0 0
5.491966 4.663502 -7.951127 10.729882 0.704000 2.405394 0.006089 0.000145 431537.000000 1 0 0
-8.933834 -0.075698 -10.314427 13.645751 0.008473 2.427780 0.012317 -0.008448 -558349.000000 1 0 0
-15.152934 -2.296398 -1.590527 15.408265 0.150404 1.674206 0.000175 -0.001455 -1306270.000000 1 0 0
-7.284334 -5.828598 8.735273 12.780417 0.674836 0.818265 0.003912 -0.004463 436093.000000 1 0 0
8.217966 3.493702 -0.916627 8.976699 0.401981 1.673086 0.006880 0.001594 1109330.000000 1 0 0
12.009466 7.322902 -5.816827 15.221289 0.547566 1.962919 0.003991 0.000628 1143530.000000 1 0 0
3.764166 13.277502 -9.552027 16.783987 1.294545 2.176226 0.004922 -0.004359 288486.000000 1 0 0
-9.712334 5.465102 -0.537027 11.157292 -0.512539 1.618947 0.001180 -0.000069 1200560.000000 1 0 0
11.361866 -1.222798 -5.176927 12.545430 -0.107210 1.996163 0.019104 -0.004039 -360224.000000 1 0 0
10.680066 1.694202 -1.248427 10.885436 0.157321 1.685737 0.005247 0.002437 -1379600.000000 1 0 0
14.541266 5.124502 4.860673 16.165862 0.338821 1.265396 0.010747 0.000382 1627280.000000 1 0 0
0.886866 -0.845098 10.272473 10.345261 -0.761287 0.118694 0.006214 -0.003414 1488880.000000 1 0 0
-7.958534 1.464502 -12.623627 14.994632 -0.181981 2.571547 0.005596 -0.006607 -902880.000000 1 0 0
3.167866 -11.515198 -7.804427 14.266894 -1.302334 2.149609 -0.000719 0.000990 -235994.000000 1 0 0
2.918366 5.036102 -6.708527 8.881640 1.045595 2.426947 0.005577 -0.001859 -1073560.000000 1 0 0
6.429966 8.099602 0.651673 10.362080 0.899809 1.507865 0.007877 -0.002223 -100147.000000 1 0 0
-9.185634 -5.394998 6.738073 12.604900 0.531051 1.006810 -0.000158 -0.001281 -1366680.000000 1 0 0
-0.257834 -6.902498 -11.835027 13.703242 1.533460 2.613295 -0.003155 0.001955 2126820.000000 1 0 0
6.524166 -13.380598 -4.630127 15.589844 -1.117131 1.872342 0.009944 -0.001645 2643710.000000 1 0 0
-3.320634 -0.309598 10.041373 10.580719 0.092966 0.320667 0.003498 -0.000701 1098610.000000 1 0 0
8.634066 8.431802 7.030073 13.966542 0.773547 1.043324 0.007959 -0.001618 158627.000000 1 0 0
-7.991634 5.771302 -2.750427 10.234206 -0.625449 1.842890 0.008574 -0.002739 1853970.000000 1 0 0
-5.317534 5.812902 -6.472527 10.196058 -0.829875 2.258555 0.007296 -0.005066 -576373.000000 1 0 0
3.408466 -13.703298 2.548473 14.348963 -1.327010 1.392242 0.015199 -0.005682 -1705030.000000 1 0 0
-11.367034 -7.050398 6.502373 14.872741 0.555176 1.118313 0.009137 -0.003662 -791060.000000 1 0 0
-12.958234 -3.733798 -6.885627 15.141629 0.280542 2.042886 0.014434 -0.006218 -1200220.000000 1 0 0
6.038966 0.460002 -7.221827 9.425259 0.076025 2.443735 0.006243 -0.000978 172475.000000 1 0 0
-1.445534 2.256902 -2.507827 3.670473 -1.001132 2.322992 0.008639 -0.006045 2779170.000000 1 0 0
7.632166 0.969202 -4.928827 9.136884 0.126313 2.140572 0.005317 -0.000023 -111441.000000 1 0 0
3.725166 -4.489998 10.785973 12.262714 -0.878231 0.495829 0.008303 -0.001594 1397010.000000 1 0 0
5.979666 -2.509798 2.073573 6.808465 -0.397392 1.261322 0.008913 -0.003901 504432.000000 1 0 0
-6.266634 7.826002 1.185373 10.095648 -0.895601 1.453111 0.001673 -0.001040 2593610.000000 1 0 0
6.003166 -3.432198 7.861973 10.470368 -0.519374 0.721405 0.008594 -0.003565 229901.000000 1 0 0
6.813766 -2.205498 -7.797627 10.587475 -0.313040 2.398671 0.004453 -0.003369 330218.000000 1 0 0
12.112566 -8.144298 -5.818727 15.713098 -0.591950 1.950140 0.031908 -0.005258 1995400.000000 1 0 0
5.566966 -9.657098 9.964873 14.951567 -1.047863 0.841323 0.010774 0.001343 1760990.000000 1 0 0
-6.617734 7.559802 -4.508027 11.012144 -0.851749 1.992558 0.003364 -0.002876 1687920.000000 1 0 0
-1.360034 -7.665498 9.767273 12.490363 1.395201 0.672953 0.007500 -0.004314 -753893.000000 1 0 0
10.121266 -9.272198 0.782573 13.748677 -0.741645 1.513846 0.006427 0.000653 347868.000000 1 0 0
11.126566 6.029202 9.856473 16.040630 0.496583 0.909083 0.015264 -0.005524 790720.000000 1 0 0
-15.347834 -4.164698 -5.104727 16.702064 0.264974 1.881401 0.004034 -0.005752 1812770.000000 1 0 0
-4.827434 -4.699698 7.724673 10.249968 0.771991 0.717231 0.003397 -0.003439 -921271.000000 1 0 0
2.989566 10.895802 -11.044127 15.799644 1.303009 2.344810 0.007524 -0.003183 42559.400000 1 0 0
9.986866 -1.391098 1.600173 10.209467 -0.138402 1.413413 0.000382 0.000763 403573.000000 1 0 0
-1.568634 -2.610198 0.602273 3.104268 1.029669 1.375544 0.006922 -0.003407 -1319570.000000 1 0 0
1.579366 3.063702 0.832873 3.546032 1.094818 1.333707 0.003046 -0.001888 -185230.000000 1 0 0
-9.035834 -2.429098 4.233373 10.269774 0.262621 1.145911 -0.001663 -0.003745 3666910.000000 1 0 0
9.978166 4.906502 -2.665227 11.434203 0.457005 1.806053 0.005165 0.002361 2375880.000000 1 0 0
2.572466 8.466402 2.569573 9.214133 1.275817 1.288176 0.001800 -0.002503 -78252.100000 1 0 0
-8.255334 -0.039398 2.464473 8.615434 0.004772 1.280691 0.002192 -0.002150 1805660.000000 1 0 0
6.892766 2.015002 13.757873 15.519327 0.284411 0.481072 0.009765 -0.005371 -285148.000000 1 0 0
6.884966 4.437702 3.895173 9.070189 0.572534 1.126915 0.002228 0.001777 205187.000000 1 0 0
-0.246234 3.324202 7.764973 8.450192 -1.496858 0.405486 -0.001994 0.001530 39900.900000 1 0 0
2.736866 -10.323898 9.212973 14.105041 -1.311657 0.859035 0.010627 -0.002500 2120730.000000 1 0 0
1.252966 -4.594998 6.830473 8.327022 -1.304588 0.608899 0.007440 -0.001184 479530.000000 1 0 0
-0.182034 10.848502 -2.016627 11.035847 -1.554018 1.754563 0.002984 -0.002661 1971690.000000 1 0 0
8.791166 5.462902 8.075473 13.127877 0.556012 0.908234 0.003194 0.000051 -691788.000000 1 0 0
2.609266 11.467002 -2.846827 12.099786 1.347060 1.808302 0.006531 -0.005282 1820490.000000 1 0 0
1.559566 2.460702 -6.708527 7.313798 1.005902 2.731898 0.006727 -0.005356 473513.000000 1 0 0
-13.664134 -2.318298 3.526173 14.300942 0.168063 1.321658 0.004597 -0.002417 1768740.000000 1 0 0
-0.918334 -10.537598 -5.305527 11.833551 1.483868 2.035711 0.000204 -0.000287 -90490.400000 1 0 0
-5.688134 2.847102 0.355973 6.370837 -0.464074 1.514892 0.008986 -0.002347 1814420.000000 1 0 0
3.754666 7.283502 -5.006827 9.602876 1.094823 2.119273 0.006240 -0.002245 -2279220.000000 1 0 0
3.079766 9.800002 -6.459027 12.134415 1.266307 2.132100 0.009109 -0.001958 2948460.000000 1 0 0
-12.312034 1.688702 -2.646227 12.705920 -0.136308 1.780599 0.003034 -0.000638 383522.000000 1 0 0
-2.474234 9.637602 -5.757227 11.495689 -1.319496 2.095338 0.001704 -0.003663 371024.000000 1 0 0
-1.341234 3.394602 1.688573 4.021630 -1.194514 1.137491 0.002629 -0.001581 -299649.000000 1 0 0
12.962866 3.686602 9.780873 16.652099 0.277081 0.942996 0.034814 -0.004355 832045.000000 1 0 0
-2.632534 -9.679698 11.577173 15.318542 1.305254 0.713979 0.001396 -0.007670 625167.000000 1 0 0
-0.486734 -8.830298 -7.584527 11.650585 1.515731 2.279697 -0.002056 -0.000813 1239640.000000 1 0 0
2.345366 7.648402 -0.439727 8.012000 1.273252 1.625708 0.003906 -0.002760 1782620.000000 1 0 0
-11.795634 -1.298998 -5.676427 13.154702 0.109683 2.016966 0.006670 0.002635 -788730.000000 1 0 0
-6.168634 -7.154298 -10.949927 14.461568 0.859246 2.429773 0.006782 0.000042 1152230.000000 1 0 0
-4.737034 -2.335198 -1.403627 5.464687 0.458005 1.830562 0.007968 -0.005101 -1047030.000000 1 0 0
-10.559534 3.604502 4.372373 11.983898 -0.328949 1.197320 0.001633 -0.006514 3600120.000000 1 0 0
6.785266 9.324402 -3.562227 12.069539 0.941728 1.870400 0.008240 -0.001381 1026050.000000 1 0 0
1.251166 -2.645698 -11.454827 11.822783 -1.129058 2.891451 0.006539 -0.004104 -787396.000000 1 0 0
1.182766 8.728402 7.574073 11.616820 1.436109 0.860588 -0.005776 0.005564 1061820.000000 1 0 0
10.316766 0.401302 10.499373 14.725269 0.038878 0.777004 0.010281 -0.002610 90822.700000 1 0 0
-5.293034 -0.859398 -3.853827 6.603541 0.160959 2.193951 0.012076 -0.007005 -836875.000000 1 0 0
11.653666 5.747602 5.527673 14.120837 0.458194 1.168584 0.005038 0.003318 2159300.000000 1 0 0
10.014566 -3.463698 3.673373 11.215276 -0.332987 1.237105 0.007079 -0.002969 -704712.000000 1 0 0
7.340966 -1.592398 -3.354227 8.226564 -0.213610 1.990764 0.005548 -0.003047 -3677840.000000 1 0 0
2.345466 9.161702 10.464273 14.104573 1.320171 0.734887 -0.000400 0.002680 2707840.000000 1 0 0
2.368566 -10.925198 6.332373 12.847918 -1.357302 1.055409 0.008580 0.000824 821831.000000 1 0 0
5.949666 -7.506398 -1.231227 9.657146 -0.900576 1.698638 0.005334 -0.003351 1838810.000000 1 0 0
-0.306934 -5.539498 -2.316427 6.012162 1.515445 1.966319 0.006884 -0.000887 2645950.000000 1 0 0
7.763566 -5.024898 2.666073 9.624475 -0.574433 1.290116 0.008362 -0.003852 389222.000000 1 0 0
-2.681934 -12.539698 4.610673 13.626999 1.360095 1.225635 0.009322 -0.004027 -409197.000000 1 0 0
4.902266 -10.243798 -1.161327 11.415617 -1.124448 1.672704 0.006116 -0.001845 1104850.000000 1 0 0
0.877366 0.219302 1.066373 1.398219 0.244936 0.703373 0.006115 -0.002021 -1026970.000000 1 0 0
-1.541634 8.591602 2.388373 9.049673 -1.393251 1.303714 -0.004827 0.001811 556395.000000 1 0 0
-7.553834 0.628002 -3.102827 8.190380 -0.082946 1.959337 0.005932 -0.001575 -786045.000000 1 0 0
4.437666 -6.403298 12.795473 14.980629 -0.964765 0.546912 0.016503 -0.003754 26669.600000 1 0 0
-5.112934 13.077502 8.474273 16.400501 -1.198097 1.027795 0.004000 -0.001931 422992.000000 1 0 0
0.648966 6.031202 8.302573 10.282474 1.463607 0.630981 -0.005342 0.003520 -713095.000000 1 0 0
8.018066 -0.490598 -0.649327 8.059262 -0.061110 1.651453 0.007386 -0.002055 3847830.000000 1 0 0
2.403466 -9.293798 -2.359327 9.885230 -1.317731 1.811794 0.003986 -0.002222 1528920.000000 1 0 0
-7.111634 12.180402 4.826573 14.907492 -1.042330 1.241087 0.001829 -0.002599 778851.000000 1 0 0
-14.971234 0.218502 0.121673 14.973322 -0.014594 1.562670 0.009753 -0.004842 566929.000000 1 0 0
6.863766 -0.482898 3.897273 7.907795 -0.070239 1.055446 0.005258 -0.000601 -352869.000000 1 0 0
-4.255834 -4.993398 5.015473 8.258396 0.864973 0.918116 0.005735 -0.002113 886566.000000 1 0 0
2.901966 5.073502 6.852473 9.006565 1.051231 0.706204 -0.003465 -0.000341 -298352.000000 1 0 0
2.107966 -7.185898 1.777273 7.696711 -1.285454 1.337780 0.007022 0.000090 2762350.000000 1 0 0
-2.508334 6.506402 -1.788027 7.198753 -1.202837 1.821804 0.003643 -0.003644 2577630.000000 1 0 0
2.693366 -3.829198 -6.507727 8.016701 -0.957808 2.517975 0.001236 -0.004472 -117145.000000 1 0 0
-5.149334 0.885902 -12.133227 13.210438 -0.170374 2.734959 0.005051 -0.003555 223110.000000 1 0 0
-7.520734 6.356102 -11.912627 15.455489 -0.701668 2.450845 0.008594 -0.009138 2781360.000000 1 0 0
-1.042534 11.114002 -9.047227 14.368724 -1.477266 2.251895 0.001821 -0.002880 2048780.000000 1 0 0
4.637466 5.935202 -0.548827 7.552081 0.907532 1.643533 0.006768 -0.000791 1171550.000000 1 0 0
-2.615034 13.434902 3.616373 14.156735 -1.378555 1.312481 -0.008357 0.007703 16102.000000 1 0 0
1.394366 -7.950098 10.148273 12.966717 -1.397172 0.671900 0.007016 -0.002692 -842989.000000 1 0 0
12.978266 -0.271498 -1.026527 13.021631 -0.020916 1.649711 0.007319 0.000025 598945.000000 1 0 0
-1.013734 3.139402 -5.401927 6.329638 -1.258459 2.593335 0.009836 -0.009262 1373800.000000 1 0 0
6.542166 1.045302 7.323873 9.875814 0.158440 0.735349 0.003014 -0.000331 2039420.000000 1 0 0
5.580366 -6.180698 6.839873 10.776149 -0.836398 0.883146 0.007906 -0.003137 -534277.000000 1 0 0
12.292266 -4.850098 2.646673 13.476949 -0.375812 1.373126 0.003367 0.000903 -1031250.000000 1 0 0
4.299066 -9.254798 13.787073 17.152744 -1.135931 0.637170 0.014552 -0.002395 951813.000000 1 0 0
-2.787634 -4.360798 -1.379427 5.356331 1.002016 1.831264 0.011211 -0.005666 1307880.000000 1 0 0
-9.331234 -5.149698 -7.590327 13.084509 0.504284 2.189648 0.014277 -0.007729 -27042.800000 1 0 0
-10.620534 -3.115198 7.812273 13.547391 0.285316 0.956159 -0.000420 -0.001636 -1382040.000000 1 0 0
12.111166 -0.586898 1.701973 12.244244 -0.048421 1.431343 -0.000210 0.003286 379079.000000 1 0 0
-7.673734 4.757302 4.282973 9.993096 -0.554957 1.127861 0.005629 -0.002792 2266140.000000 1 0 0
-1.128134 10.572802 6.987273 12.723160 -1.464497 0.989417 -0.004878 0.005534 2739660.000000 1 0 0
7.450866 -10.018198 1.912873 12.630867 -0.931318 1.418767 0.004274 0.000695 4542980.000000 1 0 0
-4.275034 -1.712198 1.664473 4.896734 0.380947 1.223970 0.005351 -0.001030 1956960.000000 1 0 0
6.673566 -15.002898 -0.936327 16.446889 -1.152260 1.627757 0.021045 -0.002578 -821151.000000 1 0 0
-10.580134 1.630302 2.313173 10.952072 -0.152888 1.357985 0.000603 -0.000483 826637.000000 1 0 0
-3.038934 8.288102 -11.340627 14.371415 -1.219355 2.480155 0.003521 -0.002482 1180100.000000 1 0 0
-1.318334 -5.050098 -6.888227 8.642290 1.315444 2.493170 -0.000096 -0.003807 223116.000000 1 0 0
12.849166 -0.531498 6.544073 14.429430 -0.041341 1.100083 0.008628 -0.004528 3218400.000000 1 0 0
5.963866 -13.313698 3.841273 15.085677 -1.149649 1.313331 0.006497 -0.003375 967228.000000 1 0 0
-5.654834 3.491502 -5.011227 8.323468 -0.553142 2.216875 0.009954 -0.005742 4085310.000000 1 0 0
-4.339434 8.128502 3.390873 9.818413 -1.080434 1.218176 -0.001079 0.000867 -525212.000000 1 0 0
14.154866 6.237202 -4.019427 15.981825 0.415043 1.825026 0.013812 0.004014 139360.000000 1 0 0
-6.832234 -8.460898 5.360473 12.124392 0.891495 1.112832 0.005744 -0.003138 823931.000000 1 0 0
1.645466 11.288202 2.722373 11.727846 1.426047 1.336530 -0.002172 -0.000960 266817.000000 1 0 0
-7.327434 7.205102 5.984273 11.891858 -0.776981 1.043470 0.002896 -0.004140 -159186.000000 1 0 0
-17.413634 -3.949498 5.116273 18.574429 0.223032 1.291742 0.023645 -0.009545 -88344.100000 1 0 0
7.502866 -13.043598 -8.555327 17.309595 -1.048801 2.087772 0.009040 0.002376 -1569940.000000 1 0 0
-2.258134 12.904002 -2.796927 13.395344 -1.397556 1.781143 -0.005288 0.001757 1538410.000000 1 0 0
-5.447134 13.847002 -5.783627 15.964369 -1.196010 1.941513 0.004697 -0.002326 2017590.000000 1 0 0
-5.599434 2.384302 7.295873 9.500963 -0.402558 0.695226 0.003031 -0.000801 960505.000000 1 0 0
-7.360334 5.127002 1.395473 9.077885 -0.608422 1.416462 0.006311 -0.001646 606683.000000 1 0 0
10.713466 -5.682298 -5.031327 13.129400 -0.487662 1.964066 0.017314 -0.004526 2730230.000000 1 0 0
-9.537434 -0.800098 6.720673 11.694881 0.083694 0.958598 -0.004323 -0.003237 1104340.000000 1 0 0
-11.257934 -4.585998 -2.682227 12.448566 0.386833 1.787964 0.002051 -0.005976 311276.000000 1 0 0
6.624366 -4.387098 13.423073 15.598325 -0.584950 0.534456 0.020963 -0.007379 -449034.000000 1 0 0
0.267166 10.210702 -11.600127 15.456156 1.544637 2.419642 0.005251 -0.002749 -863487.000000 1 0 0
-11.757034 -3.264098 1.381973 12.279740 0.270809 1.458017 0.001184 -0.004234 2855030.000000 1 0 0
5.209866 5.968802 5.464473 9.624436 0.853186 0.967001 0.001106 0.000155 -3138950.000000 1 0 0
-7.153934 -0.001998 8.014673 10.743079 0.000279 0.728714 -0.001475 -0.001751 -304816.000000 1 0 0
1.770666 2.017202 9.649273 10.015629 0.850392 0.271307 0.000661 -0.002306 2424540.000000 1 0 0
10.536966 -4.868398 -2.049527 11.786837 -0.432813 1.745567 0.004297 -0.001004 2332200.000000 1 0 0
-9.716434 -2.421898 -1.727427 10.161628 0.244280 1.741621 0.002167 -0.003151 -801816.000000 1 0 0
-1.920534 -5.217398 -9.930127 11.380559 1.218087 2.631198 0.005583 -0.002831 2229190.000000 1 0 0
7.659466 -1.648098 6.462673 10.156269 -0.211940 0.881073 0.006108 -0.003297 1559570.000000 1 0 0
1.595466 -11.901498 -2.577627 12.281504 -1.437535 1.782247 0.002227 0.001416 -3346280.000000 1 0 0
-0.810034 -1.471698 4.838073 5.121425 1.067640 0.334200 0.009624 -0.000631 1578870.000000 1 0 0
7.651166 1.456402 9.914373 12.607785 0.188100 0.665887 0.002378 -0.002091 542455.000000 1 0 0
-3.889934 10.703302 -7.987627 13.910228 -1.222205 2.182456 0.001664 -0.001505 2626490.000000 1 0 0
-9.541734 12.564302 6.394273 17.023310 -0.921286 1.185732 0.005350 -0.009776 556621.000000 1 0 0
-2.568334 -2.460998 -11.021427 11.581222 0.764060 2.829404 0.008923 -0.005002 -851473.000000 1 0 0
1.127966 -12.012798 11.060773 16.368272 -1.477174 0.828822 0.004232 0.002223 2096550.000000 1 0 0
1.392166 3.465802 -2.040627 4.256063 1.188837 2.070840 0.007262 -0.004187 4512230.000000 1 0 0
-1.938234 -9.399898 -12.149427 15.483004 1.367449 2.472999 -0.001803 0.003611 1697930.000000 1 0 0
1.263066 -2.695698 1.554173 3.358211 -1.132625 1.089648 0.013285 -0.002359 3457940.000000 1 0 0
-1.034134 -2.186598 -6.556227 6.988187 1.129029 2.788151 0.007061 -0.009254 610493.000000 1 0 0
1.769466 5.839402 4.039373 7.317524 1.276569 0.986019 -0.004724 -0.000289 -228814.000000 1 0 0
-10.990934 8.584202 3.629173 14.410414 -0.663064 1.316211 0.002397 -0.006578 1661990.000000 1 0 0
-16.396734 -1.504498 3.896873 16.920461 0.091500 1.338405 0.019109 -0.006085 -1485840.000000 1 0 0
-12.207434 0.223202 6.670773 13.912960 -0.018282 1.070752 0.001907 -0.003120 581651.000000 1 0 0
-5.135234 3.054302 4.530173 7.498123 -0.536568 0.922067 0.003888 -0.000218 2385750.000000 1 0 0
5.249566 -6.050898 3.899173 8.909257 -0.856191 1.117808 0.007538 -0.003201 2512330.000000 1 0 0
9.916866 3.414902 6.299273 12.234649 0.331635 1.029939 0.002239 0.004151 1583610.000000 1 0 0
-12.243134 5.841802 3.184473 13.934196 -0.445200 1.340222 0.005576 -0.005628 1731060.000000 1 0 0
-4.835934 12.423302 -1.221027 13.387143 -1.199580 1.662132 -0.007825 0.003487 2458740.000000 1 0 0
-1.718534 -12.243898 10.248173 16.058999 1.431349 0.878693 0.003867 -0.004442 973313.000000 1 0 0
5.138466 6.243402 13.926873 16.104089 0.882173 0.526037 0.006264 -0.003025 1058190.000000 1 0 0
12.910166 -3.709498 -5.984527 14.705351 -0.279794 1.989923 0.017229 -0.001480 790343.000000 1 0 0
3.461766 -2.544198 6.444473 7.745192 -0.633794 0.587983 0.006385 -0.001772 1737160.000000 1 0 0
7.215466 -11.834398 -0.675927 13.877061 -1.023273 1.619524 0.008155 0.001110 -1242970.000000 1 0 0
-6.096234 -6.554898 -4.143327 9.863971 0.821637 2.004293 0.013626 -0.008712 524121.000000 1 0 0
0.231466 -8.961498 5.118473 10.322829 -1.544973 1.051994 0.012897 -0.004124 2255580.000000 1 0 0
-10.416234 2.474402 -0.428027 10.714653 -0.233229 1.610755 0.001493 0.001119 -1018180.000000 1 0 0
-1.846334 9.020402 -0.413327 9.216693 -1.368901 1.615657 0.002456 -0.002526 -8138.110000 1 0 0
-3.460234 2.301502 -6.638227 7.831742 -0.586937 2.582253 0.013226 -0.011576 1550620.000000 1 0 0
-12.708334 2.944702 6.368673 14.516646 -0.227696 1.116628 0.007860 -0.008833 604427.000000 1 0 0
11.425166 1.607102 7.980973 14.029010 0.139746 0.965640 0.008510 -0.005839 -1894630.000000 1 0 0
6.090766 2.694002 -3.129027 7.358389 0.416440 2.010015 0.006469 -0.001738 919888.000000 1 0 0
10.520766 -2.512998 6.471173 12.604672 -0.234468 1.031660 0.006728 -0.004541 3543900.000000 1 0 0
-1.003234 10.995302 4.084873 11.772396 -1.479806 1.216439 -0.003095 0.003204 1587820.000000 1 0 0
-1.650234 -12.318198 7.404273 14.466670 1.437622 1.033499 0.006089 -0.002997 199841.000000 1 0 0
8.174666 8.700002 -7.765427 14.241386 0.816520 2.147510 0.002725 -0.001466 3085790.000000 1 0 0
-4.643834 -5.985598 -8.735127 11.562657 0.910965 2.427153 0.007720 -0.003492 -578949.000000 1 0 0
-8.536134 -5.305798 -11.610027 15.356100 0.556128 2.428058 0.010838 0.002214 1409220.000000 1 0 0
6.057066 -0.562298 -9.892627 11.613282 -0.092568 2.590279 0.006034 -0.000556 -562816.000000 1 0 0
-11.222634 -5.452998 -5.406827 13.598400 0.452298 1.979704 0.008737 -0.009731 -221879.000000 1 0 0
3.870066 8.911002 -2.704127 10.084427 1.161073 1.842267 0.010114 -0.004820 2108590.000000 1 0 0
11.751366 -10.453898 -4.011827 16.231863 -0.727034 1.820542 0.022772 -0.002311 453533.000000 1 0 0
3.940866 -11.333398 3.886673 12.612794 -1.236153 1.257545 0.006216 0.000289 400566.000000 1 0 0
-0.989234 0.925802 3.227973 3.500785 -0.752287 0.397398 0.005819 -0.001867 -1503290.000000 1 0 0
-10.677534 -5.166098 4.452473 12.669760 0.450627 1.211703 0.006451 -0.005631 2790970.000000 1 0 0
4.622666 -8.720298 2.751173 10.246053 -1.083356 1.298950 0.006500 -0.000399 4470720.000000 1 0 0
-3.714534 -5.718798 2.533473 7.274675 0.994751 1.215083 0.007757 -0.001911 1968240.000000 1 0 0
9.994466 5.037102 12.352073 16.668397 0.466834 0.736167 0.020557 -0.003402 2206630.000000 1 0 0
1.611266 -12.338798 -5.324827 13.534988 -1.440946 1.975136 0.002547 -0.000314 2351780.000000 1 0 0
9.902266 -10.808898 -1.713127 14.758793 -0.829145 1.687134 0.012641 -0.001927 605756.000000 1 0 0
9.677866 -4.424598 -9.193827 14.062881 -0.428815 2.283346 0.020589 -0.008626 2827740.000000 1 0 0
-7.434534 -3.071598 -13.130127 15.398287 0.391793 2.591929 0.009556 0.002818 758374.000000 1 0 0
0.417566 6.210702 -2.462727 6.694192 1.503664 1.947535 0.005546 -0.004706 2457550.000000 1 0 0
-5.950734 -9.595998 0.992973 11.334920 1.015709 1.483081 0.009111 -0.002964 941361.000000 1 0 0
-9.020334 -4.132998 0.523173 9.935885 0.429641 1.518117 -0.001301 -0.003856 2596940.000000 1 0 0
1.762966 3.781202 12.091973 12.791456 1.134515 0.332233 -0.001965 -0.005705 543939.000000 1 0 0
6.662866 4.227402 9.621873 12.443679 0.565382 0.686871 0.000517 0.000390 1316140.000000 1 0 0
-8.250634 9.879802 -3.591427 13.363450 -0.875016 1.842891 0.002721 0.000526 2293020.000000 1 0 0
16.463366 2.144302 -6.111127 17.691420 0.129518 1.923492 0.019915 0.000414 -1281340.000000 1 0 0
-10.979334 2.636402 -5.140227 12.406382 -0.235662 1.997993 0.003821 0.001394 669815.000000 1 0 0
-13.908934 4.059402 1.434573 14.560054 -0.283968 1.472108 0.008876 -0.001291 961293.000000 1 0 0
-17.441734 10.374902 3.341473 20.567404 -0.536611 1.407609 0.046628 -0.019020 278134.000000 1 0 0
-14.447034 2.874702 -1.218927 14.780611 -0.196417 1.653358 0.008780 -0.001458 458257.000000 1 0 0
-14.437734 5.038902 5.131873 16.129935 -0.335792 1.247010 0.013613 -0.005556 -58874.600000 1 0 0
-17.454034 7.454102 3.007673 19.215957 -0.403623 1.413631 0.032449 -0.008320 -1076490.000000 1 0 0
-15.116234 12.580502 -3.339627 19.947999 -0.694099 1.739005 0.056739 -0.016335 -404136.000000 1 0 0
-8.465234 12.462502 -9.587227 17.857465 -0.974128 2.137525 0.011772 -0.016775 -668437.000000 1 0 0
-12.598534 8.842502 -9.954427 18.330398 -0.611978 2.144868 0.006799 -0.002796 -933201.000000 1 0 0
-13.863534 -3.489998 -12.249127 18.826013 0.246615 2.279235 0.017821 -0.000276 -690558.000000 1 0 0
-14.825934 5.918702 -7.630227 17.693493 -0.379828 2.016668 0.014621 0.000316 -980902.000000 1 0 0
-10.819434 13.502602 -8.293727 19.187660 -0.895272 2.017775 0.016732 -0.017174 434602.000000 1 0 0
-10.941234 13.629602 3.990773 17.927713 -0.894378 1.346312 0.017240 -0.004128 -816990.000000 1 0 0
-15.349734 3.282802 3.038273 15.988190 -0.210693 1.379601 0.011567 -0.001504 -293242.000000 1 0 0
-11.167434 9.456002 -12.512727 19.253464 -0.702603 2.278242 -0.000600 -0.003558 397741.000000 1 0 0
-13.024234 11.588002 -9.014927 19.626038 -0.727110 2.048043 0.015001 -0.019497 264158.000000 1 0 0
-8.787634 14.607902 -3.529027 17.408829 -1.029225 1.774926 0.012591 -0.010781 -286855.000000 1 0 0
-16.667334 8.212302 -4.049227 19.016786 -0.457805 1.785368 0.035212 -0.010658 -1746210.000000 1 0 0
-16.875034 6.745402 0.163573 18.173991 -0.380271 1.561796 0.034721 -0.003346 -1986000.000000 1 0 0
-10.483834 2.908502 -12.517027 16.584515 -0.270621 2.426057 0.011692 -0.009588 -268944.000000 1 0 0
-16.922734 0.888902 2.320773 17.104240 -0.052479 1.434692 0.017868 -0.006058 414298.000000 1 0 0
-12.695934 1.232802 -7.032027 14.565574 -0.096799 2.074627 0.005434 -0.002083 807870.000000 1 0 0
-12.317034 9.056302 -5.391227 16.210837 -0.634005 1.909823 0.013399 -0.004947 -1605420.000000 1 0 0
-9.708334 13.933602 1.324573 17.033834 -0.962250 1.492956 0.026937 -0.007157 -456231.000000 1 0 0
-12.257334 11.154602 2.803773 16.808584 -0.738332 1.403207 0.014229 -0.007170 -1065540.000000 1 0 0
-12.578534 6.842702 -3.654627 14.778308 -0.498224 1.820686 0.004782 -0.001396 -239478.000000 1 0 0
-16.054634 3.931102 -9.517927 19.073431 -0.240133 2.093258 0.028893 0.000157 -474737.000000 1 0 0
-15.112134 5.841502 -4.689627 16.866900 -0.368853 1.852547 0.020781 0.000785 -331014.000000 1 0 0
-18.025034 5.396102 7.385373 20.212953 -0.290876 1.196757 0.038319 -0.013523 -483236.000000 1 0 0
-15.737434 10.090402 -2.000327 18.801179 -0.570144 1.677392 0.043890 -0.010570 -1916780.000000 1 0 0
-8.856934 9.889602 -8.302927 15.658483 -0.840428 2.129693 0.006913 -0.010172 103340.000000 1 0 0
-17.062434 4.252402 -1.416127 17.641286 -0.244250 1.651156 0.024892 -0.001247 -391834.000000 1 0 0
-10.225334 5.377902 -4.652527 12.454930 -0.484183 1.953628 0.004463 0.000694 -75211.000000 1 0 0
-18.314534 2.780702 6.040173 19.484305 -0.150680 1.255601 0.044666 -0.011060 -326422.000000 1 0 0
-10.334434 10.148702 -5.691927 15.562606 -0.776331 1.945228 0.003124 -0.005439 1496600.000000 1 0 0
-15.434134 0.431002 -5.996227 16.563604 -0.027918 1.941222 0.011150 0.001741 1644890.000000 1 0 0
-16.418234 -4.204698 -9.060327 19.217893 0.250711 2.061734 0.025174 -0.011270 -1754900.000000 1 0 0
-9.957634 9.616102 -1.071227 13.884214 -0.767951 1.648027 0.004408 -0.000238 1521530.000000 1 0 0
-17.405334 -2.963598 -3.244127 17.951404 0.168652 1.752512 0.015870 -0.002937 914940.000000 1 0 0
-12.006234 5.101702 -11.529727 17.410101 -0.401804 2.294605 0.010567 -0.005870 -1022330.000000 1 0 0
-16.448434 7.045902 5.695273 18.778494 -0.404716 1.262656 0.033093 -0.010012 486138.000000 1 0 0
-12.223434 6.003402 -8.837827 16.234542 -0.456533 2.146451 0.008869 -0.001918 2082440.000000 1 0 0
-14.578034 8.303002 -0.014927 16.776743 -0.517733 1.571686 0.027838 -0.004211 -1039210.000000 1 0 0
-14.892734 11.762702 3.985473 19.391716 -0.668508 1.363797 0.021388 -0.019516 1875180.000000 1 0 0
-17.289334 4.156302 -4.190027 18.268887 -0.235920 1.802209 0.020380 -0.000577 -1025570.000000 1 0 0
-13.896434 13.375502 -0.807527 19.304585 -0.766299 1.612639 0.037785 -0.009429 -431537.000000 1 0 0
-10.146834 6.816902 -13.054627 17.884398 -0.591566 2.389038 0.002070 -0.009783 1015870.000000 1 0 0
-15.904434 -1.147798 -8.501027 18.070305 0.072044 2.060588 0.011767 -0.004946 -45116.400000 1 0 0
-11.472834 11.916202 -0.035927 16.541556 -0.804352 1.572968 0.026369 -0.008942 1475460.000000 1 0 0
-11.943034 7.411602 -0.892127 14.084168 -0.555414 1.634181 0.004341 0.001668 1670550.000000 1 0 0
-11.448834 0.215202 -11.743127 16.401925 -0.018795 2.368795 0.007838 -0.005872 68516.400000 1 0 0
-19.128434 -1.133698 -4.833427 19.762193 0.059198 1.817882 0.018776 -0.000462 -1374770.000000 1 0 0
-17.969634 1.577502 -5.238727 18.784049 -0.087563 1.853437 0.011606 0.003303 399257.000000 1 0 0
-13.435034 -0.021598 -9.612127 16.519491 0.001608 2.191817 0.013466 -0.001906 170422.000000 1 0 0
-6.133234 11.278402 -13.168827 18.391218 -1.072723 2.368908 -0.001884 -0.001139 -109570.000000 1 0 0
16.247766 5.758102 7.129173 18.653974 0.340583 1.178642 0.030995 -0.005255 -1082180.000000 1 0 0
14.818666 10.359002 -5.438827 18.880748 0.610089 1.862999 0.029021 -0.005967 1477610.000000 1 0 0
2.387666 16.844302 4.370373 17.565068 1.429985 1.319344 0.010771 -0.003075 3011270.000000 1 0 0
-3.858634 18.179802 -5.822727 19.475585 -1.361652 1.874415 -0.004631 -0.007476 702322.000000 1 0 0
5.430166 14.482302 5.643373 16.464247 1.212068 1.220937 0.014783 -0.004880 -318370.000000 1 0 0
9.848066 5.891602 15.144073 19.001008 0.539131 0.648461 0.025829 -0.003767 -767949.000000 1 0 0
4.720566 12.708102 -1.121427 13.602838 1.215132 1.653331 0.007887 -0.007083 1595870.000000 1 0 0
3.457566 13.659502 12.872673 19.085137 1.322878 0.830527 0.013089 -0.006046 214801.000000 1 0 0
-0.785834 12.336302 9.279873 15.456970 -1.507181 0.926835 -0.002186 0.004187 1613480.000000 1 0 0
-7.804634 13.923202 8.297073 17.989143 -1.059890 1.091419 0.012516 -0.011993 1935350.000000 1 0 0
11.480066 12.868002 -4.101327 17.725639 0.842340 1.804290 0.020972 -0.007229 -1317450.000000 1 0 0
-5.769434 16.265202 0.793673 17.276373 -1.229931 1.524840 0.004074 0.003355 -51810.800000 1 0 0
3.179666 10.518902 6.787973 12.916429 1.277248 1.017458 -0.000435 0.003794 1537330.000000 1 0 0
-1.182134 15.549202 2.427573 15.781895 -1.494917 1.416363 -0.004405 0.004227 -1547280.000000 1 0 0
9.896566 8.781002 9.585873 16.338206 0.725742 0.943800 0.015443 -0.005909 2185150.000000 1 0 0
7.242766 12.275302 6.310473 15.587263 1.037742 1.153984 0.014994 -0.008049 965616.000000 1 0 0
11.927166 14.009402 -1.547127 18.463863 0.865508 1.654687 0.022813 -0.009406 -1082140.000000 1 0 0
9.633466 15.776602 -1.181127 18.522956 1.022607 1.634605 0.014052 -0.012987 633061.000000 1 0 0
10.150366 13.744602 2.995173 17.346904 0.934697 1.397263 0.012623 -0.005663 2101200.000000 1 0 0
-5.975434 14.564702 6.274973 16.947319 -1.181470 1.191504 -0.002087 -0.002872 -135593.000000 1 0 0
-0.985634 18.270702 -6.262227 19.339222 -1.516902 1.900550 0.012463 -0.002377 509478.000000 1 0 0
-3.482834 15.737202 5.468073 17.020266 -1.352995 1.243728 -0.007942 0.004755 1156000.000000 1 0 0
7.052866 12.125002 10.702173 17.643557 1.043957 0.919049 0.009326 -0.003936 3570160.000000 1 0 0
1.481466 14.627802 6.223073 15.965399 1.469863 1.170398 0.004216 0.001665 1516330.000000 1 0 0
17.540466 7.764702 -1.400327 19.233291 0.416745 1.643668 0.024027 0.015531 1130190.000000 1 0 0
2.077366 16.219702 -3.331027 16.688017 1.443413 1.771752 0.001435 -0.002335 1966500.000000 1 0 0
6.748366 11.253102 0.719973 13.141199 1.030605 1.515981 0.013785 -0.004735 2335610.000000 1 0 0
12.771466 9.445002 3.237173 16.211036 0.636773 1.369755 0.002523 0.004877 -2616430.000000 1 0 0
6.114066 14.403402 -3.376527 16.007521 1.169360 1.783326 0.003882 -0.003297 1832220.000000 1 0 0
3.124466 16.534702 1.548973 16.898460 1.384034 1.479004 0.009835 -0.009498 -1423770.000000 1 0 0
2.849466 18.813802 -2.519227 19.194403 1.420483 1.702424 0.008157 -0.015591 -1339760.000000 1 0 0
3.920566 11.793102 10.700173 16.399444 1.249845 0.859955 0.007970 -0.002844 2557790.000000 1 0 0
8.096266 11.584902 3.481673 14.556151 0.960833 1.329266 0.011345 -0.004372 1070990.000000 1 0 0
0.799066 12.398502 0.196673 12.425781 1.506437 1.554968 0.003896 -0.003188 -605036.000000 1 0 0
11.998766 9.985102 -4.570227 16.265289 0.694056 1.855612 0.013881 -0.002766 13020.400000 1 0 0
-1.368134 16.459602 10.066873 19.342497 -1.487866 1.023414 0.005386 0.003397 -819487.000000 1 0 0
8.092666 14.840702 -8.010427 18.705738 1.071567 2.013334 0.008012 0.002043 1455020.000000 1 0 0
14.593866 7.607502 -1.364227 16.514119 0.480527 1.653500 0.007534 0.006594 295636.000000 1 0 0
12.554366 8.429402 6.041073 16.283780 0.591294 1.190725 0.005323 -0.000529 550064.000000 1 0 0
-3.088234 14.228202 10.326573 17.849846 -1.357061 0.953878 0.007447 -0.002389 2397140.000000 1 0 0
-4.662234 17.138302 -3.141127 18.036754 -1.305188 1.745840 0.010402 -0.005187 664714.000000 1 0 0
-7.206534 16.431602 -1.801427 18.032659 -1.157482 1.670861 0.013564 -0.003116 152911.000000 1 0 0
8.389966 11.261302 -1.776427 14.155004 0.930486 1.696626 0.016230 -0.005074 89516.600000 1 0 0
8.595266 12.924802 -4.133527 16.062850 0.983934 1.831059 0.014866 -0.003038 1927730.000000 1 0 0
2.534766 14.788802 -7.335127 16.701431 1.401048 2.025495 0.002348 -0.002546 -411977.000000 1 0 0
11.365066 11.216602 9.884573 18.779821 0.778824 1.016506 0.020650 -0.009804 820295.000000 1 0 0
8.536066 15.669802 1.486773 17.905798 1.071996 1.487668 0.010659 -0.012014 617538.000000 1 0 0
6.010866 9.884302 7.782173 13.942458 1.024426 0.978625 0.010677 0.000843 2369330.000000 1 0 0
14.532066 11.508702 2.612473 18.720475 0.669814 1.430788 0.019701 0.004638 1151970.000000 1 0 0
12.144966 12.614902 1.115373 17.546510 0.804376 1.507187 0.016108 -0.004224 2560970.000000 1 0 0
5.251466 15.705702 8.251973 18.502487 1.248116 1.108513 0.022679 -0.004993 -1609890.000000 1 0 0
11.669566 14.934602 5.142473 19.638384 0.907514 1.305849 0.023884 -0.008200 -739323.000000 1 0 0
5.971466 16.877102 1.757273 17.988412 1.230722 1.472951 0.006153 -0.013440 -729182.000000 1 0 0
-0.701134 16.172302 -4.270927 16.741438 -1.527469 1.828759 0.001951 -0.002107 1199540.000000 1 0 0
16.059466 6.512602 2.636273 17.529129 0.385265 1.419830 0.006184 0.012377 137891.000000 1 0 0
7.689966 16.805202 -3.133627 18.744866 1.141645 1.738758 0.000675 -0.003812 1121020.000000 1 0 0
14.838366 8.162402 7.594773 18.560239 0.502910 1.149224 0.029675 -0.001783 -472200.000000 1 0 0
2.051066 12.874802 8.572873 15.603254 1.412815 0.989116 0.003788 0.001786 1360080.000000 1 0 0
16.053366 7.651302 -5.824427 18.713015 0.444767 1.887304 0.023697 0.003456 -460392.000000 1 0 0
-2.953634 17.066502 0.668473 17.333098 -1.399428 1.532221 -0.007865 0.004108 1390390.000000 1 0 0
-2.928934 18.577502 4.518973 19.342268 -1.414423 1.334985 -0.011838 0.002873 93523.800000 1 0 0
-0.835634 19.112502 0.844973 19.149412 -1.527102 1.526657 -0.006380 0.001603 -754717.000000 1 0 0
6.965866 16.836802 -6.030927 19.193053 1.178511 1.890436 0.008244 0.000071 433008.000000 1 0 0
11.089366 10.066902 0.811173 14.999152 0.737107 1.516689 0.005175 -0.001942 -1808790.000000 1 0 0
9.067866 8.632602 14.362573 19.053386 0.760813 0.716960 0.027653 -0.009485 724244.000000 1 0 0
6.375466 12.400702 -8.327527 16.241049 1.095916 2.109176 0.015214 -0.003966 1113520.000000 1 0 0
6.284166 8.869702 13.327473 17.198369 0.954390 0.684197 0.008730 -0.007344 1481940.000000 1 0 0
16.684066 9.525602 2.977073 19.441145 0.518778 1.417059 0.017264 0.009093 -2206210.000000 1 0 0
2.596366 14.683502 -0.739127 14.929590 1.395783 1.620324 0.006851 -0.007145 -320730.000000 1 0 0
9.151566 12.846202 8.494073 17.914389 0.951800 1.076800 0.020198 -0.008569 2402630.000000 1 0 0
7.138666 9.215602 10.527373 15.707114 0.911718 0.836278 0.007283 -0.005139 698863.000000 1 0 0
4.308966 15.778902 -5.291827 17.191404 1.304212 1.883695 0.004370 -0.003380 2019910.000000 1 0 0
0.192766 16.360402 -8.233127 18.316230 1.559014 2.037001 0.005689 0.000608 895887.000000 1 0 0
-2.446034 15.767202 -2.013727 16.082376 -1.416889 1.696339 -0.006385 0.003282 25907.500000 1 0 0
13.428866 10.465502 7.860373 18.752243 0.662009 1.138266 0.022800 -0.005063 1360400.000000 1 0 0
-1.001434 15.968902 7.110973 17.509272 -1.508167 1.152586 0.002523 0.004245 1347860.000000 1 0 0
13.350666 13.253302 6.815173 20.008420 0.781738 1.223225 0.026867 -0.009179 288865.000000 1 0 0
5.348566 17.349202 4.587273 18.725518 1.271752 1.323303 0.018684 -0.005967 1425830.000000 1 0 0
10.833766 9.500402 -1.851927 14.527827 0.719919 1.698619 0.005894 0.001706 1246950.000000 1 0 0
3.185166 12.615002 4.740173 13.847483 1.323475 1.221419 0.004511 0.000865 2339000.000000 1 0 0
-0.161234 18.063502 3.535573 18.406965 -1.561871 1.377517 -0.004335 0.003964 2703260.000000 1 0 0
-7.550434 15.956202 -5.839727 18.593328 -1.128820 1.890280 0.018557 -0.013455 -189081.000000 1 0 0
-12.492034 -9.165898 8.197773 17.529064 0.633013 1.084146 0.016741 -0.007843 -2283190.000000 1 0 0
-13.366434 -11.737598 6.759073 19.029394 0.720606 1.207678 0.022887 -0.008601 -1534140.000000 1 0 0
-6.455234 -12.214398 12.376173 18.548078 1.084614 0.840288 0.015381 -0.008017 -777865.000000 1 0 0
-1.876334 -10.761398 14.353773 18.037714 1.398174 0.650527 -0.000193 -0.007478 1287130.000000 1 0 0
-8.877034 2.793402 10.907873 14.338288 -0.304867 0.706326 0.004193 -0.002008 2163580.000000 1 0 0
0.418066 9.907502 15.310973 18.241690 1.528624 0.574729 0.009828 -0.000039 -261562.000000 1 0 0
0.849966 -6.872098 16.483973 17.879305 -1.447738 0.397690 0.011952 -0.007878 1332170.000000 1 0 0
5.940066 2.275402 17.820073 18.921333 0.365818 0.342857 0.026914 -0.013368 2755520.000000 1 0 0
-5.201134 -2.923298 17.501473 18.490511 0.512048 0.328551 0.015437 -0.014714 322678.000000 1 0 0
-4.372434 8.076502 13.022373 15.935189 -1.074597 0.614245 -0.002187 0.000572 -1060080.000000 1 0 0
-0.077534 -5.044998 18.548473 19.222483 1.555429 0.265596 0.014469 -0.011018 476175.000000 1 0 0
-11.669834 2.090202 11.058973 16.212798 -0.177232 0.820147 0.014942 -0.005448 369590.000000 1 0 0
-3.473534 -6.053798 14.344673 15.952540 1.049881 0.452837 0.011178 -0.010174 453046.000000 1 0 0
-7.497034 -2.224098 14.484073 16.460270 0.288393 0.495058 0.007013 -0.007098 1121640.000000 1 0 0
-6.222934 -1.070798 10.581273 12.322128 0.170404 0.538027 0.003500 -0.002863 739985.000000 1 0 0
-3.978234 2.462702 11.052273 12.001832 -0.554305 0.400459 -0.000119 0.000368 766767.000000 1 0 0
-6.503634 6.191702 13.460373 16.180731 -0.760833 0.588316 -0.002703 -0.002344 369923.000000 1 0 0
-8.997334 5.329302 12.482673 16.284059 -0.534753 0.697333 0.003505 -0.004248 -509836.000000 1 0 0
-12.381834 -2.159498 15.785273 20.177910 0.172672 0.672439 0.022424 0.000802 1870430.000000 1 0 0
-3.556534 -7.715698 16.870373 18.888896 1.138876 0.466524 0.015235 -0.011525 -1346110.000000 1 0 0
-0.638734 -5.401098 14.328673 15.326144 1.453083 0.362771 0.007723 -0.002213 2824400.000000 1 0 0
-14.338434 -2.137898 13.616273 19.888795 0.148012 0.816714 0.030986 0.001787 -1202150.000000 1 0 0
-6.510134 1.454602 12.085873 13.804565 -0.219826 0.504330 0.004218 -0.003809 543844.000000 1 0 0
2.208466 -2.300098 14.508173 14.854455 -0.805719 0.216346 0.005375 -0.000407 -878145.000000 1 0 0
-12.583734 3.995702 9.097473 16.033714 -0.307460 0.967456 0.009228 -0.004637 -823965.000000 1 0 0
-9.212034 -3.048898 12.504373 15.827719 0.319621 0.659938 0.001773 0.000979 2467510.000000 1 0 0
-7.207934 -7.215598 15.200373 18.304931 0.785930 0.590975 0.012821 -0.011078 -1781610.000000 1 0 0
-3.364734 5.949102 19.522873 20.684675 -1.056065 0.336753 0.036822 -0.012535 39909.100000 1 0 0
0.555166 5.350502 16.220973 17.089647 1.467407 0.320209 0.013190 -0.007757 2638390.000000 1 0 0
3.349766 1.440302 16.738173 17.130727 0.406073 0.214492 0.013550 -0.008678 643898.000000 1 0 0
-11.705134 11.368002 7.793873 18.082756 -0.770788 1.125183 0.012619 -0.018526 746142.000000 1 0 0
0.547066 -9.555598 15.363373 18.100883 -1.513608 0.557153 -0.001012 -0.003925 -1358600.000000 1 0 0
-2.630334 -3.627098 18.793073 19.319785 0.943364 0.234041 0.018913 -0.015273 1956410.000000 1 0 0
-12.914834 2.355702 13.698173 18.973197 -0.180419 0.764144 0.019542 -0.010644 316407.000000 1 0 0
-5.446934 -0.586698 15.613973 16.547188 0.107298 0.337448 0.012418 -0.005532 971429.000000 1 0 0
-4.589034 -5.923398 11.677773 13.875022 0.911655 0.570484 0.006827 -0.004763 -229819.000000 1 0 0
2.374566 1.767202 13.946773 14.257420 0.639792 0.209132 0.002090 -0.004068 97775.100000 1 0 0
0.014166 3.200302 14.302373 14.656056 1.566370 0.220136 0.006783 -0.007073 -417990.000000 1 0 0
-13.001934 7.061902 12.147073 19.143461 -0.497563 0.883398 0.013268 -0.003606 1689030.000000 1 0 0
0.768666 1.470902 18.232173 18.307554 1.089247 0.090778 0.011104 -0.007248 213919.000000 1 0 0
-2.066834 6.354802 12.508873 14.181932 -1.256348 0.490646 -0.004629 -0.000563 1146640.000000 1 0 0
-13.592234 -2.682898 10.827773 17.583726 0.194880 0.907416 0.022502 -0.001550 81928.700000 1 0 0
-2.599934 3.588202 13.504473 14.212868 -0.943765 0.317054 -0.000989 -0.002846 358872.000000 1 0 0
3.511666 5.946502 16.350673 17.749287 1.037359 0.399639 0.014328 -0.007463 746162.000000 1 0 0
-3.806834 12.287902 12.319673 17.811761 -1.270370 0.807012 0.003912 -0.007731 32309.400000 1 0 0
3.628766 -1.510798 17.014873 17.462999 -0.394512 0.227033 0.015612 -0.007112 -804078.000000 1 0 0
-15.766634 0.498402 9.036373 18.179416 -0.031601 1.050582 0.036703 -0.012553 -360966.000000 1 0 0
-4.709634 4.605902 15.171073 16.539541 -0.774263 0.409649 0.007901 -0.006722 -681227.000000 1 0 0
-8.081034 -8.249598 10.498473 15.606950 0.795720 0.832972 0.009812 -0.009861 1859330.000000 1 0 0
-2.670634 -0.445598 14.642573 14.890795 0.165328 0.182844 0.006739 -0.002636 2859290.000000 1 0 0
-1.870634 1.002402 17.161773 17.292499 -0.491924 0.123039 0.006171 -0.008723 1589500.000000 1 0 0
-0.757834 -2.531498 14.321673 14.563417 1.279925 0.182458 0.010405 -0.001669 970141.000000 1 0 0
4.982466 -8.306098 16.461973 19.100073 -1.030482 0.531831 0.023731 -0.004290 1309210.000000 1 0 0
-4.495634 9.981902 10.645673 15.270214 -1.147628 0.799378 -0.002036 -0.000227 -941847.000000 1 0 0
-6.242734 2.147702 15.097373 16.477712 -0.331348 0.412229 0.011760 -0.005370 934521.000000 1 0 0
-4.957434 6.751402 17.229473 19.157565 -0.937431 0.452502 0.017900 -0.004466 -376229.000000 1 0 0
-4.125134 9.083702 15.693773 18.596367 -1.144518 0.566255 0.016833 -0.002516 1466810.000000 1 0 0
-4.784834 -9.939898 18.214173 21.294419 1.122158 0.544571 0.029460 -0.015738 506659.000000 1 0 0
-6.940434 -4.066998 11.032873 13.654097 0.530052 0.630002 0.005222 -0.001307 829383.000000 1 0 0
-2.432834 -0.796498 19.413773 19.581819 0.316397 0.131104 0.013287 -0.012059 -1417020.000000 1 0 0
-5.799134 -4.533298 15.208273 16.895925 0.663495 0.450763 0.010920 -0.009957 1106990.000000 1 0 0
-12.898934 -0.022098 9.625573 16.094553 0.001713 0.929713 0.014901 -0.005803 957582.000000 1 0 0
-14.492634 8.822102 10.415673 19.908595 -0.546814 1.020224 0.016966 -0.007832 -1677810.000000 1 0 0
-8.424034 10.503602 12.888473 18.638742 -0.894829 0.807249 0.006978 -0.008429 -1271270.000000 1 0 0
-10.417834 7.121802 10.704673 16.548152 -0.599645 0.867310 0.007064 -0.003179 -1849550.000000 1 0 0
-9.933834 -6.508298 14.706273 18.902737 0.579997 0.679325 0.012866 -0.009664 1203980.000000 1 0 0
-0.637334 -13.446998 14.518573 19.799417 1.523436 0.747659 -0.001920 -0.013601 35340.800000 1 0 0
3.639566 -5.703498 16.887973 18.192854 -1.002812 0.381049 0.027289 -0.009201 2065220.000000 1 0 0
-7.340634 9.370302 10.420073 15.819778 -0.906264 0.851742 0.001344 -0.004447 -66655.700000 1 0 0
-10.354534 -6.704598 11.724773 17.018763 0.574618 0.810782 0.009983 -0.007214 1989920.000000 1 0 0
-11.008434 -3.945098 10.674873 15.833582 0.344112 0.830926 0.005601 0.002073 271895.000000 1 0 0
-10.229434 -10.238398 9.820073 17.489995 0.785836 0.974638 0.021296 -0.012153 925819.000000 1 0 0
-9.961034 -3.574498 15.207373 18.527369 0.344536 0.607976 0.012938 -0.010305 2196000.000000 1 0 0
5.481766 -3.449698 15.972473 17.235721 -0.561688 0.385242 0.022262 -0.007805 -978571.000000 1 0 0
-11.318834 0.546702 15.307873 19.045888 -0.048263 0.637248 0.016850 -0.005061 575187.000000 1 0 0
-3.274534 3.030702 18.860773 19.381343 -0.746746 0.232295 0.015783 -0.012964 122229.000000 1 0 0
0.429766 7.256202 13.992573 15.767982 1.511638 0.479113 0.005406 -0.003237 650197.000000 1 0 0
-13.174934 -7.411998 12.051573 19.332796 0.512453 0.897745 0.009308 -0.004904 -503606.000000 1 0 0
-1.524834 -1.139798 12.056273 12.205653 0.641893 0.156612 0.005633 -0.002722 995486.000000 1 0 0
2.007866 -4.907698 13.062573 14.097795 -1.182448 0.385612 0.008569 -0.003868 2019270.000000 1 0 0
-14.673634 -4.046998 8.531373 17.449299 0.269110 1.059941 0.020414 -0.006909 -1452130.000000 1 0 0
8.021966 0.883002 16.218673 18.115656 0.109632 0.461726 0.023820 -0.011493 1046230.000000 1 0 0
-1.359434 11.251202 13.466173 17.600438 -1.450554 0.699593 0.001562 0.001138 436445.000000 1 0 0
2.915566 -12.135798 -13.770227 18.584867 -1.335020 2.405262 0.000610 0.007292 -802609.000000 1 0 0
0.831166 -10.670998 -14.029927 17.646527 -1.493063 2.489892 -0.006718 0.006121 -2178010.000000 1 0 0
3.326666 -14.294598 -12.354727 19.184409 -1.342144 2.270510 0.006753 0.008437 -213675.000000 1 0 0
-5.085034 -10.236998 -16.219527 19.842550 1.109767 2.527699 0.011710 -0.001581 -253674.000000 1 0 0
-1.014534 -12.222098 -15.027327 19.396637 1.487978 2.457098 0.003303 0.002766 -191668.000000 1 0 0
5.851766 -15.055998 -11.803927 20.006473 -1.200098 2.201862 -0.003225 0.014048 1620380.000000 1 0 0
2.049566 -11.974298 -16.108827 20.176196 -1.401275 2.495442 0.004080 0.006064 -560099.000000 1 0 0
1.384766 -14.310198 -14.004927 20.070808 -1.474329 2.343084 0.020039 0.010717 -719671.000000 1 0 0
-1.067634 -10.733698 -15.977927 19.278130 1.471657 2.547776 -0.005845 0.004782 -551897.000000 1 0 0
-5.823134 -5.673698 -15.381027 17.397579 0.772401 2.655340 0.017358 0.006850 -39970.200000 1 0 0
-6.356034 -7.571898 -16.887827 19.568636 0.872474 2.611984 0.019176 0.011622 153781.000000 1 0 0
5.080266 -12.604698 -11.336427 17.697517 -1.187667 2.266031 -0.001602 0.008030 55094.900000 1 0 0
-1.587234 -15.565598 -13.091627 20.400928 1.469177 2.267532 0.030883 0.001357 143102.000000 1 0 0
15.831466 -7.356698 -8.824827 19.561031 -0.435001 2.038842 0.041842 -0.001153 436356.000000 1 0 0
19.255566 -3.587398 -3.828227 19.957495 -0.184193 1.763812 0.045616 -0.017895 582641.000000 1 0 0
15.099366 -11.611498 -8.789727 20.978014 -0.655554 2.003137 0.059916 -0.017365 999842.000000 1 0 0
18.434366 -3.571998 -6.293427 19.803845 -0.191397 1.894192 0.097843 -0.005161 972199.000000 1 0 0
9.512866 -8.863898 -15.334127 20.104696 -0.750098 2.438295 0.057500 -0.027349 192813.000000 1 0 0
1.336166 1.917802 -15.199727 15.378395 0.962277 2.989011 0.015391 -0.002418 266928.000000 1 0 0
4.787266 -4.330298 -13.809227 15.243496 -0.735321 2.704319 0.003316 -0.004566 137918.000000 1 0 0
13.184466 -5.511398 -8.635627 16.696698 -0.395945 2.114379 0.040232 -0.003936 -1506080.000000 1 0 0
2.926866 0.954302 -12.243927 12.625015 0.315180 2.895267 0.009035 -0.001966 -1983170.000000 1 0 0
0.657366 6.328702 -13.070127 14.536603 1.467297 2.688548 0.014583 -0.002968 156931.000000 1 0 0
3.125266 -1.173798 -16.739627 17.069277 -0.359282 2.944743 0.020040 -0.003538 -109324.000000 1 0 0
13.228166 4.297302 -11.348327 17.950925 0.314105 2.255168 0.008941 -0.002325 789051.000000 1 0 0
-4.052234 9.464202 -16.343227 19.315610 -1.166249 2.579450 0.010539 0.003550 -67881.000000 1 0 0
-0.218734 -5.072398 -17.651027 18.366705 1.527701 2.861515 0.004419 -0.005651 367172.000000 1 0 0
-0.454134 -8.637198 -17.604927 19.614813 1.518266 2.684937 -0.003916 0.002522 -2752600.000000 1 0 0
5.645966 -10.147398 -12.129227 16.791807 -1.063056 2.377962 0.001300 0.000507 326846.000000 1 0 0
1.694666 -9.798998 -18.013127 20.575836 -1.399547 2.637164 0.003223 -0.005334 -750939.000000 1 0 0
11.110066 8.687802 -14.433827 20.180358 0.663653 2.367766 0.041309 -0.011317 89790.000000 1 0 0
10.878866 -3.719898 -12.824727 17.223850 -0.329475 2.410719 0.021618 -0.016425 416299.000000 1 0 0
5.012066 7.465702 -12.335227 15.264840 0.979561 2.511683 0.006605 -0.002365 -377841.000000 1 0 0
9.472266 -5.891298 -12.487827 16.744464 -0.556405 2.412514 0.015780 -0.012420 -1612660.000000 1 0 0
-3.365034 0.405702 -15.827727 16.186569 -0.119985 2.930635 0.012088 -0.004415 -74299.800000 1 0 0
-0.750334 10.660502 -12.708127 16.604391 -1.500528 2.442377 0.004238 -0.001158 -2691450.000000 1 0 0
6.667166 -5.527698 -12.364127 15.095635 -0.692230 2.530555 0.008526 -0.005673 -34183.000000 1 0 0
17.923666 -6.170198 -7.912927 20.541265 -0.331542 1.966244 0.047011 -0.010555 1011150.000000 1 0 0
13.257666 4.675102 -13.978827 19.824982 0.339019 2.353377 0.016307 -0.002051 531204.000000 1 0 0
14.364366 0.755102 -11.408127 18.358937 0.052519 2.241317 0.033945 -0.008387 -108146.000000 1 0 0
14.934666 6.366302 -11.173027 19.708135 0.402952 2.173564 0.019094 -0.007253 -120630.000000 1 0 0
8.337466 1.540702 -11.687427 14.438943 0.182731 2.513991 0.005143 0.002023 966399.000000 1 0 0
10.015466 1.260502 -8.941027 13.484821 0.125197 2.295674 0.008151 -0.002316 768955.000000 1 0 0
-0.060134 -5.805298 -12.967327 14.207628 1.560438 2.720644 0.000569 0.000025 261951.000000 1 0 0
10.595066 -5.698098 -8.963427 15.002226 -0.493434 2.211143 0.026642 -0.010304 398395.000000 1 0 0
10.409266 8.619402 -11.101127 17.489481 0.691613 2.258458 0.019910 -0.010458 875803.000000 1 0 0
8.521066 8.177602 -14.579327 18.762690 0.764833 2.460743 0.030466 -0.002740 441795.000000 1 0 0
8.657266 10.602802 -10.700227 17.374192 0.886071 2.234285 0.020098 -0.006440 -2030360.000000 1 0 0
7.176966 1.718902 -17.920227 19.380351 0.235075 2.750937 0.030303 0.012247 -1962730.000000 1 0 0
12.191966 2.583402 -12.856527 17.905538 0.208805 2.371749 0.012351 -0.003966 -1284000.000000 1 0 0
2.608166 -0.964098 -19.365327 19.563945 -0.354069 2.998978 0.027086 -0.010679 -640785.000000 1 0 0
10.199766 -2.184398 -15.372627 18.577527 -0.210975 2.545410 0.024411 -0.016719 452372.000000 1 0 0
8.237366 -0.911098 -12.963427 15.386187 -0.110158 2.572772 0.011497 -0.003118 6460.690000 1 0 0
0.524066 4.317802 -14.653027 15.284936 1.450014 2.853045 0.015568 -0.003149 -49867.700000 1 0 0
4.010466 -7.528798 -15.664327 17.836418 -1.081345 2.642927 0.001608 -0.007003 -101200.000000 1 0 0
11.487966 -5.776898 -14.226627 19.176623 -0.465937 2.406656 0.044850 -0.022028 -948871.000000 1 0 0
-5.863534 4.294802 -16.799427 18.304292 -0.632180 2.733265 0.006537 -0.004247 -541569.000000 1 0 0
11.356266 7.748602 -8.878127 16.365414 0.598761 2.144199 0.015836 -0.005043 175728.000000 1 0 0
9.537566 6.149802 -13.411927 17.568865 0.572709 2.439344 0.013099 0.004757 -69535.800000 1 0 0
12.189466 0.562702 -10.250727 15.936660 0.046130 2.269488 0.021664 -0.004767 486579.000000 1 0 0
5.527566 -7.294198 -13.648927 16.433275 -0.922320 2.550920 0.003077 -0.001294 -1212130.000000 1 0 0
8.618266 -10.177598 -10.643327 17.062779 -0.868170 2.244359 0.015825 -0.003455 25574.000000 1 0 0
10.214766 4.694702 -15.822127 19.409312 0.430808 2.523840 0.032898 0.005250 201697.000000 1 0 0
9.915166 -0.429198 -10.884227 14.729601 -0.043260 2.402286 0.008213 -0.003821 -713122.000000 1 0 0
-1.700734 5.560302 -14.002827 15.162079 -1.273962 2.748014 0.007796 -0.003576 -107791.000000 1 0 0
1.380066 -0.631698 -14.996527 15.073137 -0.429264 3.040728 0.008558 -0.002260 -1449160.000000 1 0 0
11.489466 -10.284998 -14.489927 21.160034 -0.730139 2.325095 0.067686 -0.015630 308968.000000 1 0 0
9.349866 -7.740498 -10.733527 16.203207 -0.691507 2.294857 0.024914 -0.006894 -114809.000000 1 0 0
14.079166 -0.997998 -9.607127 17.073835 -0.070766 2.168422 0.030551 -0.008656 698302.000000 1 0 0
3.993366 11.089902 -12.230227 16.985622 1.225161 2.374648 0.016580 -0.009502 -1152160.000000 1 0 0
-1.341734 2.804002 -17.186427 17.465279 -1.124491 2.962659 0.008225 -0.003077 -196181.000000 1 0 0
6.056066 -0.571898 -17.505127 18.531932 -0.094155 2.807148 0.017800 0.001013 240706.000000 1 0 0
6.494766 -6.665398 -16.013727 18.521582 -0.798363 2.615147 0.020063 -0.004337 -245418.000000 1 0 0
-1.535334 -5.188198 -19.831127 20.555979 1.283079 2.875241 0.000982 -0.011221 -653994.000000 1 0 0
0.029466 -4.329998 -15.179327 15.784858 -1.563991 2.863710 0.000087 -0.001499 -177499.000000 1 0 0
0.484866 0.726802 -12.987027 13.016383 0.982478 3.074420 0.009640 -0.004568 456026.000000 1 0 0
16.029966 0.643602 -13.340627 20.864956 0.040128 2.264487 0.047649 -0.022500 444721.000000 1 0 0
-0.061134 6.999702 -16.375327 17.808731 -1.562063 2.737631 0.019754 0.001743 -155528.000000 1 0 0
-4.706234 -0.664998 -18.252027 18.860736 0.140372 2.886842 0.003223 -0.006664 -238756.000000 1 0 0
10.445666 -8.289298 -12.985827 18.613332 -0.670804 2.342926 0.035546 -0.019820 669445.000000 1 0 0
4.286366 8.767202 -17.367227 19.921279 1.116061 2.629647 0.034729 -0.006322 -209647.000000 1 0 0
9.292966 0.541702 -16.922127 19.313494 0.058226 2.638678 0.023112 0.003285 -463021.000000 1 0 0
3.340866 4.943302 -18.555527 19.491157 0.976472 2.830492 0.032557 -0.001461 -554150.000000 1 0 0
1.463966 -8.056298 -15.955427 17.933845 -1.391041 2.667446 -0.006879 -0.001641 -247194.000000 1 0 0
4.553266 7.838802 -14.973727 17.504044 1.044567 2.597204 0.016511 0.002981 727093.000000 1 0 0
-5.766434 -0.412198 -15.189827 16.252770 0.071361 2.777927 0.004105 -0.002746 -389081.000000 1 0 0
2.808066 3.407802 -13.727227 14.419956 0.881585 2.830372 0.014873 0.001601 -152853.000000 1 0 0
-2.431034 -10.250998 -18.082727 20.927922 1.337947 2.614052 0.006291 -0.000903 71801.100000 1 0 0
6.120866 -9.126298 -15.353027 18.880407 -0.980017 2.520379 0.004518 -0.007844 307616.000000 1 0 0
-1.808834 5.363102 -17.343527 18.243703 -1.245504 2.826147 0.011610 -0.002287 1342480.000000 1 0 0
10.110366 -12.056398 -11.412227 19.437469 -0.872964 2.198299 0.042372 -0.013102 196289.000000 1 0 0
10.947766 3.722402 -9.330727 14.858410 0.327752 2.249746 0.009304 -0.002883 -802055.000000 1 0 0
4.889166 -0.409598 -10.986727 12.032452 -0.083582 2.721598 0.007110 -0.004345 430534.000000 1 0 0
6.313766 9.536402 -11.379027 16.133470 0.985983 2.353651 0.012902 -0.009772 360345.000000 1 0 0
10.871966 -9.533898 -9.405627 17.249948 -0.719919 2.147490 0.034288 -0.008304 -1155560.000000 1 0 0
3.273766 -2.348198 -14.447627 14.998851 -0.622228 2.869643 0.008895 -0.003042 -73327.300000 1 0 0
9.284966 -4.557398 -14.694327 17.969523 -0.456290 2.528263 0.031253 -0.013707 424365.000000 1 0 0
-3.885234 -6.731998 -16.750727 18.466232 1.047363 2.707140 -0.000421 0.005117 -2075700.000000 1 0 0
5.864266 -7.801198 -11.169427 14.832546 -0.926199 2.423459 0.000208 -0.000714 312150.000000 1 0 0
5.533666 6.518002 -17.010227 19.038215 0.866894 2.675827 0.025332 0.005154 -939445.000000 1 0 0
9.237366 1.185402 -19.374827 21.496931 0.127629 2.693519 0.045698 -0.007035 405459.000000 1 0 0
13.160666 5.824102 -9.387827 17.182974 0.416632 2.148790 0.003462 -0.000440 480534.000000 1 0 0
-1.706334 -0.899198 -17.292427 17.399660 0.484995 3.030514 0.014320 -0.007268 617580.000000 1 0 0
-0.445734 -0.406598 -19.450927 19.460282 0.739515 3.110585 0.018770 -0.017475 -295374.000000 1 0 0
2.976866 6.626302 -16.642827 18.159111 1.148566 2.730038 0.027155 0.008391 -1488240.000000 1 0 0
7.795866 3.694502 -15.589027 17.816920 0.442555 2.636142 0.020535 0.008153 -40794.000000 1 0 0
3.112466 -9.855698 -14.926927 18.155864 -1.264904 2.535982 -0.004672 0.002903 300712.000000 1 0 0
9.103066 -10.554898 -13.301527 19.266612 -0.859119 2.332828 0.037347 -0.007622 458827.000000 1 0 0
3.906166 0.126102 -14.808527 15.315565 0.032271 2.883560 0.012591 0.001485 -1079580.000000 1 0 0
-1.119034 -2.873298 -18.854527 19.105007 1.199409 2.979485 0.016574 -0.009429 498246.000000 1 0 0
9.458766 10.092302 -13.102827 19.052740 0.817791 2.329131 0.035446 -0.012876 648205.000000 1 0 0
4.597766 2.105002 -10.682227 11.818649 0.429347 2.699469 0.005948 0.000048 224682.000000 1 0 0
-0.620734 6.910802 -18.942627 20.173439 -1.481216 2.790474 0.031176 -0.004278 226448.000000 1 0 0
0.797166 -1.743498 -17.474727 17.579572 -1.141953 3.032323 0.014392 -0.014542 -1280760.000000 1 0 0
-4.445734 -2.186798 -14.038827 14.887421 0.457136 2.802327 0.011075 -0.003894 -3098330.000000 1 0 0
10.012066 6.095102 -10.430527 15.690368 0.546847 2.297986 0.007740 0.004098 261895.000000 1 0 0
8.335166 5.439102 -17.432027 20.073226 0.578165 2.622807 0.039293 -0.001479 -190067.000000 1 0 0
11.484466 0.223102 -13.558527 17.770099 0.019424 2.438733 0.013220 -0.000437 508507.000000 1 0 0
6.755366 12.093402 -11.735527 18.155108 1.061375 2.273658 0.022662 -0.014089 -512321.000000 1 0 0
-0.898734 0.522702 -15.208527 15.244023 -0.526779 3.073337 0.010816 -0.007193 -1004010.000000 1 0 0
-4.097734 -3.122898 -18.854727 19.545963 0.651203 2.874853 0.003807 -0.001879 -543108.000000 1 0 0
5.755766 -12.028298 -13.871327 19.241168 -1.124481 2.375924 0.007487 0.002346 -411989.000000 1 0 0
2.151866 -4.724798 -13.903927 14.841612 -1.143427 2.784224 0.002746 -0.001059 450937.000000 1 0 0
11.854266 1.836902 -15.421827 19.537927 0.153734 2.480510 0.029024 -0.000785 396385.000000 1 0 0
9.794966 2.310302 -13.761327 17.048548 0.231633 2.510164 0.014850 0.001994 729560.000000 1 0 0
-2.192434 -4.178698 -16.378927 17.045162 1.087609 2.861080 -0.000611 -0.004685 -1418280.000000 1 0 0
-2.800334 10.195002 -14.239827 17.735631 -1.302730 2.502930 0.009305 -0.000466 273570.000000 1 0 0
3.588466 5.820802 -13.794727 15.396536 1.018340 2.681391 0.014458 0.003684 -100505.000000 1 0 0
-5.077934 -2.568498 -16.511727 17.464814 0.468289 2.809703 0.011572 -0.001812 404699.000000 1 0 0
-4.288234 6.113302 -13.535227 15.458454 -0.959091 2.637447 0.002502 -0.004301 -98069.200000 1 0 0
5.903366 -1.102798 -13.912427 15.153268 -0.184680 2.734091 0.014416 -0.002982 -2385350.000000 1 0 0
6.712266 -3.015198 -12.475127 14.483603 -0.422194 2.608673 0.008812 -0.006309 671565.000000 1 0 0
2.906666 -3.253498 -18.160027 18.676738 -0.841641 2.905819 0.021038 -0.016033 -643919.000000 1 0 0
7.518566 -12.061098 -11.974427 18.584559 -1.013368 2.270932 0.009529 0.001411 -335126.000000 1 0 0
-5.795934 -5.552198 -18.027227 19.733238 0.763923 2.722716 0.023098 0.010059 334411.000000 1 0 0
0.536266 8.654502 -11.934327 14.751819 1.508912 2.513257 0.009094 -0.002254 249569.000000 1 0 0
0.291466 8.593902 -14.457227 16.821163 1.536894 2.605022 0.009103 0.002943 161191.000000 1 0 0
7.581866 -2.529398 -14.908227 16.915608 -0.322001 2.649465 0.016809 -0.016685 -75469.600000 1 0 0
14.372566 1.564302 -8.949527 17.003286 0.108413 2.125088 0.016253 -0.002305 279754.000000 1 0 0
2.775266 10.742702 -14.505027 18.262080 1.317984 2.488602 0.022732 -0.001919 197971.000000 1 0 0
6.372766 0.959402 -15.427327 16.719301 0.149425 2.745889 0.021966 0.010255 978212.000000 1 0 0
16.935666 -5.527698 -10.203227 20.529932 -0.315492 2.090926 0.083314 -0.015378 828925.000000 1 0 0
4.865566 -4.314498 -11.149627 12.907472 -0.725441 2.613584 0.002434 -0.002204 -772394.000000 1 0 0
8.895466 -3.632498 -16.946127 19.480647 -0.387687 2.625787 0.027743 -0.020146 351638.000000 1 0 0
13.420166 -9.531598 -8.805527 18.667875 -0.617568 2.062007 0.060107 -0.013038 769317.000000 1 0 0
2.323966 -7.847598 -13.542127 15.823237 -1.282887 2.597965 -0.006974 0.000328 260643.000000 1 0 0
-6.645034 -2.302898 -18.665627 19.946565 0.333606 2.781266 0.004712 0.002805 29447.800000 1 0 0
-1.447334 -6.485098 -15.673827 17.024105 1.351216 2.740627 -0.003150 -0.001486 -616751.000000 1 0 0
1.568366 -7.316598 -18.509427 19.964751 -1.359635 2.757411 0.002085 -0.003138 -91771.100000 1 0 0
5.422566 10.708602 -14.430927 18.770457 1.102062 2.447776 0.031331 -0.020249 -30014.000000 1 0 0
5.404066 -3.425998 -17.328627 18.472215 -0.565021 2.787875 0.020640 -0.012716 -473819.000000 1 0 0
4.154366 12.934002 -14.188427 19.643285 1.260008 2.377925 0.023377 -0.011399 -147450.000000 1 0 0
9.456866 10.310602 -15.737027 21.056943 0.828560 2.414870 0.046677 -0.014788 451410.000000 1 0 0
2.523466 3.953202 -16.312227 16.973051 1.002665 2.861632 0.023377 0.001779 274019.000000 1 0 0
16.717466 1.858602 -11.249927 20.235833 0.110723 2.160291 0.045119 -0.016026 588296.000000 1 0 0
10.137866 -3.521198 -10.435727 14.969288 -0.334295 2.342200 0.024720 -0.009610 26916.500000 1 0 0
14.880166 -2.118898 -11.893727 19.166894 -0.141447 2.240221 0.059594 -0.012734 -85488.400000 1 0 0
-2.562334 -8.747398 -16.010527 18.423342 1.285843 2.624045 0.001158 0.005714 -724469.000000 1 0 0
14.011166 8.272102 -8.926927 18.558838 0.533326 2.072599 0.029606 -0.005045 951355.000000 1 0 0
-8.237334 0.245102 -16.633927 18.563439 -0.029746 2.681606 0.003336 0.001032 -938667.000000 1 0 0
-3.446534 3.905602 -15.872227 16.705087 -0.847757 2.824492 0.006019 -0.005710 592912.000000 1 0 0
15.096566 4.052502 -9.657227 18.373653 0.262256 2.124219 0.014144 -0.001727 -190445.000000 1 0 0
5.425466 1.203002 -12.909627 14.054941 0.218202 2.735096 0.008474 0.000765 272673.000000 1 0 0
7.871666 -7.734998 -12.851527 16.939749 -0.776641 2.432052 0.016431 -0.003803 -2377820.000000 1 0 0
3.228166 -6.158198 -11.819627 13.713062 -1.087972 2.609850 -0.000340 -0.001249 -928512.000000 1 0 0
-3.399234 3.654302 -18.442027 19.105420 -0.821544 2.877299 0.010967 -0.005629 -463509.000000 1 0 0
0.960166 5.188902 -17.818227 18.583214 1.387824 2.853665 0.028742 -0.006481 -820244.000000 1 0 0
6.341566 7.144702 -10.194027 13.970699 0.844880 2.388638 0.001731 -0.000132 474999.000000 1 0 0
9.774566 3.813202 -11.715227 15.726704 0.371956 2.411220 0.012351 0.002854 116201.000000 1 0 0
4.683266 1.730202 -17.340427 18.044861 0.353890 2.861255 0.024902 -0.001421 966411.000000 1 0 0
2.590566 8.119402 -13.232327 15.739447 1.261947 2.569391 0.015843 -0.002200 -1798610.000000 1 0 0
14.467866 -3.538498 -9.902627 17.885809 -0.239868 2.157547 0.044929 -0.005249 229708.000000 1 0 0
-1.377534 9.300302 -16.280627 18.800320 -1.423748 2.617895 0.018225 0.004486 -687659.000000 1 0 0
-5.292334 2.057202 -15.607827 16.608587 -0.370739 2.792678 0.007457 -0.008298 497385.000000 1 0 0
4.485166 4.279302 -11.976627 13.485872 0.761914 2.663963 0.009903 -0.000808 577505.000000 1 0 0
9.382966 3.049802 -17.603527 20.179830 0.314264 2.630750 0.030345 0.008327 639089.000000 1 0 0
-4.206734 14.324102 -13.275527 19.977891 -1.285146 2.297636 0.009150 -0.005834 -421278.000000 1 0 0
15.558266 -4.890698 -7.990427 18.161099 -0.304567 2.026367 0.045312 -0.006431 954515.000000 1 0 0
1.129866 9.238002 -16.890327 19.284720 1.449094 2.637970 0.021503 0.004661 -373867.000000 1 0 0
0.432766 -3.182498 -12.749027 13.147368 -1.435642 2.894804 0.006071 -0.000289 364891.000000 1 0 0
7.613066 3.626202 -13.011727 15.505263 0.444519 2.566573 0.010250 0.004406 -711847.000000 1 0 0
-2.955934 7.642802 -14.959027 17.056449 -1.201755 2.640443 0.006832 0.000263 354389.000000 1 0 0
12.172166 -5.152398 -11.051627 17.229257 -0.400424 2.267177 0.041137 -0.012227 -873676.000000 1 0 0
0.883466 -4.333498 -19.899227 20.384773 -1.369683 2.922896 0.020268 -0.014237 -105557.000000 1 0 0
3.536766 -4.609998 -16.025227 17.046076 -0.916381 2.793756 0.011171 -0.013027 624779.000000 1 0 0
-5.620134 4.101102 -14.268327 15.874196 -0.630392 2.687907 0.003551 -0.003653 538263.000000 1 0 0
12.251066 -7.459098 -9.798527 17.370605 -0.546904 2.170123 0.034589 -0.009505 115177.000000 1 0 0
-1.979534 -1.790198 -14.866027 15.103713 0.735215 2.963951 0.007681 -0.001365 765850.000000 1 0 0
7.053066 5.951702 -14.215227 16.948191 0.700910 2.565772 0.014932 0.004120 375790.000000 1 0 0
4.308766 -5.504498 -18.305227 19.594548 -0.906649 2.776806 0.022108 -0.017062 274599.000000 1 0 0
7.644766 7.481002 -12.223527 16.242613 0.774572 2.422736 0.011309 -0.005071 -874781.000000 1 0 0
12.465666 -2.558398 -11.142427 16.914252 -0.202425 2.289965 0.032392 -0.005215 -708056.000000 1 0 0
7.490366 -0.563198 -10.504527 12.913864 -0.075048 2.520822 0.007402 -0.000748 -2795350.000000 1 0 0
5.389466 4.048002 -14.320027 15.827061 0.644202 2.701662 0.011516 0.005281 1235620.000000 1 0 0
14.841566 2.905802 -12.902727 19.879541 0.193342 2.277125 0.021290 -0.013170 947152.000000 1 0 0
-6.268934 6.694302 -15.726927 18.205753 -0.818200 2.613647 0.002196 0.003440 262549.000000 1 0 0
-11.098534 3.948602 -16.467327 20.247019 -0.341812 2.520634 0.021554 -0.011578 -873202.000000 1 0 0
-5.028834 6.465802 -18.038727 19.811397 -0.909765 2.715343 0.007888 0.013562 133983.000000 1 0 0
-10.088234 1.743202 -15.671027 18.718769 -0.171106 2.562908 0.023856 -0.001510 -302873.000000 1 0 0
-7.523934 5.844602 -17.923227 20.298055 -0.660434 2.653017 0.000462 0.001652 -1218320.000000 1 0 0
-8.692534 3.960002 -15.620827 18.309888 -0.427471 2.592764 0.001818 0.003558 -1829060.000000 1 0 0
8.930766 13.479702 -12.102427 20.197269 0.985660 2.213312 0.050357 -0.015900 -1412080.000000 1 0 0
13.710566 9.339402 -11.339627 20.094557 0.597985 2.170398 0.024185 -0.009770 504088.000000 1 0 0
8.328966 16.064702 -9.061527 20.237529 1.092487 2.035053 0.031988 -0.002585 -7001.220000 1 0 0
7.079366 13.260402 -13.915527 20.484081 1.080419 2.317651 0.041357 -0.022071 -310149.000000 1 0 0
4.588066 16.019902 -12.558527 20.866342 1.291865 2.216619 0.046588 -0.017380 160673.000000 1 0 0
10.993266 11.188602 -11.341527 19.356316 0.794204 2.196829 0.045081 -0.017729 -445884.000000 1 0 0
15.672566 10.089402 -9.703327 21.013803 0.571977 2.050774 0.050842 -0.002862 -265311.000000 1 0 0
13.190466 10.708002 -9.185327 19.313724 0.681894 2.066426 0.057327 -0.015296 -33272.000000 1 0 0
10.266166 11.958202 -8.185327 17.759289 0.861386 2.049810 0.018985 -0.006759 117629.000000 1 0 0
5.477566 16.140402 -10.095127 19.809793 1.243623 2.105520 0.021457 -0.013583 40314.000000 1 0 0
6.648166 14.695102 -11.731127 19.944009 1.145943 2.199631 0.025279 0.001663 -807446.000000 1 0 0
10.742666 14.015202 -9.828627 20.209717 0.916818 2.078683 0.046116 -0.005946 34195.000000 1 0 0
8.398266 -18.568998 -0.973527 20.403096 -1.146053 1.618529 0.053345 -0.004487 34400.400000 1 0 0
7.253966 -17.627898 -3.156527 19.321659 -1.180411 1.734899 0.032684 -0.000949 -149366.000000 1 0 0
4.432166 -18.639098 5.970473 20.067552 -1.337343 1.268704 0.027871 0.013474 119713.000000 1 0 0
9.767366 -17.236598 -2.612327 19.983144 -1.055249 1.701898 0.045234 -0.000253 -456070.000000 1 0 0
-9.561834 -12.062998 -10.242227 18.489127 0.900548 2.157909 0.007121 -0.006584 -1014100.000000 1 0 0
-5.167434 -7.029698 -12.212927 15.009151 0.936909 2.521283 0.003292 0.001913 881068.000000 1 0 0
-10.723834 -9.545598 -5.777627 15.475789 0.727335 1.953396 0.011029 -0.011440 -488491.000000 1 0 0
-4.457634 -11.505398 -14.148327 18.772849 1.201166 2.424408 0.009100 0.002611 453480.000000 1 0 0
-2.754634 -15.459398 7.401673 17.359889 1.394462 1.130324 0.001950 -0.004214 -93920.700000 1 0 0
-4.689834 -11.966998 -11.621627 17.328180 1.197295 2.305919 0.004422 0.001792 -105108.000000 1 0 0
-14.325634 -12.856998 -4.042327 19.668925 0.731422 1.777790 0.016630 -0.017316 10676.300000 1 0 0
-3.236734 -12.255298 -3.283827 13.093980 1.312583 1.824292 0.008613 -0.001740 585725.000000 1 0 0
-2.502934 -17.308198 -1.551127 17.556890 1.427182 1.659260 -0.004231 -0.007339 -630869.000000 1 0 0
-5.858434 -12.211298 3.768073 14.058287 1.123475 1.299446 0.005202 -0.002080 739296.000000 1 0 0
-8.648134 -10.343798 -12.012927 18.058095 0.874445 2.298609 -0.000337 0.000610 -209558.000000 1 0 0
-9.598834 -12.014998 -7.703027 17.199838 0.896724 2.035161 0.009944 -0.008775 -259165.000000 1 0 0
-10.933834 -15.159898 6.244973 19.707129 0.945961 1.248349 0.037568 -0.009102 689107.000000 1 0 0
-9.323134 -15.615198 0.785273 18.203623 1.032545 1.527645 0.016739 -0.003694 -1874040.000000 1 0 0
-14.749334 -7.626498 -8.039827 18.448446 0.477213 2.021723 0.015908 -0.020165 -361808.000000 1 0 0
-2.408834 -16.543498 5.066573 17.468829 1.426206 1.276533 0.015954 -0.005747 -156268.000000 1 0 0
4.412966 -16.098298 5.589773 17.603268 -1.303243 1.247660 0.025824 0.000409 -40590.000000 1 0 0
4.084966 -14.684898 -9.904527 18.177812 -1.299481 2.147029 -0.004935 0.007536 -394999.000000 1 0 0
-7.553634 -14.059498 -0.407727 15.965372 1.077785 1.596337 0.010375 -0.000843 782105.000000 1 0 0
3.032066 -15.062898 9.635573 18.136389 -1.372157 1.010681 0.023324 -0.005689 92766.800000 1 0 0
2.235966 -17.396198 10.300273 20.340179 -1.442965 1.039791 0.039123 -0.004642 -87720.300000 1 0 0
-8.211534 -16.980998 -5.857927 19.750922 1.120377 1.871916 0.022110 -0.009446 -70662.300000 1 0 0
-6.301234 -9.110098 -7.693827 13.486824 0.965679 2.177874 0.010971 -0.007678 156195.000000 1 0 0
-6.032934 -12.980498 -4.813027 15.101485 1.135729 1.895167 0.003659 -0.006174 471744.000000 1 0 0
2.065666 -19.429398 -4.893927 20.142468 -1.464878 1.816218 0.013493 -0.005106 69474.800000 1 0 0
-5.553934 -12.803098 8.388973 16.283131 1.161499 1.029562 0.010809 -0.008715 765777.000000 1 0 0
2.117566 -17.481698 3.544273 17.962620 -1.450253 1.372179 0.018135 -0.010218 -99567.800000 1 0 0
-17.672034 -9.972398 -2.763027 20.478863 0.513759 1.706130 0.020641 -0.017933 527544.000000 1 0 0
-3.500234 -15.320098 2.561573 15.922271 1.346178 1.409214 0.005670 -0.005622 65926.200000 1 0 0
-9.909034 -10.301698 -14.293727 20.214465 0.804824 2.356190 0.008278 0.000802 -262369.000000 1 0 0
6.258766 -14.498298 -5.694627 16.786947 -1.163273 1.916894 0.010968 -0.000868 116481.000000 1 0 0
-7.133034 -12.198998 -10.885627 17.837954 1.041686 2.227174 0.006586 -0.005918 -1032260.000000 1 0 0
-7.250434 -14.242198 4.053273 16.487511 1.099910 1.322411 0.008931 -0.002330 581850.000000 1 0 0
3.276666 -14.906798 -3.172027 15.588808 -1.354427 1.775708 0.007926 -0.003010 -692075.000000 1 0 0
-7.691434 -11.385898 7.868873 15.834014 0.976688 1.050704 0.011943 -0.012389 -965156.000000 1 0 0
-12.841834 -12.327698 -1.022427 17.830597 0.764974 1.628169 0.015612 -0.006737 30759.600000 1 0 0
-1.783834 -13.690898 4.072573 14.394742 1.441233 1.283958 0.005888 -0.001967 -4184680.000000 1 0 0
-3.187934 -13.970298 5.263273 15.265458 1.346444 1.218789 0.005161 -0.003232 466999.000000 1 0 0
-14.375334 -10.271798 -4.338327 18.192887 0.620420 1.811579 0.004375 -0.013723 324588.000000 1 0 0
-6.006034 -8.579198 -10.281927 14.676277 0.960024 2.347008 0.001429 -0.003099 150287.000000 1 0 0
0.903066 -19.535598 2.571773 19.724836 -1.524603 1.440042 0.025789 -0.009752 204534.000000 1 0 0
6.336066 -13.979398 -8.232127 17.416579 -1.145249 2.063104 0.002762 0.003962 -3189380.000000 1 0 0
-3.986334 -16.714698 -6.019627 18.207359 1.336677 1.907752 0.003719 -0.004803 61757.200000 1 0 0
-3.494034 -13.787598 -13.204527 19.407877 1.322603 2.319063 0.018992 0.003530 -1480640.000000 1 0 0
-8.108434 -14.611298 -4.631727 17.340405 1.064166 1.841185 0.011880 -0.006816 -1378160.000000 1 0 0
-4.575734 -14.355698 10.100973 18.139820 1.262237 0.980220 0.012999 -0.005483 578060.000000 1 0 0
-0.216534 -12.063998 -10.022627 15.685662 1.552850 2.263952 0.006953 0.001460 517510.000000 1 0 0
2.406266 -17.263198 6.934873 18.759014 -1.432302 1.192129 0.026013 -0.007611 -768190.000000 1 0 0
-2.924334 -19.118398 -3.464727 19.648644 1.419014 1.748057 -0.002330 -0.011494 -200537.000000 1 0 0
0.687466 -15.451598 -3.260027 15.806716 -1.526334 1.778530 0.001314 0.000100 -58143.100000 1 0 0
5.845166 -18.052498 0.520673 18.982354 -1.257662 1.543364 0.027251 -0.009134 -287263.000000 1 0 0
-6.939034 -16.642698 3.951073 18.459160 1.175771 1.355083 0.010010 -0.002485 689673.000000 1 0 0
-5.214634 -13.566298 -9.648827 17.445249 1.203826 2.156867 0.001006 -0.001558 198228.000000 1 0 0
5.696766 -15.190698 -2.188427 16.370696 -1.212011 1.704877 0.015536 -0.000176 -923108.000000 1 0 0
-8.869634 -10.210198 -0.538627 13.535460 0.855544 1.610601 0.006305 -0.002102 302290.000000 1 0 0
-7.453034 -18.134898 -2.925827 19.823792 1.180863 1.718929 0.015057 -0.015720 332346.000000 1 0 0
7.952666 -15.975398 -1.159227 17.883011 -1.108905 1.635665 0.025139 -0.003688 719126.000000 1 0 0
-7.902134 -10.062698 -9.600827 15.996171 0.905090 2.214542 0.006590 -0.005118 -1632530.000000 1 0 0
-9.228234 -14.933098 -7.034427 18.911396 1.017267 1.951924 0.021479 -0.009500 -245746.000000 1 0 0
-11.257834 -10.436198 -12.052827 19.517267 0.747542 2.236416 0.014242 0.003132 474241.000000 1 0 0
6.592466 -16.385698 2.369373 17.820372 -1.188283 1.437443 0.024356 -0.002393 1739610.000000 1 0 0
-2.196734 -11.056298 -6.100327 12.817229 1.374664 2.066837 0.005475 -0.002484 -490135.000000 1 0 0
-12.196934 -15.338598 -3.237927 19.862577 0.899002 1.734544 0.012930 -0.012400 132036.000000 1 0 0
-0.380034 -19.397798 -2.808027 19.603674 1.551207 1.714531 0.022413 -0.022107 -276745.000000 1 0 0
-5.813434 -15.574998 -4.730427 17.284488 1.213557 1.848014 0.000822 -0.007050 -3044930.000000 1 0 0
1.925266 -15.936398 -1.099427 16.089878 -1.450570 1.639180 0.012574 -0.008363 124200.000000 1 0 0
-13.242434 -11.907398 5.149473 18.538211 0.732365 1.289318 0.021890 -0.010163 232204.000000 1 0 0
1.985466 -15.256398 -8.706727 17.677864 -1.441384 2.085781 0.009745 0.008858 -2336940.000000 1 0 0
-11.680934 -16.588898 0.199673 20.289791 0.957296 1.560955 0.037571 -0.015724 366107.000000 1 0 0
-7.625034 -16.539298 -0.961427 18.237705 1.138812 1.623537 0.020754 -0.007851 666626.000000 1 0 0
-2.948534 -14.418798 -1.845427 14.832437 1.369085 1.695538 0.001275 -0.002941 541258.000000 1 0 0
-1.844634 -10.472198 -13.326627 17.049006 1.396439 2.468129 0.000970 0.006678 291722.000000 1 0 0
1.525966 -19.539498 5.067673 20.243564 -1.492858 1.317770 0.031123 -0.012831 -39360.600000 1 0 0
-17.491434 -9.393598 2.355073 19.993407 0.492839 1.452730 0.016344 -0.005460 -74943.700000 1 0 0
-2.794734 -15.567898 -8.095227 17.768025 1.393169 2.043850 0.008083 -0.000210 -1293720.000000 1 0 0
-10.544534 -12.082198 0.246173 16.038307 0.853252 1.555447 0.012877 -0.003967 727397.000000 1 0 0
-6.792834 -11.446398 -6.621227 14.866179 1.035209 2.032405 0.007911 -0.007260 271043.000000 1 0 0
-2.195534 -13.632298 -6.698227 15.346862 1.411114 2.022452 -0.000636 -0.000794 311847.000000 1 0 0
-14.265134 -14.566898 -0.974627 20.411724 0.795864 1.618563 0.025517 -0.007454 74347.500000 1 0 0
-9.584034 -11.259598 -4.388527 15.423729 0.865613 1.859313 0.015080 -0.011382 1179470.000000 1 0 0
9.535966 -15.203898 -5.108227 18.659774 -1.010613 1.848093 0.025820 -0.000637 481249.000000 1 0 0
-5.441334 -10.890298 -9.405627 15.384165 1.107429 2.228604 0.004524 -0.004655 -40273.200000 1 0 0
-10.350334 -15.942798 -4.928627 19.636537 0.994972 1.824502 0.023981 -0.008618 -1032490.000000 1 0 0
2.303266 -17.322198 -3.306927 17.784807 -1.438606 1.757826 0.018267 -0.005241 549123.000000 1 0 0
-0.415234 -14.461398 -8.340927 16.699567 1.542091 2.093783 0.005556 0.002480 -1363600.000000 1 0 0
-0.574634 -18.244398 -7.285427 19.653644 1.539310 1.950549 0.015293 -0.000153 184958.000000 1 0 0
-1.813634 -10.000098 -10.679627 14.742648 1.391385 2.380965 -0.000606 0.000321 331883.000000 1 0 0
-5.011834 -17.335498 2.079273 18.164838 1.289362 1.456078 0.005483 -0.003927 863526.000000 1 0 0
0.322466 -12.851198 -2.623427 13.120200 -1.545709 1.772107 0.003604 -0.001248 -1231420.000000 1 0 0
2.579566 -15.001898 2.869873 15.490232 -1.400512 1.384450 0.016874 -0.003604 -1327660.000000 1 0 0
-9.364534 -13.162498 6.935673 17.579801 0.952423 1.165245 0.011162 -0.005072 -863243.000000 1 0 0
-1.074634 -17.769298 -4.688927 18.408934 1.510393 1.828343 0.011790 -0.006893 5786.490000 1 0 0
-9.770934 -17.523098 -2.018227 20.164408 1.062135 1.671053 0.036430 -0.019229 -1511740.000000 1 0 0
1.293666 -16.366598 1.314573 16.470192 -1.491917 1.490896 0.011838 -0.008083 -223701.000000 1 0 0
-0.408834 -18.058998 4.244373 18.555572 1.548161 1.340015 0.021020 -0.012391 -658380.000000 1 0 0
-17.371334 -9.355798 -0.242127 19.732025 0.494031 1.583067 0.000972 -0.007098 734868.000000 1 0 0
-14.799834 -7.398198 -10.629127 19.665878 0.463555 2.141811 0.043348 -0.015563 480990.000000 1 0 0
2.789266 -12.704098 -8.763927 15.683767 -1.354669 2.163722 -0.004629 0.003922 364250.000000 1 0 0
-11.493034 -14.558898 1.750573 18.631045 0.902542 1.476698 0.022371 -0.010300 -86408.400000 1 0 0
-2.337534 -15.691798 10.715673 19.144771 1.422918 0.976751 0.013489 -0.002851 462279.000000 1 0 0
-6.899034 -15.800898 1.386673 17.297049 1.159122 1.490542 0.013904 -0.003317 -2008450.000000 1 0 0
-12.634434 -15.041098 -5.823027 20.488319 0.872140 1.858981 0.023569 -0.012360 520836.000000 1 0 0
0.908166 -13.744498 -5.082927 14.682376 -1.504817 1.924306 0.003674 0.000087 373030.000000 1 0 0
5.929166 -16.306398 -7.601227 18.942869 -1.222049 1.983701 0.018519 -0.002958 167481.000000 1 0 0
-6.687134 -12.792898 6.030473 15.644251 1.089137 1.175073 0.010073 -0.006881 -383343.000000 1 0 0
-2.510934 -13.531198 0.526073 13.772250 1.387317 1.532589 0.007903 -0.002051 962612.000000 1 0 0
-4.256134 -15.470598 0.252173 16.047357 1.302327 1.555081 0.000304 -0.003653 85845.000000 1 0 0
-17.666034 -7.443098 -2.044327 19.278686 0.398752 1.677037 0.000316 -0.009165 662660.000000 1 0 0
1.432666 -12.592398 -11.921427 17.399467 -1.457511 2.325620 0.004534 0.006305 -177113.000000 1 0 0
1.249266 -17.141298 -5.735227 18.118433 -1.498044 1.892877 0.017146 -0.000426 138947.000000 1 0 0
-12.821734 -6.397698 -9.196327 17.026445 0.462826 2.141376 0.021706 -0.008329 740809.000000 1 0 0
-11.251234 -13.559698 -9.031827 19.799737 0.878173 2.044470 0.011391 -0.012491 319238.000000 1 0 0
-4.321334 -9.918098 3.496273 11.369544 1.159896 1.258219 0.009788 -0.002583 -3602630.000000 1 0 0
-7.226734 -14.174098 9.803773 18.688090 1.099296 1.018551 0.019260 -0.010333 -816754.000000 1 0 0
-5.368034 -15.910898 -8.207927 18.690707 1.245407 2.025443 0.005379 -0.000241 -16374.500000 1 0 0
-0.221634 -13.381198 2.142073 13.553378 1.554235 1.412084 0.008545 -0.003573 991848.000000 1 0 0
-10.920634 -13.436198 -4.674727 17.934457 0.888313 1.834498 0.018861 -0.012595 -766772.000000 1 0 0
-9.803034 -10.596098 6.657273 15.896416 0.824256 1.138683 0.016619 -0.006217 -394213.000000 1 0 0
-15.486534 -8.045698 -4.963427 18.143913 0.479148 1.847887 0.014086 -0.012564 29610.400000 1 0 0
-14.657934 -7.232398 5.309273 17.185778 0.458363 1.256724 0.022443 -0.005711 470444.000000 1 0 0
-1.482734 -19.171398 -0.074227 19.228794 1.493609 1.574657 0.010466 -0.014567 -323892.000000 1 0 0
-15.378234 -12.200198 -1.321027 19.674349 0.670668 1.637992 0.014569 -0.007068 293721.000000 1 0 0
-4.327134 -12.151898 -6.716127 14.543008 1.228709 2.050833 0.001448 -0.003047 2047530.000000 1 0 0
-7.431834 -18.343098 2.038673 19.896170 1.185852 1.468151 0.020686 -0.001548 182989.000000 1 0 0
-2.463634 -11.789698 -8.669427 14.839995 1.364796 2.194682 0.000318 -0.000395 879165.000000 1 0 0
-1.303334 -20.268398 -5.114127 20.944234 1.506581 1.817469 0.022915 -0.009911 -39348.000000 1 0 0
-5.382334 -8.981798 -13.872027 17.380315 1.030929 2.495008 0.008009 0.001651 239975.000000 1 0 0
-8.251834 -19.062298 -0.611927 20.780723 1.162264 1.600247 0.022423 -0.004874 -21268.900000 1 0 0
-17.215734 -7.109798 5.538773 19.432157 0.391648 1.281757 0.030679 -0.007769 -808329.000000 1 0 0
-3.490234 -14.725398 -4.421627 15.766099 1.338070 1.855061 0.000599 -0.003702 -2395130.000000 1 0 0
-2.826134 -14.837398 -10.974527 18.670181 1.382577 2.199146 0.013082 -0.002467 -339480.000000 1 0 0
-0.093034 -16.547198 6.284073 17.700508 1.565174 1.207859 0.031684 -0.014002 -453590.000000 1 0 0
-11.180734 -11.505898 3.816873 16.491301 0.799730 1.337231 0.015080 -0.006475 -551957.000000 1 0 0
-0.118334 -14.517398 -0.185227 14.519062 1.562645 1.583554 -0.000565 -0.001318 582138.000000 1 0 0
-7.312034 -9.531498 -2.567727 12.284483 0.916413 1.781371 0.009215 -0.002767 -229678.000000 1 0 0
-11.077134 -14.333398 -0.803927 18.132719 0.912850 1.615147 0.018219 -0.012724 366685.000000 1 0 0
0.565966 -14.498498 -10.687127 18.020585 -1.531780 2.205639 0.011095 0.002853 -344609.000000 1 0 0
-1.415334 -13.919098 -3.917827 14.529069 1.469462 1.843830 -0.000517 -0.001863 -3924780.000000 1 0 0
-11.418534 -8.050198 -7.732527 15.968111 0.614082 2.076300 0.014753 -0.009004 744463.000000 1 0 0
-0.229934 -17.015598 -0.487427 17.024131 1.557284 1.599432 0.004899 -0.012616 -994408.000000 1 0 0
-12.928634 -9.454198 4.489773 16.633986 0.631400 1.297491 0.016130 -0.004597 225642.000000 1 0 0
3.931966 -16.918698 1.683973 17.451031 -1.342446 1.474149 0.021736 -0.006950 1530270.000000 1 0 0
-3.771034 -17.917798 -8.291527 20.100190 1.363361 1.996004 0.021938 -0.004577 -76816.800000 1 0 0
-13.437034 -11.215198 2.606973 17.695504 0.695514 1.422934 0.011166 -0.003474 -1724760.000000 1 0 0
-8.624034 -12.205398 4.202673 15.524438 0.955671 1.296662 0.011624 -0.005155 -106869.000000 1 0 0
-8.148034 -9.425398 -5.862427 13.769410 0.857958 2.010595 0.016292 -0.010501 787326.000000 1 0 0
3.816766 -17.608798 -5.458727 18.826449 -1.357345 1.864971 0.005918 0.008956 970822.000000 1 0 0
-2.538134 -13.105798 11.332173 17.510631 1.379500 0.866944 0.001074 -0.003896 671077.000000 1 0 0
-0.001834 -16.700998 -9.683627 19.305336 1.570687 2.096248 0.019474 0.004638 -54154.100000 1 0 0
-7.012034 -10.896198 -14.725327 19.614561 0.998983 2.419970 0.013900 0.009941 123306.000000 1 0 0
-4.683234 -18.827598 -1.536127 19.462035 1.327001 1.649808 0.009580 -0.011764 -148804.000000 1 0 0
-2.421834 -17.088598 1.110673 17.295059 1.430012 1.506533 0.007913 -0.012112 -370109.000000 1 0 0
4.021066 -14.497998 -7.331627 16.736597 -1.300244 2.024235 0.003467 0.001207 411080.000000 1 0 0
-0.939334 -15.815698 -6.287027 17.045392 1.511474 1.948557 0.006284 -0.002123 -59629.800000 1 0 0
-9.606334 -15.316898 8.473073 19.967022 1.010636 1.132549 0.022110 -0.002128 -339336.000000 1 0 0
-7.187134 -12.004398 -1.778227 14.103991 1.031327 1.697213 0.007773 -0.003517 899428.000000 1 0 0
-7.438934 -14.954998 -9.362927 19.148215 1.109214 2.081706 0.016498 -0.006669 -366011.000000 1 0 0
-4.969034 -13.197398 -0.622127 14.115582 1.210697 1.614884 0.005799 -0.002558 3060210.000000 1 0 0
-6.421634 -13.780098 -7.335027 16.879903 1.134710 2.020326 0.006263 -0.003203 352437.000000 1 0 0
5.633666 -15.429498 0.208673 16.427147 -1.220713 1.558093 0.017138 -0.000886 498769.000000 1 0 0
-14.459434 -12.866898 1.024673 19.382524 0.727186 1.517906 0.010104 -0.009539 842164.000000 1 0 0
0.841566 -15.386598 11.155473 19.023675 -1.516156 0.944190 0.024648 -0.008564 168052.000000 1 0 0
-9.367534 -10.757498 1.983573 14.401702 0.854355 1.432625 0.008440 -0.001303 242161.000000 1 0 0
-9.455634 -8.739598 -3.705527 13.398527 0.746066 1.851011 0.014219 -0.008221 -315915.000000 1 0 0
-12.289534 -7.283498 -12.264927 18.828447 0.535004 2.280230 0.036042 -0.008104 -583501.000000 1 0 0
-13.351534 -8.433498 -0.741327 15.809393 0.563367 1.617705 0.006190 -0.007611 647093.000000 1 0 0
-11.253334 -9.588998 0.462173 14.791890 0.705714 1.539546 0.001754 -0.001729 688401.000000 1 0 0
-15.788734 -12.147398 3.118473 20.163538 0.655784 1.415514 0.025966 -0.000443 -384703.000000 1 0 0
-10.455834 -12.418698 -2.269927 16.392105 0.870999 1.709720 0.020800 -0.010307 581093.000000 1 0 0
-3.457334 -8.913798 -12.246627 15.536693 1.200796 2.478738 0.003099 0.004205 -1007310.000000 1 0 0
-0.250734 -15.585298 3.831273 16.051263 1.554710 1.329780 0.016641 -0.007136 -764942.000000 1 0 0
-15.699734 -7.882798 1.093573 17.601592 0.465324 1.508627 -0.006969 -0.003780 320719.000000 1 0 0
-5.970034 -13.436998 -13.480627 19.947971 1.152694 2.312831 0.007986 0.002570 293641.000000 1 0 0
-15.424634 -10.416698 1.150873 18.648095 0.593975 1.509042 0.008500 -0.004006 107120.000000 1 0 0
-9.964134 -8.250798 -12.622527 18.074508 0.691612 2.343901 0.012617 -0.000522 373198.000000 1 0 0
-13.285034 -11.726298 -6.229927 18.783242 0.723158 1.908875 0.021080 -0.011190 -23786.200000 1 0 0
-12.194934 -11.348798 -3.857027 17.099365 0.749475 1.798320 0.008806 -0.010906 -1892520.000000 1 0 0
-11.604934 -10.943398 -8.929727 18.280385 0.756068 2.081151 0.016628 -0.020012 953079.000000 1 0 0
-13.214734 -8.629398 -5.961127 16.871003 0.578491 1.931931 0.012838 -0.011257 -145077.000000 1 0 0
-13.447734 -8.095898 -3.324627 16.044883 0.541909 1.779516 0.006669 -0.010934 323040.000000 1 0 0
-4.308234 -16.989198 -3.315427 17.837763 1.322445 1.757749 0.001067 -0.010243 -89291.800000 1 0 0
-15.452434 -8.944498 -1.925227 17.957958 0.524716 1.678210 0.005536 -0.008441 -2125560.000000 1 0 0
-9.312734 -15.513698 3.679373 18.464551 1.030163 1.370187 0.013696 -0.007050 -1417640.000000 1 0 0
4.799166 -16.964598 7.940373 19.335954 -1.295107 1.147626 0.035139 -0.027902 297736.000000 1 0 0
-8.312634 -15.477098 6.131273 18.607336 1.077917 1.235014 0.011875 0.002127 244172.000000 1 0 0
0.833366 -15.864298 8.609573 18.069178 -1.518314 1.074152 0.029198 -0.012568 -173569.000000 1 0 0
-10.847434 -7.767898 -10.227327 16.810868 0.621453 2.224809 0.018082 -0.007853 948793.000000 1 0 0
-4.787534 -15.928398 5.895973 17.646440 1.278820 1.230128 0.009173 -0.005624 -1545200.000000 1 0 0
-1.118334 -13.195398 -12.110827 17.945511 1.486247 2.311580 0.007835 0.000919 -274866.000000 1 0 0
-6.351734 -14.253398 -2.611827 15.821679 1.151583 1.736634 0.008226 -0.006551 659199.000000 1 0 0
-17.654534 -7.026798 -7.262527 20.342142 0.378795 1.935871 0.035865 -0.017799 222821.000000 1 0 0
-17.378634 -4.174398 -10.345127 20.651009 0.235737 2.095493 0.044192 -0.012306 489821.000000 1 0 0
-15.252034 -5.292398 -9.216527 18.589739 0.333996 2.089536 0.016685 -0.014989 46434.800000 1 0 0
-16.202434 -5.390598 -5.698027 18.001248 0.321183 1.892871 0.013812 -0.009120 304611.000000 1 0 0
-15.151434 -4.463498 -12.337227 20.042354 0.286488 2.233890 0.038254 -0.011994 -336426.000000 1 0 0
-18.736134 -5.159598 -5.824027 20.287520 0.268722 1.861968 0.035618 -0.013310 -1625400.000000 1 0 0
-17.369834 -4.492198 -7.852927 19.584673 0.253076 1.983375 0.025546 -0.015769 385558.000000 1 0 0
12.171966 -8.024398 8.812773 17.035630 -0.582852 1.027087 0.013416 -0.008391 151366.000000 1 0 0
15.952366 -3.369198 1.854373 16.409393 -0.208145 1.457548 0.013281 -0.005276 1705030.000000 1 0 0
11.888466 -2.351698 12.596173 17.479407 -0.195292 0.766087 0.017845 -0.003410 624047.000000 1 0 0
9.657566 -9.986698 5.071873 14.789409 -0.802151 1.220752 0.004328 -0.004788 264490.000000 1 0 0
16.727566 -1.705898 7.416173 18.377192 -0.101630 1.155399 0.032404 -0.021533 -820200.000000 1 0 0
5.017166 -12.790698 9.153573 16.509446 -1.196988 0.983101 0.019411 0.000541 -525567.000000 1 0 0
15.266566 -9.065598 -2.119927 17.881477 -0.535863 1.689630 0.024625 -0.002502 757017.000000 1 0 0
11.186766 -8.696298 6.439373 15.563896 -0.660791 1.144240 0.014349 -0.007056 -1962300.000000 1 0 0
19.697866 -3.556498 4.068173 20.425588 -0.178628 1.370285 0.059027 -0.017591 122775.000000 1 0 0
13.671366 -8.642898 6.928673 17.595808 -0.563753 1.166069 0.014591 -0.009526 -1992520.000000 1 0 0
8.391266 -11.025698 8.881473 16.457823 -0.920252 1.000774 0.013360 -0.003662 -1502570.000000 1 0 0
16.817966 0.096502 -0.731427 16.834141 0.005738 1.614259 0.019351 0.002227 -1348840.000000 1 0 0
12.501566 -12.453798 2.358773 17.803091 -0.783484 1.437913 0.018958 -0.002290 -1338150.000000 1 0 0
10.549366 -11.525698 3.573473 16.028118 -0.829597 1.345956 0.014755 -0.004079 -1652780.000000 1 0 0
16.364066 3.083502 2.410773 16.825649 0.186247 1.427022 0.015309 0.003988 26274.400000 1 0 0
18.471166 -3.383098 0.668273 18.790315 -0.181148 1.535224 0.038671 -0.010084 1669170.000000 1 0 0
13.506666 -11.696798 -0.190927 17.868452 -0.713711 1.581482 0.025419 0.005276 -307530.000000 1 0 0
16.958166 -7.636798 -0.728827 18.612665 -0.423130 1.609964 0.027803 -0.002123 338875.000000 1 0 0
10.276166 -5.797298 9.619873 15.223344 -0.513642 0.886774 0.011004 -0.007093 -1453220.000000 1 0 0
11.326966 -13.356398 6.288573 18.607517 -0.867432 1.226049 0.020018 -0.006212 -151889.000000 1 0 0
13.072766 -1.675898 10.470173 16.832420 -0.127502 0.899471 0.021226 -0.005442 1037300.000000 1 0 0
15.658766 -2.043398 -1.473927 15.860167 -0.129762 1.663863 0.012649 0.002669 270089.000000 1 0 0
10.474466 -12.514298 9.030673 18.651412 -0.873898 1.065369 0.018830 -0.012920 -46221.400000 1 0 0
14.506366 1.308002 3.394073 14.955443 0.089924 1.341856 0.001766 0.003707 1190930.000000 1 0 0
15.065966 -5.858598 5.411873 17.046844 -0.370869 1.247735 0.024033 -0.010833 -1162330.000000 1 0 0
14.370066 -3.312598 -3.172027 15.084226 -0.226563 1.782666 0.015468 0.000101 796306.000000 1 0 0
14.212466 0.585002 9.686073 17.209196 0.041138 0.972975 0.037347 -0.007667 797285.000000 1 0 0
15.146066 -3.432598 4.445173 16.153811 -0.222868 1.292022 0.013383 -0.004382 -1589360.000000 1 0 0
18.461066 4.926802 -4.253427 19.574882 0.260797 1.789834 0.012261 0.003602 523677.000000 1 0 0
18.417066 -5.740198 -4.878527 19.898197 -0.302136 1.818496 0.075248 -0.012976 815889.000000 1 0 0
17.265366 0.059602 5.836373 18.225248 0.003452 1.244818 0.040540 -0.008474 491612.000000 1 0 0
17.043566 -6.734498 4.118973 18.783039 -0.376305 1.349707 0.037631 -0.013349 -163419.000000 1 0 0
9.805366 -6.684398 14.260573 18.552367 -0.598344 0.694043 0.032444 -0.004505 -1178270.000000 1 0 0
8.716966 -12.354198 5.108273 15.959517 -0.956330 1.244986 0.010755 -0.004253 -1613700.000000 1 0 0
16.901666 -10.265898 -0.467727 19.780641 -0.545835 1.594444 0.030070 0.000138 279640.000000 1 0 0
14.840066 -8.819098 0.296273 17.265337 -0.536200 1.553636 0.019848 -0.001520 -995024.000000 1 0 0
9.985566 -12.921798 1.522273 16.401272 -0.912882 1.477848 0.015845 -0.004033 621272.000000 1 0 0
16.613266 -8.416798 8.910773 20.645701 -0.468938 1.124526 0.044272 -0.013541 286689.000000 1 0 0
19.072466 -0.179298 -1.870927 19.164850 -0.009401 1.668575 0.042974 -0.001788 -486439.000000 1 0 0
13.453866 -1.213998 7.894773 15.646333 -0.089990 1.041905 0.016150 -0.008409 153503.000000 1 0 0
12.890066 -9.817398 -3.079327 16.492949 -0.650900 1.758604 0.020631 -0.001531 -389883.000000 1 0 0
8.845066 -15.242498 1.386773 17.677446 -1.044996 1.492267 0.025147 -0.003120 -1617790.000000 1 0 0
11.514566 -8.450498 11.241473 18.175997 -0.633115 0.903991 0.016621 -0.008798 83080.500000 1 0 0
14.030066 -3.988298 -0.574227 14.597227 -0.276962 1.610145 0.009098 -0.002160 -578801.000000 1 0 0
7.108166 -13.402698 10.501473 18.450997 -1.083162 0.965319 0.016994 -0.000689 -176639.000000 1 0 0
15.415666 -6.729698 1.909473 16.928606 -0.411612 1.457760 0.011447 -0.002025 188512.000000 1 0 0
15.927166 -6.170898 -2.557027 17.271161 -0.369636 1.719394 0.035080 -0.004818 554959.000000 1 0 0
11.241166 -8.494898 3.798273 14.592943 -0.647136 1.307483 0.009895 -0.001679 610803.000000 1 0 0
10.780966 -14.523098 -0.357827 18.090817 -0.932221 1.590577 0.041437 -0.004026 872858.000000 1 0 0
13.398766 -12.953198 4.756673 19.233778 -0.768491 1.320895 0.015126 -0.005395 304084.000000 1 0 0
12.874866 -11.152998 6.576973 18.259467 -0.713859 1.202319 0.015534 -0.013034 -151816.000000 1 0 0
10.980066 -10.506998 1.335173 15.255870 -0.763385 1.483166 0.011177 0.001472 319134.000000 1 0 0
14.000366 -7.557898 11.788773 19.801698 -0.495006 0.933106 0.023216 -0.016564 161255.000000 1 0 0
15.393666 -1.798898 -5.092227 16.313546 -0.116332 1.888249 0.024915 -0.001574 104361.000000 1 0 0
13.016366 -11.356498 -7.082727 18.669785 -0.717400 1.959910 0.052992 -0.007705 282443.000000 1 0 0
17.603666 -5.295198 2.131673 18.506005 -0.292191 1.455352 0.040917 -0.011457 556568.000000 1 0 0
10.681166 -9.957998 9.294873 17.310220 -0.750374 1.003969 0.008148 -0.007106 -1862610.000000 1 0 0
16.558666 1.822902 9.928273 19.392860 0.109646 1.033337 0.059804 -0.008390 109255.000000 1 0 0
18.209766 3.699902 0.620073 18.592185 0.200454 1.537439 0.019742 0.009219 514413.000000 1 0 0
13.192066 -4.245598 5.800773 15.023471 -0.311362 1.174381 0.008225 -0.008600 -2318740.000000 1 0 0
12.080266 -6.388998 6.779673 15.255035 -0.486483 1.110267 0.009891 -0.007521 -206395.000000 1 0 0
16.548166 -10.224898 3.583073 19.779504 -0.553468 1.388640 0.024537 -0.007550 -662340.000000 1 0 0
16.273466 -8.003098 -5.511527 18.953950 -0.457057 1.865844 0.047523 -0.008365 -318957.000000 1 0 0
14.061266 -0.374198 5.441973 15.082251 -0.026606 1.201650 0.009891 -0.000255 1474000.000000 1 0 0
17.785166 -4.306298 5.759673 19.184113 -0.237557 1.265861 0.025665 -0.007240 -237022.000000 1 0 0
13.681066 -13.510598 7.305973 20.569032 -0.779129 1.207676 0.029863 -0.011631 -14598.700000 1 0 0
15.052066 -13.701998 -0.930627 20.375857 -0.738480 1.616485 0.032738 0.011389 519006.000000 1 0 0
17.929266 -6.217498 8.241673 20.689153 -0.333803 1.161071 0.072274 -0.006681 70757.300000 1 0 0
14.462266 3.235702 9.536473 17.623031 0.220109 0.999008 0.043530 -0.007665 -929658.000000 1 0 0
18.778266 3.837802 3.097673 19.415138 0.201598 1.410562 0.041914 0.004996 815729.000000 1 0 0
14.805466 -10.768298 8.280673 20.092975 -0.628827 1.146019 0.029362 -0.012362 -279986.000000 1 0 0
14.810066 -4.839898 10.492773 18.784594 -0.315857 0.978119 0.036614 -0.014983 215867.000000 1 0 0
17.737866 -7.891098 1.903173 19.507009 -0.418582 1.473077 0.052458 -0.009823 -178449.000000 1 0 0
18.537766 -5.958398 -1.896027 19.563901 -0.310990 1.667863 0.042817 -0.006893 1000120.000000 1 0 0
14.430666 -13.087098 -5.568127 20.261301 -0.736611 1.849195 0.060254 -0.006244 -887309.000000 1 0 0
15.430566 -1.672698 9.658273 18.280660 -0.107980 1.014161 0.052782 -0.013595 96857.100000 1 0 0
13.032766 -10.127498 10.309973 19.460595 -0.660608 1.012447 0.009439 -0.013820 -1142330.000000 1 0 0
16.641766 2.237402 4.689073 17.433925 0.133644 1.298481 0.031485 -0.005253 -894177.000000 1 0 0
15.023766 2.325702 -0.062527 15.202840 0.153582 1.574909 0.007409 0.006376 -977115.000000 1 0 0
15.118866 -9.783998 -6.997527 19.320252 -0.574361 1.941409 0.055701 -0.010526 666249.000000 1 0 0
16.077366 -0.082698 -3.286127 16.409972 -0.005144 1.772411 0.013356 0.004816 299515.000000 1 0 0
12.003966 2.560902 13.627073 18.339862 0.210187 0.733209 0.038023 -0.004951 -240422.000000 1 0 0
17.770666 -2.942498 9.524973 20.375966 -0.164093 1.084380 0.058177 -0.020375 882204.000000 1 0 0
7.931766 -18.270998 4.628773 20.449152 -1.161228 1.342462 0.042554 -0.013022 -114361.000000 1 0 0
7.013766 -11.273898 6.636873 14.843914 -1.014268 1.107264 0.007951 -0.002208 40807.700000 1 0 0
18.063266 2.221402 -1.585027 18.268238 0.122365 1.657670 0.025423 0.007209 380370.000000 1 0 0
17.394466 -2.464598 3.902173 17.996351 -0.140752 1.352229 0.014329 -0.007158 -2209740.000000 1 0 0
12.656966 -13.505298 -1.911927 18.607723 -0.817813 1.673727 0.037944 0.007728 -1096370.000000 1 0 0
15.011466 -8.308098 4.471473 17.730276 -0.505488 1.315849 0.020130 -0.005695 -142885.000000 1 0 0
11.695866 -3.061298 15.153473 19.385370 -0.255999 0.673415 0.017942 -0.000389 237021.000000 1 0 0
12.149266 -13.727798 -6.549327 19.466659 -0.846324 1.913928 0.032781 -0.006701 180871.000000 1 0 0
10.655566 -12.093198 -1.238727 16.165426 -0.848510 1.647500 0.023719 -0.002412 -980723.000000 1 0 0
13.194766 -8.072998 2.061773 15.605322 -0.549075 1.438289 0.010358 0.003389 -600079.000000 1 0 0
8.775966 -7.891298 9.911273 15.411797 -0.732370 0.872261 0.015896 -0.005448 -1131490.000000 1 0 0
15.656566 -3.869498 8.222473 18.102766 -0.242293 1.099310 0.038633 -0.015854 -280829.000000 1 0 0
10.283366 -17.355498 5.308973 20.860157 -1.035900 1.313463 0.035669 -0.015126 -654554.000000 1 0 0
15.287166 -6.431298 8.392273 18.587342 -0.398222 1.102345 0.033627 -0.008116 -731537.000000 1 0 0
16.672466 -5.007698 -0.301827 17.410895 -0.291785 1.588133 0.023349 -0.003545 -403527.000000 1 0 0
14.021466 -10.617098 3.541873 17.940712 -0.648095 1.372070 0.018049 -0.002043 532280.000000 1 0 0
15.088266 -10.058398 -4.452927 18.672325 -0.587982 1.811594 0.048374 -0.007355 610592.000000 1 0 0
13.738766 -6.549298 -0.089927 15.220220 -0.444836 1.576705 0.010765 0.000462 -295673.000000 1 0 0
17.892966 -0.781998 -4.850227 18.555174 -0.043676 1.835263 0.036643 -0.004368 -5133.980000 1 0 0
14.362866 0.263102 -1.632427 14.457731 0.018316 1.683948 0.004671 0.004242 -2014160.000000 1 0 0
4.815266 -12.865098 11.712373 18.052070 -1.212649 0.864776 0.013914 0.000837 -198968.000000 1 0 0
12.111866 -7.433998 13.570373 19.649851 -0.550489 0.808465 0.025080 -0.009771 478888.000000 1 0 0
12.112066 -5.885298 11.522373 17.722978 -0.452307 0.863031 0.016082 -0.007071 890595.000000 1 0 0
13.304766 -4.716398 8.413573 16.433181 -0.340669 1.033300 0.017017 -0.011089 -1754170.000000 1 0 0
15.377866 -1.148498 3.253873 15.760251 -0.074547 1.362840 0.011807 0.004635 743816.000000 1 0 0
15.264366 -10.438198 5.844173 19.393587 -0.599789 1.264693 0.035127 -0.012375 325103.000000 1 0 0
13.729366 -8.081498 -5.677827 16.912831 -0.532016 1.913157 0.041141 -0.003950 -309601.000000 1 0 0
9.496466 -2.463798 13.757473 16.897373 -0.253847 0.619484 0.011950 -0.000645 328655.000000 1 0 0
10.066666 -9.198298 13.838973 19.428423 -0.740354 0.778019 0.040752 -0.002027 -267989.000000 1 0 0
20.376266 6.328602 -3.032027 21.550792 0.301141 1.711957 0.043888 0.007493 216890.000000 1 0 0
11.187466 -3.563298 10.462873 15.726672 -0.308349 0.842908 0.013905 -0.005439 638500.000000 1 0 0
10.347966 -14.083598 -2.933127 17.720931 -0.937125 1.737079 0.030022 -0.000072 706972.000000 1 0 0
14.983366 -12.967998 2.687173 19.997279 -0.713420 1.436012 0.022930 0.003684 625254.000000 1 0 0
11.063066 -0.564898 14.379473 18.151578 -0.051017 0.656409 0.021602 -0.003175 291987.000000 1 0 0
18.878366 -1.956298 5.914673 19.879718 -0.103258 1.268699 0.065538 -0.013175 422334.000000 1 0 0
18.699266 -0.231698 7.941473 20.317068 -0.012390 1.169212 0.049958 -0.017443 -318424.000000 1 0 0
19.018366 0.851602 0.513673 19.044352 0.044748 1.543821 0.045839 -0.001841 360972.000000 1 0 0
18.378966 0.573302 3.527073 18.723123 0.031183 1.381283 0.035348 -0.005841 574447.000000 1 0 0
16.689066 -3.892398 -4.202727 17.644790 -0.229134 1.811293 0.031608 -0.004542 -896818.000000 1 0 0
11.176966 -8.176998 15.919773 21.100404 -0.631617 0.715939 0.047787 -0.010377 501629.000000 1 0 0
16.571466 -7.673598 6.503773 19.385476 -0.433662 1.228663 0.038821 -0.009067 189636.000000 1 0 0
19.108866 1.907602 5.581773 19.998598 0.099498 1.287931 0.063842 -0.014612 469164.000000 1 0 0
15.351066 1.729902 7.644273 17.236087 0.112216 1.111292 0.033766 -0.006166 379753.000000 1 0 0
8.775066 -15.891398 3.817473 18.550241 -1.066274 1.363524 0.019394 -0.008308 1012330.000000 1 0 0
11.311766 -15.103998 2.108573 18.987704 -0.927983 1.459517 0.030983 -0.002346 313232.000000 1 0 0
8.109766 -16.164598 6.171073 19.108759 -1.105790 1.241957 0.024869 -0.009392 40843.000000 1 0 0
14.580166 -11.726398 -2.550727 18.883747 -0.677340 1.706286 0.029444 0.002031 582552.000000 1 0 0
13.698366 -5.106698 3.311873 14.989734 -0.356837 1.348015 0.004895 -0.000191 -2172940.000000 1 0 0
-0.996034 10.081102 -5.494727 11.524440 -1.472314 2.067795 -0.000031 0.001256 -2216110.000000 1 0 0
8.316566 -1.697298 -7.958627 11.635543 -0.201322 2.324018 0.005351 -0.003691 -1955960.000000 1 0 0
2.966466 -10.149598 7.620373 13.033969 -1.286442 0.946342 0.007292 -0.000901 893403.000000 1 0 0
-6.261734 1.259202 8.183273 10.380792 -0.198448 0.662740 0.000358 -0.000810 -651528.000000 1 0 0
7.406466 -6.273598 -7.273227 12.129040 -0.702775 2.213865 0.002829 -0.004273 -94893.400000 1 0 0
-11.401334 -4.445298 -4.200127 12.938012 0.371763 1.901422 0.004751 -0.005957 276773.000000 1 0 0
2.050466 -3.205698 2.899973 4.784428 -1.001744 0.919614 0.009319 -0.002008 2354800.000000 1 0 0
-3.766234 -4.362398 8.833773 10.547539 0.858608 0.578068 0.002618 -0.002539 -1612670.000000 1 0 0
-4.899734 -1.094298 -2.337627 5.537994 0.219732 2.006565 0.007318 -0.005043 -325653.000000 1 0 0
5.059966 -5.080998 -3.682227 8.060931 -0.787472 2.045190 0.007756 -0.003754 -107.654000 1 0 0
2.740366 14.217102 -8.789027 16.937609 1.380380 2.116367 0.006382 -0.005102 -77244.100000 1 0 0
5.596666 -5.615798 13.557073 15.705225 -0.787104 0.529182 0.015740 -0.006938 -553693.000000 1 0 0
-4.833134 -0.820298 9.867373 11.018036 0.168122 0.461096 0.007333 -0.001910 -2345500.000000 1 0 0
-0.947134 11.979702 -2.790227 12.336761 -1.491899 1.798942 -0.000913 -0.003225 -128340.000000 1 0 0
3.115866 9.402202 -10.431827 14.385167 1.250789 2.382091 0.008606 -0.004922 -361862.000000 1 0 0
-10.735134 2.668202 1.099473 11.116260 -0.243612 1.471728 -0.000249 0.001019 -172274.000000 1 0 0
5.799366 -9.007598 -0.725527 10.737591 -0.998770 1.638417 0.005474 -0.002135 812415.000000 1 0 0
-6.897034 5.424102 9.332073 12.809275 -0.666418 0.754608 0.002996 -0.000105 538621.000000 1 0 0
-5.636234 -1.916798 5.095173 7.835945 0.327815 0.862908 0.002384 -0.003197 505558.000000 1 0 0
6.729366 -3.708298 -7.295827 10.595515 -0.503658 2.330321 0.003994 -0.004156 533538.000000 1 0 0
6.154166 4.666802 11.089573 13.514119 0.648802 0.608351 0.002937 -0.000764 12629.500000 1 0 0
3.759466 -9.882998 3.324573 11.084224 -1.207302 1.266169 0.004756 0.000552 807539.000000 1 0 0
-6.548034 6.667302 -5.867227 11.034220 -0.794423 2.131438 0.004266 -0.003441 48266.700000 1 0 0
-11.141934 8.347402 5.237173 14.874467 -0.642981 1.210992 0.005228 -0.008771 249623.000000 1 0 0
-9.242334 -5.530798 5.107273 11.920348 0.539257 1.128020 0.002701 -0.003925 -813625.000000 1 0 0
3.357366 9.856302 -8.006727 13.134926 1.242492 2.226321 0.007339 -0.002090 590530.000000 1 0 0
-8.202434 -8.477698 6.148173 13.302305 0.801899 1.090335 0.005139 -0.003929 -2226280.000000 1 0 0
-7.824934 -5.576598 -7.664827 12.291363 0.619179 2.244129 0.008805 -0.008356 -843284.000000 1 0 0
9.188766 -1.721198 6.954373 11.651577 -0.185170 0.931213 0.002948 -0.005129 1156980.000000 1 0 0
-4.137834 -0.408798 -4.817627 6.363829 0.098476 2.429556 0.013185 -0.008953 -1082640.000000 1 0 0
9.139466 1.205002 -4.552827 10.281542 0.131090 2.029533 0.003583 0.000010 -2890360.000000 1 0 0
-1.985634 -10.686398 10.572373 15.163011 1.387082 0.799246 -0.001140 -0.006732 244969.000000 1 0 0
-13.010634 0.280902 -2.730527 13.297040 -0.021587 1.777616 0.001831 0.001006 -994287.000000 1 0 0
-9.818034 -5.137598 -6.102027 12.650037 0.482099 2.074157 0.011924 -0.008400 -284687.000000 1 0 0
-5.622134 8.391402 -0.157927 10.101928 -0.980498 1.586430 0.000716 -0.000597 497514.000000 1 0 0
6.278266 9.722502 0.508473 11.584568 0.997417 1.526890 0.012394 -0.004213 502195.000000 1 0 0
-0.476334 -11.997698 0.035773 12.007204 1.531115 1.567817 0.007397 -0.001082 -217765.000000 1 0 0
6.311766 4.735202 2.434873 8.257671 0.643641 1.271485 0.006018 -0.000239 443454.000000 1 0 0
3.588566 -7.512198 -8.159427 11.657066 -1.125149 2.346132 0.001149 -0.003382 1650710.000000 1 0 0
-6.660734 -9.842098 4.573673 12.733843 0.975839 1.203413 0.008859 -0.003142 -2624230.000000 1 0 0
-0.069934 6.623402 -9.170827 11.312755 -1.560238 2.516079 0.007749 -0.004517 -2583710.000000 1 0 0
-17.344234 -2.680998 4.180873 18.041338 0.153362 1.336932 0.031328 -0.006278 -115033.000000 1 0 0
-8.258934 0.987302 -9.343527 12.509447 -0.118979 2.414211 0.015324 -0.009400 981750.000000 1 0 0
-10.037034 -5.811798 -11.755027 16.513622 0.524862 2.362908 0.017332 -0.000220 -393814.000000 1 0 0
2.134666 9.329302 6.448873 11.540391 1.345855 0.977848 -0.002968 0.002106 336919.000000 1 0 0
-11.454434 1.579502 -1.325127 11.638507 -0.137030 1.684901 0.000245 -0.000662 -1193090.000000 1 0 0
-6.053434 -5.312198 -3.166227 8.653815 0.720273 1.945371 0.014225 -0.008593 854859.000000 1 0 0
-6.911034 -8.378698 1.373673 10.947691 0.881095 1.444989 0.009341 -0.002822 -211785.000000 1 0 0
-0.005234 10.880202 -7.842327 13.411969 -1.570315 2.195339 0.004385 -0.001098 990927.000000 1 0 0
-2.919334 9.290502 -4.277227 10.636287 -1.266338 1.984644 0.003803 -0.002565 -59541.100000 1 0 0
3.414866 -4.850798 9.236173 10.977178 -0.957404 0.570932 0.012722 -0.003186 -780747.000000 1 0 0
-9.145734 1.541902 -0.420127 9.284310 -0.167022 1.616063 -0.001833 0.000064 -2274080.000000 1 0 0
2.519166 3.709402 -10.358727 11.287564 0.974215 2.733077 0.006028 -0.003058 -755887.000000 1 0 0
-13.692934 0.425102 1.052173 13.739877 -0.031035 1.494143 0.005821 -0.002662 -537109.000000 1 0 0
9.547566 -12.626598 -5.022627 16.607643 -0.923373 1.878036 0.022784 -0.000868 -1954370.000000 1 0 0
-4.776834 9.383402 -8.244827 13.373240 -1.099917 2.235107 0.003085 -0.005041 -1604000.000000 1 0 0
-2.296834 7.134902 8.440073 11.287918 -1.259357 0.726192 -0.003703 0.002496 -451224.000000 1 0 0
-10.668134 -1.286998 -4.583727 11.682294 0.120059 1.973998 0.004076 -0.001179 -4144800.000000 1 0 0
2.641366 -7.163698 9.590873 12.258884 -1.217547 0.672349 0.009019 -0.001248 -872522.000000 1 0 0
-16.182434 -6.536598 3.209673 17.745430 0.383891 1.388922 0.011511 -0.005577 59635.400000 1 0 0
-10.766934 -0.049298 6.030273 12.340724 0.004579 1.060257 0.001235 -0.003391 -1087280.000000 1 0 0
-8.404834 9.983902 9.408673 16.088587 -0.871060 0.946158 0.002817 -0.007169 114199.000000 1 0 0
0.232066 -6.018398 -3.745727 7.092633 -1.532256 2.127176 0.004724 -0.001497 660088.000000 1 0 0
4.983166 1.526102 -2.926527 5.977081 0.297182 2.082456 0.004666 -0.002115 -20868.400000 1 0 0
0.300066 5.398302 3.733073 6.570200 1.515268 0.966501 -0.001594 -0.000249 -2513370.000000 1 0 0
6.053166 -11.229998 -1.580827 12.855065 -1.076424 1.694082 0.001688 -0.000483 -1976490.000000 1 0 0
6.353466 -13.516198 5.353773 15.865593 -1.131384 1.226594 0.009211 -0.003277 460857.000000 1 0 0
8.204866 -8.318098 -5.851427 13.067127 -0.792251 2.035097 0.006046 -0.004175 684854.000000 1 0 0
-13.064234 -1.304798 -4.800527 13.979333 0.099545 1.921333 0.002826 0.001797 -3512930.000000 1 0 0
-6.772034 -1.367098 -6.940727 9.793013 0.199197 2.358511 0.014321 -0.008822 -499937.000000 1 0 0
-5.614034 12.870102 -4.548527 14.759607 -1.159471 1.884069 0.001165 -0.000263 211350.000000 1 0 0
-4.242634 6.939802 -6.702427 10.539607 -1.022074 2.260006 0.007464 -0.005214 -4170640.000000 1 0 0
-9.442934 -3.642398 -8.155527 12.998026 0.368142 2.249062 0.010996 -0.006483 729092.000000 1 0 0
-2.384434 -6.543298 9.242773 11.572775 1.221344 0.645723 0.005553 -0.004691 -204543.000000 1 0 0
7.531066 -6.042398 10.041173 13.930279 -0.676160 0.765817 0.012875 -0.002177 641780.000000 1 0 0
9.843466 -5.114598 12.195173 16.485605 -0.479199 0.738102 0.023092 -0.000315 -909945.000000 1 0 0
-6.416434 2.810302 -8.944627 11.361108 -0.412817 2.477218 0.008744 -0.009203 59074.000000 1 0 0
7.474766 5.418502 8.987973 12.884717 0.627246 0.798798 0.002223 -0.000789 -409929.000000 1 0 0
12.651666 3.279702 11.283273 17.266538 0.253647 0.858628 0.028126 -0.003035 -609831.000000 1 0 0
-7.511634 -7.277698 -3.959427 11.183318 0.769582 1.932692 0.013172 -0.009940 -473430.000000 1 0 0
2.242866 1.395602 -5.751827 6.329429 0.556612 2.711060 0.007667 -0.004807 -438838.000000 1 0 0
12.948166 6.991402 -7.028427 16.307468 0.495097 2.016391 0.007491 0.000576 -189691.000000 1 0 0
0.820166 -7.793798 1.020973 7.903060 -1.465949 1.441247 0.006257 -0.000330 1421560.000000 1 0 0
-10.194534 -6.063798 -8.605427 14.654404 0.536594 2.198422 0.014482 -0.005363 572311.000000 1 0 0
-6.788134 0.310902 3.100373 7.469118 -0.045769 1.142752 0.002592 -0.001822 1018350.000000 1 0 0
10.752366 -7.902298 1.270673 13.404265 -0.633790 1.475858 0.003576 0.000172 -883378.000000 1 0 0
6.275166 1.031002 10.564373 12.330720 0.162844 0.541857 0.003005 -0.003368 -781741.000000 1 0 0
-13.039934 5.388602 1.853073 14.230628 -0.391866 1.440208 0.006102 -0.001795 613010.000000 1 0 0
1.942366 7.350902 3.570873 8.399981 1.312465 1.131719 -0.002821 -0.000701 380617.000000 1 0 0
10.107566 -9.461198 -0.821827 13.869123 -0.752380 1.630087 0.007069 0.000047 778492.000000 1 0 0
6.898366 -11.645098 -9.061727 16.288360 -1.035996 2.160761 -0.000747 -0.000163 -48821.300000 1 0 0
10.194166 3.507702 12.011373 16.139953 0.331399 0.731458 0.016831 -0.003086 -528983.000000 1 0 0
-11.121134 -3.152498 -2.026727 11.735650 0.276223 1.744365 0.001121 -0.002601 173185.000000 1 0 0
12.384366 0.935702 6.870673 14.193457 0.075412 1.065493 0.007824 -0.002767 80691.100000 1 0 0
-9.599334 9.228102 3.093673 13.670255 -0.765683 1.342512 0.005019 -0.004698 368182.000000 1 0 0
-6.649234 7.602602 -8.802627 13.397690 -0.852193 2.287663 0.004804 -0.008074 -511815.000000 1 0 0
8.410666 5.412602 12.171873 15.754049 0.571821 0.687841 0.012604 -0.004647 767668.000000 1 0 0
1.392666 4.911802 -2.691927 5.771637 1.294513 2.056020 0.004769 -0.004784 1124290.000000 1 0 0
1.415866 0.464902 9.499573 9.615752 0.317260 0.155606 0.005088 -0.002274 661922.000000 1 0 0
2.642166 12.640102 -3.923827 13.496282 1.364733 1.865790 0.007458 -0.003663 317702.000000 1 0 0
2.088866 0.596002 12.917073 13.098448 0.277938 0.166608 0.001733 -0.005069 -36930.100000 1 0 0
-12.265134 -1.855898 0.759073 12.427954 0.150176 1.509680 0.000358 -0.002877 -1634.530000 1 0 0
3.229766 8.729302 -1.254227 9.391762 1.216424 1.704742 0.007497 -0.003661 62937.200000 1 0 0
3.692766 -2.904498 -5.770727 7.441366 -0.666478 2.458292 0.004063 -0.002567 -1367250.000000 1 0 0
-7.861634 -7.209998 9.293873 14.147983 0.742189 0.854091 0.003752 -0.004365 -358135.000000 1 0 0
-7.032334 10.879402 -3.496227 13.417850 -0.996963 1.834404 0.004217 0.001042 -264026.000000 1 0 0
0.387666 0.591802 2.527373 2.624524 0.990871 0.272938 0.004098 -0.000702 -1869920.000000 1 0 0
-7.139834 4.630502 -2.001727 8.742178 -0.575352 1.801819 0.009338 -0.003060 -1105100.000000 1 0 0
-6.643034 -3.795598 -5.950727 9.692658 0.519098 2.231841 0.014482 -0.007767 421080.000000 1 0 0
2.997066 -6.142398 13.405573 15.047287 -1.116850 0.471482 0.010491 -0.004173 -743313.000000 1 0 0
-5.574434 -0.578698 -11.632727 12.912380 0.103442 2.692629 0.010839 -0.002908 -751932.000000 1 0 0
11.861266 2.475002 -0.604727 12.131816 0.205711 1.620663 -0.000927 0.004474 -1493630.000000 1 0 0
6.147066 -10.897098 10.755373 16.498825 -1.057191 0.860726 0.014148 -0.001820 339586.000000 1 0 0
-8.175834 6.308002 -10.428327 14.676006 -0.657146 2.361104 0.007258 -0.009637 619836.000000 1 0 0
2.811266 7.779102 11.166273 13.896161 1.224013 0.637559 0.002172 0.002508 863700.000000 1 0 0
-6.247934 -10.012498 -0.474627 11.811523 1.012907 1.610991 0.011444 -0.001538 -268635.000000 1 0 0
11.244166 4.324002 6.144173 13.523281 0.367121 1.099165 0.006303 0.002178 433724.000000 1 0 0
-7.938434 10.663002 1.465973 13.374132 -0.930835 1.460963 0.003323 -0.000966 -159542.000000 1 0 0
4.391166 -2.480298 -3.425127 6.096369 -0.514164 2.167393 0.008464 -0.004558 -5343640.000000 1 0 0
6.307366 6.529602 6.464073 11.144631 0.802709 0.952047 0.004711 -0.000453 -4429720.000000 1 0 0
-0.293034 10.224202 -10.131527 14.396806 -1.542143 2.351437 0.002704 -0.003589 33116.200000 1 0 0
14.275166 6.472402 -2.422827 15.860090 0.425680 1.724159 0.007515 0.006584 666951.000000 1 0 0
1.488666 9.480202 -6.168527 11.407939 1.415039 2.142092 0.005792 -0.003663 2029130.000000 1 0 0
0.691166 7.282002 7.273273 10.315316 1.476165 0.788240 -0.006232 0.002693 -233106.000000 1 0 0
12.300166 6.449202 1.895373 14.017087 0.482912 1.435162 0.001401 0.003959 -1021270.000000 1 0 0
-6.812234 6.730302 -3.235527 10.108023 -0.779348 1.896626 0.004043 -0.003726 417969.000000 1 0 0
1.034266 9.723002 11.210473 14.875522 1.464822 0.717246 -0.001903 0.002973 -1145420.000000 1 0 0
-3.521134 13.750902 -10.982727 17.947311 -1.320117 2.229311 -0.000914 0.001860 34900.100000 1 0 0
-10.050034 -5.578398 -2.426127 11.747672 0.506722 1.778813 0.005039 -0.005684 -429400.000000 1 0 0
-3.915134 3.867202 -12.405027 13.570859 -0.779239 2.724062 0.005660 -0.010549 59520.800000 1 0 0
-3.130434 8.445502 2.460573 9.337051 -1.215834 1.304119 -0.001765 0.001984 -2654490.000000 1 0 0
7.081866 8.900902 7.127073 13.422893 0.898723 1.011059 0.012651 -0.001314 186917.000000 1 0 0
-1.330134 -2.174298 -8.116127 8.506959 1.021780 2.837294 0.007017 -0.006909 -1466390.000000 1 0 0
0.772666 -1.250498 4.863273 5.080569 -1.017328 0.293525 0.010056 -0.001562 -646812.000000 1 0 0
2.688566 -8.792198 -6.043427 11.002461 -1.274036 2.152298 -0.001718 -0.003227 531693.000000 1 0 0
5.460966 3.964202 8.619973 10.947190 0.627908 0.664194 -0.000361 -0.002580 27822.100000 1 0 0
6.247866 -7.384098 -2.773427 10.062437 -0.868557 1.850033 0.005535 -0.003642 1111130.000000 1 0 0
1.741566 2.290102 -8.266927 8.753268 0.920624 2.806680 0.006908 -0.004927 216131.000000 1 0 0
-5.425934 11.030802 -0.632627 12.309328 -1.113658 1.622213 -0.002198 0.001664 679548.000000 1 0 0
-5.673734 3.307102 -3.485327 7.434762 -0.527736 2.058715 0.008095 -0.001898 -638546.000000 1 0 0
2.015866 13.696102 -6.291227 15.206132 1.424660 1.997343 -0.002119 -0.002406 518598.000000 1 0 0
-5.204434 -2.658698 2.590373 6.392561 0.472292 1.153580 0.002292 -0.001177 789939.000000 1 0 0
10.426966 -3.333698 -1.806427 11.094970 -0.309448 1.734339 0.001634 0.000617 124698.000000 1 0 0
2.239166 -3.384498 6.985973 8.079140 -0.986313 0.526258 0.008456 -0.001968 -1688170.000000 1 0 0
-2.942534 9.829002 -11.697127 15.559260 -1.279915 2.421552 0.004486 -0.000224 -2058370.000000 1 0 0
0.441966 -2.124398 9.419173 9.665879 -1.365679 0.226419 0.009004 -0.003156 1322510.000000 1 0 0
9.536166 2.575102 5.011773 11.076438 0.263745 1.101262 0.002696 0.003124 -36911.600000 1 0 0
13.512066 2.122802 -4.986327 14.558355 0.155830 1.920380 0.015227 -0.000336 -884184.000000 1 0 0
-6.424634 3.725902 7.561873 10.599065 -0.525539 0.776391 0.001061 -0.001010 -7738.580000 1 0 0
10.638266 0.054802 1.824273 10.793687 0.005151 1.400968 -0.001381 0.002792 1071060.000000 1 0 0
15.497866 6.795502 -4.617427 17.540905 0.413233 1.837173 0.020466 0.003791 -857589.000000 1 0 0
8.078966 -4.749598 -9.305327 13.206722 -0.531473 2.352642 0.008758 -0.006834 2252680.000000 1 0 0
4.571966 5.598602 -2.076127 7.520474 0.885999 1.850492 0.006932 -0.003059 -70816.500000 1 0 0
-1.634434 -10.411598 1.460073 10.639763 1.415085 1.433134 0.010503 -0.001673 -1295870.000000 1 0 0
-2.762034 12.243002 -12.891827 17.992196 -1.348910 2.369602 0.006236 -0.000117 939017.000000 1 0 0
8.408166 4.314202 -9.591727 13.465171 0.474070 2.363617 0.005668 -0.000662 -1290630.000000 1 0 0
4.141566 7.614802 -8.981327 12.482068 1.072661 2.373934 0.008090 -0.004637 -2822880.000000 1 0 0
-1.832334 -5.002298 -2.450527 5.863917 1.219676 2.001928 0.009319 -0.004453 155860.000000 1 0 0
-3.361634 -9.037598 6.995873 11.913060 1.214693 0.943147 0.007282 -0.001841 -1380210.000000 1 0 0
1.025766 7.175402 -1.332527 7.369818 1.428802 1.752605 0.004136 -0.004754 1691100.000000 1 0 0
0.505766 -0.394198 -2.177427 2.269886 -0.662058 2.855193 0.008323 -0.007750 -1545900.000000 1 0 0
4.258466 -6.708498 7.455273 10.895851 -1.005190 0.817248 0.010162 -0.003041 -610805.000000 1 0 0
-14.009434 3.777802 6.043573 15.718167 -0.263396 1.176135 0.009220 -0.003927 -631897.000000 1 0 0
4.201666 6.182002 12.618773 14.666444 0.973851 0.534774 0.007808 -0.000709 -698809.000000 1 0 0
8.319566 10.159402 -7.153327 14.953218 0.884635 2.069606 0.007955 -0.003732 271443.000000 1 0 0
12.497266 5.251702 9.609373 16.616320 0.397822 0.954142 0.029679 -0.001493 -165959.000000 1 0 0
7.667966 4.006302 0.480073 8.664793 0.481464 1.515363 0.007406 0.003242 -14524.300000 1 0 0
-10.886834 -7.605898 -1.128227 13.328381 0.609808 1.655546 0.007200 -0.006099 -1538340.000000 1 0 0
10.378666 6.783902 0.162573 12.400180 0.578929 1.557685 0.005818 0.003488 -558921.000000 1 0 0
14.596166 3.643702 4.322573 15.652772 0.244634 1.291006 0.009380 0.001696 504196.000000 1 0 0
2.138966 5.498402 8.246873 10.139946 1.199795 0.620986 -0.004696 0.001686 -832297.000000 1 0 0
4.257266 0.046902 11.726473 12.475443 0.011016 0.348270 0.000944 -0.003557 -119842.000000 1 0 0
-1.353334 -1.618498 -0.657327 2.209780 0.874389 1.872830 0.010238 -0.006492 -1234990.000000 1 0 0
3.073366 -5.306198 -9.364527 11.193556 -1.045809 2.561843 -0.000259 -0.000915 290139.000000 1 0 0
-4.038434 -5.345698 -1.322227 6.828889 0.923813 1.765650 0.008251 -0.005989 -1705030.000000 1 0 0
-1.369534 -8.781098 8.643573 12.397365 1.416079 0.799298 0.007605 -0.003475 -126713.000000 1 0 0
4.049066 8.599102 -5.948827 11.212851 1.130722 2.130030 0.006885 -0.001865 397872.000000 1 0 0
-14.293334 -1.833198 -2.817027 14.683176 0.127559 1.763847 0.000229 -0.000497 -833219.000000 1 0 0
8.953766 -10.592698 -6.634827 15.375179 -0.869050 2.016983 0.004814 -0.003845 363258.000000 1 0 0
14.844366 6.259502 1.661773 16.195619 0.399051 1.468009 0.001780 0.010275 -1732020.000000 1 0 0
-5.708934 0.427902 -8.606327 10.336532 -0.074813 2.554605 0.012776 -0.012360 -428401.000000 1 0 0
-7.958934 -4.563598 -12.960227 15.878871 0.520626 2.525588 0.011521 -0.000296 1033950.000000 1 0 0
0.844966 -10.753298 11.971173 16.113856 -1.492380 0.733387 0.005109 -0.003677 -692785.000000 1 0 0
0.213666 11.650902 3.287573 12.107737 1.552459 1.295817 -0.002644 0.001963 -1446980.000000 1 0 0
5.193566 -13.230498 -3.795427 14.711373 -1.196733 1.831740 0.004552 0.000963 -204326.000000 1 0 0
-7.566734 1.523202 -7.053427 10.455928 -0.198648 2.311201 0.008456 -0.005541 784909.000000 1 0 0
1.439966 2.796402 4.028073 5.110649 1.095272 0.662963 -0.000001 -0.000320 -1893370.000000 1 0 0
17.238866 5.571302 2.150373 18.243958 0.312587 1.452654 0.015482 0.005585 -49419.600000 1 0 0
2.430166 -8.256198 -3.580527 9.321518 -1.284536 1.965045 0.001767 -0.002218 669517.000000 1 0 0
-0.378434 -9.377498 -0.576627 9.402829 1.530463 1.632160 0.009805 -0.000187 -1390550.000000 1 0 0
0.839066 11.846902 -5.569327 13.117565 1.500089 2.009283 0.004812 -0.001278 -1673880.000000 1 0 0
6.060066 -5.000998 7.793373 11.066664 -0.689942 0.789472 0.007882 -0.001183 -870403.000000 1 0 0
-6.023534 -2.012298 -9.356727 11.308433 0.322416 2.545279 0.015098 -0.007918 -173941.000000 1 0 0
2.088566 -1.357098 11.168773 11.443134 -0.576217 0.219420 0.001877 -0.001332 -590437.000000 1 0 0
18.031166 2.182602 -5.899627 19.096919 0.120460 1.884865 0.022333 0.000430 -1467590.000000 1 0 0
-8.837134 4.767202 7.682473 12.642845 -0.494708 0.917693 0.002787 -0.006088 388600.000000 1 0 0
11.341866 -7.114198 -4.877427 14.249177 -0.560216 1.920155 0.023408 -0.002789 104014.000000 1 0 0
10.831866 0.585102 9.046773 14.125005 0.053964 0.875674 0.006619 -0.004086 -191357.000000 1 0 0
-8.520234 -7.381898 -1.547027 11.378932 0.713936 1.707174 0.009875 -0.006939 -1884790.000000 1 0 0
10.367866 -10.538698 -3.207627 15.127647 -0.793569 1.784456 0.017930 -0.002737 379854.000000 1 0 0
7.796066 -13.916198 -3.738227 16.383332 -1.060144 1.800997 0.019304 -0.002689 -1134630.000000 1 0 0
1.781866 -1.132798 -11.611927 11.802336 -0.566283 2.961722 0.006894 -0.004766 283599.000000 1 0 0
-11.891334 -2.596498 -6.543727 13.819044 0.214978 2.064090 0.009233 -0.003927 222791.000000 1 0 0
2.733366 -12.027198 -6.383327 13.887824 -1.347327 2.048380 0.002752 -0.000579 174240.000000 1 0 0
-5.686834 1.415902 1.055173 5.954682 -0.244017 1.392655 0.006120 -0.002046 282255.000000 1 0 0
0.199166 6.840202 -3.941827 7.897217 1.541688 2.093404 0.007757 -0.006661 1069300.000000 1 0 0
5.470666 -11.800698 3.778473 13.544797 -1.136700 1.288084 0.000089 -0.000053 -1764620.000000 1 0 0
-4.358934 -9.357898 1.081573 10.379806 1.134879 1.466407 0.012886 -0.001693 -64983.100000 1 0 0
7.077766 -6.149398 -4.747627 10.509512 -0.715327 2.039517 0.005293 -0.004050 -398952.000000 1 0 0
-7.013034 -5.985798 2.162073 9.470321 0.706537 1.340465 0.006079 -0.004303 37737.000000 1 0 0
-6.348534 -0.848898 6.979273 9.472843 0.132927 0.742521 0.001747 -0.002028 -2391050.000000 1 0 0
4.266566 -4.950398 3.233473 7.291459 -0.859455 1.111341 0.006663 -0.000830 -207507.000000 1 0 0
-2.510034 10.521502 -8.757527 13.917491 -1.336611 2.251379 0.000579 -0.003161 -18547.800000 1 0 0
-2.291834 -4.942698 2.697273 6.079313 1.136624 1.111095 0.008008 0.000698 565957.000000 1 0 0
15.012766 5.060402 6.404973 17.088432 0.325113 1.186601 0.020392 -0.003314 -133336.000000 1 0 0
6.826466 0.365302 0.140773 6.837683 0.053462 1.550207 0.008451 -0.001896 4968880.000000 1 0 0
-9.632634 9.147002 0.422973 13.290379 -0.759544 1.538965 0.005469 -0.002393 -1667270.000000 1 0 0
7.262866 10.395502 -2.508727 12.927080 0.960974 1.766103 0.010901 -0.003343 -73262.700000 1 0 0
1.609366 -4.226998 -5.336227 6.995205 -1.207007 2.438492 0.004254 -0.003662 -67355.100000 1 0 0
0.880566 -8.085698 -7.940427 11.366807 -1.462320 2.344183 -0.002418 -0.000513 1820870.000000 1 0 0
-10.483934 0.215202 -10.504227 14.842438 -0.020524 2.357056 0.010189 -0.007593 -3024900.000000 1 0 0
5.886266 -2.388498 0.515873 6.373318 -0.385475 1.489765 0.009887 -0.003444 -301901.000000 1 0 0
-3.421734 5.448502 -1.045227 6.518200 -1.010033 1.731847 0.004256 -0.002939 794497.000000 1 0 0
-0.337934 4.537902 -5.093627 6.830212 -1.496464 2.412456 0.008319 -0.006682 -963762.000000 1 0 0
3.983566 -9.703998 9.981773 14.480061 -1.181265 0.810210 0.009354 -0.000117 -2104360.000000 1 0 0
7.185366 -13.492598 -0.746027 15.304779 -1.081456 1.619560 0.016283 -0.003773 279341.000000 1 0 0
13.066666 -0.051998 0.560673 13.078793 -0.003979 1.527914 -0.000332 0.001318 262405.000000 1 0 0
9.371566 2.436202 -0.722327 9.709948 0.254328 1.645256 0.005800 0.001879 -874333.000000 1 0 0
-0.800934 -5.791698 4.531673 7.397386 1.433378 0.911445 0.006767 0.000793 191525.000000 1 0 0
11.556866 -3.719898 3.430873 12.616247 -0.311405 1.295387 0.004201 -0.001796 -1967100.000000 1 0 0
1.637066 -8.215898 11.674673 14.369375 -1.374116 0.622422 0.005235 -0.003650 36793.900000 1 0 0
9.410266 -5.946298 -5.872427 12.585586 -0.563542 2.056238 0.006340 -0.005364 -2001620.000000 1 0 0
3.186866 6.392702 -0.082427 7.143497 1.108336 1.582335 0.002133 -0.001469 -1320450.000000 1 0 0
6.423366 -1.404098 11.334173 13.103228 -0.215207 0.525664 0.005427 -0.003677 309560.000000 1 0 0
-4.888834 -7.531098 -3.798127 9.749047 0.995017 1.970982 0.012616 -0.007709 -133026.000000 1 0 0
-3.362634 -8.392998 -5.654427 10.664065 1.189732 2.129670 0.007327 -0.000525 -944238.000000 1 0 0
9.897966 5.400902 2.275573 11.502943 0.499503 1.371658 0.004982 0.003175 -351934.000000 1 0 0
8.903566 -1.402898 0.367073 9.020885 -0.156281 1.530094 0.004267 -0.000453 1306790.000000 1 0 0
-4.018934 9.657402 9.169273 13.910169 -1.176445 0.851072 -0.001256 0.001783 261870.000000 1 0 0
-14.358334 -3.549498 -6.203327 16.038764 0.242349 1.967924 0.006536 -0.004739 -1257520.000000 1 0 0
10.737466 6.269202 -5.854727 13.743140 0.528469 2.010875 0.002008 0.000191 -602567.000000 1 0 0
-1.875934 4.583402 2.584973 5.586482 -1.182308 1.089736 0.002129 -0.000856 577291.000000 1 0 0
6.966166 -3.658898 2.667573 8.308487 -0.483634 1.243941 0.008554 -0.004336 -819703.000000 1 0 0
8.375266 -11.201898 -1.590727 14.076861 -0.928791 1.684041 0.012514 -0.003028 -1780060.000000 1 0 0
4.478266 0.490002 1.822573 4.859706 0.108984 1.186359 0.007618 -0.001311 527985.000000 1 0 0
-10.980634 2.201702 3.740773 11.807421 -0.197884 1.248426 0.001506 -0.003725 -262302.000000 1 0 0
-0.936734 -3.011398 4.358873 5.380126 1.269221 0.626337 0.009258 -0.000639 409730.000000 1 0 0
8.653166 -8.656598 -8.419127 14.855830 -0.785596 2.173318 0.012930 -0.007011 -366596.000000 1 0 0
12.215466 -4.699698 1.057773 13.131019 -0.367277 1.490154 0.002267 0.002994 451732.000000 1 0 0
2.957566 4.851702 3.496573 6.671748 1.023353 1.019154 -0.002207 -0.000793 578960.000000 1 0 0
6.105266 7.487402 2.073673 9.881072 0.886732 1.359361 0.005377 -0.001816 -249998.000000 1 0 0
-1.652234 -1.292198 -10.328527 10.539361 0.663726 2.941236 0.008156 -0.006074 1347220.000000 1 0 0
-1.013834 -8.605798 6.079773 10.585427 1.453529 0.958983 0.007626 -0.002383 -400432.000000 1 0 0
-4.317034 -0.257698 2.320673 4.908025 0.059623 1.078294 0.005665 -0.002279 222118.000000 1 0 0
-8.461334 6.120102 -7.922127 13.107628 -0.626194 2.219797 0.004179 -0.006781 -1296930.000000 1 0 0
6.563566 11.136402 -9.333527 15.944108 1.038223 2.196158 0.011876 -0.007762 95057.000000 1 0 0
-11.165734 -5.800398 3.043973 12.945424 0.479112 1.333435 0.004989 -0.002875 867338.000000 1 0 0
1.459866 -6.304698 2.971973 7.121310 -1.343254 1.140285 0.009492 -0.000469 1362420.000000 1 0 0
10.175866 2.221702 7.313173 12.726614 0.214957 0.958637 0.004299 0.000131 -1694360.000000 1 0 0
-4.085234 -2.522598 -10.582127 11.620416 0.553182 2.715650 0.007134 -0.002389 -2262800.000000 1 0 0
-8.233334 11.829202 5.901773 15.573975 -0.962748 1.182134 0.002409 -0.005051 -693853.000000 1 0 0
6.899766 6.002902 -2.939127 9.606252 0.716000 1.881743 0.007969 0.000571 -2727920.000000 1 0 0
3.913266 -9.875698 -2.336427 10.876671 -1.193525 1.787295 0.002010 -0.003990 -796457.000000 1 0 0
8.499066 -12.945998 -7.317927 17.128487 -0.989864 2.012231 0.011254 -0.000775 517807.000000 1 0 0
-1.141534 9.510502 3.670173 10.257822 -1.451339 1.204893 -0.004048 0.002241 -164270.000000 1 0 0
0.558766 -13.233598 4.732673 14.065509 -1.528598 1.227627 0.013634 -0.005605 -1235560.000000 1 0 0
-11.281834 -7.021798 -5.181827 14.263126 0.556727 1.942606 0.009183 -0.011289 19782.600000 1 0 0
3.540666 10.307002 -3.272127 11.378814 1.239906 1.862478 0.007017 -0.001998 -602701.000000 1 0 0
11.679866 -8.083898 -7.349427 15.993210 -0.605419 2.048267 0.039882 -0.006238 140339.000000 1 0 0
11.741366 -4.774698 -5.952027 14.003002 -0.386231 2.009818 0.021804 -0.004504 222755.000000 1 0 0
1.319866 -10.404998 -2.581927 10.801499 -1.444621 1.812167 0.000865 -0.000854 -1165180.000000 1 0 0
2.416166 -12.048098 -3.933227 12.902124 -1.372878 1.880578 0.002156 0.000909 -996924.000000 1 0 0
-7.758134 -5.746798 7.242573 12.069349 0.637552 0.927195 0.002124 -0.001603 -2840600.000000 1 0 0
-7.277034 -0.752498 9.417973 11.925589 0.103041 0.660431 0.000279 -0.001258 46794.400000 1 0 0
16.237966 2.746302 -7.597727 18.136681 0.167543 2.003046 0.020681 0.000493 316886.000000 1 0 0
-1.959334 6.327302 -5.442027 8.572596 -1.270498 2.258568 0.008880 -0.003721 -672655.000000 1 0 0
7.672766 1.005202 8.436973 11.448331 0.130267 0.742233 0.003258 -0.003167 -109832.000000 1 0 0
7.906966 8.214402 -3.773127 12.009705 0.804466 1.890382 0.009789 -0.000474 65633.500000 1 0 0
8.015466 0.600802 4.031873 8.992478 0.074815 1.105866 0.003667 -0.000339 237005.000000 1 0 0
-6.973834 5.824602 5.301173 10.519637 -0.695844 1.042652 0.007073 -0.005191 314041.000000 1 0 0
-6.109834 -2.044398 -4.475627 7.844799 0.322897 2.177937 0.012193 -0.006649 -1667260.000000 1 0 0
-15.200334 -2.135998 3.075373 15.654729 0.139609 1.373060 0.010830 -0.004657 -989337.000000 1 0 0
1.129066 1.300602 -10.482827 10.623372 0.855881 2.978749 0.008543 -0.006998 314453.000000 1 0 0
1.466966 -9.314498 9.326373 13.262469 -1.414587 0.790886 0.010304 -0.002987 257545.000000 1 0 0
-0.258734 -6.669998 -1.144227 6.772376 1.532025 1.740566 0.008327 -0.000751 813901.000000 1 0 0
-0.429034 -10.189498 -8.494027 13.272470 1.528716 2.265260 -0.004297 0.000232 -193544.000000 1 0 0
-4.363834 6.592702 3.828473 8.784302 -0.986088 1.119835 0.002037 0.000158 -582103.000000 1 0 0
10.848966 -1.104298 -8.540327 13.851236 -0.101439 2.235181 0.022521 -0.006126 482243.000000 1 0 0
2.929166 -1.022498 6.359673 7.076083 -0.335850 0.453872 0.007532 -0.000828 526834.000000 1 0 0
1.981866 -12.364998 6.808673 14.254087 -1.411868 1.072802 0.013690 -0.002370 -378872.000000 1 0 0
2.985266 -4.893098 -1.425927 5.906564 -1.022985 1.814619 0.011053 -0.003051 -1519060.000000 1 0 0
-1.066134 9.506402 -1.739327 9.722838 -1.459114 1.750655 0.001867 -0.004758 525468.000000 1 0 0
4.479866 -2.520998 2.590873 5.756497 -0.512571 1.103944 0.010052 -0.002551 -1295540.000000 1 0 0
17.813666 6.809902 -2.621327 19.250268 0.365142 1.707392 0.021230 0.012679 219156.000000 1 0 0
-7.215534 3.551102 -5.580827 9.788763 -0.457345 2.177455 0.006449 -0.005579 1079830.000000 1 0 0
-13.873534 -6.061098 2.068873 15.280448 0.411892 1.434986 0.000406 -0.005130 486.869000 1 0 0
6.744366 -6.093498 3.230173 9.646306 -0.734742 1.229339 0.008856 -0.004373 1037910.000000 1 0 0
-4.688734 2.038902 3.359373 6.117739 -0.410185 0.989485 0.006572 -0.002041 576990.000000 1 0 0
6.976066 -12.056698 -5.422527 14.947685 -1.046257 1.942032 0.008972 -0.001656 833197.000000 1 0 0
2.943966 -12.326298 3.187073 13.067594 -1.336352 1.324420 0.009303 -0.001532 -738002.000000 1 0 0
3.339266 11.325402 -6.020927 13.253942 1.284073 2.042354 0.004195 0.000853 -1061770.000000 1 0 0
-5.645634 -8.265898 6.430173 11.897284 0.971569 0.999796 0.006526 -0.002185 -59721.900000 1 0 0
-3.938434 6.597502 6.325173 9.952190 -1.032616 0.882068 0.001724 0.000727 391867.000000 1 0 0
4.367266 4.427902 -6.919127 9.303422 0.792292 2.409412 0.005471 -0.001359 -2249750.000000 1 0 0
-0.352934 -2.868398 1.577673 3.292616 1.448370 1.071105 0.009357 -0.000851 -630614.000000 1 0 0
-13.192534 -0.985998 6.318773 14.660901 0.074600 1.125201 0.006848 -0.007059 178777.000000 1 0 0
-0.501134 -9.173898 -5.998027 10.972141 1.516225 2.149166 -0.001699 -0.000767 -109514.000000 1 0 0
2.051066 -1.630498 -3.886327 4.687104 -0.671655 2.548388 0.008566 -0.003719 -592416.000000 1 0 0
11.463666 -1.951998 1.198273 11.690244 -0.168659 1.468114 0.001719 0.000923 1014010.000000 1 0 0
0.556466 -4.237398 -1.966627 4.704553 -1.440221 2.002068 0.007662 -0.002753 -874630.000000 1 0 0
1.128166 -7.455398 -11.275927 13.564743 -1.420614 2.552180 -0.004168 0.000191 -343746.000000 1 0 0
-4.343434 4.080002 -10.031327 11.667877 -0.754135 2.605554 0.006581 -0.009180 -268931.000000 1 0 0
-1.094834 5.794602 -2.159927 6.280235 -1.384057 1.921890 0.005737 -0.004664 -317230.000000 1 0 0
-11.465834 1.658902 -3.971927 12.247183 -0.143685 1.901082 0.005304 -0.000569 -369123.000000 1 0 0
-1.722234 -11.331898 4.142673 12.187688 1.419970 1.223979 0.015028 -0.003363 -433140.000000 1 0 0
-3.490334 -5.524098 -9.672527 11.672869 1.007295 2.547458 0.003115 -0.000458 -818346.000000 1 0 0
-12.885234 -3.771698 -8.462027 15.870125 0.284760 2.133181 0.016529 -0.003582 327220.000000 1 0 0
11.519766 4.492202 0.563873 12.377514 0.371818 1.525224 0.005327 0.004400 215374.000000 1 0 0
-8.888834 -2.361798 -3.044627 9.688096 0.259703 1.890478 0.006416 -0.004254 -545967.000000 1 0 0
-2.543434 -5.972798 -6.382627 9.103917 1.168218 2.347715 0.002974 -0.003286 107255.000000 1 0 0
-0.058734 2.768502 -1.841427 3.325493 -1.549585 2.157634 0.007166 -0.004819 222267.000000 1 0 0
8.137466 6.045802 -5.231627 11.407892 0.638979 2.047212 0.007740 0.000535 -172885.000000 1 0 0
-9.800134 -1.030998 -0.987627 9.903584 0.104817 1.670687 0.000928 -0.002278 -1349660.000000 1 0 0
6.114866 0.578102 -8.789227 10.722701 0.094260 2.531656 0.005953 -0.001520 484303.000000 1 0 0
-4.107834 2.463102 7.767473 9.125503 -0.540133 0.552561 -0.001492 0.002074 -1672410.000000 1 0 0
-10.141734 -3.363898 1.404773 10.777011 0.320270 1.440075 -0.001051 -0.004855 658870.000000 1 0 0
-1.820134 -8.047298 -7.879027 11.408373 1.348360 2.333164 -0.001137 -0.002495 -364251.000000 1 0 0
-9.504034 -9.792798 4.223073 14.284953 0.800361 1.270681 0.003866 -0.003223 -539701.000000 1 0 0
-1.298634 -10.784098 7.221873 13.043721 1.450952 0.984035 0.009561 -0.004880 74577.000000 1 0 0
9.457066 3.766502 -3.695427 10.829535 0.379017 1.919028 0.004421 0.002719 -676537.000000 1 0 0
12.853566 -0.764498 3.156873 13.257619 -0.059408 1.330369 -0.000343 0.002808 714203.000000 1 0 0
6.488766 12.029402 -6.809327 15.270152 1.076121 2.033003 0.004777 0.001524 554875.000000 1 0 0
-11.870934 -0.055198 -6.677027 13.620015 0.004650 2.083157 0.005071 0.001103 271263.000000 1 0 0
-7.640434 -6.577198 -11.163227 15.041722 0.710754 2.407070 0.011646 -0.006554 -827671.000000 1 0 0
4.092066 6.078702 6.575973 9.845762 0.978297 0.839414 -0.002249 -0.000157 -2515370.000000 1 0 0
-4.264234 -1.422098 -7.349627 8.615281 0.321896 2.592679 0.010319 -0.011876 -127261.000000 1 0 0
9.711266 9.276302 0.940273 13.462636 0.762494 1.500896 0.010068 -0.000072 -1179480.000000 1 0 0
-9.033034 4.035502 4.699273 10.952814 -0.420147 1.127359 0.004926 -0.003207 421151.000000 1 0 0
-7.070234 7.910702 -12.138727 16.121914 -0.841442 2.423305 0.009710 -0.008326 -1040740.000000 1 0 0
11.201266 -3.760898 7.317973 13.898397 -0.323930 1.016278 0.007175 -0.003370 944716.000000 1 0 0
11.863566 7.069502 6.497673 15.262431 0.537399 1.131028 0.007146 -0.000969 -184158.000000 1 0 0
-9.843634 -0.668398 -14.870327 17.845742 0.067798 2.555793 0.010531 0.003429 253268.000000 1 0 0
1.810866 -13.130998 12.019673 17.893431 -1.433753 0.834246 0.011557 -0.000254 280045.000000 1 0 0
2.833366 3.005402 13.031973 13.670871 0.814854 0.306930 -0.001443 -0.004934 -1071340.000000 1 0 0
-2.653034 -1.434998 10.978773 11.385572 0.495822 0.268120 0.008663 -0.002741 -93760.900000 1 0 0
2.570066 -10.091398 -8.282227 13.305520 -1.321419 2.242685 -0.004353 -0.000965 -838013.000000 1 0 0
13.933666 3.715502 -7.477827 16.244073 0.260593 2.049177 0.014369 -0.000636 -3494120.000000 1 0 0
7.300166 -1.572398 4.963173 8.966490 -0.212151 0.984206 0.004450 -0.002083 450343.000000 1 0 0
-1.248634 8.726802 10.198973 13.480920 -1.428681 0.712777 -0.006522 0.003154 -377.857000 1 0 0
-12.210734 -4.716498 0.879373 13.119477 0.368604 1.503718 0.000933 -0.004692 -327681.000000 1 0 0
-4.857034 4.851502 -5.303227 8.674795 -0.784828 2.228546 0.009649 -0.005493 154044.000000 1 0 0
-11.252334 0.220402 1.940573 11.420570 -0.019585 1.400049 -0.001806 0.000576 -4188220.000000 1 0 0
-1.322834 2.261302 -4.110827 4.874656 -1.041488 2.574202 0.008319 -0.007256 592815.000000 1 0 0
2.993366 -9.953998 13.136273 16.751238 -1.278679 0.669395 0.013579 -0.001394 -1512890.000000 1 0 0
8.967566 4.710602 -1.494327 10.239142 0.483677 1.717262 0.007099 -0.000174 -1312660.000000 1 0 0
4.029966 2.279002 3.825973 6.006042 0.514676 0.880169 0.000021 0.001861 393265.000000 1 0 0
-5.580434 -3.327098 7.395473 9.843975 0.537626 0.720814 0.002473 -0.003533 -146356.000000 1 0 0
1.727766 -5.862798 7.624673 9.772063 -1.284209 0.675728 0.008898 -0.001887 -773757.000000 1 0 0
-5.792734 -6.200498 -9.765327 12.936907 0.819385 2.426210 0.009641 -0.001738 -1247150.000000 1 0 0
-11.785734 -5.869598 5.436373 14.244643 0.462067 1.179223 0.007201 -0.003410 -1313730.000000 1 0 0
10.515566 6.239902 4.574373 13.055206 0.535550 1.212812 0.004097 0.001434 -1941990.000000 1 0 0
1.517366 -3.755798 0.380873 4.068598 -1.186841 1.477046 0.011970 -0.002124 -809079.000000 1 0 0
8.726466 4.309002 6.976173 11.974377 0.458664 0.948883 0.003141 0.003877 545854.000000 1 0 0
-7.933034 12.296402 3.491373 15.044075 -0.997838 1.336585 0.006506 -0.002262 -347919.000000 1 0 0
-6.138534 13.163802 -7.020827 16.132554 -1.134455 2.021053 0.005247 -0.009760 223619.000000 1 0 0
4.474666 -6.959798 -1.071727 8.343263 -0.999407 1.699606 0.007214 -0.003545 -909629.000000 1 0 0
-1.933134 -8.310198 11.144573 14.035594 1.342239 0.653399 0.004177 -0.006197 288416.000000 1 0 0
11.673066 8.881902 -5.717227 15.742787 0.650433 1.942459 0.005551 -0.002989 283326.000000 1 0 0
-3.316334 -2.930198 -1.912127 4.820826 0.723661 1.978649 0.012760 -0.006130 -1539460.000000 1 0 0
-2.028934 6.076802 4.714073 7.954029 -1.248552 0.936433 -0.003433 0.001298 16395.200000 1 0 0
0.362966 -11.373098 -5.661027 12.709301 -1.538893 2.032444 -0.001092 -0.001676 -178321.000000 1 0 0
-8.984034 6.338102 -1.606927 11.111553 -0.614398 1.715923 0.005471 0.000328 -754409.000000 1 0 0
2.924766 -0.083898 3.939973 4.907615 -0.028678 0.638772 0.004398 -0.000509 -89464.400000 1 0 0
-10.134634 3.939202 -1.029127 10.921868 -0.370716 1.665163 0.005280 0.000076 328089.000000 1 0 0
6.443166 5.375702 13.751773 16.109743 0.695324 0.547880 0.014331 -0.000421 -1242350.000000 1 0 0
-8.764534 -1.709798 5.606473 10.543860 0.192662 1.010156 -0.002086 -0.003671 -195100.000000 1 0 0
13.005066 -1.837798 -1.455827 13.214715 -0.140384 1.681188 0.009497 -0.001915 -1616530.000000 1 0 0
5.292066 -5.574798 5.413473 9.401597 -0.811410 0.957210 0.008186 -0.004412 298540.000000 1 0 0
-9.155234 -1.146098 3.250673 9.782572 0.124537 1.232063 -0.002527 -0.001030 229625.000000 1 0 0
1.967266 5.428502 5.593173 8.038803 1.223121 0.801302 -0.001414 -0.001243 -901894.000000 1 0 0
9.326266 3.136202 -7.427127 12.327904 0.324397 2.217382 0.006700 -0.001006 -1304890.000000 1 0 0
2.196066 -2.297698 -1.423027 3.482403 -0.808011 1.991753 0.010966 -0.004102 37465.400000 1 0 0
-6.246534 0.384902 -3.943827 7.397372 -0.061541 2.133103 0.007895 -0.003113 -2361410.000000 1 0 0
-4.112934 4.227802 4.957873 7.705260 -0.799169 0.871813 0.003899 -0.000483 318990.000000 1 0 0
-6.460934 1.796302 -12.324827 14.031099 -0.271176 2.643287 0.006323 -0.005311 -2306230.000000 1 0 0
-0.084434 3.085902 6.227773 6.950904 -1.543442 0.460195 0.000340 0.000692 1260180.000000 1 0 0
-8.753334 9.376702 -2.120327 13.001506 -0.819768 1.734611 0.004553 0.001757 675877.000000 1 0 0
-1.264834 -3.688798 -6.145127 7.278024 1.240474 2.576129 0.001530 -0.004228 117008.000000 1 0 0
-3.357734 7.086202 -3.026727 8.405338 -1.128294 1.939167 0.004800 -0.001846 818114.000000 1 0 0
7.022366 -0.340598 -4.260927 8.221018 -0.048464 2.115654 0.004708 -0.001626 -15849.100000 1 0 0
-5.270034 -10.782798 7.007873 13.897923 1.116194 1.042296 0.005110 -0.004554 300793.000000 1 0 0
9.752666 8.406302 -1.428027 12.954523 0.711390 1.681255 0.008840 0.001869 244747.000000 1 0 0
13.876566 4.689802 -4.352627 15.280664 0.325914 1.859642 0.005041 0.000742 728270.000000 1 0 0
4.693266 1.200502 -6.766727 8.322052 0.250423 2.520268 0.004057 -0.002351 -699708.000000 1 0 0
9.031566 -4.700598 3.518573 10.772426 -0.479884 1.238063 0.004792 -0.003666 -846477.000000 1 0 0
-8.873134 -3.417598 -0.867827 9.548068 0.367650 1.661812 -0.000408 -0.003878 -291270.000000 1 0 0
-8.575334 -4.165098 -10.462727 14.154613 0.452148 2.402640 0.008333 -0.001539 -41099.600000 1 0 0
10.469966 -1.131498 10.801573 15.085571 -0.107653 0.772712 0.012201 -0.004517 -276035.000000 1 0 0
2.183766 -11.668098 9.867873 15.436588 -1.385780 0.877271 0.007267 -0.002987 817015.000000 1 0 0
-6.383534 -10.642598 2.085673 12.584293 1.030517 1.404292 0.010656 -0.000802 -840168.000000 1 0 0
-3.799534 -1.383298 6.652273 7.784774 0.349154 0.546163 0.007851 -0.000279 633615.000000 1 0 0
4.748666 -7.596398 3.874973 9.760662 -1.012110 1.162552 0.006708 -0.001432 212723.000000 1 0 0
11.520666 -9.521698 -5.306227 15.860156 -0.690685 1.911938 0.021482 -0.004832 656703.000000 1 0 0
11.259566 1.094102 11.613573 16.212648 0.096867 0.772271 0.015366 -0.000649 186391.000000 1 0 0
-10.259534 -3.555798 4.301973 11.679413 0.333629 1.193576 0.001983 -0.003175 917739.000000 1 0 0
2.043466 8.794002 8.946973 12.710568 1.342478 0.789923 -0.004859 0.004046 -71457.200000 1 0 0
6.597066 8.835802 4.141073 11.778844 0.929456 1.211550 0.009559 -0.001702 944811.000000 1 0 0
-4.187034 3.454502 0.342673 5.438957 -0.689828 1.507751 0.008539 -0.002634 -667668.000000 1 0 0
4.874266 6.940102 4.252173 9.487068 0.958506 1.106037 0.004271 -0.001290 -826737.000000 1 0 0
-8.345634 13.130202 1.157573 15.601018 -1.004607 1.496530 0.009907 -0.001653 -8419.750000 1 0 0
8.819266 8.223702 -9.177827 15.153918 0.750467 2.221367 0.002618 -0.006337 -1131100.000000 1 0 0
7.056866 1.928502 6.095273 9.522123 0.266767 0.876146 0.001514 0.000605 -451071.000000 1 0 0
11.584466 -6.197998 3.008273 13.478307 -0.491275 1.345707 0.005526 0.000674 -369643.000000 1 0 0
11.496666 4.783202 -2.062227 12.621614 0.394267 1.734921 -0.000100 0.004867 1807290.000000 1 0 0
-3.897134 14.210502 -6.099627 15.947773 -1.303134 1.963270 -0.006302 -0.000936 -91528.100000 1 0 0
7.160166 -3.095498 6.783373 10.337516 -0.408056 0.855038 0.007954 -0.003769 86547.000000 1 0 0
-8.175834 -0.411698 0.911373 8.236768 0.050313 1.459922 -0.001348 -0.002069 68593.100000 1 0 0
-3.251034 1.101502 10.730273 11.265934 -0.326677 0.309608 0.003813 -0.000712 -280089.000000 1 0 0
7.159066 -1.180898 -1.824427 7.481663 -0.163479 1.817133 0.009329 -0.002499 -1319900.000000 1 0 0
-7.825834 5.437502 2.864373 9.950614 -0.607237 1.278806 0.004817 -0.002000 846470.000000 1 0 0
9.477866 -2.146198 2.918073 10.146490 -0.222688 1.279082 0.003666 -0.001599 -1197180.000000 1 0 0
0.225466 3.486302 1.556573 3.824664 1.506214 1.151648 0.003493 -0.001047 -3223340.000000 1 0 0
-7.622134 -3.068298 3.774873 9.042181 0.382704 1.140133 -0.000122 -0.002705 252361.000000 1 0 0
-2.325134 8.370502 -6.747727 11.000153 -1.299850 2.231182 0.001522 -0.005011 -527277.000000 1 0 0
4.490666 9.774302 7.338473 13.021376 1.140123 0.972094 0.001679 0.005078 -249740.000000 1 0 0
-11.842434 -3.199798 6.846473 14.048350 0.263896 1.061743 0.006347 -0.006167 -1766880.000000 1 0 0
-4.750234 2.329702 -5.646527 7.737926 -0.455970 2.388710 0.012139 -0.008647 927595.000000 1 0 0
-2.738634 2.987702 -1.913727 4.482056 -0.828866 2.011942 0.008655 -0.003405 813905.000000 1 0 0
2.177166 5.176002 11.431273 12.735974 1.172635 0.456598 0.001033 -0.003645 -25817.500000 1 0 0
-0.648334 1.651502 4.551973 4.885514 -1.196710 0.371653 0.004555 -0.000771 -1540400.000000 1 0 0
5.054966 1.490402 7.758473 9.379119 0.286715 0.596678 0.000684 0.001244 937397.000000 1 0 0
3.373166 -8.174598 1.863473 9.037413 -1.179441 1.363111 0.006357 -0.000429 2392410.000000 1 0 0
5.073466 6.525002 -4.605227 9.461703 0.909900 2.079131 0.007815 -0.001773 -2625020.000000 1 0 0
-3.999234 2.862802 -7.991527 9.383710 -0.621276 2.589900 0.014260 -0.012027 30630.400000 1 0 0
-8.734234 -2.193098 -12.980727 15.798601 0.246006 2.535075 0.013265 -0.000340 55609.300000 1 0 0
-7.822434 8.168402 1.438973 11.401048 -0.807030 1.444245 0.003227 -0.001097 -752171.000000 1 0 0
7.338766 1.041302 -6.501327 9.859466 0.140950 2.290816 0.004310 -0.000105 259576.000000 1 0 0
9.014866 8.743902 5.513373 13.715718 0.770141 1.157124 0.007207 0.001508 413858.000000 1 0 0
9.456566 -1.069798 -1.318327 9.607763 -0.112649 1.708445 0.005405 0.000083 1445180.000000 1 0 0
5.446866 0.158202 4.173673 6.863886 0.029036 0.917178 0.003948 0.000570 -2382690.000000 1 0 0
-4.158234 -7.282398 -7.977627 11.574402 1.051975 2.331246 0.009937 -0.004361 -1051700.000000 1 0 0
-2.192434 7.481502 -0.564327 7.816527 -1.285730 1.643056 0.001704 -0.003022 288755.000000 1 0 0
13.338766 -3.317498 -7.475727 15.646565 -0.243765 2.068930 0.025258 -0.007037 1377940.000000 1 0 0
-4.775434 -5.078498 1.512873 7.133351 0.816144 1.357089 0.008070 -0.002292 738596.000000 1 0 0
-9.009934 1.379702 2.479373 9.446151 -0.151951 1.305211 0.001031 -0.001454 -926960.000000 1 0 0
-1.001634 11.154302 10.290273 15.208926 -1.481239 0.827669 -0.003507 0.002671 326899.000000 1 0 0
-8.539834 0.327502 7.310473 11.246289 -0.038331 0.863167 -0.002521 -0.003889 -406639.000000 1 0 0
-6.004434 13.032302 -2.152127 14.509506 -1.139051 1.719671 -0.002987 0.000158 1096640.000000 1 0 0
-13.054234 -0.881198 3.187573 13.466631 0.067401 1.331827 0.003347 -0.003859 348729.000000 1 0 0
-6.651034 12.787802 8.684573 16.828129 -1.091192 1.028534 0.006197 -0.005833 213509.000000 1 0 0
-8.042734 1.064402 -14.155427 16.315472 -0.131579 2.621167 0.006850 -0.001132 -365088.000000 1 0 0
7.352566 2.925402 3.838173 8.794872 0.378673 1.119191 0.004055 0.003284 -450873.000000 1 0 0
-1.770234 0.743802 -1.967927 2.749492 -0.397774 2.368483 0.010057 -0.006305 998925.000000 1 0 0
-6.301834 9.633602 -10.330727 15.467492 -0.991508 2.302179 0.003388 -0.006200 -154428.000000 1 0 0
-10.098334 13.632802 5.339273 17.785878 -0.933249 1.265897 0.005145 -0.004493 64679.800000 1 0 0
-5.576634 8.462102 2.450973 10.426566 -0.988111 1.333506 0.000516 -0.001260 -1184910.000000 1 0 0
-2.415334 -10.687898 -1.225427 11.025728 1.348542 1.682169 0.007577 -0.000069 541549.000000 1 0 0
-2.332334 -12.503998 8.810473 15.473015 1.386388 0.965010 0.003340 -0.002150 256889.000000 1 0 0
-14.762434 -6.411998 -1.829827 16.198501 0.409760 1.684001 0.008686 -0.006871 396905.000000 1 0 0
-2.747434 -9.346298 3.312673 10.289581 1.284890 1.243014 0.011383 -0.003443 -348270.000000 1 0 0
4.630566 -2.735798 7.531373 9.254637 -0.533637 0.620145 0.005073 -0.001927 -1597820.000000 1 0 0
-15.029134 -1.298398 -0.357627 15.089354 0.086178 1.594499 0.002799 -0.005444 97960.600000 1 0 0
5.484966 8.791302 -2.783127 10.729289 1.012982 1.833192 0.007470 -0.001846 132940.000000 1 0 0
-5.701134 -5.772298 8.491773 11.744469 0.791601 0.762597 0.003731 -0.003249 -1899930.000000 1 0 0
3.432466 3.544102 7.000873 8.564736 0.801398 0.613902 -0.001840 -0.000794 429685.000000 1 0 0
3.316866 2.409902 9.396073 10.251605 0.628330 0.411439 0.003203 -0.004301 855955.000000 1 0 0
9.937466 -3.273498 5.216573 11.691093 -0.318215 1.108281 0.007009 -0.002737 -281248.000000 1 0 0
6.601666 10.029702 -5.016827 13.013281 0.988670 1.966563 0.007435 -0.002236 367738.000000 1 0 0
-4.508534 12.014302 -8.618427 15.457930 -1.211794 2.162217 -0.004167 -0.003434 -954169.000000 1 0 0
-3.446834 -7.261598 2.167973 8.325358 1.127621 1.307354 0.010156 -0.004399 870880.000000 1 0 0
-7.482034 -4.150898 1.078073 8.623980 0.506507 1.445460 0.003650 -0.004270 3323000.000000 1 0 0
-1.930034 -3.945298 -10.914127 11.764718 1.115827 2.759000 0.006395 -0.002402 -769300.000000 1 0 0
-5.195534 8.310102 -4.471927 10.772627 -1.012048 1.998870 0.002273 -0.003424 -1302190.000000 1 0 0
-10.954234 -3.105198 -10.302727 15.355249 0.276224 2.306296 0.016178 -0.001789 328014.000000 1 0 0
4.724766 -11.325398 -7.677227 14.475078 -1.175565 2.129840 -0.001040 -0.002051 -2930300.000000 1 0 0
-9.445034 -3.932698 7.205973 12.514025 0.394545 0.957175 -0.001629 -0.002851 -1206370.000000 1 0 0
-5.600234 -9.622198 -5.160327 12.271035 1.043708 2.004825 0.010267 -0.007590 -53245.700000 1 0 0
4.986266 4.364502 -9.476727 11.563740 0.719002 2.531371 0.004054 0.002032 1154760.000000 1 0 0
-3.521134 -7.189198 -14.221327 16.319593 1.115357 2.628900 0.003340 0.003502 -455510.000000 1 0 0
0.649666 -0.717398 -8.695927 8.749622 -0.834903 3.030750 0.006854 -0.008575 60870.700000 1 0 0
-7.830834 2.175602 -2.972527 8.653965 -0.270991 1.921424 0.008171 -0.001854 -827238.000000 1 0 0
-2.363834 7.462002 -12.486727 14.737284 -1.264014 2.581655 0.004464 -0.003223 -268644.000000 1 0 0
-9.804434 8.746802 7.565073 15.161259 -0.728448 1.048382 0.002448 -0.010874 -210027.000000 1 0 0
-10.705334 -3.035798 -14.529027 18.300625 0.276324 2.488007 0.020680 0.009748 -94614.400000 1 0 0
-3.208134 4.857402 7.933673 9.840205 -0.987101 0.633010 -0.001841 0.000369 -66700.100000 1 0 0
8.744466 -2.238598 -3.456527 9.665640 -0.250619 1.936503 0.005611 -0.002209 -5212660.000000 1 0 0
1.872566 -8.352698 -1.204827 8.644402 -1.350256 1.710628 0.005239 0.000308 -289584.000000 1 0 0
-13.487634 -3.007298 4.947273 14.677725 0.219379 1.227004 0.013229 -0.006484 385030.000000 1 0 0
7.121866 2.804802 -1.911627 7.889373 0.375176 1.815536 0.007513 -0.001750 650873.000000 1 0 0
-11.102434 4.388202 8.828673 14.848091 -0.376402 0.934028 0.005973 -0.005372 -2877690.000000 1 0 0
-1.829034 -2.573698 7.905373 8.512591 0.952949 0.379990 0.005369 -0.003106 -873804.000000 1 0 0
3.031866 11.947202 -9.846427 15.775930 1.322271 2.244830 0.002794 -0.004292 329395.000000 1 0 0
3.669966 -4.990298 -7.002527 9.349178 -0.936692 2.417347 0.000791 -0.003478 204661.000000 1 0 0
8.364866 -13.715098 -9.705927 18.769122 -1.023128 2.114281 0.009306 0.005385 -215330.000000 1 0 0
-6.371734 -5.817898 -0.513827 8.643550 0.739994 1.630278 0.009354 -0.005370 -341211.000000 1 0 0
-1.276734 -4.219398 9.741473 10.692505 1.276968 0.424958 0.007201 -0.002492 1142730.000000 1 0 0
2.789966 3.319602 1.804073 4.696631 0.871871 1.176541 -0.000891 0.000651 -638608.000000 1 0 0
-9.135734 13.269202 7.767273 17.884738 -0.967836 1.121540 0.007173 -0.018287 -600412.000000 1 0 0
4.117866 -11.097498 -0.023327 11.836885 -1.215482 1.572767 0.002784 -0.001161 -29.167800 1 0 0
-12.664234 -1.351698 -9.217627 15.721786 0.106331 2.197276 0.011660 -0.000388 -41540.600000 1 0 0
-4.283434 0.878602 -13.455827 14.148464 -0.202310 2.827396 0.004281 -0.003238 397801.000000 1 0 0
3.867566 -3.039498 4.969373 6.992230 -0.666081 0.780305 0.006227 -0.000644 51225.900000 1 0 0
1.636766 -1.196098 1.142873 2.327190 -0.631079 1.057449 0.009831 -0.002283 212674.000000 1 0 0
8.240566 -9.002898 7.329873 14.236788 -0.829579 1.029959 0.012402 -0.003954 -924353.000000 1 0 0
0.010166 2.364702 -6.439927 6.860363 1.566497 2.789680 0.007721 -0.008748 -603524.000000 1 0 0
-3.693434 -9.714798 -3.316327 10.909482 1.207487 1.879670 0.009338 -0.000595 81481.200000 1 0 0
-9.485134 2.274902 -5.446627 11.171781 -0.235392 2.080060 0.007393 -0.001197 -947848.000000 1 0 0
8.992366 -7.635498 5.346673 12.951849 -0.703977 1.145258 0.004845 -0.002775 1265350.000000 1 0 0
-5.649734 -4.326998 4.603173 8.475353 0.653585 0.996642 0.001427 -0.001397 97093.600000 1 0 0
-0.182134 -12.593898 10.373473 16.317119 1.556335 0.881827 0.010869 0.001534 -2030140.000000 1 0 0
-14.217034 -8.263298 3.030973 16.721033 0.526500 1.388522 0.002104 -0.005009 -990981.000000 1 0 0
11.001966 -1.292798 -3.585027 11.643325 -0.116970 1.883786 0.015580 -0.001570 -6740.650000 1 0 0
-13.817034 3.040702 2.703673 14.403685 -0.216616 1.381969 0.004103 -0.002003 -1989430.000000 1 0 0
-6.228534 6.207502 1.101673 8.862358 -0.783707 1.446165 0.006488 -0.001821 228471.000000 1 0 0
7.201566 -6.854298 -0.418127 9.950819 -0.760697 1.612828 0.006484 -0.002904 714467.000000 1 0 0
-6.898034 7.873202 10.104673 14.549040 -0.851321 0.803037 0.002958 -0.002872 193306.000000 1 0 0
-12.641534 -5.101698 -2.145027 13.799886 0.383577 1.726867 0.000117 -0.006189 -2292990.000000 1 0 0
-9.511534 -5.635098 0.138473 11.056346 0.534849 1.558272 0.004531 -0.003833 -1043980.000000 1 0 0
-1.787234 1.946302 2.259673 3.476840 -0.827978 0.863315 0.007321 -0.001418 -62428.800000 1 0 0
-7.066434 7.330002 7.545273 12.672590 -0.803704 0.933032 0.003267 -0.004353 -175839.000000 1 0 0
5.588566 7.236302 -0.362427 9.150273 0.913178 1.610415 0.008637 -0.001761 -1584250.000000 1 0 0
-0.111734 -4.044298 7.469273 8.494638 1.543176 0.496421 0.009112 -0.002624 -584125.000000 1 0 0
6.511866 0.602602 13.060073 14.605924 0.092276 0.464239 0.007668 -0.005141 421591.000000 1 0 0
5.802166 6.179602 -7.827827 11.538089 0.816889 2.316425 0.002507 -0.001982 -313143.000000 1 0 0
10.007266 5.268202 9.044973 14.481397 0.484573 0.896187 0.008881 -0.001693 -2367500.000000 1 0 0
-1.155234 -4.986298 -8.506727 9.927847 1.343131 2.599935 0.005822 -0.002920 1012310.000000 1 0 0
10.038866 -3.555298 -7.913527 13.268116 -0.340370 2.209845 0.022351 -0.010201 288213.000000 1 0 0
8.429566 -5.356198 1.297973 10.071305 -0.566047 1.441559 0.005861 -0.003116 846957.000000 1 0 0
15.833566 3.140002 -5.002627 16.899341 0.195773 1.871325 0.017145 0.003683 -397454.000000 1 0 0
-6.814734 3.629502 1.169473 7.809068 -0.489383 1.420473 0.007439 -0.001878 325424.000000 1 0 0
-1.785234 3.875002 0.233473 4.272845 -1.139076 1.516128 0.006450 -0.004136 -1290590.000000 1 0 0
-2.668234 10.099002 6.821073 12.475429 -1.312491 0.992306 -0.002242 0.003844 201225.000000 1 0 0
5.555166 -5.665898 -8.596427 11.698754 -0.795266 2.396191 0.001356 -0.003528 327307.000000 1 0 0
-1.328034 -0.880198 6.260173 6.459736 0.585309 0.249214 0.006883 -0.001330 454607.000000 1 0 0
-5.560934 5.036102 -7.870127 10.873142 -0.735912 2.380110 0.007923 -0.007541 -57161.400000 1 0 0
6.766066 -1.195898 2.529173 7.321649 -0.174943 1.218091 0.006085 -0.000068 -817326.000000 1 0 0
8.778966 7.600002 3.219273 12.049647 0.713542 1.300344 0.008932 0.000231 -44672.500000 1 0 0
-5.204234 -4.860798 -7.721527 10.503970 0.751290 2.396619 0.011863 -0.008523 1194610.000000 1 0 0
-2.256634 7.860502 -10.018027 12.932160 -1.291230 2.456974 0.005911 -0.004578 533884.000000 1 0 0
-2.770934 -2.188298 1.533073 3.849290 0.668449 1.161162 0.004924 -0.000292 -1283430.000000 1 0 0
6.029466 -1.988098 -9.169427 11.152820 -0.318504 2.535995 0.003214 -0.000781 1115460.000000 1 0 0
1.089166 -7.629198 5.141773 9.264382 -1.428992 0.982428 0.009082 -0.001487 213419.000000 1 0 0
1.811166 11.691902 1.195873 11.891636 1.417110 1.470062 0.002912 -0.001964 395126.000000 1 0 0
-0.996934 7.098902 2.473173 7.583196 -1.431274 1.238580 -0.001210 -0.000458 442384.000000 1 0 0
8.888266 7.952002 -6.621427 13.641074 0.729859 2.077621 0.003837 -0.002867 -385031.000000 1 0 0
3.595566 -11.278498 5.449673 13.031944 -1.262184 1.139358 0.009434 -0.001524 -795761.000000 1 0 0
8.038166 -7.202798 12.350773 16.402256 -0.730642 0.718199 0.021679 -0.006260 594846.000000 1 0 0
-8.658334 0.017702 -4.072527 9.568309 -0.002044 2.010451 0.007021 -0.000742 -878969.000000 1 0 0
-3.328834 -5.057698 11.199873 12.731794 0.988698 0.495613 0.007486 -0.004891 376862.000000 1 0 0
-8.262134 0.136902 -11.740827 14.357180 -0.016568 2.528317 0.009175 -0.007004 -2166510.000000 1 0 0
1.364366 -5.033998 5.322773 7.452150 -1.306124 0.775230 0.007427 -0.000341 -385131.000000 1 0 0
6.788866 3.830202 -7.601627 10.887786 0.513671 2.343648 0.003678 -0.001170 -1096330.000000 1 0 0
16.382466 4.184302 -1.238427 16.953681 0.250067 1.643909 0.018474 0.013214 -802647.000000 1 0 0
7.840666 7.557702 0.212773 10.892207 0.767024 1.551261 0.010585 -0.000485 -1566140.000000 1 0 0
5.436466 -10.361198 13.796873 18.090420 -1.087589 0.703378 0.018103 -0.007348 -175931.000000 1 0 0
-5.306734 -9.030998 8.958773 13.783322 1.039535 0.863249 0.002769 -0.006649 197173.000000 1 0 0
-12.588334 -3.228498 2.814673 13.297057 0.251056 1.357506 0.004156 -0.004768 174935.000000 1 0 0
-2.112134 -1.359498 -5.772627 6.295441 0.571906 2.731174 0.008981 -0.010351 -827192.000000 1 0 0
-2.551834 13.044702 -4.345927 13.984391 -1.377614 1.886799 -0.001455 0.001399 228169.000000 1 0 0
3.958566 -0.481098 -4.997827 6.393746 -0.120940 2.468142 0.006700 -0.002776 -363594.000000 1 0 0
-9.079634 3.725002 -7.431927 12.310521 -0.389319 2.218937 0.005783 -0.006095 442578.000000 1 0 0
-4.633134 7.969902 -11.425027 14.680481 -1.044219 2.462664 0.006798 -0.005645 -540386.000000 1 0 0
-10.282234 -6.337298 7.428873 14.180050 0.552344 1.019378 0.002455 -0.001565 -1394510.000000 1 0 0
8.170266 5.311302 4.243073 10.628586 0.576429 1.160138 0.002330 0.002294 -1577560.000000 1 0 0
-6.802334 -7.493098 4.059773 10.904129 0.833681 1.189294 0.007688 -0.002486 -403779.000000 1 0 0
-4.088134 11.931702 8.143973 15.013415 -1.240704 0.997450 -0.000519 0.001715 -482506.000000 1 0 0
-7.310534 9.908202 -7.887127 14.622693 -0.935132 2.140492 0.007975 -0.007287 -449030.000000 1 0 0
13.029066 5.577402 4.698473 14.931163 0.404471 1.250681 0.000254 0.003078 -198577.000000 1 0 0
5.475766 3.993302 -3.772527 7.756445 0.630100 2.078730 0.005393 -0.000873 479384.000000 1 0 0
-2.919334 -4.130398 5.082373 7.170301 0.955526 0.782988 0.007020 -0.001776 -1611620.000000 1 0 0
12.475066 -2.326098 -5.334527 13.765726 -0.184343 1.968739 0.018142 -0.005750 -2407150.000000 1 0 0
-5.301034 9.900502 6.965273 13.214988 -1.079207 1.015643 -0.001816 0.000573 256742.000000 1 0 0
1.852866 3.794702 -0.527427 4.255708 1.116571 1.695050 0.003410 -0.002914 541840.000000 1 0 0
-0.191734 9.534502 7.763273 12.296824 -1.550690 0.887538 -0.006037 0.003289 176160.000000 1 0 0
-5.593734 2.132102 5.741673 8.294728 -0.364159 0.806253 0.003875 -0.001629 710111.000000 1 0 0
8.853166 0.885602 10.785373 13.981670 0.099701 0.689768 0.012163 -0.001606 -2550580.000000 1 0 0
0.392366 -2.776498 -10.128927 10.509903 -1.430409 2.871517 0.004853 -0.004067 -2701790.000000 1 0 0
1.190266 10.661702 -2.779227 11.082090 1.459617 1.824288 0.005701 -0.002815 -505523.000000 1 0 0
2.326166 -4.335798 11.593073 12.594028 -1.078375 0.401383 0.008052 -0.001453 473645.000000 1 0 0
6.557266 -3.042498 9.315073 11.790891 -0.434426 0.659950 0.005916 -0.004142 312847.000000 1 0 0
-10.668034 -8.194498 5.657473 14.593277 0.655007 1.172687 0.005766 -0.004768 -1422340.000000 1 0 0
-2.899234 0.803802 -6.749827 7.389981 -0.270453 2.722296 0.011459 -0.011114 687935.000000 1 0 0
11.155866 2.702202 -5.083627 12.553825 0.237645 1.987717 0.004139 0.000015 -2197240.000000 1 0 0
-2.092934 -4.041398 0.042273 4.551380 1.092952 1.561508 0.007280 -0.002854 929453.000000 1 0 0
-1.257534 -6.467498 -10.612727 12.491594 1.378754 2.586003 -0.000524 0.000355 1058130.000000 1 0 0
0.368866 6.850902 -6.548427 9.484346 1.517006 2.332902 0.007881 -0.003216 -2730850.000000 1 0 0
2.104466 3.835302 -6.104027 7.509825 1.068944 2.519749 0.005766 -0.004092 -1700590.000000 1 0 0
1.720566 -14.735898 6.543273 16.214853 -1.454562 1.155418 0.021240 -0.005624 307923.000000 1 0 0
-1.746734 5.384002 -10.519027 11.945229 -1.257080 2.647934 0.010085 -0.005706 -313750.000000 1 0 0
13.803866 4.288502 -0.661727 14.469826 0.301220 1.616544 -0.000419 0.009395 -211650.000000 1 0 0
-2.394634 3.374702 -6.117927 7.385927 -0.953667 2.546903 0.012810 -0.010243 -1346920.000000 1 0 0
5.575966 7.755502 14.174873 17.092870 0.947453 0.592968 0.009759 -0.003158 536083.000000 1 0 0
15.996266 0.596302 -5.927427 17.069579 0.037260 1.925434 0.017834 0.001186 507217.000000 1 0 0
6.217366 -8.284398 10.570773 14.799599 -0.926981 0.775229 0.014195 -0.001179 604882.000000 1 0 0
-0.014534 -5.833198 -6.386127 8.649222 1.568305 2.401412 0.001435 -0.002783 -631955.000000 1 0 0
8.741866 5.612102 -7.505227 12.815785 0.570716 2.196446 0.003770 0.001120 -17143.600000 1 0 0
-16.091234 -0.747198 5.317073 16.963413 0.046402 1.251979 0.023230 -0.011232 13121.500000 1 0 0
-0.405434 4.066002 -12.282227 12.944105 -1.471412 2.820422 0.010690 -0.005102 348446.000000 1 0 0
-11.412234 3.681802 5.750873 13.299146 -0.312077 1.123617 0.005787 -0.007036 72343.800000 1 0 0
5.182766 -9.599398 -9.540027 14.492123 -1.075736 2.289342 -0.006457 -0.001281 60079.400000 1 0 0
1.526866 11.167102 -11.678827 16.230542 1.434910 2.373963 0.006529 -0.002868 -1078430.000000 1 0 0
5.972166 2.378202 1.298373 6.558078 0.378966 1.371499 0.007052 -0.000496 -79747.100000 1 0 0
5.707566 4.547702 4.944173 8.814916 0.672777 0.975339 0.000030 0.001051 -552109.000000 1 0 0
0.428666 -1.517098 -6.331327 6.524649 -1.295418 2.897556 0.004283 -0.005476 63955.600000 1 0 0
12.819766 6.967302 -4.506327 15.270779 0.497825 1.870351 0.002234 0.000335 -24540.100000 1 0 0
7.382366 3.151402 12.750773 15.066946 0.403464 0.561843 0.009427 -0.002477 -594612.000000 1 0 0
-2.494034 -0.235598 8.677373 9.031750 0.094185 0.281056 0.002573 -0.001241 705583.000000 1 0 0
2.416466 -15.294998 13.292173 20.407306 -1.414101 0.861442 0.021477 -0.004821 282538.000000 1 0 0
18.925166 4.674202 -1.655027 19.563977 0.242137 1.655493 0.020284 0.007253 1028780.000000 1 0 0
-0.346134 -13.255798 7.250073 15.112894 1.544690 1.070452 0.009591 -0.005112 -1526290.000000 1 0 0
4.358966 1.683402 -0.479727 4.697294 0.368547 1.673103 0.007044 -0.004070 614401.000000 1 0 0
2.797466 -0.461898 -7.358127 7.885506 -0.163637 2.773792 0.002471 -0.004593 633491.000000 1 0 0
7.260966 -11.278898 0.888573 13.443390 -0.998816 1.504651 0.001966 0.001142 545932.000000 1 0 0
-11.888534 -7.353298 1.186273 14.029094 0.553926 1.486137 0.004642 -0.002802 -76816.200000 1 0 0
0.085966 -7.131598 9.945573 12.238525 -1.558743 0.622120 0.007269 -0.003435 -3628960.000000 1 0 0
-4.770334 -7.159398 10.655973 13.695358 0.983045 0.679206 0.003958 -0.003691 -1522470.000000 1 0 0
11.811166 0.633802 -1.654527 11.943317 0.053610 1.709775 0.002041 0.002471 -552828.000000 1 0 0
6.536566 -9.693498 -7.278627 13.772038 -0.977511 2.127638 -0.001352 -0.006202 -601052.000000 1 0 0
-11.096434 4.756702 3.401173 12.542927 -0.404975 1.296196 0.003346 -0.005492 58317.000000 1 0 0
6.005366 -9.177598 2.029773 11.154045 -0.991369 1.387800 0.004411 -0.000285 3534070.000000 1 0 0
11.606966 -1.433298 6.050373 13.167499 -0.122864 1.093372 0.004724 -0.004631 -27034.300000 1 0 0
-6.552234 3.666802 4.041573 8.527104 -0.510204 1.077005 0.003853 -0.001522 114297.000000 1 0 0
9.536266 6.369202 -3.106227 11.880899 0.588851 1.835318 0.008210 0.002920 -37944.400000 1 0 0
-2.334934 6.527802 10.973373 12.979947 -1.227287 0.563465 -0.007573 0.000383 345450.000000 1 0 0
1.858366 9.765602 3.023273 10.390413 1.382748 1.275558 -0.002744 -0.001629 -467546.000000 1 0 0
2.871766 6.163302 -5.633827 8.830251 1.134761 2.262713 0.005205 -0.002818 -2673920.000000 1 0 0
11.974766 0.138102 -5.661327 13.246310 0.011532 2.012399 0.013046 -0.001987 27561.000000 1 0 0
-2.696034 -12.537698 6.231773 14.258242 1.358988 1.118464 0.006511 -0.003319 126532.000000 1 0 0
11.004666 1.832402 -2.799527 11.502075 0.164998 1.816659 0.004587 0.000772 905515.000000 1 0 0
-8.724434 5.402102 0.686173 10.284419 -0.554412 1.504027 0.001448 -0.001925 -1329120.000000 1 0 0
1.142666 -10.237798 5.528473 11.691117 -1.459644 1.078242 0.011045 -0.000972 380573.000000 1 0 0
9.427166 -5.701198 -1.203427 11.082570 -0.543914 1.679598 0.007781 -0.002828 775062.000000 1 0 0
-7.778634 8.657502 -4.520227 12.485669 -0.838819 1.941245 0.002914 -0.001505 -297101.000000 1 0 0
-7.571034 -0.103698 -1.661327 7.751859 0.013696 1.786785 0.003693 -0.002058 -1435810.000000 1 0 0
4.103966 8.860002 2.782173 10.152963 1.137018 1.293220 0.005999 -0.003425 -497230.000000 1 0 0
-1.344134 -10.460798 -3.765527 11.198848 1.443004 1.913720 0.005716 -0.000617 -60288.100000 1 0 0
3.144566 7.866602 -3.664327 9.230331 1.190517 1.979029 0.010268 -0.004465 -243843.000000 1 0 0
-4.350134 1.648002 -10.998927 11.942193 -0.362132 2.741472 0.005695 -0.007588 -692032.000000 1 0 0
1.221966 2.772002 10.979973 11.390215 1.155599 0.269204 0.001759 -0.003813 514425.000000 1 0 0
2.149266 5.563302 -8.039427 10.010098 1.202130 2.503329 0.005250 -0.002409 458394.000000 1 0 0
15.517766 6.103902 4.056473 17.161400 0.374760 1.332166 0.013277 0.003476 70943.700000 1 0 0
-4.337634 9.146002 4.663573 11.145103 -1.127947 1.139068 -0.000948 0.000157 -679573.000000 1 0 0
-0.886434 -8.227698 -12.489127 14.981959 1.463473 2.556410 -0.005330 0.003060 293139.000000 1 0 0
14.321166 -4.165998 -5.394927 15.860536 -0.283086 1.917870 0.023464 -0.001936 223663.000000 1 0 0
-5.979734 -6.129398 -5.700627 10.287074 0.797757 2.158143 0.012665 -0.007667 710037.000000 1 0 0
-8.963134 2.633302 -12.143727 15.321297 -0.285752 2.485865 0.010063 -0.010023 -437705.000000 1 0 0
10.519966 5.360102 13.835473 18.188477 0.471232 0.706448 0.027652 -0.002545 681022.000000 1 0 0
-0.443334 10.925702 5.574973 12.273867 -1.530241 1.099306 -0.003404 0.006669 823849.000000 1 0 0
0.270166 11.165902 -0.582027 11.184324 1.546605 1.622859 0.002236 -0.002757 -892868.000000 1 0 0
-1.434934 -0.548598 3.643773 3.954374 0.365169 0.398990 0.007033 -0.000646 203563.000000 1 0 0
-4.826234 6.768402 8.742473 12.063773 -0.951363 0.760215 0.000194 0.000527 -1603120.000000 1 0 0
3.468966 -8.821198 -11.357027 14.792881 -1.196119 2.446097 -0.007205 -0.000572 -222549.000000 1 0 0
6.804866 -3.854298 11.898473 14.238521 -0.515350 0.581474 0.017719 -0.004157 -316369.000000 1 0 0
-2.482534 -1.868298 -12.457727 12.839334 0.645149 2.897175 0.003281 -0.003211 1058760.000000 1 0 0
-16.074234 -4.834798 5.108673 17.545791 0.292172 1.275355 0.013350 -0.008867 744879.000000 1 0 0
-8.886134 7.351402 5.731873 12.878697 -0.691161 1.109548 0.002938 -0.005673 -2541090.000000 1 0 0
-12.828634 1.437602 5.888173 14.188415 -0.111596 1.142855 0.003895 -0.007210 111093.000000 1 0 0
-3.459734 3.576302 10.071673 11.233801 -0.801964 0.458876 -0.001145 0.000608 450454.000000 1 0 0
2.112966 -12.388298 -1.134627 12.618318 -1.401861 1.660837 0.001135 0.000870 -3044460.000000 1 0 0
10.296166 -5.043998 -3.627627 12.025500 -0.455528 1.877231 0.012461 -0.002559 677460.000000 1 0 0
3.436366 -13.573198 0.940973 14.033024 -1.322834 1.503692 0.010994 0.000620 222192.000000 1 0 0
10.082266 -1.624398 -6.060227 11.875063 -0.159742 2.106367 0.016490 -0.002979 290595.000000 1 0 0
11.972266 -5.372498 -1.521127 13.210327 -0.421810 1.686199 0.013841 -0.001702 -203621.000000 1 0 0
1.537266 1.014902 5.916773 6.196887 0.583512 0.301818 0.002874 -0.000816 -178217.000000 1 0 0
-10.671334 11.494102 6.569673 17.004480 -0.822501 1.174126 0.005766 -0.014204 -662740.000000 1 0 0
4.772966 -14.138998 3.247273 15.272107 -1.245234 1.356533 0.009709 -0.004381 -2949930.000000 1 0 0
5.306566 -3.376298 -1.699327 6.515117 -0.566648 1.834677 0.009684 -0.003822 -1726910.000000 1 0 0
2.079366 -2.860298 -7.711027 8.483220 -0.942195 2.711613 0.000581 -0.003419 154112.000000 1 0 0
-2.848834 14.689402 -8.726327 17.321754 -1.379236 2.098764 0.000281 -0.009914 -2074390.000000 1 0 0
-2.369234 6.113702 -8.068427 10.396641 -1.201087 2.459192 0.012458 -0.007584 -72793.900000 1 0 0
2.599166 -3.450098 -11.235327 12.037086 -0.925148 2.774550 0.003619 -0.001235 -667909.000000 1 0 0
14.710366 2.802802 -2.702227 15.216853 0.188276 1.749324 0.008768 0.005492 600056.000000 1 0 0
-3.537334 13.260502 2.338573 13.922017 -1.310109 1.402020 -0.005687 0.004176 -376255.000000 1 0 0
7.954366 -5.037398 13.911273 16.797941 -0.564536 0.594991 0.020882 -0.007747 -2073230.000000 1 0 0
-11.459634 7.264602 2.905573 13.875878 -0.564995 1.359838 0.001369 -0.003667 1273300.000000 1 0 0
-2.326434 11.904802 3.950373 12.757039 -1.377809 1.255959 -0.006334 0.004703 407623.000000 1 0 0
1.677966 1.490402 0.598473 2.322722 0.726268 1.310197 0.005914 -0.001708 -1288150.000000 1 0 0
-6.777634 8.522602 5.262973 12.094211 -0.898956 1.120575 0.000806 -0.002448 -681634.000000 1 0 0
-1.094634 9.194602 0.967973 9.309989 -1.452302 1.466637 -0.001965 -0.000444 -31635.300000 1 0 0
4.894966 12.974402 -8.481027 16.254957 1.210029 2.119698 0.007284 -0.008405 -1828400.000000 1 0 0
8.909966 6.828102 7.184273 13.327575 0.653880 1.001484 0.000898 -0.000115 -1474890.000000 1 0 0
7.167366 -13.831798 2.875573 15.841676 -1.092710 1.388265 0.013432 -0.004512 1074150.000000 1 0 0
4.209566 -13.344498 -1.383927 14.060987 -1.265223 1.669379 0.004102 0.001050 -3273340.000000 1 0 0
12.252266 -11.862098 -4.610727 17.665962 -0.769220 1.834849 0.032270 -0.000858 -570202.000000 1 0 0
3.127766 -0.063998 -1.964927 3.694314 -0.020459 2.131614 0.006234 -0.003944 1770300.000000 1 0 0
-13.581134 -3.048998 -10.806427 17.621647 0.220841 2.230961 0.014101 -0.004820 -110840.000000 1 0 0
-6.461134 13.665902 5.080973 15.947395 -1.129151 1.246535 0.002163 -0.003132 477385.000000 1 0 0
7.344066 -4.263198 -0.704927 8.520980 -0.525955 1.653619 0.006504 -0.002403 -1748700.000000 1 0 0
11.852766 2.231002 -7.306727 14.101550 0.186049 2.115484 0.014915 -0.001830 -1238080.000000 1 0 0
-7.604134 -4.532198 9.671573 13.111178 0.537486 0.741200 0.003362 -0.002392 7790.290000 1 0 0
1.036866 2.753002 8.464173 8.960822 1.210596 0.334497 0.000153 -0.000777 -1965420.000000 1 0 0
1.636466 8.035602 -8.628427 11.903725 1.369892 2.381614 0.006597 -0.004348 -722114.000000 1 0 0
-8.607334 -2.262698 -5.571227 10.499741 0.257064 2.130112 0.012941 -0.006804 -788936.000000 1 0 0
6.666866 -0.507198 7.099973 9.752639 -0.075931 0.755388 0.004909 -0.001753 985740.000000 1 0 0
-10.844134 6.433602 7.045773 14.444008 -0.535463 1.061230 0.004844 -0.009202 246548.000000 1 0 0
-5.987234 11.045202 4.790873 13.446037 -1.074065 1.206487 -0.003839 -0.000656 95442.600000 1 0 0
6.091666 -1.119098 -6.874427 9.253028 -0.181684 2.408245 0.004760 -0.002050 -469281.000000 1 0 0
4.506766 -5.792298 11.346573 13.513193 -0.909576 0.574128 0.013036 -0.003511 -1121670.000000 1 0 0
-9.031334 -7.450398 2.681973 12.011095 0.689770 1.345607 0.005706 -0.002565 -3104750.000000 1 0 0
-1.265834 12.682502 -9.349527 15.807019 -1.471316 2.203689 0.008604 -0.000834 647999.000000 1 0 0
-4.664434 9.382502 -2.299427 10.727332 -1.109438 1.786825 -0.000804 -0.002635 648778.000000 1 0 0
-3.272734 9.703302 -0.164527 10.241675 -1.245498 1.586862 0.000245 -0.001575 -1224320.000000 1 0 0
-3.442234 10.737602 -6.422427 12.976619 -1.260570 2.088543 0.000951 -0.002138 1062280.000000 1 0 0
4.991366 -4.884398 0.318373 6.990883 -0.774567 1.525239 0.009619 -0.002153 -1544830.000000 1 0 0
-2.216334 2.897902 -10.727527 11.330923 -0.917886 2.813777 0.011304 -0.005840 -1940150.000000 1 0 0
-3.508334 12.178402 -2.132027 12.851747 -1.290312 1.737461 -0.006340 0.002440 178705.000000 1 0 0
-0.434134 0.365702 0.180273 0.595574 -0.700048 1.263285 0.008921 -0.003055 -904907.000000 1 0 0
-4.867634 -1.751598 0.076673 5.173764 0.345419 1.555976 0.002630 -0.001438 888674.000000 1 0 0
2.603366 2.443602 -2.538327 4.380846 0.753753 2.188807 0.000384 -0.003290 2188570.000000 1 0 0
6.122466 -9.770998 8.505773 14.328474 -1.011050 0.935238 0.009209 -0.000191 -770112.000000 1 0 0
-4.382734 -5.506198 6.487673 9.571649 0.898521 0.826029 0.002516 -0.002671 -91929.200000 1 0 0
-6.304834 5.296802 -11.991127 14.546277 -0.698729 2.539838 0.006616 -0.008256 1406560.000000 1 0 0
-12.878334 2.987302 7.938873 15.420802 -0.227932 1.030004 0.009399 -0.007960 584252.000000 1 0 0
4.712666 -7.437998 -4.827827 10.041960 -1.006041 2.072324 0.002068 -0.004439 341613.000000 1 0 0
-6.074834 2.531802 -1.152727 6.681497 -0.394878 1.744189 0.009661 -0.003285 -780672.000000 1 0 0
-6.900934 -2.812998 -14.586827 16.380213 0.387063 2.669273 0.009513 0.000945 591881.000000 1 0 0
2.866466 -6.079098 0.909173 6.782231 -1.130184 1.436339 0.007603 -0.000210 339092.000000 1 0 0
4.657566 -7.952598 12.865073 15.825512 -1.040983 0.621626 0.015419 -0.004752 -195443.000000 1 0 0
-10.088534 -1.672398 7.945973 12.950440 0.164278 0.910225 0.002627 -0.001910 -681809.000000 1 0 0
-4.450334 13.408702 -0.021527 14.127959 -1.250337 1.572320 -0.006124 0.004272 665063.000000 1 0 0
6.897966 2.223702 -4.378127 8.467278 0.311852 2.114214 0.005746 0.001071 -1668840.000000 1 0 0
5.035666 4.556102 0.151473 6.792565 0.735442 1.548495 0.003998 -0.000365 -678393.000000 1 0 0
-5.940334 12.347002 1.887373 13.831059 -1.122370 1.433910 -0.001382 0.002182 -194805.000000 1 0 0
6.592966 -7.330998 6.557573 11.841136 -0.838353 0.983880 0.006293 -0.003046 -2523540.000000 1 0 0
-0.283234 4.874002 7.828173 9.225855 -1.512751 0.557645 -0.004853 0.001092 -1448860.000000 1 0 0
-5.850134 -3.441098 -1.551127 6.962127 0.531704 1.795477 0.008552 -0.006407 -818172.000000 1 0 0
2.295266 -6.498598 -5.198227 8.632589 -1.231279 2.217004 0.001097 -0.000792 -1176250.000000 1 0 0
-14.498634 -4.801298 -3.921027 15.768237 0.319789 1.822099 0.002766 -0.008509 -146050.000000 1 0 0
-12.417734 -5.107998 -6.377127 14.864707 0.390250 2.014194 0.013760 -0.013485 -1168930.000000 1 0 0
-14.722334 -3.795198 -1.339627 15.262544 0.252292 1.658682 -0.000860 -0.004152 387829.000000 1 0 0
12.065266 2.837702 8.764073 15.179993 0.230998 0.955325 0.018667 -0.002295 -1142050.000000 1 0 0
8.791666 -6.562198 7.681473 13.392568 -0.641200 0.959948 0.010041 -0.004935 -329575.000000 1 0 0
-8.863234 -1.586698 -9.763827 13.281824 0.177144 2.396650 0.011908 -0.006205 346583.000000 1 0 0
-8.776034 5.228202 -4.035527 10.983549 -0.537279 1.947025 0.006762 0.000031 -1567300.000000 1 0 0
-4.237834 -6.215398 4.036473 8.537185 0.972371 1.078318 0.007197 -0.001933 -961744.000000 1 0 0
-0.228834 -9.237098 3.562073 9.902763 1.546028 1.202845 0.011471 -0.002001 -40711.700000 1 0 0
7.960866 -10.539098 3.361873 13.629020 -0.923870 1.321554 0.002594 0.001076 -2465.500000 1 0 0
-0.014634 6.483702 9.693573 11.662073 -1.568539 0.589525 -0.006891 -0.000368 690858.000000 1 0 0
-0.014334 3.610402 -9.701227 10.351281 -1.566826 2.785312 0.009953 -0.006942 -490301.000000 1 0 0
4.543466 -3.118198 10.966173 12.272864 -0.601475 0.465650 0.008799 -0.003421 -2718970.000000 1 0 0
8.630566 -9.134098 1.291373 12.632738 -0.813735 1.468393 0.002796 0.000988 -922363.000000 1 0 0
-0.258434 -0.467398 11.319173 11.331766 1.065715 0.047149 0.008940 -0.002216 -984546.000000 1 0 0
10.879066 5.882402 11.414773 16.830145 0.495681 0.825440 0.024324 -0.006406 -498294.000000 1 0 0
-6.349834 -2.904898 -11.935927 13.828419 0.429054 2.612261 0.011360 0.000031 340013.000000 1 0 0
-1.650834 2.807602 8.344473 8.957572 -1.039257 0.372130 0.001412 0.000074 12226.600000 1 0 0
-1.542334 13.508602 -6.817127 15.209679 -1.457114 2.035558 0.004869 -0.002736 417492.000000 1 0 0
7.684266 3.004102 9.771073 12.788528 0.372673 0.701229 0.003192 -0.000747 456878.000000 1 0 0
6.546766 8.498502 -7.945727 13.349879 0.914402 2.208300 0.003105 -0.001919 1928600.000000 1 0 0
6.640766 -2.883998 -3.941027 8.243114 -0.409710 2.069286 0.008155 -0.003642 -2042160.000000 1 0 0
2.065766 8.256302 1.018273 8.571510 1.325625 1.451718 0.001787 -0.000806 860145.000000 1 0 0
-17.851134 6.419902 6.195873 19.956627 -0.345233 1.255112 0.045429 -0.012915 691560.000000 1 0 0
-14.758734 3.200302 -10.124327 18.181423 -0.213535 2.161385 0.022867 -0.006388 -551105.000000 1 0 0
-18.469934 0.259402 -4.444827 18.999006 -0.014044 1.806935 0.027708 0.003621 744704.000000 1 0 0
-13.085134 7.881602 0.113573 15.275905 -0.542133 1.563362 0.008341 -0.001853 -1901240.000000 1 0 0
-12.657834 -4.318798 -12.921227 18.596529 0.328810 2.338965 0.027433 0.004579 -222241.000000 1 0 0
-17.439534 -0.660498 -8.663727 19.484193 0.037856 2.031584 0.021970 -0.008332 210460.000000 1 0 0
-16.654234 -2.178698 -2.005727 16.915471 0.130081 1.689649 0.012153 -0.001561 -1054570.000000 1 0 0
-15.512134 4.057102 1.651073 16.118697 -0.255814 1.468184 0.014146 -0.001391 -453313.000000 1 0 0
-13.246534 5.830902 4.403273 15.128082 -0.414660 1.275455 0.007840 -0.004699 -355940.000000 1 0 0
-10.163234 14.298702 2.791173 17.763300 -0.952872 1.413011 0.035013 -0.005719 -270152.000000 1 0 0
-11.918934 2.503702 -6.460627 13.786559 -0.207050 2.058522 0.006175 -0.000688 550124.000000 1 0 0
-15.936234 10.527802 3.893473 19.492493 -0.583805 1.369702 0.029422 -0.017795 289531.000000 1 0 0
-12.887434 1.150802 -8.589627 15.530357 -0.089060 2.156861 0.008651 -0.002595 860063.000000 1 0 0
-12.369434 14.310102 4.222573 19.380712 -0.858010 1.351160 0.035690 -0.014867 -265068.000000 1 0 0
-10.459034 11.121502 -0.973727 15.297952 -0.816086 1.634490 0.011774 -0.002812 140191.000000 1 0 0
-17.219534 5.871602 8.699673 20.166119 -0.328621 1.124752 0.039032 -0.015436 276896.000000 1 0 0
-11.570834 12.265702 -8.995827 19.111686 -0.814541 2.060878 0.006127 -0.024310 -1095670.000000 1 0 0
-17.199634 -0.475698 3.027473 17.470526 0.027650 1.396627 0.022640 -0.007175 433291.000000 1 0 0
-13.236434 14.873602 -0.669027 19.921717 -0.843574 1.604385 0.048728 -0.009107 295817.000000 1 0 0
-16.450534 5.071702 -10.610927 20.222116 -0.299054 2.123181 0.034517 0.000084 577675.000000 1 0 0
-12.091434 7.580002 -9.068627 16.908554 -0.559957 2.136883 0.007621 -0.001977 203042.000000 1 0 0
-14.859634 13.502702 -2.063227 20.183869 -0.737592 1.673197 0.052868 -0.016583 546368.000000 1 0 0
-11.880634 10.630302 -5.368327 16.821763 -0.729912 1.895608 0.016318 -0.009075 2459700.000000 1 0 0
-17.821934 2.867302 -1.046727 18.081437 -0.159519 1.628718 0.034781 0.000378 82035.900000 1 0 0
-9.439034 15.385502 0.665173 18.062433 -1.020508 1.533962 0.032716 -0.005615 73250.600000 1 0 0
-8.011434 13.297702 -3.838527 15.992068 -1.028564 1.813190 0.001258 -0.004481 -1452780.000000 1 0 0
-17.856534 11.497302 2.249873 21.356630 -0.572054 1.465253 0.071389 -0.000910 -10532.200000 1 0 0
-7.895034 15.692202 -7.354327 19.043710 -1.104657 1.967285 0.027513 -0.022662 -24068.900000 1 0 0
-6.149634 15.220602 -5.462527 17.300980 -1.186818 1.892028 0.002265 -0.006182 18052.700000 1 0 0
-17.364134 5.298202 -0.282327 18.156646 -0.296150 1.586346 0.041133 -0.001070 732313.000000 1 0 0
-5.383434 12.254002 -12.144927 18.073217 -1.156859 2.307682 -0.006289 -0.006776 10274.000000 1 0 0
-11.172234 3.782902 -11.429827 16.424680 -0.326482 2.340460 0.012288 -0.008935 -285842.000000 1 0 0
-11.847334 11.044602 1.250773 16.245214 -0.750346 1.493727 0.015926 -0.006818 410345.000000 1 0 0
-12.969634 0.202402 -11.143927 17.100862 -0.015605 2.280566 0.011422 -0.004095 1687620.000000 1 0 0
-14.128834 -2.176798 -13.133827 19.412877 0.152866 2.313867 0.024802 -0.000371 85156.200000 1 0 0
-18.740334 -2.181198 -3.694727 19.225211 0.115869 1.764181 0.014739 0.001264 1242080.000000 1 0 0
-18.244734 4.856802 -5.244127 19.594890 -0.260169 1.841726 0.036156 -0.006802 -376222.000000 1 0 0
-8.253234 15.318302 -2.211027 17.540093 -1.076606 1.697188 0.022395 -0.009659 -284167.000000 1 0 0
-16.116434 9.072202 -5.276627 19.232448 -0.512706 1.848721 0.036913 -0.010626 33622.200000 1 0 0
-18.325434 1.661402 2.130073 18.523471 -0.090414 1.455548 0.040571 -0.008136 -60958.500000 1 0 0
-15.814334 -2.704398 -8.827327 18.311980 0.169371 2.073792 0.014948 -0.005614 79996.000000 1 0 0
-9.783734 10.459902 -7.133827 16.000702 -0.818787 2.032914 0.006719 -0.011378 -62038.700000 1 0 0
-13.975834 11.986402 -7.757927 19.979569 -0.708920 1.969575 0.024752 -0.018236 440901.000000 1 0 0
-11.053034 6.522902 -3.943227 13.426349 -0.533142 1.868884 0.001666 0.000656 -1137600.000000 1 0 0
-13.137134 4.926102 -12.643827 18.886957 -0.358749 2.304261 0.024140 -0.009147 -222375.000000 1 0 0
-17.726434 8.979202 2.654973 20.047478 -0.468868 1.437972 0.049888 -0.013956 816034.000000 1 0 0
-13.345834 8.689602 -6.528527 17.211686 -0.577155 1.959844 0.005065 -0.006259 -656471.000000 1 0 0
-15.779034 6.924102 -3.723027 17.629011 -0.413515 1.783586 0.016798 -0.001504 -1271920.000000 1 0 0
-15.012134 -0.232398 -9.458327 17.744805 0.015479 2.132962 0.016443 -0.003669 -350671.000000 1 0 0
-10.118134 5.834502 -6.145627 13.197984 -0.523065 2.055164 0.002624 -0.002261 396043.000000 1 0 0
-12.825734 12.191302 -0.866927 17.716626 -0.760044 1.619749 0.030680 -0.011529 280621.000000 1 0 0
-10.563034 3.606402 -13.913527 17.837322 -0.329008 2.465499 0.007782 -0.006700 102438.000000 1 0 0
-11.048134 6.291702 -11.907827 17.419619 -0.517677 2.323462 0.005421 -0.006029 -1325580.000000 1 0 0
-5.789934 11.757502 -14.694927 19.690177 -1.113210 2.413293 0.002214 0.001786 -313646.000000 1 0 0
-15.490834 13.184402 3.627373 20.662822 -0.705138 1.394331 0.027698 -0.021457 -150082.000000 1 0 0
-14.971034 11.011702 -3.004227 18.825908 -0.634178 1.731061 0.042799 -0.010378 514391.000000 1 0 0
-18.089634 7.736002 -4.539727 20.191327 -0.404112 1.797571 0.030644 -0.008287 -1333570.000000 1 0 0
-4.005634 16.290702 -10.481027 19.780900 -1.329695 2.129227 0.003751 -0.007672 -24472.300000 1 0 0
-15.744634 4.400502 -4.515727 16.960239 -0.272538 1.840301 0.018964 0.000344 -332323.000000 1 0 0
-18.524234 -1.788798 -6.166427 19.605404 0.096267 1.890755 0.014474 -0.005394 444962.000000 1 0 0
-10.802634 8.629302 -5.710427 14.958968 -0.674018 1.962474 0.003674 -0.003094 157973.000000 1 0 0
-11.205134 13.619202 -6.703927 18.867441 -0.882339 1.934050 0.014382 -0.009952 827562.000000 1 0 0
-9.473534 10.580002 -4.403027 14.868454 -0.840518 1.871437 -0.000734 -0.001386 -144853.000000 1 0 0
-11.000834 6.363102 -0.152727 12.709474 -0.524401 1.582813 0.003296 0.002570 -401920.000000 1 0 0
-14.637134 9.309802 -1.238327 17.391134 -0.566499 1.642061 0.033998 -0.007576 -484170.000000 1 0 0
-18.818734 3.420002 4.648873 19.683830 -0.179772 1.332366 0.049130 -0.010024 416198.000000 1 0 0
-14.887034 13.278102 0.434073 19.952949 -0.728335 1.549040 0.036442 -0.003281 -24537.500000 1 0 0
-17.166334 2.746102 -9.374027 19.750860 -0.158626 2.065321 0.042342 -0.001228 329687.000000 1 0 0
-9.199134 8.407802 -8.936127 15.335239 -0.740484 2.192866 0.009914 -0.006291 -975701.000000 1 0 0
-17.668434 4.751802 -2.772027 18.505061 -0.262726 1.721161 0.030081 0.001256 580789.000000 1 0 0
-13.581434 5.843202 -4.383927 15.421322 -0.406296 1.859049 0.006330 0.000722 -2055570.000000 1 0 0
-12.122734 9.688802 3.318173 15.869588 -0.674269 1.360152 0.001912 -0.003824 674858.000000 1 0 0
-17.609634 2.587202 -4.078227 18.259922 -0.145876 1.796039 0.026956 0.001939 904854.000000 1 0 0
-11.271934 1.539602 -12.614827 16.987075 -0.135747 2.407760 0.015526 -0.005241 -77300.000000 1 0 0
-11.250434 12.088902 3.630973 16.908511 -0.821308 1.354368 0.013314 -0.007085 242761.000000 1 0 0
-16.548134 12.913202 -4.013227 21.370482 -0.662639 1.759711 0.060178 -0.019140 589517.000000 1 0 0
-11.040334 4.049902 -4.460127 12.577098 -0.351587 1.933307 0.002559 0.000024 -38954.700000 1 0 0
-11.107034 14.889802 -9.043127 20.660362 -0.929893 2.023840 0.030848 -0.023553 368119.000000 1 0 0
-15.433734 7.055402 -0.345227 16.973450 -0.428777 1.591137 0.022742 0.001032 -2713990.000000 1 0 0
-12.824834 8.371302 -4.038027 15.838583 -0.578300 1.828591 0.007767 -0.001812 889054.000000 1 0 0
-19.243534 2.141602 -6.083727 20.295610 -0.110833 1.875233 0.047643 -0.000618 1124900.000000 1 0 0
-12.872434 10.008402 -8.947127 18.598891 -0.660874 2.072656 0.015478 -0.011364 669561.000000 1 0 0
-16.578334 10.914602 -0.933727 19.870620 -0.582234 1.617804 0.041298 -0.009911 66477.100000 1 0 0
-10.791034 6.675802 -14.485027 19.256914 -0.554015 2.422189 0.011544 -0.012287 -420224.000000 1 0 0
-13.958734 12.893402 -4.404927 19.506138 -0.745745 1.798584 0.047050 -0.014848 254090.000000 1 0 0
-17.927734 7.822802 -0.353227 19.563349 -0.411446 1.588853 0.050051 -0.006396 -214713.000000 1 0 0
-12.741534 6.684402 -2.086527 14.538965 -0.483145 1.714806 0.001536 0.002491 791507.000000 1 0 0
-13.863734 8.338802 -10.787427 19.444982 -0.541509 2.158879 0.008226 -0.003031 -1057860.000000 1 0 0
-15.046134 1.369502 -0.985127 15.140414 -0.090770 1.635908 0.009214 -0.000748 -586468.000000 1 0 0
-13.403734 2.850002 -2.422327 13.915827 -0.209507 1.745758 0.001313 0.002294 139662.000000 1 0 0
-11.387234 9.249602 -10.937127 18.298770 -0.682183 2.211422 0.008887 -0.008070 252765.000000 1 0 0
-15.607934 4.637202 -8.145427 18.206021 -0.288799 2.034656 0.023874 -0.001566 637368.000000 1 0 0
-18.430534 10.414002 4.606173 21.664552 -0.514317 1.356548 0.062190 -0.022701 309511.000000 1 0 0
-15.358034 6.264702 -6.188727 17.703560 -0.387307 1.927914 0.017665 -0.001051 416116.000000 1 0 0
-7.743634 11.195802 -13.062427 18.866289 -0.965693 2.335563 0.002398 -0.002399 -167895.000000 1 0 0
-16.774534 9.090602 -2.731627 19.273967 -0.496625 1.713001 0.041300 -0.012414 1086800.000000 1 0 0
-20.727534 -1.074898 -4.850027 21.314521 0.051812 1.800353 0.048851 -0.006371 219776.000000 1 0 0
-15.433334 4.329802 4.187573 16.567158 -0.273517 1.315261 0.019827 -0.000944 -765052.000000 1 0 0
-6.905034 12.570902 -9.443327 17.172172 -1.068501 2.153065 0.004655 -0.009807 -1654500.000000 1 0 0
-17.347034 1.542602 5.716873 18.329807 -0.088693 1.253615 0.035306 -0.010772 107837.000000 1 0 0
-10.295734 14.214602 -3.195627 17.840097 -0.943943 1.750894 0.032351 -0.015879 -334672.000000 1 0 0
-10.019034 8.404202 -12.891627 18.363161 -0.697970 2.349051 -0.003499 -0.006412 -40179.200000 1 0 0
-13.767234 11.557402 2.868473 18.202703 -0.698358 1.412552 0.021481 -0.011681 -1388900.000000 1 0 0
-16.889934 6.703002 1.747773 18.255268 -0.377800 1.474909 0.030983 -0.005478 362735.000000 1 0 0
-9.256334 13.251402 -8.476527 18.251873 -0.961066 2.053775 0.019484 -0.018999 -787425.000000 1 0 0
-5.619734 9.818702 -12.907727 17.163850 -1.050956 2.421933 0.004963 -0.001454 -415699.000000 1 0 0
-15.957934 1.819202 3.175873 16.372272 -0.113510 1.375580 0.011886 -0.003836 -703987.000000 1 0 0
-18.814134 -4.662998 4.707173 19.946745 0.242950 1.332562 0.043514 -0.008673 1030090.000000 1 0 0
-5.310934 14.441802 -9.110027 17.881953 -1.218399 2.105346 -0.003915 -0.007873 -341525.000000 1 0 0
-15.522634 -0.853498 -6.951827 17.029636 0.054929 1.991299 0.013576 -0.002273 624891.000000 1 0 0
-8.956934 10.940402 -9.502127 17.035536 -0.884755 2.162508 0.008150 -0.014073 310080.000000 1 0 0
-16.738334 1.361602 -6.242927 17.916470 -0.081168 1.926709 0.011929 0.001432 494392.000000 1 0 0
-11.169734 8.691702 -1.512327 14.233614 -0.661274 1.677248 0.005150 -0.002044 -805574.000000 1 0 0
-10.761934 10.979102 -12.679427 19.928065 -0.795387 2.260437 -0.002809 -0.000832 -380271.000000 1 0 0
-13.723634 11.921202 -10.467527 20.976708 -0.715229 2.093249 0.007060 -0.008738 191594.000000 1 0 0
-13.276934 5.597202 -7.686327 16.330501 -0.398965 2.060850 0.009194 0.002258 -657386.000000 1 0 0
-8.703434 15.518402 -4.840327 18.439070 -1.059664 1.836412 0.016311 -0.012961 -34460.500000 1 0 0
-8.689034 6.109202 -12.976427 16.769297 -0.612799 2.455647 0.006917 -0.009432 578674.000000 1 0 0
-16.361934 7.387602 4.162373 18.428643 -0.424110 1.342966 0.030338 -0.005681 56698.000000 1 0 0
-12.737934 5.356802 -10.172627 17.159039 -0.398086 2.205382 0.010783 -0.003759 122446.000000 1 0 0
-12.449534 9.113602 -13.460427 20.475149 -0.631910 2.288164 0.007579 -0.004497 -263895.000000 1 0 0
-10.769334 5.319602 -8.576427 14.759126 -0.458803 2.190868 0.001171 -0.001042 -1002700.000000 1 0 0
-17.829734 -4.455898 -2.770427 18.585739 0.244898 1.720416 0.018129 -0.005481 636439.000000 1 0 0
-8.926634 13.047502 -10.989727 19.253472 -0.970778 2.178266 0.025183 -0.017834 124721.000000 1 0 0
-15.261834 6.053702 6.000473 17.480748 -0.377621 1.220409 0.024111 -0.012188 -1490660.000000 1 0 0
-16.374934 -3.100598 -4.493427 17.261027 0.187135 1.834152 0.006541 -0.002521 14685.800000 1 0 0
-11.178234 -1.100498 -12.625127 16.898457 0.098134 2.414511 0.012198 0.001349 771071.000000 1 0 0
-15.216134 7.148502 -8.536227 18.854680 -0.439195 2.040630 0.004077 0.003349 -750228.000000 1 0 0
-14.962934 9.114002 1.288873 17.567459 -0.547088 1.497363 0.027828 -0.008858 -531566.000000 1 0 0
-19.583034 5.484902 7.810873 21.785066 -0.273087 1.204090 0.066940 -0.024006 288967.000000 1 0 0
-16.311734 0.459102 0.913673 16.343752 -0.028138 1.514864 0.012094 -0.005171 -519086.000000 1 0 0
-17.595034 3.940802 6.921473 19.313775 -0.220336 1.204275 0.036763 -0.008466 569570.000000 1 0 0
-15.497734 4.006402 -1.520727 16.079291 -0.252977 1.665515 0.017671 -0.001156 -2011100.000000 1 0 0
-10.821134 13.306302 0.413873 17.155929 -0.888038 1.546670 0.027858 -0.011356 -1160810.000000 1 0 0
-13.569234 3.296202 0.055673 13.963959 -0.238302 1.566809 0.008365 -0.000044 -278246.000000 1 0 0
-15.164634 0.094202 -4.465927 15.808842 -0.006212 1.857191 0.006100 0.006061 759009.000000 1 0 0
-18.859434 6.713902 3.363873 20.299516 -0.342007 1.404316 0.044186 -0.009084 1169540.000000 1 0 0
-14.148234 1.295002 -6.378827 15.573663 -0.091277 1.992802 0.006197 0.000110 -621898.000000 1 0 0
-14.078834 11.893502 5.352173 19.191526 -0.701455 1.288167 0.019081 -0.021538 -35452.600000 1 0 0
17.560266 5.596102 6.226873 19.453875 0.308505 1.244978 0.026807 -0.004054 -442237.000000 1 0 0
18.558066 7.450502 -0.224627 19.999057 0.381773 1.582028 0.024780 0.013107 -41770.200000 1 0 0
16.528166 5.198902 8.585873 19.337168 0.304750 1.110729 0.043005 -0.001592 273873.000000 1 0 0
11.633266 12.280502 11.061473 20.211378 0.812457 0.991674 0.024275 -0.010965 562198.000000 1 0 0
-2.249834 16.327802 -0.544327 16.491063 -1.433867 1.603810 -0.008168 0.002947 -213430.000000 1 0 0
15.076166 12.765502 3.345673 20.036026 0.702595 1.403028 0.024923 0.000702 -3092.220000 1 0 0
13.725666 11.717902 6.927373 19.331105 0.706651 1.204292 0.022737 -0.002338 680913.000000 1 0 0
-0.857734 15.931002 8.672873 18.159054 -1.517008 1.072869 0.005065 0.006715 105172.000000 1 0 0
0.716866 12.849802 9.407773 15.941690 1.515066 0.939568 -0.002373 0.003080 -1646550.000000 1 0 0
0.693066 15.517502 -3.813027 15.994136 1.526162 1.811516 0.000155 -0.001286 949744.000000 1 0 0
5.262466 10.064802 13.490673 17.634966 1.089030 0.699762 0.011677 -0.011720 -41865.200000 1 0 0
-1.446934 16.586302 -2.937327 16.906416 -1.483780 1.745423 -0.006819 0.003026 -811890.000000 1 0 0
8.680266 10.106502 3.357973 13.739155 0.861170 1.323886 0.013210 -0.003762 564907.000000 1 0 0
12.694166 13.520902 -4.819127 19.161958 0.816924 1.825020 0.041568 -0.021044 -1139380.000000 1 0 0
2.374566 11.542902 7.714673 14.085216 1.367910 0.991167 0.003570 0.003361 357719.000000 1 0 0
-0.363134 14.988702 -8.797127 17.383397 -1.546574 2.101413 0.007769 0.002748 -1551980.000000 1 0 0
2.397166 15.890902 0.298173 16.073459 1.421074 1.552245 0.009231 -0.008061 -670718.000000 1 0 0
1.834166 13.286002 5.316873 14.427444 1.433611 1.193375 0.004980 0.004914 768806.000000 1 0 0
17.568666 9.335802 -1.809027 19.977182 0.488443 1.661475 0.013545 0.008179 395222.000000 1 0 0
-7.259534 14.933502 7.164073 18.084088 -1.118311 1.163473 0.010275 -0.008824 -250409.000000 1 0 0
8.476566 15.718502 -0.086127 17.858636 1.076226 1.575619 0.012360 -0.017321 86325.800000 1 0 0
15.728166 10.510702 2.136373 19.037178 0.589114 1.458338 0.017140 0.005361 102100.000000 1 0 0
14.062066 7.378702 8.793973 18.152711 0.483230 1.065069 0.030219 -0.003548 -1114290.000000 1 0 0
4.195966 18.343302 -1.828627 18.905733 1.345919 1.667671 0.008739 -0.012901 -967163.000000 1 0 0
-0.350934 17.578502 -5.015527 18.283391 -1.550835 1.848680 0.005805 -0.004258 110711.000000 1 0 0
1.391866 13.644702 -0.669427 13.731836 1.469140 1.619566 0.004555 -0.006215 -685915.000000 1 0 0
10.380066 14.705802 4.231173 18.490787 0.956156 1.339925 0.017364 -0.010726 156435.000000 1 0 0
-1.696834 15.357602 -5.220227 16.309076 -1.460754 1.896611 0.001556 -0.002431 216750.000000 1 0 0
15.257966 9.043402 -6.210227 18.792434 0.535035 1.907592 0.035657 -0.001042 885118.000000 1 0 0
-2.292634 18.498702 0.826373 18.658538 -1.447490 1.526493 -0.012155 0.003160 -1101190.000000 1 0 0
-3.851034 19.338902 3.431973 20.015045 -1.374234 1.398475 0.005576 0.002171 168266.000000 1 0 0
1.780366 17.635002 -2.679427 17.926023 1.470181 1.720830 0.000697 -0.006754 -73753.200000 1 0 0
2.830866 12.156202 3.293773 12.908756 1.342000 1.312785 0.005179 0.000336 53644.100000 1 0 0
-2.565734 16.165702 1.944473 16.483139 -1.413395 1.452554 -0.005789 0.002346 -1189750.000000 1 0 0
11.949966 12.806602 -2.581527 17.705226 0.819987 1.717124 0.016969 -0.005596 687873.000000 1 0 0
7.238766 11.624902 4.850373 14.528048 1.013856 1.230398 0.011261 -0.005121 136321.000000 1 0 0
7.059766 15.781102 1.998873 17.403418 1.150144 1.455687 0.007610 -0.012438 -2225920.000000 1 0 0
5.471666 12.115202 10.337973 16.840158 1.146582 0.909820 0.008704 0.003121 1319620.000000 1 0 0
-1.325434 14.164702 3.153573 14.571910 -1.477495 1.352656 -0.007919 0.004188 -1604820.000000 1 0 0
4.641066 16.158102 1.446573 16.873539 1.291097 1.484961 0.006243 -0.012243 -3900530.000000 1 0 0
7.178766 12.844102 12.136773 19.073722 1.061134 0.881093 0.012385 -0.004741 383010.000000 1 0 0
0.667366 17.272002 -9.472727 19.710403 1.532177 2.072130 0.015060 -0.000039 538794.000000 1 0 0
9.593066 9.540802 15.573173 20.629530 0.782667 0.715299 0.025852 -0.011925 -532844.000000 1 0 0
13.515966 7.553202 -0.184027 15.484381 0.509601 1.582681 -0.003502 0.007455 196326.000000 1 0 0
12.436666 13.631202 -0.087227 18.452315 0.831190 1.575524 0.020388 -0.008132 537544.000000 1 0 0
9.452466 12.436902 3.564773 16.022898 0.920904 1.346439 0.010597 -0.003258 677154.000000 1 0 0
-0.603034 12.899402 0.832373 12.940288 -1.524081 1.506428 0.001947 -0.002096 341983.000000 1 0 0
16.071166 7.329202 -0.856827 17.684279 0.427871 1.619267 0.012934 0.010744 -625642.000000 1 0 0
-4.259834 18.542002 -2.488827 19.187138 -1.344975 1.700876 0.008323 -0.001127 9907.770000 1 0 0
11.620466 9.238202 -3.193827 15.184866 0.671681 1.782708 0.009819 0.000036 79910.600000 1 0 0
14.846366 9.694102 7.959673 19.435704 0.578454 1.148848 0.030533 -0.002766 677772.000000 1 0 0
4.437866 13.634902 4.696773 15.088568 1.256132 1.254256 0.011048 -0.000685 641430.000000 1 0 0
2.225366 15.924502 5.635273 17.038143 1.431951 1.233704 0.004740 0.002828 304714.000000 1 0 0
6.139966 18.350302 5.604773 20.145626 1.247908 1.288863 0.027861 -0.011764 -89313.300000 1 0 0
10.694266 16.892902 -0.778227 20.008576 1.006420 1.609701 0.028722 -0.018536 -1251210.000000 1 0 0
10.069966 13.562502 -4.310527 17.433483 0.932122 1.820643 0.017729 -0.008394 142540.000000 1 0 0
16.619966 8.023402 2.401273 18.610867 0.449758 1.441410 0.011575 0.012911 295517.000000 1 0 0
3.925466 13.879702 -0.436627 14.430733 1.295174 1.601058 0.005367 -0.010084 -494430.000000 1 0 0
5.594466 13.229902 -2.403727 14.563868 1.170735 1.736602 0.006705 -0.005905 455534.000000 1 0 0
-6.236734 16.837002 -2.988827 18.202048 -1.216049 1.735746 0.008417 -0.006673 -457767.000000 1 0 0
18.141666 10.133502 2.876573 20.978145 0.509404 1.433241 0.023795 0.007529 -610937.000000 1 0 0
8.031866 12.899802 9.660673 18.006786 1.013900 1.004510 0.016380 -0.003457 1043150.000000 1 0 0
-2.541034 15.840002 6.751673 17.405390 -1.411733 1.172437 -0.005994 0.005067 -700960.000000 1 0 0
11.373266 15.963102 6.351473 20.603713 0.951749 1.257424 0.030255 -0.006400 180479.000000 1 0 0
13.638066 12.017902 1.393273 18.230963 0.722332 1.494298 0.022605 -0.000928 887611.000000 1 0 0
17.577366 8.032902 -5.470827 20.085350 0.428662 1.846661 0.030739 0.013334 -196242.000000 1 0 0
9.535466 9.206702 8.106273 15.537057 0.767859 1.021909 0.012584 -0.004291 21039.800000 1 0 0
-1.908534 14.265902 -2.028927 14.535302 -1.437803 1.710840 -0.008475 -0.001139 654122.000000 1 0 0
10.992566 11.594402 0.706073 15.992661 0.812037 1.526632 0.012744 0.000367 151201.000000 1 0 0
11.818466 9.739502 -0.588127 15.325793 0.689259 1.609181 0.001811 0.003656 -880190.000000 1 0 0
-0.200834 16.143702 11.154173 19.623328 -1.558357 0.966220 0.006150 -0.000913 17305.300000 1 0 0
2.293366 20.056502 -1.655627 20.254972 1.456946 1.652627 0.010749 -0.010024 -515954.000000 1 0 0
9.210866 14.314702 1.865273 17.123959 0.999036 1.461652 0.009749 -0.010410 -447806.000000 1 0 0
8.532866 11.680602 -5.111027 15.341736 0.939882 1.910434 0.015493 -0.002663 -850067.000000 1 0 0
10.567566 9.968402 10.406373 17.869949 0.756230 0.949193 0.014244 -0.008651 247651.000000 1 0 0
-5.046134 15.788302 5.803373 17.561693 -1.261445 1.234009 -0.006509 0.001221 152085.000000 1 0 0
14.509066 9.082502 -2.025327 17.236786 0.559309 1.688569 0.014915 0.001668 -449969.000000 1 0 0
12.290766 9.701502 7.047073 17.171002 0.668202 1.147898 0.010907 -0.003907 -1300530.000000 1 0 0
3.168766 12.831702 9.752373 16.425663 1.328692 0.935113 0.007613 -0.001035 -19402.500000 1 0 0
8.505866 12.600202 -2.606727 15.424327 0.977007 1.740612 0.013866 -0.004551 -620185.000000 1 0 0
9.466166 16.883802 2.093073 19.469258 1.059801 1.463082 0.013348 -0.012404 469472.000000 1 0 0
9.580966 14.433902 -7.536427 18.892596 0.984793 1.981123 0.029907 -0.012109 -187718.000000 1 0 0
6.355766 11.402902 7.387673 14.999988 1.062304 1.055823 0.010099 -0.002836 -42775.500000 1 0 0
5.413866 16.888502 -5.617227 18.603351 1.260581 1.877531 0.007697 -0.001030 -469054.000000 1 0 0
-4.124034 17.116102 -4.639427 18.206946 -1.334358 1.828454 -0.000184 -0.005548 61408.400000 1 0 0
-0.196034 18.668102 -0.527327 18.676577 -1.560296 1.599035 -0.002684 0.003589 -625053.000000 1 0 0
6.490566 15.810702 -2.716727 17.305674 1.181256 1.728433 0.004922 -0.002317 249732.000000 1 0 0
-0.892234 20.744902 0.971173 20.786779 -1.527813 1.524059 -0.005273 0.005226 154863.000000 1 0 0
-1.383934 18.860602 4.201573 19.372423 -1.497551 1.352175 -0.002217 0.005051 -276367.000000 1 0 0
7.357566 13.885602 -4.297327 16.291431 1.083539 1.837734 0.011142 -0.000804 -78600.300000 1 0 0
-1.014534 11.926502 7.746973 14.257851 -1.485935 0.996376 -0.001476 0.005889 232136.000000 1 0 0
7.649566 10.663902 10.931573 17.080221 0.948532 0.876280 0.011181 -0.008713 78564.400000 1 0 0
1.494866 15.966002 -7.394927 17.658788 1.477440 2.002884 0.007775 -0.003498 -277779.000000 1 0 0
8.875166 7.112102 14.892173 18.738393 0.675563 0.652215 0.025048 -0.002706 146490.000000 1 0 0
11.339666 11.410302 -4.779027 16.781601 0.788503 1.859571 0.018842 -0.006266 -809017.000000 1 0 0
-3.227534 17.010002 4.506273 17.890322 -1.383282 1.316171 -0.009366 0.004640 -1015380.000000 1 0 0
3.948766 15.222502 -6.739827 17.109722 1.316987 1.975687 0.007494 -0.008172 -183219.000000 1 0 0
-4.492134 14.093002 9.554773 17.609249 -1.262228 0.997267 0.006770 -0.002604 18259.000000 1 0 0
6.324866 17.884902 0.551373 18.978347 1.230880 1.541740 0.003059 -0.009838 -237661.000000 1 0 0
9.870066 10.746602 -2.095527 14.741061 0.827888 1.713435 0.008196 -0.001130 -468905.000000 1 0 0
7.497466 18.254102 -2.543427 19.897066 1.181076 1.698976 0.010741 0.000711 131604.000000 1 0 0
3.539866 10.275802 10.405673 15.046620 1.239042 0.807147 0.005728 0.001435 813755.000000 1 0 0
0.064566 18.556802 2.036973 18.668377 1.567317 1.461465 -0.005228 0.000321 81921.400000 1 0 0
-0.937134 17.179202 -7.433227 18.741826 -1.516300 1.978619 0.009899 -0.003327 170227.000000 1 0 0
10.109066 8.687202 13.150473 18.724199 0.709896 0.792138 0.028890 -0.008581 -471366.000000 1 0 0
3.621366 11.279802 5.490373 13.057274 1.260142 1.136818 0.001019 0.000673 756664.000000 1 0 0
12.913866 13.802902 8.271773 20.632747 0.818662 1.158292 0.024732 -0.013920 -206811.000000 1 0 0
-0.456034 17.480402 6.857773 18.783010 -1.544714 1.197051 -0.001541 0.006361 -380095.000000 1 0 0
12.174666 13.518402 5.765573 19.084326 0.837650 1.263891 0.020489 -0.008699 -4616.360000 1 0 0
4.912866 14.629002 -4.405827 16.048528 1.246800 1.848899 0.003309 -0.003020 -511140.000000 1 0 0
3.759266 17.662902 4.655573 18.648982 1.361091 1.318486 0.012446 -0.002878 596121.000000 1 0 0
7.163166 11.834102 2.213373 14.009137 1.026490 1.412137 0.017193 -0.003115 550574.000000 1 0 0
6.423466 8.531302 11.747473 15.875993 0.925423 0.737797 0.008034 -0.003322 302505.000000 1 0 0
-5.430834 15.031502 1.761573 16.079276 -1.224093 1.461021 -0.000055 0.008162 -845.676000 1 0 0
6.808466 13.748602 5.983773 16.467689 1.110987 1.198920 0.013551 -0.004621 -185883.000000 1 0 0
5.799466 15.825602 4.910573 17.555546 1.219533 1.287298 0.011618 -0.006869 850609.000000 1 0 0
1.244266 18.028402 4.334873 18.583933 1.501889 1.335368 0.010851 0.001872 1102840.000000 1 0 0
7.181666 18.156402 -6.902427 20.709292 1.194137 1.910599 0.017141 0.002552 467642.000000 1 0 0
-2.385734 18.788402 -5.741327 19.790366 -1.444493 1.865135 0.004974 -0.002754 -1901320.000000 1 0 0
13.562266 10.198402 -4.479927 17.550277 0.644760 1.828916 0.012352 -0.002200 -1680690.000000 1 0 0
-1.649734 18.044702 10.019573 20.705669 -1.479625 1.065685 0.014967 0.002731 76540.600000 1 0 0
3.463966 11.806402 -1.534327 12.399369 1.285408 1.694857 0.007978 -0.006219 440151.000000 1 0 0
4.239366 13.938902 -10.917827 18.206157 1.275546 2.213895 0.013539 -0.014539 105614.000000 1 0 0
11.591566 13.402602 2.364273 17.876910 0.857730 1.438155 0.020629 -0.004863 369596.000000 1 0 0
15.965866 6.630402 -7.007427 18.654092 0.393614 1.955895 0.014883 0.004967 8259.270000 1 0 0
2.545966 16.038302 2.974873 16.509359 1.413367 1.389614 0.006359 -0.004360 235737.000000 1 0 0
13.598466 10.730802 3.611073 17.694865 0.668071 1.365278 0.012245 0.006504 -1291660.000000 1 0 0
-4.922534 19.361702 -5.542227 20.732176 -1.321830 1.841412 -0.002938 -0.013367 139820.000000 1 0 0
5.565666 12.131802 0.092273 13.347875 1.140676 1.563883 0.011480 -0.007489 -119201.000000 1 0 0
4.845266 15.157202 9.716473 18.644764 1.261395 1.022614 0.021895 -0.003612 103286.000000 1 0 0
7.716766 9.351602 13.910473 18.452701 0.880888 0.716902 0.010252 -0.009269 -104395.000000 1 0 0
-4.987534 13.631102 7.004073 16.116434 -1.220033 1.121211 -0.004004 0.002114 -2082520.000000 1 0 0
-4.535334 17.190102 0.460673 17.784293 -1.312840 1.544890 0.001402 0.000941 -1306340.000000 1 0 0
-0.676334 16.550802 3.553973 16.941581 -1.529955 1.359448 -0.001349 0.003586 -1886760.000000 1 0 0
7.780466 17.020302 -4.693027 19.293803 1.142030 1.816501 0.000248 0.000037 195756.000000 1 0 0
3.016166 16.406602 -4.602627 17.304855 1.388988 1.840010 0.000777 -0.003226 -287906.000000 1 0 0
9.831566 14.314002 8.335773 19.262280 0.968951 1.123254 0.037288 -0.008620 588923.000000 1 0 0
12.807066 10.841402 9.293473 19.181386 0.702469 1.064999 0.022965 -0.010462 541757.000000 1 0 0
3.670866 12.239202 12.169073 17.645386 1.279407 0.809796 0.011833 -0.001957 563481.000000 1 0 0
-3.219434 19.136202 6.010473 20.314644 -1.404119 1.270431 -0.000523 -0.001005 -67074.200000 1 0 0
-2.719534 15.749802 10.425573 19.082575 -1.399811 0.992808 0.010484 -0.000173 -1017660.000000 1 0 0
2.076066 14.231902 7.658473 16.294455 1.425944 1.081500 0.005872 0.001474 -249336.000000 1 0 0
4.498066 17.132002 8.129773 19.489261 1.314038 1.140499 0.024873 -0.000251 612219.000000 1 0 0
-1.948534 13.434702 9.507473 16.573474 -1.426763 0.959834 0.003708 0.001174 91093.900000 1 0 0
5.848266 17.673502 3.143773 18.879571 1.251232 1.403500 0.007509 -0.013633 453119.000000 1 0 0
7.293266 15.460602 -6.806027 18.399564 1.130017 1.949699 0.009276 0.001013 -491487.000000 1 0 0
10.969666 7.582202 9.573873 16.415919 0.604794 0.948126 0.013640 -0.004547 375315.000000 1 0 0
9.092766 16.148802 -2.624927 18.717704 1.057981 1.711498 0.012852 -0.015874 757924.000000 1 0 0
14.495566 11.477202 -6.574027 19.623084 0.669704 1.912417 0.043529 -0.007889 346059.000000 1 0 0
11.104766 6.242502 16.081673 20.515966 0.512121 0.669936 0.040683 -0.013727 244468.000000 1 0 0
8.466666 8.395402 10.256673 15.727891 0.781172 0.860402 0.009571 -0.003640 195152.000000 1 0 0
16.228566 9.358202 4.519473 19.270909 0.523073 1.334068 0.015824 0.004098 -107827.000000 1 0 0
-3.237434 14.262802 4.823573 15.400498 -1.347594 1.252226 -0.012308 0.005623 -1216100.000000 1 0 0
4.827566 14.498002 13.092473 20.122383 1.249362 0.862366 0.020888 0.006677 -265917.000000 1 0 0
16.161366 10.939402 -4.706127 20.075057 0.595044 1.807425 0.037637 -0.005348 1532950.000000 1 0 0
14.662866 14.100602 6.350673 21.310975 0.765853 1.268199 0.028526 0.000638 73311.300000 1 0 0
6.082666 9.454802 9.320873 14.603793 0.999116 0.878573 0.003795 -0.001941 702775.000000 1 0 0
10.404566 11.881902 8.774873 18.067456 0.851590 1.063664 0.018115 -0.014764 898948.000000 1 0 0
8.058166 11.485102 -0.217427 14.031710 0.958985 1.586292 0.013809 -0.005922 523485.000000 1 0 0
7.350766 13.580802 -8.665027 17.707474 1.074687 2.082132 0.013927 -0.001580 -1258540.000000 1 0 0
2.744066 15.356702 -2.166427 15.749654 1.393974 1.708788 0.001631 -0.003971 284300.000000 1 0 0
12.090266 13.670702 -7.706227 19.810315 0.846671 1.970343 0.037580 -0.024959 -161406.000000 1 0 0
-8.314634 14.686002 9.621473 19.426387 -1.055631 1.052641 0.030115 -0.022904 665541.000000 1 0 0
11.643166 9.830902 2.259973 15.405110 0.701204 1.423562 0.009329 0.004950 -2869650.000000 1 0 0
12.164666 8.839902 4.553473 15.711686 0.628413 1.276763 0.002478 0.001603 249488.000000 1 0 0
14.129066 8.036302 6.151573 17.379715 0.517146 1.209004 0.016509 0.000803 -851139.000000 1 0 0
16.187766 7.347002 7.346173 19.235084 0.426060 1.178929 0.038772 -0.001775 -286915.000000 1 0 0
13.623066 8.469202 2.332673 16.209771 0.556209 1.426390 -0.000315 0.010274 -1919740.000000 1 0 0
-4.204534 17.518002 -7.276927 19.429672 -1.335240 1.954682 -0.003448 -0.010750 42784.300000 1 0 0
3.149566 19.435902 -3.920127 20.075892 1.410144 1.767324 0.010665 -0.013149 281270.000000 1 0 0
-0.111434 14.865602 6.378473 16.176633 -1.563300 1.165489 0.004326 0.006281 313196.000000 1 0 0
6.828766 15.927902 8.164573 19.156992 1.165771 1.130516 0.028193 -0.008794 -801262.000000 1 0 0
12.770866 15.222002 -2.148627 19.985519 0.872738 1.678514 0.038422 -0.014704 -475976.000000 1 0 0
12.784266 15.595402 4.229773 20.604490 0.884131 1.364042 0.032221 -0.011376 -996690.000000 1 0 0
2.933866 18.087002 1.297773 18.369306 1.409988 1.500088 0.008199 -0.007030 -465168.000000 1 0 0
10.418766 14.392702 -1.296227 17.815183 0.944215 1.643620 0.014321 -0.008618 -1496520.000000 1 0 0
-6.393034 15.757302 -0.631827 17.016540 -1.185370 1.607935 0.003065 -0.001775 -244341.000000 1 0 0
-3.948234 15.899802 -2.502727 16.572745 -1.327400 1.722391 0.002943 -0.002187 -1476790.000000 1 0 0
-6.826334 17.128102 1.539973 18.502492 -1.191544 1.487469 0.010043 0.003770 -813620.000000 1 0 0
-0.043934 19.467802 -6.798227 20.620697 -1.568540 1.906761 0.012360 -0.007672 345203.000000 1 0 0
4.810066 14.708202 7.085173 17.019624 1.254727 1.141430 0.019188 -0.004164 -694235.000000 1 0 0
8.644066 12.316402 7.059373 16.620721 0.958841 1.132129 0.016422 -0.007660 -923869.000000 1 0 0
-7.390934 17.597602 -5.716327 19.924304 -1.173171 1.861788 0.021927 -0.013547 196563.000000 1 0 0
-7.966734 17.772602 -1.332427 19.522028 -1.149391 1.639102 0.035338 -0.006181 239457.000000 1 0 0
-13.902834 -9.091998 8.939173 18.864305 0.579159 1.077119 0.025962 -0.014035 24239.000000 1 0 0
-12.625834 -12.997298 7.450673 19.592191 0.799894 1.180689 0.028832 -0.008369 455649.000000 1 0 0
-3.942934 -14.907798 12.553673 19.884262 1.312229 0.887520 0.009348 -0.013157 81666.000000 1 0 0
-1.954834 -14.201298 15.016973 20.760725 1.434004 0.762175 0.014901 -0.009688 -991945.000000 1 0 0
-7.029534 -13.658198 12.764473 19.972293 1.095478 0.877457 0.016034 -0.011072 -291668.000000 1 0 0
-10.033034 -11.604398 9.023373 17.797333 0.857893 1.039087 0.025144 -0.009034 641260.000000 1 0 0
-10.703934 -10.599198 11.335773 18.852505 0.780482 0.925685 0.027255 -0.013953 384236.000000 1 0 0
-5.940134 -12.118098 10.848173 17.315206 1.115030 0.893727 0.017343 -0.009680 716250.000000 1 0 0
-12.578134 -10.444698 7.233873 17.878201 0.692996 1.154233 0.016960 -0.006306 -343665.000000 1 0 0
-7.550034 -11.059298 12.669273 18.434249 0.971785 0.813075 0.014816 -0.011962 112658.000000 1 0 0
-14.877134 -11.560598 7.227273 20.179445 0.660603 1.204510 0.029925 -0.005779 -417345.000000 1 0 0
-11.250634 -9.252198 9.100073 17.175309 0.688234 1.012391 0.016813 -0.007997 -1764830.000000 1 0 0
-5.244534 -11.923298 13.385973 18.677645 1.156410 0.771760 0.014134 -0.010939 -1319120.000000 1 0 0
4.072366 -12.384598 14.838873 19.752331 -1.253109 0.720847 0.015654 -0.006296 -672779.000000 1 0 0
6.525266 -12.807198 13.940873 20.023770 -1.099578 0.800684 0.021188 -0.008456 306002.000000 1 0 0
6.534966 -8.347798 15.943573 19.146515 -0.906609 0.586805 0.022643 -0.011379 634841.000000 1 0 0
0.703266 -1.838398 14.362273 14.496523 -1.205429 0.136200 0.009169 -0.002715 -1349660.000000 1 0 0
-0.296734 -6.436598 15.467673 16.756096 1.524728 0.394712 0.011297 -0.006476 -338000.000000 1 0 0
-1.597034 -4.693698 18.248273 18.909806 1.242833 0.265291 0.020188 -0.016754 -1911790.000000 1 0 0
-5.293934 12.694602 12.744073 18.750734 -1.175702 0.823501 0.011552 -0.010006 -346669.000000 1 0 0
-4.082534 8.851302 11.669473 15.204907 -1.138638 0.695894 -0.002793 0.005327 -259464.000000 1 0 0
-0.792034 -3.975398 14.937773 15.477989 1.374138 0.264980 0.007441 -0.001918 305799.000000 1 0 0
-4.500934 9.205302 14.141573 17.463678 -1.116028 0.627035 0.003245 -0.003776 156536.000000 1 0 0
-13.633634 -2.372498 16.797873 21.764035 0.172293 0.689101 0.031242 0.003185 217707.000000 1 0 0
-0.280734 0.805302 17.280373 17.301405 -1.235363 0.049313 0.006481 -0.005936 -1031000.000000 1 0 0
-3.318734 -7.312098 15.358973 17.331440 1.144730 0.481737 0.011378 -0.010463 147937.000000 1 0 0
-7.416934 5.349102 12.493773 15.482834 -0.624814 0.631838 0.000552 -0.002489 -1739040.000000 1 0 0
-9.892334 10.109902 13.363673 19.459088 -0.796275 0.813778 0.013572 -0.009282 -384246.000000 1 0 0
-5.563534 2.240802 11.106773 12.622777 -0.382889 0.495146 0.001788 -0.000196 -1064300.000000 1 0 0
-7.231334 -7.339098 16.806073 19.712905 0.792794 0.549967 0.006988 -0.013141 -301436.000000 1 0 0
-4.858234 2.795602 18.644073 19.468417 -0.522162 0.292044 0.013952 -0.007645 -187955.000000 1 0 0
0.927866 -8.499498 16.500473 18.584079 -1.462060 0.478075 0.010642 -0.004660 777520.000000 1 0 0
-15.166334 -3.513698 13.787673 20.795761 0.227661 0.845972 0.051715 -0.001895 547459.000000 1 0 0
-14.332634 2.103802 12.986373 19.454980 -0.145743 0.839938 0.023250 -0.007939 -270839.000000 1 0 0
-5.534834 0.973902 15.974673 16.934374 -0.174176 0.338276 0.012745 -0.007157 541126.000000 1 0 0
4.454066 5.522202 15.157073 16.735300 0.892059 0.437781 0.008533 -0.005490 -391755.000000 1 0 0
-0.991334 -12.031298 13.907173 18.415872 1.488586 0.714878 -0.006584 -0.007990 -206250.000000 1 0 0
-5.977734 -4.030598 16.673673 18.165637 0.593247 0.408119 0.012908 -0.011624 -133967.000000 1 0 0
-13.000434 -1.587298 9.803773 16.359852 0.121494 0.928222 0.012683 -0.001905 -877677.000000 1 0 0
-14.522434 10.423802 10.434473 20.698670 -0.622554 1.042441 0.018249 -0.002089 411082.000000 1 0 0
-3.656734 -3.308498 17.605373 18.282970 0.735444 0.273104 0.014567 -0.012186 -1002500.000000 1 0 0
-7.940634 9.390402 11.881873 17.100064 -0.868855 0.802594 0.000751 -0.003001 147786.000000 1 0 0
-4.083534 10.568802 16.294373 19.846445 -1.202089 0.607597 0.008348 -0.003203 236649.000000 1 0 0
-12.399234 12.756802 8.139673 19.563518 -0.799611 1.141684 0.018647 -0.019525 -198077.000000 1 0 0
-12.641934 3.191602 10.453073 16.711419 -0.247294 0.895018 0.013585 -0.002788 435372.000000 1 0 0
-10.274334 -3.432398 13.670773 17.442285 0.322418 0.670080 0.008280 -0.001565 -260976.000000 1 0 0
-4.355934 -6.598598 17.704773 19.390065 0.987333 0.420010 0.016609 -0.011146 -510286.000000 1 0 0
0.757466 -3.785798 17.935173 18.346020 -1.373323 0.212030 0.010938 -0.007729 -648397.000000 1 0 0
-5.997234 1.920002 13.526273 14.920230 -0.309837 0.435705 0.006687 -0.002590 -832118.000000 1 0 0
-10.472834 8.666802 10.249573 17.024906 -0.691316 0.924750 0.008551 -0.009859 -83095.300000 1 0 0
4.460266 2.458302 17.161973 17.901691 0.503730 0.288475 0.018720 -0.014464 -272838.000000 1 0 0
0.506966 -5.434198 13.163973 14.250533 -1.477774 0.393030 0.006690 -0.002464 53725.900000 1 0 0
-4.248934 5.729402 20.880373 22.065118 -0.932692 0.329183 0.048398 -0.009938 157018.000000 1 0 0
-10.849134 10.818602 9.039573 17.789315 -0.783989 1.037765 0.014577 -0.014408 568955.000000 1 0 0
0.572266 4.078602 13.107073 13.738917 1.431397 0.304454 0.004809 -0.005527 -3202490.000000 1 0 0
-3.269734 7.006302 13.331473 15.411281 -1.134154 0.525554 0.000770 0.001844 -1780380.000000 1 0 0
0.762666 8.804602 14.228773 16.749944 1.484391 0.555794 0.006782 0.003382 337638.000000 1 0 0
-4.272534 -6.599798 13.067173 15.250012 0.996270 0.541642 0.011663 -0.007439 -81963.500000 1 0 0
-5.199834 8.159902 16.497873 19.125953 -1.003442 0.530427 0.018224 0.001128 862358.000000 1 0 0
1.518666 -10.802098 15.680073 19.101213 -1.431122 0.607822 0.005447 -0.006289 -351606.000000 1 0 0
-15.235534 -0.948798 14.210173 20.855472 0.062195 0.821171 0.035850 -0.001395 411560.000000 1 0 0
-13.615034 -5.251898 8.447173 16.861385 0.368155 1.046069 0.021149 -0.002558 -820714.000000 1 0 0
-14.170934 -1.830798 12.067673 18.702831 0.128482 0.869469 0.024690 -0.001378 385268.000000 1 0 0
9.347266 1.083402 17.119473 19.535135 0.115391 0.502580 0.031492 -0.006455 -263685.000000 1 0 0
4.705566 -6.859098 17.034173 18.956598 -0.969506 0.454255 0.025525 -0.000486 -282898.000000 1 0 0
-6.169334 -2.641198 10.911773 12.810284 0.404508 0.551389 0.004099 -0.002123 732955.000000 1 0 0
0.359966 -6.448898 17.954973 19.081376 -1.515036 0.345316 0.017637 -0.012338 -315950.000000 1 0 0
-8.556734 11.980102 12.170273 19.101206 -0.950573 0.880006 0.011896 -0.009469 219557.000000 1 0 0
-6.680534 -5.780898 14.784073 17.222576 0.713330 0.538630 0.010948 -0.010443 -1257130.000000 1 0 0
-4.408734 -9.079098 16.916773 19.698836 1.118742 0.537932 0.018860 -0.015290 157638.000000 1 0 0
2.287466 -6.245298 16.197573 17.509929 -1.219701 0.389627 0.012469 -0.005106 -485144.000000 1 0 0
2.155466 5.120602 16.175273 17.102808 1.172369 0.330848 0.012954 -0.005609 -551616.000000 1 0 0
0.830366 -8.949898 13.905173 16.557295 -1.478282 0.573842 0.007149 -0.004718 -682448.000000 1 0 0
-10.064434 -2.766398 11.194273 15.305474 0.268244 0.750438 -0.002123 -0.000284 -218499.000000 1 0 0
-1.232934 10.023302 12.446173 16.027910 -1.448404 0.681655 -0.005194 0.002095 -330796.000000 1 0 0
-12.474634 -3.730298 11.310373 17.246917 0.290567 0.855566 0.012807 0.002495 -355517.000000 1 0 0
-1.990834 6.676802 19.870973 21.057033 -1.281018 0.337233 0.034689 -0.017847 -867677.000000 1 0 0
0.318466 -13.291898 15.782473 20.636434 -1.546841 0.700086 0.003654 -0.016597 -1073210.000000 1 0 0
4.011166 -8.710698 15.245673 18.011004 -1.139255 0.561487 0.019029 -0.005127 -194364.000000 1 0 0
4.331366 -4.516298 16.045873 17.222883 -0.806297 0.371841 0.019482 -0.005749 -1423040.000000 1 0 0
8.015366 1.756702 14.890473 17.001714 0.215755 0.503660 0.015825 -0.003274 469522.000000 1 0 0
-6.251034 -0.112598 11.856773 13.404147 0.018011 0.485246 0.004881 -0.003103 43817.700000 1 0 0
-3.613434 -10.965598 18.624673 21.913002 1.252478 0.554931 0.027262 -0.014178 -74339.300000 1 0 0
3.220466 -1.597998 13.553573 14.022280 -0.460604 0.259283 0.006066 -0.002192 -190374.000000 1 0 0
-2.616134 8.461902 15.931673 18.228168 -1.270952 0.507394 0.014389 -0.006292 43580.300000 1 0 0
-3.334234 3.952602 14.906173 15.777647 -0.870056 0.333919 0.003765 -0.003540 -1726890.000000 1 0 0
-5.022734 -8.983498 19.462373 22.016245 1.060988 0.486445 0.045375 -0.025954 -42794.200000 1 0 0
-5.792734 -2.879298 18.982973 20.054909 0.461288 0.328430 0.017738 -0.017740 -1415820.000000 1 0 0
-6.681734 -8.614198 11.101573 15.559399 0.911071 0.776321 0.011680 -0.011382 -3002140.000000 1 0 0
-11.722534 2.379002 12.611873 17.382082 -0.200223 0.758938 0.017747 -0.008267 206355.000000 1 0 0
-11.743434 -7.400698 11.333473 17.919994 0.562329 0.886086 0.014193 -0.008679 -257061.000000 1 0 0
-11.107634 -7.171698 15.637773 20.478103 0.573315 0.701874 0.023051 -0.018284 731955.000000 1 0 0
0.142466 5.542802 17.732073 18.578734 1.545099 0.303057 0.018812 -0.012239 -175346.000000 1 0 0
-2.185134 -0.148198 13.134573 13.315922 0.067717 0.165227 0.007186 -0.001985 190385.000000 1 0 0
-6.180434 -10.757398 17.960273 21.828669 1.049316 0.604505 0.026903 -0.012365 950134.000000 1 0 0
0.169866 2.676502 19.111473 19.298728 1.507415 0.139418 0.014272 -0.017718 -579394.000000 1 0 0
-0.927534 10.694302 14.922473 18.382290 -1.484281 0.623593 0.009494 -0.002142 87975.000000 1 0 0
-12.919734 -2.162398 14.288873 19.384720 0.165835 0.741997 0.022054 0.001021 -1360200.000000 1 0 0
-13.751534 8.391702 11.749473 19.939294 -0.547913 0.940651 0.019197 -0.009266 41981.400000 1 0 0
-18.172634 -0.605398 6.931373 19.459061 0.033301 1.206595 0.060200 -0.018025 427283.000000 1 0 0
-2.181334 -7.879598 17.647173 19.449138 1.300727 0.433860 0.013554 -0.011401 -2157000.000000 1 0 0
5.637466 2.627302 14.487473 15.766122 0.436115 0.405516 0.011020 -0.005825 -2949710.000000 1 0 0
-14.274134 -6.622898 11.221973 19.327347 0.434418 0.951298 0.030345 0.000558 234135.000000 1 0 0
3.214366 7.517302 16.305073 18.239994 1.166729 0.464783 0.014387 -0.014142 -190241.000000 1 0 0
0.926966 1.908602 14.592373 14.745825 1.118672 0.144393 0.007152 -0.007569 -1457200.000000 1 0 0
-14.326334 0.646802 9.645773 17.283030 -0.045117 0.978694 0.027154 -0.008550 -2912540.000000 1 0 0
-9.578434 -5.102998 15.436673 18.870025 0.489510 0.612779 0.006129 -0.005926 -125932.000000 1 0 0
-2.578634 -0.162798 18.015673 18.200009 0.063050 0.142446 0.009174 -0.010784 191957.000000 1 0 0
6.752066 3.675202 17.656173 19.257153 0.498462 0.410646 0.031984 -0.009590 -200376.000000 1 0 0
-4.224334 -0.879898 14.635773 15.258606 0.205357 0.286703 0.014444 -0.003396 -179363.000000 1 0 0
4.733266 -9.398798 17.666773 20.563465 -1.104270 0.537221 0.026906 -0.000975 -316552.000000 1 0 0
1.840166 6.843002 13.424773 15.180165 1.308099 0.485669 0.005880 -0.002227 -1261150.000000 1 0 0
-3.796234 -0.680798 20.174173 20.539526 0.177449 0.188896 0.018350 -0.013313 -2192730.000000 1 0 0
-10.787934 1.634602 16.333473 19.642652 -0.150377 0.588938 0.024643 -0.006850 -270052.000000 1 0 0
-4.081234 7.006302 18.544973 20.240077 -1.043337 0.412179 0.035263 -0.007025 -305836.000000 1 0 0
-12.703634 1.107902 14.669773 19.437386 -0.086991 0.715570 0.027006 -0.007690 1081380.000000 1 0 0
-16.010534 -4.853298 8.311673 18.680888 0.294327 1.109701 0.036161 -0.009927 -1912150.000000 1 0 0
-2.321134 0.741902 15.677873 15.866120 -0.309366 0.154197 0.009227 -0.005146 90506.500000 1 0 0
-13.678034 -8.949498 12.237373 20.418996 0.579390 0.928154 0.018879 -0.011963 681869.000000 1 0 0
6.091166 -3.351498 14.503873 16.084066 -0.503014 0.446986 0.018150 -0.006529 472458.000000 1 0 0
-15.751034 0.579702 7.462173 17.438897 -0.036787 1.128624 0.027011 -0.014170 857332.000000 1 0 0
-14.017334 5.794902 12.227173 19.482563 -0.392013 0.892335 0.017544 -0.013923 215624.000000 1 0 0
0.219566 9.301702 16.787273 19.193290 1.547196 0.506098 0.015865 -0.009625 -262506.000000 1 0 0
-10.309134 -5.412798 10.783173 15.869891 0.483485 0.823751 0.000289 -0.004835 -137105.000000 1 0 0
-3.214934 -11.222898 15.103073 19.089056 1.291806 0.658044 0.009761 -0.008703 -1318620.000000 1 0 0
-3.571834 2.777102 12.563773 13.353601 -0.660870 0.345658 0.001134 -0.001386 -1733330.000000 1 0 0
-12.490934 -7.763498 7.405173 16.466084 0.556101 1.104341 0.017124 -0.004252 374241.000000 1 0 0
-8.267834 -1.864798 13.108773 15.610076 0.221837 0.573949 0.007225 -0.004245 187523.000000 1 0 0
-9.779834 6.418202 9.443373 15.033820 -0.580770 0.891633 0.003725 -0.003365 -504128.000000 1 0 0
-17.769934 -3.304798 6.566173 19.230363 0.183876 1.222339 0.035934 -0.015675 546366.000000 1 0 0
-1.406434 -0.026798 20.379473 20.427963 0.019052 0.068915 0.013564 -0.011485 -917696.000000 1 0 0
-2.899934 2.562502 20.370473 20.734806 -0.723703 0.187738 0.025117 -0.006864 -731956.000000 1 0 0
-3.738534 11.284002 11.132273 16.285970 -1.250865 0.818181 -0.001683 -0.003716 -837907.000000 1 0 0
-4.254134 -4.824498 14.911573 16.239718 0.848141 0.407243 0.009379 -0.008238 -399613.000000 1 0 0
-0.051434 -14.321398 13.348773 19.577917 1.567205 0.820538 0.007572 -0.012980 -409704.000000 1 0 0
-12.101534 0.357802 8.278473 14.666569 -0.029558 0.971035 0.005052 -0.004025 -606577.000000 1 0 0
-7.849834 2.084402 15.346273 17.362969 -0.259545 0.486765 0.010637 -0.004579 468433.000000 1 0 0
3.342566 -2.182798 18.431173 18.858565 -0.578503 0.213303 0.026279 -0.007869 -317762.000000 1 0 0
-2.067334 4.831102 12.644673 13.693106 -1.166454 0.393863 -0.002764 -0.001307 -876613.000000 1 0 0
-10.479534 -6.227298 13.236273 17.994410 0.536169 0.744278 0.006817 -0.007300 -1255420.000000 1 0 0
2.323866 -3.834398 14.212473 14.902931 -1.025935 0.305590 0.006835 -0.002525 -379132.000000 1 0 0
6.686766 1.087402 17.065873 18.361353 0.161209 0.377890 0.020241 -0.010064 -1077290.000000 1 0 0
-2.051234 -5.734098 13.731073 15.020979 1.227256 0.417449 0.005544 -0.003722 -2513250.000000 1 0 0
-12.989634 3.787202 14.439373 19.788101 -0.283692 0.752914 0.013308 -0.003282 285935.000000 1 0 0
-13.223134 -6.632098 13.469973 20.006903 0.464889 0.832179 0.007085 -0.004381 -1001170.000000 1 0 0
-9.508634 6.723402 11.935673 16.675687 -0.615464 0.773095 0.002470 -0.002582 -450294.000000 1 0 0
-1.105734 -2.481198 12.751073 13.037210 1.151570 0.209898 0.008333 0.000313 246532.000000 1 0 0
-0.004234 6.595602 15.380773 16.735296 -1.570154 0.405103 0.011072 -0.005252 432040.000000 1 0 0
-16.521434 -0.808098 9.544973 19.097573 0.048873 1.047428 0.056427 -0.011539 202837.000000 1 0 0
-1.353334 2.628802 13.828873 14.141422 -1.095371 0.210635 0.003730 -0.004439 -2158450.000000 1 0 0
-11.302834 -3.330398 16.038073 19.901391 0.286543 0.633641 0.015762 -0.008496 343296.000000 1 0 0
-5.314734 -1.405098 16.977573 17.845410 0.258464 0.313146 0.024443 -0.008315 165253.000000 1 0 0
-11.869734 6.682702 11.046373 17.537714 -0.512772 0.889418 0.014621 -0.000337 -2028140.000000 1 0 0
-3.014234 4.593302 18.728873 19.518061 -0.990058 0.285339 0.029048 -0.011212 306039.000000 1 0 0
4.958766 -1.996398 16.336473 17.188813 -0.382746 0.316235 0.017059 -0.006349 -1656400.000000 1 0 0
-8.109234 -4.165698 12.122973 15.168361 0.474546 0.644787 0.006965 -0.002506 -1006550.000000 1 0 0
-11.683234 -0.798598 16.143073 19.943282 0.068248 0.627583 0.026376 -0.005512 202614.000000 1 0 0
1.993566 1.947002 17.380673 17.602639 0.773582 0.158974 0.010679 -0.010499 -1949850.000000 1 0 0
-9.045834 -7.607098 11.568973 16.538929 0.699217 0.796099 0.012232 -0.009937 -94695.300000 1 0 0
-7.281934 6.782802 14.710773 17.760625 -0.749925 0.594765 -0.002273 -0.006131 -821981.000000 1 0 0
-5.704334 3.490302 15.711273 17.075295 -0.549101 0.402417 0.007789 -0.005249 -16459.300000 1 0 0
-9.404334 4.161802 11.531473 15.451115 -0.416634 0.728281 0.001669 -0.004291 -384702.000000 1 0 0
-10.226934 0.123502 14.209773 17.507800 -0.012076 0.623867 0.009314 -0.002615 -302694.000000 1 0 0
8.062666 -0.655798 15.681473 17.644978 -0.081159 0.476247 0.018111 -0.010513 6301.470000 1 0 0
-8.628334 -7.416398 14.624473 18.529066 0.710007 0.661174 0.015470 -0.010304 -2997150.000000 1 0 0
-0.100534 3.964502 15.664173 16.158394 -1.545443 0.247965 0.008493 -0.009700 258888.000000 1 0 0
-8.102134 3.103702 9.538173 12.893962 -0.365829 0.738113 -0.002016 -0.001006 -157430.000000 1 0 0
-2.267634 -9.894198 13.098473 16.571280 1.345499 0.659282 0.001840 -0.007315 373370.000000 1 0 0
-6.059634 10.258802 10.556173 15.918384 -1.037261 0.845786 0.006023 -0.005751 -2256660.000000 1 0 0
-8.610634 -2.752898 15.553073 17.989428 0.309439 0.526508 0.010128 -0.010988 1050900.000000 1 0 0
4.161566 5.560802 17.760173 19.069999 0.928336 0.372790 0.023202 -0.013523 -166606.000000 1 0 0
-6.853134 -0.941798 15.008373 16.525849 0.136570 0.431892 0.009765 -0.006870 -1405350.000000 1 0 0
-0.970734 -9.900998 15.403873 18.337159 1.473065 0.573447 -0.006177 -0.008034 -1634280.000000 1 0 0
-4.361834 5.720602 16.162873 17.691504 -0.919357 0.418757 0.013905 -0.007508 18111.900000 1 0 0
3.702166 0.045302 17.380573 17.770548 0.012236 0.209885 0.022263 -0.007280 -743322.000000 1 0 0
1.373166 0.337102 19.226673 19.278593 0.240732 0.073408 0.011849 -0.007266 -253000.000000 1 0 0
-6.439434 6.292802 17.630873 19.796801 -0.773882 0.472151 0.011905 -0.010414 -557917.000000 1 0 0
-12.145334 0.601802 10.872073 16.311752 -0.049510 0.841268 0.018494 -0.005378 -426258.000000 1 0 0
-5.374634 5.183102 13.867973 15.750298 -0.767259 0.493902 0.001725 -0.000159 -1720710.000000 1 0 0
-8.813834 -9.526898 9.918173 16.334491 0.824257 0.918275 0.017602 -0.010276 -631210.000000 1 0 0
6.568966 -3.795698 17.090773 18.699015 -0.523953 0.417777 0.017967 -0.001848 -836017.000000 1 0 0
-16.638134 1.702502 9.571273 19.270061 -0.101970 1.051014 0.045111 -0.016929 217363.000000 1 0 0
-4.205934 -9.592298 11.291873 15.401573 1.157572 0.747834 0.006168 -0.008808 325095.000000 1 0 0
-11.121834 -3.858698 9.126273 14.895422 0.333953 0.911337 0.002652 -0.001728 -266987.000000 1 0 0
3.356466 -5.265798 18.410873 19.441058 -1.003324 0.327001 0.017139 -0.011358 -528225.000000 1 0 0
2.467666 -1.877398 15.996473 16.294206 -0.650377 0.191459 0.010053 -0.005979 -727902.000000 1 0 0
-3.468634 -4.317298 20.026173 20.777826 0.893969 0.269800 0.018328 -0.016591 -543388.000000 1 0 0
-6.426534 -3.363198 14.258473 15.997358 0.482137 0.470588 0.011716 -0.005189 -390912.000000 1 0 0
-9.701534 5.086902 13.899673 17.697379 -0.482929 0.667440 0.011827 -0.005424 259290.000000 1 0 0
-5.926834 -5.097698 11.671873 14.048007 0.710331 0.590152 0.005901 -0.003652 -1349110.000000 1 0 0
5.833366 1.982902 19.384873 20.340436 0.327670 0.307737 0.036164 -0.019397 5983.060000 1 0 0
-2.889434 11.643202 13.458073 18.028663 -1.327546 0.728037 0.011925 -0.016359 -1295860.000000 1 0 0
3.324366 1.357702 15.140773 15.560776 0.387735 0.232867 0.004075 -0.006335 -1245450.000000 1 0 0
-5.750134 7.406602 12.722473 15.804528 -0.910642 0.635139 -0.006133 -0.002895 -1417900.000000 1 0 0
-1.798334 -1.699898 15.148373 15.349164 0.757267 0.161927 0.008326 -0.003395 -219989.000000 1 0 0
-7.354634 10.425402 14.082973 19.002888 -0.956420 0.736094 0.018711 -0.014019 347955.000000 1 0 0
-10.190834 1.985202 10.439473 14.723339 -0.192393 0.782657 0.003873 -0.001545 -237838.000000 1 0 0
-13.668434 5.199602 9.013473 17.178609 -0.363505 1.018443 0.018209 -0.007979 546575.000000 1 0 0
0.103966 -5.112098 20.133873 20.772992 -1.550462 0.248700 0.018003 -0.010793 -195858.000000 1 0 0
-14.471334 -2.959498 7.408373 16.524591 0.201726 1.105907 0.016665 -0.006496 457461.000000 1 0 0
-2.430334 2.403602 17.668273 17.995879 -0.779868 0.191102 0.005943 -0.009060 -505253.000000 1 0 0
-6.271734 -8.412498 14.639273 18.011471 0.930165 0.621897 0.010651 -0.008847 2185.920000 1 0 0
-8.020534 1.906302 11.937173 14.507206 -0.233348 0.604398 0.001882 -0.003403 -610102.000000 1 0 0
-14.715034 -3.427698 9.999273 18.118134 0.228857 0.986164 0.027571 -0.004167 -51074.200000 1 0 0
-0.698034 7.075202 12.913673 14.741393 -1.472455 0.503261 -0.000595 0.000155 -942437.000000 1 0 0
-1.903334 -2.307798 19.300673 19.531118 0.881151 0.153767 0.017051 -0.008958 146209.000000 1 0 0
-12.836234 10.277302 7.366173 18.018111 -0.675136 1.149635 0.013920 -0.017255 621825.000000 1 0 0
-19.580534 2.189302 6.858473 20.862142 -0.111348 1.235814 0.062937 -0.017230 703399.000000 1 0 0
-16.236734 8.293002 6.688773 19.420223 -0.472215 1.219172 0.030847 -0.010489 362140.000000 1 0 0
-12.364034 7.261402 13.632473 19.784883 -0.531029 0.810640 0.016525 -0.007830 198959.000000 1 0 0
-16.006034 8.361302 10.456173 20.867104 -0.481394 1.045945 0.023266 -0.006917 -1093590.000000 1 0 0
1.643166 10.915002 15.410373 18.955655 1.421376 0.621562 0.008736 0.005125 -703999.000000 1 0 0
2.340866 14.527102 12.101873 19.051815 1.411032 0.882518 0.007516 -0.008081 -245708.000000 1 0 0
-3.183734 13.600802 11.783673 18.274926 -1.340852 0.870035 -0.006395 -0.007821 -250329.000000 1 0 0
8.949366 4.723402 15.788273 18.752899 0.485633 0.569981 0.028360 -0.003678 230350.000000 1 0 0
-0.415334 12.520402 13.116373 18.137590 -1.537636 0.762430 0.003621 0.003468 257639.000000 1 0 0
2.919566 13.303302 14.337473 19.775359 1.354759 0.759737 0.005717 -0.007121 -164605.000000 1 0 0
-2.870334 -4.115198 -13.729127 14.617203 0.961753 2.791219 0.002052 0.000800 -125703.000000 1 0 0
6.135266 -11.447398 16.140473 20.717125 -1.078802 0.677586 0.031056 -0.009159 362819.000000 1 0 0
8.039466 -13.500398 7.393873 17.365573 -1.033693 1.130975 0.004812 -0.005062 -553034.000000 1 0 0
-0.174834 15.642802 1.206073 15.690201 -1.559620 1.493853 -0.003618 -0.001531 -3008140.000000 1 0 0
-13.780634 8.214702 9.118973 18.453803 -0.537550 1.053938 0.013224 -0.006353 455239.000000 1 0 0
-15.542934 -9.659798 4.861473 18.934846 0.556072 1.311141 0.022684 -0.006141 -716484.000000 1 0 0
9.434566 -11.294798 11.125573 18.448899 -0.874897 0.923480 0.012473 -0.006118 48721.800000 1 0 0
-5.748734 -10.612598 -16.786027 20.674765 1.074356 2.518211 0.020436 -0.000356 156041.000000 1 0 0
-1.887534 -12.595798 -15.000427 19.678154 1.422049 2.437638 0.017410 0.005826 -5443.980000 1 0 0
5.869566 -15.191798 -12.744027 20.679767 -1.202100 2.234776 0.017178 0.005607 362634.000000 1 0 0
2.570466 -11.713498 -16.859227 20.689294 -1.354776 2.523313 0.007742 0.005679 177384.000000 1 0 0
0.703366 -13.883098 -14.510727 20.094685 -1.520176 2.377655 0.029416 0.008349 262858.000000 1 0 0
-6.366834 -6.204598 -14.810827 17.274091 0.772494 2.600995 0.016025 0.006171 -49966.200000 1 0 0
-6.062134 -8.182798 -17.553327 20.293520 0.933184 2.615891 0.016086 0.004578 -13431.900000 1 0 0
-2.166934 -16.306098 -13.226427 21.107412 1.438679 2.248011 0.033498 -0.001009 349816.000000 1 0 0
16.492466 -8.000198 -9.051627 20.443497 -0.451642 2.029474 0.059164 -0.009535 57034.500000 1 0 0
19.038066 -3.210998 -2.983527 19.536118 -0.167089 1.724115 0.044261 -0.019899 -7681.070000 1 0 0
15.365166 -12.391898 -8.317727 21.420366 -0.678688 1.969593 0.027270 0.005375 -71334.400000 1 0 0
18.959966 -2.786398 -6.388027 20.200278 -0.145918 1.892554 0.174656 -0.003844 -256742.000000 1 0 0
8.712466 -9.265998 -15.650427 20.166846 -0.816177 2.459170 0.047739 -0.012028 126772.000000 1 0 0
-4.840934 9.057602 -16.003827 19.015711 -1.079962 2.571055 0.008179 -0.009291 441229.000000 1 0 0
2.572266 -9.713298 -18.366627 20.935561 -1.311920 2.640990 0.009828 0.005053 -282244.000000 1 0 0
11.142166 7.857602 -14.894427 20.192418 0.614216 2.400342 0.034007 -0.029754 412403.000000 1 0 0
18.676166 -6.337798 -8.468027 21.463326 -0.327158 1.976358 0.057155 -0.005809 270171.000000 1 0 0
12.752966 5.451102 -13.765227 19.540577 0.403934 2.352435 0.024880 0.001697 24805.500000 1 0 0
15.828166 6.420602 -10.854727 20.238085 0.385362 2.136905 0.016672 -0.011465 31077.600000 1 0 0
3.370466 -0.397398 -19.379827 19.674747 -0.117364 2.968230 0.034938 -0.003622 183542.000000 1 0 0
10.231166 -1.607598 -14.618327 17.915263 -0.155853 2.525202 0.018846 -0.013016 82483.200000 1 0 0
12.294866 -5.842498 -13.729627 19.333939 -0.443610 2.360480 0.046397 -0.020090 177225.000000 1 0 0
10.210666 6.525102 -12.856427 17.666986 0.568637 2.385772 0.019031 -0.000549 475749.000000 1 0 0
10.554566 5.533002 -16.112227 20.040381 0.482842 2.504768 0.028805 -0.008480 410480.000000 1 0 0
12.112966 -9.683198 -14.879227 21.491387 -0.674380 2.335516 0.092942 -0.029368 330831.000000 1 0 0
-1.474534 2.038602 -17.733227 17.910821 -0.944599 3.000654 0.006913 -0.006326 336748.000000 1 0 0
6.805966 -1.038598 -17.155427 18.485361 -0.151433 2.759952 0.027796 0.011754 109697.000000 1 0 0
7.228266 -6.351598 -15.497927 18.242160 -0.720931 2.585959 0.019128 -0.011866 312347.000000 1 0 0
-1.815034 -4.662898 -20.571627 21.171415 1.199591 2.902993 0.003893 -0.013961 282027.000000 1 0 0
15.924366 -0.283998 -13.165027 20.663592 -0.017832 2.261542 0.028691 -0.014904 -63075.400000 1 0 0
-4.058734 -0.486498 -18.923827 19.360301 0.119295 2.928849 0.009214 0.000203 222674.000000 1 0 0
3.514566 9.320602 -17.346227 20.002935 1.210208 2.620316 0.035916 -0.022478 -219718.000000 1 0 0
9.954566 -0.086998 -17.185727 19.860770 -0.008739 2.616565 0.036296 -0.003091 -35293.500000 1 0 0
4.164166 4.514602 -18.353327 19.353722 0.825755 2.818664 0.032241 -0.002554 419228.000000 1 0 0
-1.929034 -10.862698 -18.608327 21.633059 1.395045 2.606419 0.015320 0.002492 236471.000000 1 0 0
6.189366 -9.380898 -16.265727 19.770771 -0.987574 2.536969 0.019339 0.000657 17358.700000 1 0 0
9.921966 -12.974398 -11.255827 19.836181 -0.917932 2.174189 0.017419 0.026324 -11404.000000 1 0 0
6.255166 7.033502 -17.351127 19.739779 0.843903 2.644543 0.040828 0.002738 452447.000000 1 0 0
8.624566 1.332102 -20.085827 21.899728 0.153243 2.731722 0.051600 -0.008348 73367.300000 1 0 0
-0.807734 -0.614798 -20.304227 20.329586 0.650593 3.091640 0.018507 -0.011696 114849.000000 1 0 0
-1.140234 6.499702 -19.623527 20.703359 -1.397135 2.817194 0.020568 -0.011297 -54421.600000 1 0 0
8.846466 5.612602 -18.213727 21.011928 0.565363 2.619601 0.049172 -0.006367 191947.000000 1 0 0
12.143366 0.073402 -12.890827 17.709889 0.006045 2.386034 0.007323 -0.006997 -58402.700000 1 0 0
-3.804534 -2.695498 -19.650927 20.196513 0.616406 2.908628 -0.017365 -0.009805 413451.000000 1 0 0
5.405166 -11.373898 -14.463927 19.177763 -1.127164 2.425236 -0.001715 0.001535 -19457.500000 1 0 0
11.448766 2.566502 -15.875427 19.740577 0.220527 2.505129 0.031574 0.004237 -160392.000000 1 0 0
-2.732834 -4.404298 -17.127027 17.894169 1.015445 2.847719 -0.003793 -0.001424 -32180.700000 1 0 0
-6.714634 -5.323298 -17.950227 19.890562 0.670329 2.696218 0.027322 0.007282 -23617.800000 1 0 0
2.763966 10.398102 -15.390327 18.778238 1.310990 2.531479 0.020483 -0.009968 211099.000000 1 0 0
17.430066 -6.090498 -10.787327 21.383821 -0.336162 2.099555 0.086570 -0.018913 -23181.500000 1 0 0
9.736566 -3.803098 -17.353527 20.258559 -0.372376 2.599445 0.029531 -0.028573 8224.660000 1 0 0
-7.010534 -1.461698 -18.913427 20.223795 0.205555 2.779639 0.000996 0.004491 472337.000000 1 0 0
1.415166 -7.534698 -19.421227 20.879618 -1.385139 2.765624 0.005594 -0.009694 238642.000000 1 0 0
5.943366 10.075202 -13.951227 18.206319 1.037836 2.443835 0.032013 -0.016572 416604.000000 1 0 0
6.087066 -4.067198 -17.486027 18.956678 -0.589043 2.745098 0.031647 -0.029097 314801.000000 1 0 0
4.696066 13.179802 -14.929127 20.460671 1.228513 2.388606 0.033363 -0.012778 64507.600000 1 0 0
9.834366 11.171102 -15.597627 21.559088 0.848950 2.379630 0.068772 -0.017987 -98212.000000 1 0 0
17.281266 1.096402 -11.310427 20.682602 0.063360 2.149402 0.060754 -0.010538 -19845.800000 1 0 0
15.227366 -2.882198 -12.340227 19.810628 -0.187065 2.243253 0.056979 -0.011322 28618.600000 1 0 0
-8.749534 0.260402 -17.433927 19.508049 -0.029753 2.676274 0.012333 -0.003228 341850.000000 1 0 0
-3.273934 4.315202 -19.112727 19.865446 -0.921752 2.865431 0.008445 -0.004520 14532.900000 1 0 0
3.881566 1.471802 -16.901127 17.403473 0.362428 2.900742 0.017744 0.003029 628683.000000 1 0 0
-5.083034 14.390902 -13.636127 20.466540 -1.231263 2.299984 0.014994 -0.010510 264901.000000 1 0 0
0.895566 9.647902 -17.714627 20.191386 1.478237 2.641078 0.028382 0.003934 264191.000000 1 0 0
1.499266 -5.053498 -19.830827 20.519439 -1.282389 2.881791 0.015296 -0.002720 621090.000000 1 0 0
3.723866 -6.213198 -18.064127 19.462367 -1.030857 2.760226 0.012794 -0.018757 -2916.990000 1 0 0
-6.798234 7.469702 -15.871627 18.812788 -0.832425 2.574864 -0.000030 0.003352 25020.700000 1 0 0
-11.574234 3.288402 -16.957627 20.792729 -0.276820 2.524485 0.027675 -0.012514 230543.000000 1 0 0
-4.312934 6.880702 -17.571927 19.357636 -1.010892 2.708690 0.006927 0.021599 373715.000000 1 0 0
-8.261934 5.810202 -17.326027 20.055154 -0.612904 2.613796 0.007699 -0.012078 341650.000000 1 0 0
-8.207534 3.875302 -14.808427 17.368681 -0.441132 2.591725 -0.013299 -0.019893 182802.000000 1 0 0
9.425466 14.183302 -12.505827 21.128208 0.984263 2.204213 0.052970 -0.022320 539531.000000 1 0 0
14.285166 9.762202 -11.966927 21.037441 0.599485 2.175890 0.066685 -0.017213 78703.400000 1 0 0
8.297966 15.896902 -9.996027 20.530180 1.089715 2.079327 0.018399 -0.001969 142524.000000 1 0 0
7.435466 12.419002 -14.175727 20.260035 1.031321 2.345759 0.055486 -0.041778 192928.000000 1 0 0
4.120366 15.520702 -13.217727 20.798508 1.311306 2.259469 0.038492 -0.013746 198208.000000 1 0 0
10.743666 12.038002 -11.686227 19.922544 0.842152 2.197630 0.042128 -0.008384 -172830.000000 1 0 0
15.807366 10.885502 -9.202727 21.285140 0.603057 2.017899 0.048143 -0.031542 317590.000000 1 0 0
12.795066 11.215402 -9.884327 19.677370 0.719702 2.097076 0.045420 -0.021649 -180909.000000 1 0 0
10.979866 11.461502 -7.802527 17.686235 0.806857 2.027691 0.030113 -0.013081 102951.000000 1 0 0
5.182566 17.034602 -10.220827 20.530513 1.275456 2.091898 0.037105 -0.006645 -5867.360000 1 0 0
11.509866 13.702002 -10.293127 20.643894 0.872129 2.092784 0.070107 -0.032096 70220.600000 1 0 0
8.593966 -19.407598 -1.374627 21.269714 -1.153934 1.635470 0.051593 -0.007390 235741.000000 1 0 0
7.535566 -17.311998 -4.007027 19.301459 -1.160251 1.779920 0.034904 0.000600 259191.000000 1 0 0
4.015666 -18.755598 5.124673 19.853471 -1.359876 1.309716 0.036864 -0.014604 86387.100000 1 0 0
10.342166 -17.980098 -2.472627 20.889189 -1.048811 1.689443 0.044995 -0.001108 642942.000000 1 0 0
-3.508834 -15.566498 7.969373 17.836443 1.349092 1.107608 0.027324 -0.010398 168125.000000 1 0 0
-15.263134 -12.704798 -4.060827 20.269817 0.694178 1.772500 0.016976 -0.018984 -159810.000000 1 0 0
-10.006134 -12.234098 -6.873227 17.234765 0.885242 1.981004 0.025521 -0.018991 175795.000000 1 0 0
-11.600634 -15.450198 6.856173 20.500986 0.926758 1.229795 0.037083 -0.005083 293766.000000 1 0 0
-14.563734 -7.175598 -7.224527 17.770350 0.457793 1.989471 0.032562 -0.036890 -299265.000000 1 0 0
5.324666 -16.246398 5.367673 17.919527 -1.254084 1.266582 0.028431 -0.003678 152729.000000 1 0 0
2.917766 -14.224498 9.203673 17.191780 -1.368480 1.005871 0.021574 -0.006009 377868.000000 1 0 0
3.178866 -17.450398 10.197573 20.460012 -1.390606 1.049027 0.028681 -0.005665 322058.000000 1 0 0
-7.772734 -17.358298 -5.104527 19.692184 1.149788 1.833007 -0.008811 -0.015878 73541.700000 1 0 0
1.837166 -19.882398 -4.090727 20.381830 -1.478656 1.772873 0.029266 -0.003466 -40882.100000 1 0 0
-17.139934 -10.741698 -2.928727 20.438661 0.559825 1.714585 -0.067988 -0.015697 -75374.400000 1 0 0
-4.274234 -14.938698 2.958873 15.817355 1.292123 1.382623 0.006993 0.000089 71521.000000 1 0 0
-10.497034 -9.760698 -14.807627 20.608852 0.749066 2.372451 0.024310 0.002442 241193.000000 1 0 0
0.641666 -20.396898 2.875773 20.608621 -1.539348 1.430797 0.027817 -0.011570 295373.000000 1 0 0
5.243566 -18.311198 -0.167527 19.047914 -1.291901 1.579591 0.017405 -0.008623 -3299.900000 1 0 0
-7.635234 -18.982798 -3.313527 20.727346 1.188379 1.731348 0.010431 -0.017379 89725.700000 1 0 0
-9.808734 -15.449298 -7.581227 19.808258 1.005111 1.963547 0.027391 -0.009393 78944.900000 1 0 0
-11.436634 -11.240998 -12.524927 20.347738 0.776772 2.233872 -0.005872 0.009068 237674.000000 1 0 0
-13.125834 -15.141798 -3.266727 20.303524 0.856595 1.732393 0.012465 -0.010912 3959.300000 1 0 0
-0.398434 -20.302498 -2.518727 20.462018 1.551174 1.694202 0.025167 -0.019945 355410.000000 1 0 0
-11.695534 -16.905398 -0.696027 20.568482 0.965580 1.604642 0.022881 -0.005395 -87568.700000 1 0 0
0.896766 -19.635198 5.772973 20.485908 -1.525157 1.285124 0.033315 -0.027041 186909.000000 1 0 0
-18.403034 -9.625398 2.221973 20.886769 0.481904 1.464213 0.040605 0.004642 181816.000000 1 0 0
-15.127534 -14.935198 -1.126627 21.287830 0.779000 1.623745 0.037330 -0.008055 -42188.400000 1 0 0
10.099566 -15.839398 -4.682927 19.360206 -1.003171 1.815104 0.031952 0.002222 -65905.900000 1 0 0
-0.211934 -19.108298 -7.128327 20.395711 1.559706 1.927835 0.018619 -0.001907 181093.000000 1 0 0
-9.750234 -16.797698 -2.631327 19.599837 1.044875 1.705455 0.019826 -0.010151 505920.000000 1 0 0
-14.724034 -6.764598 -11.332827 19.773465 0.430665 2.181120 0.048925 -0.017698 -14111.300000 1 0 0
-12.414034 -14.783698 1.810773 19.389298 0.872306 1.477270 0.042280 -0.022596 262613.000000 1 0 0
-2.655334 -16.240798 10.008473 19.260941 1.408733 1.024384 0.016662 -0.018152 352017.000000 1 0 0
-12.847334 -14.139198 -6.031827 20.033818 0.833232 1.876624 0.032854 -0.021366 -48019.700000 1 0 0
5.848266 -16.829498 -6.812327 19.074644 -1.236350 1.936001 0.027776 -0.008031 40378.600000 1 0 0
-17.230934 -7.089598 -2.811227 18.843314 0.390334 1.720545 -0.024320 -0.013451 -158008.000000 1 0 0
-12.185734 -13.601598 -8.866227 20.300383 0.840249 2.022781 0.038627 -0.027128 175533.000000 1 0 0
-7.977534 -13.597898 9.885673 18.608342 1.040233 1.010722 0.031069 -0.012199 400883.000000 1 0 0
-15.930734 -8.423498 -5.713427 18.904678 0.486388 1.877820 0.031196 -0.007363 248601.000000 1 0 0
-0.600634 -19.403498 0.191373 19.413736 1.539851 1.560939 0.013216 -0.017051 101802.000000 1 0 0
-15.108534 -11.289698 -1.347227 18.908731 0.641732 1.642106 0.012778 -0.011299 103484.000000 1 0 0
-7.043834 -18.953298 1.422473 20.269843 1.214973 1.500562 0.020547 -0.011449 95976.700000 1 0 0
-2.193234 -20.401298 -5.418927 21.222347 1.463703 1.828996 0.021864 -0.013086 225201.000000 1 0 0
-9.023234 -19.614498 -0.662327 21.600601 1.139634 1.601464 0.028454 -0.008237 206863.000000 1 0 0
-17.925734 -7.303198 4.937973 19.976291 0.386882 1.321015 0.036439 -0.006484 143243.000000 1 0 0
-2.935134 -15.778698 -10.907527 19.405063 1.386880 2.167715 0.018381 0.004931 131979.000000 1 0 0
-2.888334 -18.105098 -8.588527 20.245984 1.412598 2.008884 0.017391 -0.000887 214215.000000 1 0 0
4.071566 -18.241898 -6.119527 19.667057 -1.351197 1.887206 0.013272 0.038717 402318.000000 1 0 0
0.643166 -17.395598 -9.620027 19.888827 -1.533840 2.075662 0.026656 0.009190 165239.000000 1 0 0
-7.392534 -11.210398 -13.913527 19.336722 0.987817 2.373935 0.004490 -0.029259 224250.000000 1 0 0
-5.206434 -19.410698 -2.073427 20.203496 1.308740 1.673604 0.011524 -0.012228 309861.000000 1 0 0
-10.405534 -14.963698 8.845973 20.259285 0.963174 1.118938 0.030209 -0.029426 27250.400000 1 0 0
-8.103434 -14.311898 -9.145327 18.818424 1.055599 2.078277 0.059594 -0.025995 151652.000000 1 0 0
-12.754434 -8.107198 -12.176427 19.407927 0.566212 2.248999 0.041381 -0.014323 396272.000000 1 0 0
-15.547334 -12.988598 3.487973 20.556975 0.695970 1.400298 0.026080 -0.003591 65498.100000 1 0 0
-6.105834 -14.255698 -13.018427 20.248101 1.166127 2.269134 -0.003408 0.004536 470269.000000 1 0 0
-13.999734 -11.577798 -6.837827 19.411178 0.690990 1.930784 0.028621 -0.020226 -91260.100000 1 0 0
-11.349034 -10.193298 -9.453527 17.946395 0.731800 2.125586 0.008809 -0.005372 207327.000000 1 0 0
-9.733034 -14.676598 3.837573 18.023913 0.985221 1.356238 0.010044 -0.010136 352503.000000 1 0 0
5.495166 -17.601698 8.050873 20.120467 -1.268189 1.159134 0.054035 -0.034375 248267.000000 1 0 0
-4.871334 -16.512898 5.151773 17.970711 1.283931 1.280041 0.011185 -0.001443 112032.000000 1 0 0
-18.343134 -7.556898 -6.878727 20.997480 0.390786 1.904556 0.038959 -0.020425 44665.000000 1 0 0
-17.210434 -4.687398 -11.126827 21.023249 0.265908 2.128528 0.055144 0.002246 -487841.000000 1 0 0
-15.641734 -4.122698 -13.076127 20.800134 0.257709 2.250620 0.038977 -0.012556 149363.000000 1 0 0
-19.514234 -5.672898 -6.007327 21.191391 0.282908 1.858217 0.061989 -0.008689 -191904.000000 1 0 0
5.493366 -13.311698 8.517873 16.731185 -1.179414 1.036656 0.028367 -0.005319 229153.000000 1 0 0
19.549366 -3.376898 3.147173 20.086958 -0.171049 1.413471 0.032400 -0.012266 -122898.000000 1 0 0
18.225666 -2.500798 0.415673 18.401133 -0.136361 1.548205 0.035420 -0.013367 384604.000000 1 0 0
14.265966 -11.401398 0.297673 18.264673 -0.674255 1.554498 0.025925 0.004783 128601.000000 1 0 0
10.994566 -13.835698 5.538773 18.519855 -0.899325 1.267076 0.018060 -0.000256 415708.000000 1 0 0
9.848366 -13.228298 9.057973 18.815554 -0.930829 1.068535 0.016973 -0.004897 211072.000000 1 0 0
17.526766 4.773202 -4.330827 18.674235 0.265890 1.804842 -0.006356 0.003556 -165855.000000 1 0 0
19.201666 -5.897198 -4.366327 20.555918 -0.297975 1.784839 0.074511 -0.017115 -76449.600000 1 0 0
17.838066 -10.172698 -0.597927 20.543562 -0.518280 1.599906 0.045339 -0.005102 150818.000000 1 0 0
17.412166 -8.837798 9.205873 21.587920 -0.469681 1.130247 0.081582 -0.012336 -93640.000000 1 0 0
19.849466 0.191702 -2.272427 19.980040 0.009657 1.684778 0.053871 -0.001652 38474.200000 1 0 0
7.506366 -13.526498 11.355073 19.189825 -1.064170 0.937601 0.021162 0.000022 435380.000000 1 0 0
16.289766 -6.493898 -3.373527 17.857992 -0.379341 1.760847 0.041580 -0.005159 323687.000000 1 0 0
14.421466 -7.045798 11.108473 19.519737 -0.454456 0.965398 0.030976 -0.044438 329712.000000 1 0 0
17.100966 1.060302 9.764673 19.720956 0.061923 1.052798 0.103001 -0.028313 420529.000000 1 0 0
16.631366 -9.957498 2.675273 19.568117 -0.539476 1.433651 0.017991 -0.009600 237760.000000 1 0 0
16.106166 -7.133698 -5.856127 18.563202 -0.416948 1.891748 0.045158 -0.004292 286883.000000 1 0 0
18.491666 -4.675398 6.276573 20.079752 -0.247648 1.252886 0.116181 -0.014388 110595.000000 1 0 0
13.207866 -13.487498 8.129373 20.553517 -0.795873 1.164160 0.023080 -0.015483 245260.000000 1 0 0
15.391266 -14.228298 -1.645027 21.024787 -0.746155 1.649119 0.039370 0.005426 196774.000000 1 0 0
18.783366 -6.632298 8.209673 21.545323 -0.339429 1.179873 0.100348 -0.018018 175011.000000 1 0 0
19.628666 3.627502 2.729973 20.146862 0.182744 1.434875 0.044815 0.004939 317131.000000 1 0 0
15.751266 -10.804498 8.361673 20.850831 -0.601230 1.158163 0.056660 -0.026004 368032.000000 1 0 0
14.325366 -4.101298 10.842173 18.427954 -0.278838 0.941774 0.033741 -0.012868 -95802.500000 1 0 0
18.680366 -7.787398 1.844073 20.322408 -0.394970 1.479930 0.060961 -0.013028 -39200.400000 1 0 0
19.173066 -5.936198 -1.190027 20.106245 -0.300251 1.630018 0.052022 -0.014370 149708.000000 1 0 0
14.775366 -13.746898 -6.158327 21.100087 -0.749355 1.866970 0.065511 -0.008476 519120.000000 1 0 0
13.922266 -9.813898 10.195673 19.851797 -0.614011 1.031433 0.016992 -0.013483 412613.000000 1 0 0
14.277866 2.214902 0.515173 14.457824 0.153902 1.535156 -0.002330 0.004679 -160822.000000 1 0 0
12.949366 2.469102 13.645173 18.972962 0.188412 0.768160 0.033496 -0.008783 25990.700000 1 0 0
18.389866 -3.430698 8.995073 20.757365 -0.184434 1.122597 0.073675 -0.025086 294726.000000 1 0 0
7.948166 -18.975598 5.265773 21.236173 -1.174136 1.320220 0.057973 -0.014455 291744.000000 1 0 0
12.584566 -2.870898 15.429873 20.117016 -0.224290 0.696634 0.023929 0.015574 322685.000000 1 0 0
11.436566 -13.525198 -7.143827 19.098699 -0.868877 1.954166 0.028408 -0.008712 220783.000000 1 0 0
10.864766 -17.309998 4.559073 20.939540 -1.010288 1.351313 0.033204 -0.019995 470347.000000 1 0 0
18.392866 -0.092598 -4.429227 18.918884 -0.005034 1.807106 0.051229 -0.015570 264433.000000 1 0 0
4.309866 -13.652498 11.548173 18.393639 -1.265014 0.892028 0.015051 -0.004208 168971.000000 1 0 0
9.215966 -2.833798 14.586273 17.484959 -0.298312 0.584083 0.024408 -0.001632 406630.000000 1 0 0
9.226166 -9.349798 14.255073 19.384220 -0.792054 0.744546 0.042572 -0.002281 390480.000000 1 0 0
20.999966 5.677802 -3.331827 22.007660 0.264058 1.722775 0.049694 0.006338 451005.000000 1 0 0
14.707266 -13.589198 2.023473 20.126213 -0.745906 1.470087 0.024428 0.003669 202854.000000 1 0 0
10.477166 0.019602 13.912973 17.416722 0.001871 0.645451 0.009923 -0.028112 148990.000000 1 0 0
19.389166 0.253702 7.504673 20.792408 0.013084 1.201528 0.075535 -0.018525 33133.200000 1 0 0
19.928466 1.122302 0.543173 19.967433 0.056257 1.543590 0.060439 -0.004286 326035.000000 1 0 0
17.675066 0.135702 3.062673 17.938962 0.007677 1.399228 0.028029 0.000483 8115.590000 1 0 0
10.368066 -8.466198 16.325473 21.111475 -0.684760 0.686769 0.048011 -0.004373 283272.000000 1 0 0
19.622366 2.456002 5.000473 20.397890 0.124516 1.323125 0.081751 -0.019553 184399.000000 1 0 0
15.161866 2.474602 7.085473 16.917735 0.161786 1.138652 0.027566 -0.006861 -24769.600000 1 0 0
11.294166 -16.052798 2.064873 19.736115 -0.957683 1.465980 0.010999 0.001697 173100.000000 1 0 0
8.553366 -16.135698 7.010673 19.561962 -1.083368 1.204261 0.023088 -0.005288 264568.000000 1 0 0
6.099266 6.787002 7.354573 11.719820 0.838717 0.892416 0.006385 0.000014 -837929.000000 1 0 0
18.514866 2.043002 -6.705227 19.797328 0.109899 1.916324 0.030026 -0.001293 257292.000000 1 0 0
14.272566 4.557402 -7.196927 16.621427 0.309079 2.018605 0.017666 -0.001494 370737.000000 1 0 0
-10.459834 -3.887798 -14.187927 18.050495 0.355864 2.475130 0.018882 0.008295 -36505.500000 1 0 0
7.883866 -14.045498 -10.455427 19.202795 -1.059312 2.146559 0.001148 0.008820 -28919.900000 1 0 0
2.031766 -15.800398 13.998673 21.207157 -1.442909 0.849855 0.015601 -0.010275 374827.000000 1 0 0
-9.482734 -7.706298 1.886173 12.363936 0.682417 1.417644 0.006509 0.000779 299324.000000 1 0 0
-13.941434 3.144602 -9.643227 17.240763 -0.221845 2.164370 0.018723 -0.005687 471221.000000 1 0 0
-12.906534 -5.157198 -13.292327 19.231778 0.380145 2.333896 0.032148 0.002105 113818.000000 1 0 0
-17.979534 -1.321698 -9.080427 20.185754 0.073379 2.037386 0.051206 -0.016532 426475.000000 1 0 0
-12.355134 15.065202 4.798773 20.065838 -0.883912 1.329305 0.041334 -0.017926 338762.000000 1 0 0
-17.814434 6.074602 9.411973 21.043765 -0.328629 1.107100 0.060894 -0.022212 172272.000000 1 0 0
-13.455934 15.288602 0.156873 20.367329 -0.849069 1.563094 0.050165 -0.024709 -3833.020000 1 0 0
-16.208134 5.958302 -10.371027 20.143564 -0.352278 2.111636 0.032955 -0.009997 -150476.000000 1 0 0
-18.746534 2.979702 -0.859727 19.001323 -0.157628 1.616057 0.079562 0.000096 -10198.000000 1 0 0
-10.012434 15.579402 -0.067027 18.519478 -0.999590 1.574416 0.033662 -0.007617 32015.000000 1 0 0
-18.740034 11.450302 1.903773 22.043652 -0.548474 1.484325 0.099954 -0.022999 -155384.000000 1 0 0
-8.704034 16.177302 -7.466627 19.829670 -1.077182 1.956853 0.048553 -0.037485 -73790.300000 1 0 0
-14.627434 -1.501698 -12.688627 19.422105 0.102305 2.282743 0.010777 -0.023109 85603.600000 1 0 0
-19.158834 4.858702 -4.985427 20.384366 -0.248365 1.817874 0.074628 -0.013689 -346.060000 1 0 0
-16.723234 9.129402 -6.005327 19.976898 -0.499699 1.876132 0.037032 -0.004988 -91454.800000 1 0 0
-19.063334 1.126602 2.398673 19.246650 -0.059029 1.445843 0.047052 -0.012838 87904.400000 1 0 0
-13.493234 11.962002 -6.940027 19.321512 -0.725317 1.938192 0.018113 -0.011628 16571.000000 1 0 0
-14.045734 5.067902 -12.405327 19.412841 -0.346276 2.264029 0.058678 -0.026333 158825.000000 1 0 0
-13.985134 9.359102 -6.742027 18.128201 -0.589767 1.951860 0.011468 -0.010163 218400.000000 1 0 0
-6.522434 11.895602 -15.283927 20.436387 -1.069254 2.415656 0.001232 -0.002511 -170887.000000 1 0 0
-15.114634 13.674102 2.905473 20.588224 -0.735402 1.429201 0.044586 -0.027633 -54033.600000 1 0 0
-18.684034 8.457902 -4.706827 21.042420 -0.425081 1.796388 0.056231 -0.017792 72072.900000 1 0 0
-3.523334 16.967902 -10.021327 20.018755 -1.366059 2.095085 -0.002033 -0.007825 89344.700000 1 0 0
-19.038534 -2.504498 -6.521227 20.279662 0.130798 1.898178 0.012057 -0.006822 -77554.700000 1 0 0
-10.401934 13.493302 -6.212327 18.134564 -0.914055 1.920446 0.011430 -0.025440 86589.900000 1 0 0
-19.464734 2.938902 4.145273 20.117064 -0.149854 1.363252 0.061666 -0.012394 126659.000000 1 0 0
-15.752734 13.021002 0.139173 20.438064 -0.690743 1.563987 0.053555 -0.000613 -97195.900000 1 0 0
-17.005134 2.184302 -8.625127 19.192149 -0.127750 2.036900 -0.004685 -0.006440 266540.000000 1 0 0
-16.649434 12.553102 -4.886427 21.416376 -0.646034 1.800987 0.044160 -0.014683 256776.000000 1 0 0
-10.641434 15.653802 -8.723627 20.841864 -0.973757 2.002659 0.033516 -0.019933 38034.000000 1 0 0
-19.342534 1.800902 -6.965027 20.637065 -0.092838 1.915057 0.058954 -0.012234 86488.000000 1 0 0
-17.137934 10.346302 -0.417727 20.023217 -0.543141 1.591660 0.049870 -0.008013 31979.000000 1 0 0
-11.734134 6.735802 -14.582927 19.892780 -0.521109 2.393630 0.021309 -0.013851 347225.000000 1 0 0
-14.311334 13.339302 -5.166027 20.234601 -0.750259 1.828961 0.053524 -0.004894 132591.000000 1 0 0
-18.672934 7.439202 -0.800527 20.116188 -0.379122 1.610602 0.045037 -0.005068 49219.300000 1 0 0
-14.548834 8.994102 -10.726627 20.189675 -0.553695 2.130922 0.012526 0.005803 351719.000000 1 0 0
-18.658634 11.291702 4.889173 22.350641 -0.544215 1.350264 0.058194 -0.024708 246865.000000 1 0 0
-8.117534 12.063602 -13.160527 19.611841 -0.978494 2.306421 -0.010208 -0.003333 423469.000000 1 0 0
-21.132934 -1.318798 -5.673827 21.921050 0.062324 1.832607 0.047281 -0.006940 278060.000000 1 0 0
-10.251934 13.305402 -2.923627 17.049441 -0.914298 1.743127 0.022404 -0.009241 320334.000000 1 0 0
-19.053234 -4.632898 3.788273 19.970991 0.238526 1.379951 0.053589 -0.011253 55492.000000 1 0 0
-11.463934 11.492002 -13.062327 20.835361 -0.786621 2.248404 0.011518 0.000506 228352.000000 1 0 0
-14.642034 12.109802 -10.314027 21.619797 -0.691023 2.068107 0.022003 0.014323 68567.600000 1 0 0
-12.579334 9.668802 -14.220227 21.305873 -0.655316 2.301552 0.011826 -0.002799 204953.000000 1 0 0
-18.418534 -4.898098 -3.370727 19.354471 0.259917 1.745847 0.013685 -0.009359 -309570.000000 1 0 0
-9.672934 12.538002 -11.282727 19.443947 -0.913683 2.189856 0.029061 -0.019212 -93653.000000 1 0 0
-15.332934 7.973202 -8.079527 19.077462 -0.479523 2.008115 -0.000816 -0.000107 -146582.000000 1 0 0
-14.365834 8.903602 1.997273 17.018825 -0.554834 1.453169 0.023913 -0.006453 -43565.600000 1 0 0
-20.067934 6.295102 7.706573 22.399588 -0.303968 1.219570 0.074830 -0.023669 359913.000000 1 0 0
-18.738434 5.813802 3.642673 19.954905 -0.300844 1.387222 0.033749 -0.009870 197598.000000 1 0 0
-14.722834 11.987502 6.044173 19.924709 -0.683347 1.262589 0.039505 -0.031255 -9790.470000 1 0 0
17.864466 6.433902 5.898173 19.882723 0.345689 1.269615 0.019444 0.000789 15067.500000 1 0 0
18.211966 7.544702 0.655073 19.723777 0.392749 1.537578 0.021687 0.010089 -165710.000000 1 0 0
17.064566 4.419802 8.498373 19.569272 0.253435 1.121567 0.052321 -0.006521 -30439.800000 1 0 0
12.247366 12.865602 10.633673 20.702577 0.810011 1.031374 0.035941 -0.020337 97075.200000 1 0 0
15.444166 12.613002 4.208073 20.379351 0.684832 1.362813 0.026681 0.000354 228344.000000 1 0 0
4.892366 10.265102 14.342373 18.303311 1.126042 0.670366 0.015331 -0.005632 374919.000000 1 0 0
13.430266 13.753902 -4.265627 19.691050 0.797303 1.789155 0.055930 0.000987 315246.000000 1 0 0
17.522566 9.501002 -2.743427 20.120531 0.496847 1.707572 0.003421 0.003188 -62448.800000 1 0 0
14.559566 7.274602 9.596573 18.894312 0.463363 1.038042 0.039730 -0.002613 105851.000000 1 0 0
4.633766 19.123602 -1.509327 19.734792 1.333072 1.647352 0.000631 -0.006899 349501.000000 1 0 0
-3.521534 20.049402 2.894373 20.561058 -1.396927 1.429558 -0.027599 0.035140 139598.000000 1 0 0
6.650366 12.414502 12.799173 19.030661 1.079003 0.833140 0.019783 -0.004279 -1867.500000 1 0 0
0.017566 17.150102 -10.155027 19.931153 1.569772 2.105406 0.014909 0.007291 87203.700000 1 0 0
10.535866 9.654102 15.599973 21.155739 0.741752 0.741602 0.032506 -0.006551 163175.000000 1 0 0
-1.219434 12.218402 1.074673 12.326041 -1.471323 1.483498 -0.003586 -0.000388 505652.000000 1 0 0
-4.675634 19.328802 -2.821027 20.085376 -1.333456 1.711714 0.007407 0.011293 47346.700000 1 0 0
6.568066 17.881702 6.311573 20.068151 1.218788 1.250859 0.033724 -0.019648 -15980.600000 1 0 0
11.106766 17.261502 -1.550527 20.584553 0.999045 1.646193 0.030685 -0.014923 307802.000000 1 0 0
18.335866 10.888602 3.419373 21.597633 0.535879 1.411806 0.013660 0.003023 284573.000000 1 0 0
11.738066 16.839802 6.380473 21.495850 0.962058 1.269432 0.035816 0.002800 -151621.000000 1 0 0
18.202666 7.408202 -5.819127 20.495872 0.386513 1.858673 0.032634 0.015447 401955.000000 1 0 0
0.632166 16.241002 10.707773 19.463457 1.531892 0.988255 -0.001772 0.013497 338452.000000 1 0 0
1.353166 20.133102 -1.767727 20.255807 1.503686 1.658178 0.001527 -0.008638 161094.000000 1 0 0
14.633566 9.747702 -1.358727 17.635337 0.587624 1.647918 0.018533 -0.001400 97817.100000 1 0 0
10.396866 16.819502 1.913673 19.865865 1.017143 1.474317 0.041112 -0.026198 360355.000000 1 0 0
0.203766 17.806402 -0.522327 17.815226 1.559353 1.600120 -0.005949 0.003699 61632.000000 1 0 0
-0.085834 21.043102 1.375273 21.088169 -1.566717 1.505535 -0.001147 0.007472 339859.000000 1 0 0
6.198966 17.531702 -0.321427 18.598147 1.230930 1.588080 0.002450 -0.016564 44150.100000 1 0 0
6.631966 18.627702 -2.661327 19.951364 1.228762 1.704586 -0.011033 -0.008381 -51180.500000 1 0 0
10.304166 9.596902 12.958473 19.136310 0.749874 0.826891 0.032381 -0.008481 119162.000000 1 0 0
12.626166 14.708102 8.257173 21.069628 0.861417 1.168101 0.027469 -0.013677 205036.000000 1 0 0
0.393966 17.594602 7.266473 19.040138 1.548409 1.179227 0.000466 0.007453 310211.000000 1 0 0
7.219066 18.024202 -7.842427 20.940163 1.189841 1.954671 0.027435 -0.003212 8324.910000 1 0 0
-0.976134 18.563602 9.595773 20.919823 -1.518262 1.094273 0.027663 -0.001297 162379.000000 1 0 0
16.205066 7.134902 -7.776027 19.338501 0.414748 1.984607 0.044589 0.007253 -219916.000000 1 0 0
-5.401134 19.710502 -6.285027 21.381714 -1.303339 1.869147 0.004486 -0.013597 286335.000000 1 0 0
4.058866 15.556502 10.069473 18.970330 1.315575 1.011251 0.019451 0.000409 168650.000000 1 0 0
9.215666 14.892102 7.901073 19.212760 1.016647 1.146981 0.027940 -0.000274 169585.000000 1 0 0
-2.490334 19.588602 6.418173 20.763141 -1.444343 1.256535 0.003292 0.002400 81613.600000 1 0 0
4.861466 17.829302 8.662773 20.409838 1.304600 1.132452 0.026451 -0.004950 -29003.500000 1 0 0
13.589266 11.748302 -6.660627 19.158672 0.712868 1.925866 -0.041642 -0.017940 -4440.930000 1 0 0
11.429766 7.115902 15.896773 20.832259 0.556855 0.702724 0.030759 -0.006941 214388.000000 1 0 0
16.994266 8.989102 4.943773 19.850691 0.486538 1.319099 0.027115 -0.000551 339478.000000 1 0 0
5.155966 14.931602 12.313673 20.029060 1.238310 0.908676 0.013933 -0.007523 334948.000000 1 0 0
16.006366 11.848302 -4.477627 20.411643 0.637215 1.791961 0.040624 0.025509 266881.000000 1 0 0
15.197766 14.358902 7.092073 22.078217 0.757024 1.243774 0.033062 0.018417 333452.000000 1 0 0
12.592266 14.445002 -7.932027 20.739824 0.853816 1.963247 0.071584 -0.024414 338288.000000 1 0 0
-8.224934 15.629002 9.549873 20.077731 -1.086361 1.075099 0.024873 -0.013138 233934.000000 1 0 0
-4.537134 16.628302 -7.259527 18.702586 -1.304424 1.969427 -0.008441 -0.007876 43907.700000 1 0 0
2.724966 19.037402 -4.670627 19.790474 1.428625 1.809048 0.012510 -0.031865 61597.900000 1 0 0
7.253566 16.203302 8.968373 19.889518 1.149890 1.103012 0.028893 -0.014445 539857.000000 1 0 0
13.556566 15.365702 -1.634327 20.556174 0.847868 1.650386 0.060954 -0.020394 130372.000000 1 0 0
13.619466 15.148102 4.299873 20.819312 0.838486 1.362766 0.056734 -0.031235 247525.000000 1 0 0
2.342466 18.211002 0.564673 18.369719 1.442870 1.540052 -0.000888 -0.012788 -55463.000000 1 0 0
-6.496534 17.957202 1.865873 19.187171 -1.223667 1.473397 -0.025128 0.025412 200794.000000 1 0 0
-0.007934 20.061902 -6.057727 20.956527 -1.570401 1.864043 0.012159 0.001234 244416.000000 1 0 0
-7.169834 17.890702 -6.592527 20.370202 -1.189637 1.900366 0.025004 -0.018862 -82705.900000 1 0 0
-7.376834 18.459102 -1.044027 19.905931 -1.190608 1.623268 0.028575 -0.005774 134491.000000 1 0 0
-14.656534 -9.269398 8.388573 19.264056 0.563933 1.120256 0.033136 -0.014839 370784.000000 1 0 0
-13.172434 -13.768398 7.355073 20.424958 0.807516 1.202419 0.028205 -0.006725 51834.600000 1 0 0
-3.459334 -15.599798 12.989273 20.592278 1.352573 0.888234 0.011658 -0.003235 66066.300000 1 0 0
-1.925934 -14.386298 15.948273 21.564373 1.437715 0.738371 0.009166 -0.008769 335868.000000 1 0 0
-6.395534 -14.288298 13.086073 20.403520 1.149935 0.874522 -0.027915 0.003135 33995.500000 1 0 0
-10.029834 -10.950098 11.905673 19.032794 0.829234 0.894980 0.028173 -0.012026 53681.500000 1 0 0
-7.322234 -10.528198 13.423273 18.564544 0.963105 0.762575 0.015717 -0.005418 373555.000000 1 0 0
-15.092234 -12.048698 8.013373 20.908390 0.673726 1.177472 0.023511 0.006005 313204.000000 1 0 0
-4.434434 -12.327898 13.098773 18.526174 1.225500 0.785491 0.011251 -0.017016 246768.000000 1 0 0
3.689966 -12.814698 14.083073 19.394981 -1.290433 0.758135 0.014695 0.006512 545047.000000 1 0 0
6.604966 -13.626198 14.415573 20.907118 -1.119443 0.809990 0.025248 -0.009845 237939.000000 1 0 0
7.031966 -8.857098 16.573073 20.063985 -0.899764 0.598803 0.031628 -0.008827 434174.000000 1 0 0
-5.345734 13.472502 13.286973 19.662879 -1.193062 0.828830 0.008023 -0.006527 520706.000000 1 0 0
-13.763034 -1.546698 17.249373 22.121352 0.111911 0.676512 0.038025 -0.013677 266041.000000 1 0 0
-10.572734 10.323002 12.735873 19.507678 -0.773447 0.859436 0.018914 0.009499 376086.000000 1 0 0
-7.602134 -8.135398 17.167973 20.462562 0.819270 0.575364 0.006406 -0.006761 96768.000000 1 0 0
-5.074434 2.082502 18.054873 18.869688 -0.389432 0.294943 0.018053 -0.014856 555492.000000 1 0 0
-15.423834 -3.724898 14.677373 21.614689 0.236965 0.824334 0.048130 0.001573 135149.000000 1 0 0
-14.673034 2.787802 12.421773 19.426018 -0.187757 0.877027 0.029122 -0.004781 287406.000000 1 0 0
-13.643134 10.770902 10.528573 20.322359 -0.668290 1.026194 -0.037497 0.029950 8670.640000 1 0 0
-4.602834 11.220602 15.838273 19.948405 -1.181517 0.653498 0.024605 0.002326 177374.000000 1 0 0
-13.291334 12.914002 7.853573 20.127334 -0.771000 1.169954 0.028482 -0.033779 130657.000000 1 0 0
-4.287434 -6.643798 18.651173 20.258045 0.997712 0.400978 0.017600 -0.010505 277983.000000 1 0 0
0.259566 -2.978998 17.995173 18.241931 -1.483884 0.164667 0.006394 -0.009493 64661.200000 1 0 0
-4.982634 6.318702 21.010373 22.498631 -0.903074 0.365763 0.048192 -0.013700 136443.000000 1 0 0
2.180566 -10.637998 16.341573 19.620624 -1.368618 0.586510 0.009852 -0.013798 319310.000000 1 0 0
-15.152734 -0.115098 13.762273 20.469947 0.007596 0.833463 0.024503 -0.002297 40585.700000 1 0 0
-13.892534 -5.803698 7.725373 16.922375 0.395720 1.096718 0.021300 -0.004631 -25507.800000 1 0 0
10.092066 0.647702 16.722073 19.542186 0.064091 0.543912 0.032165 0.007288 577534.000000 1 0 0
-7.763434 12.204802 11.698473 18.603289 -1.004257 0.890737 0.016921 -0.016211 123137.000000 1 0 0
-2.129034 7.580802 20.128173 21.613530 -1.297004 0.372895 0.050451 -0.020306 553429.000000 1 0 0
1.181166 -13.686198 15.729573 20.883645 -1.484706 0.717882 -0.000980 -0.004499 454185.000000 1 0 0
-3.789934 -11.818798 18.246073 22.067323 1.260486 0.597336 0.026226 -0.005080 356668.000000 1 0 0
-2.220834 8.897202 16.677773 19.032614 -1.326184 0.502724 0.021329 -0.009729 144808.000000 1 0 0
-5.402534 -9.367198 20.243973 22.951039 1.047648 0.490600 0.069619 -0.028170 234001.000000 1 0 0
-6.733234 -2.856498 19.115173 20.466701 0.401226 0.365446 0.017159 -0.014835 162294.000000 1 0 0
-10.657434 -7.782298 16.209573 20.902041 0.630723 0.683287 0.025031 -0.016654 399002.000000 1 0 0
-0.571034 6.128702 17.956073 18.981770 -1.477891 0.330241 0.028756 -0.013816 22547.500000 1 0 0
-6.279034 -11.556498 18.464373 22.669627 1.073086 0.618932 0.035103 -0.022073 354179.000000 1 0 0
0.674066 3.471502 18.983973 19.310539 1.379011 0.184169 0.018756 -0.009809 125092.000000 1 0 0
-18.709734 -0.203498 7.604073 20.196967 0.010876 1.184786 0.066720 -0.019027 277372.000000 1 0 0
-1.743734 -8.675998 17.369973 19.494345 1.372455 0.471196 0.009590 -0.014442 301213.000000 1 0 0
5.895766 3.365002 15.027473 16.489640 0.518634 0.424298 0.012488 -0.006459 564506.000000 1 0 0
-14.611634 -7.040398 10.438273 19.287939 0.449010 0.998955 0.058463 0.006647 204495.000000 1 0 0
3.748366 8.105402 16.825973 19.048914 1.137635 0.487934 0.021800 -0.010839 198451.000000 1 0 0
6.187066 4.366502 17.331773 18.913923 0.614572 0.411930 0.036236 -0.037341 95800.500000 1 0 0
3.840366 -9.554298 17.951273 20.694956 -1.188609 0.520798 -0.008267 -0.003113 377798.000000 1 0 0
-4.568334 -0.675998 19.620673 20.156821 0.146909 0.231161 0.017536 -0.015374 788388.000000 1 0 0
-11.465434 2.113302 16.796373 20.446035 -0.182274 0.606764 0.047174 -0.013707 133465.000000 1 0 0
-16.846334 -4.414598 8.419173 19.343477 0.256288 1.120485 0.044510 -0.017598 320051.000000 1 0 0
-13.074934 -9.524498 11.781073 20.011587 0.629569 0.941331 0.022971 -0.020323 53897.400000 1 0 0
-14.939934 5.990802 12.340873 20.282713 -0.381362 0.916699 0.030596 -0.028044 176065.000000 1 0 0
0.993766 8.829702 17.070873 19.244893 1.458720 0.479916 0.018309 -0.023524 389052.000000 1 0 0
-3.855434 -10.521498 15.114773 18.815490 1.219557 0.637955 0.014962 -0.011720 542575.000000 1 0 0
-18.705534 -3.161298 6.647373 20.101700 0.167421 1.233765 0.109900 -0.018080 -182933.000000 1 0 0
-0.922734 -0.486598 21.055473 21.081298 0.485283 0.049504 0.021404 -0.007454 348254.000000 1 0 0
-1.964834 2.395402 20.382773 20.616885 -0.883828 0.150844 0.015961 -0.014667 103479.000000 1 0 0
-8.147034 2.205302 16.240373 18.302656 -0.264353 0.479288 0.010319 0.006310 598751.000000 1 0 0
2.654166 -1.868898 19.005673 19.280897 -0.613497 0.169166 0.019866 0.000208 132171.000000 1 0 0
-12.494634 4.467102 13.997673 19.287449 -0.343360 0.758687 0.009526 -0.008988 151650.000000 1 0 0
-13.205234 -5.694098 13.320173 19.601733 0.407110 0.823660 0.001092 0.000464 7202.230000 1 0 0
-17.343934 -0.721198 10.012273 20.039405 0.041558 1.047626 0.059762 -0.015022 330096.000000 1 0 0
-7.278534 7.732702 14.717473 18.148711 -0.815644 0.625044 0.002018 -0.006819 16907.000000 1 0 0
-9.684134 0.850802 13.929073 16.986035 -0.087630 0.609331 0.018620 -0.009415 279613.000000 1 0 0
7.543666 -0.842998 14.908173 16.729350 -0.111287 0.470948 0.020947 -0.008680 200671.000000 1 0 0
3.954066 6.178802 18.451273 19.856024 1.001525 0.378410 0.027467 -0.010215 90876.000000 1 0 0
1.590766 0.663102 20.091973 20.165753 0.394942 0.085568 0.019455 -0.003718 184780.000000 1 0 0
-7.208934 6.721902 17.275573 19.889648 -0.750452 0.518485 0.010957 -0.013676 754852.000000 1 0 0
7.423966 -3.441198 16.876573 18.755688 -0.434045 0.451460 0.017196 0.005523 339921.000000 1 0 0
-16.309434 2.553102 9.304773 18.949795 -0.155281 1.057533 0.037026 -0.014133 203364.000000 1 0 0
3.750766 -5.776098 19.108473 20.311703 -0.994871 0.345927 0.032174 -0.012595 173467.000000 1 0 0
-4.000134 -3.651698 20.446673 21.151889 0.739893 0.258950 0.018750 -0.014437 351982.000000 1 0 0
-9.732134 5.845602 14.470473 18.392391 -0.540897 0.665247 0.009837 -0.004647 8089.780000 1 0 0
6.516266 2.309302 19.958973 21.122386 0.340581 0.333445 0.048112 -0.015441 49225.800000 1 0 0
-7.675934 10.814102 14.888073 19.937890 -0.953518 0.727675 0.024739 -0.013860 145522.000000 1 0 0
-14.573334 4.922502 9.096573 17.870666 -0.325742 1.036747 0.022877 -0.010949 351591.000000 1 0 0
0.534466 -5.898098 20.449173 21.289478 -1.480426 0.281897 0.021752 -0.006648 150715.000000 1 0 0
-6.486234 -8.407098 13.713873 17.344187 0.913665 0.658861 0.019811 -0.005036 383407.000000 1 0 0
-12.756934 9.990902 6.463873 17.445318 -0.664397 1.191225 -0.001248 -0.023791 74314.900000 1 0 0
-19.406834 2.169302 7.792273 21.024999 -0.111318 1.191120 0.033977 -0.019127 67036.000000 1 0 0
-15.603334 8.932002 6.384073 19.078812 -0.519910 1.229599 0.012274 -0.018010 97166.300000 1 0 0
-12.931434 7.828402 14.141573 20.699998 -0.544364 0.818705 0.015555 -0.007681 330967.000000 1 0 0
-16.579034 9.098502 10.280973 21.525461 -0.501918 1.072854 0.030699 -0.024228 262124.000000 1 0 0
2.150666 11.088002 14.626073 18.479479 1.379212 0.657575 0.004236 -0.025091 343021.000000 1 0 0
1.442666 14.337802 12.346673 18.976147 1.470514 0.862367 0.010597 -0.033402 486231.000000 1 0 0
8.963166 4.920802 16.717473 19.596595 0.502077 0.548935 0.034084 -0.007088 211693.000000 1 0 0
-0.763834 13.240902 13.628173 19.016624 -1.513173 0.771816 0.004162 0.012858 191005.000000 1 0 0
3.499466 13.610602 15.024373 20.572470 1.319134 0.752014 0.013648 0.018665 186020.000000 1 0 0
-3.722134 -4.464098 -13.494327 14.692832 0.875787 2.734888 0.004950 -0.001516 127781.000000 1 0 0
5.495866 -11.582898 16.829873 21.156859 -1.127771 0.650996 -0.010375 0.001131 203434.000000 1 0 0
8.905766 -13.858298 7.238773 17.993469 -0.999619 1.156769 0.012283 -0.004955 284120.000000 1 0 0
-0.363434 15.191102 0.391973 15.200503 -1.546877 1.545007 -0.005100 -0.001603 -333801.000000 1 0 0
-14.456034 7.837102 8.567873 18.541993 -0.496784 1.090458 0.027952 -0.007436 228022.000000 1 0 0
-16.385334 -9.492398 4.455373 19.453409 0.525077 1.339717 0.038241 -0.003586 275996.000000 1 0 0
8.797466 -10.649098 11.407773 17.914686 -0.880328 0.880477 0.002806 -0.001982 201658.000000 1 0 0
-26.304364 5.605002 31.054353 41.081728 -0.209943 0.713744 0.059673 -0.032886 284275.000000 0 0 1
-25.017934 5.053902 30.803293 40.003522 -0.199329 0.691932 0.050711 -0.034657 142975.000000 0 0 1
-24.093534 5.310602 31.841823 40.281541 -0.216947 0.659201 0.049148 -0.026109 -257764.000000 0 0 1
-22.728934 4.791702 31.361623 39.027121 -0.207777 0.637502 0.046131 -0.031410 -512628.000000 0 0 1
-22.673134 3.413502 31.340523 38.832349 -0.149430 0.631619 0.057134 -0.035980 -769521.000000 0 0 1
-21.392834 2.931702 31.118743 37.876435 -0.136193 0.606609 0.052474 -0.029510 -552497.000000 0 0 1
-20.818834 1.790402 32.005923 38.223140 -0.085788 0.578390 0.042292 -0.028308 -19016.800000 0 0 1
-21.343234 0.507402 31.791023 38.294388 -0.023769 0.591376 0.044611 -0.023345 5685.060000 0 0 1
-21.259434 -0.285198 32.947980 39.212424 0.013414 0.573064 0.042051 -0.022506 -108097.000000 0 0 1
-21.882934 -1.716398 32.774852 39.446162 0.078275 0.590117 0.052764 -0.027779 -111488.000000 0 0 1
-21.230834 -2.579398 31.827593 38.345759 0.120901 0.591660 0.070649 -0.025596 94643.000000 0 0 1
-21.520534 -3.962998 32.003003 38.768942 0.182109 0.599744 0.073113 -0.028524 -503363.000000 0 0 1
-22.940034 -4.460798 31.688143 39.373624 0.192058 0.635447 0.057151 -0.016935 -31780.500000 0 0 1
-23.958734 -4.283698 32.670290 40.739647 0.176925 0.640280 0.054599 -0.009590 317393.000000 0 0 1
-23.872434 -4.800598 33.994577 41.815907 0.198447 0.621582 0.053590 -0.014404 -849275.000000 0 0 1
-25.080674 -4.312598 -33.588547 42.140589 0.170284 2.493206 0.051110 -0.007354 -25211.400000 0 0 1
-25.047844 -4.763498 -32.261687 41.120577 0.187932 2.472788 0.051273 -0.014453 450270.000000 0 0 1
-26.291594 -4.481598 -31.626547 41.371139 0.168835 2.440998 0.042844 -0.010929 170437.000000 0 0 1
-26.384264 -5.027298 -30.180477 40.401291 0.188285 2.414361 0.031296 -0.008698 -799528.000000 0 0 1
-26.539844 -6.436598 -30.132337 40.666336 0.237932 2.405303 0.030051 -0.003788 496557.000000 0 0 1
-26.495584 -6.871498 -28.789357 39.724810 0.253754 2.381424 0.013336 -0.005674 -119220.000000 0 0 1
-26.610324 -8.382398 -28.623487 39.970964 0.305166 2.369005 0.018338 -0.002041 24562.100000 0 0 1
-27.960204 -8.772698 -28.768857 41.065562 0.304029 2.346977 0.040132 -0.000161 -58256.300000 0 0 1
-27.993904 -10.116198 -28.400937 41.141334 0.346769 2.332736 0.039311 0.000993 285630.000000 0 0 1
-29.460064 -10.556998 -28.191977 42.120460 0.344094 2.304087 0.064342 0.005837 256555.000000 0 0 1
-29.643714 -11.185898 -26.969117 41.607780 0.360825 2.275982 0.074924 0.006897 600567.000000 0 0 1
-31.002434 -11.495398 -26.597427 42.434870 0.355075 2.248213 0.071783 0.006448 688681.000000 0 0 1
-31.173274 -12.270698 -25.259767 41.957108 0.375002 2.216847 0.086034 0.003974 -124008.000000 0 0 1
-30.869274 -11.480598 -24.125127 40.825702 0.356059 2.203007 0.095313 0.004241 202021.000000 0 0 1
-30.888634 -12.250598 -22.966227 40.393470 0.377577 2.175554 0.104710 -0.004588 -437572.000000 0 0 1
-30.697424 -11.473398 -21.641627 39.272519 0.357681 2.154434 0.117497 -0.016048 11814.800000 0 0 1
-30.395564 -12.205698 -20.460127 38.619764 0.381852 2.129142 0.116645 -0.020264 504287.000000 0 0 1
-29.109524 -12.815898 -20.521327 37.851506 0.414729 2.143794 0.106402 -0.032214 -216251.000000 0 0 1
-28.640424 -13.270898 -19.168327 36.929871 0.433910 2.116532 0.126114 -0.043101 -15407.200000 0 0 1
-28.206124 -12.169398 -18.376427 35.796267 0.407317 2.109894 0.128356 -0.040635 -53484.100000 0 0 1
-27.623384 -12.493298 -17.182527 34.847856 0.424742 2.086414 0.116168 -0.041105 -151842.000000 0 0 1
-27.271614 -11.371398 -16.182927 33.688822 0.395048 2.071867 0.115178 -0.040030 -165750.000000 0 0 1
-26.096644 -10.667698 -16.554927 32.694039 0.388049 2.101754 0.114742 -0.040463 277137.000000 0 0 1
-25.918964 -9.405298 -15.926727 31.842000 0.348097 2.094603 0.100038 -0.033335 153274.000000 0 0 1
-24.481434 -8.803798 -15.980127 30.532146 0.345211 2.121617 0.098699 -0.031701 30655.800000 0 0 1
-23.523734 -9.543598 -15.281227 29.630427 0.385411 2.112653 0.086357 -0.036507 36281.300000 0 0 1
-22.334334 -8.742198 -15.327527 28.463689 0.373092 2.139445 0.112611 -0.054559 264614.000000 0 0 1
-21.259834 -9.209898 -14.308227 27.231014 0.408801 2.124027 0.110197 -0.024297 -448185.000000 0 0 1
-20.563034 -10.363998 -14.645727 27.290074 0.466851 2.137280 0.100407 -0.019749 420127.000000 0 0 1
-19.641834 -10.668498 -13.596127 26.162438 0.497570 2.117274 0.107170 -0.014079 567362.000000 0 0 1
-18.540234 -11.778198 -13.783827 25.931836 0.565956 2.131215 0.096971 -0.008281 723511.000000 0 0 1
-17.557934 -11.531298 -14.777327 25.683093 0.581111 2.183855 0.087795 -0.013994 278477.000000 0 0 1
-18.013534 -11.646798 -16.095927 26.818169 0.573952 2.214532 0.078301 -0.020421 -440791.000000 0 0 1
-17.158534 -10.926598 -17.168227 26.618675 0.567042 2.271779 0.064773 -0.026180 251120.000000 0 0 1
-17.794834 -10.936898 -18.475927 27.886049 0.551094 2.295016 0.044447 -0.013133 463199.000000 0 0 1
-17.209434 -10.029698 -19.367127 27.782100 0.527678 2.342152 0.039142 -0.023767 -362836.000000 0 0 1
-17.726534 -10.312998 -20.800627 29.210512 0.526917 2.363272 0.031098 -0.010179 -222354.000000 0 0 1
-19.090034 -9.980098 -20.854827 29.982588 0.481714 2.340002 0.041208 -0.024775 -243076.000000 0 0 1
-19.628934 -10.637098 -21.968127 31.321582 0.496610 2.348119 0.034645 0.001259 -62479.300000 0 0 1
-20.996334 -10.176198 -22.501927 32.415086 0.451305 2.338077 0.051413 -0.010472 49518.700000 0 0 1
-20.866634 -9.065598 -23.336527 32.591333 0.409851 2.368902 0.047883 -0.017977 -657088.000000 0 0 1
-22.023134 -8.833498 -24.043427 33.780697 0.381455 2.362783 0.060010 -0.022755 -877253.000000 0 0 1
-21.888134 -7.916098 -25.225307 34.323041 0.347026 2.396372 0.040700 -0.029429 -66639.300000 0 0 1
-20.937434 -8.500898 -26.099157 34.522564 0.385680 2.427981 0.050773 -0.026775 213361.000000 0 0 1
-20.712034 -7.630298 -27.172477 35.007904 0.352971 2.459383 0.036582 -0.038170 -11617.700000 0 0 1
-19.484134 -8.009298 -28.035117 35.067765 0.390011 2.497185 0.059330 -0.044512 72293.700000 0 0 1
-19.725234 -9.181498 -28.798487 36.093457 0.435644 2.494578 0.056645 -0.032772 185945.000000 0 0 1
-18.575334 -9.538698 -29.519457 36.158376 0.474400 2.525934 0.020692 -0.026851 -170715.000000 0 0 1
-18.823334 -10.820398 -30.451537 37.399132 0.521714 2.522200 0.026066 -0.017815 -233193.000000 0 0 1
-19.417834 -10.603398 -31.696597 38.654348 0.499817 2.532209 0.039745 -0.021394 230999.000000 0 0 1
-19.303934 -11.767898 -32.458427 39.555970 0.547457 2.533203 0.012564 -0.010082 -153790.000000 0 0 1
-19.835134 -11.614098 -33.860617 40.925068 0.529713 2.545224 0.013011 -0.012603 403693.000000 0 0 1
-19.022234 -10.771298 33.630605 40.110894 0.515232 0.576381 0.022070 -0.018602 465194.000000 0 0 1
-19.418134 -10.811298 32.313443 39.218703 0.508021 0.602486 0.037323 -0.023536 -485338.000000 0 0 1
-19.010034 -12.105198 31.529763 38.756201 0.567025 0.620580 0.036677 -0.024160 412572.000000 0 0 1
-17.584434 -12.219298 31.470803 38.064878 0.607290 0.597459 0.039741 -0.024226 902104.000000 0 0 1
-17.067634 -13.082298 30.416383 37.250597 0.653976 0.615415 0.045211 -0.026060 114493.000000 0 0 1
-17.251534 -14.580798 30.629133 38.057310 0.701694 0.635431 0.035290 -0.016805 -725322.000000 0 0 1
-18.606734 -15.000798 30.558373 38.794956 0.678512 0.663747 0.026788 -0.020324 176990.000000 0 0 1
-18.877934 -16.287998 31.033073 39.808628 0.711882 0.676839 0.037714 -0.021654 -410554.000000 0 0 1
-18.914334 -16.382098 32.606023 41.100826 0.713779 0.654557 0.009296 -0.024297 -473407.000000 0 0 1
-17.723834 -16.071398 33.268381 40.978156 0.736542 0.623472 0.013685 -0.016011 -227535.000000 0 0 1
-18.043234 -15.926798 -33.726777 41.433280 0.723176 2.521806 0.004851 -0.014208 133490.000000 0 0 1
-16.837334 -15.399398 -32.942537 40.073034 0.740822 2.535820 -0.000307 -0.008478 -123562.000000 0 0 1
-16.593934 -14.040398 -33.361657 39.818232 0.702235 2.564127 0.008835 -0.010224 362606.000000 0 0 1
-15.522934 -13.284298 -32.754447 38.604247 0.707843 2.583879 0.019703 -0.006780 347020.000000 0 0 1
-15.750334 -12.865598 -31.285197 37.314343 0.684929 2.565179 0.012623 -0.005917 -242768.000000 0 0 1
-15.866634 -14.028698 -30.502297 37.134143 0.723996 2.534672 0.003062 -0.004972 -164311.000000 0 0 1
-16.141834 -13.700498 -29.162817 36.037930 0.703772 2.513629 0.000044 0.003639 -141595.000000 0 0 1
-16.391534 -14.937598 -28.294287 35.949700 0.739023 2.476812 0.002377 0.010890 1128840.000000 0 0 1
-15.190834 -15.657198 -27.904197 35.419677 0.800515 2.478052 0.033812 -0.012551 819383.000000 0 0 1
-14.484534 -16.325798 -28.938287 36.245798 0.845088 2.495413 0.035574 -0.015795 -136952.000000 0 0 1
-13.268334 -17.124198 -28.372627 35.697238 0.911593 2.489496 0.063825 -0.011591 205110.000000 0 0 1
-12.233234 -16.194198 -28.164097 34.714845 0.923843 2.517166 0.045623 -0.012615 -61766.600000 0 0 1
-11.018334 -16.715398 -27.609747 34.104345 0.988000 2.514210 0.063149 -0.023497 1261530.000000 0 0 1
-9.801634 -15.798898 -27.984737 33.597957 1.015512 2.555177 0.053196 -0.021939 380859.000000 0 0 1
-9.666934 -14.561498 -27.323887 32.435808 0.984733 2.572516 0.055261 -0.016568 -494746.000000 0 0 1
-8.302834 -14.245998 -27.243477 31.844820 1.043106 2.597326 0.062774 -0.025295 -132528.000000 0 0 1
-7.983234 -12.765698 -27.579757 31.421937 1.011934 2.641886 0.064404 -0.033692 -243057.000000 0 0 1
-8.265834 -12.387598 -28.960827 32.565413 0.982378 2.666636 0.088670 -0.029830 171860.000000 0 0 1
-7.959834 -11.082298 -29.242677 32.269343 0.947928 2.705020 0.073003 -0.028888 -637229.000000 0 0 1
-7.023034 -10.897098 -30.388357 33.038190 0.998307 2.738354 0.067681 -0.015441 -49349.800000 0 0 1
-5.668734 -11.329898 -30.122767 32.678468 1.106882 2.743475 0.063844 -0.017182 1613730.000000 0 0 1
-4.697134 -10.886798 -31.093887 33.277850 1.163473 2.777288 0.059134 -0.011714 530238.000000 0 0 1
-4.446934 -9.375398 -31.242597 32.920711 1.127903 2.820926 0.041803 -0.012500 -1381560.000000 0 0 1
-3.354434 -8.946598 -31.999637 33.395668 1.212079 2.851430 0.042655 -0.016579 -340356.000000 0 0 1
-3.359234 -7.542598 -32.214287 33.255609 1.151801 2.890684 0.037153 -0.016950 643648.000000 0 0 1
-1.985834 -6.920098 -32.669687 33.453547 1.291340 2.924690 0.046221 -0.024787 627598.000000 0 0 1
-1.522034 -7.282998 -33.947047 34.752851 1.364777 2.925830 0.047014 -0.028039 -212822.000000 0 0 1
-0.418334 -6.443698 34.119566 34.725221 1.505966 0.187042 0.047219 -0.018176 221334.000000 0 0 1
0.329666 -6.982098 32.868108 33.603138 -1.523615 0.209543 0.034867 -0.011727 277398.000000 0 0 1
-0.341634 -6.830298 31.575643 32.307753 1.520821 0.213291 0.024887 -0.003319 519176.000000 0 0 1
0.400066 -7.554298 30.584353 31.506033 -1.517887 0.242478 0.019461 -0.006246 110805.000000 0 0 1
0.188466 -7.221698 29.126393 30.008918 -1.544705 0.243122 0.022057 0.000096 286942.000000 0 0 1
0.881466 -6.014698 28.683423 29.320510 -1.425280 0.208842 0.027409 -0.002498 409546.000000 0 0 1
0.584466 -5.728698 27.302903 27.903549 -1.469124 0.207863 0.029029 -0.005039 752531.000000 0 0 1
-0.587234 -4.651498 27.194433 27.595624 1.445215 0.170725 0.044880 -0.003440 1769270.000000 0 0 1
-1.895434 -5.241598 27.317863 27.880686 1.223813 0.201272 0.044099 -0.000852 549539.000000 0 0 1
-2.899934 -4.278098 27.008533 27.498592 0.975087 0.189074 0.040201 -0.005422 1389450.000000 0 0 1
-4.389734 -4.763198 27.239123 27.998707 0.826178 0.233465 0.038744 -0.005822 1222530.000000 0 0 1
-4.832634 -5.771598 26.348993 27.403195 0.873714 0.278278 0.024325 -0.001210 565812.000000 0 0 1
-6.141634 -6.272498 26.722833 28.127810 0.795939 0.317399 0.018653 -0.004517 1437970.000000 0 0 1
-6.250234 -7.778798 26.667513 28.473345 0.893927 0.358061 0.028878 -0.010750 -21453.700000 0 0 1
-5.515534 -8.365098 27.694173 29.451030 0.987876 0.347149 0.029160 -0.015404 -309557.000000 0 0 1
-5.714234 -9.731898 27.761593 29.967788 1.039868 0.386110 0.026163 -0.019162 -33023.900000 0 0 1
-5.190734 -10.408898 29.022133 31.266165 1.108203 0.381175 0.030647 -0.019310 -151114.000000 0 0 1
-5.002834 -11.817398 28.783413 31.514506 1.170329 0.419387 0.047980 -0.029263 121913.000000 0 0 1
-4.636834 -12.423298 29.984073 32.785411 1.213572 0.416389 0.050657 -0.030615 -20527.000000 0 0 1
-4.483534 -13.986298 29.887943 33.301768 1.260580 0.456755 0.069111 -0.041816 891649.000000 0 0 1
-5.814034 -14.529398 29.738873 33.605162 1.190155 0.484411 0.099998 -0.039725 802891.000000 0 0 1
-5.898034 -15.921998 29.823123 34.317859 1.216036 0.517565 0.083165 -0.033934 8451.280000 0 0 1
-6.025034 -16.353498 31.301383 35.826170 1.217803 0.508036 0.123168 -0.040339 -81698.100000 0 0 1
-7.358234 -16.274598 31.744563 36.424215 1.146173 0.512495 0.109847 -0.040252 -337555.000000 0 0 1
-7.455834 -16.746398 33.066009 37.807304 1.151924 0.506200 0.111117 -0.033860 -419418.000000 0 0 1
-8.910434 -16.986098 33.453546 38.562457 1.087685 0.520610 0.110370 -0.031103 147365.000000 0 0 1
-9.555234 -18.148898 32.861193 38.736843 1.086181 0.557994 0.105366 -0.031187 348925.000000 0 0 1
-10.369434 -17.937698 31.720403 37.887598 1.046650 0.578609 0.100718 -0.038311 -32479.500000 0 0 1
-11.100334 -19.254398 31.384163 38.456663 1.047829 0.616181 0.085317 -0.036843 101676.000000 0 0 1
-12.228134 -19.652398 32.165913 39.628146 1.014198 0.623750 0.079436 -0.034710 521467.000000 0 0 1
-12.612234 -20.986598 31.942273 40.246919 1.029667 0.653999 0.055649 -0.029210 -139525.000000 0 0 1
-11.938634 -21.988198 32.945374 41.369185 1.073377 0.649519 0.055661 -0.025673 -225591.000000 0 0 1
-10.542134 -22.071398 32.701381 40.837036 1.125198 0.642204 0.055311 -0.025891 -157231.000000 0 0 1
-9.823534 -22.596798 33.776699 41.808880 1.160712 0.630245 0.054698 -0.032002 -35589.100000 0 0 1
-10.116334 -24.037298 34.180415 42.993402 1.172438 0.651763 0.053436 -0.018431 -586513.000000 0 0 1
-9.939634 -24.933698 33.155339 42.658670 1.191461 0.680555 0.062474 -0.024265 -23565.000000 0 0 1
-10.283134 -26.223508 33.590770 43.837826 1.197089 0.697811 0.073771 -0.025122 -851097.000000 0 0 1
-9.842234 -27.347168 32.629449 43.696889 1.225330 0.727676 0.055714 -0.014819 571569.000000 0 0 1
-8.421834 -27.426918 32.496617 43.349662 1.272871 0.723279 0.081516 -0.020225 304889.000000 0 0 1
-7.722634 -28.047788 33.542563 44.400687 1.302116 0.714453 0.064927 -0.018169 -574554.000000 0 0 1
-6.232034 -27.650058 33.451602 43.844881 1.349111 0.702927 0.070056 -0.026607 82325.000000 0 0 1
-5.823134 -26.493638 34.139849 43.604484 1.354443 0.671413 0.074775 -0.021357 11297.100000 0 0 1
-5.689934 -25.357778 33.282881 42.227271 1.350066 0.662943 0.085752 -0.027129 -55178.800000 0 0 1
-5.134734 -24.097798 33.946186 41.945356 1.360857 0.627845 0.100807 -0.028157 -769021.000000 0 0 1
-3.763834 -24.194198 34.117066 41.994045 1.416466 0.622495 0.111480 -0.033869 -842373.000000 0 0 1
-3.301334 -23.111398 -33.483427 40.818812 1.428912 2.532721 0.095402 -0.035265 64874.800000 0 0 1
34.688628 -15.264498 2.350473 37.971444 -0.414543 1.508856 0.101476 -0.041545 -440775.000000 0 0 1
35.379728 -15.729998 3.439573 38.871437 -0.418358 1.482195 0.098093 -0.044145 442623.000000 0 0 1
34.501478 -16.472598 4.300773 38.473304 -0.445442 1.458776 0.090052 -0.044017 671257.000000 0 0 1
35.268388 -16.831698 5.599073 39.478030 -0.445279 1.428489 0.079035 -0.028433 307880.000000 0 0 1
36.392368 -17.679698 5.485973 40.829794 -0.452230 1.436027 0.083767 -0.029907 35657.700000 0 0 1
-35.780207 -17.651698 6.740573 40.462834 0.458303 1.403429 0.070233 -0.022001 878891.000000 0 0 1
-34.376275 -18.351798 6.582273 39.520160 0.490360 1.403462 0.064035 -0.020892 651574.000000 0 0 1
-34.508412 -19.780198 6.461873 40.296929 0.520480 1.409745 0.060431 -0.020540 58631.600000 0 0 1
-33.336794 -20.418598 6.924373 39.701485 0.549556 1.395489 0.039877 -0.013516 -83159.600000 0 0 1
-33.441824 -21.951098 7.121273 40.631500 0.580859 1.394622 0.051004 -0.015959 -399156.000000 0 0 1
-33.342754 -22.685198 5.890773 40.756087 0.597425 1.425751 0.059116 -0.015139 202887.000000 0 0 1
-33.645874 -24.051098 6.099873 41.805605 0.620610 1.424363 0.063178 -0.018636 -9158.050000 0 0 1
-33.031194 -24.899898 4.971173 41.662660 0.645948 1.451192 0.053945 -0.010360 -136687.000000 0 0 1
-33.708434 -24.766398 3.757573 41.997051 0.633653 1.481204 0.055501 -0.006565 31393.000000 0 0 1
-32.982934 -25.325098 2.645073 41.668104 0.654811 1.507274 0.054351 -0.001932 358026.000000 0 0 1
-33.642214 -25.038198 1.259273 41.955878 0.639811 1.540778 0.051851 -0.003996 -623309.000000 0 0 1
-34.737860 -25.767468 0.806073 43.258884 0.638212 1.552162 0.054350 -0.003595 -431593.000000 0 0 1
-35.319430 -25.256368 -0.375327 43.422196 0.620778 1.579440 0.053431 -0.006158 388299.000000 0 0 1
-36.276034 -24.025798 -0.098527 43.510910 0.584977 1.573061 0.067755 -0.012693 404351.000000 0 0 1
35.320828 -24.456898 0.472473 42.964217 -0.605622 1.559799 0.041563 -0.001498 745811.000000 0 0 1
34.563938 -23.265398 0.641973 41.669613 -0.592451 1.555389 0.056896 -0.008875 -658800.000000 0 0 1
33.059468 -23.433898 0.609573 40.527122 -0.616635 1.555755 0.037607 -0.006298 -641235.000000 0 0 1
32.510868 -23.723098 -0.645727 40.251197 -0.630380 1.586839 0.036468 -0.013185 -602931.000000 0 0 1
31.169198 -23.352498 -0.713527 38.953398 -0.643000 1.589115 0.032850 -0.008402 -571055.000000 0 0 1
30.563488 -23.340298 -2.065127 38.511830 -0.652190 1.624445 0.033526 -0.012237 -333768.000000 0 0 1
30.949678 -22.153498 -2.727827 38.158893 -0.621245 1.642343 0.047854 -0.018613 325981.000000 0 0 1
30.602898 -22.177898 -4.123327 38.018395 -0.627111 1.679466 0.056468 -0.032746 -16092.800000 0 0 1
30.952088 -20.824698 -4.755327 37.607352 -0.592240 1.697582 0.062792 -0.031492 95952.300000 0 0 1
30.064918 -19.814798 -4.288727 36.261808 -0.582723 1.689345 0.066012 -0.025316 256870.000000 0 0 1
30.321718 -18.439398 -4.660427 35.792982 -0.546372 1.701372 0.073632 -0.032807 -116106.000000 0 0 1
29.383368 -17.571898 -3.797527 34.446700 -0.538964 1.681264 0.081715 -0.028310 -180142.000000 0 0 1
29.636248 -17.342898 -2.400227 34.421569 -0.529460 1.640583 0.076320 -0.031958 -6222.740000 0 0 1
30.117228 -18.334298 -1.521227 35.291756 -0.546839 1.613914 0.054026 -0.011659 -466711.000000 0 0 1
29.146328 -19.452298 -1.104327 35.058806 -0.588511 1.602301 0.046154 -0.011110 -30196.900000 0 0 1
28.027888 -19.103498 -0.305927 33.920491 -0.598262 1.579815 0.053117 0.001033 161996.000000 0 0 1
27.453888 -20.301098 0.170773 34.144981 -0.636722 1.565795 0.051485 -0.002321 -697025.000000 0 0 1
26.348688 -19.999298 1.174873 33.099934 -0.649252 1.535294 0.050186 0.001556 -739512.000000 0 0 1
25.624788 -21.218398 1.526273 33.304349 -0.691607 1.524952 0.041244 -0.000470 433203.000000 0 0 1
24.880188 -21.033298 2.733673 32.693980 -0.701808 1.487085 0.042230 -0.000622 185383.000000 0 0 1
23.444788 -20.507398 2.488273 31.247447 -0.718666 1.491081 0.032912 -0.000146 -542447.000000 0 0 1
23.279588 -19.219898 1.966373 30.252443 -0.690164 1.505752 0.055903 -0.012615 147099.000000 0 0 1
23.422288 -18.175298 2.904473 29.788941 -0.659924 1.473139 0.068846 -0.013715 -292999.000000 0 0 1
23.250788 -16.709398 2.380573 28.730998 -0.623140 1.487844 0.078680 -0.010127 1285410.000000 0 0 1
21.841688 -16.534598 2.060973 27.471801 -0.647979 1.495704 0.060020 -0.008156 1158930.000000 0 0 1
21.604688 -15.315198 1.374673 26.518061 -0.616663 1.518934 0.069915 -0.013190 -1376350.000000 0 0 1
20.232088 -15.022098 0.898273 25.215228 -0.638677 1.535165 0.049923 -0.004492 -1243710.000000 0 0 1
19.303888 -14.991198 1.981473 24.521467 -0.660302 1.489903 0.052455 -0.003641 349412.000000 0 1 0
18.278588 -14.016198 1.889773 23.111292 -0.654173 1.488937 0.056857 -0.005668 -183879.000000 0 1 0
18.602888 -12.566998 2.380973 22.575782 -0.594121 1.465134 0.064251 -0.006741 -517408.000000 0 1 0
19.408488 -11.940998 1.398173 22.830500 -0.551555 1.509517 0.063259 -0.012941 307721.000000 0 1 0
19.813988 -10.681798 1.858073 22.586442 -0.494439 1.488438 0.071454 -0.013127 -118464.000000 0 1 0
20.726188 -9.868598 0.913773 22.973878 -0.444379 1.531011 0.075749 -0.024326 94908.000000 0 1 0
20.066088 -9.603698 -0.305627 22.247973 -0.446384 1.584534 0.080136 -0.018455 194558.000000 0 1 0
20.973388 -8.957098 -1.115927 22.833263 -0.403622 1.619689 0.081238 -0.018086 -632004.000000 0 1 0
20.412588 -8.607598 -2.504527 22.294330 -0.399056 1.683373 0.075355 -0.015798 -99883.900000 0 1 0
21.329688 -7.871098 -3.333727 22.978762 -0.353518 1.716389 0.087948 -0.024698 1088730.000000 0 1 0
22.454688 -8.569098 -3.880727 24.345482 -0.364560 1.730882 0.088801 -0.031178 -132920.000000 0 1 0
22.127588 -9.768898 -4.815427 24.662722 -0.415747 1.767310 0.081441 -0.030689 -301716.000000 0 1 0
21.589788 -9.353198 -6.091627 24.304509 -0.408815 1.824135 0.071977 -0.033523 1993480.000000 0 1 0
20.128888 -9.225198 -6.057727 22.955881 -0.429740 1.837845 0.056696 -0.018030 1553200.000000 0 1 0
19.496888 -9.352098 -7.518627 22.893670 -0.447253 1.905421 0.058365 -0.011360 40152.000000 0 1 0
19.680488 -10.624298 -8.135827 23.798929 -0.495009 1.919688 0.066790 -0.008572 179291.000000 0 1 0
20.945888 -10.746698 -8.729627 25.108328 -0.474049 1.925890 0.072157 -0.012058 -356895.000000 0 0 1
21.048088 -12.021298 -9.609827 26.074555 -0.518925 1.948247 0.072265 -0.018366 72489.800000 0 0 1
20.048588 -12.027298 -10.639327 25.686515 -0.540351 1.997859 0.078249 -0.021995 594064.000000 0 0 1
19.679988 -13.313698 -11.028127 26.194963 -0.594786 2.005346 0.058654 -0.019825 609087.000000 0 0 1
18.481988 -13.577498 -12.035627 25.899588 -0.633594 2.054096 0.075164 -0.022405 749044.000000 0 0 1
18.135388 -14.945498 -12.102227 26.433390 -0.689268 2.046359 0.067225 -0.026965 522086.000000 0 0 1
17.109188 -15.114798 -13.083327 26.312638 -0.723586 2.091195 0.077539 -0.026381 128695.000000 0 0 1
16.915188 -16.599198 -13.492627 27.271010 -0.775970 2.088356 0.058632 -0.028795 -415193.000000 0 0 1
16.274988 -17.385598 -12.530927 26.910191 -0.818381 2.055174 0.051306 -0.027141 217577.000000 0 0 1
16.203088 -18.752898 -12.928727 27.952875 -0.858213 2.051630 0.044355 -0.023994 -694591.000000 0 0 1
15.275088 -19.539698 -12.016827 27.559613 -0.907285 2.021979 0.045355 -0.021709 -58040.200000 0 0 1
13.930588 -19.286098 -12.388127 26.823135 -0.945252 2.050870 0.039003 -0.022455 -32494.000000 0 0 1
13.036188 -20.061398 -11.614427 26.595053 -0.994552 2.022739 0.029347 -0.014069 587718.000000 0 0 1
11.574288 -20.179998 -12.127827 26.235104 -1.050051 2.051355 0.020797 -0.014056 509747.000000 0 0 1
10.722988 -20.879598 -11.232727 26.021419 -1.096357 2.017142 0.022134 -0.015904 -567125.000000 0 0 1
9.398388 -20.790498 -11.675927 25.630096 -1.146237 2.043792 0.012220 -0.004293 -389510.000000 0 0 1
8.423188 -21.280398 -10.603727 25.223887 -1.193899 2.004665 0.009996 -0.003141 -375002.000000 0 0 1
8.503288 -22.675398 -10.485727 26.389962 -1.212025 1.979410 0.031373 -0.004120 119094.000000 0 0 1
7.560188 -23.247198 -9.589827 26.259350 -1.256376 1.944640 0.031982 -0.019229 193283.000000 0 0 1
7.711988 -24.811398 -9.585427 27.694055 -1.269439 1.924227 0.042009 -0.019808 -267573.000000 0 0 1
8.946088 -25.125428 -9.025427 28.156313 -1.228736 1.897103 0.039865 -0.014888 -790147.000000 0 0 1
9.239888 -26.502358 -9.207827 29.538697 -1.235330 1.887800 0.043350 -0.012046 -805529.000000 0 0 1
10.701788 -26.766398 -8.947627 30.183247 -1.190444 1.871763 0.028403 -0.000855 -823662.000000 0 0 1
11.016588 -26.871638 -7.594427 30.018752 -1.181724 1.826565 0.031689 -0.013669 -70556.700000 0 0 1
12.352288 -27.328498 -7.460227 30.904382 -1.146286 1.814602 0.037427 -0.004032 -78755.200000 0 0 1
12.762888 -27.790808 -6.039427 31.172023 -1.140278 1.765775 0.029780 -0.010409 -113875.000000 0 0 1
12.200888 -28.955168 -5.503627 31.899112 -1.172003 1.744196 0.040000 -0.015278 -784764.000000 0 0 1
10.839288 -28.895738 -5.224827 31.301001 -1.211923 1.738503 0.047350 -0.021216 -794619.000000 0 0 1
10.255088 -30.108508 -4.521927 32.126888 -1.242516 1.712017 0.058955 -0.029107 -167216.000000 0 0 1
10.406988 -31.462958 -5.011227 33.516198 -1.251355 1.720876 0.062062 -0.022948 81295.700000 0 0 1
9.638688 -31.867458 -6.171727 33.860440 -1.277083 1.754091 0.070421 -0.020206 370567.000000 0 0 1
9.789288 -33.397898 -6.373927 35.381870 -1.285672 1.751932 0.070913 -0.021443 -203015.000000 0 0 1
9.241788 34.156336 -5.381427 35.791419 1.306550 1.721724 0.064113 -0.019595 -22333.700000 0 0 1
9.640988 32.817714 -5.656527 34.669111 1.285061 1.734687 0.071240 -0.016630 214222.000000 0 0 1
9.324888 31.835589 -4.450727 33.470393 1.285859 1.704166 0.059710 -0.013286 1095520.000000 0 0 1
7.903288 31.649409 -4.336027 32.908178 1.326087 1.702942 0.049244 -0.013170 507276.000000 0 0 1
7.483588 30.656969 -3.396427 31.739400 1.331371 1.678011 0.027157 -0.007007 897951.000000 0 0 1
6.034888 30.132789 -3.689627 30.951869 1.373135 1.690286 0.030817 -0.013838 710179.000000 0 0 1
5.809188 29.394589 -4.887827 30.359172 1.375683 1.732500 0.041815 -0.015154 -16722.200000 0 0 1
5.544888 30.209859 -6.068127 31.308202 1.389271 1.765850 0.028932 -0.016804 -311903.000000 0 0 1
5.829388 29.463089 -7.370327 30.925347 1.375465 1.811439 0.048140 -0.024131 -581922.000000 0 0 1
4.998188 28.429369 -7.732827 29.883231 1.396764 1.832543 0.048079 -0.026091 -305327.000000 0 0 1
5.358388 27.164539 -7.043327 28.569791 1.376040 1.819895 0.037415 -0.020832 74728.400000 0 0 1
4.473888 25.939249 -7.448927 27.355928 1.400001 1.846575 0.036007 -0.019537 1368680.000000 0 0 1
3.079488 25.913269 -7.005327 27.019536 1.452513 1.833062 0.023677 -0.020251 1502610.000000 0 0 1
2.174988 26.591659 -7.893427 27.823606 1.489186 1.858442 0.034929 -0.022761 124041.000000 0 0 1
1.762988 25.757069 -9.122327 27.381592 1.502456 1.910445 0.040695 -0.030487 -1558120.000000 0 0 1
2.722588 25.467399 -10.049727 27.513595 1.464296 1.944713 0.044023 -0.033138 -1066950.000000 0 0 1
2.378988 24.692099 -11.175127 27.207403 1.474747 1.994060 0.070870 -0.031422 -754015.000000 0 0 1
2.025088 23.199319 -10.938227 25.728470 1.483726 2.009914 0.077789 -0.027461 -48641.100000 0 0 1
0.781388 22.907519 -10.350327 25.149438 1.536699 1.994954 0.070217 -0.030512 -245677.000000 0 0 1
0.614288 21.539819 -10.488627 23.965651 1.542285 2.023783 0.043564 -0.020343 53131.300000 0 1 0
-0.477712 20.781019 -9.650527 22.917496 -1.547812 2.005453 0.043450 -0.018460 344193.000000 0 1 0
-1.797512 21.194719 -9.878127 23.452602 -1.486189 2.005559 0.046759 -0.019200 -295705.000000 0 1 0
-2.742412 20.356219 -9.214427 22.512266 -1.436882 1.992491 0.030451 -0.023348 -324969.000000 0 1 0
-4.126012 21.015219 -9.217927 23.315951 -1.376928 1.977244 0.049029 -0.020489 -163468.000000 0 1 0
-5.194812 20.172119 -8.816227 22.619158 -1.318749 1.971176 0.032650 -0.024420 477645.000000 0 1 0
-5.776512 19.424719 -9.877227 22.544343 -1.281745 2.024307 0.030786 -0.022326 -1063550.000000 0 1 0
-6.578712 18.152519 -9.430527 21.487862 -1.223106 2.025145 0.024855 -0.026935 -95050.000000 0 1 0
-7.745112 18.403219 -8.675327 21.769854 -1.172441 1.980679 0.048386 -0.025405 -889941.000000 0 1 0
-8.812512 18.656419 -9.511827 22.719973 -1.129506 2.002760 0.054719 -0.026933 -989645.000000 0 1 0
-10.050812 19.019319 -8.607927 23.170018 -1.084646 1.951433 0.070032 -0.031977 334739.000000 0 1 0
-10.384412 17.837219 -7.940727 22.114645 -1.043585 1.938069 0.059647 -0.032436 -560142.000000 0 1 0
-11.183312 18.160119 -6.829427 22.394139 -1.018828 1.880698 0.068355 -0.021992 -149928.000000 0 1 0
-11.750112 16.960919 -6.045927 21.500957 -0.964935 1.855834 0.047602 -0.027561 -340541.000000 0 1 0
-12.348712 17.338419 -4.853627 21.832754 -0.951918 1.794979 0.062848 -0.023236 -240502.000000 0 1 0
-12.823212 16.216119 -4.186027 21.093129 -0.901709 1.770577 0.048530 -0.023278 -368126.000000 0 1 0
-14.041612 16.537919 -3.306227 21.945404 -0.866851 1.722029 0.038015 -0.025278 2066.850000 0 1 0
-15.272312 16.669819 -4.020927 22.962888 -0.829121 1.746809 0.073004 -0.035123 285325.000000 0 1 0
-16.235412 17.046119 -3.028427 23.734577 -0.809752 1.698741 0.069910 -0.028741 145181.000000 0 1 0
-17.650612 17.099519 -3.656227 24.845636 -0.769541 1.718490 0.073000 -0.038478 -103721.000000 0 1 0
-17.735912 18.217219 -4.520427 25.823708 -0.798784 1.746752 0.058121 -0.034787 -74980.100000 0 0 1
-19.048412 18.548719 -4.916927 27.038364 -0.772108 1.753664 0.051778 -0.036632 17846.000000 0 0 1
-19.133612 19.482419 -6.193427 28.000327 -0.794431 1.793832 0.049801 -0.020510 -24278.100000 0 0 1
-18.737112 20.819419 -6.008527 28.646640 -0.837991 1.782112 0.046875 -0.031094 162201.000000 0 0 1
-18.974112 21.570619 -7.200527 29.616821 -0.849351 1.816380 0.039829 -0.015547 -127728.000000 0 0 1
-19.030612 23.145919 -6.960827 30.762816 -0.882664 1.799047 0.052789 -0.017578 1149300.000000 0 0 1
-17.749312 23.809109 -6.765127 30.457818 -0.930192 1.794779 0.074932 -0.019278 1272340.000000 0 0 1
-17.140612 23.765689 -5.485627 29.811083 -0.945961 1.755864 0.075230 -0.027463 -71141.900000 0 0 1
-15.853312 24.599749 -5.420027 29.763263 -0.998332 1.753923 0.073918 -0.031824 -434547.000000 0 0 1
-15.467312 25.042529 -4.136427 29.723324 -1.017506 1.710414 0.074310 -0.037966 929051.000000 0 0 1
-14.189312 25.720839 -4.061227 29.654539 -1.066675 1.708179 0.081335 -0.039151 852291.000000 0 0 1
-14.003312 27.029299 -4.826827 30.821648 -1.092790 1.728049 0.090780 -0.022649 -453194.000000 0 0 1
-14.707312 28.161729 -4.395027 32.073420 -1.089512 1.708259 0.099939 -0.019804 -29181.400000 0 0 1
-14.334912 29.287589 -5.214527 33.021869 -1.115621 1.729371 0.071936 -0.012889 26632.700000 0 0 1
-14.999912 30.631989 -4.701427 34.429922 -1.115438 1.707775 0.057181 -0.001760 1891940.000000 0 0 1
-16.431812 30.588589 -4.988627 35.079233 -1.077843 1.713490 0.077426 -0.002951 1437990.000000 0 0 1
-17.154412 31.772229 -4.723527 36.415108 -1.075726 1.700876 0.068113 0.005587 44862.900000 0 0 1
12.858866 -8.682298 18.918173 24.466916 -0.593887 0.686902 0.076224 -0.007432 159684.000000 0 1 0
13.620766 -9.831298 19.276673 25.568923 -0.625199 0.716803 0.075305 -0.013372 110096.000000 0 0 1
13.595566 -10.864998 18.316173 25.265981 -0.674227 0.759858 0.067148 -0.016812 -106360.000000 0 0 1
14.214366 -12.184298 18.815573 26.543005 -0.708649 0.782900 0.087202 -0.033296 440583.000000 0 0 1
15.620166 -12.296298 19.074973 27.550737 -0.666891 0.806044 0.081729 -0.027291 971765.000000 0 0 1
15.944866 -13.362198 19.934073 28.812399 -0.697501 0.806738 0.064326 -0.027556 -128621.000000 0 0 1
16.079966 -14.708798 19.224173 29.059988 -0.740893 0.847934 0.052175 -0.033922 -524367.000000 0 0 1
14.853366 -15.295198 18.828373 28.444212 -0.800052 0.847392 0.061485 -0.035476 276616.000000 0 0 1
15.043566 -16.469898 18.080773 28.713773 -0.830628 0.889642 0.060943 -0.038854 -671279.000000 0 0 1
14.772266 -16.248098 16.611073 27.534493 -0.832939 0.923186 0.059761 -0.037993 -420417.000000 0 0 1
13.368866 -16.139998 16.462673 26.650436 -0.879032 0.904948 0.077203 -0.036106 -54030.000000 0 0 1
13.000866 -16.009798 15.120873 25.572973 -0.888747 0.938147 0.101963 -0.044029 -499092.000000 0 0 1
12.756366 -17.319598 14.369473 25.868419 -0.935973 0.981852 0.070642 -0.028346 -336593.000000 0 0 1
13.894766 -18.068598 14.001473 26.750327 -0.915245 1.019945 0.069652 -0.025192 27156.900000 0 0 1
13.485066 -19.232198 13.278173 26.982111 -0.959285 1.056284 0.065036 -0.020454 -183514.000000 0 0 1
14.598366 -20.234598 12.910273 28.093174 -0.945815 1.093306 0.075172 -0.023311 -377814.000000 0 0 1
15.113766 -20.954298 14.002973 29.386932 -0.945935 1.074123 0.073887 -0.017218 -19889.000000 0 0 1
15.551766 -22.212098 13.577473 30.324619 -0.959971 1.106563 0.060560 -0.014841 90000.800000 0 0 1
16.395466 -23.028598 14.635373 31.832716 -0.952088 1.093073 0.059183 -0.013215 -702750.000000 0 0 1
17.609966 -22.459798 14.871673 32.182606 -0.905847 1.090431 0.023366 -0.008617 -1130310.000000 0 0 1
18.268766 -22.929998 16.058373 33.427593 -0.898059 1.069694 0.028545 -0.010992 518972.000000 0 0 1
19.784566 -22.617198 16.146873 34.112875 -0.852104 1.077722 0.005776 -0.008123 300773.000000 0 0 1
20.652666 -23.465998 15.474873 34.880616 -0.849079 1.111126 0.010557 -0.016565 -322587.000000 0 0 1
21.931966 -22.896798 15.264873 35.189357 -0.806917 1.122099 0.012338 -0.004368 -29359.900000 0 0 1
22.964566 -23.889298 14.761573 36.276355 -0.805132 1.151717 0.009111 -0.008440 -374613.000000 0 0 1
23.210966 -24.843498 15.836773 37.506689 -0.819358 1.134883 0.009724 -0.006100 383986.000000 0 0 1
24.162166 -25.795868 15.338273 38.529206 -0.818088 1.161357 0.013987 -0.011526 140345.000000 0 0 1
24.675166 -26.695978 16.480473 39.914221 -0.824715 1.145163 0.034793 -0.012998 -283536.000000 0 0 1
25.416266 -25.989408 17.451273 40.323478 -0.796547 1.123220 0.030483 -0.000343 172823.000000 0 0 1
25.960766 -26.874508 18.444673 41.670212 -0.802691 1.112262 0.055034 -0.007357 402803.000000 0 0 1
26.303566 -26.280708 19.832673 42.141288 -0.784963 1.080799 0.047409 -0.014662 -368534.000000 0 0 1
25.147266 -25.847358 20.456573 41.460129 -0.799126 1.054798 0.056341 -0.011749 -375654.000000 0 0 1
25.439966 -25.447328 21.787073 42.064652 -0.785543 1.026352 0.055711 -0.003320 -713701.000000 0 0 1
24.155666 -25.384768 22.573073 41.682446 -0.810203 0.998518 0.051211 -0.000310 -676904.000000 0 0 1
23.667766 -26.692148 22.765773 42.319196 -0.845381 1.002788 0.054853 -0.008982 -96494.400000 0 0 1
22.420366 -26.664568 23.436103 41.987176 -0.871650 0.978614 0.060405 -0.011450 -146078.000000 0 0 1
21.858266 -28.083918 23.307373 42.540850 -0.909416 0.990966 0.083216 -0.010509 -107489.000000 0 0 1
22.643966 -29.061128 24.022473 43.981560 -0.908878 0.992982 0.084584 -0.007868 527485.000000 0 0 1
22.446166 -30.384238 23.585243 44.534211 -0.934538 1.012669 0.102854 -0.014318 -56588.200000 0 0 1
23.559666 -31.371878 24.059493 46.022949 -0.926668 1.020697 0.077900 -0.009623 243258.000000 0 0 1
23.554666 -31.400118 25.469523 46.791947 -0.927202 0.995225 0.072055 -0.010203 544526.000000 0 0 1
24.649066 -32.152108 26.017423 48.148113 -0.916731 0.999929 0.076495 -0.010268 -342528.000000 0 0 1
24.486366 -32.627668 27.446843 49.167836 -0.926989 0.978548 0.069265 -0.021219 -24309.900000 0 0 1
23.767166 -33.801548 27.636303 49.711046 -0.957967 0.981304 0.062351 -0.014399 -520016.000000 0 0 1
22.409066 -33.802478 27.299603 48.888057 -0.985377 0.978328 0.064235 -0.015467 -745003.000000 0 0 1
21.684266 33.247234 27.804633 48.463218 0.992867 0.959748 0.087527 -0.031197 -89075.100000 0 0 1
21.211466 33.396626 29.110193 49.118879 1.004940 0.936454 0.063068 -0.019518 -84801.200000 0 0 1
20.859666 32.115079 29.542963 48.366213 0.994752 0.913703 0.075341 -0.024150 321703.000000 0 0 1
20.463466 32.141569 31.098253 49.182672 1.003851 0.886277 0.058539 -0.029039 72484.500000 0 0 1
21.658366 32.397422 31.794933 50.295084 0.981511 0.886449 0.049359 -0.022491 131611.000000 0 0 1
21.481566 32.795544 33.121276 51.322746 0.990904 0.869311 0.032807 -0.019796 -766507.000000 0 0 1
22.767266 32.703748 33.914102 52.326378 0.962648 0.865675 0.010043 -0.007332 -494325.000000 0 0 1
23.204066 31.340699 34.027277 51.754455 0.933480 0.853333 0.007374 -0.005813 12625.900000 0 0 1
24.275566 31.174579 -33.463477 51.778005 0.909180 2.273506 -0.001383 0.003437 -277409.000000 0 0 1
24.561866 29.710689 -33.217057 50.885982 0.879985 2.282037 0.010748 0.008558 -207696.000000 0 0 1
24.891766 29.091849 33.939851 51.164921 0.863045 0.845520 0.027993 0.003833 341260.000000 0 0 1
24.254066 27.830929 33.844816 50.082850 0.853964 0.828779 0.041759 -0.007461 -161805.000000 0 0 1
24.732066 27.041489 32.616375 49.058588 0.829975 0.843510 0.090006 -0.015366 73689.000000 0 0 1
25.990466 26.412709 32.760962 49.461259 0.793456 0.846837 0.081617 -0.017354 397750.000000 0 0 1
26.392266 25.761219 31.570643 48.547890 0.773299 0.862818 0.117441 -0.032112 257848.000000 0 0 1
27.758466 25.002489 31.639893 48.956508 0.733210 0.868089 0.098569 -0.021362 301501.000000 0 0 1
27.732766 23.927869 32.571214 49.015642 0.711879 0.843963 0.117626 -0.024294 -173402.000000 0 0 1
28.494166 24.265169 33.657222 50.334128 0.705413 0.838370 0.109800 -0.025421 -1635630.000000 0 0 1
28.296766 23.336169 -33.473347 49.656306 0.689618 2.310543 0.099578 -0.029507 100283.000000 0 0 1
27.135266 23.598779 -32.706447 48.610048 0.715804 2.308828 0.089189 -0.029830 1987860.000000 0 0 1
25.822866 23.484989 -33.359257 48.282556 0.738020 2.333554 0.084767 -0.022215 969436.000000 0 0 1
25.182866 22.065419 -33.373077 47.273901 0.719514 2.354562 0.085596 -0.028109 -260348.000000 0 0 1
24.846566 21.504919 -32.092667 45.932044 0.713429 2.344374 0.063943 -0.036798 388249.000000 0 0 1
24.307066 20.208119 -32.172677 45.103023 0.693577 2.365014 0.076492 -0.031480 -212904.000000 0 0 1
24.205166 19.410219 -30.854907 43.756965 0.675901 2.353421 0.072485 -0.033455 -205723.000000 0 0 1
23.249466 19.921019 -29.928687 42.814846 0.708450 2.344831 0.049246 -0.028420 161396.000000 0 0 1
23.363266 19.227419 -28.700407 41.704307 0.688595 2.329785 0.054124 -0.028020 -1348790.000000 0 0 1
22.074166 18.974619 -27.998717 40.388527 0.710032 2.336764 0.049284 -0.030399 -1252140.000000 0 0 1
22.151766 18.220319 -26.769727 39.233902 0.688324 2.321716 0.048877 -0.024855 -57804.900000 0 0 1
22.760966 18.809119 -25.633157 39.101193 0.690618 2.285720 0.032061 -0.011591 -117615.000000 0 0 1
22.926366 17.878519 -24.422227 37.969789 0.662317 2.269469 0.044849 -0.011833 622370.000000 0 0 1
23.903866 16.811719 -24.569727 38.179840 0.612941 2.269893 0.046271 -0.024639 874585.000000 0 0 1
23.815666 15.946419 -23.467627 37.043269 0.590015 2.256890 0.055526 -0.021461 -238836.000000 0 0 1
24.926566 14.870519 -23.549627 37.377145 0.537896 2.252419 0.083297 -0.028844 -579114.000000 0 0 1
26.193366 15.298319 -23.146627 38.156223 0.528611 2.222608 0.109444 -0.042330 -191581.000000 0 0 1
27.134866 14.212319 -23.081227 38.354062 0.482479 2.216541 0.113592 -0.045047 216201.000000 0 0 1
27.033666 13.232719 -21.886227 37.214660 0.455205 2.199513 0.112477 -0.033281 -115706.000000 0 0 1
25.819266 12.487919 -21.973027 36.130272 0.450496 2.224538 0.106677 -0.023924 254034.000000 0 0 1
25.403066 11.840419 -20.810727 34.908418 0.436163 2.209496 0.093912 -0.026877 693823.000000 0 0 1
23.879066 11.455519 -20.921527 33.751282 0.447301 2.239378 0.092767 -0.021039 1233760.000000 0 0 1
23.021866 12.618819 -20.852127 33.526887 0.501401 2.242030 0.097935 -0.017137 775135.000000 0 0 1
21.697166 12.287819 -21.307127 32.798646 0.515296 2.277900 0.067739 -0.014092 765272.000000 0 0 1
20.791366 13.546819 -21.240027 32.663986 0.577471 2.278721 0.048438 -0.016430 -242029.000000 0 0 1
21.236666 14.649719 -22.075727 33.955088 0.603869 2.278571 0.040147 -0.008350 69698.900000 0 0 1
20.486566 15.828219 -21.919727 33.922063 0.657818 2.273364 0.032054 -0.011701 -141621.000000 0 0 1
19.188166 15.942919 -22.761627 33.770610 0.693284 2.310416 0.034470 0.000973 229939.000000 0 0 1
18.115566 15.181419 -22.245427 32.457792 0.697505 2.325901 0.023993 -0.001818 -524949.000000 0 0 1
17.004866 15.166119 -23.089327 32.439076 0.728305 2.362819 0.037513 -0.015362 -848933.000000 0 0 1
15.946666 14.328719 -22.405127 31.009645 0.732008 2.378239 0.023755 -0.004309 -476016.000000 0 0 1
14.688366 14.361119 -23.059527 30.882546 0.774133 2.413860 0.025170 -0.007272 -550640.000000 0 0 1
13.820066 13.468919 -22.430027 29.589054 0.772531 2.431117 0.034850 -0.007851 -660061.000000 0 0 1
12.468566 13.588319 -23.140927 29.590709 0.828345 2.468718 0.016672 -0.006690 -395652.000000 0 0 1
11.884566 14.897619 -23.086227 29.935862 0.897429 2.451504 0.044601 -0.007423 229261.000000 0 0 1
11.303766 15.327919 -24.323827 30.892860 0.935368 2.477313 0.033833 -0.010012 -384894.000000 0 0 1
10.999766 16.869319 -24.324727 31.579442 0.992976 2.450062 0.035202 -0.014044 682927.000000 0 0 1
12.141666 17.757619 -24.126527 32.324022 0.971064 2.413427 0.034648 -0.009333 1237080.000000 0 0 1
13.246166 17.687919 -25.046927 33.401676 0.928011 2.418662 0.032926 -0.010748 327802.000000 0 0 1
12.969466 17.909419 -26.595497 34.587206 0.944032 2.447978 0.038871 -0.019134 -256308.000000 0 0 1
14.127366 17.927319 -27.398417 35.660125 0.903393 2.447010 0.032298 -0.027212 327131.000000 0 0 1
13.656566 17.447219 -28.661107 36.226597 0.906671 2.483503 0.035479 -0.022729 204641.000000 0 0 1
14.681166 17.639919 -29.804317 37.616495 0.876686 2.485399 0.047108 -0.027973 181188.000000 0 0 1
15.654566 16.601119 -29.873157 37.590798 0.814735 2.489299 0.032638 -0.031500 -193323.000000 0 0 1
16.173066 16.649119 -31.178697 38.869942 0.799901 2.501648 0.044600 -0.028968 -436315.000000 0 0 1
17.513266 15.892119 -31.286617 39.218954 0.736907 2.494338 0.036882 -0.026692 -565944.000000 0 0 1
18.571666 16.670719 -30.816347 39.654343 0.731511 2.460880 0.047037 -0.030888 -194642.000000 0 0 1
19.762066 15.912219 -30.682927 39.814319 0.677898 2.450658 0.055868 -0.028568 553308.000000 0 0 1
21.025366 16.581219 -31.307947 41.196971 0.667769 2.434044 0.052541 -0.029904 191964.000000 0 0 1
21.025166 16.732719 -32.710327 42.332104 0.672201 2.453892 0.057457 -0.032782 479377.000000 0 0 1
22.316666 17.108219 -33.182937 43.495196 0.654048 2.438599 0.068952 -0.032457 278813.000000 0 0 1
22.465766 17.375919 33.659553 44.040875 0.658335 0.700872 0.050405 -0.019735 -431682.000000 0 0 1
23.362366 18.398919 33.386235 44.709742 0.667100 0.727660 0.073703 -0.019113 -252876.000000 0 0 1
23.455266 18.550519 31.996463 43.795489 0.669161 0.751614 0.083370 -0.029012 -136070.000000 0 0 1
24.349166 19.768119 31.692103 44.587552 0.681931 0.780185 0.096778 -0.023828 543700.000000 0 0 1
25.763966 19.663519 31.754393 45.373752 0.651907 0.795622 0.080715 -0.018128 474345.000000 0 0 1
26.447166 20.920819 31.635553 46.237879 0.669255 0.817302 0.091576 -0.026920 -1107550.000000 0 0 1
27.903266 20.763819 31.366863 46.835974 0.639737 0.836968 0.075026 -0.025701 -1252990.000000 0 0 1
28.567666 20.162619 32.468927 47.716600 0.614598 0.822415 0.071829 -0.025612 -265806.000000 0 0 1
29.928766 19.931119 32.210973 48.275535 0.587508 0.840310 0.037087 -0.014824 71286.200000 0 0 1
30.744966 19.236119 33.340295 49.263135 0.559079 0.827417 0.041339 -0.019529 242205.000000 0 0 1
30.997966 19.971819 -33.855357 50.059292 0.572354 2.313531 0.054809 -0.021160 574239.000000 0 0 1
29.989766 19.549419 -32.928887 48.640287 0.577688 2.314459 0.072821 -0.030665 17460.600000 0 0 1
30.288066 19.925919 -31.474297 48.010838 0.581895 2.285729 0.089389 -0.028337 234049.000000 0 0 1
31.360866 19.134019 -30.968897 48.048800 0.547830 2.271205 0.095493 -0.036468 328814.000000 0 0 1
31.854066 19.603819 -29.718717 47.772308 0.551685 2.242207 0.104922 -0.042012 -526945.000000 0 0 1
33.296466 19.290519 -29.335007 48.387203 0.525102 2.222140 0.087726 -0.032633 -391206.000000 0 0 1
34.208166 20.022019 -30.167367 49.811143 0.529540 2.221360 0.066855 -0.026564 -341006.000000 0 0 1
35.436966 19.968719 -29.503457 50.249202 0.513149 2.198321 0.045585 -0.014712 -1437270.000000 0 0 1
-36.229855 20.486619 -30.226667 51.438851 -0.514637 2.198915 0.016679 -0.007955 -983573.000000 0 0 1
-35.725255 19.719219 -31.268007 51.408459 -0.504353 2.224621 -0.004717 -0.008496 -62194.500000 0 0 1
-34.728255 20.552919 -31.846257 51.406792 -0.534384 2.238896 -0.002890 -0.005144 192289.000000 0 0 1
-33.893255 19.909219 -33.017477 51.335013 -0.531110 2.269436 -0.002708 -0.006519 498229.000000 0 0 1
-32.940955 18.963619 -32.494147 50.005949 -0.522349 2.278125 0.024180 -0.010193 265866.000000 0 0 1
-32.234255 18.377419 -33.537437 50.015362 -0.518160 2.305736 0.040340 -0.012958 -277466.000000 0 0 1
-31.317655 17.237519 -33.109357 48.725323 -0.503157 2.317891 0.040556 -0.002519 68534.500000 0 0 1
-32.087455 16.069819 -32.804927 48.621056 -0.464298 2.311363 0.042886 -0.001636 365469.000000 0 0 1
-31.708455 14.979219 -33.600787 48.567644 -0.441329 2.334823 0.046330 -0.002090 -367457.000000 0 0 1
-32.544655 13.793119 -33.220107 48.507527 -0.400872 2.325186 0.040826 -0.005506 -389760.000000 0 0 1
-32.200155 12.555819 -33.828287 48.361675 -0.371796 2.345474 0.054861 -0.005582 540856.000000 0 0 1
-32.890455 11.494719 -33.093157 48.052759 -0.336216 2.330469 0.048044 -0.003445 274268.000000 0 0 1
-32.535255 10.068619 -33.635977 47.867514 -0.300120 2.349966 0.048747 0.001155 58926.800000 0 0 1
-33.041555 9.826119 33.400300 47.998719 -0.289058 0.801182 0.074911 -0.004075 189474.000000 0 0 1
-33.087555 8.466519 33.037157 47.517596 -0.250507 0.802013 0.056065 -0.015131 114234.000000 0 0 1
-31.908155 7.838319 32.218953 46.017719 -0.240883 0.795200 0.071244 -0.011999 136789.000000 0 0 1
-30.703355 7.786419 32.922175 45.685817 -0.248365 0.766098 0.070669 -0.008094 -874165.000000 0 0 1
-29.701555 7.206919 32.159883 44.366430 -0.238044 0.759951 0.068375 -0.011301 -332619.000000 0 0 1
20.568066 -4.255298 -31.286727 37.683050 -0.204010 2.550370 0.053796 -0.022254 425448.000000 0 0 1
21.809466 -4.505998 -31.990897 38.979153 -0.203741 2.533463 0.057654 -0.026321 806897.000000 0 0 1
22.837466 -3.654998 -31.501657 39.080216 -0.158698 2.508289 0.055886 -0.023468 24840.500000 0 0 1
22.796766 -2.195498 -32.029077 39.374796 -0.096011 2.520840 0.046894 -0.016006 -638926.000000 0 0 1
23.616766 -1.225698 -31.384937 39.297179 -0.051853 2.495855 0.048618 -0.017636 152117.000000 0 0 1
23.665366 -0.126898 -32.255867 40.006333 -0.005362 2.508614 0.024210 -0.009463 -429207.000000 0 0 1
24.672266 0.940402 -31.829397 40.282945 0.038097 2.481843 0.041081 -0.009373 -1223890.000000 0 0 1
25.956766 0.644902 -32.250167 41.403417 0.024840 2.463747 0.057465 -0.018530 -1037680.000000 0 0 1
26.863566 1.417902 -31.454757 41.389170 0.052733 2.434072 0.060593 -0.012612 -970118.000000 0 0 1
28.313066 1.168902 -31.763907 42.566911 0.041261 2.413149 0.048886 -0.020385 -1035940.000000 0 0 1
28.778866 1.793602 -32.921247 43.763554 0.062243 2.422271 0.048903 -0.015388 -92886.400000 0 0 1
28.634266 0.858602 -34.003467 44.462278 0.029976 2.441482 0.041367 -0.018199 -289609.000000 0 0 1
29.470866 1.219002 33.085458 44.324547 0.041339 0.728105 0.029084 -0.035286 161922.000000 0 0 1
29.011366 2.348902 32.371865 43.532911 0.080789 0.732331 0.043695 -0.017994 126114.000000 0 0 1
29.033766 3.607402 32.932336 44.051239 0.123615 0.726368 0.044425 -0.014733 -116499.000000 0 0 1
28.476166 4.564002 31.903853 43.006720 0.158923 0.734995 0.054446 -0.005177 -110218.000000 0 0 1
28.574066 5.948502 32.349877 43.570362 0.205247 0.734040 0.057900 -0.001500 365243.000000 0 0 1
27.832666 6.798702 31.445273 42.540391 0.239579 0.738935 0.051236 0.000480 201459.000000 0 0 1
28.009666 8.351702 31.727683 43.138593 0.289779 0.744418 0.043625 0.004186 -132367.000000 0 0 1
29.264866 8.766102 31.265953 43.713119 0.291038 0.773810 0.045617 0.000339 -560306.000000 0 0 1
29.520866 10.140702 31.246703 44.166410 0.330881 0.784875 0.049667 -0.009164 -335156.000000 0 0 1
30.855566 10.451402 30.560483 44.668119 0.326591 0.817334 0.038116 0.000512 -430949.000000 0 0 1
31.930066 10.280802 31.453943 45.984503 0.311497 0.817548 0.044300 -0.005918 -215034.000000 0 0 1
33.211766 10.608002 30.984923 46.643505 0.309163 0.844250 0.044564 -0.007302 -18686.000000 0 0 1
33.663966 12.061202 30.888103 47.252620 0.344034 0.858359 0.052787 -0.005005 -587040.000000 0 0 1
33.788966 12.650902 32.206993 48.363519 0.358253 0.842049 0.062354 -0.005620 8620.740000 0 0 1
34.298366 13.948202 32.266963 49.113004 0.386245 0.853971 0.058126 -0.000687 647240.000000 0 0 1
33.302166 15.153302 31.903773 48.543872 0.427024 0.853678 0.049179 -0.007137 66359.000000 0 0 1
32.841766 15.244702 30.570813 47.387310 0.434589 0.869607 0.037404 -0.004086 925360.000000 0 0 1
31.779166 16.228802 30.461853 46.917096 0.472150 0.864172 0.018402 -0.000421 1380840.000000 0 0 1
30.339866 15.803202 30.914433 46.108034 0.480206 0.835943 0.028800 0.003057 226813.000000 0 0 1
29.797166 14.782802 30.041523 44.820703 0.460534 0.836237 0.030139 0.004589 -182274.000000 0 0 1
28.599266 14.207202 30.494053 44.154840 0.461059 0.808455 0.030007 0.009133 -184993.000000 0 0 1
27.942366 13.565502 29.252583 42.667461 0.451965 0.815376 0.028190 0.012222 -108157.000000 0 0 1
28.330166 12.254602 28.878443 42.269824 0.408260 0.818670 0.032725 0.007674 -218404.000000 0 0 1
27.429066 11.772702 27.927013 40.876255 0.405427 0.818649 0.037855 -0.007349 -165576.000000 0 0 1
27.338166 10.217202 27.917393 40.387465 0.357660 0.807594 0.035550 0.008381 54107.600000 0 0 1
28.200966 9.653902 26.942253 40.179314 0.329821 0.835846 0.048621 -0.000553 -59816.600000 0 0 1
27.956066 8.257002 26.699073 39.529232 0.287191 0.829254 0.062449 -0.003361 495696.000000 0 0 1
29.203066 7.418502 26.248353 39.960346 0.248769 0.854150 0.053822 -0.010639 437917.000000 0 0 1
29.571466 7.746802 24.924523 39.442571 0.256211 0.886769 0.058551 -0.010417 -12853.000000 0 0 1
30.719966 7.071002 24.450173 39.893939 0.226236 0.911097 0.066512 -0.001057 140462.000000 0 0 1
31.197166 7.578502 23.078273 39.538634 0.238307 0.947532 0.085166 -0.005343 -389468.000000 0 0 1
31.612466 8.933202 23.108573 40.164116 0.275404 0.957760 0.098451 -0.020621 -224930.000000 0 0 1
30.663166 9.928302 22.816573 39.489200 0.313133 0.954775 0.100374 -0.027850 -295574.000000 0 0 1
30.381066 10.096002 21.298273 38.451981 0.320831 0.983764 0.093629 -0.011108 426814.000000 0 0 1
31.569966 10.326502 20.561073 39.064781 0.316129 1.016515 0.100065 -0.022581 466191.000000 0 0 1
31.132266 10.186102 19.227873 37.982703 0.316210 1.039992 0.097272 -0.025225 -852032.000000 0 0 1
31.976366 10.854702 18.154673 38.339336 0.327255 1.077507 0.112347 -0.049264 472588.000000 0 0 1
33.258666 10.325502 17.816273 39.117444 0.301026 1.097912 0.126156 -0.037318 897915.000000 0 0 1
34.242066 10.276202 18.849773 40.415756 0.291553 1.085584 0.114216 -0.026813 -1385390.000000 0 0 1
35.533366 9.650802 18.375273 41.151048 0.265201 1.107910 0.109106 -0.029044 -828776.000000 0 0 1
35.408466 8.291502 18.146273 40.642290 0.230023 1.107960 0.102932 -0.018252 1412540.000000 0 0 1
-36.262055 7.887302 17.409873 40.990850 -0.214172 1.132137 0.108079 -0.013757 981332.000000 0 0 1
-36.275055 6.402802 17.120173 40.619894 -0.174708 1.135728 0.107760 -0.017895 280585.000000 0 0 1
35.445266 6.074302 16.317873 39.490974 0.169723 1.144825 0.080263 -0.016378 500656.000000 0 0 1
35.511866 4.757502 15.806073 39.160674 0.133176 1.155325 0.087038 -0.018365 -795718.000000 0 0 1
34.237966 3.932302 15.889573 37.949702 0.114351 1.138782 0.066289 -0.016927 -665273.000000 0 0 1
34.007766 3.374902 17.180473 38.250317 0.098915 1.104973 0.075194 -0.011446 97012.700000 0 0 1
32.788866 2.670502 17.138573 37.094097 0.081266 1.090514 0.046603 -0.010571 -134131.000000 0 0 1
32.543866 1.682602 18.346873 37.397087 0.051657 1.058022 0.039210 -0.013482 116726.000000 0 0 1
33.435966 0.563302 18.444573 38.190096 0.016846 1.066756 0.050238 -0.016015 345037.000000 0 0 1
33.069866 -0.177798 19.600673 38.442607 -0.005376 1.035764 0.052886 -0.016354 266980.000000 0 0 1
33.776866 -1.563198 19.623073 39.094568 -0.046247 1.044958 0.056890 -0.013043 187534.000000 0 0 1
33.380066 -2.424698 20.671173 39.337074 -0.072512 1.017507 0.047163 -0.002297 81608.300000 0 0 1
33.910666 -3.744698 20.441973 39.772230 -0.109983 1.030983 0.049770 -0.000193 185334.000000 0 0 1
33.458666 -4.746398 21.550173 40.080177 -0.140918 1.003117 0.041982 0.014686 411301.000000 0 0 1
34.162566 -4.467698 22.775173 41.300723 -0.130040 0.986698 0.053073 0.003679 578833.000000 0 0 1
33.370966 -4.883498 23.890173 41.330501 -0.145308 0.954487 0.048380 -0.004049 242567.000000 0 0 1
34.024566 -4.692998 25.266773 42.639244 -0.137065 0.936550 0.022713 -0.001254 -376068.000000 0 0 1
33.108466 -4.703798 26.300353 42.544151 -0.141128 0.904359 0.028526 -0.006548 -487123.000000 0 0 1
33.663066 -4.154198 27.464563 43.643575 -0.122784 0.890154 0.034959 -0.005459 413977.000000 0 0 1
32.751066 -4.454098 28.711933 43.781805 -0.135169 0.855560 0.031914 -0.014144 436206.000000 0 0 1
32.796366 -5.835998 29.034973 44.189254 -0.176103 0.853885 0.038287 -0.023418 -21965.200000 0 0 1
31.922166 -6.114498 30.117283 44.310975 -0.189252 0.823470 0.054957 -0.029857 50875.200000 0 0 1
31.980866 -7.606398 30.615043 44.921197 -0.233504 0.820948 0.054156 -0.027379 -151858.000000 0 0 1
33.059666 -7.897298 31.459363 46.314149 -0.234486 0.824042 0.054591 -0.024232 -558500.000000 0 0 1
33.480766 -9.209898 31.257293 46.720470 -0.268441 0.837896 0.041756 -0.016356 451014.000000 0 0 1
34.884866 -9.525798 31.849503 48.188023 -0.266565 0.848723 0.041599 -0.013482 407659.000000 0 0 1
34.847266 -9.792798 33.235220 49.140724 -0.273955 0.828031 0.034704 -0.021034 -141435.000000 0 0 1
36.116566 -9.977998 33.809863 50.468541 -0.269548 0.836696 0.024986 -0.018654 -291900.000000 0 0 1
36.054466 -10.118298 -33.029567 49.932523 -0.273601 2.293592 0.043978 -0.023889 -244474.000000 0 0 1
35.558566 -8.979298 -32.369977 48.916816 -0.247350 2.293927 0.033142 -0.026728 373602.000000 0 0 1
-36.318355 -7.966398 -32.144837 49.150554 0.215929 2.283666 0.036898 -0.018084 150258.000000 0 0 1
36.110266 -6.771998 -31.337207 48.289045 -0.185383 2.277001 0.036292 -0.024146 -128969.000000 0 0 1
36.235166 -6.917798 -29.939347 47.510080 -0.188644 2.252566 0.031976 -0.012887 36970.000000 0 0 1
35.402366 -5.997798 -29.293297 46.340030 -0.167824 2.255106 0.049840 -0.021679 -92501.600000 0 0 1
35.848866 -5.842198 -27.831257 45.758621 -0.161547 2.224611 0.056067 -0.014790 718084.000000 0 0 1
-35.704155 -5.261398 -27.741517 45.519894 0.146308 2.226147 0.048900 -0.010734 381002.000000 0 0 1
-35.529255 -4.831198 -26.388607 44.519962 0.135149 2.205249 0.053725 -0.001978 443191.000000 0 0 1
-34.011455 -4.596298 -26.161547 43.154740 0.134326 2.222104 0.052918 0.005501 -916581.000000 0 0 1
-33.804555 -4.143098 -24.837827 42.152472 0.121952 2.200911 0.072272 0.003175 733540.000000 0 0 1
-32.469255 -4.189898 -24.311327 40.778038 0.128333 2.209539 0.081876 0.003120 985733.000000 0 0 1
-31.388155 -3.373798 -25.080887 40.319346 0.107075 2.242162 0.074317 0.000780 -577707.000000 0 0 1
-31.111655 -3.788598 -26.412987 40.987003 0.121178 2.271065 0.071181 0.001249 122537.000000 0 0 1
-29.907355 -3.214298 -26.912217 40.361480 0.107064 2.300676 0.074138 -0.003731 405099.000000 0 0 1
-29.477955 -3.933998 -28.192357 40.978472 0.132672 2.329498 0.054207 0.000815 220484.000000 0 0 1
-30.525655 -3.911898 -29.149707 42.388961 0.127456 2.329074 0.050557 -0.000269 502688.000000 0 0 1
-30.032155 -4.670398 -30.290017 42.909534 0.154277 2.354495 0.042701 -0.000982 -289435.000000 0 0 1
-31.071855 -4.707998 -31.516697 44.507613 0.150376 2.357627 0.026798 -0.000489 561891.000000 0 0 1
-32.226155 -5.542998 -31.392177 45.329005 0.170336 2.335801 0.023146 -0.002791 880658.000000 0 0 1
-33.093055 -5.102698 -30.307107 45.163133 0.152988 2.306432 0.039514 -0.011081 -774163.000000 0 0 1
-34.118555 -4.005298 -30.693787 46.067633 0.116859 2.300001 0.065155 -0.017873 -776036.000000 0 0 1
-33.548155 -2.905898 -31.342807 46.003201 0.086403 2.320358 0.067404 -0.012422 -177884.000000 0 0 1
-33.262255 -1.868898 -30.378997 45.086072 0.056128 2.310136 0.053569 -0.007803 -130002.000000 0 0 1
-33.170255 -0.468798 -30.996327 45.401078 0.014132 2.322278 0.053211 -0.004893 -260934.000000 0 0 1
-34.395655 -0.000598 -31.480947 46.627365 0.000017 2.311978 0.069928 -0.007160 -424521.000000 0 0 1
-34.212855 1.240002 -32.115017 46.940722 -0.036228 2.324249 0.085098 0.000687 -339150.000000 0 0 1
-35.449955 2.024602 -32.540927 48.163371 -0.057050 2.312624 0.057431 -0.005096 -405474.000000 0 0 1
-36.029955 1.541902 -33.730277 49.378808 -0.042769 2.322785 0.057814 -0.010795 227958.000000 0 0 1
35.575366 2.188802 -33.931087 49.210936 0.061448 2.331599 0.032288 -0.009313 -37334.400000 0 0 1
34.873066 1.834802 33.094530 48.111798 0.052565 0.812250 0.029972 -0.008620 -64859.600000 0 0 1
35.514466 2.304202 31.903763 47.795782 0.064790 0.839948 0.028165 -0.013792 -112335.000000 0 0 1
36.224966 1.256102 31.364783 47.933032 0.034661 0.857479 0.022444 -0.014793 -575482.000000 0 0 1
-36.296155 1.424002 29.841953 47.010433 -0.039213 0.883054 0.042051 -0.022023 -397053.000000 0 0 1
-35.508155 2.548302 29.644033 46.325928 -0.071644 0.876426 0.052910 -0.025179 -120847.000000 0 0 1
-35.193055 2.717402 28.276893 45.227404 -0.077061 0.895388 0.061995 -0.027269 180218.000000 0 0 1
-34.785655 4.190402 27.975293 44.835457 -0.119886 0.897003 0.073865 -0.025297 119225.000000 0 0 1
-34.112255 4.277802 26.710033 43.535863 -0.124752 0.910289 0.079657 -0.019112 359915.000000 0 0 1
-33.391455 5.488102 26.707083 43.108894 -0.162900 0.902658 0.092451 -0.013690 -271827.000000 0 0 1
-32.566755 5.716202 25.415003 41.703607 -0.173753 0.915468 0.090008 -0.004248 567570.000000 0 0 1
-31.438255 4.828002 25.279913 40.629391 -0.152380 0.899237 0.082666 -0.013792 952402.000000 0 0 1
-30.607355 4.977302 24.135783 39.295289 -0.161207 0.909405 0.073467 -0.010575 209503.000000 0 0 1
-31.206255 4.509602 22.782473 38.899973 -0.143516 0.945092 0.100211 -0.015482 -105645.000000 0 0 1
-31.354355 3.097102 22.587773 38.767191 -0.098458 0.948809 0.102014 -0.017085 -214521.000000 0 0 1
-31.991555 2.902002 21.376473 38.585422 -0.090464 0.983630 0.129917 -0.019154 -148077.000000 0 0 1
-31.636955 1.472902 20.979573 37.989588 -0.046523 0.985741 0.128355 -0.017373 1018490.000000 0 0 1
-30.336055 1.254002 20.389673 36.573043 -0.041313 0.979418 0.106864 -0.008617 854195.000000 0 0 1
-30.235955 1.558502 19.020973 35.755269 -0.051499 1.009863 0.124636 -0.013248 368376.000000 0 0 1
-28.841055 1.232402 18.387573 34.226132 -0.042705 1.003638 0.124869 -0.013272 357061.000000 0 0 1
-28.691555 -0.152698 18.226873 33.991874 0.005322 1.004853 0.114746 -0.011155 511500.000000 0 0 1
-27.532055 -0.555498 17.480873 32.617534 0.020174 1.005182 0.100177 -0.015892 104918.000000 0 0 1
-27.604355 -0.343498 15.924273 31.870062 0.012443 1.047587 0.116638 -0.013025 -336275.000000 0 0 1
-27.235255 0.919702 15.540973 31.370795 -0.033756 1.052505 0.117843 -0.012296 151039.000000 0 0 1
-27.534755 1.188802 14.193973 31.000723 -0.043148 1.095210 0.114146 -0.014143 -188624.000000 0 0 1
-26.930855 2.559802 13.933773 30.429813 -0.094766 1.095166 0.118166 -0.017061 390112.000000 0 0 1
-25.520155 2.469002 13.754673 29.095795 -0.096447 1.078402 0.100178 -0.029451 306718.000000 0 0 1
-25.110155 3.709802 13.206673 28.612912 -0.146680 1.091040 0.105737 -0.031587 260693.000000 0 0 1
-23.576855 3.860802 13.003473 27.200444 -0.162313 1.072351 0.084611 -0.036091 117898.000000 0 0 1
-22.834955 4.062802 14.204273 27.197479 -0.176078 1.021292 0.057400 -0.026518 898775.000000 0 0 1
-21.544655 4.537402 13.769773 25.968573 -0.207571 1.011904 0.062366 -0.026930 549140.000000 0 0 1
-20.690355 5.150902 14.915573 26.021085 -0.243992 0.960377 0.034231 -0.022400 -279360.000000 0 0 1
-21.004555 6.498002 15.216273 26.738555 -0.300023 0.965414 0.026998 -0.018578 541014.000000 0 0 1
-20.172655 7.009602 16.269373 26.847030 -0.334428 0.919771 0.015601 -0.017001 -177673.000000 0 0 1
-20.404955 8.430502 16.791073 27.737622 -0.391799 0.920586 0.009597 -0.015617 -485095.000000 0 0 1
-19.897855 9.420102 15.848073 27.126082 -0.442161 0.946856 0.018338 -0.015831 641207.000000 0 0 1
-20.157655 10.780602 16.170373 28.000596 -0.491110 0.955132 0.025242 -0.009950 -238553.000000 0 0 1
-19.543055 11.353202 17.496373 28.582324 -0.526282 0.912033 0.024658 -0.006231 -245430.000000 0 0 1
-20.191855 10.983802 18.689673 29.625306 -0.498203 0.888124 0.029453 -0.011231 266948.000000 0 0 1
-19.660555 11.693202 19.792773 30.249334 -0.536554 0.857512 0.037090 -0.004654 -296770.000000 0 0 1
-12.304134 -33.317815 -19.803827 40.665220 1.217036 2.079444 0.131453 -0.046389 -645119.000000 0 0 1
-13.354634 -33.938515 -19.190127 41.212013 1.195910 2.055159 0.161059 -0.040635 -826592.000000 0 0 1
-14.520834 -33.162215 -19.142727 40.951571 1.158073 2.057198 0.135740 -0.063069 46743.200000 0 0 1
-15.830034 -33.859915 -18.716827 41.801955 1.133472 2.035044 0.123424 -0.050234 -1228080.000000 0 0 1
-16.409934 33.658702 -19.686427 42.305432 -1.117167 2.054816 0.124491 -0.055642 293475.000000 0 0 1
-17.370334 32.775802 -19.131527 41.737238 -1.083458 2.046968 0.123272 -0.045827 -513545.000000 0 0 1
-18.686834 33.261802 -18.588027 42.438897 -1.058931 2.024164 0.100025 -0.039784 -1839280.000000 0 0 1
-18.592134 34.158702 -17.471327 42.634864 -1.072350 1.993020 0.097721 -0.041376 426355.000000 0 0 1
-19.872434 -33.944915 -16.883427 42.804451 1.041158 1.976246 0.056664 -0.035134 449026.000000 0 0 1
-20.092534 33.861802 -15.471127 42.304696 -1.035267 1.945189 0.049756 -0.033697 -541916.000000 0 0 1
-19.965734 32.387702 -15.266127 40.995712 -1.018361 1.952372 0.055506 -0.039287 183735.000000 0 0 1
-20.503834 31.983102 -14.051327 40.506367 -1.000715 1.925051 0.037234 -0.027892 -473177.000000 0 0 1
-20.624734 30.489402 -13.908827 39.350206 -0.976047 1.932066 0.032685 -0.030515 72538.800000 0 0 1
-19.427634 29.734402 -13.762927 38.091807 -0.992054 1.940468 0.058173 -0.042970 92605.400000 0 0 1
-19.583234 28.372702 -13.834627 37.147142 -0.966668 1.952420 0.057220 -0.044224 16313.100000 0 0 1
-18.327734 27.610602 -13.333227 35.721507 -0.984786 1.953311 0.057204 -0.040240 147225.000000 0 0 1
-17.109634 28.021202 -13.895727 35.651347 -1.022622 1.971175 0.094140 -0.049040 -185043.000000 0 0 1
-16.030734 27.192102 -13.475927 34.321938 -1.038106 1.974289 0.109732 -0.054638 -25880.800000 0 0 1
-14.690934 27.568702 -14.077227 34.264051 -1.081189 1.994177 0.103209 -0.055547 -628783.000000 0 0 1
-14.707234 27.275602 -15.472627 34.636157 -1.076276 2.033891 0.082123 -0.050047 389117.000000 0 0 1
-13.567534 27.893302 -16.095227 34.945251 -1.118081 2.049449 0.124379 -0.048871 363067.000000 0 0 1
-13.703034 27.953102 -17.624427 35.773866 -1.115007 2.085943 0.123680 -0.061764 79411.100000 0 0 1
-13.219334 26.806502 -18.354227 35.074449 -1.112653 2.121508 0.093604 -0.049616 175475.000000 0 0 1
-13.575934 26.975402 -19.687627 36.049701 -1.104535 2.148527 0.072735 -0.050209 -18474.100000 0 0 1
-12.857034 25.963702 -20.626727 35.565137 -1.111002 2.189489 0.048261 -0.024859 -656856.000000 0 0 1
-11.535234 26.301302 -20.886927 35.511742 -1.157479 2.199590 0.029714 -0.025563 -948986.000000 0 0 1
-10.880034 25.151102 -21.387627 34.761813 -1.162517 2.233515 0.036498 -0.025776 305793.000000 0 0 1
-9.622434 25.547802 -22.214927 35.196369 -1.210585 2.253858 0.051470 -0.029194 145721.000000 0 0 1
-9.892334 26.261902 -23.401127 36.539821 -1.210554 2.265852 0.043303 -0.020446 236513.000000 0 0 1
-8.756234 26.281102 -24.267827 36.827916 -1.249187 2.290221 0.030870 -0.020488 15270.100000 0 0 1
-9.096334 26.970202 -25.606227 38.285950 -1.245504 2.303410 0.022592 -0.011351 205568.000000 0 0 1
-10.042734 26.183702 -26.345967 38.477951 -1.204552 2.324992 0.014845 -0.003695 125171.000000 0 0 1
-10.407934 26.888902 -27.554867 39.882438 -1.201484 2.333533 0.015377 -0.000756 -4311.430000 0 0 1
-11.732734 26.395802 -28.173447 40.350199 -1.152532 2.343709 0.012957 0.001852 -84061.400000 0 0 1
-12.079634 26.991202 -29.350727 41.664226 -1.149990 2.352457 0.020120 0.004646 581451.000000 0 0 1
-13.219234 26.309702 -29.932297 41.986795 -1.105193 2.364418 0.016693 0.005969 601710.000000 0 0 1
-13.541834 26.568402 -31.427957 43.324101 -1.099421 2.382434 0.013484 0.006087 -424000.000000 0 0 1
-12.789034 25.974902 -32.426637 43.471160 -1.113278 2.412733 0.019408 0.000368 -283173.000000 0 0 1
-13.014534 24.592402 -32.569327 42.836029 -1.084055 2.434610 0.008999 0.000333 -36430.100000 0 0 1
-12.327634 23.979602 -33.782597 43.223324 -1.095942 2.467995 0.022709 0.002351 -231554.000000 0 0 1
-12.764634 24.447602 33.379164 43.298842 -1.089608 0.690540 0.030531 -0.003117 -99491.500000 0 0 1
-11.948034 24.003302 32.311693 41.987611 -1.108937 0.692655 0.033032 -0.009343 -580892.000000 0 0 1
-12.599834 24.064202 30.917503 41.154994 -1.088453 0.720849 0.042028 -0.005120 427898.000000 0 0 1
-13.838534 23.318302 30.884373 41.098573 -1.035198 0.720508 0.046698 -0.007641 632680.000000 0 0 1
-14.431134 23.278202 29.641963 40.358125 -1.015843 0.745906 0.062834 -0.007159 -498928.000000 0 0 1
-15.607134 22.321502 29.580343 40.209809 -0.960609 0.744171 0.032299 -0.003924 -367968.000000 0 0 1
-15.203534 20.970102 29.629983 39.355158 -0.943482 0.718359 0.032181 -0.007073 974283.000000 0 0 1
-16.320234 20.047402 29.854583 39.491068 -0.887527 0.713642 0.017157 -0.007983 1286830.000000 0 0 1
-15.738334 18.590502 30.079843 38.705282 -0.868292 0.680671 0.011841 -0.019491 -5484.330000 0 0 1
-15.255734 18.012402 28.897923 37.313187 -0.868071 0.684920 0.036329 -0.022108 -48150.200000 0 0 1
-14.669134 16.761102 29.130373 36.670105 -0.851859 0.652793 0.027636 -0.028906 1146.470000 0 0 1
-14.131634 16.225302 27.765263 35.126532 -0.854257 0.659276 0.046870 -0.017994 -315263.000000 0 0 1
-13.121134 16.963402 27.153723 34.601240 -0.912426 0.668485 0.027528 -0.018049 -522525.000000 0 0 1
-12.681134 16.300202 26.038803 33.234424 -0.909631 0.670536 0.012716 -0.010556 84075.900000 0 0 1
-11.505834 16.880702 25.201733 32.441788 -0.972529 0.681181 0.025127 -0.008234 320223.000000 0 0 1
-11.828234 17.938502 24.257593 32.405675 -0.987857 0.724909 0.031875 -0.009366 -198440.000000 0 0 1
-12.450034 19.128402 24.706933 33.635273 -0.993812 0.745787 0.030876 -0.013716 84721.100000 0 0 1
-11.620234 20.121602 25.584583 34.561243 -1.047085 0.737327 0.012159 -0.016278 -19684.800000 0 0 1
-11.426634 19.759502 26.962953 35.327138 -1.046496 0.702489 0.026526 -0.017651 216156.000000 0 0 1
-12.468234 20.219402 27.817293 36.579814 -1.018226 0.706783 0.061118 -0.024556 23101.900000 0 0 1
-12.204434 19.844202 29.322683 37.450771 -1.019411 0.671377 0.053164 -0.026503 -35526.200000 0 0 1
-11.094034 20.535802 29.868523 37.906798 -1.075486 0.663330 0.052013 -0.032890 114135.000000 0 0 1
-11.028734 20.227202 31.284333 38.852054 -1.071613 0.634755 0.043295 -0.029722 487115.000000 0 0 1
-9.878334 21.003902 32.037473 39.561914 -1.131182 0.626975 0.027682 -0.025542 222777.000000 0 0 1
-8.626434 20.382202 31.992213 38.901814 -1.170423 0.605208 0.035917 -0.031720 39550.300000 0 0 1
-7.663234 21.219902 32.671834 39.704635 -1.224237 0.604349 0.049554 -0.029001 772838.000000 0 0 1
-6.366434 20.466202 33.065932 39.404983 -1.269214 0.575113 0.040498 -0.022067 -33005.200000 0 0 1
-6.668634 19.555802 34.132085 39.898612 -1.242157 0.544338 0.034104 -0.026561 799039.000000 0 0 1
-5.494134 19.107802 -33.541277 38.991164 -1.290816 2.606512 0.021288 -0.023198 734151.000000 0 0 1
-4.610834 18.082102 34.112339 38.882822 -1.321123 0.500566 0.010776 -0.019272 -249422.000000 0 0 1
-5.199934 16.800002 34.106823 38.373881 -1.270629 0.476070 0.008642 -0.016320 181541.000000 0 0 1
-4.761434 16.113302 32.916747 36.957028 -1.283476 0.471966 0.015770 -0.007602 230466.000000 0 0 1
-5.552934 14.742902 32.700922 36.297913 -1.210579 0.448949 0.024478 -0.005945 -141269.000000 0 0 1
-4.971434 13.575002 33.192193 36.203832 -1.219746 0.410768 0.028073 -0.000852 -117943.000000 0 0 1
-5.737334 12.381702 32.969349 35.681949 -1.136878 0.392441 0.043628 -0.010297 34215.400000 0 0 1
-4.906034 11.132102 33.278085 35.431960 -1.155694 0.350471 0.069794 -0.012599 101982.000000 0 0 1
-4.836634 10.920502 -33.692497 35.746815 -1.153867 2.800924 0.063144 -0.012999 -259173.000000 0 0 1
-3.983834 9.819002 -33.482567 35.119312 -1.185363 2.835090 0.079319 -0.014776 87020.600000 0 0 1
-3.918534 9.480302 -31.995117 33.599383 -1.178848 2.831329 0.065214 -0.009024 241977.000000 0 0 1
-5.098134 8.955902 -31.410257 33.057577 -1.053295 2.824571 0.079170 -0.013069 67734.900000 0 0 1
-4.888434 8.696502 -30.046167 31.659092 -1.058699 2.821014 0.081715 -0.001788 33522.200000 0 0 1
-6.173434 8.152802 -29.420337 31.147002 -0.922693 2.807061 0.073476 -0.004741 16198.800000 0 0 1
-5.811334 7.172402 -28.468417 29.927675 -0.889845 2.828029 0.061320 0.002532 590978.000000 0 0 1
-6.947034 6.364002 -28.161607 29.695756 -0.741625 2.818751 0.074516 -0.015699 223499.000000 0 0 1
-6.706734 5.733802 -26.774317 28.190793 -0.707350 2.823245 0.061824 -0.017755 13844.800000 0 0 1
-6.990134 6.477702 -25.644317 27.357880 -0.747368 2.785784 0.039202 -0.006807 422645.000000 0 0 1
-5.896734 7.310002 -25.251057 26.941112 -0.892004 2.785507 0.038203 -0.004951 505370.000000 0 0 1
-6.400334 8.149402 -24.057727 26.194489 -0.905037 2.734882 0.014966 0.001413 396963.000000 0 0 1
-6.440034 7.400302 -22.820927 24.840153 -0.854669 2.735601 0.005997 -0.000277 -477326.000000 0 1 0
-7.697334 7.575702 -22.233227 24.717536 -0.777434 2.689402 0.013566 0.000611 -295792.000000 0 1 0
-7.704634 7.812802 -20.715427 23.442060 -0.792369 2.654476 0.010071 0.004660 -181627.000000 0 1 0
-7.210334 9.109402 -20.373427 23.453073 -0.901243 2.623346 -0.002648 0.009820 27454.100000 0 1 0
-7.066134 9.312102 -18.976727 22.288151 -0.921679 2.589496 0.001908 0.008922 252420.000000 0 1 0
-8.348334 9.583802 -18.125327 22.137557 -0.854186 2.530043 0.000402 0.013080 -29597.700000 0 1 0
-8.048934 9.584402 -16.698227 20.868083 -0.872257 2.498392 0.000248 0.009574 -46475.500000 0 1 0
-9.121934 9.928002 -15.862427 20.818057 -0.827686 2.437123 0.002682 -0.000280 66642.600000 0 1 0
-9.691634 11.393302 -15.988227 21.894257 -0.865929 2.389481 0.002030 0.001668 -304228.000000 0 1 0
-8.665634 12.313902 -15.646327 21.714809 -0.957573 2.375373 -0.016891 0.001388 75974.300000 0 1 0
-9.108334 13.632202 -15.823327 22.785442 -0.981769 2.338450 0.001934 -0.008770 -511182.000000 0 1 0
-7.985334 14.649202 -15.673327 22.891436 -1.071720 2.324962 0.013590 -0.006770 -333895.000000 0 1 0
-7.482634 14.829202 -14.329827 21.937160 -1.103485 2.282628 0.011688 -0.008630 593634.000000 0 1 0
-8.353934 15.429702 -13.364427 22.056106 -1.074565 2.221729 0.008291 -0.020681 -533659.000000 0 1 0
-7.455334 16.159802 -12.336927 21.654583 -1.138543 2.176955 0.015523 -0.027938 414567.000000 0 1 0
-6.959034 17.443702 -12.636427 22.636037 -1.191202 2.163064 0.025435 -0.026354 -439131.000000 0 1 0
-6.107134 17.457902 -13.714427 23.025224 -1.234281 2.208841 0.037997 -0.018304 -1231600.000000 0 1 0
-6.004434 18.918902 -14.132227 24.365917 -1.263474 2.189525 0.062511 -0.012522 430324.000000 0 1 0
-5.198334 19.718802 -13.234027 24.310354 -1.313037 2.146444 0.053075 -0.022027 339134.000000 0 1 0
-5.414834 21.063702 -13.518127 25.607415 -1.319175 2.126921 0.065915 -0.020843 -234476.000000 0 0 1
-4.825234 22.053702 -12.535227 25.822094 -1.355396 2.077669 0.077121 -0.017907 -663142.000000 0 0 1
-4.955034 23.497702 -12.721127 27.175751 -1.362968 2.057942 0.078407 -0.025615 616629.000000 0 0 1
-6.249634 24.108602 -12.799127 28.001790 -1.317151 2.045509 0.071191 -0.029054 914990.000000 0 0 1
-7.187934 24.168502 -11.544127 27.731746 -1.281718 2.000145 0.038092 -0.023445 183769.000000 0 0 1
-7.601334 22.901402 -11.112727 26.565903 -1.250322 2.002378 0.043546 -0.020082 -131226.000000 0 0 1
-8.043834 22.815902 -9.738227 26.078760 -1.231848 1.953485 0.061984 -0.024721 -260718.000000 0 0 1
-7.133734 23.223002 -8.578127 25.763972 -1.272762 1.910227 0.063651 -0.027076 -328670.000000 0 0 1
-6.879034 24.634502 -8.555427 26.969893 -1.298489 1.893594 0.070797 -0.029508 -101045.000000 0 0 1
-6.239734 25.126402 -7.379127 26.920659 -1.327387 1.848457 0.057154 -0.024344 158285.000000 0 0 1
-6.341234 26.648602 -7.270627 28.341158 -1.337184 1.830237 0.043409 -0.032105 -191112.000000 0 0 1
-5.543134 27.448102 -8.133827 29.159626 -1.371527 1.853488 0.040693 -0.032042 -88525.100000 0 0 1
-5.909134 27.444302 -9.462427 29.625075 -1.358720 1.895899 0.047214 -0.034187 -282853.000000 0 0 1
-5.431134 28.682602 -10.239527 30.936011 -1.383659 1.908149 0.044615 -0.027001 -146941.000000 0 0 1
-6.303234 29.776102 -10.204827 32.101176 -1.362188 1.894306 0.051301 -0.019876 235017.000000 0 0 1
-7.295334 29.734202 -11.255027 32.619324 -1.330197 1.923080 0.063974 -0.024475 349559.000000 0 0 1
-8.458734 30.737202 -11.080827 33.750711 -1.302249 1.905314 0.068584 -0.019454 -259771.000000 0 0 1
-9.409534 30.256102 -10.177327 33.279859 -1.269282 1.881586 0.071224 -0.014642 -479179.000000 0 0 1
-10.542734 31.093302 -10.138327 34.361728 -1.243894 1.870301 0.066530 -0.017219 323929.000000 0 0 1
-11.637834 30.509202 -9.202227 33.925382 -1.206380 1.845487 0.083909 -0.016936 259037.000000 0 0 1
-12.503634 29.527002 -9.723627 33.507217 -1.170227 1.865227 0.098588 -0.024035 -373618.000000 0 0 1
-13.641634 29.341702 -8.941827 33.570611 -1.135602 1.840410 0.098853 -0.022033 91497.700000 0 0 1
-14.561934 28.215302 -9.494327 33.140540 -1.094351 1.861354 0.102762 -0.021534 278924.000000 0 0 1
-14.220734 26.920702 -9.008627 31.750729 -1.084809 1.858478 0.112498 -0.030117 357521.000000 0 0 1
-15.155234 26.041502 -9.613627 31.626931 -1.043744 1.879653 0.116625 -0.036633 74330.900000 0 0 1
-15.092034 24.674302 -8.917227 30.267269 -1.021855 1.869850 0.109310 -0.032757 -309059.000000 0 0 1
-14.039034 23.852402 -9.300627 29.198171 -1.038817 1.894979 0.107811 -0.031584 -116935.000000 0 0 1
-14.228234 22.580802 -8.668627 28.062080 -1.008536 1.884842 0.092494 -0.027179 300095.000000 0 0 1
-13.289234 21.506902 -9.287027 26.933240 -1.017315 1.922840 0.093275 -0.031353 143877.000000 0 0 1
-13.726834 21.100302 -10.601827 27.313869 -0.994033 1.969418 0.097821 -0.024312 246060.000000 0 0 1
-12.821734 20.194102 -11.187127 26.407393 -1.005092 2.008252 0.087097 -0.022206 -84604.800000 0 0 1
-13.099134 19.897202 -12.686927 26.989703 -0.988580 2.060161 0.079142 -0.012081 -181042.000000 0 0 1
-14.317034 19.209502 -12.857627 27.190090 -0.930304 2.063352 0.082805 -0.013228 -269377.000000 0 0 1
-14.526934 19.025402 -14.246427 27.856030 -0.918677 2.107645 0.074934 -0.008162 -468981.000000 0 0 1
-15.968434 18.735802 -14.648427 28.646074 -0.864971 2.107562 0.069165 0.002998 -309872.000000 0 0 1
-16.820634 19.837902 -14.349927 29.705159 -0.867520 2.074964 0.047520 0.001589 1228990.000000 0 0 1
-18.169534 19.544202 -14.819627 30.524238 -0.821832 2.077735 0.034478 0.004232 1057010.000000 0 0 1
-18.835034 20.704602 -15.603227 32.045276 -0.832646 2.079347 0.029757 0.002969 -140506.000000 0 0 1
-19.236434 21.758302 -14.729527 32.564137 -0.846838 2.040165 0.040083 -0.012765 398797.000000 0 0 1
-19.355234 22.967502 -15.485227 33.792358 -0.870542 2.046818 0.048037 -0.017741 -36889.300000 0 0 1
-19.895134 24.173802 -14.579327 34.536152 -0.882185 2.006609 0.034037 -0.004770 -193921.000000 0 0 1
-21.265634 23.975502 -14.356627 35.116443 -0.845225 1.991967 0.034531 -0.003177 -120521.000000 0 0 1
-21.759234 24.848802 -13.375127 35.634551 -0.851590 1.955562 0.031402 -0.016625 -190621.000000 0 0 1
-25.753204 -0.613398 3.671073 26.020771 0.023814 1.429242 0.134092 -0.040228 58095.100000 0 0 1
-26.317454 0.161802 4.743773 26.742063 -0.006148 1.392463 0.143852 -0.037908 -1121410.000000 0 0 1
-27.550214 -0.312098 5.052373 28.011393 0.011328 1.389435 0.155739 -0.038623 -1536090.000000 0 0 1
-28.186444 0.379602 6.231273 28.869507 -0.013467 1.353242 0.151736 -0.040255 -174709.000000 0 0 1
-28.848944 1.596402 5.862473 29.481836 -0.055280 1.370612 0.173620 -0.042720 175913.000000 0 0 1
-29.366824 2.430802 6.889273 30.261877 -0.082585 1.341127 0.178165 -0.024680 -262373.000000 0 0 1
-28.410804 3.014402 7.943973 29.654124 -0.105705 1.299596 0.193017 -0.027495 -115667.000000 0 0 1
-27.780054 1.970002 8.721273 29.183435 -0.070796 1.267316 0.170151 -0.038027 1008460.000000 0 0 1
-26.821814 2.541402 9.668973 28.624420 -0.094469 1.226231 0.155351 -0.045355 695099.000000 0 0 1
-25.819744 1.430602 10.120973 27.769405 -0.055351 1.197738 0.133224 -0.039386 -144712.000000 0 0 1
-24.875234 1.035302 9.147273 26.523983 -0.041596 1.218698 0.155080 -0.042200 307241.000000 0 0 1
-25.122414 -0.260098 8.592973 26.552636 0.010353 1.241243 0.123979 -0.034229 597653.000000 0 0 1
-23.845134 -1.028498 8.057873 25.190822 0.043106 1.245201 0.110544 -0.038675 763066.000000 0 0 1
-22.898134 -1.480598 9.016773 24.653983 0.064570 1.196376 0.104659 -0.049728 -95326.900000 0 1 0
-21.806534 -2.029198 8.330473 23.431588 0.092787 1.207323 0.114707 -0.035320 -85149.800000 0 1 0
-20.519634 -2.093798 9.201873 22.585699 0.101687 1.151169 0.094699 -0.024920 187511.000000 0 1 0
-19.990034 -0.817298 9.571073 22.178252 0.040863 1.124584 0.089635 -0.026897 804636.000000 0 1 0
-20.732534 -0.222798 10.649873 23.308955 0.010746 1.096289 0.095954 -0.030456 -421567.000000 0 1 0
-20.260834 1.225102 10.912073 23.045077 -0.060393 1.077525 0.079178 -0.026714 -177294.000000 0 1 0
-20.509134 2.225402 9.919473 22.890455 -0.108085 1.122595 0.076427 -0.025228 562965.000000 0 1 0
-21.878434 2.569802 9.846073 24.129129 -0.116922 1.150471 0.109417 -0.036401 -253328.000000 0 1 0
-22.173134 3.979502 9.330773 24.383347 -0.177583 1.178112 0.094149 -0.040000 -377254.000000 0 1 0
-21.990834 4.950202 10.367073 24.810833 -0.221412 1.139725 0.077324 -0.031819 654349.000000 0 1 0
-22.437434 6.251102 9.996273 25.346403 -0.271711 1.165396 0.069635 -0.025299 -185206.000000 0 0 1
-22.583434 7.327402 11.123373 26.218919 -0.313743 1.132663 0.071993 -0.027245 -211781.000000 0 0 1
-23.539034 6.957002 12.104073 27.367765 -0.287371 1.112663 0.079057 -0.030915 314383.000000 0 0 1
-23.592034 7.801602 13.197373 28.135737 -0.319368 1.082569 0.084083 -0.023530 -194022.000000 0 0 1
-24.598634 7.321802 14.244673 29.353232 -0.289300 1.064108 0.103360 -0.025341 185497.000000 0 0 1
-25.939404 7.258402 13.810673 30.269981 -0.272843 1.097020 0.122007 -0.034615 -147963.000000 0 0 1
-26.888354 7.040602 14.813073 31.495726 -0.256096 1.081143 0.131097 -0.029786 380705.000000 0 0 1
-28.346624 6.959802 14.274473 32.492006 -0.240762 1.115952 0.136236 -0.026010 171096.000000 0 0 1
-28.557534 5.870102 13.471673 32.116612 -0.202730 1.137945 0.139450 -0.014195 606181.000000 0 0 1
-29.774154 5.941602 12.704573 32.912141 -0.196968 1.174489 0.137972 -0.017368 349839.000000 0 0 1
-30.091014 4.777902 11.759173 32.658469 -0.157467 1.202459 0.152430 -0.017441 -181411.000000 0 0 1
-30.776704 3.744202 12.432573 33.403494 -0.121062 1.189425 0.141328 -0.017834 115954.000000 0 0 1
-31.221434 2.827702 11.499073 33.391653 -0.090323 1.219229 0.145374 -0.009428 479494.000000 0 0 1
-32.271464 1.778502 12.112573 34.515574 -0.055055 1.212232 0.117298 -0.003587 863373.000000 0 0 1
-31.738224 0.754002 12.962673 34.291606 -0.023752 1.183147 0.112437 -0.012214 683180.000000 0 0 1
-32.856724 -0.080398 13.308473 35.449770 0.002447 1.185949 0.101575 -0.008393 663000.000000 0 0 1
-32.652964 -1.202898 14.339373 35.683058 0.036822 1.157256 0.100584 -0.013841 -79153.100000 0 0 1
-32.206524 -2.436498 13.830673 35.135227 0.075508 1.166207 0.103008 -0.015623 306537.000000 0 0 1
-32.535254 -3.454798 14.765073 35.895483 0.105790 1.146878 0.113294 -0.014126 -22462.600000 0 0 1
-32.509854 -4.871398 14.122173 35.777882 0.148737 1.165035 0.108342 -0.014932 264222.000000 0 0 1
-33.639634 -5.160898 13.306673 36.542131 0.152230 1.198081 0.084668 -0.027693 377883.000000 0 0 1
-33.551484 -6.482498 12.789573 36.486957 0.190859 1.212665 0.096863 -0.024028 -343725.000000 0 0 1
-34.842633 -6.883298 12.017973 37.494273 0.195042 1.244509 0.100669 -0.014108 1247370.000000 0 0 1
-36.058254 -7.012498 12.788373 38.896211 0.192079 1.235783 0.077601 -0.015203 759604.000000 0 0 1
36.170378 -5.790598 13.032973 38.880402 -0.158745 1.228972 0.075898 -0.020019 -239069.000000 0 0 1
34.639368 -5.778998 12.748973 37.360660 -0.165311 1.222560 0.068052 -0.014426 292917.000000 0 0 1
33.795018 -6.480498 13.614373 37.006097 -0.189459 1.194052 0.061760 -0.015744 -111743.000000 0 0 1
32.474578 -5.998498 13.381173 35.631951 -0.182655 1.185819 0.059424 -0.015017 660267.000000 0 0 1
31.348228 -7.061898 13.681573 34.925166 -0.221574 1.168275 0.043412 -0.016003 373363.000000 0 0 1
30.881348 -7.130098 15.019273 35.072418 -0.226911 1.128256 0.055789 -0.008817 74112.800000 0 0 1
29.994968 -8.237198 15.170473 34.607698 -0.268012 1.117028 0.048547 -0.013069 427436.000000 0 0 1
29.339438 -8.403498 16.575173 34.729782 -0.278955 1.073261 0.034136 -0.017672 -135411.000000 0 0 1
30.264968 -8.833198 17.524673 36.070872 -0.283974 1.063472 0.029737 -0.016816 -392049.000000 0 0 1
29.619408 -9.007698 18.761473 36.200011 -0.295227 1.025966 0.024124 -0.019164 -211014.000000 0 0 1
30.482848 -9.551998 19.960773 37.667985 -0.303665 1.012298 0.024684 -0.011298 1178960.000000 0 0 1
31.650718 -8.786698 20.325773 38.627853 -0.270795 1.016677 0.027753 -0.017114 488223.000000 0 0 1
32.812638 -9.027298 19.564673 39.254780 -0.268475 1.049041 0.028900 -0.012146 -858419.000000 0 0 1
33.961038 -8.218898 20.115073 40.317720 -0.237444 1.048451 0.028402 -0.012075 -453159.000000 0 0 1
34.430108 -8.583198 21.419673 41.447629 -0.244314 1.027700 0.037220 -0.010365 226855.000000 0 0 1
35.685028 -7.969398 21.708973 42.523076 -0.219721 1.035004 0.019099 -0.000744 343225.000000 0 0 1
36.387848 -8.522998 22.957273 43.860613 -0.230079 1.019943 0.030407 -0.003699 -102995.000000 0 0 1
35.959528 -7.965998 24.206073 44.073560 -0.218006 0.989366 0.034927 -0.007967 85801.800000 0 0 1
35.743978 -9.039398 25.125873 44.616725 -0.247700 0.972605 0.030142 -0.016712 -116468.000000 0 0 1
35.216078 -8.564998 26.558073 44.931754 -0.238581 0.938404 0.039315 -0.015854 -440114.000000 0 0 1
36.176328 -8.227298 27.492973 46.176603 -0.223619 0.933048 0.027816 -0.017398 -1264970.000000 0 0 1
35.830128 -7.301998 28.451873 46.331699 -0.201042 0.909563 0.014729 -0.017557 162642.000000 0 0 1
-35.873651 -6.748898 29.361573 46.846221 0.185956 0.893402 0.015734 -0.010819 803187.000000 0 0 1
-35.421394 -7.730798 30.332173 47.270298 0.214883 0.874116 0.012235 -0.004598 -169805.000000 0 0 1
-34.114244 -7.358498 30.723773 46.496014 0.212447 0.848935 0.008735 -0.013951 228954.000000 0 0 1
-33.563004 -8.148298 31.936373 47.040428 0.238168 0.824515 -0.001105 -0.007340 -32582.700000 0 0 1
-33.198744 -9.453598 31.562473 46.773035 0.277415 0.830102 0.011611 -0.015851 -43686.400000 0 0 1
-32.748564 -10.093598 32.722073 47.382309 0.298976 0.808482 0.007974 -0.014025 -406054.000000 0 0 1
-33.014874 -11.610598 32.799873 47.964774 0.338169 0.817794 0.024661 -0.018427 -514875.000000 0 0 1
-34.373758 -11.915698 32.919473 49.063538 0.333688 0.835299 0.021398 -0.021942 -552914.000000 0 0 1
-34.585078 -13.296798 33.094873 49.681013 0.367044 0.841765 0.032599 -0.028429 -1225480.000000 0 0 1
-36.047874 -13.576498 33.163673 50.829122 0.360194 0.859978 0.036476 -0.025601 -1202500.000000 0 0 1
36.418948 -14.969798 33.382573 51.621999 -0.389991 0.867581 0.039302 -0.028773 1287020.000000 0 0 1
35.039698 -15.011598 33.841573 50.974313 -0.404761 0.844782 0.026835 -0.021396 976324.000000 0 0 1
34.656118 -16.488898 34.106473 51.343760 -0.444090 0.844270 0.017510 -0.010076 -229538.000000 0 0 1
35.146658 -17.060798 -33.049627 51.172612 -0.451914 2.272927 0.028495 -0.020303 113308.000000 0 0 1
35.010888 -18.438398 -33.035427 51.546836 -0.484738 2.266443 0.019832 -0.025932 -447370.000000 0 0 1
35.495298 -19.166198 -31.737527 51.327673 -0.495106 2.237415 0.025449 -0.020052 54349.900000 0 0 1
34.709988 -18.792198 -30.619727 49.954956 -0.496221 2.230581 0.031380 -0.015639 -89003.800000 0 0 1
35.155218 -19.558798 -29.541727 49.911417 -0.507710 2.204190 0.026693 -0.009460 -910252.000000 0 0 1
34.188768 -19.597098 -28.344227 48.541872 -0.520483 2.194337 0.039157 -0.006563 520214.000000 0 0 1
32.936288 -20.215098 -28.618527 48.088142 -0.550478 2.208219 0.042947 -0.005689 575322.000000 0 0 1
31.966608 -19.365298 -29.254527 47.462682 -0.544672 2.234920 0.029150 0.002696 374521.000000 0 0 1
30.674458 -20.207598 -29.600427 47.174725 -0.582520 2.249088 0.025705 0.002044 768677.000000 0 0 1
29.616728 -19.537498 -30.251427 46.626315 -0.583149 2.276810 0.017089 0.005636 93904.900000 0 0 1
28.455148 -20.333398 -30.261327 46.248140 -0.620442 2.284086 0.020228 0.001147 460756.000000 0 0 1
27.333188 -19.870398 -31.236327 46.017866 -0.628598 2.316906 0.026578 0.006811 371138.000000 0 0 1
27.719288 -20.079198 -32.614327 47.278192 -0.626899 2.332063 0.016753 0.003786 -8186.180000 0 0 1
26.654288 -20.032298 -33.547227 47.298631 -0.644499 2.359250 0.054127 -0.002620 -18100.600000 0 0 1
27.073088 -20.101698 33.341573 47.420363 -0.638682 0.791039 0.050709 -0.013159 151946.000000 0 0 1
27.974428 -19.016498 33.035373 47.281409 -0.597027 0.797222 0.027823 -0.008671 479788.000000 0 0 1
28.405528 -18.907698 31.700273 46.575555 -0.587288 0.822187 0.026983 -0.006680 -501896.000000 0 0 1
27.400288 -18.371998 30.689773 45.057388 -0.590654 0.821496 0.030401 -0.008164 -453306.000000 0 0 1
27.111488 -16.957698 30.857673 44.438635 -0.558945 0.803227 0.038809 -0.013712 546626.000000 0 0 1
26.146688 -16.443198 29.948273 43.022402 -0.561386 0.800833 0.039826 -0.012861 103758.000000 0 0 1
25.934488 -14.968698 30.234773 42.553508 -0.523466 0.780571 0.050281 -0.016577 -571873.000000 0 0 1
27.072388 -14.224798 30.015573 42.850830 -0.483788 0.794745 0.058295 -0.018842 -425181.000000 0 0 1
26.842288 -13.011498 30.627273 42.753214 -0.451364 0.772206 0.070331 -0.019268 954467.000000 0 0 1
28.208468 -12.266898 30.910073 43.607649 -0.410197 0.782969 0.074108 -0.015213 907226.000000 0 0 1
28.781868 -11.729898 29.727873 43.008521 -0.386993 0.807636 0.069258 -0.017907 -718013.000000 0 0 1
30.166608 -11.615398 29.805473 43.969397 -0.367545 0.825937 0.061917 -0.015540 -470805.000000 0 0 1
30.714808 -10.987898 28.487873 43.309262 -0.343553 0.852932 0.065204 -0.021659 -171846.000000 0 0 1
30.494638 -9.627798 28.393373 42.764483 -0.305817 0.844711 0.057607 -0.023413 -55424.000000 0 0 1
30.870768 -9.102898 27.120073 42.087592 -0.286745 0.870594 0.042209 -0.016356 86031.000000 0 0 1
30.838648 -7.545098 27.022973 41.691627 -0.239950 0.865627 0.034097 -0.007076 904619.000000 0 0 1
29.522428 -6.955898 27.060573 40.647667 -0.231394 0.842318 0.051118 -0.015493 247168.000000 0 0 1
29.563628 -5.542698 26.915773 40.363206 -0.185332 0.840837 0.051599 -0.009911 28016.400000 0 0 1
28.209328 -4.863998 26.634973 39.100466 -0.170746 0.821405 0.050602 -0.007806 -13883.400000 0 0 1
27.613688 -5.237798 25.400673 37.883300 -0.187454 0.835917 0.046899 -0.003688 150062.000000 0 0 1
26.304588 -4.677998 25.393673 36.859919 -0.176000 0.810793 0.066521 -0.009512 283747.000000 0 0 1
25.440588 -4.984898 24.138373 35.422221 -0.193491 0.821058 0.052011 0.001182 -228090.000000 0 0 1
25.705488 -4.200998 23.002473 34.749593 -0.161996 0.847380 0.058670 0.008374 -105476.000000 0 0 1
24.947788 -4.514798 21.874373 33.485276 -0.179032 0.858923 0.060941 0.000757 89892.400000 0 0 1
25.432288 -3.618898 20.667973 32.970635 -0.141347 0.893280 0.079197 -0.003038 111235.000000 0 0 1
24.587388 -2.531298 20.544673 32.140795 -0.102590 0.877328 0.084136 0.000131 -298164.000000 0 0 1
25.055288 -1.670398 19.548673 31.823078 -0.066570 0.909308 0.089455 -0.003639 -93085.500000 0 0 1
23.950088 -0.802898 18.909673 30.525843 -0.033511 0.902736 0.062189 -0.009726 -128876.000000 0 0 1
22.941988 -1.585298 18.308373 29.394634 -0.068991 0.898419 0.084912 -0.010788 -14088.900000 0 0 1
21.870188 -0.778798 17.836673 28.232225 -0.035595 0.886944 0.086275 -0.008625 1018950.000000 0 0 1
20.746588 -1.671398 17.145673 26.966434 -0.080389 0.881732 0.080050 -0.006628 575551.000000 0 0 1
21.130188 -2.256998 15.902173 26.541627 -0.106410 0.928369 0.083317 -0.012992 -117237.000000 0 0 1
20.054588 -2.932598 15.324973 25.409475 -0.145202 0.923389 0.094612 -0.015759 -451804.000000 0 0 1
20.453188 -3.537098 14.002573 25.038291 -0.171243 0.977320 0.096434 -0.018549 -254956.000000 0 0 1
19.416388 -4.331698 13.473573 24.027003 -0.219500 0.975483 0.101148 -0.022791 467671.000000 0 1 0
19.610588 -4.645798 12.147973 23.531507 -0.232614 1.028338 0.107594 -0.028727 -325908.000000 0 1 0
18.487688 -5.549198 11.621973 22.531277 -0.291600 1.028838 0.087552 -0.036890 -180657.000000 0 1 0
18.538988 -6.862798 12.175873 23.217320 -0.354540 1.018750 0.118509 -0.036096 410796.000000 0 1 0
17.317688 -7.537798 12.013473 22.384017 -0.410534 1.004277 0.079007 -0.021098 -468888.000000 0 1 0
17.395188 -9.032698 12.327573 23.154940 -0.478940 1.009369 0.097600 -0.036475 -169179.000000 0 1 0
18.320588 -9.703998 11.513973 23.714618 -0.487107 1.063836 0.086162 -0.040025 442287.000000 0 1 0
18.036388 -11.074498 11.556373 24.114426 -0.550656 1.071018 0.095148 -0.040292 70284.600000 0 1 0
18.834888 -11.692198 10.425273 24.497894 -0.555554 1.131218 0.101557 -0.041638 95345.600000 0 1 0
18.267288 -11.202098 9.225673 23.330106 -0.550093 1.164249 0.093034 -0.037901 279583.000000 0 1 0
18.987988 -11.657398 8.136573 23.720085 -0.550603 1.220661 0.102276 -0.044550 -198547.000000 0 1 0
18.689988 -10.973098 6.777573 22.708149 -0.530888 1.267713 0.095656 -0.032904 128174.000000 0 1 0
19.296988 -9.658698 6.636673 22.576749 -0.464071 1.272429 0.113689 -0.027479 728973.000000 0 1 0
19.506188 -9.383198 5.255973 22.274672 -0.448362 1.332588 0.082478 -0.029090 -298683.000000 0 1 0
20.061788 -7.988098 4.954873 22.154815 -0.378932 1.345241 0.114018 -0.028664 -758079.000000 0 1 0
20.365788 -7.844098 3.601573 22.119370 -0.367649 1.407244 0.080385 -0.022551 539012.000000 0 1 0
20.873788 -6.545798 3.412873 22.140691 -0.303877 1.416034 0.098268 -0.020062 -417996.000000 0 1 0
21.682788 -6.233398 2.129673 22.661290 -0.279933 1.476679 0.121553 -0.024465 95337.900000 0 1 0
20.922188 -6.123898 0.964873 21.821344 -0.284745 1.526565 0.093254 -0.034222 538046.000000 0 1 0
21.808588 -5.676698 -0.019127 22.535301 -0.254646 1.571645 0.127354 -0.025769 122584.000000 0 1 0
-25.778914 -15.529998 -0.160327 30.095829 0.542205 1.576124 0.088102 -0.003396 -437134.000000 0 0 1
-24.769434 -14.961098 -0.988327 28.954034 0.543366 1.604937 0.076059 0.006548 1647070.000000 0 0 1
-23.434934 -15.437998 -0.606727 28.069486 0.582509 1.592413 0.075597 0.005132 1690890.000000 0 0 1
-22.778634 -14.880198 0.697973 27.217157 0.578658 1.545149 0.078226 -0.010675 -765501.000000 0 0 1
-23.268634 -15.442498 1.892473 27.990740 0.585919 1.503134 0.072317 0.001368 -37260.900000 0 0 1
-22.547534 -15.019398 3.016973 27.259415 0.587625 1.459893 0.069548 0.013379 -28432.000000 0 0 1
-23.074734 -15.706298 4.288273 28.240404 0.597635 1.418358 0.074214 0.010396 -438056.000000 0 0 1
-22.709834 -17.048198 4.407573 28.736811 0.643947 1.416811 0.096200 -0.005078 105074.000000 0 0 1
-23.235734 -17.673998 5.539073 29.714489 0.650275 1.383290 0.093823 -0.008992 -268593.000000 0 0 1
-23.271534 -19.211198 5.436473 30.662512 0.690111 1.392554 0.077849 -0.006289 -9669.680000 0 0 1
-23.979534 -19.787798 6.505673 31.763167 0.689916 1.364518 0.081572 -0.015457 95302.800000 0 0 1
-24.470234 -21.082998 6.158873 32.881862 0.711177 1.382380 0.097803 -0.023304 64188.600000 0 0 1
-25.082104 -21.812998 7.362773 34.045987 0.715800 1.352815 0.089525 -0.018024 661652.000000 0 0 1
-24.031634 -22.116498 8.316573 33.701992 0.743922 1.321453 0.075970 -0.006782 322594.000000 0 0 1
-24.455234 -22.841598 9.410173 34.761306 0.751294 1.296668 0.081230 -0.006422 -503683.000000 0 0 1
-23.432134 -23.243198 10.481273 34.629008 0.781350 1.263300 0.065986 -0.010806 -245707.000000 0 0 1
-23.095434 -22.130598 11.295573 33.922742 0.764068 1.231335 0.057442 -0.010570 -68747.000000 0 0 1
-22.278134 -22.530698 12.366573 34.012935 0.791035 1.198684 0.058884 -0.009859 -264956.000000 0 0 1
-22.539134 -21.672898 13.696073 34.136629 0.765808 1.157955 0.036474 -0.002179 17668.800000 0 0 1
-23.817934 -21.884598 14.264173 35.351043 0.743121 1.155457 0.029131 0.000129 -90549.900000 0 0 1
-23.993334 -21.169498 15.452773 35.533307 0.722954 1.120890 0.020922 0.014012 -145042.000000 0 0 1
-25.339124 -21.526398 16.159273 36.967271 0.704222 1.118398 0.039301 0.003201 299706.000000 0 0 1
-26.481014 -21.202798 15.391873 37.252013 0.675155 1.144850 0.045011 0.007160 67343.000000 0 0 1
-26.861824 -22.241298 14.508773 37.772178 0.691576 1.176550 0.041419 0.000205 298583.000000 0 0 1
-28.014484 -23.253898 14.961573 39.362466 0.692808 1.180895 0.038777 -0.003971 980162.000000 0 0 1
-27.454514 -24.137498 15.940473 39.880670 0.721193 1.159602 0.027350 0.003188 434695.000000 0 0 1
-28.375304 -25.140458 16.387273 41.300644 0.725025 1.162790 0.046823 -0.000738 310112.000000 0 0 1
-28.530394 -26.354508 15.377973 41.773502 0.745774 1.193802 0.046298 -0.000450 13255.300000 0 0 1
-29.128844 -26.280118 14.097973 41.687972 0.734031 1.225816 0.041156 -0.012251 -805219.000000 0 0 1
-30.429244 -26.756748 14.178773 42.929012 0.721266 1.234192 0.053374 -0.026581 -782254.000000 0 0 1
-31.135954 -27.260148 12.904673 43.348516 0.719124 1.268518 0.073988 -0.029730 59573.200000 0 0 1
-30.662794 -28.460468 12.304673 43.607455 0.748166 1.284742 0.061973 -0.034641 462820.000000 0 0 1
-31.605164 -28.843138 11.309673 44.257448 0.739738 1.312387 0.064300 -0.021169 295386.000000 0 0 1
-31.069694 -30.076418 10.543573 44.509367 0.769155 1.331639 0.050488 -0.020558 -19112.200000 0 0 1
-31.255114 -31.237368 11.303773 45.611737 0.785114 1.320361 0.039250 -0.020212 185220.000000 0 0 1
-30.481844 -32.295268 10.779573 45.698209 0.814277 1.332666 0.051170 -0.026456 -500541.000000 0 0 1
-30.638284 -33.618768 11.525473 46.922942 0.831749 1.322631 0.044154 -0.028295 90758.600000 0 0 1
-31.930774 34.165680 11.476473 48.151608 -0.819198 1.330140 0.019126 -0.023014 86787.300000 0 0 1
-31.817784 32.781550 11.662573 47.148881 -0.800316 1.320846 0.047317 -0.030600 189217.000000 0 0 1
-33.162384 32.178649 12.240573 47.802100 -0.770344 1.311844 0.043461 -0.023148 654355.000000 0 0 1
-34.172169 32.105809 11.281673 48.226509 -0.754231 1.334677 0.029754 -0.023283 -508568.000000 0 0 1
-34.898408 33.262603 11.013073 49.452881 -0.761404 1.346215 0.050315 -0.018908 -690242.000000 0 0 1
-36.333374 32.892426 10.549973 50.133099 -0.735733 1.358772 0.028481 -0.008000 7561.470000 0 0 1
-36.393174 32.180379 9.307673 49.463852 -0.724041 1.381497 0.008104 -0.000273 -163068.000000 0 0 1
35.164038 31.987009 8.814673 48.346424 0.738122 1.387448 0.010664 0.002603 -259387.000000 0 0 1
35.026668 31.508799 7.341573 47.681973 0.732575 1.416212 0.012194 0.000152 -113317.000000 0 0 1
35.251348 30.151289 7.160873 46.936508 0.707576 1.417633 0.022125 -0.005520 -64712.100000 0 0 1
35.132398 29.719559 5.833673 46.385011 0.702127 1.444696 0.037135 -0.010867 -93144.500000 0 0 1
35.337528 28.197459 5.525873 45.545283 0.673488 1.449170 0.039258 -0.010448 558269.000000 0 0 1
34.356208 27.284709 6.090373 44.293306 0.671177 1.432858 0.056708 -0.013044 607392.000000 0 0 1
34.670238 26.944709 7.436573 44.534765 0.660665 1.403027 0.037773 -0.008609 -153943.000000 0 0 1
33.952688 25.737929 8.070773 43.363157 0.648635 1.383584 0.037629 -0.010671 -133374.000000 0 0 1
34.162688 24.551089 7.348073 42.706432 0.623135 1.397876 0.042867 -0.010185 -168910.000000 0 0 1
33.121398 23.618419 7.464073 41.359026 0.619455 1.389332 0.034705 -0.006075 -807902.000000 0 0 1
33.367908 22.336119 6.655973 40.701615 0.589885 1.406528 0.046319 -0.009670 -134302.000000 0 0 1
34.375458 21.449119 7.071273 41.130763 0.557855 1.398016 0.062118 -0.011144 521536.000000 0 0 1
35.697308 21.958019 6.741973 42.448870 0.551461 1.411295 0.067333 -0.018005 314108.000000 0 0 1
-36.244874 20.718419 6.604973 42.267829 -0.519293 1.413889 0.080553 -0.019621 -441156.000000 0 0 1
36.413728 19.926619 5.411473 41.860647 0.500713 1.441160 0.094798 -0.025953 112588.000000 0 0 1
-36.245984 18.593219 5.694973 41.132856 -0.473972 1.431897 0.104740 -0.025393 -160392.000000 0 0 1
36.113178 17.648819 4.595473 40.456900 0.454574 1.456961 0.113917 -0.031619 180265.000000 0 0 1
-35.871361 17.483219 3.480673 40.056616 -0.453506 1.483793 0.114739 -0.030464 494898.000000 0 0 1
36.390048 16.460019 2.692773 40.030224 0.424783 1.503477 0.120276 -0.033068 -711406.000000 0 0 1
-35.600754 16.111219 1.454973 39.103733 -0.424975 1.533580 0.135955 -0.026353 350041.000000 0 0 1
-34.423115 15.390319 1.832773 37.751447 -0.420433 1.522229 0.124535 -0.034914 122143.000000 0 0 1
-33.358884 16.220219 2.187773 37.157731 -0.452574 1.511884 0.116831 -0.030365 -653552.000000 0 0 1
-32.044964 15.433619 2.533073 35.657997 -0.448839 1.499698 0.097890 -0.025683 451672.000000 0 0 1
-31.949094 14.764319 3.784873 35.398516 -0.432887 1.463670 0.107558 -0.023090 -43294.100000 0 0 1
-30.698854 14.122319 3.882373 34.013708 -0.431161 1.456406 0.089647 -0.015087 -103118.000000 0 0 1
-30.478374 13.407419 5.226873 33.704752 -0.414423 1.415090 0.099916 -0.015306 267738.000000 0 0 1
-31.303534 12.226119 5.345873 34.028922 -0.372348 1.413045 0.119860 -0.017078 644688.000000 0 0 1
-31.007564 11.557219 6.592073 33.741573 -0.356773 1.374162 0.106745 -0.013309 -192274.000000 0 0 1
-31.192404 10.033619 6.576373 33.419878 -0.311216 1.372723 0.121720 -0.023801 261176.000000 0 0 1
-32.551964 9.655319 6.434773 34.558093 -0.288346 1.383502 0.122374 -0.014609 184882.000000 0 0 1
-32.650194 8.269219 6.282573 34.262017 -0.248051 1.386384 0.144914 -0.026252 818766.000000 0 0 1
-34.170198 7.874519 6.354073 35.636844 -0.226496 1.391537 0.132572 -0.019388 661606.000000 0 0 1
-34.776863 7.907219 7.613873 36.468141 -0.223569 1.360468 0.118872 -0.011713 -118846.000000 0 0 1
-35.942170 7.111619 7.516273 37.401992 -0.195340 1.368459 0.082399 -0.016965 83404.000000 0 0 1
36.409768 6.497619 8.846473 38.028283 0.176599 1.336017 0.069088 -0.016862 354462.000000 0 0 1
35.673248 7.313019 9.765473 37.701794 0.202199 1.308790 0.073079 -0.011420 449383.000000 0 0 1
-36.290604 8.092419 10.522173 38.642092 -0.219400 1.295016 0.094846 -0.016679 -292939.000000 0 0 1
35.931568 9.007119 11.563673 38.806240 0.245613 1.268215 0.080296 -0.022686 -574429.000000 0 0 1
35.323798 8.361519 12.643573 38.438855 0.232432 1.235629 0.060777 -0.021895 506712.000000 0 0 1
34.597388 9.316119 13.399673 38.253373 0.263033 1.212918 0.078781 -0.026752 -217788.000000 0 0 1
33.995278 8.727619 14.738273 38.066612 0.251303 1.173235 0.087870 -0.030727 -239683.000000 0 0 1
32.714858 8.171519 14.575473 36.735270 0.244772 1.162800 0.054492 -0.023338 -49557.900000 0 0 1
32.324558 7.352819 15.670373 36.667445 0.223663 1.129220 0.063166 -0.021961 516291.000000 0 0 1
30.789078 7.083719 15.784373 35.317033 0.226137 1.107462 0.034604 -0.006435 184014.000000 0 0 1
30.114338 8.318519 16.076973 35.136023 0.269510 1.095543 0.032684 -0.009940 939051.000000 0 0 1
28.683068 8.122519 16.091573 33.876723 0.275957 1.075828 0.037204 -0.002297 1133100.000000 0 0 1
28.069128 7.514519 17.389873 33.863721 0.261581 1.031508 0.038243 -0.008441 -504567.000000 0 0 1
27.962048 8.360819 18.509373 34.559749 0.290545 1.005607 0.063114 -0.021891 298280.000000 0 0 1
27.233488 7.875119 19.661273 34.499942 0.281492 0.964421 0.065862 -0.014214 71316.800000 0 0 1
27.845168 6.773319 20.532773 35.253737 0.238615 0.949084 0.070710 -0.013071 -223828.000000 0 0 1
27.002788 6.545819 21.640773 35.218196 0.237825 0.909073 0.056801 -0.010677 -274435.000000 0 0 1
27.389788 5.529919 22.501873 35.876381 0.199219 0.892836 0.054200 -0.008240 -741976.000000 0 0 1
26.522188 5.362119 23.789073 36.029137 0.199486 0.849614 0.068074 -0.005960 751752.000000 0 0 1
25.193088 4.940119 23.518573 34.816946 0.193633 0.829164 0.032046 -0.004271 189182.000000 0 0 1
24.291088 5.979919 23.159273 34.090589 0.241378 0.823927 0.045958 0.002714 -353033.000000 0 0 1
22.823288 5.513319 23.034273 32.891897 0.237025 0.794975 0.055760 -0.008531 76845.800000 0 0 1
22.603288 4.901319 21.744773 31.745341 0.213535 0.816227 0.049962 -0.013082 1265510.000000 0 0 1
21.233688 5.021319 21.286673 30.482873 0.232213 0.797754 0.039735 -0.009946 253172.000000 0 0 1
20.426488 3.701019 21.406073 29.818767 0.179243 0.770055 0.053823 -0.012440 -156265.000000 0 0 1
19.092888 3.761119 20.961473 28.601883 0.194500 0.748265 0.045863 -0.013506 406039.000000 0 0 1
18.214288 4.353419 21.948273 28.852022 0.234610 0.706377 0.060173 -0.017532 -1130220.000000 0 0 1
16.793588 4.376719 21.426873 27.573377 0.254947 0.680774 0.073575 -0.022380 -965600.000000 0 0 1
16.098488 3.165319 21.526473 27.066022 0.194145 0.651241 0.063927 -0.023769 -108990.000000 0 0 1
15.202088 3.024019 20.443273 25.654932 0.196358 0.648724 0.074020 -0.027237 -425629.000000 0 0 1
14.091488 1.971419 20.728073 25.141788 0.138999 0.601572 0.075837 -0.028937 -624088.000000 0 0 1
14.397888 0.547919 20.776973 25.284026 0.038037 0.606333 0.049861 -0.020913 276442.000000 0 0 1
13.523188 -0.267381 21.588673 25.475849 -0.019769 0.559695 0.049216 -0.029804 -41731.000000 0 0 1
13.943388 -1.722381 21.837373 25.966430 -0.122904 0.571696 0.021121 -0.015603 -190352.000000 0 0 1
13.672588 -2.491481 20.690073 24.924411 -0.180247 0.591486 0.026747 -0.008788 144001.000000 0 1 0
14.031588 -3.844381 20.804473 25.386823 -0.267418 0.610260 0.045072 0.000273 -232769.000000 0 0 1
13.684188 -4.618081 19.565173 24.318299 -0.325474 0.635887 0.044706 -0.000848 532223.000000 0 1 0
12.281588 -4.694981 19.294073 23.348265 -0.365136 0.598183 0.040816 -0.001558 479084.000000 0 1 0
12.033188 -5.096481 17.973573 22.222085 -0.400629 0.628661 0.047894 -0.002843 -166507.000000 0 1 0
10.515588 -5.164781 17.739573 21.258998 -0.456546 0.583662 0.050798 -0.001165 -136734.000000 0 1 0
9.992188 -6.340481 18.334873 21.822307 -0.565433 0.573164 0.054775 0.001718 89295.600000 0 1 0
8.580388 -6.258481 18.127873 21.009793 -0.630182 0.529955 0.046734 -0.007189 578117.000000 0 1 0
7.722388 -7.179981 19.003673 21.733085 -0.749017 0.506574 0.041296 -0.013057 -348969.000000 0 1 0
7.797288 -8.535981 18.668373 21.958343 -0.830594 0.554484 0.042978 -0.014810 -483827.000000 0 1 0
8.730088 -9.322381 19.339673 23.176371 -0.818196 0.583651 0.055790 -0.014986 -187259.000000 0 1 0
8.949788 -10.718381 18.682673 23.324336 -0.875079 0.641841 0.066364 -0.024865 -149423.000000 0 1 0
9.721388 -10.580681 17.540173 22.674079 -0.827698 0.686328 0.068594 -0.018481 -343323.000000 0 1 0
9.753688 -11.804981 16.906073 22.810246 -0.880262 0.735998 0.054190 -0.026458 202333.000000 0 1 0
10.827388 -11.784881 15.794673 22.485272 -0.827717 0.791969 0.079868 -0.022015 -5472.580000 0 1 0
11.026388 -12.985981 15.081573 22.752380 -0.866825 0.846168 0.079040 -0.027309 -94240.900000 0 1 0
10.207988 -13.161681 13.955673 21.730018 -0.911122 0.873392 0.043494 -0.014514 -270643.000000 0 1 0
10.785088 -14.270281 13.047273 22.140243 -0.923611 0.940603 0.046319 -0.022816 697141.000000 0 1 0
12.130388 -14.214281 12.563573 22.517448 -0.864335 0.978885 0.031026 -0.023130 489901.000000 0 1 0
12.427088 -13.228981 11.620373 21.551601 -0.816644 1.001323 0.013717 -0.021766 -108465.000000 0 1 0
13.873688 -13.275881 11.042973 22.151196 -0.763383 1.048897 0.032121 -0.030881 430656.000000 0 1 0
14.276488 -14.433181 10.285773 22.758118 -0.790856 1.101834 0.043924 -0.032575 -83754.300000 0 1 0
15.528688 -14.073381 9.746073 23.112467 -0.736275 1.135499 0.067165 -0.041323 -471536.000000 0 1 0
16.485288 -15.239081 9.451273 24.358179 -0.746136 1.172322 0.064059 -0.041651 102689.000000 0 1 0
17.070388 -15.849481 10.591973 25.588945 -0.748328 1.144032 0.068728 -0.035858 281855.000000 0 0 1
16.239788 -16.884981 11.143773 25.942571 -0.804873 1.126796 0.094708 -0.031925 520765.000000 0 0 1
16.768088 -17.540481 12.530673 27.310346 -0.807908 1.094124 0.081492 -0.027419 -747887.000000 0 0 1
17.876288 -18.347981 12.385773 28.453777 -0.798419 1.120431 0.112239 -0.031576 -792280.000000 0 0 1
18.202088 -19.001381 13.596273 29.618020 -0.806879 1.093866 0.068218 -0.026273 -1031570.000000 0 0 1
19.433188 -19.840581 13.342773 30.811151 -0.795771 1.122922 0.019453 -0.021623 -58214.100000 0 0 1
20.478388 -18.862181 13.180573 30.803794 -0.744339 1.128642 0.017674 -0.022323 118656.000000 0 0 1
21.792488 -19.350481 12.959573 31.895206 -0.726114 1.152376 0.004381 -0.020224 833017.000000 0 0 1
22.613188 -18.464781 11.960473 31.549284 -0.684751 1.181968 0.015469 -0.019536 -524356.000000 0 0 1
22.416088 -18.733681 10.559273 31.063323 -0.696148 1.223957 0.019614 -0.015483 523634.000000 0 0 1
21.119688 -18.617481 9.953573 29.861772 -0.722512 1.230972 0.039111 -0.024230 816060.000000 0 0 1
20.443488 -17.229581 9.856073 28.494505 -0.700294 1.217605 0.091393 -0.030224 45042.100000 0 0 1
21.145788 -16.380981 8.964073 28.210556 -0.659103 1.247434 0.086723 -0.029820 64534.300000 0 0 1
20.866588 -15.053381 9.262573 27.346189 -0.624952 1.225245 0.089200 -0.037703 167915.000000 0 0 1
-34.886536 24.624302 7.942273 43.433930 -0.614634 1.386903 0.069715 -0.009513 357114.000000 0 0 1
-33.904004 24.000002 8.780673 42.456822 -0.615996 1.362479 0.070407 -0.014342 219709.000000 0 0 1
-32.981724 24.935702 9.244873 42.368042 -0.647359 1.350823 0.064613 -0.009068 -14210.100000 0 0 1
-31.771094 24.308402 9.998573 41.234357 -0.653102 1.325873 0.078819 -0.016214 470859.000000 0 0 1
-30.796554 23.627402 9.231473 39.898645 -0.654424 1.337308 0.068810 -0.015601 308977.000000 0 0 1
-30.215074 22.487902 9.858973 38.933992 -0.639818 1.314786 0.065476 -0.014720 182368.000000 0 0 1
-29.325254 21.569902 9.019173 37.504355 -0.634182 1.327933 0.053141 -0.019976 303836.000000 0 0 1
-30.083434 20.876402 8.019373 37.485297 -0.606654 1.355196 0.055148 -0.027356 687721.000000 0 0 1
-29.210674 20.086702 7.198373 36.173963 -0.602389 1.370466 0.050666 -0.028977 243141.000000 0 0 1
-30.001424 19.217802 6.214173 36.166632 -0.569712 1.398119 0.060846 -0.030955 -318874.000000 0 0 1
-30.867294 18.296102 6.805773 36.521989 -0.535060 1.383353 0.068633 -0.030931 360677.000000 0 0 1
-31.749694 17.781502 5.792773 36.848081 -0.510528 1.412935 0.076353 -0.030055 435950.000000 0 0 1
-32.693114 16.646502 6.301873 37.224445 -0.470960 1.400683 0.088037 -0.024985 -85137.300000 0 0 1
-33.653814 16.982402 7.277173 38.391905 -0.467337 1.380093 0.088321 -0.029972 73970.400000 0 0 1
-34.422003 15.833502 7.593673 38.642436 -0.431124 1.372998 0.102845 -0.035328 -146085.000000 0 0 1
-35.325969 16.226502 8.802573 39.858609 -0.430591 1.348116 0.095473 -0.032239 -127473.000000 0 0 1
-36.428854 17.025002 8.450973 41.089305 -0.437188 1.363645 0.093838 -0.028456 -65530.800000 0 0 1
35.893998 17.531102 9.668473 41.099854 0.454335 1.333327 0.099704 -0.022931 433860.000000 0 0 1
34.894188 18.741302 9.466873 40.724224 0.492877 1.336187 0.095702 -0.020863 464519.000000 0 0 1
33.591438 18.371402 9.086773 39.350509 0.500466 1.337774 0.073361 -0.018724 -283715.000000 0 0 1
32.775378 19.487402 9.014473 39.182202 0.536421 1.338651 0.054233 -0.011240 795809.000000 0 0 1
31.333508 19.408802 8.366073 37.795257 0.554581 1.347595 0.031351 -0.010079 736418.000000 0 0 1
30.760738 20.700202 8.413673 38.019879 0.592335 1.347652 0.023790 -0.014221 233119.000000 0 0 1
29.393088 20.776902 8.044173 36.882814 0.615318 1.350928 0.011382 -0.012434 362568.000000 0 0 1
28.954758 20.496302 6.571573 36.078552 0.615991 1.387628 0.012543 -0.002585 -665086.000000 0 0 1
29.313468 19.175902 6.015373 35.541234 0.579299 1.400727 0.021213 -0.009138 143454.000000 0 0 1
28.994848 18.857402 4.651173 34.898943 0.576636 1.437123 0.021585 -0.010081 -649318.000000 0 0 1
27.560888 19.168502 4.214773 33.834868 0.607697 1.445903 0.043376 -0.007048 -970049.000000 0 0 1
26.608688 18.433402 5.023773 32.757455 0.605850 1.416826 0.042808 -0.007539 1138300.000000 0 0 1
25.229888 18.632902 4.695473 31.714030 0.636117 1.422193 0.067512 -0.014545 711496.000000 0 0 1
24.653288 20.058702 4.971373 32.169095 0.682998 1.415636 0.080740 -0.020399 -1121400.000000 0 0 1
25.240088 21.108902 4.235573 33.175109 0.696501 1.442774 0.064688 -0.016485 40781.800000 0 0 1
24.841588 22.391302 4.725973 33.775874 0.733568 1.430414 0.081245 -0.016966 -108843.000000 0 0 1
25.785088 23.547202 4.296473 35.182398 0.740066 1.448371 0.062182 -0.006979 108155.000000 0 0 1
27.037588 23.430302 4.944273 36.117254 0.714043 1.433470 0.059595 -0.016226 51110.400000 0 0 1
27.803488 24.617502 4.800173 37.444585 0.724696 1.442249 0.060842 -0.018628 -51123.400000 0 0 1
29.128508 24.625702 5.651573 38.559505 0.701827 1.423699 0.037195 -0.020365 434790.000000 0 0 1
30.128038 23.679402 5.370473 38.694376 0.666121 1.431555 0.032189 -0.021590 359478.000000 0 0 1
30.596778 23.581402 4.001373 38.836276 0.656628 1.467581 0.047933 -0.028656 -588749.000000 0 0 1
31.515018 24.708602 3.454673 40.195100 0.664925 1.484743 0.072861 -0.038892 -1412730.000000 0 0 1
30.818348 25.847802 3.234073 40.352678 0.697906 1.490565 0.061562 -0.032469 -618976.000000 0 0 1
31.412308 26.871202 2.459473 41.410670 0.707641 1.511369 0.089338 -0.027531 -885630.000000 0 0 1
30.645438 28.163802 2.599373 41.702510 0.743225 1.508425 0.081907 -0.017962 44260.300000 0 0 1
29.385708 28.230002 1.998173 40.797616 0.765342 1.521799 0.118036 -0.020081 410953.000000 0 0 1
28.251418 27.635802 2.652773 39.609561 0.774383 1.503773 0.093592 -0.015981 120802.000000 0 0 1
26.889988 28.206102 2.272673 39.036145 0.809281 1.512544 0.049006 -0.003493 -530508.000000 0 0 1
26.680788 29.533402 2.791973 39.898388 0.836100 1.500762 0.053093 -0.002009 421310.000000 0 0 1
25.445988 30.186602 2.470573 39.557969 0.870406 1.508301 0.049557 0.005903 585010.000000 0 0 1
25.341488 31.659402 2.981673 40.662010 0.895786 1.497402 0.054440 -0.001721 -151112.000000 0 0 1
25.267688 31.749002 4.397773 40.814159 0.898586 1.462836 0.050391 -0.015997 146329.000000 0 0 1
26.504988 31.694602 5.098173 41.629959 0.874332 1.448024 0.052332 -0.019809 183667.000000 0 0 1
26.410688 31.565002 6.661773 41.692361 0.874070 1.410324 0.072679 -0.032626 -93239.200000 0 0 1
25.886288 30.369702 7.228073 40.554454 0.864927 1.391608 0.073954 -0.036756 63492.200000 0 0 1
26.612688 29.138802 7.095973 40.095607 0.830677 1.392883 0.067331 -0.037054 -155340.000000 0 0 1
25.912688 27.934602 7.722473 38.877319 0.822930 1.370829 0.088152 -0.035922 -709538.000000 0 0 1
24.716688 27.696202 7.067373 37.788120 0.842184 1.382662 0.073235 -0.037486 -619695.000000 0 0 1
24.142388 26.457102 7.360073 36.565062 0.831112 1.368125 0.065604 -0.028380 70329.100000 0 0 1
22.889288 26.002402 6.544173 35.254370 0.848986 1.384086 0.067457 -0.016498 286500.000000 0 0 1
23.050888 25.716302 5.120373 34.912602 0.840000 1.423603 0.050974 -0.020764 125030.000000 0 0 1
23.380088 26.858302 4.363673 35.875319 0.854522 1.448860 0.048773 -0.017437 -138332.000000 0 0 1
23.434788 26.696902 2.851373 35.637679 0.850377 1.490701 0.053914 -0.004911 474434.000000 0 0 1
24.572788 25.973402 2.347373 35.832243 0.813101 1.505239 0.048354 0.005030 707383.000000 0 0 1
24.293588 25.526502 1.029673 35.253949 0.810140 1.541585 0.060488 0.004508 150174.000000 0 0 1
25.523888 24.885802 0.305473 35.649198 0.772741 1.562227 0.070198 -0.000933 -606008.000000 0 0 1
26.429488 25.935402 -0.012927 37.029219 0.775963 1.571145 0.052238 -0.002526 1107300.000000 0 0 1
27.711888 25.535702 -0.551727 37.687202 0.744552 1.585436 0.066838 0.000268 1964230.000000 0 0 1
28.609988 24.381702 0.110173 37.590037 0.705775 1.567865 0.073891 -0.006111 -196207.000000 0 0 1
28.023788 23.148302 -0.142927 36.348273 0.690409 1.574729 0.076917 -0.011952 309761.000000 0 0 1
28.594738 22.252702 0.831973 36.242709 0.661312 1.547839 0.084116 -0.017778 51907.200000 0 0 1
27.515388 21.357902 1.444373 34.861766 0.660070 1.529353 0.067512 -0.016413 120427.000000 0 0 1
26.867188 20.556202 0.439373 33.831882 0.653098 1.557809 0.081022 -0.024128 1128920.000000 0 0 1
25.710388 19.847002 0.921873 32.492728 0.657399 1.542421 0.067670 -0.016672 618644.000000 0 0 1
25.014988 18.834002 -0.014227 31.312449 0.645360 1.571251 0.069963 -0.022302 939606.000000 0 0 1
23.760888 18.312902 0.502873 30.003250 0.656628 1.554035 0.069099 -0.019401 842729.000000 0 0 1
23.371888 17.290702 -0.317627 29.074291 0.636946 1.581721 0.085511 -0.035366 580414.000000 0 0 1
21.830688 17.018502 -0.176027 27.681028 0.662158 1.577156 0.081930 -0.017565 -495610.000000 0 0 1
21.267488 15.892402 -0.873127 26.563825 0.641747 1.603671 0.084313 -0.022274 1191680.000000 0 0 1
19.918188 15.639202 -0.433627 25.327986 0.665634 1.587918 0.079509 -0.022991 776457.000000 0 0 1
18.835488 16.669002 -0.803527 25.164993 0.724454 1.602732 0.078570 -0.031560 -1229390.000000 0 0 1
18.907488 17.935202 -0.220027 26.061715 0.759014 1.579239 0.076982 -0.024073 84987.900000 0 0 1
17.897288 18.753902 -0.812427 25.936109 0.808766 1.602126 0.073807 -0.026421 314513.000000 0 0 1
17.838988 20.242702 -0.438427 26.984971 0.848434 1.587044 0.069077 -0.026434 -688845.000000 0 0 1
17.464488 20.396002 0.888773 26.866245 0.862673 1.537709 0.075425 -0.018888 -27875.600000 0 0 1
17.244988 21.736902 1.310473 27.777686 0.900123 1.523602 0.079195 -0.016775 337324.000000 0 0 1
16.081888 22.597102 0.686173 27.743953 0.952275 1.546061 0.060973 -0.021669 20107.200000 0 0 1
14.857188 22.260202 1.273173 26.793163 0.982264 1.523260 0.055665 -0.018763 -599789.000000 0 0 1
13.811788 23.061402 0.816373 26.893497 1.031176 1.540436 0.048638 -0.015271 -20622.700000 0 0 1
12.473988 22.975702 1.583473 26.191423 1.073404 1.510302 0.054481 -0.016599 229379.000000 0 0 1
12.507488 23.566902 2.902073 26.837625 1.082874 1.462450 0.043533 -0.001602 -387840.000000 0 0 1
11.325988 23.225802 3.567673 26.085324 1.117080 1.433597 0.034102 -0.001644 -264962.000000 0 0 1
11.260788 23.477402 5.086873 26.530548 1.123566 1.377865 0.039974 -0.000903 -398669.000000 0 0 1
11.973388 22.601402 5.892973 26.247143 1.083623 1.344347 0.035691 -0.020783 -212562.000000 0 0 1
11.227388 22.243402 7.055073 25.895892 1.103355 1.294868 0.035753 -0.015458 -481363.000000 0 0 1
11.882688 21.225802 8.049773 25.622876 1.060443 1.251221 0.043436 -0.011882 50494.600000 0 0 1
13.026688 21.633302 8.741173 26.722695 1.028791 1.237556 0.056432 -0.006278 -1045630.000000 0 0 1
14.218988 21.632002 8.063573 27.113545 0.989298 1.268828 0.065985 -0.007440 -1313730.000000 0 0 1
15.431888 21.740502 9.000673 28.139024 0.953509 1.245210 0.076571 -0.008770 -561193.000000 0 0 1
15.669188 20.472002 9.561173 27.496224 0.917514 1.215651 0.087807 -0.021203 801456.000000 0 0 1
16.945688 20.341202 10.224073 28.380495 0.876212 1.202260 0.092481 -0.023697 856543.000000 0 0 1
17.300788 21.195602 11.450673 29.659546 0.886229 1.174428 0.080054 -0.029357 -1337340.000000 0 0 1
16.599588 20.834602 12.557873 29.450418 0.898051 1.130279 0.079846 -0.025655 -373760.000000 0 0 1
16.988788 21.412602 13.760173 30.601646 0.900092 1.104418 0.069451 -0.014073 144471.000000 0 0 1
18.297388 20.852302 14.413473 31.262775 0.850566 1.091627 0.050577 -0.014309 238535.000000 0 0 1
19.485088 21.362902 13.855773 32.062823 0.831337 1.123927 0.064890 -0.014931 -804810.000000 0 0 1
20.509288 21.009002 14.744873 32.854532 0.797434 1.105383 0.056408 -0.012693 -239198.000000 0 0 1
21.850188 21.650702 14.313873 33.927430 0.780812 1.135260 0.061280 -0.013136 -74790.700000 0 0 1
22.420088 21.196102 13.115973 33.525569 0.757343 1.168836 0.073983 -0.018423 -304511.000000 0 0 1
23.744888 21.648602 13.012373 34.667037 0.739251 1.186019 0.051813 -0.022703 -499672.000000 0 0 1
24.454688 21.059902 11.822273 34.370297 0.710949 1.219657 0.062809 -0.024841 -359480.000000 0 0 1
24.018588 21.625102 10.601573 34.013687 0.733008 1.253830 0.070784 -0.028570 227304.000000 0 0 1
24.903088 21.315002 9.566673 34.146952 0.707920 1.286834 0.079078 -0.028650 -724461.000000 0 0 1
24.817788 22.304002 8.382173 34.404242 0.732102 1.324681 0.070197 -0.028620 67915.800000 0 0 1
25.391888 23.559902 8.639273 35.699495 0.747991 1.326370 0.067085 -0.027495 -1062360.000000 0 0 1
26.752588 23.642202 8.738973 36.756282 0.723756 1.330743 0.055394 -0.027268 -1778920.000000 0 0 1
27.212088 24.974902 9.377173 38.107411 0.742556 1.322171 0.062063 -0.027637 -312485.000000 0 0 1
28.609398 25.151302 9.329873 39.219028 0.721163 1.330602 0.055490 -0.022521 8933.680000 0 0 1
28.947788 26.331002 10.011873 40.392247 0.738095 1.320319 0.061122 -0.024495 152294.000000 0 0 1
30.127718 27.108602 9.393673 41.602845 0.732699 1.343038 0.050311 -0.019388 135461.000000 0 0 1
29.804548 27.742202 8.130873 41.521704 0.749576 1.373700 0.058289 -0.024776 328945.000000 0 0 1
31.009208 28.008402 7.439973 42.442841 0.734596 1.394592 0.043970 -0.014328 -253333.000000 0 0 1
30.887148 28.971902 6.204073 42.800438 0.753413 1.425330 0.063115 -0.014048 49203.600000 0 0 1
30.896468 30.337002 6.580173 43.797535 0.776262 1.419985 0.059978 -0.020213 16931.500000 0 0 1
31.053098 31.143402 5.386273 44.308219 0.786850 1.448931 0.056050 -0.024602 46862.100000 0 0 1
31.070168 32.670802 5.723273 45.447689 0.810504 1.444530 0.036104 -0.016972 -697570.000000 0 0 1
29.961018 33.060702 6.437173 45.078928 0.834543 1.427509 0.038644 -0.024840 -819361.000000 0 0 1
29.890868 -33.916315 6.680373 45.699101 -0.848402 1.424089 0.042030 -0.026563 685181.000000 0 0 1
28.500698 -33.442015 7.248773 44.533166 -0.865002 1.407296 0.086561 -0.032950 665992.000000 0 0 1
27.404488 -33.598315 6.376473 43.823648 -0.886585 1.424775 0.070727 -0.029582 -116817.000000 0 0 1
26.354688 -32.726115 6.828873 42.569962 -0.892826 1.409685 0.056595 -0.036625 346220.000000 0 0 1
25.153588 -32.714515 5.854073 41.679883 -0.915320 1.429877 0.065881 -0.019867 -192489.000000 0 0 1
25.369988 -32.152515 4.600673 41.213914 -0.902767 1.458934 0.050127 -0.007717 -634834.000000 0 0 1
24.187688 -32.158215 3.813473 40.419520 -0.925923 1.476308 0.055578 -0.018436 15615.000000 0 0 1
24.401988 -31.668715 2.344873 40.048258 -0.914279 1.512212 0.050892 0.002738 -112673.000000 0 0 1
24.685488 -30.286215 2.420673 39.147002 -0.886932 1.508921 0.064742 0.001924 230564.000000 0 0 1
25.235288 -29.724015 1.204573 39.010099 -0.866891 1.539913 0.051571 0.004174 -218528.000000 0 0 1
25.335488 -28.163515 1.177473 37.900620 -0.838210 1.539724 0.056629 -0.006439 -36707.400000 0 0 1
24.182588 -27.352115 1.293273 36.532291 -0.846824 1.535388 0.050309 -0.005490 -120112.000000 0 0 1
23.389188 -27.294715 0.122273 35.945383 -0.862303 1.567395 0.042955 -0.000258 155223.000000 0 0 1
22.252988 -26.245715 0.115873 34.409976 -0.867539 1.567429 0.042578 -0.003639 236464.000000 0 0 1
22.714888 -24.884815 0.070773 33.693103 -0.830954 1.568696 0.043086 -0.011022 -14458.800000 0 0 1
23.018988 -24.227415 1.302773 33.444561 -0.810970 1.531833 0.034107 -0.004078 159318.000000 0 0 1
21.783488 -23.969515 2.213573 32.464718 -0.833141 1.502559 0.036955 -0.004538 268355.000000 0 0 1
21.883088 -23.229515 3.428773 32.097296 -0.815235 1.463768 0.032653 -0.004467 -152339.000000 0 0 1
20.547688 -22.981715 3.835273 31.065673 -0.841257 1.447024 0.029092 -0.000614 289180.000000 0 0 1
20.352788 -22.450115 5.258573 30.755426 -0.834359 1.398972 0.025835 -0.002976 -367006.000000 0 0 1
20.555688 -21.134815 5.586573 30.007108 -0.799288 1.383529 0.048923 -0.003018 -109634.000000 0 0 1
19.714488 -20.195715 4.952673 28.654091 -0.797455 1.397080 0.032537 -0.004207 -512062.000000 0 0 1
19.756488 -18.738815 5.535573 27.786770 -0.758968 1.370238 0.040520 -0.003133 220719.000000 0 0 1
19.041188 -18.570715 6.783273 27.449063 -0.772890 1.321087 0.058917 -0.013772 398163.000000 0 0 1
17.637288 -18.412915 6.671273 26.355554 -0.806910 1.314886 0.042064 -0.011715 129919.000000 0 0 1
18.901866 -26.267648 -12.013927 34.519623 -0.947045 1.926267 0.072175 -0.011702 115207.000000 0 0 1
19.057966 -24.895598 -12.341827 33.694474 -0.917439 1.945811 0.093081 -0.019429 229024.000000 0 0 1
17.823766 -24.354898 -12.798627 32.781894 -0.939023 1.971881 0.064913 -0.018071 -81976.300000 0 0 1
18.065066 -22.978098 -13.359127 32.137298 -0.904535 1.999497 0.067342 -0.027728 68871.300000 0 0 1
18.338766 -21.880798 -12.484127 31.159800 -0.873239 1.983021 0.077185 -0.032478 387087.000000 0 0 1
19.544666 -21.945298 -11.708827 31.633633 -0.843194 1.949954 0.069868 -0.031730 -202670.000000 0 0 1
19.328166 -22.485998 -10.245627 31.371500 -0.860776 1.903490 0.066473 -0.016660 259725.000000 0 0 1
18.387066 -21.823798 -9.385127 30.040689 -0.870659 1.888529 0.054988 -0.023304 989757.000000 0 0 1
17.024466 -22.136698 -9.749627 29.579065 -0.915208 1.906689 0.061861 -0.013195 251036.000000 0 0 1
16.094766 -21.508898 -8.688927 28.234229 -0.928394 1.883618 0.053685 -0.017701 -986208.000000 0 0 1
16.073866 -20.090098 -8.643527 27.142067 -0.896001 1.894896 0.053514 -0.024256 106245.000000 0 0 1
15.176766 -19.544298 -7.695227 25.913903 -0.910530 1.872297 0.055494 -0.027802 611619.000000 0 0 1
13.665866 -19.560698 -8.106827 25.201140 -0.960984 1.898305 0.047031 -0.012565 394150.000000 0 0 1
13.150866 -20.893898 -7.900427 25.921362 -1.009031 1.880508 0.040461 -0.017034 359872.000000 0 0 1
11.730366 -20.894798 -8.115127 25.299197 -1.059242 1.897335 0.034472 -0.015720 787936.000000 0 0 1
11.166666 -22.328798 -7.817027 26.160573 -1.107067 1.874241 0.032992 -0.016942 -30190.400000 0 0 1
11.328866 -22.671198 -6.444727 26.150735 -1.107386 1.819807 0.042088 -0.020636 294633.000000 0 0 1
10.524866 -23.794698 -6.194727 26.745750 -1.154348 1.804534 0.029864 -0.020503 72772.700000 0 0 1
11.001866 -24.445998 -4.849127 27.242649 -1.147903 1.749748 0.045153 -0.020923 919444.000000 0 0 1
10.043266 -25.309738 -4.174427 27.547702 -1.193039 1.722917 0.043759 -0.024401 665219.000000 0 0 1
10.718266 -25.836018 -3.052627 28.137157 -1.177548 1.679501 0.042747 -0.024336 356000.000000 0 0 1
9.754766 -26.775788 -2.262027 28.586974 -1.221428 1.650007 0.052839 -0.021109 181673.000000 0 0 1
8.780166 -26.005958 -1.602227 27.494878 -1.245192 1.629103 0.049449 -0.020486 -605332.000000 0 0 1
8.074566 -26.944968 -0.818627 28.140720 -1.279643 1.599891 0.058818 -0.020849 51214.300000 0 0 1
7.291866 -26.337078 0.387273 27.330624 -1.300695 1.556626 0.065500 -0.016628 291770.000000 0 0 1
6.029466 -25.821828 0.008573 26.516436 -1.341404 1.570473 0.078908 -0.023401 -42966.700000 0 0 1
5.325766 -25.415958 1.192373 25.995317 -1.364241 1.524911 0.087042 -0.018203 90045.600000 0 0 1
3.892666 -24.895098 0.952373 25.215586 -1.415690 1.533018 0.052220 -0.023837 398643.000000 0 0 1
2.960566 -25.907608 0.612473 26.083409 -1.457016 1.547313 0.041719 -0.024878 -481268.000000 0 0 1
1.700966 -25.391668 0.315873 25.450538 -1.503907 1.558385 0.034431 -0.019410 134854.000000 0 0 1
0.574766 -26.436838 0.027273 26.443100 -1.549059 1.569765 0.034997 -0.019825 415844.000000 0 0 1
0.269166 -27.423028 1.005973 27.442794 -1.560981 1.534131 0.034327 -0.016449 -301247.000000 0 0 1
0.941766 -28.653458 0.841773 28.681286 -1.537941 1.541443 0.029559 -0.017770 -330679.000000 0 0 1
0.435466 -29.783218 1.683673 29.833948 -1.556176 1.514332 0.035375 -0.013421 -214195.000000 0 0 1
0.816266 -29.662178 3.029973 29.827703 -1.543285 1.469038 0.034168 -0.011932 58291.400000 0 0 1
0.340966 -30.716998 3.878173 30.962727 -1.559697 1.445214 0.037142 -0.014347 -34711.700000 0 0 1
0.515166 -30.411118 5.422773 30.895113 -1.553858 1.394360 0.042507 -0.015975 349894.000000 0 0 1
1.856366 -30.513938 5.907473 31.135908 -1.510035 1.379907 0.035605 -0.003723 464388.000000 0 0 1
1.878566 -30.527838 7.312973 31.447695 -1.509338 1.336104 0.043662 -0.001295 -653647.000000 0 0 1
3.206666 -31.037848 7.808273 32.165196 -1.467847 1.325591 0.053665 -0.004732 -462453.000000 0 0 1
3.447266 -32.412628 7.403173 33.425575 -1.464839 1.347462 0.044778 -0.011716 173629.000000 0 0 1
4.752866 -32.804078 7.808273 34.053875 -1.426911 1.339446 0.042813 -0.011012 369033.000000 0 0 1
5.059366 34.050262 7.548673 35.242020 1.423290 1.354928 0.038455 -0.006911 -272725.000000 0 0 1
4.962166 33.642146 6.258073 34.577168 1.424354 1.388805 0.032850 -0.003307 25807.100000 0 0 1
4.956166 32.227009 6.177173 33.185857 1.418203 1.383566 0.021113 -0.007566 -346609.000000 0 0 1
5.246866 31.683419 4.739873 32.462825 1.406683 1.424263 0.026738 -0.008891 1734760.000000 0 0 1
6.634466 31.672669 4.285673 32.642627 1.364312 1.439126 0.041863 -0.005631 1035830.000000 0 0 1
7.429666 30.596869 4.660973 31.829121 1.332582 1.423830 0.045787 -0.012722 -949154.000000 0 0 1
8.776166 30.615499 3.948673 32.092396 1.291625 1.447443 0.040833 -0.005542 -1376840.000000 0 0 1
9.570566 31.488439 4.626773 33.234388 1.275730 1.431126 0.039184 -0.016034 -1296810.000000 0 0 1
10.825566 31.487369 4.003273 33.536151 1.239650 1.451139 0.036815 -0.013878 -721377.000000 0 0 1
11.996266 31.978309 4.818573 34.492626 1.211905 1.430639 0.041274 -0.024013 -433018.000000 0 0 1
12.473966 30.994859 5.720673 33.897009 1.188177 1.401218 0.040889 -0.024327 -351114.000000 0 0 1
13.671366 31.389159 6.321873 34.815968 1.160029 1.388204 0.061348 -0.022162 -78774.800000 0 0 1
14.367066 30.276629 7.202673 34.277767 1.127734 1.359092 0.051976 -0.021180 -76048.800000 0 0 1
13.952166 30.274559 8.543673 34.412297 1.138953 1.319898 0.046899 -0.014825 229960.000000 0 0 1
14.537266 29.139969 9.155573 33.827421 1.108047 1.296723 0.034272 -0.009108 120154.000000 0 0 1
14.170766 29.106999 10.647073 34.079145 1.117723 1.253055 0.038939 -0.002980 195883.000000 0 0 1
14.794366 30.136509 11.419073 35.460931 1.114446 1.242936 0.042654 -0.012148 571228.000000 0 0 1
14.246366 29.967979 12.745173 35.545437 1.127033 1.204071 0.033716 -0.003387 135690.000000 0 0 1
14.923566 30.913089 13.784573 36.991165 1.121037 1.188939 0.042672 -0.009993 -636854.000000 0 0 1
16.221866 30.625419 14.135773 37.428402 1.083683 1.183512 0.037040 -0.009387 -876525.000000 0 0 1
16.793466 31.657049 14.896573 38.808467 1.083062 1.176836 0.044397 -0.010338 -768145.000000 0 0 1
18.005066 31.178309 15.669073 39.265623 1.047095 1.160312 0.038756 -0.009169 -607883.000000 0 0 1
19.127666 30.813099 14.901473 39.209292 1.015249 1.180946 0.046331 -0.008759 14618.400000 0 0 1
19.417366 29.462109 15.229973 38.431784 0.988077 1.163328 0.036773 -0.008707 1018100.000000 0 0 1
20.799766 28.861589 14.682373 38.486279 0.946330 1.179382 0.055046 -0.016501 834451.000000 0 0 1
21.929166 29.180669 15.404273 39.619331 0.926338 1.171460 0.072392 -0.015034 -263905.000000 0 0 1
23.148966 28.735099 14.809473 39.760546 0.892651 1.189131 0.079981 -0.016420 866902.000000 0 0 1
24.385366 29.000489 15.724073 41.023419 0.871632 1.177435 0.116864 -0.028452 208700.000000 0 0 1
24.460366 27.998839 16.743273 40.774767 0.852748 1.147653 0.083143 -0.023089 -41097.600000 0 0 1
25.580866 28.268999 17.565873 41.977100 0.835276 1.139044 0.098168 -0.029844 77835.500000 0 0 1
26.427466 26.972659 17.825973 41.757641 0.795607 1.129744 0.060556 -0.025859 8585.360000 0 0 1
25.805366 25.911769 18.548873 41.004846 0.787456 1.101389 0.049360 -0.012361 -2395.150000 0 0 1
25.600366 26.104389 19.916973 41.635365 0.795146 1.072002 0.081974 -0.018412 -461208.000000 0 0 1
24.950766 24.903329 20.506873 40.782942 0.784447 1.043927 0.076382 -0.012623 -454569.000000 0 0 1
25.812666 23.778589 20.617573 40.703800 0.744404 1.039644 0.040443 -0.008858 8108.320000 0 0 1
25.156766 22.569619 20.867973 39.720560 0.731243 1.017647 0.039413 -0.010476 -203875.000000 0 0 1
26.106366 21.373419 20.609473 39.536259 0.686043 1.022446 0.017169 -0.007540 -195234.000000 0 0 1
25.466866 20.148919 20.724073 38.523076 0.669341 1.002775 0.007606 0.017601 -300452.000000 0 0 1
26.314366 19.029819 20.701273 38.511330 0.626109 1.003283 0.014344 0.001503 -316909.000000 0 0 1
26.954566 18.572819 21.976073 39.426463 0.603333 0.979553 0.029631 0.010474 -248030.000000 0 0 1
26.014066 18.141919 22.942473 39.143555 0.608971 0.944546 0.014380 0.024592 -178052.000000 0 0 1
26.561766 17.656619 24.126173 39.991947 0.586666 0.923194 0.038460 0.026731 -357883.000000 0 0 1
25.551766 16.895719 24.985373 39.530076 0.584233 0.886588 0.031966 0.021746 -33534.500000 0 0 1
25.188966 15.643319 24.372373 38.382418 0.555746 0.882803 0.027607 0.011876 758967.000000 0 0 1
24.008166 15.040419 24.916373 37.728396 0.559656 0.849426 0.022783 0.013288 428903.000000 0 0 1
23.584666 13.677119 24.223973 36.470549 0.525521 0.844365 0.019458 0.015135 274634.000000 0 0 1
22.418266 13.123619 24.829673 35.934951 0.529614 0.807978 0.001133 0.013042 346544.000000 0 0 1
21.774366 12.259019 23.896973 34.575596 0.512771 0.807715 0.004156 0.007381 170861.000000 0 0 1
20.494666 11.612919 24.467673 33.964073 0.515522 0.766419 0.007775 0.004229 -119341.000000 0 0 1
19.339366 12.400619 24.542473 33.617248 0.570172 0.752392 0.014302 0.001159 -357984.000000 0 0 1
18.228766 11.562619 24.730073 32.826187 0.565263 0.717633 0.017559 -0.000480 -318010.000000 0 0 1
16.888166 12.262019 24.968273 32.542002 0.628010 0.696234 0.024824 -0.013947 -290329.000000 0 0 1
16.988766 13.023919 26.091473 33.749157 0.654053 0.687082 0.027023 -0.004739 -8112.670000 0 0 1
15.789366 13.679119 26.427173 33.687057 0.713910 0.668922 0.030943 -0.018793 -149206.000000 0 0 1
15.625466 13.956119 27.979673 34.954120 0.729026 0.642720 0.027324 -0.001652 -185244.000000 0 0 1
15.327866 12.778619 28.715973 34.969182 0.694946 0.607322 0.042155 -0.000188 -155196.000000 0 0 1
15.558166 12.900919 30.094173 36.251199 0.692297 0.591408 0.039776 -0.006162 634722.000000 0 0 1
17.057966 12.751019 30.551573 37.241929 0.641906 0.608766 0.044082 0.000445 178212.000000 0 0 1
17.845266 13.802719 30.173573 37.675099 0.658351 0.642018 0.037173 -0.009762 -1069380.000000 0 0 1
19.171466 13.411419 29.995073 38.040973 0.610425 0.662440 0.031529 -0.000201 -616410.000000 0 0 1
19.999166 14.659319 29.557273 38.581014 0.632530 0.698031 0.044228 -0.008148 -412515.000000 0 0 1
19.762266 15.261619 28.304273 37.743821 0.657596 0.722878 0.038126 -0.008353 213219.000000 0 0 1
20.002566 14.456419 27.149973 36.690758 0.625817 0.737774 0.030328 0.001508 -185273.000000 0 0 1
19.713466 15.366319 25.954073 36.032740 0.662105 0.766574 0.015632 0.001520 461929.000000 0 0 1
20.753666 16.360419 25.888073 36.994192 0.667575 0.795696 0.017517 0.001459 629410.000000 0 0 1
20.660666 16.868119 24.547673 36.248928 0.684683 0.826850 0.003456 -0.000585 -33938.600000 0 0 1
21.771366 17.888619 24.200173 37.143552 0.687808 0.861196 0.012025 0.000862 -226819.000000 0 0 1
21.723966 18.403719 22.859173 36.512592 0.702844 0.894303 0.018974 -0.004544 226211.000000 0 0 1
22.878266 19.161719 22.485073 37.365292 0.697222 0.925089 0.030720 -0.002928 261636.000000 0 0 1
23.081766 20.522119 23.168473 38.609628 0.726763 0.927208 0.051069 -0.016363 -209777.000000 0 0 1
22.070966 21.462819 22.862873 38.346983 0.771430 0.932024 0.049538 -0.013558 115054.000000 0 0 1
22.372566 22.770119 23.436173 39.601316 0.794205 0.937503 0.075435 -0.018125 -157338.000000 0 0 1
21.466466 23.894469 22.983973 39.497061 0.838873 0.949714 0.069335 -0.024308 250017.000000 0 0 1
21.992766 24.610199 21.834173 39.573662 0.841504 0.986353 0.070186 -0.020704 1427610.000000 0 0 1
20.954666 25.616519 21.619273 39.530963 0.885167 0.992146 0.078060 -0.020973 992423.000000 0 0 1
21.297666 26.451939 20.377573 39.604812 0.892926 1.030345 0.076664 -0.020086 31240.500000 0 0 1
21.269466 25.748029 19.188873 38.517061 0.880365 1.049285 0.061990 -0.017422 84446.800000 0 0 1
21.818166 26.542559 18.181773 38.873084 0.882780 1.084085 0.074217 -0.020555 -124119.000000 0 0 1
21.837066 25.870219 16.774673 37.782474 0.869737 1.110760 0.059778 -0.010781 -461110.000000 0 0 1
20.521566 25.720979 16.310973 36.725349 0.897366 1.110589 0.047174 -0.009468 -301372.000000 0 0 1
20.584966 25.330039 14.927373 35.891199 0.888377 1.141857 0.057217 -0.009219 -1375650.000000 0 0 1
19.247166 24.968349 14.336873 34.632611 0.914076 1.143985 0.060788 -0.014280 -936073.000000 0 0 1
18.373166 26.007839 14.025073 34.794878 0.955756 1.155918 0.057909 -0.010224 -72447.200000 0 0 1
17.655466 26.433479 15.198173 35.233914 0.981926 1.124807 0.052231 -0.006145 -571848.000000 0 0 1
16.134166 26.640279 14.935973 34.541266 1.026247 1.123633 0.049383 -0.005730 -278643.000000 0 0 1
15.362966 25.571389 14.474773 33.157740 1.029798 1.119044 0.056916 -0.011879 172141.000000 0 0 1
14.878266 24.604239 15.393173 32.614125 1.026926 1.079262 0.073067 -0.022391 -651467.000000 0 0 1
13.726366 25.015269 16.264573 32.843768 1.068937 1.052719 0.076881 -0.026297 -1119180.000000 0 0 1
14.157666 26.099679 17.070673 34.249680 1.073771 1.049023 0.066709 -0.025380 -163232.000000 0 0 1
13.251766 26.453509 18.033473 34.649727 1.106393 1.023418 0.059870 -0.028307 -648179.000000 0 0 1
13.912566 27.694279 18.669873 36.181441 1.105261 1.028614 0.050791 -0.035161 -120982.000000 0 0 1
13.901066 28.768589 17.751473 36.551144 1.120676 1.063677 0.047414 -0.025454 12791.500000 0 0 1
14.486366 29.882989 18.313773 37.924162 1.119407 1.066827 0.045359 -0.025512 -570130.000000 0 0 1
14.359566 31.268099 17.615873 38.655014 1.140285 1.097615 0.038330 -0.024462 -329156.000000 0 0 1
13.062666 31.802979 17.697173 38.668496 1.181068 1.095430 0.039086 -0.026071 -130764.000000 0 0 1
12.963266 33.134955 17.068573 39.462738 1.197876 1.123506 0.034164 -0.017160 -732328.000000 0 0 1
11.645666 33.799363 17.373473 39.747402 1.238982 1.118428 0.040556 -0.020289 -912620.000000 0 0 1
11.551266 -33.293468 16.637973 38.970616 -1.236839 1.129694 0.037353 -0.014933 602862.000000 0 0 1
12.409466 -32.141318 16.989173 38.414726 -1.202338 1.112683 0.038430 -0.013981 435500.000000 0 0 1
12.411366 -31.778768 18.547073 38.832023 -1.198458 1.072849 0.043461 -0.023627 -512400.000000 0 0 1
13.228366 -32.574168 19.330973 40.121723 -1.185043 1.068079 0.049071 -0.023866 124758.000000 0 0 1
12.777566 -32.505888 20.696873 40.598763 -1.196266 1.035855 0.044495 -0.026664 -110154.000000 0 0 1
13.858066 -33.114468 21.570473 41.879581 -1.174453 1.029719 0.043665 -0.020395 317419.000000 0 0 1
15.147866 -32.530208 21.502873 41.833549 -1.135000 1.030943 0.047836 -0.019222 98268.200000 0 0 1
16.123766 -33.131328 22.311373 43.075029 -1.117876 1.026326 0.056236 -0.014643 1556760.000000 0 0 1
17.520066 -32.337268 22.324773 43.023797 -1.074277 1.025240 0.079021 -0.021744 1453400.000000 0 0 1
17.519866 -31.066908 22.922873 42.397601 -1.057314 0.999570 0.091731 -0.021912 -246399.000000 0 0 1
18.579166 -30.314358 22.406373 42.026079 -1.020958 1.008472 0.086498 -0.020892 -214366.000000 0 0 1
-4.936334 12.948302 18.451373 23.075508 -1.206571 0.644153 0.018590 0.005171 -405543.000000 0 1 0
-4.705034 14.292702 18.154673 23.579881 -1.252778 0.692077 0.019997 0.006900 -517674.000000 0 1 0
-5.859534 14.910402 17.706073 23.878007 -1.196354 0.735460 0.016514 0.000438 -665208.000000 0 1 0
-5.697634 16.371202 17.389773 24.553685 -1.235880 0.783802 0.027915 -0.006425 -136169.000000 0 1 0
-5.336034 16.971802 18.596573 25.736119 -1.266176 0.763260 0.033497 0.003932 275211.000000 0 0 1
-4.872234 18.306602 18.411373 26.416831 -1.310680 0.799652 0.027558 0.008496 -186485.000000 0 0 1
-4.313434 18.986002 19.693873 27.693367 -1.347398 0.779677 0.031121 0.002744 -324681.000000 0 0 1
-5.315034 19.196802 20.637773 28.682476 -1.300692 0.767678 0.029344 0.007033 -449044.000000 0 0 1
-4.780334 19.848202 21.788873 29.858963 -1.334453 0.752875 0.035029 0.003746 -355239.000000 0 0 1
-5.816434 20.095002 22.869373 30.994325 -1.289049 0.740907 0.019300 0.007741 -354204.000000 0 0 1
-6.014534 19.004702 23.764663 31.017938 -1.264293 0.697954 0.011282 0.004062 -126810.000000 0 0 1
-6.489634 19.352402 25.089063 32.343343 -1.247241 0.682957 0.007785 -0.001486 -122850.000000 0 0 1
-5.482434 20.028602 26.027223 33.295920 -1.303611 0.673419 0.005830 -0.003257 -976028.000000 0 0 1
-5.289434 21.364702 25.619943 33.775880 -1.328098 0.709745 0.021752 -0.013980 368800.000000 0 0 1
-4.187034 21.988102 26.267273 34.510541 -1.382626 0.705731 0.029203 -0.000755 885738.000000 0 0 1
-2.729934 21.524702 25.974843 33.844612 -1.444642 0.695906 0.034228 0.010569 -333233.000000 0 0 1
-2.257134 20.396502 26.664993 33.647195 -1.460582 0.655919 0.045211 0.015052 -944193.000000 0 0 1
-1.023534 20.104002 26.125813 32.981458 -1.519928 0.656495 0.046804 0.021685 -903270.000000 0 0 1
-0.402534 18.820002 26.731623 32.694558 -1.549411 0.613537 0.050907 0.022177 -327114.000000 0 0 1
-1.110134 17.677302 26.318833 31.723813 -1.508079 0.592363 0.058745 0.017753 -241671.000000 0 0 1
-0.609334 16.429902 26.779743 31.423997 -1.533726 0.550608 0.052765 0.013419 -20473.000000 0 0 1
0.788866 16.067802 26.220463 30.762139 1.521740 0.550312 0.069613 0.015227 24553.700000 0 0 1
0.875666 16.007402 24.827923 29.553840 1.516147 0.573345 0.061498 0.009604 -172446.000000 0 0 1
0.529566 14.695102 24.359473 28.453653 1.534775 0.543100 0.074853 0.001607 -65066.400000 0 0 1
0.715966 14.542602 22.838273 27.084803 1.521604 0.567563 0.088952 -0.013762 -845859.000000 0 0 1
2.028166 14.213602 22.568573 26.748465 1.429061 0.566595 0.080199 -0.011511 -1043500.000000 0 0 1
2.162766 13.613802 21.302873 25.373717 1.413247 0.574315 0.069326 -0.019285 630580.000000 0 0 1
3.647766 13.427602 20.838273 25.056741 1.305536 0.588736 0.050135 -0.020667 659437.000000 0 0 1
4.202266 14.602102 20.341073 25.389755 1.290583 0.641577 0.057388 -0.009958 -475080.000000 0 0 1
5.584166 14.466302 20.141973 25.419596 1.202406 0.656096 0.045077 -0.013917 -34476.100000 0 0 1
6.274466 15.585802 19.327273 25.609170 1.188071 0.715598 0.061127 -0.021770 51474.400000 0 0 1
5.969766 15.510502 17.912673 24.435172 1.203387 0.747973 0.048299 -0.028547 -21815.100000 0 1 0
6.618666 16.533302 17.244673 24.789827 1.190011 0.801493 0.046637 -0.017735 -184432.000000 0 1 0
6.660466 16.134902 15.732273 23.498963 1.179306 0.837277 0.038340 -0.013328 388772.000000 0 1 0
7.607666 15.138002 15.285273 22.818309 1.105107 0.836764 0.034003 -0.012658 445875.000000 0 1 0
7.631166 13.862502 15.813673 22.371318 1.067577 0.785729 0.034631 -0.018509 -513115.000000 0 1 0
8.710466 13.004802 15.139873 21.776428 0.980636 0.802041 0.027582 -0.023059 -462089.000000 0 1 0
10.002666 13.505902 15.366073 22.772327 0.933329 0.830144 0.024734 -0.025417 -1063590.000000 0 1 0
10.774466 13.058002 14.332673 22.181660 0.880923 0.868268 0.020073 -0.021065 -629497.000000 0 1 0
12.146566 13.779502 14.320573 23.291469 0.848299 0.908611 0.027853 -0.013378 -163685.000000 0 1 0
12.924166 13.309102 15.439273 24.135812 0.800071 0.876710 0.043193 -0.029803 -200902.000000 0 1 0
14.184466 13.921402 15.478473 25.191023 0.776039 0.909115 0.051573 -0.024671 -503204.000000 0 0 1
15.288266 13.077402 14.831573 24.994501 0.707614 0.935528 0.040530 -0.026487 -1565560.000000 0 1 0
16.562566 13.573802 15.050073 26.173868 0.686547 0.958188 0.055676 -0.039936 -552825.000000 0 0 1
17.399166 13.030502 14.068973 25.893261 0.642807 0.996380 0.057128 -0.038292 685078.000000 0 0 1
18.866666 13.603302 13.942273 27.118036 0.624697 1.030800 0.064155 -0.037220 896148.000000 0 0 1
19.719566 13.361202 15.016173 28.157920 0.595507 1.008318 0.035339 -0.035656 -365460.000000 0 0 1
21.007866 13.850102 14.743673 29.163876 0.582872 1.040782 0.044886 -0.035861 -433660.000000 0 0 1
22.015066 13.530502 15.828173 30.302948 0.551087 1.021214 0.040282 -0.021316 -510647.000000 0 0 1
22.425766 12.192002 16.015773 30.134115 0.497963 1.010446 0.049016 -0.020610 69014.300000 0 0 1
23.234366 12.051302 17.142273 31.287812 0.478483 0.990957 0.034524 -0.017729 -348827.000000 0 0 1
23.636566 10.591402 17.371473 31.187067 0.421268 0.980016 0.050473 -0.013285 -329578.000000 0 0 1
22.572466 9.845402 17.923673 30.458270 0.411292 0.941635 0.028463 -0.007641 392721.000000 0 0 1
22.669766 8.549102 17.424273 29.843102 0.360623 0.947318 0.028725 0.001824 -261580.000000 0 0 1
21.432766 7.727602 17.790773 28.906589 0.346043 0.907830 0.051860 -0.001193 -295717.000000 0 0 1
21.476566 6.356002 17.461973 28.400038 0.287738 0.908591 0.062280 -0.000113 18851.300000 0 0 1
20.265266 5.720702 17.789173 27.565596 0.275132 0.869328 0.060921 -0.002587 -252698.000000 0 0 1
20.061666 4.324502 17.167473 26.756193 0.212312 0.874180 0.091714 0.002138 -699409.000000 0 0 1
18.973366 4.389002 16.271273 25.377279 0.227326 0.874768 0.086361 -0.009073 262154.000000 0 0 1
18.557666 3.126402 15.803873 24.574860 0.166902 0.872268 0.080457 -0.011813 331646.000000 0 1 0
17.692966 2.235302 16.783173 24.489028 0.125673 0.815734 0.092436 -0.003088 67661.900000 0 1 0
18.444866 1.595302 17.789173 25.675139 0.086276 0.805354 0.101046 -0.011297 -210626.000000 0 0 1
17.552966 1.053902 18.697773 25.667568 0.059969 0.754726 0.076230 -0.009865 -431806.000000 0 0 1
18.164866 0.194402 19.819373 26.885083 0.010702 0.741897 0.088270 -0.021692 -339076.000000 0 0 1
18.448266 -1.119398 19.411373 26.802854 -0.060603 0.760882 0.087851 -0.024416 -54704.900000 0 0 1
17.383666 -2.027998 19.610673 26.284655 -0.116136 0.728629 0.072584 -0.009987 -61865.700000 0 0 1
17.586166 -3.475598 18.986573 26.112123 -0.195118 0.756683 0.053780 -0.005921 -218615.000000 0 0 1
17.396466 -3.623198 17.615673 25.021521 -0.205337 0.789753 0.067167 -0.011079 197884.000000 0 0 1
17.448066 -4.994798 17.151073 24.970829 -0.278810 0.813658 0.071758 -0.013906 -168744.000000 0 1 0
16.938166 -5.047198 15.682273 23.628571 -0.289601 0.845042 0.064235 -0.009982 90696.500000 0 1 0
15.546066 -4.788998 15.539673 22.496580 -0.298828 0.808261 0.041819 -0.010993 368885.000000 0 1 0
15.159866 -4.570898 14.172373 21.250195 -0.292844 0.840717 0.038111 -0.015673 185907.000000 0 1 0
15.732966 -3.343498 13.467073 20.977780 -0.209400 0.873734 0.046811 -0.009424 -259450.000000 0 1 0
14.941366 -2.190698 13.679873 20.376028 -0.145582 0.834739 0.037049 -0.004305 257826.000000 0 1 0
15.515466 -0.993498 13.145573 20.359833 -0.063945 0.868906 0.042481 -0.009816 -285521.000000 0 1 0
14.550966 0.199502 13.120873 19.594074 0.013710 0.837079 0.044507 -0.007339 -471342.000000 0 1 0
14.925666 1.500702 12.560773 19.565291 0.100208 0.873702 0.054760 -0.010904 478467.000000 0 1 0
15.943966 2.219902 13.290973 20.875535 0.138342 0.880615 0.077485 -0.017791 537325.000000 0 1 0
16.225066 3.732102 12.824273 21.015312 0.226088 0.914440 0.076428 -0.014507 529124.000000 0 1 0
15.132766 4.574502 13.202473 20.596892 0.293557 0.875004 0.067144 -0.011775 860788.000000 0 1 0
15.416866 5.829302 12.610673 20.753062 0.361496 0.917694 0.081371 -0.015522 1272740.000000 0 1 0
14.121466 6.749602 12.698673 20.155129 0.445867 0.889183 0.065569 -0.018868 1093440.000000 0 1 0
14.416866 8.080502 12.206073 20.545772 0.510861 0.934660 0.051028 -0.017706 787599.000000 0 1 0
13.264066 8.927202 12.269773 20.153851 0.592400 0.916242 0.036525 -0.014924 -26669.700000 0 1 0
13.286666 9.836602 13.546373 21.372844 0.637288 0.884324 0.023101 -0.020617 -269058.000000 0 1 0
13.167066 9.055702 14.742973 21.742415 0.602460 0.825657 0.048888 -0.022641 588722.000000 0 1 0
13.618766 9.776502 15.861273 23.078794 0.622619 0.813078 0.053797 -0.027368 -203442.000000 0 1 0
13.275566 9.061802 17.178573 23.525736 0.598947 0.752177 0.057598 -0.033664 43892.100000 0 1 0
11.927266 9.241602 17.571673 23.160971 0.659204 0.709518 0.040009 -0.035399 -31658.500000 0 1 0
11.426166 8.576402 18.701973 23.534564 0.643881 0.652349 0.048012 -0.024016 -215093.000000 0 1 0
11.986166 8.871602 20.115473 25.040083 0.637169 0.637929 0.058365 -0.026309 -380977.000000 0 0 1
13.371766 8.606402 20.174973 25.688593 0.571881 0.667508 0.069180 -0.026983 -60514.300000 0 0 1
13.726066 9.128102 21.480973 27.076915 0.586861 0.654534 0.062025 -0.008548 426488.000000 0 0 1
15.261366 9.020202 21.801973 28.099810 0.533811 0.682694 0.057053 -0.012419 402613.000000 0 0 1
15.985066 9.870702 21.029673 28.199295 0.553184 0.729134 0.062109 -0.008286 -546810.000000 0 0 1
16.825866 9.122602 20.166973 27.803569 0.496817 0.759272 0.047603 -0.023151 327814.000000 0 0 1
17.771666 10.056802 19.273973 28.079484 0.514961 0.814259 0.058176 -0.021641 218682.000000 0 0 1
18.686366 10.785502 20.026573 29.437577 0.523475 0.822616 0.041750 -0.025974 128458.000000 0 0 1
19.639366 11.418502 19.165573 29.722148 0.526637 0.870003 0.045892 -0.025201 878824.000000 0 0 1
20.621266 12.385402 19.952273 31.252648 0.540870 0.878354 0.026758 -0.019063 -293816.000000 0 0 1
19.952766 13.526602 20.367873 31.558391 0.595761 0.869246 0.026181 -0.019542 -102034.000000 0 0 1
20.674966 14.359802 21.240573 32.936607 0.607059 0.869914 0.008057 -0.007325 42118.100000 0 0 1
22.022566 14.995202 20.780973 33.789027 0.597793 0.908383 -0.002237 0.003439 606884.000000 0 0 1
23.090166 14.072602 20.697873 34.052839 0.547349 0.917489 -0.012553 0.010918 -84843.200000 0 0 1
24.394566 14.607902 20.765173 35.209062 0.539550 0.940025 0.006927 0.007652 364884.000000 0 0 1
25.443166 13.453502 20.759773 35.486893 0.486395 0.945918 0.019476 -0.000298 7175.840000 0 0 1
25.638766 12.863002 19.498173 34.684029 0.465008 0.973794 0.029237 -0.017232 -17402.500000 0 0 1
26.803766 12.080202 19.557073 35.310795 0.423428 0.983809 0.054813 -0.029476 -56308.400000 0 0 1
27.211466 11.471002 18.185173 34.680662 0.398945 1.018832 0.069623 -0.025217 -280571.000000 0 0 1
27.616266 12.487902 17.282073 34.889481 0.424677 1.052573 0.072294 -0.035117 88304.200000 0 0 1
27.810466 11.896902 15.990773 34.214955 0.404227 1.084492 0.077781 -0.035770 -567562.000000 0 0 1
26.657366 11.607802 15.041473 32.735335 0.410684 1.093378 0.064183 -0.040417 -446783.000000 0 0 1
26.161866 12.632902 14.175573 32.326155 0.449854 1.116848 0.081790 -0.044407 302560.000000 0 0 1
25.131166 12.133102 13.323873 30.924315 0.449786 1.125357 0.082170 -0.033663 235050.000000 0 0 1
24.688166 13.194902 12.280373 30.568260 0.490836 1.157384 0.068130 -0.036985 -423956.000000 0 0 1
23.903466 14.218902 12.816373 30.623721 0.536622 1.138991 0.052708 -0.028028 -63032.300000 0 0 1
24.359966 15.580902 12.653673 31.564028 0.569037 1.158309 0.045887 -0.023204 -220511.000000 0 0 1
23.394066 16.669602 13.151173 31.592900 0.619104 1.141457 0.049412 -0.027855 8624.360000 0 0 1
22.112566 16.708102 12.568573 30.431813 0.647071 1.145042 0.069487 -0.051007 237290.000000 0 0 1
21.429666 17.902102 12.902573 30.760238 0.695950 1.137950 0.063170 -0.047983 -550080.000000 0 0 1
20.459066 18.416602 11.791573 29.946382 0.732908 1.166082 0.074931 -0.030859 651538.000000 0 0 1
19.299766 17.690202 11.400473 28.555122 0.741912 1.160104 0.088091 -0.039089 814010.000000 0 0 1
18.367966 17.441502 12.474973 28.234963 0.759532 1.113162 0.079343 -0.029515 -739859.000000 0 0 1
17.041066 16.833102 12.031573 26.805037 0.779259 1.105313 0.082407 -0.026657 -456580.000000 0 0 1
17.042066 15.465502 11.585573 25.765078 0.736938 1.104410 0.076763 -0.032197 507880.000000 0 0 1
15.710266 15.171602 11.156473 24.524617 0.767957 1.098526 0.064779 -0.027311 633232.000000 0 1 0
15.654566 13.878902 10.367973 23.349180 0.725347 1.110694 0.059598 -0.026353 -55909.400000 0 1 0
15.830366 12.708902 11.151673 23.161962 0.676457 1.068471 0.056101 -0.019813 457670.000000 0 1 0
16.253866 11.639002 10.302273 22.489806 0.621434 1.094955 0.051408 -0.015962 47267.600000 0 1 0
16.860066 10.402002 11.117273 22.716893 0.552797 1.059414 0.072156 -0.019709 -1249940.000000 0 1 0
17.613966 9.516902 10.323273 22.525390 0.495369 1.094720 0.080336 -0.014007 24470.000000 0 1 0
18.264566 8.480202 10.924973 22.909894 0.434680 1.073709 0.104874 -0.015329 122563.000000 0 1 0
19.470766 8.994302 11.763373 24.461912 0.432738 1.069132 0.088411 -0.023147 -718426.000000 0 1 0
18.980366 9.659702 12.934073 24.916950 0.470767 1.025014 0.074838 -0.025919 408323.000000 0 1 0
20.056566 9.775602 13.858573 26.265724 0.453518 1.014989 0.077667 -0.016494 -560191.000000 0 0 1
19.550766 10.107602 15.276473 26.791168 0.477149 0.964040 0.056977 -0.020146 68388.200000 0 0 1
18.888666 9.087602 16.038873 26.393402 0.448425 0.917654 0.062213 -0.010022 1783320.000000 0 0 1
17.613566 8.729302 15.416673 24.982238 0.460122 0.905738 0.076268 -0.018330 317903.000000 0 1 0
16.962266 7.397802 15.792773 24.328124 0.411262 0.864321 0.073482 -0.012031 -786425.000000 0 1 0
16.486766 7.402502 17.123373 24.896192 0.422019 0.812355 0.092997 -0.016840 312468.000000 0 1 0
15.929266 6.157602 17.568273 24.501057 0.368866 0.771248 0.091948 0.002121 526163.000000 0 1 0
14.684066 5.588202 16.814373 23.012452 0.363638 0.751502 0.092106 -0.026937 -287769.000000 0 1 0
14.363866 4.321302 17.320173 22.912501 0.292232 0.713728 0.104502 -0.013893 41720.400000 0 1 0
13.652066 3.582202 16.357373 21.604970 0.256608 0.711916 0.083107 -0.012957 -67589.100000 0 1 0
13.262166 2.107702 16.724473 21.448437 0.157608 0.676526 0.061764 -0.012013 534308.000000 0 1 0
14.412166 1.249302 16.703773 22.097224 0.086468 0.713735 0.051972 -0.010856 635595.000000 0 1 0
14.109666 -0.130798 16.831673 21.963720 -0.009270 0.697672 0.047422 0.002047 -68818.700000 0 1 0
13.309866 -0.808198 18.009173 22.408392 -0.060647 0.637343 0.043150 -0.006363 -21457.300000 0 1 0
11.962466 -0.459498 17.885373 21.522042 -0.038393 0.589847 0.039159 0.002974 -1201280.000000 0 1 0
11.135066 -1.297498 18.571273 21.692519 -0.116001 0.543093 0.035497 -0.011978 -562168.000000 0 1 0
-26.060124 13.961002 28.830953 41.294835 -0.491816 0.797953 0.086516 -0.011741 -634351.000000 0 0 1
-24.900134 13.956602 29.599633 41.121061 -0.510871 0.767258 0.077918 -0.012773 -83429.100000 0 0 1
-24.352334 12.635402 29.619903 40.373607 -0.478620 0.747126 0.061687 -0.006387 -121392.000000 0 0 1
-23.050134 12.569502 30.432573 40.192568 -0.499236 0.711828 0.039101 -0.012820 -319349.000000 0 0 1
-23.271834 12.828202 31.820253 41.456839 -0.503789 0.695784 0.034494 -0.016827 185267.000000 0 0 1
-22.098234 12.853302 32.617644 41.442128 -0.526813 0.664760 0.008582 -0.008615 -362868.000000 0 0 1
-22.503334 13.165602 34.054749 42.888914 -0.529355 0.653399 0.016187 0.005299 -73595.100000 0 0 1
-23.130134 12.104702 -33.583677 42.536928 -0.482137 2.480820 0.014352 -0.002992 262347.000000 0 0 1
-23.324534 12.478102 -32.177827 41.655125 -0.491237 2.453536 -0.004704 0.006544 -39052.800000 0 0 1
-24.226134 11.543502 -31.300707 41.229750 -0.444663 2.432845 -0.003984 -0.002102 -42813.700000 0 0 1
-23.667134 10.387202 -30.694167 40.126788 -0.413574 2.441728 0.000936 -0.005106 121482.000000 0 0 1
-23.497234 9.277102 -31.550337 40.417922 -0.376030 2.466426 0.002989 -0.004851 -227051.000000 0 0 1
-22.856534 8.113402 -30.741407 39.157152 -0.341096 2.473618 0.013151 -0.000617 -679349.000000 0 0 1
-23.668134 7.372902 -29.882937 38.826926 -0.301984 2.449081 0.017141 -0.001607 -147908.000000 0 0 1
-22.927834 6.611102 -28.963747 37.527202 -0.280729 2.452474 0.020880 0.002280 -170687.000000 0 0 1
-23.787534 5.870602 -27.891827 37.124988 -0.241958 2.420819 0.034171 -0.003098 350859.000000 0 0 1
-24.458234 4.674802 -28.389687 37.762856 -0.188856 2.421567 0.035803 -0.009798 479983.000000 0 0 1
-24.982834 3.899202 -27.334747 37.236194 -0.154826 2.395123 0.067018 -0.009705 -443824.000000 0 0 1
-25.696674 2.559302 -27.805647 37.947636 -0.099269 2.393132 0.062094 -0.008162 592007.000000 0 0 1
-27.041774 2.620102 -28.243037 39.189177 -0.096589 2.375586 0.060732 -0.008709 221505.000000 0 0 1
-27.280924 3.458602 -29.375807 40.238648 -0.126105 2.389176 0.064800 -0.011283 -701174.000000 0 0 1
-28.734834 3.303602 -29.870187 41.579232 -0.114466 2.372284 0.059674 -0.014090 -1107540.000000 0 0 1
-29.677724 3.766402 -28.958177 41.635671 -0.126235 2.339931 0.053239 -0.015395 -234939.000000 0 0 1
-30.995964 3.706802 -29.469967 42.929816 -0.119025 2.327418 0.061038 -0.018991 226379.000000 0 0 1
-31.320934 4.941302 -30.354907 43.895760 -0.156474 2.334391 0.059081 -0.029085 -729279.000000 0 0 1
-30.471434 5.087102 -31.511877 44.129189 -0.165421 2.366109 0.067487 -0.024988 408298.000000 0 0 1
-30.572484 6.357902 -32.161047 44.826696 -0.205039 2.370935 0.074363 -0.024938 -627291.000000 0 0 1
-30.067094 7.636802 -31.453007 44.177398 -0.248732 2.363097 0.050149 -0.014822 373752.000000 0 0 1
-28.670074 7.950802 -31.346987 43.218306 -0.270522 2.382292 0.036311 -0.017880 1152420.000000 0 0 1
-27.980434 7.317602 -30.245157 41.847599 -0.255797 2.378563 0.025880 -0.019870 -50490.600000 0 0 1
-28.116274 8.090702 -28.913057 41.133310 -0.280189 2.350278 0.027916 -0.015307 469590.000000 0 0 1
-29.462814 8.179302 -28.428727 41.751059 -0.270795 2.319801 0.028752 -0.020819 986384.000000 0 0 1
-29.955874 7.182702 -27.521977 41.308653 -0.235333 2.299968 0.022095 -0.013363 -278491.000000 0 0 1
-31.275724 7.579002 -26.841217 41.905407 -0.237746 2.265970 -0.009055 -0.008924 -309839.000000 0 0 1
-31.279754 8.475602 -25.789657 41.416968 -0.264608 2.242964 -0.020544 -0.008436 -44923.100000 0 0 1
-31.034344 7.870102 -24.539127 40.339035 -0.248358 2.224741 -0.005582 -0.010041 -60856.600000 0 0 1
-30.533804 8.822602 -23.452927 39.499257 -0.281284 2.206515 0.007878 -0.006834 -57094.000000 0 0 1
-31.470044 9.831902 -23.196327 40.312523 -0.302813 2.183905 0.013179 -0.007104 845237.000000 0 0 1
-30.743474 10.761602 -22.333827 39.493963 -0.336715 2.171835 0.015293 -0.010295 655565.000000 0 0 1
-31.693704 11.636102 -21.472927 40.012202 -0.351864 2.137270 0.010185 -0.007322 44043.200000 0 0 1
-32.189924 10.920202 -20.353327 39.619439 -0.327060 2.110312 0.016558 -0.014730 -3075.260000 0 0 1
-32.881474 11.665902 -19.395927 39.918499 -0.340933 2.078175 0.007288 -0.007321 -302664.000000 0 0 1
-32.039484 12.653402 -18.525327 39.112975 -0.376129 2.064211 0.014991 -0.006749 379017.000000 0 0 1
-31.218944 12.080502 -17.462327 37.755713 -0.369215 2.051618 0.049803 -0.017111 1066970.000000 0 0 1
-31.938974 11.563002 -16.310527 37.680689 -0.347355 2.018461 0.040770 -0.014762 399279.000000 0 0 1
-32.586944 12.594902 -15.297427 38.138586 -0.368816 1.983515 0.027609 -0.006808 551753.000000 0 0 1
-33.267394 13.722302 -15.918027 39.349773 -0.391223 1.987257 0.020316 -0.006263 1046790.000000 0 0 1
-34.207351 14.356802 -15.020927 40.023604 -0.397372 1.955519 0.006986 -0.001509 700835.000000 0 0 1
-35.016725 15.542202 -15.656827 41.386801 -0.417728 1.958761 -0.000494 0.005371 475867.000000 0 0 1
-35.895893 15.157902 -16.717527 42.399915 -0.399559 1.976083 0.014471 -0.005336 487241.000000 0 0 1
36.321288 16.298102 -17.270127 43.394946 0.421789 1.980105 0.024668 -0.006694 -393389.000000 0 0 1
35.859048 16.054302 -18.747327 43.532450 0.420944 2.016011 0.029610 -0.012242 -63395.400000 0 0 1
34.721948 15.232902 -18.896027 42.364074 0.413426 2.033131 0.053393 -0.022442 832343.000000 0 0 1
33.546378 16.094302 -18.886127 41.726153 0.447327 2.040499 0.093794 -0.033453 354015.000000 0 0 1
32.258258 15.315902 -19.273227 40.578681 0.443277 2.065714 0.101473 -0.037759 -61534.000000 0 0 1
32.134408 14.973302 -20.650627 41.027653 0.436046 2.098250 0.103202 -0.041481 563614.000000 0 0 1
31.241218 13.850802 -20.883927 40.049929 0.417310 2.119343 0.080870 -0.035210 183549.000000 0 0 1
31.784198 12.459302 -20.518827 39.830788 0.373588 2.111979 0.070707 -0.005600 -93601.600000 0 0 1
31.811818 12.243602 -19.113027 39.079475 0.367401 2.081832 0.074972 -0.004966 187714.000000 0 0 1
32.552698 11.086802 -18.770027 39.177918 0.328258 2.070422 0.051072 -0.005483 -101670.000000 0 0 1
32.671548 10.835702 -17.292627 38.521130 0.320240 2.036345 0.049028 0.000947 -174372.000000 0 0 1
31.428938 10.432402 -16.750227 37.110420 0.320493 2.039087 0.055429 0.001020 116439.000000 0 0 1
31.555838 10.037202 -15.356327 36.501138 0.307958 2.005022 0.030306 -0.001056 -62472.200000 0 0 1
31.016238 11.021602 -14.281327 35.880901 0.341432 1.980154 0.042521 -0.007090 484311.000000 0 0 1
29.582548 11.099602 -14.277627 34.672452 0.358953 1.995209 0.054587 -0.005793 933921.000000 0 0 1
29.106358 12.057802 -13.325927 34.207470 0.392745 1.970952 0.063093 -0.007380 -221249.000000 0 0 1
27.584288 12.004802 -13.158027 32.835071 0.410482 1.983111 0.086563 -0.008115 -869824.000000 0 0 1
27.104788 10.877402 -12.467627 31.755773 0.381635 1.974264 0.062343 -0.015617 14140.700000 0 0 1
25.705288 10.749502 -12.661927 30.604542 0.396082 1.997340 0.074455 -0.003838 127965.000000 0 0 1
25.312988 10.024002 -13.999827 30.614100 0.377055 2.045753 0.076727 -0.016370 -1091250.000000 0 0 1
25.717388 8.656302 -14.131827 30.594512 0.324682 2.050941 0.074085 -0.015480 868245.000000 0 0 1
26.974388 8.534902 -14.808627 31.933644 0.306441 2.052998 0.071691 -0.017477 603949.000000 0 0 1
28.080548 7.774202 -14.026327 32.337180 0.270089 2.019449 0.074598 -0.013744 -235375.000000 0 0 1
27.838688 6.388302 -13.831127 31.734887 0.225570 2.021761 0.059993 -0.026019 854665.000000 0 0 1
26.827288 5.986902 -12.873427 30.352455 0.219567 2.008799 0.059556 -0.024802 402078.000000 0 0 1
26.539588 4.472702 -12.981227 29.880881 0.166961 2.020205 0.064348 -0.022695 126688.000000 0 0 1
25.646888 4.018402 -11.954527 28.580083 0.155418 2.002349 0.062900 -0.023647 649602.000000 0 0 1
25.411088 2.638002 -12.089227 28.263614 0.103442 2.012778 0.066468 -0.026885 -286615.000000 0 0 1
24.441988 2.040402 -11.044027 26.898783 0.083286 1.993883 0.087072 -0.023771 -155700.000000 0 0 1
25.011088 1.738502 -9.756727 26.902986 0.069398 1.941921 0.083183 -0.016037 1033060.000000 0 0 1
23.999588 1.383702 -8.813727 25.604231 0.057591 1.922214 0.089465 -0.005850 -7812.280000 0 0 1
24.665588 1.096102 -7.428327 25.783187 0.044409 1.863046 0.092837 -0.003303 143132.000000 0 0 1
24.940188 -0.246598 -7.016627 25.909590 -0.009887 1.845033 0.071510 -0.011531 485810.000000 0 0 1
25.919488 -0.945998 -7.746327 27.068808 -0.036481 1.861025 0.075178 -0.007968 -437193.000000 0 0 1
26.214988 -2.377198 -7.135427 27.272532 -0.090434 1.835511 0.070243 -0.017656 -160099.000000 0 0 1
26.773488 -2.322198 -5.814727 27.495878 -0.086518 1.783882 0.094770 -0.035620 598176.000000 0 0 1
26.856588 -3.646098 -5.236627 27.604214 -0.134937 1.761657 0.095506 -0.046935 -677740.000000 0 0 1
28.228428 -4.021998 -4.648627 28.889970 -0.141528 1.732407 0.102829 -0.044034 -739232.000000 0 0 1
29.155338 -4.021198 -5.695327 29.977333 -0.137059 1.761946 0.091137 -0.027098 -272812.000000 0 0 1
30.401518 -4.414798 -5.154127 31.149763 -0.144208 1.737024 0.089430 -0.030895 137168.000000 0 0 1
31.548898 -4.552998 -6.200427 32.473190 -0.143326 1.762916 0.092497 -0.024184 33161.900000 0 0 1
31.492408 -5.741998 -6.933627 32.753893 -0.180349 1.784099 0.083366 -0.016242 25874.900000 0 0 1
32.278678 -5.684398 -8.104327 33.762487 -0.174316 1.813203 0.080599 -0.021110 -715872.000000 0 0 1
31.762228 -6.679698 -9.203327 33.736608 -0.207283 1.847098 0.075983 -0.014558 889741.000000 0 0 1
30.450638 -6.460598 -9.736427 32.615620 -0.209066 1.873938 0.075863 -0.011156 1412450.000000 0 0 1
29.393838 -6.791998 -8.802327 31.426261 -0.227083 1.854689 0.084377 -0.013125 1165360.000000 0 0 1
28.055728 -5.900398 -8.930127 30.028082 -0.207289 1.872757 0.080659 -0.009502 1021790.000000 0 0 1
27.358088 -6.133298 -10.143727 29.815726 -0.220539 1.917941 0.057925 -0.006166 528009.000000 0 0 1
26.109188 -5.477398 -10.172927 28.551358 -0.206789 1.935104 0.064164 -0.011454 344111.000000 0 0 1
24.833388 -6.142398 -9.602127 27.324477 -0.242478 1.929874 0.076506 -0.005912 -722981.000000 0 0 1
24.852688 -6.497898 -8.210527 26.968343 -0.255732 1.880158 0.072805 -0.015106 421850.000000 0 0 1
23.639888 -7.144398 -7.893827 25.926805 -0.293490 1.880174 0.066632 -0.020349 -519457.000000 0 0 1
22.588388 -6.216498 -7.300227 24.539222 -0.268559 1.872861 0.075891 -0.018744 -583339.000000 0 1 0
21.922788 -5.423798 -8.283527 24.055000 -0.242534 1.922351 0.070254 -0.014235 445217.000000 0 1 0
21.673588 -4.138098 -7.829227 23.412925 -0.188658 1.911762 0.063507 -0.014573 -155320.000000 0 1 0
21.665688 -3.064298 -8.985227 23.654308 -0.140504 1.960437 0.069668 -0.007957 485024.000000 0 1 0
22.943088 -2.823598 -9.599627 25.030198 -0.122454 1.964403 0.065028 -0.004456 1003850.000000 0 0 1
22.903388 -2.299398 -10.942727 25.487167 -0.100060 2.014561 0.074825 -0.001020 -462591.000000 0 0 1
24.266688 -2.280698 -11.637427 27.009321 -0.093709 2.016250 0.068711 -0.006829 -94333.700000 0 0 1
25.266588 -1.403398 -11.136927 27.647805 -0.055487 1.985386 0.068067 -0.006340 93580.200000 0 0 1
26.423488 -1.482098 -11.882227 29.010078 -0.056031 1.992801 0.067833 -0.001956 -935241.000000 0 0 1
27.444988 -0.370898 -11.550927 29.779000 -0.013513 1.969136 0.051456 -0.000747 86959.100000 0 0 1
28.757418 -0.790198 -11.961227 31.155809 -0.027471 1.964830 0.054140 -0.003395 966557.000000 0 0 1
29.768568 0.195502 -11.827927 32.032885 0.006567 1.948991 0.053480 -0.010135 70345.400000 0 0 1
29.775348 1.383902 -12.770827 32.428083 0.046445 1.975580 0.055440 -0.014041 -578409.000000 0 0 1
30.219998 1.208902 -14.117127 33.376683 0.039982 2.007510 0.058276 -0.014219 444184.000000 0 0 1
30.147668 2.411402 -14.872227 33.702817 0.079816 2.027816 0.054651 -0.014220 -102901.000000 0 0 1
30.370768 2.151802 -16.407027 34.586187 0.070733 2.065057 0.050234 -0.013198 205221.000000 0 0 1
29.246058 1.600702 -17.073627 33.902845 0.054678 2.098562 0.057966 -0.010190 -58546.000000 0 0 1
29.516778 1.604602 -18.464827 34.853476 0.054309 2.129143 0.044539 -0.003427 -181207.000000 0 0 1
28.414628 1.078002 -19.383627 34.413343 0.037920 2.169121 0.048113 -0.002976 -313818.000000 0 0 1
28.075548 -0.326998 -19.184427 34.005670 -0.011647 2.170204 0.055122 -0.002225 277273.000000 0 0 1
28.065518 -1.046098 -20.370127 34.694520 -0.037256 2.198303 0.048651 -0.003234 -110017.000000 0 0 1
27.830818 -2.514698 -20.085527 34.413755 -0.090112 2.194011 0.051926 -0.011877 358767.000000 0 0 1
26.476888 -2.874098 -19.809127 33.191679 -0.108128 2.210316 0.052962 -0.009560 592073.000000 0 0 1
26.240288 -4.241098 -19.802027 33.146039 -0.160240 2.211073 0.053603 -0.011686 -163013.000000 0 0 1
26.857788 -5.132698 -18.648727 33.097740 -0.188830 2.169345 0.040631 -0.002226 421032.000000 0 0 1
28.236048 -5.368198 -18.910227 34.404777 -0.187876 2.152729 0.034384 -0.002595 580146.000000 0 0 1
29.065438 -5.253098 -17.747827 34.458382 -0.178803 2.111864 0.032692 0.004388 150336.000000 0 0 1
30.576038 -5.205998 -18.002227 35.861912 -0.168647 2.096691 0.041304 0.002250 -165483.000000 0 0 1
31.158328 -6.336698 -18.612427 36.843149 -0.200635 2.100387 0.026033 0.006380 562544.000000 0 0 1
32.567288 -6.181598 -18.772627 38.095301 -0.187579 2.086079 0.037732 0.011020 243292.000000 0 0 1
33.245038 -7.303398 -19.450927 39.203453 -0.216249 2.089959 0.024324 0.019606 -489709.000000 0 0 1
33.455988 -8.446598 -18.640427 39.218792 -0.247301 2.066094 0.017510 0.012216 -98344.600000 0 0 1
34.201018 -9.385998 -19.328627 40.390623 -0.267842 2.069790 0.011452 0.017273 -387924.000000 0 0 1
35.026488 -10.278798 -18.391827 40.875027 -0.285444 2.037509 0.016597 0.008908 -596528.000000 0 0 1
34.199768 -11.029898 -17.538927 39.986207 -0.311982 2.024864 0.007297 0.004178 185225.000000 0 0 1
34.905748 -11.799198 -16.577727 40.403631 -0.325972 1.993583 0.029598 -0.007280 -369915.000000 0 0 1
35.615278 -10.984898 -15.410727 40.331210 -0.299175 1.962869 0.056573 -0.009641 -560254.000000 0 0 1
35.951328 -11.690698 -14.224527 40.391925 -0.314396 1.930677 0.040999 -0.015075 -97104.700000 0 0 1
-36.118084 -12.802298 -14.364927 40.923904 0.340640 1.929452 0.043238 -0.014776 -258183.000000 0 0 1
-34.636140 -12.614198 -14.833827 39.734401 0.349261 1.953386 0.057272 -0.017789 -91963.000000 0 0 1
-34.648984 -12.445398 -16.243327 40.240349 0.344834 1.986308 0.049261 -0.010656 -474330.000000 0 0 1
-33.374314 -12.653898 -16.785627 39.442658 0.362405 2.010388 0.073925 -0.019631 -157705.000000 0 0 1
-33.282194 -11.803498 -18.005727 39.638784 0.340810 2.042321 0.087609 -0.019223 184381.000000 0 0 1
-33.192374 -10.393798 -17.803127 39.073214 0.303466 2.043882 0.075880 -0.020551 343665.000000 0 0 1
-34.137129 -9.660998 -18.585627 40.051267 0.275794 2.053354 0.061785 -0.009584 39720.800000 0 0 1
-34.505608 -8.320098 -17.941127 39.771158 0.236607 2.038804 0.073898 -0.013145 282863.000000 0 0 1
-35.458743 -7.625898 -18.768527 40.837904 0.211837 2.048325 0.063528 -0.004280 523365.000000 0 0 1
-35.995944 -6.463298 -18.143927 40.825045 0.177663 2.031336 0.060909 0.000590 -24147.000000 0 0 1
24.832666 26.887602 -27.330227 45.678723 0.825109 2.212192 0.021092 0.017695 -252904.000000 0 0 1
25.286366 26.221902 -26.149897 44.842007 0.803559 2.193405 0.032560 -0.000379 -170569.000000 0 0 1
26.382166 25.422802 -26.502307 45.218468 0.766881 2.197027 0.024612 -0.005508 -451285.000000 0 0 1
26.883166 24.484102 -25.410777 44.360833 0.738728 2.180739 0.047208 -0.013687 -738862.000000 0 0 1
27.577566 25.069202 -24.385427 44.538030 0.737789 2.150193 0.050569 -0.007338 -150256.000000 0 0 1
27.809366 24.139602 -23.368827 43.614027 0.714874 2.136263 0.068244 -0.010665 49748.100000 0 0 1
28.392566 24.895602 -22.172227 43.789685 0.719868 2.101725 0.069598 -0.005789 336545.000000 0 0 1
27.432766 25.819702 -21.700327 43.475486 0.755117 2.093402 0.058863 0.001793 656589.000000 0 0 1
28.110566 26.708102 -20.806527 44.004980 0.759820 2.063287 0.042980 0.002287 394968.000000 0 0 1
27.114866 27.728702 -20.225827 43.739924 0.796590 2.051509 0.049117 0.010808 -5737.100000 0 0 1
26.199166 27.200702 -19.294327 42.409263 0.804151 2.043119 0.054657 0.007589 4910.690000 0 0 1
25.518366 28.287002 -18.676627 42.428268 0.836809 2.026610 0.053412 0.006205 -75946.900000 0 0 1
24.493366 27.830802 -17.615527 41.046137 0.849096 2.014363 0.055015 0.007495 -426154.000000 0 0 1
23.393166 27.155802 -18.151127 40.176376 0.859697 2.039563 0.059373 0.006395 -617687.000000 0 0 1
22.501866 26.875002 -17.110227 39.004610 0.873734 2.024917 0.035429 0.009483 -674767.000000 0 0 1
21.338866 26.064102 -17.648727 38.028439 0.884752 2.053407 0.023977 0.004004 -950392.000000 0 0 1
20.633466 26.526002 -18.747027 38.481421 0.909703 2.079644 0.025782 0.007223 -312688.000000 0 0 1
19.929666 25.428102 -19.329927 37.648719 0.906033 2.109972 0.028847 0.010102 68423.800000 0 0 1
19.235066 25.825902 -20.640827 38.249297 0.930633 2.140805 0.019513 0.014597 175111.000000 0 0 1
18.239066 26.795802 -20.351527 38.273531 0.973162 2.131449 0.016626 0.012567 -494390.000000 0 0 1
17.352266 26.987102 -21.412027 38.573044 0.999369 2.159284 0.017082 0.012519 -37971.200000 0 0 1
16.225966 27.983102 -21.022027 38.577994 1.045326 2.147093 0.019731 0.012871 370497.000000 0 0 1
15.404266 27.583302 -19.918027 37.347795 1.061478 2.133307 0.028918 0.011462 229875.000000 0 0 1
14.661366 28.708702 -19.433227 37.640345 1.098630 2.113306 0.018944 0.011413 264604.000000 0 0 1
14.169666 28.523902 -17.948427 36.558699 1.109740 2.083974 0.018432 0.008477 -187970.000000 0 0 1
13.186166 27.541102 -17.796827 35.342812 1.124267 2.098498 0.021228 0.006765 -482855.000000 0 0 1
12.743566 27.485802 -16.484027 34.490447 1.136656 2.069093 0.035712 0.005552 68698.000000 0 0 1
11.788366 26.318102 -16.204027 33.078370 1.149675 2.082734 0.042722 -0.004914 189515.000000 0 0 1
12.508666 25.123102 -16.276327 32.443116 1.108834 2.096346 0.052389 -0.008593 576631.000000 0 0 1
11.553066 24.065302 -16.242727 31.248012 1.123218 2.117414 0.057830 -0.009767 904480.000000 0 0 1
12.370466 22.749302 -16.379027 30.640361 1.072746 2.134780 0.059834 -0.007087 557624.000000 0 0 1
12.972966 22.617602 -17.648627 31.485359 1.050031 2.165827 0.054712 -0.000702 -450842.000000 0 0 1
13.887966 21.559002 -17.704027 31.162457 0.998520 2.175016 0.050960 0.000371 -276765.000000 0 0 1
13.289566 20.147402 -17.982427 30.098141 0.987690 2.211126 0.065212 -0.005293 13021.000000 0 0 1
12.587366 19.704502 -16.839727 28.814677 1.002330 2.194955 0.072068 -0.012385 -187864.000000 0 0 1
12.169366 18.367402 -16.929827 27.786219 0.985647 2.225959 0.067825 -0.015912 568781.000000 0 0 1
13.352666 17.298802 -16.891027 27.619722 0.913436 2.228823 0.062664 -0.017739 701855.000000 0 0 1
13.939366 17.098002 -15.631427 27.036810 0.886818 2.187260 0.063383 -0.023571 -17196.900000 0 0 1
14.863466 16.049902 -15.731927 26.944675 0.823759 2.194272 0.058245 -0.019595 -670327.000000 0 0 1
15.544566 15.503902 -14.450927 26.283718 0.784088 2.152927 0.097965 -0.015995 -426639.000000 0 0 1
16.583966 16.256102 -13.819627 27.023525 0.775415 2.107601 0.076639 -0.011172 1680510.000000 0 0 1
17.880466 16.259302 -14.479827 28.173416 0.737948 2.110584 0.049167 0.001637 228085.000000 0 0 1
18.564566 14.926802 -14.788427 28.038369 0.677204 2.126375 0.040076 -0.005178 -1376480.000000 0 0 1
19.029566 14.207102 -13.665927 27.399338 0.641309 2.092974 0.075584 -0.022478 -69093.500000 0 0 1
20.266166 14.556702 -13.125027 28.193641 0.622887 2.055031 0.077363 -0.013458 -785780.000000 0 0 1
20.933366 13.338502 -12.419027 27.755246 0.567316 2.034706 0.100590 -0.024587 -66218.800000 0 0 1
20.152166 12.819102 -11.346427 26.442023 0.566552 2.014299 0.146699 -0.028800 791756.000000 0 0 1
20.847666 11.733202 -10.715727 26.212974 0.512622 1.991929 0.159805 -0.009291 117382.000000 0 0 1
20.939966 10.444702 -11.539027 26.090672 0.462681 2.028920 0.129801 -0.015688 28533.700000 0 0 1
21.902166 10.478602 -12.618127 27.362806 0.446241 2.050078 0.103539 -0.007024 793838.000000 0 0 1
21.817966 9.386502 -13.505027 27.322442 0.406283 2.087807 0.089614 -0.014158 -429004.000000 0 0 1
22.372466 8.038102 -12.926327 27.059717 0.344923 2.068827 0.086016 0.000498 -271367.000000 0 0 1
21.683166 7.566402 -11.759227 25.800961 0.335742 2.044030 0.087415 -0.014122 717964.000000 0 0 1
22.331066 6.436402 -11.152327 25.777475 0.280621 2.018214 0.082897 0.003626 -840587.000000 0 0 1
22.138066 5.059202 -11.814727 25.598385 0.224671 2.050529 0.079659 -0.010284 179727.000000 0 0 1
20.869466 4.410102 -11.825127 24.388876 0.208255 2.076996 0.065014 -0.023699 860351.000000 0 1 0
19.861766 5.099002 -12.580827 24.057573 0.251298 2.121101 0.021797 -0.032558 68427.100000 0 1 0
18.828466 4.017902 -13.046127 23.256314 0.210242 2.166355 0.021177 -0.040118 -153265.000000 0 1 0
19.429966 3.257002 -14.019327 24.180016 0.166084 2.189267 0.031352 -0.037745 187030.000000 0 1 0
19.264466 1.927902 -13.719727 23.729041 0.099743 2.187296 0.062507 -0.040668 -436190.000000 0 1 0
20.272566 0.983302 -14.399527 24.885542 0.048466 2.187845 0.089648 -0.033383 -294343.000000 0 1 0
21.481166 0.762202 -13.707827 25.493646 0.035467 2.138498 0.109029 -0.027325 170058.000000 0 0 1
22.589866 0.385902 -14.482027 26.836172 0.017081 2.140813 0.077543 -0.030090 -121900.000000 0 0 1
22.647066 -1.029698 -15.132127 27.256764 -0.045436 2.159363 0.070972 -0.020063 -231830.000000 0 0 1
21.592366 -1.306398 -16.076527 26.951655 -0.060429 2.209923 0.064207 -0.020887 853518.000000 0 0 1
21.990966 -2.418398 -16.862927 27.817433 -0.109532 2.222070 0.063572 -0.021168 -490057.000000 0 0 1
20.849966 -2.970998 -17.691327 27.505109 -0.141541 2.269468 0.050381 -0.021210 -479975.000000 0 0 1
20.118066 -3.947998 -16.945427 26.598323 -0.193779 2.261509 0.059485 -0.022695 297216.000000 0 0 1
19.207966 -4.640098 -17.776427 26.579651 -0.237030 2.303388 0.050178 -0.027347 188032.000000 0 0 1
18.430166 -5.776998 -17.052827 25.765164 -0.303753 2.294088 0.055559 -0.029203 800551.000000 0 0 1
19.475666 -6.697798 -16.659127 26.489406 -0.331236 2.250931 0.058527 -0.019096 1175700.000000 0 0 1
19.024166 -7.700198 -15.811127 25.907600 -0.384602 2.227222 0.066370 -0.021665 -268754.000000 0 0 1
20.099166 -8.730998 -15.399227 26.783260 -0.409802 2.183348 0.096974 -0.014378 -235866.000000 0 0 1
20.495766 -9.520198 -16.463827 27.960119 -0.434843 2.200410 0.078522 -0.014768 649463.000000 0 0 1
21.496166 -10.440898 -16.045827 28.784824 -0.452150 2.162096 0.066786 -0.016304 9793.620000 0 0 1
22.228566 -11.374198 -17.057127 30.239497 -0.472958 2.170100 0.060922 -0.014268 89631.200000 0 0 1
23.029566 -10.707798 -18.025327 31.143704 -0.435224 2.188027 0.058316 -0.010598 252984.000000 0 0 1
23.553266 -11.727598 -18.863827 32.374943 -0.461981 2.192803 0.062196 -0.009681 -821462.000000 0 0 1
22.829966 -11.939698 -20.206027 32.742134 -0.481865 2.235882 0.069976 -0.009697 25666.300000 0 0 1
21.500566 -12.387698 -20.032627 31.890995 -0.522703 2.249982 0.071939 -0.012023 -22490.900000 0 0 1
21.332366 -13.781198 -19.823727 32.217564 -0.573574 2.233573 0.051181 -0.000246 666671.000000 0 0 1
19.789866 -13.996498 -19.530327 31.128355 -0.615579 2.249023 0.052616 0.000756 1356090.000000 0 0 1
19.021466 -13.681698 -20.691427 31.259242 -0.623547 2.294187 0.041123 0.007794 -249821.000000 0 0 1
17.631866 -13.727898 -20.541027 30.352458 -0.661546 2.314136 0.061252 0.006905 52022.200000 0 0 1
16.813366 -13.082298 -21.698627 30.408325 -0.661237 2.365385 0.061728 -0.001209 -44180.800000 0 0 1
16.988166 -13.806998 -22.927627 31.700270 -0.682462 2.379312 0.039142 0.013880 142753.000000 0 0 1
16.328466 -13.177898 -23.976127 31.861113 -0.679025 2.422677 0.051165 0.000332 -207940.000000 0 0 1
16.391466 -13.929898 -25.332927 33.233710 -0.704393 2.437603 0.043114 -0.002334 -267049.000000 0 0 1
15.746966 -15.197898 -25.348917 33.488964 -0.767657 2.429404 0.057968 -0.014503 159465.000000 0 0 1
15.796966 -15.769198 -26.674037 34.780972 -0.784518 2.444816 0.053064 -0.010607 133599.000000 0 0 1
16.714966 -17.045898 -26.784767 35.880030 -0.795200 2.413596 0.037193 -0.006617 1145600.000000 0 0 1
18.129966 -16.808298 -26.797057 36.459524 -0.747588 2.396435 0.026330 -0.002531 735856.000000 0 0 1
18.833366 -18.042298 -26.794147 37.391798 -0.763949 2.369680 0.029882 -0.000459 399908.000000 0 0 1
20.372266 -17.828598 -26.804487 38.096833 -0.718910 2.351231 0.008271 0.004006 133500.000000 0 0 1
20.798766 -17.190998 -25.565297 37.171273 -0.690715 2.329209 0.007499 0.006451 -445739.000000 0 0 1
22.194866 -17.087898 -25.657317 37.985607 -0.656118 2.312369 0.012347 0.008304 -474279.000000 0 0 1
22.768366 -16.418898 -24.375227 37.177015 -0.624765 2.285844 0.011781 0.008032 -223092.000000 0 0 1
22.427766 -15.061398 -24.159927 36.242965 -0.591377 2.300448 0.021689 0.004096 -490302.000000 0 0 1
21.081466 -14.878198 -23.805727 35.107003 -0.614573 2.315958 0.039437 0.006881 -435301.000000 0 0 1
20.734966 -13.472098 -23.384327 34.033264 -0.576184 2.328289 0.053551 0.005693 -109168.000000 0 0 1
20.830666 -12.521898 -24.424527 34.456816 -0.541249 2.358655 0.060592 -0.001018 256594.000000 0 0 1
20.499866 -11.285898 -23.814727 33.387981 -0.503254 2.364953 0.063364 -0.007423 -407.355000 0 0 1
20.712566 -10.032598 -24.680727 33.746137 -0.451068 2.391117 0.084591 -0.012324 -187508.000000 0 0 1
20.235166 -8.855798 -24.067927 32.667296 -0.412531 2.399061 0.083228 -0.008279 225459.000000 0 0 1
20.107066 -7.767398 -24.970127 32.986874 -0.368642 2.429462 0.068296 -0.008515 -249499.000000 0 0 1
19.540666 -6.605298 -24.137727 31.750551 -0.325970 2.434464 0.068211 -0.016776 1194410.000000 0 0 1
18.222866 -6.871598 -23.562427 30.569261 -0.360599 2.450874 0.071609 -0.016186 1405850.000000 0 0 1
17.649366 -5.807198 -22.820027 29.427493 -0.317874 2.458250 0.043716 -0.022683 100327.000000 0 0 1
18.431766 -5.546098 -21.479427 28.841897 -0.292281 2.410927 0.056926 -0.014305 -172244.000000 0 0 1
18.232566 -6.424898 -20.367327 28.080844 -0.338799 2.382281 0.064420 -0.012390 208089.000000 0 0 1
18.550166 -7.795898 -20.604527 28.799848 -0.397849 2.368048 0.070202 -0.009615 -276299.000000 0 0 1
18.316166 -8.780298 -19.403227 28.090227 -0.447011 2.333317 0.067591 -0.014011 1030790.000000 0 0 1
16.889366 -8.848498 -19.187827 27.050311 -0.482592 2.359356 0.074553 -0.018696 733654.000000 0 0 1
16.505866 -10.049598 -18.681927 26.878476 -0.546902 2.339288 0.076436 -0.013622 562585.000000 0 0 1
14.974266 -10.153598 -18.316327 25.745137 -0.595856 2.362353 0.078078 -0.009839 1063640.000000 0 0 1
14.499466 -9.337198 -17.188127 24.348502 -0.572123 2.354519 0.096770 -0.016239 391172.000000 0 1 0
14.555866 -7.929698 -17.394827 24.027763 -0.498824 2.380303 0.114269 -0.044959 -441893.000000 0 1 0
13.223066 -7.235998 -17.032127 22.744286 -0.500711 2.417126 0.104135 -0.029190 -77011.700000 0 1 0
12.116966 -7.472398 -17.858727 22.838383 -0.552600 2.468602 0.091329 -0.030398 -65070.000000 0 1 0
11.147966 -6.482598 -17.629727 21.842814 -0.526709 2.510050 0.074065 -0.027901 517492.000000 0 1 0
9.640266 -6.833698 -17.882727 21.434228 -0.616654 2.557671 0.064474 -0.026247 831930.000000 0 1 0
9.262266 -6.570098 -19.243127 22.343986 -0.616967 2.608465 0.056560 -0.030432 -240375.000000 0 1 0
7.859666 -6.543398 -19.294127 21.836982 -0.694263 2.654191 0.051691 -0.037875 -319600.000000 0 1 0
7.309566 -5.985798 -20.613427 22.675382 -0.686159 2.711834 0.055964 -0.050082 -143685.000000 0 1 0
7.291266 -7.051798 -21.533327 23.802828 -0.768704 2.701364 0.056582 -0.036085 550852.000000 0 1 0
6.516866 -6.588298 -22.671127 24.491942 -0.790849 2.753564 0.064865 -0.036621 356444.000000 0 1 0
6.473466 -7.564898 -23.826227 25.822908 -0.862988 2.745765 0.059001 -0.030004 8814.720000 0 0 1
5.977366 -8.879098 -23.538827 25.858146 -0.978288 2.714819 0.067539 -0.030327 197993.000000 0 0 1
6.065366 -9.701398 -24.666727 27.191051 -1.012049 2.707289 0.075643 -0.017303 -292267.000000 0 0 1
5.324666 -11.018798 -24.443827 27.336179 -1.120651 2.677422 0.071102 -0.021931 -41092.700000 0 0 1
5.902266 -11.999798 -23.596727 27.122637 -1.113679 2.626001 0.069968 -0.032484 -277619.000000 0 0 1
5.022466 -13.077098 -23.454027 27.318987 -1.204101 2.603182 0.082523 -0.038504 -491812.000000 0 0 1
5.730466 -14.329998 -22.898727 27.614105 -1.190382 2.548543 0.096398 -0.037543 -657190.000000 0 0 1
6.575866 -15.012198 -23.802527 28.899281 -1.157937 2.538592 0.116756 -0.030664 459683.000000 0 0 1
7.885866 -14.461598 -24.020627 29.125852 -1.071571 2.540500 0.112881 -0.031430 835985.000000 0 0 1
8.829466 -14.512098 -22.758427 28.399058 -1.024208 2.500395 0.102164 -0.012959 -515900.000000 0 0 1
9.211866 -15.852998 -22.388827 28.938480 -1.044404 2.455409 0.095518 0.003148 102335.000000 0 0 1
8.543966 -16.166298 -21.177827 27.979438 -1.084606 2.429363 0.091667 -0.014299 -356115.000000 0 0 1
9.111466 -15.725898 -19.770627 26.855175 -1.045667 2.398226 0.082632 -0.015741 547274.000000 0 0 1
10.252666 -16.516398 -19.346327 27.426064 -1.015254 2.353783 0.089097 -0.016948 460192.000000 0 0 1
10.565366 -16.559298 -17.963327 26.618010 -1.002880 2.311566 0.050483 -0.006439 157220.000000 0 0 1
9.544766 -17.293098 -17.006427 26.064773 -1.066464 2.281633 0.042016 -0.006079 -14618.300000 0 0 1
9.296866 -18.685898 -17.275327 27.093015 -1.109124 2.262215 0.039625 -0.008863 233267.000000 0 0 1
8.670566 -19.178398 -18.515927 28.032646 -1.146197 2.292298 0.061877 -0.007666 996843.000000 0 0 1
7.168766 -18.751498 -18.687727 27.427013 -1.205638 2.320418 0.075256 -0.015419 357105.000000 0 0 1
6.824066 -17.424698 -18.520927 26.328934 -1.197525 2.351028 0.075986 -0.017205 602954.000000 0 0 1
5.386066 -17.249398 -18.628827 25.953510 -1.268142 2.371400 0.075352 -0.008294 1448020.000000 0 0 1
4.975366 -15.842898 -18.067327 24.539357 -1.266505 2.398322 0.058752 -0.002868 49311.800000 0 1 0
4.978666 -15.735498 -16.646727 23.441556 -1.264365 2.360490 0.021943 0.007243 -6481.240000 0 1 0
4.510266 -14.468498 -16.306627 22.261762 -1.268613 2.392776 0.011464 0.013129 -36201.600000 0 1 0
10.904766 30.071902 -18.099327 36.753488 1.222921 2.085701 0.028452 -0.017580 153058.000000 0 0 1
9.809266 29.828102 -18.997227 36.699210 1.253077 2.114895 0.039697 -0.012077 417770.000000 0 0 1
8.898266 28.911202 -18.399227 35.405766 1.272218 2.117258 0.040466 -0.015368 401722.000000 0 0 1
7.832966 28.435702 -19.423927 35.316192 1.302000 2.153161 0.051124 -0.016405 22984.800000 0 0 1
6.904866 29.381502 -19.914627 36.159953 1.339977 2.154043 0.056899 -0.023149 -96303.300000 0 0 1
6.261566 28.812202 -21.053327 36.229722 1.356800 2.190884 0.066662 -0.026977 -307443.000000 0 0 1
5.140466 29.683702 -21.628927 37.085806 1.399322 2.193475 0.067391 -0.035805 -575539.000000 0 0 1
3.960766 29.469202 -20.932627 36.363394 1.437193 2.184197 0.070505 -0.029239 93590.900000 0 0 1
2.878166 30.407802 -21.221627 37.192415 1.476425 2.178021 0.072961 -0.037175 264657.000000 0 0 1
1.606266 30.036302 -20.455127 36.375428 1.517370 2.168002 0.090435 -0.027023 393331.000000 0 0 1
0.777066 28.890702 -20.846027 35.634721 1.543906 2.195667 0.096536 -0.045342 556713.000000 0 0 1
0.408366 28.789702 -22.221627 36.370516 1.556613 2.228093 0.110322 -0.052895 -431276.000000 0 0 1
-0.414034 27.514202 -22.584627 35.598709 -1.555749 2.258058 0.117806 -0.046583 779782.000000 0 0 1
-1.671434 27.481402 -21.901227 35.180746 -1.510051 2.242773 0.135382 -0.052098 239083.000000 0 0 1
-2.235234 26.190602 -22.026927 34.294743 -1.485658 2.268269 0.130043 -0.064103 -523400.000000 0 0 1
-3.140634 25.841902 -20.861827 33.359906 -1.449857 2.246384 0.105503 -0.062517 -958681.000000 0 0 1
-4.403534 26.413802 -21.036327 34.053004 -1.405602 2.236678 0.080373 -0.053352 -512033.000000 0 0 1
-5.205234 26.028402 -19.914727 33.183859 -1.373417 2.214464 0.061826 -0.050891 188671.000000 0 0 1
-6.503234 26.865802 -19.920427 34.071789 -1.333301 2.195258 0.055719 -0.053100 1111370.000000 0 0 1
-7.602334 26.327402 -19.142827 33.427166 -1.289682 2.180559 0.065561 -0.049093 303993.000000 0 0 1
-8.657134 27.162802 -18.792727 34.145722 -1.262261 2.153602 0.075806 -0.055023 407977.000000 0 0 1
-9.869034 26.437502 -18.129027 33.541034 -1.213520 2.141831 0.082946 -0.043026 58022.200000 0 0 1
-9.627934 25.879702 -16.826827 32.335711 -1.214635 2.118091 0.093140 -0.046706 -541317.000000 0 0 1
-10.695734 25.099202 -16.346727 31.805410 -1.167962 2.110592 0.049728 -0.036075 -316050.000000 0 0 1
-10.521034 24.353702 -15.023827 30.487872 -1.163003 2.086079 0.051795 -0.024899 -155505.000000 0 0 1
-9.753034 23.157402 -15.067427 29.298708 -1.172180 2.110952 0.053304 -0.024947 42844.600000 0 0 1
-9.867134 22.552902 -13.829627 28.235656 -1.158377 2.082649 0.071394 -0.028415 -260115.000000 0 0 1
-9.411234 21.057202 -13.866827 26.912190 -1.150493 2.112110 0.083486 -0.016502 -312800.000000 0 0 1
-10.317334 20.052802 -14.233727 26.667606 -1.095610 2.133820 0.056877 -0.011115 -472200.000000 0 0 1
-10.802834 20.121102 -15.588327 27.650604 -1.078073 2.169728 0.078270 -0.005879 38371.800000 0 0 1
-9.777034 20.135502 -16.772827 27.970637 -1.118766 2.213870 0.062443 -0.005967 219274.000000 0 0 1
-8.998734 18.942602 -16.751827 26.840698 -1.127305 2.244802 0.051270 -0.010144 709122.000000 0 0 1
-7.950934 18.919502 -17.750327 27.133725 -1.172955 2.283894 0.051224 -0.011002 660168.000000 0 0 1
-7.326134 17.529202 -17.931427 26.124342 -1.174922 2.327307 0.030570 -0.006616 -157234.000000 0 0 1
-8.215034 16.588502 -18.502527 26.172671 -1.110976 2.355960 0.039620 -0.011083 -77319.800000 0 0 1
-7.735434 15.893102 -19.642327 26.424395 -1.117832 2.408847 0.034952 -0.010045 -437512.000000 0 0 1
-6.492534 15.016202 -19.491127 25.446873 -1.162701 2.443320 0.030207 0.000473 -521571.000000 0 0 1
-6.588034 13.787502 -18.753627 24.190823 -1.125044 2.457887 0.011278 0.002703 1481010.000000 0 1 0
-5.301934 13.077702 -18.670227 23.403294 -1.185628 2.494369 0.014176 0.012827 1366010.000000 0 1 0
-4.418334 13.383202 -17.479927 22.453944 -1.251922 2.463035 0.019236 0.011916 -456481.000000 0 1 0
-3.813534 14.632002 -17.612227 23.212692 -1.315839 2.432162 0.029009 -0.000404 -545299.000000 0 1 0
-3.590934 15.132202 -16.333327 22.553401 -1.337802 2.380680 0.035362 0.008193 -9593.890000 0 1 0
-2.794934 16.461902 -16.355427 23.373187 -1.402618 2.345846 0.061968 0.003249 -41533.800000 0 1 0
-3.512634 17.632002 -16.714027 24.547603 -1.374152 2.319763 0.052634 -0.007762 -114731.000000 0 1 0
-2.744134 18.805702 -16.621327 25.247836 -1.425899 2.289390 0.072360 -0.017679 -335839.000000 0 0 1
-3.391534 20.008602 -17.250327 26.634948 -1.402888 2.275302 0.084834 -0.023418 -54462.000000 0 0 1
-3.725634 19.752302 -18.607027 27.390787 -1.384369 2.317628 0.078089 -0.032932 -63855.400000 0 0 1
-4.164434 20.940102 -19.272127 28.761872 -1.374484 2.305083 0.091524 -0.033077 -793719.000000 0 0 1
-3.144634 21.990102 -19.497227 29.556643 -1.428757 2.291158 0.106696 -0.048155 -1409500.000000 0 0 1
-2.203234 21.778802 -20.540127 30.017783 -1.469975 2.324392 0.124378 -0.045508 -207745.000000 0 0 1
-1.135534 22.674402 -20.443327 30.550738 -1.520758 2.303874 0.121814 -0.052239 316859.000000 0 0 1
0.042166 22.263402 -19.509227 29.601871 1.568902 2.290356 0.133504 -0.047899 -176089.000000 0 0 1
-0.424334 22.251702 -18.153927 28.720783 -1.551729 2.255035 0.130346 -0.038383 -432440.000000 0 0 1
0.542866 21.831902 -17.220627 27.811448 1.545936 2.238510 0.127308 -0.031985 -33171.400000 0 0 1
0.155766 22.076902 -15.706427 27.094385 1.563741 2.189148 0.134059 -0.032612 63335.800000 0 0 1
-0.806934 21.182702 -15.190927 26.079154 -1.532721 2.192589 0.102797 -0.018262 -105255.000000 0 0 1
-0.801534 21.181602 -13.771827 25.277776 -1.532973 2.146970 0.106736 -0.025953 367786.000000 0 0 1
-1.704434 20.066902 -13.116927 24.034130 -1.486062 2.148095 0.061060 -0.016935 170453.000000 0 1 0
-1.251634 18.740402 -13.353627 23.045360 -1.504107 2.188850 0.058929 -0.008195 133625.000000 0 1 0
-2.189234 17.785102 -12.876827 22.066157 -1.448319 2.193896 0.044745 -0.004756 181642.000000 0 1 0
-1.637934 16.343902 -12.967627 20.927621 -1.470913 2.239083 0.021580 0.003096 -1127520.000000 0 1 0
-0.572634 16.090702 -12.133927 20.161121 -1.535223 2.216609 0.010783 0.003732 -549195.000000 0 1 0
-0.126334 14.720202 -12.071727 19.037513 -1.562214 2.257643 0.012948 0.004138 248027.000000 0 1 0
0.675066 14.095302 -13.206527 19.327328 1.522940 2.323081 0.015324 0.000664 375664.000000 0 1 0
-0.196734 13.757402 -14.289627 19.836790 -1.556497 2.375117 0.020361 -0.009064 581454.000000 0 1 0
0.641666 13.083902 -15.197027 20.063645 1.521793 2.430181 0.023477 -0.005387 126237.000000 0 1 0
-0.034834 12.695802 -16.568427 20.873365 -1.568053 2.487761 0.037474 -0.004631 134089.000000 0 1 0
-0.293534 13.859902 -17.345627 22.204815 -1.549621 2.467326 0.048187 -0.010207 50341.600000 0 1 0
-0.445734 13.625002 -18.750527 23.182356 -1.538094 2.512952 0.056026 -0.012542 -101705.000000 0 1 0
-1.097834 14.850602 -19.401527 24.457409 -1.497005 2.486971 0.057846 -0.012556 229811.000000 0 1 0
-0.167434 15.932202 -19.562827 25.230285 -1.560288 2.458098 0.062905 -0.017728 314069.000000 0 0 1
-0.840934 17.122702 -19.575727 26.021206 -1.521724 2.422341 0.086609 -0.027137 -308929.000000 0 0 1
0.140266 18.246002 -19.880127 26.984361 1.563109 2.399015 0.105684 -0.035076 -41845.200000 0 0 1
0.417566 18.364202 -21.263527 28.099037 1.548062 2.429101 0.098046 -0.037106 -218887.000000 0 0 1
1.447366 19.301402 -21.434127 28.880111 1.495949 2.407108 0.094690 -0.036149 -342314.000000 0 0 1
2.024966 19.360102 -22.798127 29.977802 1.466580 2.434880 0.093599 -0.042977 -95965.200000 0 0 1
3.023366 18.360802 -22.945327 29.542306 1.407597 2.460196 0.084534 -0.039267 71641.200000 0 0 1
3.447566 18.140602 -24.330527 30.544094 1.382989 2.492397 0.083153 -0.048311 246202.000000 0 0 1
4.514666 17.061202 -24.583727 30.262625 1.312109 2.518960 0.061761 -0.028896 -1663740.000000 0 0 1
5.773866 17.477702 -24.271327 30.461532 1.251728 2.492754 0.048820 -0.018346 -1198560.000000 0 0 1
6.748066 16.457302 -24.529827 30.300027 1.181669 2.514206 0.049105 -0.014713 444461.000000 0 0 1
7.312166 16.515602 -26.015927 31.671144 1.153994 2.534727 0.036615 -0.021285 -581072.000000 0 0 1
8.448666 17.381502 -26.148887 32.515548 1.118353 2.505119 0.021754 -0.012471 761336.000000 0 0 1
8.988566 17.477602 -27.505097 33.805196 1.095782 2.521174 0.029732 -0.012311 140243.000000 0 0 1
9.321266 16.222902 -28.301127 33.926720 1.049282 2.557448 0.011668 -0.014070 -472991.000000 0 0 1
10.518266 15.649102 -27.797907 33.589462 0.979019 2.545576 0.023925 -0.009136 257294.000000 0 0 1
10.840266 14.410302 -28.426367 33.663430 0.925852 2.576294 0.012260 0.000623 -101095.000000 0 0 1
10.475266 13.176902 -27.618077 32.343781 0.899129 2.594213 0.021295 -0.010810 96492.100000 0 0 1
9.080566 12.958102 -27.502817 31.729703 0.959558 2.619514 0.044397 -0.012833 90700.600000 0 0 1
8.749966 12.423602 -26.200827 30.288466 0.957189 2.616033 0.050114 -0.008606 770904.000000 0 0 1
7.246166 12.001902 -26.064087 29.595426 1.027623 2.648091 0.050887 -0.016344 751950.000000 0 0 1
6.324766 13.075602 -26.041307 29.818178 1.120267 2.632807 0.047991 -0.012307 -732922.000000 0 0 1
5.076566 12.558402 -25.695337 29.047123 1.186643 2.656451 0.073220 -0.028599 -320219.000000 0 0 1
3.852966 13.259802 -26.310537 29.713836 1.288009 2.658288 0.077357 -0.023098 -567725.000000 0 0 1
3.631166 13.166702 -27.731197 30.912242 1.301701 2.683945 0.074191 -0.022487 321100.000000 0 0 1
4.181266 14.310402 -28.396307 32.072120 1.286526 2.658127 0.074303 -0.017099 122781.000000 0 0 1
4.099466 14.262902 -29.933717 33.410529 1.290919 2.681332 0.081050 -0.011155 -154298.000000 0 0 1
4.948966 13.260902 -30.435237 33.565570 1.213605 2.706284 0.071559 -0.010963 -153831.000000 0 0 1
4.853866 13.074202 -31.785337 34.710264 1.215313 2.728125 0.069118 -0.011486 -994857.000000 0 0 1
5.862766 12.054602 -32.316027 34.985870 1.118127 2.748393 0.064360 -0.002772 -412223.000000 0 0 1
7.237466 12.355102 -32.276647 35.310217 1.040893 2.724050 0.059111 0.004707 435139.000000 0 0 1
7.851066 12.442102 -30.932847 34.253265 1.007888 2.697644 0.046942 0.000630 -676926.000000 0 0 1
7.675066 11.199902 -30.037807 32.963833 0.970018 2.717070 0.050198 0.000874 -653789.000000 0 0 1
8.665466 10.198202 -30.164177 32.999564 0.866473 2.724025 0.040784 0.010964 5507.100000 0 0 1
8.404066 8.968102 -29.387247 31.853814 0.817855 2.745475 0.047574 -0.001352 -190965.000000 0 0 1
9.391766 7.818102 -29.623777 32.045221 0.694212 2.750352 0.041425 -0.002736 788023.000000 0 0 1
10.705066 8.082202 -29.087077 32.030899 0.646686 2.709507 0.038339 -0.000452 631205.000000 0 0 1
11.531266 6.959902 -29.339967 32.283804 0.543039 2.711228 0.029588 0.002185 -610901.000000 0 0 1
12.896766 7.113902 -28.660997 32.224012 0.504073 2.666893 0.031465 0.005855 -213662.000000 0 0 1
13.693766 5.979202 -28.471707 32.154443 0.411686 2.658295 0.043061 -0.004420 206715.000000 0 0 1
14.645066 5.737802 -29.503717 33.434558 0.373409 2.651803 0.042562 -0.003776 142245.000000 0 0 1
15.588866 4.534002 -29.129657 33.348266 0.283040 2.633139 0.045953 -0.006641 278937.000000 0 0 1
16.368066 4.726902 -27.968217 32.748716 0.281139 2.594470 0.047763 -0.016742 231030.000000 0 0 1
17.282066 3.646902 -27.811467 32.946129 0.207971 2.575774 0.048445 -0.010060 -89355.400000 0 0 1
18.060866 3.744302 -26.504577 32.290979 0.204420 2.533614 0.049816 -0.018074 165912.000000 0 0 1
18.993166 4.845402 -26.527577 32.983794 0.249785 2.505227 0.063988 -0.021952 555980.000000 0 0 1
19.459866 5.272702 -25.262967 32.321901 0.264600 2.468031 0.064448 -0.018777 195599.000000 0 0 1
20.435566 6.499102 -25.304737 33.168968 0.307914 2.438589 0.062039 -0.020003 -125748.000000 0 0 1
19.898066 7.745702 -25.669837 33.389662 0.371221 2.447753 0.064712 -0.023686 -2250.940000 0 0 1
20.762766 8.588502 -26.405597 34.671464 0.392217 2.436566 0.069610 -0.028470 -669633.000000 0 0 1
20.790166 8.328902 -27.897677 35.775439 0.381038 2.465142 0.093843 -0.022658 344239.000000 0 0 1
19.650366 8.738802 -28.664227 35.834920 0.418450 2.497919 0.078445 -0.026629 561810.000000 0 0 1
18.609966 7.766902 -28.576307 34.975148 0.395375 2.527065 0.074705 -0.022134 -223196.000000 0 0 1
17.254366 8.294902 -29.098497 34.831611 0.448123 2.559665 0.066543 -0.015445 -137578.000000 0 0 1
17.264266 8.477102 -30.532767 36.085538 0.456438 2.579463 0.061978 -0.010699 -64294.100000 0 0 1
16.048366 9.024402 -30.957257 36.018630 0.512257 2.605046 0.055427 -0.006226 -260679.000000 0 0 1
15.688066 8.719602 -32.475317 37.105163 0.507294 2.636694 0.038461 0.003209 128594.000000 0 0 1
15.224666 7.389702 -32.802567 36.910792 0.451881 2.665295 0.043423 0.010405 1178200.000000 0 0 1
13.872766 7.551502 -33.319647 36.873808 0.498487 2.698927 0.036009 0.007283 1108030.000000 0 0 1
13.355466 6.219402 -33.842347 36.910079 0.435818 2.731005 0.042166 0.005648 -108078.000000 0 0 1
13.088766 5.312102 -32.761187 35.676738 0.385541 2.734507 0.038661 0.005015 116939.000000 0 0 1
12.545766 4.057902 -33.174897 35.699253 0.312827 2.763278 0.040678 -0.007805 -55626.200000 0 0 1
12.126766 3.083402 -32.099707 34.452243 0.248988 2.769906 0.040659 -0.008803 287867.000000 0 0 1
13.230666 2.283802 -31.659787 34.389074 0.170930 2.740500 0.048062 -0.010616 535378.000000 0 0 1
12.935766 1.369302 -30.577097 33.229022 0.105461 2.739368 0.057121 -0.013446 370049.000000 0 0 1
12.092366 0.058002 -30.905287 33.186827 0.004797 2.768629 0.052984 -0.009724 637050.000000 0 0 1
12.808566 -0.895998 -31.711587 34.212380 -0.069839 2.756873 0.050524 -0.008433 574553.000000 0 0 1
13.832366 -1.646198 -31.054487 34.035651 -0.118453 2.719932 0.049946 -0.008708 563211.000000 0 0 1
14.396166 -2.947598 -31.683727 34.925586 -0.201958 2.707324 0.057046 -0.011019 577301.000000 0 0 1
13.483666 -4.076798 -31.664997 34.656913 -0.293612 2.723021 0.068202 -0.015489 359888.000000 0 0 1
13.737566 -5.091298 -32.598507 35.739400 -0.354918 2.719215 0.076273 -0.024168 154605.000000 0 0 1
12.815266 -6.359298 -32.434347 35.449381 -0.460626 2.726176 0.075032 -0.022578 215591.000000 0 0 1
13.011566 -6.994898 -31.267637 34.581709 -0.493266 2.700222 0.074138 -0.019503 212167.000000 0 0 1
12.488566 -8.320098 -31.226537 34.645129 -0.587691 2.693616 0.083070 -0.029908 -37284.000000 0 0 1
12.802166 -8.975898 -29.904857 33.745558 -0.611480 2.659845 0.067226 -0.028661 580776.000000 0 0 1
14.188066 -9.302898 -29.709087 34.212206 -0.580361 2.622716 0.066836 -0.029737 928557.000000 0 0 1
14.423866 -9.829398 -28.423577 33.355131 -0.598180 2.590877 0.065802 -0.028143 -193232.000000 0 0 1
14.486066 -11.387098 -28.398777 33.852661 -0.666191 2.566043 0.060627 -0.018303 -232824.000000 0 0 1
13.188666 -11.889098 -28.558607 33.628643 -0.733623 2.585330 0.066451 -0.022564 -150417.000000 0 0 1
13.272866 -13.236298 -28.881867 34.431539 -0.784019 2.565909 0.072342 -0.025585 255276.000000 0 0 1
-10.229434 -3.212298 -17.939827 20.899703 0.304274 2.602894 0.032432 0.009973 347442.000000 0 1 0
-11.012634 -2.883198 -19.075827 22.214368 0.256061 2.603555 0.039731 0.004500 1468.970000 0 1 0
-11.975034 -3.846398 -19.407727 23.126956 0.310792 2.566574 0.043568 -0.000994 -286174.000000 0 1 0
-12.970434 -3.421998 -20.526327 24.520855 0.257953 2.562751 0.047598 -0.016211 73785.200000 0 1 0
-13.724034 -2.316998 -20.001627 24.367656 0.167251 2.533654 0.035743 -0.019702 -356252.000000 0 1 0
-14.558734 -1.902498 -21.029927 25.648276 0.129941 2.532094 0.037220 -0.020352 -264548.000000 0 0 1
-15.166334 -0.460498 -20.931327 25.852470 0.030354 2.514344 0.031268 -0.015980 17193.600000 0 0 1
-14.312534 0.628402 -21.131827 25.530328 -0.043878 2.545819 0.037055 -0.018138 -112703.000000 0 0 1
-15.051834 1.841902 -20.972127 25.880116 -0.121765 2.515557 0.035443 -0.006596 18131.300000 0 0 1
-14.469034 3.049102 -21.662727 26.228300 -0.207694 2.542645 0.054471 -0.019606 -649425.000000 0 0 1
-13.369934 3.567002 -20.992327 25.142721 -0.260720 2.558796 0.047764 -0.018350 -356300.000000 0 0 1
-12.886334 4.693702 -21.706627 25.676178 -0.349303 2.578109 0.051034 -0.020823 -267349.000000 0 0 1
-11.689634 5.309002 -20.987127 24.602694 -0.426311 2.592583 0.027149 -0.013750 -193453.000000 0 1 0
-12.179434 5.959602 -19.852927 24.041510 -0.455065 2.542375 0.043327 -0.019653 427311.000000 0 1 0
-11.068334 6.257102 -19.054327 22.906914 -0.514526 2.553167 0.027107 -0.016061 -75430.100000 0 1 0
-11.413434 7.109202 -17.794327 22.303482 -0.557074 2.494479 0.035197 -0.009324 -340826.000000 0 1 0
-11.995834 8.313602 -17.994527 23.169355 -0.606040 2.460130 0.034738 -0.005916 632629.000000 0 1 0
-13.145934 8.419102 -17.122727 23.170771 -0.569621 2.402351 0.037603 0.000117 325973.000000 0 1 0
-13.645934 9.884102 -17.133927 24.030781 -0.626866 2.364563 0.034237 0.003149 -322589.000000 0 1 0
-12.862834 10.801102 -16.395927 23.472169 -0.698492 2.344132 0.004843 0.012632 367057.000000 0 1 0
-13.432434 12.117102 -16.561727 24.526419 -0.733962 2.312114 0.012556 0.004273 -6303.290000 0 1 0
-12.740034 13.284602 -15.789927 24.250998 -0.806320 2.279835 0.026555 0.006231 -671539.000000 0 1 0
-13.008734 13.404602 -14.409827 23.591389 -0.800384 2.227878 0.042209 0.005372 158010.000000 0 1 0
-12.617834 14.657802 -13.902527 23.818924 -0.860050 2.194045 0.039928 0.000448 -834966.000000 0 1 0
-12.916534 14.763502 -12.372327 23.192074 -0.852025 2.133497 0.035492 -0.009463 916338.000000 0 1 0
-14.297434 15.031502 -12.114927 24.023616 -0.810422 2.099359 0.041206 -0.014362 266364.000000 0 1 0
-15.210234 14.009402 -12.268227 24.044208 -0.744325 2.106256 0.037879 -0.013827 -41864.800000 0 1 0
-16.609534 14.399902 -11.616927 24.863362 -0.714262 2.056952 0.022259 -0.005557 618175.000000 0 1 0
-17.554734 13.381302 -11.757727 25.009439 -0.651303 2.060236 0.022105 -0.008673 -141228.000000 0 0 1
-18.751334 13.777602 -11.105527 25.783087 -0.633672 2.016097 0.077305 -0.019306 160443.000000 0 0 1
-20.009734 13.558502 -11.988227 26.980363 -0.595530 2.031224 0.085120 -0.024088 -242346.000000 0 0 1
-20.484734 12.237002 -12.015027 26.715715 -0.538485 2.037266 0.094723 -0.030245 807647.000000 0 0 1
-21.611134 12.005402 -12.872827 27.872575 -0.507071 2.050871 0.130187 -0.025891 41701.800000 0 0 1
-22.331734 10.738302 -12.513927 27.759968 -0.448214 2.038447 0.115334 -0.021050 -152885.000000 0 0 1
-21.548434 9.567202 -12.812527 26.833322 -0.417841 2.068587 0.110520 -0.009573 616400.000000 0 0 1
-21.886634 8.560402 -11.906427 26.345174 -0.372832 2.039735 0.102889 -0.015158 481542.000000 0 0 1
-20.817434 7.386202 -11.724827 25.007861 -0.340952 2.058780 0.098360 -0.013005 478030.000000 0 0 1
-20.846834 6.406002 -12.815127 25.295352 -0.298130 2.102056 0.116649 -0.008447 509516.000000 0 0 1
-19.685534 5.593302 -12.765927 24.119995 -0.276837 2.128533 0.100239 -0.015966 185036.000000 0 1 0
-19.672834 4.497602 -13.903027 24.505978 -0.224757 2.174059 0.104884 -0.018230 388507.000000 0 1 0
-20.570634 3.406302 -13.567427 24.876273 -0.164101 2.147658 0.105688 -0.020711 780732.000000 0 1 0
-20.280434 2.206802 -14.297427 24.911491 -0.108388 2.182092 0.096698 -0.026476 -274320.000000 0 1 0
-21.068834 0.961802 -13.873127 25.244494 -0.045619 2.152623 0.100454 -0.026231 -664233.000000 0 0 1
-22.373734 0.954802 -14.343027 26.593571 -0.042649 2.140452 0.094031 -0.021108 -361747.000000 0 0 1
-22.881034 -0.389098 -14.415927 27.046480 0.017004 2.132945 0.085944 -0.033736 901255.000000 0 0 1
-24.230934 -0.579398 -15.213927 28.617083 0.023907 2.131330 0.098901 -0.029707 1464990.000000 0 0 1
-25.442494 -0.131998 -14.592827 29.330675 0.005188 2.091543 0.118052 -0.036369 985582.000000 0 0 1
-26.593944 -0.677498 -15.230027 30.653720 0.025470 2.090751 0.109096 -0.023703 531211.000000 0 0 1
-27.932714 -0.116398 -14.691227 31.560770 0.004167 2.054985 0.102788 -0.034642 -376560.000000 0 0 1
-28.122174 -0.695798 -13.361827 31.142884 0.024737 2.014236 0.112121 -0.028831 -225147.000000 0 0 1
-29.275884 -0.198598 -12.736227 31.926921 0.006784 1.981133 0.125770 -0.034535 -22152.400000 0 0 1
-29.576034 -0.833998 -11.333927 31.684306 0.028191 1.936615 0.115153 -0.040290 -203309.000000 0 0 1
-30.157304 -2.139198 -11.287227 32.271359 0.070816 1.928111 0.113990 -0.019416 678519.000000 0 0 1
-29.393204 -3.242898 -11.843827 31.855189 0.109884 1.951746 0.115599 -0.029590 17276.900000 0 0 1
-29.618244 -4.682798 -11.261527 32.031094 0.156807 1.930056 0.112078 -0.027016 363489.000000 0 0 1
-30.865594 -5.286198 -11.654027 33.413248 0.169619 1.927070 0.095264 -0.022230 882222.000000 0 0 1
-31.133244 -6.589398 -11.141827 33.717048 0.208573 1.907578 0.098339 -0.016430 -82665.000000 0 0 1
-30.364054 -7.755198 -11.819727 33.493653 0.250061 1.931459 0.098378 -0.023885 -760193.000000 0 0 1
-29.007814 -7.796098 -11.541527 32.178242 0.262554 1.937644 0.096226 -0.014551 -925105.000000 0 0 1
-28.325394 -8.834998 -12.155727 32.064729 0.302348 1.959619 0.104832 -0.021785 -245694.000000 0 0 1
-26.849594 -8.906198 -11.714227 30.617710 0.320286 1.963401 0.085341 -0.024660 -589594.000000 0 0 1
-26.116384 -7.773498 -12.052127 29.795076 0.289298 1.987229 0.077658 -0.023301 1257190.000000 0 0 1
-24.721134 -7.782698 -11.647727 28.414334 0.304997 1.993167 0.104367 -0.030807 1217350.000000 0 0 1
-24.429734 -7.539898 -10.120927 27.497184 0.299361 1.947730 0.115400 -0.030481 -448062.000000 0 0 1
-24.581334 -6.261798 -9.559527 27.107871 0.249433 1.931195 0.100812 -0.023107 892234.000000 0 0 1
-25.959934 -5.914098 -9.431827 28.246311 0.223994 1.911249 0.112850 -0.026509 130505.000000 0 0 1
-26.245834 -4.601998 -8.672727 28.022105 0.173578 1.885459 0.126921 -0.032772 -194999.000000 0 0 1
-25.951274 -4.593198 -7.257127 27.335544 0.175179 1.839501 0.122517 -0.027685 476234.000000 0 0 1
-26.128004 -3.267898 -6.776427 27.189551 0.124427 1.822680 0.148334 -0.028810 -136547.000000 0 0 1
-25.814784 -3.037598 -5.326527 26.533035 0.117130 1.772921 0.142753 -0.021032 -613971.000000 0 0 1
-24.468734 -3.195798 -5.012127 25.180418 0.129872 1.771183 0.103251 -0.010410 -405146.000000 0 0 1
-24.403534 -3.177098 -3.643727 24.877764 0.129462 1.717790 0.085699 -0.005977 -148787.000000 0 1 0
-22.966934 -3.312598 -3.106727 23.411645 0.143246 1.703889 0.068112 -0.004047 -185447.000000 0 1 0
-22.552334 -4.656198 -3.256927 23.257160 0.203601 1.711298 0.069648 -0.003202 -652873.000000 0 1 0
-21.391734 -4.878698 -2.562027 22.090087 0.224230 1.687039 0.057083 -0.003929 -1100140.000000 0 1 0
-21.033934 -6.400598 -2.454827 22.122843 0.295396 1.681989 0.059153 -0.014448 -127761.000000 0 1 0
-21.748134 -6.967498 -1.378227 22.878524 0.310041 1.631074 0.065395 -0.013237 596495.000000 0 1 0
-22.205234 -8.293398 -1.685327 23.763274 0.357445 1.641777 0.067651 -0.018446 155686.000000 0 1 0
-22.774634 -9.109998 -0.503327 24.534248 0.380512 1.591313 0.084338 -0.018745 265599.000000 0 1 0
-21.725634 -9.638398 0.298473 23.769539 0.417554 1.558239 0.058294 -0.015032 624714.000000 0 1 0
-22.199734 -10.664298 1.120973 24.653844 0.447828 1.525312 0.041185 -0.004492 -658105.000000 0 1 0
-21.091834 -11.247298 1.955873 23.983173 0.489895 1.489154 0.039943 -0.003278 -910050.000000 0 1 0
-20.218534 -12.001698 1.182373 23.542045 0.535699 1.520551 0.035740 0.001843 -505684.000000 0 1 0
-19.299134 -12.621698 2.008973 23.147350 0.579184 1.483896 0.022629 0.002957 -657866.000000 0 1 0
-18.586434 -13.695898 1.186573 23.117982 0.635049 1.519447 0.027710 0.002594 -648648.000000 0 1 0
-19.460334 -14.796498 0.985173 24.466539 0.650087 1.530519 0.041276 0.001751 197103.000000 0 1 0
-19.016934 -15.987598 0.360673 24.847075 0.699072 1.556280 0.040939 -0.008808 -127717.000000 0 1 0
-17.799734 -16.736298 1.003273 24.452827 0.754616 1.529756 0.035786 -0.006056 751915.000000 0 1 0
-16.618434 -15.905798 0.943973 23.022985 0.763491 1.529784 0.049749 -0.014043 331089.000000 0 1 0
-15.469834 -16.582298 1.402773 22.721271 0.820092 1.509019 0.054373 -0.018539 117228.000000 0 1 0
-15.169834 -16.595998 2.926173 22.674071 0.830264 1.441382 0.053306 -0.013827 -201873.000000 0 1 0
-14.859534 -15.294998 3.465673 21.604481 0.799838 1.409686 0.035283 -0.015750 90489.200000 0 1 0
-14.185434 -15.280498 4.714773 21.376371 0.822545 1.348408 0.026238 -0.009655 -284275.000000 0 1 0
-14.897434 -15.804898 5.958373 22.521779 0.814946 1.303048 0.046584 -0.005409 -915616.000000 0 1 0
-15.677534 -14.870198 6.668473 22.613633 0.758976 1.271459 0.040678 -0.003321 340310.000000 0 1 0
-16.035234 -15.254598 8.012373 23.537833 0.760455 1.223450 0.047160 -0.012465 -147003.000000 0 1 0
-16.952734 -16.435098 8.303573 25.029122 0.769896 1.232631 0.039743 -0.005648 -689593.000000 0 0 1
-16.299534 -17.654698 8.132073 25.367179 0.825289 1.244460 0.038223 0.001597 62627.100000 0 0 1
-16.962834 -18.777598 8.773273 26.782573 0.836131 1.237062 0.039612 -0.003860 107913.000000 0 0 1
-16.502734 -19.018398 10.234273 27.180508 0.856102 1.184749 0.038469 -0.005768 666820.000000 0 0 1
-15.136434 -19.436198 10.328073 26.712291 0.909132 1.173810 0.030835 -0.009524 415553.000000 0 0 1
-14.869434 -19.762098 11.686273 27.353419 0.925747 1.129367 0.039779 -0.010333 1104380.000000 0 0 1
-13.455934 -20.399098 12.064673 27.253288 0.987678 1.112203 0.040330 -0.006985 1817680.000000 0 0 1
-12.360434 -19.454798 12.033973 26.001654 1.004795 1.089627 0.032222 -0.007555 441129.000000 0 0 1
-11.189734 -20.189098 12.369873 26.188234 1.064699 1.078847 0.040413 -0.008894 -207741.000000 0 0 1
-9.910234 -19.442798 12.651273 25.224786 1.099409 1.045417 0.044605 -0.007692 -599249.000000 0 0 1
-9.319434 -18.904398 11.531173 24.024905 1.112783 1.070179 0.035536 -0.005059 -562846.000000 0 1 0
-8.194434 -18.159098 11.925073 23.218720 1.146897 1.031424 0.029040 0.000104 157077.000000 0 1 0
-7.417634 -17.408498 10.792773 21.784422 1.168001 1.052460 0.023651 -0.005041 405218.000000 0 1 0
-6.540234 -18.224598 10.038773 21.810264 1.226243 1.092489 0.022178 -0.007148 -255422.000000 0 1 0
-5.974834 -17.533798 8.954073 20.574454 1.242376 1.120532 0.020845 -0.005380 281607.000000 0 1 0
-4.823434 -18.334898 8.274273 20.685686 1.313551 1.159280 0.018907 -0.008303 594799.000000 0 1 0
-3.572434 -18.278898 8.920373 20.650749 1.377789 1.124127 0.020301 -0.010898 -105574.000000 0 1 0
-2.491634 -18.760798 8.144673 20.603676 1.438758 1.164400 0.027662 -0.016665 1180510.000000 0 1 0
-1.228034 -19.167898 8.999073 21.210839 1.506817 1.132643 0.030783 -0.012693 625521.000000 0 1 0
-0.224634 -19.832798 8.282973 21.494138 1.559470 1.175199 0.044984 -0.001302 -322544.000000 0 1 0
0.888266 -20.040598 9.147073 22.047302 -1.526502 1.142981 0.047453 -0.003299 18820.200000 0 1 0
2.148266 -20.535898 8.435773 22.304718 -1.466565 1.182939 0.046601 -0.017794 -358516.000000 0 1 0
1.986966 -21.808098 7.829573 23.256040 -1.479936 1.227420 0.046801 -0.017141 -69164.800000 0 1 0
2.215566 -22.820698 8.821773 24.566576 -1.474014 1.203497 0.044650 -0.011767 -157576.000000 0 1 0
2.066266 -24.235298 8.240173 25.681113 -1.485743 1.244154 0.033771 -0.015438 62349.300000 0 0 1
2.194866 -25.214898 9.240073 26.944155 -1.483969 1.220758 0.037902 -0.011569 -336920.000000 0 0 1
1.526866 -26.363448 8.832273 27.845498 -1.512945 1.248033 0.041030 -0.009629 -725570.000000 0 0 1
1.511566 -27.492608 9.895073 29.258175 -1.515871 1.225794 0.049461 -0.009433 365434.000000 0 0 1
0.725566 -27.225728 11.045873 29.390101 -1.544153 1.185497 0.027635 -0.014901 948668.000000 0 0 1
-0.710534 -27.215948 10.854073 29.309104 1.544695 1.191431 0.005588 -0.005456 1050140.000000 0 0 1
-1.386434 -27.335748 12.266173 29.993738 1.520121 1.149485 0.004172 -0.009667 -368279.000000 0 0 1
-1.029734 -28.533468 12.927873 31.342448 1.534723 1.145631 -0.002964 -0.010015 -79353.900000 0 0 1
-1.120034 -28.406688 14.326473 31.834608 1.531388 1.103999 -0.002227 -0.007786 -400697.000000 0 0 1
-0.746434 -29.685658 15.102573 33.314909 1.545657 1.100301 -0.010881 -0.000713 48589.600000 0 0 1
-0.776334 -29.528778 16.473473 33.821986 1.544512 1.062071 -0.003764 -0.000064 -123393.000000 0 0 1
-0.346534 -30.649608 17.172073 35.134010 1.559491 1.060129 -0.002811 -0.003356 -123289.000000 0 0 1
-0.558034 -30.432868 18.742973 35.745907 1.552462 1.018858 0.008621 -0.005787 245326.000000 0 0 1
-1.938334 -30.541708 19.033473 36.039231 1.507416 1.014397 -0.004589 0.003300 106406.000000 0 0 1
-2.239334 -30.229428 20.403373 36.539439 1.496853 0.978349 0.022564 -0.003249 1205900.000000 0 0 1
-3.775034 -30.191778 20.808373 36.861670 1.446407 0.970970 0.058969 -0.013105 924863.000000 0 0 1
-4.545134 -29.240508 20.083473 35.763269 1.416591 0.974518 0.047348 -0.013887 830415.000000 0 0 1
-5.901534 -29.168058 20.553973 36.167244 1.371163 0.966354 0.061820 -0.020610 923735.000000 0 0 1
-6.061634 -28.122758 21.636573 35.996864 1.358502 0.925959 0.078893 -0.024634 -397366.000000 0 0 1
-5.384034 -28.494958 22.830173 36.907550 1.384051 0.903866 0.073623 -0.022619 31721.900000 0 0 1
-5.183334 -27.438718 23.756873 36.662504 1.384091 0.865856 0.079756 -0.020823 -73096.800000 0 0 1
-4.035434 -27.756668 24.758873 37.412820 1.426422 0.847612 0.092181 -0.021128 124721.000000 0 0 1
-4.271434 -28.816158 25.667373 38.825638 1.423637 0.848521 0.089591 -0.023812 166789.000000 0 0 1
-3.706234 -30.045508 25.201173 39.389946 1.448062 0.876575 0.065847 -0.025997 67848.400000 0 0 1
-3.932834 -31.191718 26.240273 40.950487 1.445372 0.875282 0.073887 -0.020974 -25457.600000 0 0 1
-3.260534 -31.103208 27.459173 41.617866 1.466348 0.850253 0.074915 -0.021160 -108420.000000 0 0 1
-3.732334 -32.069248 28.360373 42.972988 1.454934 0.850033 0.063054 -0.027281 -405516.000000 0 0 1
-2.999134 -32.066378 29.683473 43.799041 1.477539 0.826139 0.099577 -0.024488 155694.000000 0 0 1
-1.654034 -32.529388 29.538773 43.970854 1.519993 0.834186 0.106610 -0.030359 480391.000000 0 0 1
-1.028234 -32.292098 30.794973 44.633700 1.538965 0.809378 0.107441 -0.025142 -240761.000000 0 0 1
-28.682254 3.109302 -10.120827 30.574018 -0.107983 1.908188 0.126167 -0.030486 227436.000000 0 0 1
-29.518454 2.671102 -11.217027 31.690623 -0.090243 1.932592 0.112249 -0.044314 489813.000000 0 0 1
-30.019964 3.864002 -11.848327 32.504024 -0.128011 1.943912 0.091237 -0.043790 -333190.000000 0 0 1
-30.808524 3.619802 -13.125227 33.682929 -0.116957 1.971070 0.085594 -0.038479 -419258.000000 0 0 1
-32.027394 2.987702 -12.845427 34.636474 -0.093017 1.950736 0.094132 -0.045162 -300659.000000 0 0 1
-32.758004 2.616302 -13.968327 35.707786 -0.079698 1.972714 0.100572 -0.039706 143082.000000 0 0 1
-33.986004 1.752302 -13.537527 36.624905 -0.051514 1.949403 0.088632 -0.041683 470408.000000 0 0 1
-33.657274 0.354102 -13.360827 36.213936 -0.010520 1.948666 0.092710 -0.034995 403929.000000 0 0 1
-34.751355 -0.280498 -12.707827 37.003030 0.008071 1.921359 0.077404 -0.031726 64208.700000 0 0 1
-34.432353 -1.737598 -12.303527 36.605777 0.050421 1.913579 0.070164 -0.023798 20381.800000 0 0 1
-34.555839 -2.666098 -13.366727 37.146783 0.077001 1.938888 0.059653 -0.020124 97760.500000 0 0 1
-33.976684 -3.908798 -13.004227 36.589666 0.114540 1.934146 0.071830 -0.018678 -69656.100000 0 0 1
-34.252737 -5.183598 -13.860227 37.312539 0.150194 1.951381 0.066749 -0.013366 -124865.000000 0 0 1
-33.891424 -6.384898 -13.247727 36.944523 0.186210 1.937547 0.067530 -0.017509 -51274.900000 0 0 1
-34.464739 -7.472998 -13.919927 37.913432 0.213525 1.946740 0.071566 -0.015027 -553502.000000 0 0 1
-34.158386 -8.924698 -13.495727 37.796563 0.255561 1.935917 0.073800 -0.014629 -790682.000000 0 0 1
-32.822424 -9.300198 -13.438227 36.665940 0.276111 1.946046 0.076298 -0.019897 -534129.000000 0 0 1
-32.295404 -9.680598 -14.662427 36.765389 0.291229 1.981016 0.072941 -0.025711 -495527.000000 0 0 1
-30.986834 -10.477798 -14.507527 35.783187 0.326068 1.988244 0.082470 -0.030660 -365167.000000 0 0 1
-31.271294 -11.828298 -14.134027 36.298391 0.361615 1.970759 0.074362 -0.022784 437550.000000 0 0 1
-30.163864 -12.690198 -13.863227 35.539962 0.398230 1.971509 0.099548 -0.028322 -49251.400000 0 0 1
-30.309504 -14.105798 -14.387927 36.395769 0.435580 1.977211 0.106409 -0.033774 -212679.000000 0 0 1
-30.238194 -14.241498 -15.827427 36.982105 0.440161 2.013048 0.100626 -0.038967 102758.000000 0 0 1
-30.488394 -15.536098 -16.334327 37.917315 0.471278 2.016162 0.113452 -0.040795 -36774.900000 0 0 1
-29.405564 -16.549898 -15.916627 37.308516 0.512629 2.011551 0.110426 -0.037146 -450307.000000 0 0 1
-28.100774 -16.219298 -16.264027 36.293769 0.523474 2.035460 0.116301 -0.041560 -1042600.000000 0 0 1
-27.288214 -17.339598 -16.396227 36.251132 0.566060 2.040134 0.099844 -0.037087 193427.000000 0 0 1
-25.811994 -16.965498 -16.702227 35.114834 0.581470 2.066495 0.101000 -0.049821 348843.000000 0 0 1
-25.630894 -16.243098 -17.882827 35.221818 0.564853 2.103333 0.122335 -0.046786 -805171.000000 0 0 1
-24.295834 -16.085598 -18.238727 34.375648 0.584815 2.130071 0.112154 -0.035759 -736494.000000 0 0 1
-24.123934 -15.624098 -19.701327 34.845644 0.574728 2.171701 0.123953 -0.028987 139023.000000 0 0 1
-24.592034 -16.443698 -20.831027 36.181418 0.589381 2.184303 0.114200 -0.033636 3161900.000000 0 0 1
-26.081464 -16.409998 -20.999227 37.289386 0.561601 2.168980 0.113069 -0.037362 2614840.000000 0 0 1
-26.701554 -17.602598 -21.684127 38.639692 0.582840 2.166617 0.107873 -0.033991 -343983.000000 0 0 1
-26.267074 -17.673098 -23.007327 39.136105 0.592253 2.199232 0.109526 -0.020912 126321.000000 0 0 1
-26.698874 -18.875498 -23.591227 40.319478 0.615393 2.195809 0.088539 -0.012918 -39392.300000 0 0 1
-26.023284 -19.076198 -25.026427 40.834234 0.632560 2.230495 0.079422 -0.017186 958197.000000 0 0 1
-24.651734 -19.458898 -25.030727 40.160852 0.668215 2.243703 0.071961 -0.015716 207563.000000 0 0 1
-24.340934 -20.746698 -24.546427 40.316667 0.705850 2.225395 0.058364 -0.014273 -81218.700000 0 0 1
-22.827434 -21.040598 -24.730127 39.691028 0.744689 2.243453 0.053552 -0.009931 533237.000000 0 0 1
-22.470234 -21.372698 -26.088377 40.525388 0.760370 2.270190 0.040902 -0.005436 -187294.000000 0 0 1
-21.082934 -21.591098 -26.219307 39.976464 0.797306 2.286129 0.029350 -0.003080 -111083.000000 0 0 1
-20.657334 -21.391298 -27.671147 40.620259 0.802852 2.320218 0.028926 -0.001956 -377395.000000 0 0 1
-20.901834 -22.460198 -28.566297 41.921122 0.821321 2.320511 0.059889 -0.004332 -198381.000000 0 0 1
-21.504834 -22.048498 -29.748537 42.820201 0.797880 2.338843 0.056846 -0.007372 -440801.000000 0 0 1
-20.516434 -22.176698 -30.912757 43.224167 0.824267 2.367668 0.059089 -0.017462 67034.600000 0 0 1
-20.208134 -23.511998 -31.273077 44.036214 0.860823 2.360532 0.062523 -0.024965 -68353.600000 0 0 1
-19.521134 -23.400898 -32.503847 44.555323 0.875544 2.388411 0.060630 -0.024645 96079.700000 0 0 1
-19.032834 -24.752998 -33.105757 45.507701 0.915302 2.385432 0.067074 -0.020741 595761.000000 0 0 1
-18.292434 -24.819498 34.033791 45.922974 0.935655 0.736080 0.070026 -0.026582 483498.000000 0 0 1
-19.135734 -24.535998 32.934512 45.308648 0.908429 0.757010 0.083192 -0.025019 -6897.380000 0 0 1
-18.355634 -24.476098 31.612273 43.992550 0.927333 0.769035 0.083768 -0.020208 -26150.100000 0 0 1
-17.514334 -23.353398 31.496283 42.943555 0.927315 0.747436 0.060655 -0.023052 -358263.000000 0 0 1
-16.859934 -23.392998 30.263943 41.801865 0.946296 0.761234 0.068292 -0.029122 -121213.000000 0 0 1
-16.115434 -22.074598 29.922133 40.525660 0.940190 0.740175 0.042527 -0.026553 305043.000000 0 0 1
-16.974034 -20.922198 29.865423 40.221880 0.889207 0.733976 0.050204 -0.032268 592655.000000 0 0 1
-16.233234 -19.685798 29.674213 39.135756 0.881225 0.710190 0.043536 -0.032032 319342.000000 0 0 1
-15.714334 -19.026998 30.996893 39.620377 0.880463 0.672371 0.037692 -0.032915 -2590.700000 0 0 1
-15.195434 -17.752398 30.739463 38.612995 0.862849 0.649988 0.041717 -0.031243 -167897.000000 0 0 1
-14.738434 -17.169698 31.944963 39.147166 0.861447 0.616301 0.043658 -0.034529 -74976.200000 0 0 1
-14.128534 -15.770498 31.771043 38.180142 0.840260 0.587849 0.065302 -0.032887 -798170.000000 0 0 1
-12.989834 -15.795198 30.988353 37.128184 0.882550 0.583333 0.085706 -0.036385 -740622.000000 0 0 1
-12.470534 -14.522098 30.779033 36.245750 0.861257 0.556373 0.077516 -0.040184 504527.000000 0 0 1
-11.210834 -14.478298 29.833893 35.005215 0.911911 0.550487 0.083377 -0.037062 910965.000000 0 0 1
-10.720734 -13.111698 29.737053 34.221967 0.885388 0.517727 0.094171 -0.034233 -358919.000000 0 0 1
-9.362134 -12.963098 30.038833 34.029736 0.945317 0.489170 0.083108 -0.030540 -181096.000000 0 0 1
-8.839034 -11.502298 30.030883 33.350941 0.915586 0.449991 0.077577 -0.025080 -154034.000000 0 0 1
-9.392534 -10.652198 31.023913 34.119967 0.848158 0.429294 0.075182 -0.022988 164076.000000 0 0 1
-8.914434 -9.320898 30.921703 33.503701 0.807684 0.395163 0.063573 -0.014049 -200502.000000 0 0 1
-9.529534 -8.490098 32.043063 34.491327 0.727779 0.379046 0.025609 -0.015004 215866.000000 0 0 1
-10.874234 -8.179898 31.692553 34.490253 0.644925 0.405553 0.048362 -0.024476 276946.000000 0 0 1
-11.730134 -7.895298 32.781171 35.700657 0.592428 0.407226 0.033497 -0.024157 160743.000000 0 0 1
-11.708234 -6.385198 33.218902 35.795934 0.499274 0.381767 0.016219 -0.015774 -227242.000000 0 0 1
-12.079634 -5.431998 32.223363 34.839191 0.422590 0.389979 0.024907 -0.018255 344412.000000 0 0 1
-12.539334 -4.210898 32.782828 35.350818 0.323983 0.383510 0.024735 -0.024307 -170121.000000 0 0 1
-12.150934 -3.030998 31.816883 34.192779 0.244457 0.374981 0.022717 -0.009635 -434673.000000 0 0 1
-10.778134 -2.796798 31.792883 33.686461 0.253889 0.336887 0.031454 -0.014846 -464428.000000 0 0 1
-10.454534 -1.695098 30.932753 32.695654 0.160741 0.329879 0.023357 -0.009446 -91120.300000 0 0 1
-9.012834 -1.171598 31.138483 32.437770 0.129267 0.283990 0.042239 -0.010609 142156.000000 0 0 1
-8.728234 -0.782498 32.446216 33.608797 0.089412 0.263791 0.037852 -0.026473 176346.000000 0 0 1
-7.355234 -0.454698 32.605972 33.428365 0.061741 0.222276 0.054120 -0.028575 333019.000000 0 0 1
-6.856734 0.082302 34.003996 34.688518 -0.012002 0.198991 0.078062 -0.037970 -354281.000000 0 0 1
-7.075634 1.469902 -34.037987 34.796692 -0.204828 2.932386 0.068807 -0.028688 -65305.900000 0 0 1
-6.713134 2.458302 33.403239 34.159709 -0.351027 0.210843 0.079234 -0.024355 -278907.000000 0 0 1
-7.467934 3.779702 33.513413 34.542799 -0.468535 0.244743 0.087440 -0.019751 -600255.000000 0 0 1
-8.778934 3.737202 33.061077 34.410335 -0.402464 0.280962 0.054207 -0.009219 -358091.000000 0 0 1
-9.450534 5.003402 33.077769 34.763276 -0.486914 0.312673 0.040758 0.006156 -500410.000000 0 0 1
-10.877534 4.912902 32.576872 34.694523 -0.424230 0.351193 0.030418 0.013224 -994080.000000 0 0 1
-11.638934 6.070402 32.761248 35.293256 -0.480746 0.381095 0.035954 0.014305 -131668.000000 0 0 1
-12.664334 6.067602 31.782623 34.746744 -0.446796 0.416047 0.012082 0.018833 -313716.000000 0 0 1
-13.455134 7.379702 31.842013 35.347056 -0.501666 0.449098 0.037492 0.004035 -181709.000000 0 0 1
-14.299234 7.454802 32.990489 36.720764 -0.480576 0.454649 0.043094 0.001289 328504.000000 0 0 1
-14.799834 8.790002 33.047435 37.261671 -0.535941 0.480202 0.043884 0.007549 459293.000000 0 0 1
-15.715734 9.106502 -34.077640 38.616036 -0.525173 2.651892 0.038492 0.000929 622736.000000 0 0 1
-14.970234 9.386802 -32.916617 37.359385 -0.560059 2.648938 0.037103 -0.001344 -237764.000000 0 0 1
-15.817234 9.587402 -31.804087 36.791346 -0.544919 2.614841 0.049029 -0.001815 -860634.000000 0 0 1
-15.111434 9.863802 -30.480407 35.421819 -0.578297 2.607043 0.074721 -0.011073 -83945.100000 0 0 1
-14.250834 10.949602 -30.454217 35.361552 -0.655141 2.608469 0.076334 -0.012251 -159495.000000 0 0 1
-12.980634 10.832202 -31.059507 35.362783 -0.695420 2.643113 0.076126 -0.017387 -261825.000000 0 0 1
-12.171834 12.177802 -31.091017 35.540171 -0.785643 2.635847 0.072335 -0.013620 235026.000000 0 0 1
-12.580934 13.021502 -32.136697 36.886403 -0.802605 2.628507 0.071486 -0.018136 -6145.000000 0 0 1
-11.769434 14.165602 -32.298967 37.180736 -0.877528 2.623371 0.059320 -0.026904 -84870.400000 0 0 1
-12.037934 15.326802 -31.356287 36.919364 -0.905011 2.585489 0.072609 -0.032350 1010500.000000 0 0 1
-13.321934 15.943602 -31.621627 37.836486 -0.874742 2.560283 0.078435 -0.026352 1123310.000000 0 0 1
-13.530734 17.016002 -30.658907 37.584487 -0.899003 2.524792 0.063538 -0.017685 280881.000000 0 0 1
-14.907334 17.741202 -30.732827 38.490070 -0.871980 2.495531 0.055166 -0.025481 149315.000000 0 0 1
-15.027534 18.745202 -31.676077 39.756550 -0.895036 2.492696 0.052085 -0.024778 1460550.000000 0 0 1
-16.373334 19.324902 -31.793167 40.649027 -0.867892 2.468887 0.034788 -0.020864 1577130.000000 0 0 1
-16.789434 20.395402 -30.772197 40.555957 -0.882070 2.432202 0.001315 -0.017967 -447080.000000 0 0 1
-16.089934 21.647402 -30.877817 40.999214 -0.931614 2.423606 0.004777 0.000174 125067.000000 0 0 1
-16.630134 22.849302 -30.300917 41.434255 -0.941643 2.391024 -0.005107 -0.005809 -154543.000000 0 0 1
-17.994934 23.338202 -30.853627 42.666563 -0.913958 2.379125 -0.003580 -0.000259 742412.000000 0 0 1
-19.083834 22.562602 -30.292817 42.319245 -0.868736 2.368589 0.005205 -0.011192 399391.000000 0 0 1
-20.123434 22.439202 -31.225797 43.399548 -0.839753 2.373873 0.033865 -0.009210 27946.500000 0 0 1
-21.364334 21.545002 -30.766377 43.211015 -0.789609 2.363143 0.050599 -0.018924 801356.000000 0 0 1
-22.435534 22.101902 -30.009347 43.501818 -0.777907 2.332066 0.088882 -0.019838 607099.000000 0 0 1
-23.112734 23.214102 -30.589447 44.819720 -0.787586 2.321974 0.097247 -0.009840 -803782.000000 0 0 1
-24.280734 22.689902 -31.454647 45.757846 -0.751542 2.328721 0.093548 -0.023409 -864253.000000 0 0 1
-23.935834 21.880702 -32.546687 45.945360 -0.740573 2.357994 0.088396 -0.020166 -807493.000000 0 0 1
-25.096374 21.570202 -33.213497 46.885371 -0.709981 2.358022 0.101368 -0.021662 -770256.000000 0 0 1
-24.939834 20.767502 33.834359 46.883347 -0.694367 0.764583 0.109760 -0.017753 -153726.000000 0 0 1
-24.660834 19.402302 33.949868 46.229855 -0.666619 0.746057 0.110473 -0.023772 188411.000000 0 0 1
-24.610834 18.774302 32.654692 44.994404 -0.651673 0.758672 0.089564 -0.033183 -57502.600000 0 0 1
-24.243234 17.252602 32.657129 44.180026 -0.618499 0.738940 0.056927 -0.003095 -455152.000000 0 0 1
-25.196824 16.454302 33.258979 44.852911 -0.578503 0.735475 0.066779 -0.009668 -127628.000000 0 0 1
-25.270434 15.192502 32.563848 43.929615 -0.541299 0.735831 0.079818 -0.020886 -246273.000000 0 0 1
-26.173384 14.116202 33.244640 44.604027 -0.494618 0.729769 0.077950 -0.010799 399535.000000 0 0 1
-27.527964 14.555802 33.438250 45.692195 -0.486393 0.749814 0.085597 -0.010106 688284.000000 0 0 1
-28.551134 13.641802 33.134222 45.816401 -0.445732 0.762378 0.080489 -0.001977 45328.200000 0 0 1
-28.610194 12.307402 33.957823 46.077641 -0.406246 0.742220 0.048423 0.006031 -121112.000000 0 0 1
-27.658984 11.254702 33.631001 44.974792 -0.386449 0.726093 0.048986 -0.001320 415081.000000 0 0 1
-28.089584 10.007102 34.136837 45.326487 -0.342238 0.717986 0.053053 -0.002693 -487776.000000 0 0 1
-26.872014 9.087902 -33.991847 44.273477 -0.326117 2.446150 0.040269 -0.012293 324120.000000 0 0 1
-26.065584 8.616302 33.316918 43.170272 -0.319255 0.689198 0.040703 -0.011833 169223.000000 0 0 1
-25.164814 9.647102 32.979567 42.590917 -0.366077 0.685135 0.032625 -0.018418 -976842.000000 0 0 1
-23.926334 9.268102 32.127573 41.116275 -0.369562 0.673917 0.028084 -0.016366 -41949.200000 0 0 1
-24.101534 8.895002 30.811333 40.116620 -0.353556 0.695015 0.033658 -0.015043 16447.100000 0 0 1
-22.811634 8.725802 30.250453 38.879302 -0.365343 0.679224 0.035050 -0.016825 416887.000000 0 0 1
-22.767234 8.714802 28.707773 37.662062 -0.365572 0.704020 0.062491 -0.027223 -121856.000000 0 0 1
-23.138234 9.965502 28.184443 37.802802 -0.406684 0.729414 0.053725 -0.021398 101788.000000 0 0 1
-23.080734 9.955002 26.764753 36.717493 -0.407205 0.754028 0.059360 -0.025686 -503821.000000 0 0 1
-23.465434 11.339102 26.147413 36.917326 -0.450138 0.783753 0.053525 -0.021743 763148.000000 0 0 1
-24.806934 11.822702 26.208403 37.974210 -0.444744 0.809082 0.070413 -0.016426 706278.000000 0 0 1
-25.750904 11.122502 25.395033 37.838165 -0.407723 0.835039 0.076131 -0.013066 670484.000000 0 0 1
-27.213084 11.678502 25.518163 39.091123 -0.405381 0.859539 0.080028 -0.014689 566441.000000 0 0 1
-27.408514 13.034402 25.115383 39.394221 -0.443905 0.879496 0.092194 -0.015217 77969.300000 0 0 1
-28.649344 13.578502 25.526763 40.703516 -0.442595 0.892922 0.091165 -0.016489 231926.000000 0 0 1
-28.666444 15.069302 25.131563 40.993222 -0.483978 0.910860 0.102449 -0.022503 29007.200000 0 0 1
-27.739904 15.880102 25.824603 41.092456 -0.519926 0.891236 0.121010 -0.024417 167922.000000 0 0 1
-27.548474 17.159202 25.226893 41.106602 -0.557068 0.910065 0.113049 -0.016881 -417589.000000 0 0 1
-22.645034 -9.081198 31.787683 40.071467 0.381389 0.654628 0.061721 -0.014255 -378882.000000 0 0 1
-21.642134 -8.918598 30.838683 38.716246 0.390889 0.649261 0.072383 -0.020536 -388266.000000 0 0 1
-22.052434 -9.436598 29.575733 38.079958 0.404338 0.681427 0.079947 -0.016474 59744.500000 0 0 1
-21.105634 -9.207298 28.371343 36.539775 0.411359 0.681782 0.084015 -0.028275 -914336.000000 0 0 1
-20.866834 -7.834898 28.100643 35.867206 0.359184 0.670577 0.085450 -0.028331 1168980.000000 0 0 1
-19.606434 -7.247198 28.570373 35.400569 0.354058 0.631641 0.074820 -0.032179 1405130.000000 0 0 1
-18.310434 -7.825198 27.904643 34.280822 0.403870 0.619788 0.076306 -0.027627 -758420.000000 0 0 1
-17.949734 -9.132498 28.349303 34.774681 0.470648 0.617673 0.077950 -0.023289 12754.400000 0 0 1
-17.443434 -9.291498 29.680553 35.658667 0.489436 0.587459 0.069632 -0.029050 -443149.000000 0 0 1
-16.104934 -8.580898 30.007023 35.120110 0.489551 0.546379 0.058332 -0.024882 473762.000000 0 0 1
-14.983734 -9.225898 29.347993 34.218915 0.551904 0.540106 0.051075 -0.024178 34167.100000 0 0 1
-13.749134 -8.737098 29.795613 33.958123 0.566090 0.500334 0.054272 -0.024840 360129.000000 0 0 1
-12.544034 -9.617998 29.328643 33.317082 0.654128 0.494326 0.066905 -0.027365 202287.000000 0 0 1
-12.244734 -9.412798 27.983993 31.963074 0.655376 0.504306 0.080198 -0.030486 -314720.000000 0 0 1
-11.144534 -10.236598 27.674023 31.541086 0.742959 0.500389 0.084622 -0.027873 -278295.000000 0 0 1
-10.644734 -9.885998 26.243033 29.995668 0.748459 0.505579 0.070855 -0.024454 -695852.000000 0 0 1
-11.488434 -10.276698 25.241963 29.576195 0.729782 0.548217 0.061444 -0.021305 -568811.000000 0 0 1
-10.871534 -10.127198 23.976413 28.206715 0.749966 0.554764 0.032346 -0.018133 -211676.000000 0 0 1
-11.763534 -10.564698 22.837573 27.776758 0.731758 0.605561 0.024653 -0.015551 -550362.000000 0 0 1
-11.894534 -11.982898 22.872673 28.429367 0.789099 0.635889 0.038539 -0.014742 192918.000000 0 0 1
-13.041434 -12.485498 22.195273 28.611130 0.763623 0.682883 0.037342 -0.006941 904647.000000 0 0 1
-14.304934 -12.490898 23.142073 29.936753 0.717803 0.687189 0.047956 -0.010398 -36997.200000 0 0 1
-15.485934 -12.922498 22.507473 30.222366 0.695407 0.730668 0.044172 0.000249 -456817.000000 0 0 1
-16.521134 -12.904598 23.446563 31.451833 0.663108 0.729549 0.046177 -0.003898 -660470.000000 0 0 1
-17.777334 -13.575098 22.873873 31.992670 0.652160 0.774212 0.067757 -0.011118 -796069.000000 0 0 1
-17.726834 -14.988998 22.865873 32.584641 0.701907 0.792963 0.056725 -0.009639 599546.000000 0 0 1
-18.938134 -15.751098 22.801473 33.565714 0.693781 0.823976 0.071120 -0.012680 821949.000000 0 0 1
-19.860934 -15.696698 24.096493 34.949735 0.668817 0.810051 0.067357 -0.019114 104365.000000 0 0 1
-19.498634 -16.574698 25.147413 35.879098 0.704520 0.794147 0.059352 -0.017707 45421.300000 0 0 1
-20.385734 -16.553398 26.245063 37.126762 0.682021 0.785685 0.057670 -0.019379 -225125.000000 0 0 1
-20.010334 -17.522798 27.366603 38.162715 0.719219 0.771159 0.053209 -0.019403 -105344.000000 0 0 1
-20.048934 -18.914698 27.090373 38.647300 0.756296 0.794048 0.061807 -0.019932 90900.200000 0 0 1
-19.798334 -19.645398 28.255433 39.702458 0.781521 0.778910 0.057347 -0.024047 -267700.000000 0 0 1
-19.948234 -21.211598 28.117833 40.478098 0.816083 0.802873 0.063701 -0.019897 -663091.000000 0 0 1
-21.233134 -21.713198 27.982163 41.295404 0.796576 0.826289 0.064640 -0.017995 -790358.000000 0 0 1
-21.123934 -23.077998 27.766413 41.830470 0.829577 0.844929 0.072523 -0.013241 -103275.000000 0 0 1
-22.364134 -23.769698 27.170243 42.466164 0.815856 0.876546 0.079314 -0.008316 -19077.000000 0 0 1
-23.321134 -24.053298 28.171513 43.772943 0.800852 0.871626 0.068182 -0.001682 -121399.000000 0 0 1
-24.420934 -24.740998 27.620233 44.400183 0.791908 0.899407 0.050689 0.003483 269324.000000 0 0 1
-25.301584 -25.534538 28.653913 45.969876 0.789981 0.897816 0.030194 0.006419 -43070.100000 0 0 1
-26.087034 -24.741898 29.521923 46.521380 0.758940 0.883321 0.024942 0.013060 -220388.000000 0 0 1
-26.610244 -25.614838 30.399993 47.837063 0.766341 0.882153 0.020864 0.012176 -440233.000000 0 0 1
-27.610684 -24.925498 31.388073 48.670745 0.734331 0.869896 0.003895 0.011565 867648.000000 0 0 1
-28.922614 -24.938598 30.803573 49.064359 0.711564 0.892047 0.005339 0.011688 877896.000000 0 0 1
-29.801584 -23.982998 31.423253 49.504943 0.677634 0.883112 0.016019 -0.004471 455700.000000 0 0 1
-31.126284 -23.732698 30.647903 49.712980 0.651431 0.906510 0.021361 -0.006870 29276.500000 0 0 1
-32.060954 -24.768498 30.800483 50.892563 0.657774 0.920772 0.014236 -0.010932 85981.400000 0 0 1
-33.115654 -24.679298 29.813823 50.937003 0.640451 0.945537 0.010433 -0.012056 292838.000000 0 0 1
-34.227564 -25.640338 30.233743 52.373965 0.642934 0.955419 0.004925 -0.010539 -464584.000000 0 0 1
-33.854814 -26.986418 30.197793 52.785622 0.672984 0.961752 0.004797 -0.012522 -490761.000000 0 0 1
-34.800372 -27.806678 30.818473 54.166922 0.674152 0.965563 0.009213 -0.017080 -257715.000000 0 0 1
-34.362195 -29.240298 31.043263 54.767140 0.705042 0.968152 0.008543 -0.019964 -224986.000000 0 0 1
-33.537754 -29.280268 32.174993 54.930367 0.717727 0.945002 0.015583 -0.011149 -563574.000000 0 0 1
-33.155914 -30.589448 32.439828 55.564119 0.745159 0.947362 0.022556 -0.021817 -147263.000000 0 0 1
-32.217324 -30.722578 33.651653 55.805613 0.761654 0.923520 0.028300 -0.020747 117936.000000 0 0 1
-32.825614 -30.333678 -33.516477 55.865975 0.745964 2.214228 0.019797 -0.010277 -123003.000000 0 0 1
-31.885914 -30.510218 -32.488727 54.800569 0.763354 2.205394 0.032465 -0.013019 98370.100000 0 0 1
-32.383034 -30.042568 -31.094717 54.019425 0.747924 2.184160 0.037704 -0.017499 143741.000000 0 0 1
-32.721214 -28.673468 -30.906837 53.367389 0.719564 2.188462 0.023255 -0.012856 426775.000000 0 0 1
-31.593984 -27.768498 -31.001427 52.252826 0.721044 2.205944 0.039911 -0.006284 675505.000000 0 0 1
-31.934994 -26.276508 -31.102497 51.746150 0.688497 2.215622 0.020394 -0.000267 -236469.000000 0 0 1
-32.613974 -25.719268 -29.973677 51.220830 0.667749 2.195905 0.011164 -0.003327 -32969.900000 0 0 1
-32.457044 -24.308398 -29.764747 50.302069 0.642823 2.203987 0.023277 -0.010443 302760.000000 0 0 1
-31.153714 -23.911298 -29.006627 48.823032 0.654624 2.206965 0.034396 -0.010735 209232.000000 0 0 1
-31.026734 -22.489398 -28.835907 47.957698 0.627203 2.215896 0.043315 -0.010751 326530.000000 0 0 1
-29.891034 -21.971198 -28.142137 46.563799 0.633860 2.219781 0.067570 -0.010886 333621.000000 0 0 1
-29.392884 -20.568098 -28.560757 45.855263 0.610568 2.243171 0.079748 -0.022093 77423.300000 0 0 1
-28.821034 -20.492498 -29.864137 46.286728 0.618088 2.272080 0.091267 -0.017177 441489.000000 0 0 1
-28.513504 -19.116198 -30.125457 45.672663 0.590601 2.291076 0.089217 -0.026674 -490974.000000 0 0 1
-28.353894 -18.731498 -31.620087 46.418124 0.583813 2.320199 0.100173 -0.020773 -421563.000000 0 0 1
-29.463444 -18.656398 -32.454557 47.638787 0.564478 2.320283 0.092304 -0.032285 -308571.000000 0 0 1
-30.337864 -17.599098 -32.118457 47.557434 0.525661 2.312251 0.071982 -0.026699 -834496.000000 0 0 1
-30.948814 -16.809998 -33.303027 48.471608 0.497573 2.328235 0.073185 -0.036494 392579.000000 0 0 1
-32.043734 -17.387098 -34.011257 49.858577 0.497148 2.321502 0.076216 -0.040210 -197636.000000 0 0 1
-33.279894 -17.143998 -33.435297 50.193497 0.475691 2.299802 0.072913 -0.033266 -522844.000000 0 0 1
-34.479042 -17.653498 34.076303 51.591130 0.473207 0.849303 0.080402 -0.038832 15782.000000 0 0 1
-34.497263 -19.113798 34.073616 52.119187 0.505960 0.858249 0.040129 -0.035907 962.864000 0 0 1
-35.234804 -19.606298 32.980122 52.092099 0.507779 0.885230 0.031016 -0.026684 -413601.000000 0 0 1
-35.732142 -20.995598 33.258264 53.138622 0.531239 0.894540 0.012367 -0.024529 -183479.000000 0 0 1
-34.681551 -21.900598 33.097806 52.705890 0.563243 0.891852 0.029040 -0.025707 -347698.000000 0 0 1
-35.076883 -23.114498 33.654871 53.826741 0.582653 0.895352 0.025020 -0.020421 -273817.000000 0 0 1
-33.901324 -24.158798 33.762367 53.598924 0.619146 0.889362 0.024175 -0.015269 1021570.000000 0 0 1
-32.896794 -23.773998 -33.669527 52.735558 0.625789 2.263292 0.017286 -0.021753 488524.000000 0 0 1
-32.125194 -22.584898 -33.888117 51.870128 0.612755 2.282766 0.032444 -0.021903 -824068.000000 0 0 1
-30.781664 -22.661598 -33.123977 50.579212 0.634613 2.284837 0.037516 -0.018175 -405661.000000 0 0 1
-29.867584 -23.657698 -33.490957 50.728724 0.669897 2.291877 0.032530 -0.015940 -268356.000000 0 0 1
-28.635134 -23.422498 -32.851667 49.475412 0.685599 2.296952 0.052548 -0.021632 -105812.000000 0 0 1
-28.374704 -23.953298 -31.377217 48.614957 0.701104 2.272373 0.057528 -0.008194 -551761.000000 0 0 1
-28.053484 -25.340508 -31.316997 49.090667 0.734631 2.262619 0.052672 -0.011143 30300.500000 0 0 1
-27.468374 -25.696028 -30.073007 48.157899 0.752073 2.245245 0.042517 -0.014900 33754.800000 0 0 1
-27.061714 -27.195988 -30.006667 48.706860 0.787873 2.234536 0.042485 -0.010627 -130745.000000 0 0 1
-28.098434 -28.144008 -30.046457 49.843724 0.786208 2.217819 0.031164 -0.002219 58906.500000 0 0 1
-27.606234 -29.421318 -29.667177 50.078534 0.817216 2.204847 0.023364 -0.006795 253650.000000 0 0 1
-28.546064 -30.571258 -30.106357 51.535156 0.819642 2.194679 0.032198 0.003687 24341.400000 0 0 1
-28.314754 -30.821628 -31.483497 52.372785 0.827764 2.215726 0.046594 -0.014187 241704.000000 0 0 1
-28.655644 -32.159178 -31.752847 53.512634 0.842944 2.206037 0.060469 -0.006797 -330704.000000 0 0 1
-28.069194 -32.723378 -33.066227 54.332997 0.861808 2.225072 0.046841 -0.013035 335719.000000 0 0 1
-26.656074 -32.779248 -33.185287 53.724191 0.888058 2.236608 0.027294 -0.006507 107776.000000 0 0 1
-26.296684 -33.341138 33.941781 54.361673 0.902974 0.896472 0.036824 -0.007898 14571.600000 0 0 1
-24.759234 -33.381588 33.761402 53.546077 0.932626 0.888585 0.028733 -0.004048 91366.900000 0 0 1
-24.390934 -33.973038 32.535277 52.987066 0.948125 0.909649 0.032143 0.001963 325004.000000 0 0 1
-23.527334 33.269310 32.844506 52.336832 -0.955269 0.892381 0.022334 0.011616 -479945.000000 0 0 1
-23.448634 32.140199 31.779803 50.919413 -0.940497 0.896792 0.014048 -0.002110 -205539.000000 0 0 1
-24.666734 31.458509 31.528213 50.912805 -0.905824 0.902998 0.048218 -0.031308 98651.600000 0 0 1
-24.463934 30.575689 30.396443 49.571166 -0.895988 0.910706 0.045864 -0.021589 306757.000000 0 0 1
-25.746854 29.852769 29.870783 49.460610 -0.859112 0.922373 0.047246 -0.021957 258613.000000 0 0 1
-26.185854 28.795009 30.712513 49.579329 -0.832818 0.902739 0.046417 -0.023041 455667.000000 0 0 1
-27.526504 28.473929 30.353253 49.897825 -0.802315 0.916869 0.056867 -0.026769 488455.000000 0 0 1
-28.059044 27.248259 31.086663 49.961566 -0.770740 0.899232 0.051898 -0.046118 -204687.000000 0 0 1
-27.313274 26.122779 30.627343 48.646157 -0.763123 0.889765 0.053027 -0.031429 102607.000000 0 0 1
-27.769594 24.858329 31.069883 48.522412 -0.730137 0.875881 0.067321 -0.027311 507414.000000 0 0 1
-28.860904 24.321659 30.072013 48.257857 -0.700252 0.898029 0.083116 -0.028073 582683.000000 0 0 1
-28.247844 24.014659 28.842853 46.973978 -0.704576 0.909656 0.084975 -0.032283 -162550.000000 0 0 1
-29.112924 23.321119 27.953733 46.613818 -0.675385 0.927686 0.100267 -0.023171 -155859.000000 0 0 1
-28.487394 22.856119 26.659803 45.218125 -0.676156 0.940255 0.120311 -0.031003 -323174.000000 0 0 1
-27.385564 22.034519 26.981093 44.311042 -0.677542 0.916120 0.108444 -0.032566 51706.800000 0 0 1
-26.684454 21.688819 25.764363 42.968213 -0.682490 0.927777 0.082790 -0.016234 -90941.900000 0 0 1
-25.272094 21.193519 26.110363 42.066554 -0.697846 0.901172 0.060693 -0.022839 -356132.000000 0 0 1
-25.313934 19.914819 26.764693 41.877727 -0.666587 0.877449 0.109058 -0.033141 -269137.000000 0 0 1
-24.035334 19.459719 27.054623 41.089299 -0.680585 0.852059 0.063435 -0.025898 -664555.000000 0 0 1
-24.073834 18.103119 27.836623 41.014021 -0.644769 0.824792 0.102910 -0.024655 820953.000000 0 0 1
-22.774334 17.611619 28.239273 40.327359 -0.658253 0.795047 0.063423 -0.020135 821437.000000 0 0 1
-22.878834 16.405619 29.029093 40.438516 -0.622088 0.770076 0.068531 -0.019158 -584430.000000 0 0 1
-21.560634 15.741419 29.408323 39.717787 -0.630643 0.737083 0.059578 -0.022803 -389606.000000 0 0 1
-20.724934 16.503819 30.236733 40.201479 -0.672497 0.719508 0.073225 -0.020486 -607983.000000 0 0 1
-19.427534 16.019719 30.237903 39.349602 -0.689555 0.694393 0.047479 -0.017535 -1089260.000000 0 0 1
-18.451834 16.580919 31.222783 39.878054 -0.732044 0.671392 0.023794 -0.023020 -816368.000000 0 0 1
-18.565234 15.965119 32.495020 40.687580 -0.710241 0.645753 0.008292 -0.015195 74688.300000 0 0 1
-17.734134 16.583119 33.427328 41.314471 -0.751870 0.628186 0.015101 -0.013301 -1026850.000000 0 0 1
-18.040934 16.286519 -33.443267 41.342207 -0.734334 2.513139 0.004441 -0.015299 780856.000000 0 0 1
-19.214334 16.933719 -32.914577 41.705046 -0.722391 2.480339 0.018344 -0.013829 1696130.000000 0 0 1
-20.486834 16.357119 -33.277037 42.363037 -0.673777 2.474333 0.011299 -0.004201 852476.000000 0 0 1
-21.748634 17.094819 -32.738077 42.860443 -0.666157 2.440022 0.022107 -0.012735 335164.000000 0 0 1
-21.791734 16.964319 -31.318007 41.755064 -0.661477 2.418920 0.026143 -0.013674 -130639.000000 0 0 1
-22.803834 17.681619 -30.677657 42.116186 -0.659547 2.386788 0.036686 -0.017299 -729904.000000 0 0 1
-22.776634 17.432419 -29.108647 40.865360 -0.653262 2.363575 0.036593 -0.011064 152395.000000 0 0 1
-23.313534 16.169819 -28.689057 40.349051 -0.606405 2.361747 0.024331 -0.014208 657053.000000 0 0 1
-24.730834 16.079519 -28.889197 41.288628 -0.576502 2.345758 0.034501 -0.012773 498832.000000 0 0 1
-25.421034 15.044419 -27.951697 40.667688 -0.534376 2.328589 0.039453 -0.005749 -35551.500000 0 0 1
-25.062814 13.683119 -28.197587 40.130740 -0.499731 2.349902 0.013281 0.003771 55369.200000 0 0 1
-25.939114 12.893719 -27.426197 39.890875 -0.461306 2.328879 0.005770 -0.001086 -130275.000000 0 0 1
-25.724264 11.326419 -27.404027 39.255652 -0.414759 2.343525 0.012923 -0.003561 6567.990000 0 0 1
-24.660434 11.002519 -26.544527 37.865609 -0.419657 2.347622 0.005046 -0.005745 65333.000000 0 0 1
-23.570134 10.376019 -27.224067 37.474829 -0.414690 2.383957 0.000430 -0.001912 779957.000000 0 0 1
-22.480834 9.823719 -26.222537 35.909815 -0.411976 2.389459 0.030053 -0.008902 198460.000000 0 0 1
-22.959334 8.739019 -25.422857 35.352838 -0.363698 2.373328 0.044030 -0.004775 -707259.000000 0 0 1
-22.060634 8.044519 -24.640827 34.037571 -0.349670 2.380279 0.060978 -0.001029 -1222850.000000 0 0 1
-22.620534 6.851719 -23.859027 33.584040 -0.294114 2.360902 0.071231 -0.001835 -288292.000000 0 0 1
-23.168834 5.935319 -24.739327 34.410132 -0.250784 2.373094 0.065156 -0.012820 99012.000000 0 0 1
-23.300634 4.721819 -23.990927 33.775430 -0.199940 2.360731 0.077159 -0.004944 -407378.000000 0 0 1
35.352858 24.868102 -10.216827 44.414306 0.613021 1.802910 0.041690 0.006387 336528.000000 0 0 1
36.247678 24.189302 -9.316527 44.562475 0.588464 1.781417 0.047996 0.002129 -236767.000000 0 0 1
-35.790574 23.366202 -10.035727 43.905129 -0.578383 1.801413 0.065814 0.004166 -57935.300000 0 0 1
-34.705484 22.610002 -9.197427 42.429653 -0.577416 1.789300 0.060790 0.001543 639298.000000 0 0 1
-35.299061 21.729202 -8.247927 42.263580 -0.551793 1.767211 0.066492 -0.005257 -20355.100000 0 0 1
-34.269244 21.072602 -7.576727 40.937054 -0.551313 1.756952 0.052401 -0.004657 -45937.300000 0 0 1
-34.763282 20.121202 -6.450827 40.681220 -0.524690 1.730039 0.067754 0.006253 47939.000000 0 0 1
-35.544548 18.990702 -6.737827 40.859025 -0.490693 1.736457 0.071853 -0.003273 145419.000000 0 0 1
-35.973265 18.372602 -5.572227 40.775948 -0.472194 1.707880 0.070789 -0.012213 -453688.000000 0 0 1
36.088808 17.111802 -5.949027 40.380772 0.442761 1.718658 0.068847 -0.002675 415462.000000 0 0 1
34.904828 17.514202 -6.670427 39.618037 0.465063 1.739971 0.065959 -0.001662 405295.000000 0 0 1
34.476908 16.399802 -7.399327 38.889082 0.443999 1.762231 0.075662 0.000679 -324865.000000 0 0 1
33.341818 16.675702 -8.371527 38.207830 0.463763 1.791693 0.046742 -0.009629 -286221.000000 0 0 1
32.799248 15.594402 -9.098227 37.440002 0.443815 1.816262 0.059171 -0.013584 167645.000000 0 0 1
32.008348 16.133202 -10.166227 37.258109 0.466867 1.847160 0.059894 -0.012040 -235024.000000 0 0 1
31.485768 15.010602 -11.116327 36.609349 0.444869 1.879315 0.052840 -0.013711 631490.000000 0 0 1
30.315958 14.251502 -10.739627 35.178149 0.439442 1.881042 0.051521 -0.008972 985932.000000 0 0 1
30.331468 13.643802 -9.432727 34.570618 0.422707 1.847155 0.040777 -0.008268 -838068.000000 0 0 1
29.090358 12.737702 -9.324027 33.097363 0.412718 1.856377 0.045151 0.000822 -254551.000000 0 0 1
29.101098 11.591302 -10.163627 32.932226 0.379050 1.884541 0.045660 -0.004326 151064.000000 0 0 1
28.315848 10.550002 -9.652227 31.721527 0.356650 1.879979 0.061666 -0.004647 -774397.000000 0 0 1
28.645118 9.176402 -10.241727 31.774866 0.310018 1.898977 0.070475 -0.003992 -354853.000000 0 0 1
29.819768 8.732602 -9.604727 32.522725 0.284881 1.870591 0.059400 -0.006355 111198.000000 0 0 1
29.859888 7.346502 -9.669227 32.234732 0.241241 1.875450 0.058911 -0.008163 -402346.000000 0 0 1
30.904388 6.816302 -8.649327 32.807835 0.217085 1.837586 0.069761 -0.009920 191894.000000 0 0 1
32.193958 7.013502 -9.193827 34.207698 0.214500 1.842907 0.072664 -0.017697 -197782.000000 0 0 1
33.217078 6.587902 -8.333427 34.874356 0.195788 1.812087 0.080869 -0.020788 -950.659000 0 0 1
34.657958 6.830702 -8.813527 36.407565 0.194595 1.815305 0.088571 -0.023063 53255.700000 0 0 1
35.044028 6.036602 -9.933927 36.921638 0.170584 1.843207 0.091332 -0.027229 963941.000000 0 0 1
-36.406734 6.222102 -10.163527 38.307468 -0.169270 1.839326 0.099651 -0.036839 140945.000000 0 0 1
-35.842819 5.301302 -11.256227 37.940929 -0.146840 1.872008 0.095399 -0.039310 1909700.000000 0 0 1
-34.387102 5.262502 -11.490227 36.635939 -0.151859 1.889813 0.091089 -0.041948 2645280.000000 0 0 1
-33.798234 6.423702 -12.161527 36.489550 -0.187820 1.910585 0.076355 -0.038186 149787.000000 0 0 1
-33.178764 7.550502 -11.283227 35.849012 -0.223760 1.890982 0.070802 -0.021330 575030.000000 0 0 1
-34.252528 8.306702 -10.633527 36.814519 -0.237920 1.863812 0.086211 -0.023355 1177090.000000 0 0 1
-34.553178 9.559702 -11.224927 37.567392 -0.269915 1.874225 0.088896 -0.025712 459215.000000 0 0 1
-35.425703 10.418602 -10.221827 38.314663 -0.286033 1.840853 0.085814 -0.018216 694072.000000 0 0 1
-34.647197 10.850702 -9.131027 37.437169 -0.303501 1.817184 0.075601 -0.009529 423248.000000 0 0 1
-35.471521 11.729202 -8.367627 38.286030 -0.319347 1.791130 0.069090 -0.009313 180866.000000 0 0 1
-34.674091 12.697902 -7.442527 37.668561 -0.351040 1.769684 0.071032 -0.009373 27279.700000 0 0 1
-33.781044 13.497602 -8.151027 37.279799 -0.380128 1.791222 0.057481 -0.010977 -240658.000000 0 0 1
-33.115474 14.390402 -7.242127 36.826168 -0.409934 1.768744 0.067329 -0.008288 -161894.000000 0 0 1
-32.199684 15.378402 -7.908427 36.549392 -0.445563 1.788898 0.052190 -0.013241 -265354.000000 0 0 1
-32.858094 16.278402 -8.802327 37.711028 -0.459973 1.806385 0.039832 -0.009242 -158905.000000 0 0 1
-32.173904 17.478902 -8.911527 37.684047 -0.497656 1.809538 0.040190 -0.003396 18833.400000 0 0 1
-32.887434 18.396802 -9.938527 38.971784 -0.510022 1.828663 0.020604 -0.000879 310713.000000 0 0 1
-32.493654 18.284502 -11.305427 38.961176 -0.512549 1.865202 0.011382 0.000643 65703.000000 0 0 1
-33.428844 18.985002 -12.106327 40.304851 -0.516499 1.875876 0.009566 -0.003533 146915.000000 0 0 1
-33.005684 18.912002 -13.621627 40.405293 -0.520324 1.914658 0.000380 0.005414 -138562.000000 0 0 1
-32.143114 19.982502 -13.908227 40.322685 -0.556203 1.922953 0.006340 0.001119 -33525.700000 0 0 1
-32.099014 20.261102 -15.341827 40.941795 -0.563050 1.954894 -0.010965 0.004072 -521486.000000 0 0 1
-31.158024 21.455802 -15.605827 40.923291 -0.603042 1.962045 0.010914 -0.004075 -118664.000000 0 0 1
-29.801754 21.163502 -15.324927 39.634476 -0.617501 1.967800 -0.000453 -0.000788 849738.000000 0 0 1
-28.986534 22.345702 -14.990727 39.550871 -0.656743 1.959538 0.009239 -0.003419 465225.000000 0 0 1
-28.466954 23.253002 -16.130127 40.140385 -0.684926 1.984325 0.003855 -0.001172 -672414.000000 0 0 1
-29.430894 23.898702 -16.971527 41.537431 -0.682032 1.991698 0.018006 0.002479 257526.000000 0 0 1
-28.865854 24.572302 -18.082327 42.000072 -0.705224 2.015877 0.005214 0.003946 167493.000000 0 0 1
-27.846004 25.741102 -17.856527 41.914911 -0.746138 2.010884 0.024544 0.000339 271566.000000 0 0 1
-28.423814 26.906002 -17.344927 42.809959 -0.757973 1.987951 0.043000 -0.001892 -224776.000000 0 0 1
-27.526874 27.971602 -17.252327 42.869360 -0.793411 1.984977 0.043795 -0.001851 -127536.000000 0 0 1
-28.301584 29.257302 -16.914227 44.080159 -0.802001 1.964612 0.038211 0.001131 326957.000000 0 0 1
-28.820414 29.528002 -15.581527 44.105591 -0.797525 1.931869 0.039504 -0.001909 283375.000000 0 0 1
-27.818414 29.492302 -14.592427 43.088269 -0.814597 1.916293 0.033298 0.005380 -208709.000000 0 0 1
-28.116674 30.229302 -13.232727 43.352775 -0.821591 1.880980 0.040100 0.003531 -127767.000000 0 0 1
-27.938234 31.562202 -13.504027 44.261453 -0.846230 1.880836 0.052889 0.003595 57040.500000 0 0 1
-28.252294 32.370002 -12.389727 44.715931 -0.853218 1.851546 0.053082 -0.002990 -113128.000000 0 0 1
-27.571864 33.744802 -12.369627 45.298201 -0.885733 1.847380 0.035681 -0.002024 -136554.000000 0 0 1
-27.867464 -33.853715 -13.530927 45.888512 0.882084 1.870111 0.033873 -0.012319 -31489.000000 0 0 1
-27.035724 -32.729415 -13.677427 44.600639 0.880379 1.882483 0.032834 -0.018016 -161625.000000 0 0 1
-27.274584 -32.026215 -15.029627 44.670696 0.865355 1.913945 0.027877 -0.013950 134792.000000 0 0 1
-27.013224 -32.785515 -16.216827 45.470757 0.881629 1.935468 0.015704 -0.012986 138773.000000 0 0 1
-27.485404 -32.131515 -17.428327 45.734323 0.863174 1.961758 0.026787 0.000519 -13533.200000 0 0 1
-26.590424 -32.500815 -18.630927 45.939798 0.885088 1.988378 0.015550 0.006706 -242199.000000 0 0 1
-26.695814 -33.779015 -19.223227 47.151042 0.901993 1.990724 0.018597 0.015745 172002.000000 0 0 1
-26.310694 33.460002 -18.326227 46.343014 -0.904445 1.977351 0.004180 0.006371 -200991.000000 0 0 1
-26.429984 32.049602 -18.971127 45.668640 -0.881199 1.999188 0.017057 -0.005486 1454470.000000 0 0 1
-27.791614 31.562802 -19.164427 46.215360 -0.848850 1.998384 0.040703 -0.003005 1510630.000000 0 0 1
-28.439914 31.988002 -20.390027 47.411118 -0.844047 2.015365 0.038406 0.004706 461643.000000 0 0 1
-29.957804 31.680402 -20.498327 48.179864 -0.813338 2.010260 0.040834 0.000583 387348.000000 0 0 1
-30.319784 30.305902 -20.688227 47.599787 -0.785169 2.020422 0.040345 -0.010682 352269.000000 0 0 1
-31.721634 30.215102 -20.873727 48.527589 -0.761079 2.015446 0.055861 -0.007473 119791.000000 0 0 1
-32.242344 28.766902 -21.071327 48.073945 -0.728494 2.024515 0.053853 -0.008017 521089.000000 0 0 1
-33.626294 28.604102 -21.384627 49.053283 -0.704869 2.021887 0.061301 -0.007818 463596.000000 0 0 1
-33.716494 27.265202 -21.881627 48.569525 -0.680000 2.038146 0.051352 0.004348 -450936.000000 0 0 1
-35.063391 26.576402 -22.095927 49.233896 -0.648572 2.036213 0.039035 0.007597 -7684.110000 0 0 1
-35.811126 27.127902 -23.206927 50.566009 -0.648301 2.047602 0.036747 0.001994 -87033.400000 0 0 1
36.081138 26.241502 -23.695027 50.516524 0.628809 2.059017 0.047859 0.006306 207590.000000 0 0 1
35.183728 26.803602 -24.818627 50.717768 0.651022 2.082138 0.059911 -0.012169 207220.000000 0 0 1
35.894318 26.850802 -26.033397 51.837297 0.642253 2.096953 0.073146 -0.014343 183862.000000 0 0 1
35.028068 27.283702 -27.089887 52.011805 0.661748 2.118632 0.073546 -0.005777 -115063.000000 0 0 1
35.759118 27.529802 -28.341407 53.290148 0.656096 2.131559 0.077982 -0.006961 -570631.000000 0 0 1
36.106348 26.337302 -28.972687 53.261040 0.630210 2.145964 0.077686 0.000957 257471.000000 0 0 1
-36.033168 26.589602 -30.207497 54.017488 -0.635725 2.164237 0.039043 0.005469 -583265.000000 0 0 1
-35.385292 25.335302 -30.866747 53.354967 -0.621373 2.187706 0.023653 0.008038 48688.900000 0 0 1
-34.343552 24.649602 -30.239407 51.975996 -0.622530 2.191731 0.029576 0.009435 -808776.000000 0 0 1
-33.148794 25.368502 -30.238257 51.543725 -0.653216 2.197715 -0.001060 0.018937 -302007.000000 0 0 1
-32.057414 24.612202 -29.353897 49.950871 -0.654767 2.198954 -0.010511 0.020297 -10516.900000 0 0 1
-31.527424 23.387902 -29.803347 49.287036 -0.638250 2.220172 0.001277 0.014259 218847.000000 0 0 1
-31.851614 22.412302 -28.860147 48.474165 -0.613170 2.208525 -0.007182 0.016266 -178172.000000 0 0 1
-31.657444 20.982102 -29.427507 48.046025 -0.585311 2.229998 -0.005332 0.010169 -194194.000000 0 0 1
-30.330824 20.589102 -29.670467 47.161495 -0.596368 2.251223 0.023475 0.010742 -106330.000000 0 0 1
-30.321504 19.310602 -30.217007 46.961265 -0.567084 2.269787 0.017277 -0.001826 -732991.000000 0 0 1
-28.948934 18.714202 -30.462217 46.002269 -0.573880 2.294533 0.044313 -0.011717 -1053600.000000 0 0 1
-28.525274 19.110602 -31.736987 46.756205 -0.590275 2.316891 0.062069 -0.014034 9388.130000 0 0 1
-27.221374 18.600102 -31.988107 45.936978 -0.599423 2.341092 0.068063 -0.016066 174610.000000 0 0 1
-27.018254 17.143302 -32.423467 45.553925 -0.565407 2.362797 0.076892 -0.021642 -409587.000000 0 0 1
-27.191954 16.246502 -31.347227 44.564558 -0.538561 2.350982 0.042957 -0.008340 33713.400000 0 0 1
-27.015664 14.963102 -31.801457 44.329146 -0.505808 2.370851 0.033514 0.001671 -330385.000000 0 0 1
-27.505484 13.792602 -30.948217 43.641490 -0.464806 2.359084 0.024929 0.004738 -125722.000000 0 0 1
-28.908384 13.677702 -31.153327 44.646433 -0.441929 2.343088 0.032816 -0.006283 321244.000000 0 0 1
-29.505864 12.430502 -30.831457 44.448758 -0.398723 2.337327 0.030842 -0.001183 -39792.600000 0 0 1
-29.310474 11.733302 -29.446307 43.172436 -0.380774 2.321376 0.010924 -0.016438 -475051.000000 0 0 1
-29.959974 12.376002 -28.357057 43.068412 -0.391735 2.289512 -0.000642 -0.011179 384761.000000 0 0 1
-30.140294 11.491502 -27.261657 42.233753 -0.364254 2.272467 0.011123 -0.009289 -37364.700000 0 0 1
-30.119364 12.227702 -25.859827 41.538216 -0.385646 2.242800 -0.001101 -0.008133 -345042.000000 0 0 1
-28.841944 12.648602 -25.472967 40.505764 -0.413290 2.250899 0.011648 -0.014778 -352366.000000 0 0 1
-28.777804 13.396402 -24.265227 39.955310 -0.435678 2.223466 0.003096 -0.006211 -269566.000000 0 0 1
-27.331654 13.532302 -23.732427 38.644153 -0.459732 2.232076 0.020853 -0.003174 -806327.000000 0 0 1
-26.618594 14.386102 -24.590227 38.989598 -0.495484 2.253234 0.014734 -0.000699 483250.000000 0 0 1
-25.236514 14.576402 -24.264027 37.922238 -0.523780 2.265082 0.026471 -0.015286 700718.000000 0 0 1
-24.933434 15.273802 -22.918427 37.151305 -0.549620 2.235587 0.032679 -0.009802 -1104670.000000 0 0 1
-25.189954 16.656602 -22.923527 37.913906 -0.584236 2.220086 0.040802 -0.007722 18383.200000 0 0 1
-25.320204 17.210802 -21.614027 37.476534 -0.596989 2.185523 0.030853 -0.003634 595297.000000 0 0 1
-26.768974 17.177102 -20.998027 38.112307 -0.570504 2.154300 0.021181 0.001816 573315.000000 0 0 1
-27.388854 15.921602 -20.889327 37.947473 -0.526569 2.153735 0.024678 -0.001534 -365468.000000 0 0 1
-28.637794 16.071502 -20.286127 38.599784 -0.511401 2.124158 0.024898 0.002196 -918226.000000 0 0 1
-29.622314 14.919102 -20.594627 39.041001 -0.466559 2.126467 0.005651 -0.002909 -94824.100000 0 0 1
-30.131014 14.906902 -21.907927 40.125441 -0.459428 2.148362 -0.005482 0.005660 1060450.000000 0 0 1
-31.100514 15.935202 -22.311127 41.460330 -0.473500 2.139016 -0.021248 0.010556 344374.000000 0 0 1
-31.478724 15.870002 -23.777727 42.522315 -0.466962 2.164196 -0.023641 0.011047 -15973.300000 0 0 1
-32.450084 14.864702 -24.096127 43.064958 -0.429552 2.164615 -0.011041 0.001750 595318.000000 0 0 1
-32.992794 15.119102 -25.421957 44.310130 -0.429697 2.181846 -0.004206 -0.006050 876618.000000 0 0 1
-34.311368 14.304002 -25.768577 45.231560 -0.394980 2.176941 0.004495 -0.009312 726326.000000 0 0 1
-34.327501 12.859502 -25.925847 44.898704 -0.358431 2.186373 0.004506 -0.014862 -21943.600000 0 0 1
-34.263252 12.108702 -24.760827 43.973738 -0.339702 2.168907 -0.004289 -0.015633 -110399.000000 0 0 1
-34.025174 10.654902 -25.211267 43.667464 -0.303475 2.186272 0.009979 -0.024630 18533.400000 0 0 1
-35.240854 10.053702 -25.594847 44.700010 -0.277903 2.180460 0.017355 -0.018693 -14326.200000 0 0 1
-35.017502 8.857902 -26.250127 44.651507 -0.247759 2.199243 0.013031 -0.012196 41746.700000 0 0 1
-36.281014 8.168702 -26.824897 45.854277 -0.221458 2.195680 0.029002 -0.008330 93949.900000 0 0 1
35.596688 7.756602 -25.890787 44.694764 0.214549 2.188642 0.030653 -0.000847 -38496.300000 0 0 1
34.746618 6.880002 -26.584807 44.287852 0.195476 2.214639 0.049331 0.003469 -137330.000000 0 0 1
33.727038 6.124202 -25.696387 42.840673 0.179624 2.214064 0.058418 0.000808 220268.000000 0 0 1
34.391088 5.128202 -24.945327 42.793863 0.148024 2.193112 0.049878 -0.002475 634343.000000 0 0 1
33.488848 4.464302 -24.085527 41.491512 0.132526 2.190130 0.059512 -0.001088 419455.000000 0 0 1
34.314778 3.470002 -23.246327 41.592507 0.100780 2.163863 0.042306 0.005546 789293.000000 0 0 1
35.122218 2.478802 -23.930927 42.572338 0.070460 2.167748 0.048224 0.004016 501097.000000 0 0 1
35.973728 1.828602 -23.021027 42.748340 0.050788 2.139481 0.051244 0.003832 190081.000000 0 0 1
-35.957814 0.780502 -23.727727 43.088033 -0.021703 2.153975 0.071612 0.001283 424053.000000 0 0 1
36.235768 -0.422298 -24.170527 43.559426 -0.011654 2.159023 0.070338 0.004460 17866.300000 0 0 1
-35.735435 -1.370398 -24.694927 43.459622 0.038330 2.175146 0.077689 0.001398 -34047.900000 0 0 1
-23.064234 29.303402 27.218793 46.168289 -0.903981 0.940287 0.017173 -0.019102 -303073.000000 0 0 1
-24.440134 29.505102 26.914923 46.821835 -0.879015 0.958391 0.007908 -0.013214 781420.000000 0 0 1
-24.613034 29.052602 25.566533 45.863958 -0.867937 0.979494 0.003078 -0.008141 -245216.000000 0 0 1
-24.854534 27.484902 25.420733 44.937527 -0.835612 0.969526 0.011469 -0.010680 96824.600000 0 0 1
-26.121924 27.000002 25.893093 45.626826 -0.801926 0.967333 0.028788 -0.010142 674297.000000 0 0 1
-26.276514 26.737302 27.301033 46.375477 -0.794090 0.941352 0.047870 -0.011467 -1182100.000000 0 0 1
-25.464124 25.574802 27.818973 45.567393 -0.787567 0.914102 0.040858 -0.007282 620922.000000 0 0 1
-24.056934 25.778302 28.024923 45.040572 -0.819926 0.899227 0.015416 -0.003532 716755.000000 0 0 1
-23.791534 26.311002 29.309443 46.014664 -0.835642 0.880250 0.013997 -0.003308 -530413.000000 0 0 1
-22.434334 25.912802 29.878153 45.469513 -0.857222 0.853827 0.010361 0.006665 -1641740.000000 0 0 1
-21.320534 26.532802 29.346583 44.941925 -0.893892 0.859272 0.019246 -0.000111 700769.000000 0 0 1
-20.090134 26.060302 29.994223 44.524220 -0.914047 0.831645 0.045340 -0.007041 1438930.000000 0 0 1
-19.576434 24.641502 29.673773 43.254747 -0.899449 0.814787 0.038183 -0.002410 -900515.000000 0 0 1
-18.926634 24.442902 28.437443 42.004298 -0.911911 0.827100 0.035071 -0.006194 -60240.500000 0 0 1
-19.592234 23.605002 27.477953 41.183608 -0.878026 0.840345 0.029635 0.004926 -76156.400000 0 0 1
-19.597334 22.071502 27.732373 40.500508 -0.844705 0.816548 0.014487 0.014073 416184.000000 0 0 1
-20.420134 21.689002 28.847313 41.467603 -0.815522 0.801459 0.007373 0.010659 385010.000000 0 0 1
-20.325134 20.304802 29.032343 40.844497 -0.784898 0.780159 0.026737 0.004362 -20908.300000 0 0 1
-20.810634 19.781002 30.399953 41.815399 -0.760038 0.756848 0.031487 -0.004813 -242093.000000 0 0 1
-19.902934 19.954202 31.459513 42.237399 -0.786684 0.730522 0.020772 -0.002052 -155582.000000 0 0 1
-20.337934 19.472402 32.671210 43.130197 -0.763660 0.711318 0.022687 -0.001791 -306901.000000 0 0 1
-19.548734 20.099402 33.854538 43.957578 -0.799286 0.691698 0.019145 0.001917 -259160.000000 0 0 1
-19.637134 21.564302 33.935878 44.746842 -0.832138 0.709946 0.003379 0.005238 -236169.000000 0 0 1
-18.884434 22.283102 33.005409 44.073977 -0.867768 0.724450 0.017862 0.001025 -214263.000000 0 0 1
-17.386134 22.460202 33.412879 43.853835 -0.912057 0.704532 0.020285 0.009327 725599.000000 0 0 1
-16.640534 21.248602 33.561568 43.067264 -0.906424 0.677276 0.024329 -0.010600 -788619.000000 0 0 1
-15.280034 21.495502 33.656877 42.758875 -0.952827 0.664651 0.029157 -0.015566 -523748.000000 0 0 1
-14.347334 20.212302 33.466204 41.645767 -0.953502 0.637490 0.040756 -0.022828 888790.000000 0 0 1
-12.970834 20.360402 33.810402 41.544334 -1.003570 0.620068 0.023954 -0.023887 617034.000000 0 0 1
-12.711934 20.334902 -33.151737 40.916246 -1.012104 2.515348 0.037939 -0.018991 464411.000000 0 0 1
-11.184834 20.246302 -32.785657 40.123716 -1.066083 2.527183 0.031590 -0.023170 995261.000000 0 0 1
-10.444034 21.459702 -32.733647 40.510348 -1.117860 2.511600 0.030427 -0.019811 -1242210.000000 0 0 1
-9.169534 21.143302 -32.365107 39.731848 -1.161592 2.522816 0.034306 -0.022767 -1916370.000000 0 0 1
-8.161334 22.267602 -32.436977 40.182222 -1.219488 2.510269 0.033648 -0.022919 -487834.000000 0 0 1
-8.158834 23.313402 -31.440207 39.982095 -1.234154 2.475686 0.024818 -0.013551 89562.100000 0 0 1
-7.884734 22.870602 -30.083647 38.603877 -1.238803 2.464330 0.021476 -0.016374 -368229.000000 0 0 1
-7.641034 24.060502 -29.181807 38.585891 -1.263294 2.428407 0.016556 -0.014796 948482.000000 0 0 1
-6.529134 24.878902 -29.679487 39.274181 -1.314147 2.427518 0.026924 -0.011972 1107180.000000 0 0 1
-6.275934 25.993102 -28.834307 39.324877 -1.333884 2.393861 0.027657 -0.000949 854537.000000 0 0 1
-4.869334 26.649502 -29.124267 39.775989 -1.390072 2.392353 0.037097 -0.012278 669214.000000 0 0 1
-3.735734 25.906902 -28.704827 38.847012 -1.427585 2.402262 0.044980 -0.013513 938323.000000 0 0 1
-2.480434 26.273902 -29.293977 39.428512 -1.476669 2.408285 0.053858 -0.016855 1078370.000000 0 0 1
-1.854134 27.686002 -28.984947 40.125798 -1.503926 2.377994 0.063026 -0.029331 -475369.000000 0 0 1
-1.345934 27.758402 -27.659937 39.209853 -1.522347 2.353831 0.074672 -0.041883 158646.000000 0 0 1
-0.509534 28.881502 -27.537287 39.908683 -1.553156 2.332296 0.080253 -0.034411 -955920.000000 0 0 1
0.215366 28.990502 -26.182187 39.064082 1.563368 2.305324 0.088091 -0.050738 479629.000000 0 0 1
1.135166 27.918602 -25.864787 38.075243 1.530159 2.317615 0.126043 -0.062572 663344.000000 0 0 1
2.273366 27.800502 -26.697807 38.610996 1.489204 2.334299 0.126941 -0.062899 -665647.000000 0 0 1
3.619866 28.096402 -26.026117 38.469079 1.442665 2.313859 0.114902 -0.065606 -248347.000000 0 0 1
4.012366 27.056502 -25.115177 37.133886 1.423573 2.313580 0.133298 -0.061632 1094210.000000 0 0 1
5.382766 27.261902 -24.709027 37.184963 1.375857 2.297607 0.101947 -0.052129 1086100.000000 0 0 1
5.908566 26.199502 -23.648927 35.785427 1.348985 2.292752 0.097992 -0.046899 159147.000000 0 0 1
7.173766 26.525202 -23.123027 35.912723 1.306664 2.270338 0.075626 -0.044963 -657595.000000 0 0 1
7.853466 25.382302 -22.648927 34.912921 1.270732 2.276706 0.058787 -0.030055 630034.000000 0 0 1
9.358766 25.578302 -22.324727 35.216892 1.220039 2.257409 0.035603 -0.007063 -89949.900000 0 0 1
9.487466 26.295902 -21.112127 35.031534 1.224536 2.217627 0.037621 0.002624 767946.000000 0 0 1
10.844166 26.502502 -20.659927 35.310213 1.182405 2.195797 0.042800 -0.001300 1189250.000000 0 0 1
11.653766 25.274702 -20.144927 34.357516 1.138763 2.197320 0.034619 0.011821 -373045.000000 0 0 1
12.074566 24.390502 -21.129927 34.455269 1.111115 2.230973 0.036047 0.002217 -90393.900000 0 0 1
12.240566 23.074202 -20.626727 33.282310 1.083058 2.239221 0.031021 0.011596 -175068.000000 0 0 1
12.415366 21.981302 -21.736527 33.313594 1.056650 2.281652 0.033320 0.008115 46255.300000 0 0 1
11.191866 21.841302 -22.420327 33.241110 1.097264 2.311051 0.034401 -0.010493 -25587.400000 0 0 1
11.241866 20.891202 -23.460527 33.364925 1.077124 2.350613 0.041078 -0.011520 -231702.000000 0 0 1
10.529466 21.173602 -24.804827 34.270549 1.109317 2.380082 0.050997 -0.016444 -653422.000000 0 0 1
9.166266 20.926902 -24.633027 33.596751 1.157955 2.393807 0.049047 -0.023048 -958230.000000 0 0 1
8.649566 20.897502 -25.961167 34.431131 1.178361 2.424931 0.041186 -0.020753 -894887.000000 0 0 1
7.144166 20.698702 -26.099057 34.068111 1.238448 2.443524 0.046247 -0.031380 -210726.000000 0 0 1
6.193966 21.612802 -25.579367 34.055579 1.291689 2.420533 0.073616 -0.039026 58159.000000 0 0 1
6.288966 21.889102 -24.190027 33.224107 1.291022 2.386323 0.073029 -0.036361 -1387300.000000 0 0 1
4.971566 22.115802 -23.452727 32.616799 1.349675 2.373214 0.098646 -0.043746 -596820.000000 0 0 1
4.414266 23.308502 -23.864827 33.649695 1.383629 2.359179 0.099655 -0.045972 -59545.900000 0 0 1
3.004766 23.156602 -23.691827 33.264989 1.441759 2.363445 0.131120 -0.050824 411277.000000 0 0 1
2.105666 24.342402 -24.146527 34.351727 1.484509 2.350291 0.123940 -0.051204 131937.000000 0 0 1
0.772366 23.897702 -24.316927 34.102927 1.538488 2.364628 0.116848 -0.064137 158736.000000 0 0 1
0.084766 24.855102 -25.171767 35.375149 1.567386 2.362521 0.094835 -0.051989 550660.000000 0 0 1
-1.449234 24.737302 -25.357777 35.454919 -1.512278 2.367723 0.095833 -0.043576 245712.000000 0 0 1
-1.816434 23.491302 -25.877517 34.996951 -1.493626 2.403008 0.118645 -0.051348 -605068.000000 0 0 1
-2.944134 23.612802 -26.686237 35.754546 -1.446753 2.413392 0.102302 -0.039706 -481828.000000 0 0 1
-3.369534 22.286302 -27.349677 35.440624 -1.420740 2.452313 0.080522 -0.037861 69684.800000 0 0 1
-2.459034 21.735602 -28.342917 35.802293 -1.458141 2.484303 0.101100 -0.042896 374137.000000 0 0 1
-2.854534 20.487602 -28.904777 35.544006 -1.432358 2.520445 0.065364 -0.032510 437550.000000 0 0 1
-4.187934 20.443702 -29.763127 36.350068 -1.368740 2.530099 0.049145 -0.029363 713401.000000 0 0 1
-4.131734 20.917602 -31.091197 37.699865 -1.375782 2.540473 0.051265 -0.029827 -64485.900000 0 0 1
-4.051834 22.397402 -31.152567 38.581646 -1.391826 2.510605 0.062042 -0.029832 -212143.000000 0 0 1
-3.636634 22.786902 -32.613147 39.951037 -1.412538 2.525821 0.061782 -0.029741 287401.000000 0 0 1
-2.427934 22.113002 -32.966267 39.770020 -1.461438 2.547975 0.064963 -0.031713 425460.000000 0 0 1
-2.099534 22.505602 34.119294 40.927208 -1.477776 0.585098 0.057206 -0.010504 -72412.600000 0 0 1
-0.849734 21.716602 33.662608 40.068741 -1.531688 0.573289 0.060407 0.001581 239132.000000 0 0 1
-1.180834 20.340402 33.527623 39.232993 -1.512808 0.546060 0.055779 -0.005045 -227958.000000 0 0 1
-0.044434 19.663102 33.109785 38.508406 -1.568537 0.535905 0.060813 0.006766 -429568.000000 0 0 1
-0.245734 18.219602 32.721864 37.453099 -1.557310 0.508089 0.056239 0.023221 250884.000000 0 0 1
-0.983634 18.073002 31.496623 36.326824 -1.516424 0.521576 0.036912 0.014626 356811.000000 0 0 1
-1.369334 16.711402 31.270903 35.482606 -1.489039 0.492185 0.036079 0.012379 -311867.000000 0 0 1
-2.158134 16.623202 29.963973 34.334065 -1.441692 0.510053 0.035279 0.011734 1346100.000000 0 0 1
-3.563434 16.998402 30.075353 34.729966 -1.364155 0.523696 0.009822 0.001114 1282610.000000 0 0 1
-3.880634 18.310302 29.760363 35.156872 -1.361950 0.561416 0.016764 0.004265 -681394.000000 0 0 1
-5.353834 18.650902 29.950683 35.687015 -1.291258 0.574876 0.012939 -0.013180 -394077.000000 0 0 1
-6.206634 18.047202 29.010893 34.725433 -1.239556 0.581870 -0.009676 -0.005923 -392019.000000 0 0 1
-7.492734 18.613002 29.077643 35.328376 -1.188090 0.604005 0.011711 -0.021353 163540.000000 0 0 1
-8.545134 18.043202 28.011833 34.398244 -1.128497 0.619207 0.009366 -0.014811 768268.000000 0 0 1
-8.992334 16.701902 28.162103 33.954670 -1.076901 0.592758 0.015315 -0.016353 -133887.000000 0 0 1
-9.826134 16.569202 29.279603 35.048345 -1.035513 0.581925 0.023135 -0.020797 -563305.000000 0 0 1
-10.447734 15.110802 29.439373 34.701126 -0.965860 0.557899 0.030486 -0.018969 597558.000000 0 0 1
-9.429234 14.103502 29.575413 34.095810 -0.981474 0.520801 0.026869 -0.006833 539115.000000 0 0 1
-8.793834 13.957102 30.870283 35.001522 -1.008565 0.490771 0.026574 -0.009459 -243074.000000 0 0 1
-9.588134 13.528102 32.126123 36.152864 -0.954217 0.476471 0.069359 -0.024283 -407284.000000 0 0 1
-9.613634 12.155702 32.174073 35.712098 -0.901645 0.448890 0.058553 -0.012062 246103.000000 0 0 1
-10.145434 11.763102 33.406769 36.841724 -0.859102 0.435250 0.056187 -0.002175 -426420.000000 0 0 1
-10.403734 10.266102 33.568357 36.612362 -0.778740 0.410658 0.052338 -0.008235 -744130.000000 0 0 1
-9.277734 9.450702 33.585252 36.102094 -0.794633 0.375606 0.057268 -0.006554 -395611.000000 0 0 1
-9.365634 8.519602 -33.722527 36.020932 -0.738130 2.782433 0.089920 -0.011937 340101.000000 0 0 1
-8.526134 9.024502 -32.495877 34.786759 -0.813787 2.776652 0.085379 -0.016560 178075.000000 0 0 1
-9.156334 10.158802 -31.881247 34.690829 -0.837252 2.736360 0.078829 -0.019377 80104.300000 0 0 1
-8.420834 10.808902 -30.878547 33.782059 -0.908952 2.723960 0.070488 -0.017110 -614769.000000 0 0 1
-7.468734 11.913802 -31.293517 34.307505 -1.010834 2.719291 0.048855 -0.019209 -364195.000000 0 0 1
-8.060634 13.124002 -31.750207 35.288651 -1.020008 2.689944 0.053185 -0.022876 -379344.000000 0 0 1
-7.117834 13.976202 -32.291807 35.899284 -1.099750 2.689446 0.029344 -0.017431 -623195.000000 0 0 1
-7.569934 15.420702 -32.594607 36.844408 -1.114460 2.656551 0.033585 -0.021537 -227751.000000 0 0 1
-8.359234 15.597502 -33.748607 38.106789 -1.078816 2.658650 0.045141 -0.027647 88137.400000 0 0 1
-8.582634 16.982702 -33.983817 38.948345 -1.102858 2.631165 0.055677 -0.030798 -1632330.000000 0 0 1
-9.144734 17.251202 33.031545 38.370732 -1.083365 0.533853 0.053144 -0.036115 1148790.000000 0 0 1
-10.469734 16.717902 32.786936 38.263386 -1.011292 0.541619 0.029487 -0.032159 1150700.000000 0 0 1
-11.533334 17.232802 33.580433 39.466855 -0.980996 0.553193 0.037553 -0.039582 -193486.000000 0 0 1
-12.911334 16.719302 33.023858 39.202203 -0.913212 0.569078 0.041302 -0.037372 388923.000000 0 0 1
-13.047334 15.328302 33.060011 38.705995 -0.865610 0.546918 0.039693 -0.037332 -403073.000000 0 0 1
-14.370534 14.982502 33.313025 39.252328 -0.806244 0.557294 0.045293 -0.021666 -802017.000000 0 0 1
-14.709034 13.456502 33.267501 38.783498 -0.740957 0.539872 0.053483 -0.011489 -146980.000000 0 0 1
-14.649134 12.826802 31.977963 37.439472 -0.719171 0.546932 0.034129 -0.017508 -403337.000000 0 0 1
-13.375434 12.369102 31.639953 36.510046 -0.746329 0.522429 0.039440 -0.004188 -649662.000000 0 0 1
-13.352534 11.806202 30.217783 35.082630 -0.724012 0.532911 0.035211 0.004935 34822.900000 0 0 1
-13.857734 10.458402 30.078633 34.729513 -0.646501 0.523484 0.027768 0.012169 219129.000000 0 0 1
-13.963634 10.166702 28.708133 33.503757 -0.629327 0.541642 0.011119 0.010255 -298793.000000 0 0 1
-14.698834 8.833802 28.553453 33.307528 -0.541145 0.540858 0.024864 0.010014 9355.490000 0 0 1
-14.005334 7.598702 28.790823 32.905943 -0.497111 0.505478 -0.003724 0.011218 35569.600000 0 0 1
-14.832034 6.494102 28.438593 32.724855 -0.412698 0.517576 0.012684 0.014437 122133.000000 0 0 1
-14.165134 5.074102 28.454683 32.187986 -0.343971 0.486412 0.014494 0.012400 374993.000000 0 0 1
-13.239634 4.884302 27.370253 30.794074 -0.353425 0.476042 0.007464 0.008326 261315.000000 0 0 1
-13.866734 4.792202 26.053113 29.900103 -0.332741 0.512873 0.008360 0.010164 -758584.000000 0 0 1
-12.994034 4.458302 24.907643 28.444894 -0.330518 0.504026 0.006833 0.021026 -959214.000000 0 0 1
-12.339434 3.237302 25.181813 28.228805 -0.256572 0.468911 0.007113 0.012459 -102243.000000 0 0 1
-11.776834 2.759102 23.981343 26.859100 -0.230132 0.467146 0.013077 0.004409 -230917.000000 0 0 1
-10.724334 1.646002 24.077253 26.408990 -0.152294 0.423377 0.014677 0.003694 288674.000000 0 0 1
-9.384934 2.007802 24.355593 26.178295 -0.210762 0.375366 0.020451 -0.003648 111453.000000 0 0 1
-8.563634 0.953002 24.741093 26.198582 -0.110829 0.335130 0.020503 -0.004673 743066.000000 0 0 1
-7.025234 1.259502 24.665953 25.677801 -0.177398 0.281663 0.032888 -0.008992 476167.000000 0 0 1
-6.616334 1.206102 23.315173 24.265775 -0.180312 0.280831 0.031859 -0.006565 791280.000000 0 1 0
-5.259234 1.546302 22.966073 23.611249 -0.285958 0.234309 0.034877 -0.013088 961261.000000 0 1 0
-4.687134 2.953602 23.292273 23.942075 -0.562295 0.233513 0.052268 -0.016487 -590130.000000 0 1 0
-4.181934 3.062402 24.600453 25.140587 -0.632072 0.207663 0.055010 -0.019685 24471.200000 0 0 1
-3.751134 4.365202 24.939153 25.594674 -0.860913 0.226811 0.053593 -0.025919 -309836.000000 0 0 1
3.587066 -23.350498 12.821273 26.879320 -1.418369 1.073565 0.075410 -0.013686 184839.000000 0 0 1
3.567666 -24.576098 13.549673 28.289689 -1.426635 1.071325 0.064987 -0.015523 -975868.000000 0 0 1
2.388766 -25.222588 13.265173 28.598076 -1.476371 1.088462 0.038401 -0.008841 -728624.000000 0 0 1
2.269266 -26.549868 13.983373 30.092853 -1.485532 1.087530 0.031801 -0.005620 -149072.000000 0 0 1
2.135766 -26.420898 15.390773 30.651285 -1.490135 1.044742 0.050333 -0.011908 38369.200000 0 0 1
2.369166 -27.718418 15.931873 32.058513 -1.485531 1.050702 0.036111 -0.012154 -460714.000000 0 0 1
2.115066 -27.707848 17.457673 32.817201 -1.494610 1.009874 0.037804 -0.009089 199948.000000 0 0 1
3.038666 -26.855528 18.148173 32.554709 -1.458127 0.979465 0.064512 -0.016237 264136.000000 0 0 1
3.116566 -27.183398 19.510273 33.605072 -1.456645 0.951361 0.054788 -0.013508 -57211.200000 0 0 1
4.023466 -26.286478 20.366973 33.495982 -1.418913 0.917204 0.058508 -0.012981 -286963.000000 0 0 1
3.411466 -25.086928 20.709473 32.708934 -1.435640 0.885188 0.070973 -0.016246 225758.000000 0 0 1
4.140066 -24.316298 21.679873 32.839601 -1.402155 0.849745 0.090987 -0.019372 -128825.000000 0 0 1
3.331566 -23.181098 22.319573 32.351599 -1.428055 0.809437 0.100553 -0.018637 -237362.000000 0 0 1
2.749366 -22.248198 21.432273 31.014249 -1.447843 0.807861 0.114340 -0.018154 368876.000000 0 0 1
3.663766 -21.334698 20.758573 29.991847 -1.400727 0.806346 0.115275 -0.015762 51170.400000 0 0 1
3.051366 -20.236598 19.897873 28.543933 -1.421139 0.799457 0.103468 -0.022743 -440168.000000 0 0 1
2.648466 -19.139798 20.684473 28.305365 -1.433295 0.751359 0.084964 -0.023423 -134540.000000 0 0 1
1.599566 -18.423098 20.100373 27.312893 -1.484190 0.743757 0.063343 -0.028820 -196290.000000 0 0 1
1.343666 -17.136398 20.776873 26.965534 -1.492546 0.691175 0.057787 -0.030360 -240877.000000 0 0 1
2.394766 -16.238598 20.610573 26.348106 -1.424378 0.672541 0.036419 -0.019952 -387568.000000 0 0 1
1.920266 -14.954998 20.956373 25.816835 -1.443092 0.623683 0.034944 -0.023271 -497215.000000 0 0 1
2.822466 -13.799298 20.765573 25.091751 -1.369042 0.596003 0.009204 -0.013152 -1447650.000000 0 0 1
3.229466 -13.440298 19.453373 23.864299 -1.334984 0.617780 -0.008034 -0.011186 386519.000000 0 1 0
2.197166 -13.066998 18.514273 22.767351 -1.404208 0.621177 -0.001627 -0.010064 1384840.000000 0 1 0
1.133966 -11.924198 18.890773 22.368140 -1.475984 0.565092 -0.009399 -0.012136 586395.000000 0 1 0
1.791866 -10.683198 18.957773 21.834346 -1.404616 0.519123 0.002983 -0.002800 -156359.000000 0 1 0
1.311466 -9.773498 19.946873 22.251268 -1.437407 0.459132 0.007895 -0.009643 921126.000000 0 1 0
-0.185934 -9.298398 20.023173 22.077641 1.550803 0.434826 0.015222 -0.012268 826853.000000 0 1 0
-0.440834 -8.519798 21.174273 22.828296 1.519100 0.383007 0.019612 -0.013619 431572.000000 0 1 0
-1.820134 -8.114198 21.178273 22.752414 1.350134 0.374162 0.019675 -0.010202 870967.000000 0 1 0
-2.117734 -7.429098 22.519173 23.807340 1.293102 0.330464 0.029869 -0.005551 -46833.600000 0 1 0
-2.090534 -8.310098 23.593073 25.101019 1.324345 0.348386 0.026222 -0.000537 118422.000000 0 0 1
-2.354634 -7.646698 24.812973 26.071055 1.272082 0.311927 0.038269 0.003127 -12305.900000 0 0 1
-2.257634 -8.619398 25.980073 27.465526 1.314626 0.330391 0.031784 -0.003261 -914251.000000 0 0 1
-1.001034 -9.150998 26.155973 27.728645 1.461839 0.338411 0.032388 -0.004185 -726907.000000 0 0 1
-1.166834 -10.081198 27.166473 29.000160 1.455566 0.357514 0.024967 -0.013496 -488542.000000 0 0 1
0.058166 -10.953598 27.313373 29.427963 -1.565486 0.381403 0.010481 -0.011116 -393533.000000 0 0 1
1.045666 -10.407698 28.166073 30.045653 -1.470662 0.355586 0.007882 -0.009538 24741.000000 0 0 1
2.096366 -11.317798 28.452073 30.692145 -1.387645 0.384423 0.012749 -0.013928 -163658.000000 0 0 1
2.953066 -10.824498 29.619073 31.673014 -1.304464 0.362109 0.020182 -0.011873 -3180.960000 0 0 1
2.264666 -10.814198 30.855173 32.773728 -1.364364 0.343859 0.015257 -0.009927 -312869.000000 0 0 1
3.066266 -10.135698 31.758573 33.477475 -1.277028 0.321840 0.032285 -0.013585 -276990.000000 0 0 1
2.555566 -10.270298 33.186773 34.833487 -1.326918 0.308711 0.030599 -0.013883 -299360.000000 0 0 1
2.707766 -11.529198 33.866373 35.877369 -1.340115 0.336403 0.027332 -0.019321 170171.000000 0 0 1
2.382966 -11.447398 -33.129027 35.131950 -1.365561 2.802295 0.028161 -0.014304 -81701.700000 0 0 1
3.267466 -10.568498 -32.186527 34.034424 -1.270948 2.810553 0.025573 -0.011204 8462.020000 0 0 1
2.855266 -9.217898 -32.314127 33.724250 -1.270417 2.851393 0.036401 -0.016371 396558.000000 0 0 1
3.620666 -8.441998 -31.398427 32.714489 -1.165638 2.856983 0.043077 -0.015377 145083.000000 0 0 1
3.081066 -7.001098 -31.123527 32.049685 -1.156220 2.900604 0.036075 -0.022358 -72731.400000 0 0 1
3.275966 -6.017698 -32.110527 32.833377 -1.072271 2.931369 0.057782 -0.018636 -44328.600000 0 0 1
2.737066 -4.751898 -31.775227 32.244955 -1.048215 2.970695 0.052686 -0.019840 10890.000000 0 0 1
2.913366 -3.605198 -32.765727 33.091964 -0.891135 3.001060 0.059680 -0.018571 -44350.000000 0 0 1
2.101166 -3.748098 -33.911227 34.182371 -1.059855 3.015555 0.054542 -0.015496 16311.700000 0 0 1
2.537066 -2.897998 33.401873 33.623209 -0.851709 0.114805 0.069120 -0.023475 -140161.000000 0 0 1
1.786166 -3.243398 32.104573 32.317389 -1.067409 0.114825 0.071845 -0.021578 469068.000000 0 0 1
0.412566 -2.944298 31.969973 32.107916 -1.431579 0.092729 0.069201 -0.024411 -136466.000000 0 0 1
-0.125334 -3.530598 30.788973 30.990993 1.535312 0.114243 0.058177 -0.009057 596909.000000 0 0 1
-1.664034 -3.727198 30.831073 31.100097 1.150893 0.131627 0.058001 -0.016874 852289.000000 0 0 1
-2.498634 -2.530398 30.732273 30.937334 0.791714 0.115201 0.064830 -0.017584 628503.000000 0 0 1
-3.857334 -2.906898 30.576073 30.955214 0.645803 0.156673 0.059136 -0.016466 519021.000000 0 0 1
-4.757634 -1.853498 29.857273 30.290712 0.371495 0.169373 0.057331 -0.018496 37795.000000 0 0 1
-4.446734 -1.825998 28.480473 28.883300 0.389643 0.167208 0.057115 -0.017736 818.106000 0 0 1
-5.195234 -0.940498 27.622873 28.122910 0.179091 0.188856 0.053969 -0.017005 68921.200000 0 0 1
-5.455834 0.491902 28.118673 28.647301 -0.089918 0.192406 0.059118 -0.017604 -99944.000000 0 0 1
-6.565734 0.566502 28.986473 29.726173 -0.086068 0.223552 0.053559 -0.015871 -456512.000000 0 0 1
-6.787034 1.892302 29.272273 30.108314 -0.271906 0.236209 0.064099 -0.015446 939408.000000 0 0 1
-8.239034 2.319002 29.740273 30.947427 -0.274367 0.280224 0.036917 -0.009692 774131.000000 0 0 1
-9.247034 2.173602 28.784873 30.311731 -0.230868 0.318749 0.023745 -0.002227 196193.000000 0 0 1
-10.507134 2.601402 29.333173 31.266630 -0.242704 0.353513 0.012823 0.008587 24493.500000 0 0 1
-11.657034 2.042302 28.538473 30.895013 -0.173439 0.393105 0.010532 0.009286 -784130.000000 0 0 1
-11.719034 0.646902 28.707373 31.013988 -0.055145 0.388108 0.010082 0.006638 -130095.000000 0 0 1
-12.320134 0.035702 27.596273 30.221536 -0.002898 0.419893 0.009305 0.008282 -1137070.000000 0 0 1
-12.374734 -1.509598 27.700073 30.376092 0.121391 0.422897 0.012759 0.001924 59406.900000 0 0 1
-11.144234 -2.163398 27.951173 30.168564 0.191742 0.385794 0.027046 -0.002489 437667.000000 0 0 1
-10.015534 -1.907098 27.127773 28.980407 0.188162 0.359500 0.023283 -0.003605 -351515.000000 0 0 1
-10.037134 -2.625398 25.749373 27.760889 0.255837 0.383017 0.024489 -0.006564 -217731.000000 0 0 1
-11.002034 -2.086998 24.835373 27.243275 0.187465 0.423601 0.019124 -0.003064 345117.000000 0 0 1
-11.030034 -2.815598 23.626473 26.225931 0.249929 0.448999 0.025005 -0.001636 -210234.000000 0 0 1
-9.896234 -2.485798 22.623073 24.817696 0.246095 0.423709 0.026260 -0.000146 756951.000000 0 1 0
-8.563634 -2.694598 23.073473 24.758470 0.304848 0.371063 0.025093 -0.005432 383470.000000 0 1 0
-7.629934 -2.270398 22.044173 23.437494 0.289221 0.346546 0.022748 -0.008196 131305.000000 0 1 0
-6.179034 -2.356498 22.510373 23.461680 0.364344 0.285742 0.026646 -0.008840 -632892.000000 0 1 0
-5.570034 -3.598098 22.634473 23.585821 0.573540 0.284990 0.028473 -0.008902 -249596.000000 0 1 0
-6.059134 -4.564698 23.584173 24.774236 0.645647 0.311210 0.026884 -0.005974 -302072.000000 0 1 0
-5.773034 -6.007198 23.064573 24.523231 0.805273 0.346641 0.029004 -0.006591 -271459.000000 0 1 0
-6.624834 -6.532698 22.076673 23.957129 0.778396 0.398852 0.030789 -0.014887 -445197.000000 0 1 0
-6.317734 -6.166198 20.697973 22.502041 0.773260 0.403158 0.025243 -0.021503 -282538.000000 0 1 0
-7.434834 -6.045998 19.625973 21.840550 0.682737 0.454222 0.020978 -0.022132 -644960.000000 0 1 0
-8.364434 -5.067798 19.939773 22.209027 0.544728 0.455996 0.024569 -0.018901 -643409.000000 0 1 0
-9.359834 -4.942598 18.948673 21.704561 0.485847 0.509421 0.024968 -0.019199 20416.900000 0 1 0
-9.967734 -3.581598 18.956173 21.714512 0.344953 0.509533 0.020842 -0.019297 -354834.000000 0 1 0
-8.975034 -2.601998 18.787873 20.983464 0.282179 0.461545 0.015505 -0.015879 -229048.000000 0 1 0
-9.471034 -1.288198 18.734673 21.032068 0.135185 0.471766 0.011369 -0.011008 -224163.000000 0 1 0
-8.378434 -0.312698 18.193073 20.032070 0.037305 0.431840 0.005410 -0.010660 651280.000000 0 1 0
-7.294034 -0.127798 19.112173 20.457136 0.017519 0.364633 0.017631 -0.004443 592305.000000 0 1 0
-7.701534 0.701402 20.224973 21.653062 -0.090822 0.365216 0.025862 -0.008043 -243886.000000 0 1 0
-7.755234 2.233102 20.023773 21.588929 -0.280363 0.383123 0.029855 -0.012841 -494259.000000 0 1 0
-8.736434 2.570302 19.116273 21.174598 -0.286132 0.444577 0.024439 -0.018533 -359601.000000 0 1 0
-8.519834 3.932202 18.774773 20.989089 -0.432405 0.463481 0.019436 -0.016866 -288797.000000 0 1 0
-9.421034 4.350402 17.638273 20.464372 -0.432603 0.531789 0.018169 -0.008315 -904085.000000 0 1 0
-10.741334 4.433002 18.119773 21.525657 -0.391411 0.570232 0.017016 0.000762 -259154.000000 0 1 0
-11.613534 4.997302 17.144973 21.302518 -0.406351 0.635402 0.020993 0.010012 32124.300000 0 1 0
-11.694234 6.567102 17.227173 21.832485 -0.511681 0.661517 0.018971 0.011069 -1034190.000000 0 1 0
-10.522434 7.248102 16.909973 21.194428 -0.603186 0.647076 0.015622 0.005786 -363685.000000 0 1 0
-10.774134 8.647102 16.731173 21.697614 -0.676312 0.690219 0.011527 -0.000408 -634273.000000 0 1 0
-9.558334 9.543002 16.742273 21.511260 -0.784596 0.678838 0.010899 0.000989 -602888.000000 0 1 0
-9.072234 9.812002 18.063473 22.469309 -0.824552 0.636943 0.023240 0.016158 -39381.200000 0 1 0
-8.269134 10.997402 18.153773 22.778957 -0.926069 0.648561 0.030539 0.010131 163499.000000 0 1 0
-8.795034 12.416402 17.662373 23.312637 -0.954495 0.711121 0.025929 0.010932 -226748.000000 0 1 0
-8.754834 12.602502 16.247773 22.348608 -0.963643 0.756832 0.029855 -0.009507 -82588.100000 0 1 0
-9.422634 13.762302 15.820273 22.988432 -0.970433 0.811813 0.035647 -0.018528 -448752.000000 0 1 0
-8.984034 14.239502 14.439973 22.180827 -1.007949 0.861880 0.041927 -0.018322 -422318.000000 0 1 0
-7.738234 14.873002 14.524773 22.182323 -1.091051 0.856891 0.027067 -0.005507 -377116.000000 0 1 0
-7.598034 15.632702 13.342073 21.911695 -1.118383 0.916121 0.022391 -0.010674 -421695.000000 0 1 0
-6.612434 16.799402 13.441873 22.508401 -1.195810 0.930799 0.005126 -0.001744 -698409.000000 0 1 0
-5.318134 16.283902 13.505973 21.814199 -1.255128 0.903153 0.000513 -0.007166 -767965.000000 0 1 0
-4.372134 17.349602 13.455473 22.386915 -1.323934 0.925992 -0.002060 -0.009686 -645253.000000 0 1 0
-2.923134 16.937502 13.508873 21.861228 -1.399896 0.904680 0.012469 -0.017366 -1162990.000000 0 1 0
-2.349134 16.486602 14.736873 22.237398 -1.429262 0.846369 0.014478 -0.012537 -103944.000000 0 1 0
-2.755434 15.229102 15.086773 21.613159 -1.391801 0.798145 0.008860 -0.005934 -194564.000000 0 1 0
-1.821734 14.646802 16.203273 21.917882 -1.447054 0.738808 0.015609 -0.000972 129035.000000 0 1 0
-0.597434 14.190402 15.686273 21.160897 -1.528720 0.735812 0.015493 -0.010302 -616686.000000 0 1 0
0.371366 13.642602 16.517773 21.426509 1.543582 0.690538 0.018747 -0.000089 100898.000000 0 1 0
1.324266 14.675402 17.197273 22.646573 1.480803 0.708442 0.019057 -0.005051 -297129.000000 0 1 0
0.650966 15.699402 17.871373 23.796658 1.529356 0.721216 0.018981 -0.007680 -372131.000000 0 1 0
1.563266 16.512402 18.580173 24.906345 1.476405 0.728759 0.046345 -0.008991 -195051.000000 0 1 0
0.841466 17.707002 19.271373 26.184571 1.523310 0.743680 0.054337 -0.009220 296083.000000 0 0 1
0.257866 18.667802 18.443573 26.243450 1.556984 0.791488 0.030721 -0.006623 1932700.000000 0 0 1
-1.001934 18.201902 17.767373 25.455699 -1.515806 0.798234 0.025691 -0.001614 1293200.000000 0 0 1
-1.575034 19.233302 16.805573 25.589605 -1.489088 0.854316 0.020448 -0.003467 -444976.000000 0 0 1
-2.157234 20.255902 17.542873 26.883221 -1.464697 0.859840 0.023698 0.001673 -275203.000000 0 0 1
-2.711634 21.174702 16.601873 27.043356 -1.443429 0.909807 0.020901 -0.005237 -509021.000000 0 0 1
-3.448634 22.376702 17.177073 28.419389 -1.417882 0.921766 0.018645 0.000332 -290671.000000 0 0 1
-4.487834 21.952602 18.046373 28.770279 -1.369142 0.892770 0.027809 0.004574 -29966.200000 0 0 1
-4.947034 23.007802 18.836973 30.144048 -1.359005 0.895795 0.029078 0.008903 -413863.000000 0 0 1
-6.095534 22.696702 19.791473 30.724553 -1.308423 0.870874 0.011317 0.008263 46613.500000 0 0 1
-7.345934 22.574602 19.116673 30.479871 -1.256196 0.892856 0.001241 0.008039 -491563.000000 0 0 1
-8.320734 22.169002 20.024773 31.011139 -1.211735 0.868820 -0.011007 -0.000635 -1008810.000000 0 0 1
-9.673134 22.396902 19.384073 31.159798 -1.163099 0.899392 -0.010054 -0.005995 -641615.000000 0 0 1
-10.242434 23.681702 19.658773 32.437598 -1.162587 0.919712 -0.003195 -0.001999 150097.000000 0 0 1
-11.425934 23.962102 18.939773 32.610570 -1.125853 0.951102 -0.006141 -0.000654 112755.000000 0 0 1
-11.850234 25.492702 19.051773 33.959916 -1.135664 0.975194 0.004428 -0.004045 -30214.800000 0 0 1
-12.416934 25.689402 20.324473 35.031554 -1.120558 0.951851 0.006638 -0.003567 -49291.400000 0 0 1
-13.025834 26.941502 20.334973 36.180491 -1.120447 0.973943 0.012657 -0.002272 -316783.000000 0 0 1
-13.966834 27.178402 21.557273 37.395908 -1.096095 0.956406 0.034354 -0.013771 -411938.000000 0 0 1
-15.237334 26.589802 21.471973 37.419774 -1.050427 0.959642 0.018699 -0.012167 -302674.000000 0 0 1
-15.799434 26.630502 22.738373 38.416654 -1.035330 0.937397 0.008403 -0.007030 -799751.000000 0 0 1
-17.276934 26.301702 22.854273 38.892026 -0.989603 0.942665 0.013134 -0.003333 -538777.000000 0 0 1
-17.551134 24.936702 22.943073 38.161053 -0.957506 0.925773 0.020364 -0.010398 526568.000000 0 0 1
-18.949134 24.646402 22.791273 38.548111 -0.915346 0.938198 0.026933 0.002981 651376.000000 0 0 1
27.633666 24.546702 23.664093 43.887918 0.726308 1.001317 0.091388 -0.033457 -295894.000000 0 0 1
27.327766 23.683602 24.701523 43.793664 0.714081 0.971522 0.080226 -0.036149 171957.000000 0 0 1
26.882166 22.391502 24.319713 42.608434 0.694512 0.963350 0.075108 -0.026413 -175389.000000 0 0 1
26.469966 21.516002 25.502043 42.590511 0.682525 0.928828 0.084370 -0.027234 -737855.000000 0 0 1
25.149466 21.743202 25.848643 42.111932 0.712886 0.909921 0.089002 -0.025345 -796235.000000 0 0 1
24.976666 20.978702 27.061623 42.382440 0.698620 0.878235 0.090029 -0.025879 -105087.000000 0 0 1
23.671966 21.223502 27.822693 42.248091 0.730915 0.851899 0.102527 -0.030040 -238119.000000 0 0 1
23.736266 22.541102 28.389993 43.330166 0.759578 0.856347 0.127934 -0.040765 155629.000000 0 0 1
22.644366 22.675602 29.273753 43.403949 0.786087 0.830578 0.129047 -0.031453 -13606.000000 0 0 1
22.216666 24.026202 29.835473 44.283112 0.824509 0.831533 0.127597 -0.028387 -310681.000000 0 0 1
21.376666 24.778902 29.009893 43.732479 0.858977 0.845511 0.133367 -0.030945 -125849.000000 0 0 1
21.124866 26.051402 29.581613 44.721441 0.889449 0.848028 0.124733 -0.024653 161240.000000 0 0 1
19.771666 26.228202 30.325953 44.704594 0.924847 0.825264 0.111841 -0.019872 590510.000000 0 0 1
18.619966 26.118802 29.438013 43.537243 0.951468 0.828262 0.109878 -0.025185 849624.000000 0 0 1
17.377566 26.257502 30.069613 43.538693 0.986161 0.808421 0.087143 -0.018331 -95669.600000 0 0 1
16.787066 25.033902 30.795873 43.091619 0.980094 0.774658 0.052460 -0.017920 -736306.000000 0 0 1
17.344066 24.702002 32.052983 44.027255 0.958641 0.755358 0.071162 -0.012526 -396372.000000 0 0 1
16.426966 24.196802 32.956043 44.061675 0.974379 0.725824 0.050909 -0.014261 -415887.000000 0 0 1
16.966866 24.062902 -33.970047 44.953998 0.956653 2.427461 0.073578 -0.020241 -201484.000000 0 0 1
17.328966 25.309702 -33.426077 45.367133 0.970429 2.399108 0.074931 -0.026177 230959.000000 0 0 1
17.868766 25.052702 -32.128807 44.488099 0.951235 2.377758 0.059955 -0.014331 -245487.000000 0 0 1
18.345966 26.322502 -31.453877 44.931002 0.962108 2.346262 0.059033 -0.007166 -521635.000000 0 0 1
17.343466 27.265302 -31.149397 44.882931 1.004255 2.337846 0.071313 -0.013286 -66030.100000 0 0 1
17.741566 28.349802 -30.353817 45.164462 1.011615 2.307801 0.081458 -0.018223 33865.100000 0 0 1
16.946766 28.361402 -29.020967 43.974749 1.032196 2.291543 0.089303 -0.018347 893.334000 0 0 1
17.542466 27.565002 -28.043727 43.058310 1.004039 2.280088 0.064303 -0.006498 242626.000000 0 0 1
16.940366 27.805402 -26.783297 42.159950 1.023605 2.259165 0.060427 -0.002935 240686.000000 0 0 1
17.712066 26.971402 -25.709887 41.257389 0.989727 2.243571 0.042003 0.001475 762446.000000 0 0 1
19.112466 27.215502 -25.637547 41.991115 0.958553 2.227547 0.035713 0.006491 107029.000000 0 0 1
19.736366 26.696302 -24.485627 41.252426 0.934184 2.206267 0.033418 0.010452 166293.000000 0 0 1
21.261566 26.867502 -24.341327 42.028765 0.901353 2.188493 0.030878 0.009819 190795.000000 0 0 1
21.762366 26.172502 -23.205827 41.196005 0.877143 2.169174 0.021787 0.004829 -553578.000000 0 0 1
23.155166 26.311502 -23.158427 42.009161 0.849119 2.154683 0.034243 0.005702 -111070.000000 0 0 1
23.612166 26.108302 -21.652327 41.327970 0.835559 2.122237 0.041944 0.003151 131030.000000 0 0 1
23.428966 24.778402 -21.182927 40.144764 0.813383 2.126644 0.041242 0.005916 120582.000000 0 0 1
24.034766 24.677402 -19.905827 39.785501 0.798590 2.094775 0.039759 0.004910 -338211.000000 0 0 1
23.494566 23.549902 -18.999627 38.308985 0.786574 2.089733 0.027650 0.001946 -741447.000000 0 0 1
23.800966 22.258002 -19.533227 37.992784 0.751911 2.110789 0.037235 -0.000197 334547.000000 0 0 1
23.408166 21.256402 -18.574227 36.671226 0.737259 2.101925 0.035272 -0.001484 -1077120.000000 0 0 1
23.489066 19.805702 -19.038127 36.144880 0.700526 2.125530 0.042433 -0.010991 -132855.000000 0 0 1
22.610366 19.382402 -20.021527 35.885481 0.708679 2.162684 0.035473 -0.011616 -857753.000000 0 0 1
21.255266 19.641902 -19.884927 35.114114 0.745969 2.172799 0.038221 -0.014699 -1660930.000000 0 0 1
20.472966 19.506902 -21.217627 35.353207 0.761239 2.214499 0.026797 -0.007941 -126934.000000 0 0 1
20.772766 20.300802 -22.337727 36.641567 0.773908 2.226388 0.024180 -0.004742 -219743.000000 0 0 1
20.773166 21.699802 -22.058827 37.269259 0.807212 2.204182 0.015803 0.002189 44517.800000 0 0 1
20.241966 22.619302 -23.216727 38.215003 0.840807 2.223742 0.032486 -0.002469 -294500.000000 0 0 1
18.851666 22.552502 -23.320727 37.521420 0.874544 2.241492 0.041074 -0.000743 -772178.000000 0 0 1
18.452766 23.211802 -24.510927 38.471780 0.899128 2.261545 0.041198 -0.002022 855048.000000 0 0 1
16.902766 23.395302 -24.699527 37.988292 0.945138 2.278628 0.049071 -0.001815 864522.000000 0 0 1
16.345366 24.479902 -23.962327 37.955628 0.982075 2.254057 0.041906 -0.010064 153989.000000 0 0 1
14.936766 24.323602 -23.876427 37.213282 1.020084 2.267392 0.049274 -0.012086 510683.000000 0 0 1
14.275166 25.682602 -23.420127 37.574975 1.063488 2.243740 0.042582 -0.001983 263894.000000 0 0 1
14.555166 26.782702 -24.305627 38.986273 1.072993 2.243932 0.043541 0.004156 156582.000000 0 0 1
13.499766 27.715302 -24.148927 39.160597 1.117532 2.235294 0.047186 0.005595 316776.000000 0 0 1
13.632366 29.037902 -24.884027 40.598719 1.131871 2.230555 0.046211 0.005048 16627.900000 0 0 1
13.419266 28.941802 -26.302527 41.346433 1.136638 2.260294 0.059136 -0.006915 -135629.000000 0 0 1
13.032166 30.137502 -26.942647 42.473670 1.162655 2.257948 0.080283 -0.011729 -262979.000000 0 0 1
14.001366 31.334502 -26.956947 43.641337 1.150577 2.236602 0.088771 -0.012082 740435.000000 0 0 1
15.181766 31.095702 -27.783877 44.377613 1.116611 2.247310 0.078499 0.004382 1124670.000000 0 0 1
15.976966 32.326202 -27.674267 45.454503 1.111766 2.225387 0.081649 -0.013034 722587.000000 0 0 1
17.484766 32.086702 -27.971697 46.018359 1.071860 2.224131 0.075839 0.005052 470362.000000 0 0 1
18.155166 31.226402 -27.026617 45.112485 1.044162 2.213165 0.039121 0.006392 51872.700000 0 0 1
19.514966 31.119602 -27.382547 45.815581 1.010691 2.211387 0.034712 0.008440 -501723.000000 0 0 1
20.305466 30.259602 -26.411787 45.005977 0.979771 2.197960 0.015001 0.013938 -604792.000000 0 0 1
20.829466 30.841002 -25.149107 44.916719 0.976784 2.165068 0.033742 0.010230 1074240.000000 0 0 1
21.777266 31.944602 -25.171797 46.133787 0.972445 2.147932 0.041687 -0.000546 1081120.000000 0 0 1
23.183766 31.656602 -25.804137 46.962548 0.938686 2.152517 0.024193 0.002937 197560.000000 0 0 1
23.104866 31.374602 -27.204447 47.521389 0.936044 2.180308 0.010721 0.012666 -547525.000000 0 0 1
24.329766 31.611702 -27.811627 48.628426 0.914841 2.179642 -0.000631 0.021450 -832195.000000 0 0 1
24.341966 30.857302 -29.153257 48.934822 0.902888 2.209004 -0.012759 0.019510 386726.000000 0 0 1
23.477166 31.426702 -30.131077 49.464096 0.929189 2.225785 0.013213 0.002658 225229.000000 0 0 1
22.145566 30.943102 -30.149917 48.548112 0.949620 2.240855 0.012433 0.005611 126450.000000 0 0 1
21.257566 31.776702 -31.133267 49.304394 0.981203 2.254218 0.019937 0.004372 -682643.000000 0 0 1
20.960666 33.077302 -30.555667 49.669973 1.005974 2.233403 0.047282 -0.009240 1018320.000000 0 0 1
20.069666 33.741902 -31.534347 50.355958 1.034209 2.247503 0.056124 -0.021781 1715470.000000 0 0 1
18.498766 33.547802 -31.405317 49.537393 1.066867 2.257475 0.063782 -0.024118 1062380.000000 0 0 1
18.055366 32.150702 -31.573347 48.544208 1.059102 2.278913 0.079765 -0.028488 207607.000000 0 0 1
18.159466 31.537302 -32.891917 49.053500 1.048354 2.305721 0.090524 -0.033576 -526046.000000 0 0 1
17.521666 32.248902 -34.145887 50.129254 1.073092 2.320138 0.112607 -0.043316 -612875.000000 0 0 1
18.143966 33.438202 33.836757 50.914074 1.073643 0.843857 0.100642 -0.035489 106530.000000 0 0 1
17.575166 33.939802 32.633283 50.256619 1.092984 0.864089 0.090834 -0.042865 -506975.000000 0 0 1
16.170566 -33.823715 32.682124 49.735823 -1.124835 0.853812 0.098433 -0.045138 -1227560.000000 0 0 1
15.223166 33.482002 32.757261 49.252689 1.144068 0.843188 0.105003 -0.041574 885613.000000 0 0 1
13.838866 33.894502 32.938441 49.247257 1.183162 0.838152 0.078801 -0.039509 1636160.000000 0 0 1
13.189566 -33.853915 31.674583 48.200948 -1.199285 0.853783 0.066341 -0.033729 -1059720.000000 0 0 1
13.758766 -32.644915 31.251533 47.240369 -1.171922 0.847922 0.085974 -0.031009 453604.000000 0 0 1
12.873966 -31.967015 30.344773 45.917690 -1.187942 0.848844 0.082161 -0.033112 182200.000000 0 0 1
13.371966 -30.519215 30.115753 44.913144 -1.157841 0.835869 0.081127 -0.037567 -20517.400000 0 0 1
12.992566 -29.622215 31.109713 44.878688 -1.157456 0.804883 0.073251 -0.027606 272062.000000 0 0 1
13.540566 -28.315415 30.844723 44.005756 -1.124736 0.794103 0.080889 -0.030145 -101938.000000 0 0 1
13.079966 -27.232515 31.927703 43.955359 -1.123027 0.757776 0.060339 -0.031464 788530.000000 0 0 1
11.677066 -26.960015 31.874063 43.349189 -1.162064 0.744707 0.041711 -0.029403 443203.000000 0 0 1
11.262566 -26.055515 30.818343 41.898753 -1.162799 0.744328 0.020096 -0.026577 -462065.000000 0 0 1
11.510566 -24.470815 30.994863 41.133872 -1.131125 0.717409 0.019711 -0.021934 -241694.000000 0 0 1
10.623866 -23.930815 31.925073 41.288748 -1.152993 0.686901 0.033118 -0.020697 -42697.900000 0 0 1
11.199666 -22.748015 32.462744 41.191437 -1.113299 0.663089 0.025778 -0.016203 129532.000000 0 0 1
10.379066 -22.085515 33.576405 41.507469 -1.131477 0.628476 0.029579 -0.017674 -324621.000000 0 0 1
10.201366 -22.799015 -33.608097 41.873228 -1.150067 2.502463 0.031982 -0.011965 149342.000000 0 0 1
11.328866 -23.230515 -32.851857 41.800055 -1.117060 2.474993 0.039267 -0.013322 757594.000000 0 0 1
12.282266 -22.194615 -32.090517 40.905456 -1.065355 2.472693 0.042738 -0.019627 400213.000000 0 0 1
13.053866 -21.563615 -33.054027 41.568758 -1.026441 2.490076 0.037133 -0.018616 -401732.000000 0 0 1
13.725566 -20.387515 -32.684237 40.893781 -0.978261 2.496838 0.043587 -0.022736 12478.900000 0 0 1
13.687266 -19.299215 -33.740497 41.209491 -0.953913 2.530036 0.037802 -0.017850 -327357.000000 0 0 1
14.481266 -19.667815 33.529529 41.482036 -0.936126 0.629554 0.052867 -0.010909 276182.000000 0 0 1
14.336166 -18.786515 32.408869 40.109769 -0.918958 0.630039 0.035266 -0.005573 -214148.000000 0 0 1
15.176966 -17.501615 32.403749 39.832773 -0.856415 0.620660 0.057304 -0.009604 -512156.000000 0 0 1
14.958266 -16.624215 33.535303 40.307949 -0.838098 0.588134 0.058471 -0.015539 290456.000000 0 0 1
15.724266 -15.421215 33.575024 40.154061 -0.775668 0.580561 0.070007 -0.023731 962805.000000 0 0 1
17.194366 -15.539815 34.165766 41.284763 -0.734896 0.596043 0.066410 -0.012400 1363680.000000 0 0 1
18.057166 -16.172015 33.224279 41.127218 -0.730379 0.630315 0.071564 -0.010693 -42791.400000 0 0 1
19.434666 -16.105715 33.474014 41.923858 -0.692004 0.646084 0.080290 -0.011994 -127702.000000 0 0 1
20.304866 -16.752715 32.391158 41.738809 -0.689835 0.682427 0.108943 -0.024462 -252635.000000 0 0 1
20.369466 -15.962315 31.255973 40.578892 -0.664685 0.691560 0.083840 -0.007011 532880.000000 0 0 1
21.315366 -16.620215 30.413313 40.688401 -0.662258 0.726553 0.081536 -0.014729 41138.300000 0 0 1
21.581566 -15.837015 29.121333 39.555367 -0.633066 0.743333 0.067384 -0.004756 -422195.000000 0 0 1
22.235266 -14.624315 29.269963 39.560187 -0.581775 0.737898 0.062950 -0.010467 67149.300000 0 0 1
22.599266 -14.121515 27.994753 38.650358 -0.558503 0.760767 0.048074 -0.008725 -10378.700000 0 0 1
23.349866 -12.776815 28.091963 38.699117 -0.500683 0.758444 0.034728 -0.001197 -34861.700000 0 0 1
22.567566 -11.742915 28.660543 38.322550 -0.479791 0.725939 0.036093 -0.002800 365522.000000 0 0 1
23.269566 -10.460315 28.718513 38.414110 -0.422461 0.726350 0.047378 -0.010178 620956.000000 0 0 1
22.370466 -9.193515 28.898853 37.684243 -0.389924 0.696849 0.051393 -0.007368 710815.000000 0 0 1
21.461366 -9.180915 30.023953 38.030477 -0.404230 0.660850 0.058631 -0.013252 -84420.900000 0 0 1
20.475966 -8.231615 29.727523 37.023645 -0.382241 0.638596 0.069293 -0.017867 236673.000000 0 0 1
19.271566 -8.272515 30.746753 37.218148 -0.405473 0.598605 0.058429 -0.010834 269583.000000 0 0 1
19.518366 -7.871115 32.093673 38.378704 -0.383320 0.580413 0.068873 -0.015635 200284.000000 0 0 1
20.038366 -8.929915 32.914166 39.555301 -0.419223 0.587904 0.068540 -0.017089 -379472.000000 0 0 1
20.098166 -8.591915 -33.978277 40.401493 -0.403984 2.569954 0.077966 -0.030018 45584.700000 0 0 1
18.805866 -8.439615 -33.426267 39.270893 -0.421835 2.589010 0.060040 -0.032174 117100.000000 0 0 1
18.819466 -7.447315 -32.435247 38.231925 -0.376815 2.583716 0.062641 -0.034269 419469.000000 0 0 1
17.484366 -7.323715 -31.622967 36.869390 -0.396669 2.601581 0.060779 -0.030561 503539.000000 0 0 1
17.489566 -6.241715 -30.741087 35.914599 -0.342793 2.598181 0.057984 -0.022079 450331.000000 0 0 1
16.386766 -6.288215 -29.835717 34.615572 -0.366409 2.609833 0.052354 -0.015779 307739.000000 0 0 1
16.317766 -5.023715 -28.948347 33.608244 -0.298659 2.608711 0.037133 -0.010700 -202102.000000 0 0 1
17.180366 -5.116615 -27.835027 33.107907 -0.289453 2.569438 0.042608 -0.011642 82121.600000 0 0 1
16.862566 -6.074415 -26.849577 32.282263 -0.345760 2.552982 0.052471 -0.013696 -249796.000000 0 0 1
15.485766 -5.908315 -26.172427 30.979237 -0.364485 2.577058 0.042258 -0.012112 -57428.800000 0 0 1
15.394366 -4.801015 -25.342527 30.037975 -0.302309 2.574903 0.033273 -0.009945 268178.000000 0 0 1
14.146166 -4.785315 -24.651527 28.822059 -0.326193 2.596927 0.032147 -0.020470 338830.000000 0 0 1
13.988766 -3.520715 -23.804627 27.834175 -0.246561 2.596791 0.034289 -0.022134 -28735.800000 0 0 1
13.931066 -2.311515 -24.533027 28.307016 -0.164427 2.619298 0.022399 -0.024397 110681.000000 0 0 1
13.651266 -1.285515 -23.609327 27.302197 -0.093891 2.615431 0.026980 -0.019873 -140158.000000 0 0 1
13.926366 0.116485 -24.199027 27.920426 0.008364 2.619373 0.021989 -0.020716 -462370.000000 0 0 1
13.167566 0.583485 -25.274897 28.505187 0.044283 2.660905 0.030135 -0.020780 -22048.800000 0 0 1
13.662566 1.874485 -25.666607 29.136818 0.136347 2.648556 0.029882 -0.009806 -7935.220000 0 0 1
12.870066 2.570485 -26.807957 29.848159 0.197132 2.686327 0.039729 -0.016395 -280986.000000 0 0 1
11.655266 3.091485 -26.351187 28.979089 0.259273 2.712437 0.055701 -0.028470 -103256.000000 0 0 1
10.904666 3.644485 -27.445107 29.756141 0.322542 2.744875 0.054172 -0.022370 692396.000000 0 0 1
9.612966 4.402485 -26.976017 28.974066 0.429465 2.768049 0.052896 -0.022999 437582.000000 0 0 1
9.856666 5.607485 -26.225397 28.572176 0.517240 2.733463 0.063886 -0.033596 517082.000000 0 0 1
8.623066 6.315485 -26.080447 28.185677 0.632138 2.752645 0.065613 -0.027452 552406.000000 0 0 1
8.266566 4.859302 -31.254537 32.692431 0.531420 2.843906 0.039505 -0.014514 -59622.400000 0 0 1
8.214466 3.860802 -30.276797 31.608032 0.439361 2.850333 0.040856 -0.010494 324671.000000 0 0 1
8.020366 2.549602 -30.761287 31.891747 0.307789 2.874541 0.038310 -0.010139 -321767.000000 0 0 1
7.925766 1.493702 -29.670657 30.747306 0.186277 2.876179 0.045943 -0.014735 28782.600000 0 0 1
9.115966 1.181702 -28.965557 30.389156 0.128911 2.834295 0.050153 -0.020126 375981.000000 0 0 1
8.807766 0.213602 -28.002437 29.355730 0.024247 2.836770 0.048562 -0.022473 43150.200000 0 0 1
10.059166 -0.235698 -27.224187 29.024107 -0.023427 2.787569 0.048435 -0.026419 72553.600000 0 0 1
11.000966 -0.917798 -28.042457 30.137071 -0.083236 2.766564 0.035161 -0.015316 -268946.000000 0 0 1
11.944466 -1.506998 -27.184737 29.731318 -0.125504 2.724688 0.041764 -0.017044 -374416.000000 0 0 1
12.460066 -2.828098 -27.720197 30.523118 -0.223192 2.709689 0.029950 -0.011013 286115.000000 0 0 1
11.468866 -3.862998 -27.692387 30.221283 -0.324890 2.729590 0.040634 -0.008087 345904.000000 0 0 1
12.048766 -5.119398 -27.882887 30.803189 -0.401777 2.702634 0.045283 -0.011771 -218312.000000 0 0 1
11.257966 -6.249698 -27.206827 30.100033 -0.506778 2.699551 0.029974 -0.022839 -129988.000000 0 0 1
11.471966 -6.195198 -25.831337 28.935177 -0.495156 2.674167 0.044509 -0.015888 525702.000000 0 0 1
10.728166 -7.193698 -25.071097 28.202886 -0.590682 2.665855 0.053096 -0.019498 323720.000000 0 0 1
10.643866 -6.975498 -23.539727 26.759451 -0.580130 2.645983 0.060939 -0.022788 -664760.000000 0 0 1
11.858066 -7.191898 -22.916227 26.786015 -0.545184 2.597369 0.048192 -0.024501 -588957.000000 0 0 1
11.699966 -7.185698 -21.494927 25.505987 -0.550769 2.573150 0.068062 -0.039399 -522161.000000 0 0 1
13.009366 -7.025798 -20.734927 25.466501 -0.495177 2.522153 0.067315 -0.034058 -586737.000000 0 0 1
13.539866 -5.739998 -20.825227 25.494424 -0.400967 2.526733 0.046135 -0.030595 -75376.400000 0 0 1
14.823266 -5.781798 -20.225727 25.733994 -0.371898 2.475033 0.054430 -0.027573 24987.100000 0 0 1
15.341966 -4.535198 -19.490327 25.215408 -0.287422 2.454279 0.051333 -0.028972 -430746.000000 0 0 1
15.768366 -3.570798 -20.364927 26.002351 -0.222697 2.470585 0.033718 -0.024029 123194.000000 0 0 1
16.401666 -2.473298 -19.720227 25.768571 -0.149668 2.442276 0.036937 -0.020436 -214876.000000 0 0 1
17.390766 -1.655898 -20.541327 26.965290 -0.094931 2.436836 0.019162 -0.016255 1087340.000000 0 0 1
18.683366 -2.282898 -20.786127 28.041806 -0.121586 2.405734 0.039101 -0.019188 1027630.000000 0 0 1
19.421266 -1.413098 -21.624727 29.100022 -0.072632 2.408513 0.040596 -0.014561 -1076930.000000 0 0 1
20.789566 -1.926998 -21.947827 30.292351 -0.092427 2.381154 0.041187 -0.016295 -1996900.000000 0 0 1
21.668066 -1.879398 -20.868227 30.141668 -0.086519 2.335521 0.044898 -0.015818 536711.000000 0 0 1
22.962566 -2.473598 -21.003227 31.217522 -0.107309 2.308787 0.039581 -0.017860 1003210.000000 0 0 1
23.965266 -1.847598 -22.016527 32.595630 -0.076943 2.312363 0.047943 -0.018190 -1108600.000000 0 0 1
23.669966 -1.995298 -23.349127 33.308111 -0.084098 2.347601 0.048476 -0.019740 -142297.000000 0 0 1
24.442866 -1.235398 -24.274627 34.470821 -0.050499 2.352103 0.051941 -0.014079 701291.000000 0 0 1
25.770666 -1.991898 -24.699427 35.751316 -0.077140 2.333485 0.062568 -0.019360 109561.000000 0 0 1
26.747166 -1.949098 -23.626527 35.741051 -0.072743 2.293010 0.070577 -0.014343 -661955.000000 0 0 1
27.888666 -2.633698 -23.926427 36.840033 -0.094157 2.277681 0.057485 -0.008206 -351292.000000 0 0 1
28.920866 -1.852898 -24.828427 38.161506 -0.063980 2.279190 0.059494 -0.014467 -679056.000000 0 0 1
28.424566 -1.660098 -26.102367 38.627005 -0.058337 2.312784 0.062460 -0.018996 -652215.000000 0 0 1
29.271766 -0.900898 -26.861517 39.739012 -0.030767 2.313047 0.069068 -0.017798 -837397.000000 0 0 1
28.701666 -0.566798 -28.268037 40.288818 -0.019745 2.348486 0.059186 -0.017717 683667.000000 0 0 1
27.443066 0.105602 -28.431217 39.515404 0.003848 2.373874 0.055157 -0.012977 659957.000000 0 0 1
27.218166 1.335002 -27.750907 38.893749 0.049009 2.365285 0.045787 -0.005549 -1082070.000000 0 0 1
25.758466 1.744502 -27.872497 37.992341 0.067622 2.394452 0.049411 -0.013000 -262071.000000 0 0 1
24.827166 1.065202 -27.019087 36.709044 0.042878 2.397988 0.059833 -0.018243 191569.000000 0 0 1
23.531566 1.433002 -27.391087 36.139449 0.060822 2.430927 0.047324 -0.013426 -952.080000 0 0 1
22.329566 1.129802 -26.435867 34.622840 0.050554 2.439571 0.048550 -0.013045 398940.000000 0 0 1
22.274866 1.967502 -25.269437 33.742928 0.088100 2.417168 0.059095 -0.014214 45726.800000 0 0 1
21.513666 1.424302 -24.234827 32.437530 0.066108 2.414520 0.048740 -0.009998 -446901.000000 0 0 1
21.623666 2.121102 -22.856027 31.535377 0.097779 2.381503 0.047062 -0.013765 -166161.000000 0 0 1
21.235866 3.497202 -22.683027 31.268389 0.163219 2.382455 0.056794 -0.013190 322111.000000 0 0 1
21.470666 3.937602 -21.393527 30.564313 0.181379 2.346125 0.054255 -0.016783 -296929.000000 0 0 1
20.823366 5.281302 -21.046527 30.074259 0.248386 2.345940 0.052717 -0.007375 -479091.000000 0 0 1
21.443066 6.372102 -21.677727 31.150163 0.288853 2.340483 0.068830 -0.005789 307323.000000 0 0 1
21.264366 7.614702 -21.035927 30.865307 0.343870 2.320661 0.069979 -0.004562 -206051.000000 0 0 1
21.801666 7.725502 -19.556827 30.289694 0.340548 2.272683 0.070637 -0.010268 -289760.000000 0 0 1
23.175566 8.069902 -19.480227 31.332243 0.335077 2.241747 0.094790 -0.008693 290165.000000 0 0 1
23.660866 8.338402 -18.195727 30.991128 0.338823 2.198301 0.092690 -0.022497 -87385.000000 0 0 1
23.331766 9.740002 -17.610727 30.811957 0.395464 2.179196 0.090320 -0.028539 980468.000000 0 0 1
21.976366 9.907502 -17.113127 29.563126 0.423540 2.188135 0.068162 -0.030817 1206850.000000 0 0 1
21.640966 11.247902 -16.945427 29.698388 0.479323 2.178013 0.035882 -0.021638 -430366.000000 0 0 1
20.124366 11.525902 -16.929127 28.712922 0.520129 2.201359 0.032090 -0.015369 -208960.000000 0 0 1
19.478366 11.445602 -18.148427 28.978854 0.531256 2.247549 0.023247 -0.015567 50156.700000 0 0 1
19.026266 10.134902 -18.452327 28.376107 0.489448 2.278745 0.024384 -0.008966 -1319.040000 0 0 1
18.060266 10.034102 -19.703927 28.549977 0.507125 2.332500 0.012580 -0.002319 678303.000000 0 0 1
18.808766 10.372002 -20.872027 29.949785 0.503952 2.341863 0.020571 -0.010465 890330.000000 0 0 1
18.076066 9.988402 -22.063827 30.221264 0.504819 2.389230 0.018427 -0.010937 324195.000000 0 0 1
18.942666 10.239602 -23.315427 31.737725 0.495565 2.395915 0.033028 -0.011807 -50378.100000 0 0 1
19.179866 11.582702 -23.605127 32.545788 0.543281 2.382252 0.042981 -0.015905 -75091.900000 0 0 1
20.117566 11.702902 -24.624127 33.882474 0.526874 2.384377 0.058047 -0.024970 -383218.000000 0 0 1
20.323266 13.210802 -24.939827 34.778663 0.576399 2.370431 0.066813 -0.026952 -293097.000000 0 0 1
21.004566 13.447802 -26.122447 36.116720 0.569478 2.379335 0.072430 -0.032063 -118590.000000 0 0 1
21.028066 14.864302 -26.301377 36.808824 0.615328 2.366763 0.075384 -0.029955 48144.500000 0 0 1
19.791766 15.473402 -26.989347 36.872280 0.663551 2.392003 0.065308 -0.030546 -667641.000000 0 0 1
18.598066 15.385602 -26.312377 35.706386 0.691149 2.399284 0.050320 -0.024799 -1059150.000000 0 0 1
17.528866 15.643602 -27.196987 35.939665 0.728627 2.429108 0.043028 -0.028818 -525382.000000 0 0 1
16.167766 15.238302 -26.666237 34.708655 0.755812 2.446958 0.045651 -0.035257 -609246.000000 0 0 1
16.050066 13.825602 -26.496437 33.923636 0.711078 2.467160 0.035110 -0.020420 -187796.000000 0 0 1
14.690066 13.484902 -26.457057 33.130296 0.742650 2.495722 0.012234 -0.015341 -318950.000000 0 0 1
14.505666 12.006202 -26.144757 32.219739 0.691399 2.517428 0.011832 -0.014552 405809.000000 0 0 1
13.148266 11.568902 -26.104097 31.434699 0.721587 2.550663 0.018228 -0.016082 385012.000000 0 0 1
13.023766 10.240602 -25.596907 30.490820 0.666332 2.567151 0.031042 -0.019708 202819.000000 0 0 1
11.544766 9.783802 -25.442197 29.602531 0.703021 2.605009 0.048162 -0.026199 436255.000000 0 0 1
10.925666 10.219902 -24.214527 28.463308 0.752034 2.588165 0.063698 -0.032494 -508965.000000 0 0 1
9.784966 9.455302 -24.055227 27.636973 0.768266 2.626811 0.071435 -0.033359 -987243.000000 0 0 1
8.911366 9.902202 -22.872927 26.469546 0.838016 2.614200 0.070382 -0.031237 -255594.000000 0 0 1
8.254166 11.105202 -23.235927 27.043763 0.931616 2.604495 0.065586 -0.034455 -215456.000000 0 0 1
7.755866 11.874302 -22.183927 26.330194 0.992200 2.572756 0.070142 -0.026160 46365.300000 0 0 1
8.816466 12.747402 -21.451927 26.465289 0.965711 2.515918 0.063869 -0.022814 17422.000000 0 0 1
9.658466 11.914202 -20.706527 25.768090 0.889584 2.504070 0.075118 -0.026399 43101.700000 0 0 1
10.675966 12.665602 -20.025627 25.988834 0.870433 2.450496 0.078262 -0.021851 -115273.000000 0 0 1
11.616266 11.778302 -19.198627 25.342718 0.792324 2.430363 0.072034 -0.024589 282978.000000 0 0 1
12.699866 11.107702 -19.861627 26.060543 0.718621 2.437399 0.052049 -0.020579 479589.000000 0 0 1
12.297766 10.234702 -20.938427 26.351507 0.694093 2.489115 0.056502 -0.019658 -939839.000000 0 0 1
13.361366 9.493102 -21.753427 27.237046 0.617731 2.495879 0.055366 -0.015761 -438451.000000 0 0 1
13.863266 8.398002 -21.103627 26.609767 0.544654 2.486642 0.050621 -0.017726 150696.000000 0 0 1
14.889666 7.756702 -21.840027 27.547330 0.480263 2.486216 0.046866 -0.022355 75867.200000 0 0 1
15.530266 6.508202 -21.140727 27.027324 0.396834 2.468983 0.064193 -0.019539 71275.300000 0 0 1
16.607666 6.792502 -20.294127 27.088822 0.388239 2.417604 0.039489 -0.010657 -256569.000000 0 0 1
17.135866 5.685902 -19.686427 26.711848 0.320382 2.399406 0.030228 -0.017553 -23885.300000 0 0 1
17.702866 5.904602 -18.256827 26.106849 0.321936 2.345231 0.046537 -0.018324 227824.000000 0 0 1
18.940266 6.616502 -18.176927 27.072356 0.336082 2.306920 0.041765 -0.025343 716611.000000 0 0 1
19.431266 6.712602 -16.826827 26.566431 0.332619 2.256718 0.047092 -0.041804 -27480.000000 0 0 1
20.191566 5.538202 -16.233527 26.493366 0.267699 2.230319 0.069598 -0.050289 -389204.000000 0 0 1
21.544266 5.329402 -16.597027 27.713160 0.242502 2.212906 0.069252 -0.042691 377454.000000 0 0 1
22.059266 4.174902 -15.965027 27.548560 0.187046 2.188940 0.084409 -0.050081 786350.000000 0 0 1
23.531266 3.899902 -16.463827 28.982535 0.164240 2.174943 0.072265 -0.007286 623228.000000 0 0 1
24.255466 2.969902 -15.729027 29.061147 0.121836 2.142706 0.072040 -0.015184 15231.400000 0 0 1
25.458866 2.668902 -16.396027 30.399122 0.104450 2.140472 0.070445 -0.017591 -2329.190000 0 0 1
26.333466 1.532702 -15.835727 30.766392 0.058138 2.111464 0.076034 -0.027974 -291643.000000 0 0 1
25.726766 0.255002 -15.919027 30.254702 0.009912 2.124883 0.088052 -0.019151 -171588.000000 0 0 1
26.651766 -0.804798 -15.840827 31.014451 -0.030188 2.106861 0.075909 -0.014901 -346985.000000 0 0 1
26.153666 -2.280698 -15.952827 30.719840 -0.086984 2.116829 0.057677 -0.015839 -629012.000000 0 0 1
25.492166 -2.852198 -14.892527 29.660967 -0.111422 2.096812 0.062561 -0.016151 223677.000000 0 0 1
25.281066 -4.207198 -15.211627 29.803128 -0.164906 2.106451 0.050155 -0.004962 -661978.000000 0 0 1
24.738866 -5.104898 -14.006227 28.883315 -0.203495 2.077073 0.047284 -0.004958 435082.000000 0 0 1
23.421166 -4.926998 -13.542727 27.499669 -0.207342 2.085720 0.058929 -0.002496 832501.000000 0 0 1
22.324866 -5.129998 -14.450227 27.083678 -0.225868 2.133577 0.060702 -0.005622 -27228.500000 0 0 1
20.935366 -5.240898 -13.805927 25.619528 -0.245296 2.139907 0.070927 -0.016292 -435560.000000 0 0 1
20.711966 -6.347698 -12.978727 25.253241 -0.297386 2.110571 0.074994 -0.010367 440673.000000 0 0 1
21.082266 -6.128698 -11.616327 24.838719 -0.282907 2.057449 0.093856 -0.005983 -488651.000000 0 1 0
20.825366 -7.419698 -10.762827 24.588336 -0.342260 2.023859 0.088017 -0.008541 599572.000000 0 1 0
19.455366 -7.854198 -10.685327 23.545189 -0.383695 2.041846 0.091634 -0.014882 1320330.000000 0 1 0
19.169766 -8.727098 -11.782227 24.134272 -0.427214 2.080817 0.076851 -0.017896 112630.000000 0 1 0
17.695166 -9.240298 -11.671827 23.124307 -0.481244 2.099880 0.099190 -0.023927 544355.000000 0 1 0
16.758866 -8.216098 -11.939627 22.156683 -0.455820 2.139894 0.097683 -0.021690 855740.000000 0 1 0
15.438266 -8.781998 -12.098827 21.490584 -0.517197 2.168787 0.102798 -0.023991 1358480.000000 0 1 0
14.311166 -7.693798 -12.256027 20.352254 -0.493279 2.217044 0.078807 -0.027249 27209.200000 0 1 0
14.348066 -6.888898 -13.473427 20.853229 -0.447623 2.273270 0.067351 -0.029907 728615.000000 0 1 0
15.301166 -5.802098 -13.396527 21.148451 -0.362442 2.256803 0.060632 -0.027241 315633.000000 0 1 0
15.123666 -4.707398 -14.541827 21.502317 -0.301755 2.313512 0.042319 -0.031179 188103.000000 0 1 0
13.990966 -3.914198 -14.193627 20.310764 -0.272792 2.344547 0.049764 -0.030910 258373.000000 0 1 0
13.609266 -2.816998 -14.997627 20.446918 -0.204109 2.394240 0.028747 -0.038234 -362100.000000 0 1 0
14.626266 -1.682598 -15.242527 21.191825 -0.114536 2.373539 0.045267 -0.032647 -361123.000000 0 1 0
15.615766 -2.108298 -16.159327 22.570355 -0.134199 2.368785 0.030640 -0.025813 1204700.000000 0 1 0
16.834266 -1.306098 -16.222427 23.415071 -0.077431 2.336189 0.037632 -0.020300 1767870.000000 0 1 0
17.984466 -1.853998 -15.318327 23.696614 -0.102726 2.273699 0.061599 -0.016847 -253679.000000 0 1 0
17.617066 -1.791198 -13.973027 22.556926 -0.101326 2.238846 0.057653 -0.011825 402033.000000 0 1 0
18.609166 -2.390798 -13.139827 22.905721 -0.127774 2.181749 0.059291 -0.009137 -86921.300000 0 1 0
18.203466 -2.680598 -11.733827 21.822798 -0.146207 2.138487 0.063079 -0.001710 -600319.000000 0 1 0
18.031266 -1.522498 -10.961227 21.156396 -0.084237 2.115430 0.060065 -0.008897 736886.000000 0 1 0
17.732266 -1.783198 -9.574127 20.230595 -0.100225 2.063773 0.064830 -0.012666 -910677.000000 0 1 0
17.805966 -0.553998 -8.603227 19.783197 -0.031103 2.020696 0.062288 -0.008882 157906.000000 0 1 0
19.040466 -0.183698 -7.989627 20.649631 -0.009647 1.968079 0.068029 -0.006599 1773310.000000 0 1 0
20.170766 0.228102 -8.810027 22.012007 0.011308 1.982572 0.075445 -0.001966 626918.000000 0 1 0
20.070466 1.578202 -9.586227 22.298208 0.078472 2.015190 0.081114 -0.006805 -556930.000000 0 1 0
19.920066 2.684302 -8.725227 21.912191 0.133947 1.980340 0.077404 -0.003404 921140.000000 0 1 0
19.098366 3.673602 -9.356927 21.582285 0.190031 2.019221 0.057653 -0.015395 -38935.200000 0 1 0
18.831666 4.973002 -8.637027 21.306352 0.258183 1.988184 0.058165 -0.009464 -173414.000000 0 1 0
17.957066 5.891702 -9.265127 21.047826 0.317033 2.026611 0.044861 -0.022272 323279.000000 0 1 0
18.473866 7.170502 -9.367427 21.919136 0.370243 2.012370 0.070668 -0.008885 -340218.000000 0 1 0
-26.391324 -29.068838 5.496073 39.644749 0.833639 1.431715 0.084799 -0.011200 -126426.000000 0 0 1
-26.577774 -27.955628 6.306373 39.085362 0.810659 1.408739 0.073055 -0.009955 -827793.000000 0 0 1
-25.393534 -27.240298 6.378073 37.782869 0.820471 1.401176 0.089130 -0.011503 -1017930.000000 0 0 1
-25.342764 -26.033038 7.393973 37.076213 0.798833 1.370024 0.080830 -0.005766 944804.000000 0 0 1
-26.373004 -24.987898 7.165373 37.030703 0.758437 1.376070 0.070011 -0.012750 1813470.000000 0 0 1
-27.722354 -25.315628 7.532573 38.290333 0.740052 1.372782 0.057643 -0.008788 728083.000000 0 0 1
-28.118384 -25.455988 9.054973 38.995428 0.735744 1.336451 0.039849 -0.007635 -200576.000000 0 0 1
-27.311724 -26.365828 9.792573 39.204357 0.767778 1.318340 0.046698 -0.008633 -151952.000000 0 0 1
-27.579944 -26.314598 11.159873 39.719694 0.761924 1.285996 0.033665 -0.007964 -39784.500000 0 0 1
-26.528264 -27.074148 12.018873 39.764451 0.795582 1.263742 0.020743 -0.011452 478746.000000 0 0 1
-25.330254 -26.381338 12.320573 38.592658 0.805721 1.245862 0.035518 -0.002217 20285.800000 0 0 1
-25.445314 -25.531548 13.441073 38.470591 0.787090 1.213881 0.044628 0.004256 -609241.000000 0 0 1
-24.146134 -25.325398 14.236173 37.776715 0.809231 1.184403 0.046289 -0.001127 -239591.000000 0 0 1
-23.691534 -26.469048 14.901473 38.522113 0.840714 1.173606 0.041912 -0.010672 -175083.000000 0 0 1
-22.477134 -26.199298 15.561773 37.865466 0.861717 1.147273 0.038119 -0.003827 -161466.000000 0 0 1
-21.748334 -27.492408 16.050273 38.554297 0.901526 1.141421 0.024801 -0.004818 -474894.000000 0 0 1
-22.395634 -28.233798 17.035073 39.861077 0.900203 1.129224 0.013170 0.004335 -43752.500000 0 0 1
-21.805934 -29.491338 17.152273 40.489977 0.934113 1.133361 0.032536 0.000329 -358430.000000 0 0 1
-22.712734 -30.464178 17.880173 41.995655 0.930146 1.130992 0.043608 -0.014329 -232384.000000 0 0 1
-23.853834 -30.936078 17.197873 42.682703 0.913947 1.156087 0.020387 -0.008342 -313016.000000 0 0 1
-24.572834 -31.749018 18.015273 44.004254 0.912129 1.149002 0.034595 -0.009220 -474049.000000 0 0 1
-25.662944 -32.490568 17.224773 44.843244 0.902270 1.176552 0.035581 -0.014914 -120489.000000 0 0 1
-25.028734 -33.406018 16.342973 44.827361 0.927789 1.197619 0.041584 -0.014505 174185.000000 0 0 1
-25.855474 34.024576 15.683973 45.521031 -0.920986 1.219044 0.044482 -0.020794 -802978.000000 0 0 1
-25.138464 33.324947 14.520673 44.196656 -0.924521 1.236032 0.049825 -0.025809 -178151.000000 0 0 1
-23.959434 32.608634 14.827173 43.095504 -0.937122 1.219565 0.041774 -0.021265 319900.000000 0 0 1
-22.856834 33.453292 14.511273 43.036433 -0.971403 1.226870 0.042730 -0.016588 -731823.000000 0 0 1
-21.481834 32.785329 14.531573 41.803272 -0.990755 1.215767 0.054022 -0.029623 -287013.000000 0 0 1
-21.332034 31.815199 13.548173 40.630229 -0.980146 1.230835 0.050697 -0.022713 -157953.000000 0 0 1
-20.195834 31.020069 13.766273 39.492108 -0.993678 1.214738 0.039999 -0.022445 -213541.000000 0 0 1
-20.064434 30.129729 12.518073 38.302535 -0.983301 1.237858 0.035191 -0.019109 -118231.000000 0 0 1
-19.645034 30.905759 11.370073 38.345427 -1.004580 1.269753 0.028357 -0.015424 59464.500000 0 0 1
-19.949834 30.179679 10.173673 37.580746 -0.986702 1.296661 0.027970 -0.014576 146954.000000 0 0 1
-19.311434 30.851719 8.963773 37.484787 -1.011519 1.329326 0.014960 -0.008532 -1101690.000000 0 0 1
-17.942234 30.773559 8.864673 36.708556 -1.042940 1.326897 0.010012 -0.020852 -1518960.000000 0 0 1
-17.452034 31.210069 7.639073 36.564973 -1.060933 1.360328 0.026211 -0.020826 -291334.000000 0 0 1
-17.030034 30.073359 6.644673 35.193474 -1.055538 1.380852 0.021303 -0.015818 -504522.000000 0 0 1
-18.047234 29.174439 6.249873 34.869921 -1.016814 1.390589 0.015749 -0.015599 -191102.000000 0 0 1
-17.882834 27.829189 6.795373 33.770350 -0.999646 1.368190 0.012798 -0.014650 76178.800000 0 0 1
-18.948334 26.800669 6.352173 33.431501 -0.955381 1.379628 0.025362 -0.013502 64518.500000 0 0 1
-18.730034 26.407999 4.993973 32.758759 -0.953885 1.417753 0.034670 -0.024406 374249.000000 0 0 1
-19.734634 25.552279 4.460773 32.592533 -0.913160 1.433501 0.052217 -0.030892 -507180.000000 0 0 1
-19.309234 24.843129 3.197373 31.626741 -0.910084 1.469526 0.065476 -0.035572 -1401950.000000 0 0 1
-19.183934 25.669319 2.052673 32.111535 -0.928994 1.506829 0.063725 -0.039515 165242.000000 0 0 1
-18.033534 26.483789 1.889873 32.096277 -0.972986 1.511881 0.063281 -0.031803 732253.000000 0 0 1
-16.594434 25.830059 1.971573 30.764497 -0.999749 1.506666 0.062293 -0.033791 87149.400000 0 0 1
-16.447334 24.631579 1.211873 29.642842 -0.982055 1.529902 0.083661 -0.035156 90407.400000 0 0 1
-16.393134 24.822919 -0.206127 29.748187 -0.987143 1.577725 0.073773 -0.034839 -483944.000000 0 0 1
-15.956734 23.568259 -1.054227 28.481425 -0.975644 1.607819 0.085539 -0.043021 122144.000000 0 0 1
-16.805734 22.416119 -0.951027 28.032472 -0.927477 1.604729 0.082732 -0.048477 366301.000000 0 0 1
-16.442834 21.289519 -1.773927 26.958435 -0.913148 1.636646 0.079902 -0.039207 67716.900000 0 0 1
-15.476234 20.283619 -1.100527 25.537231 -0.919032 1.613905 0.078622 -0.038907 467941.000000 0 0 1
-16.231834 19.277919 -0.383227 25.204314 -0.870970 1.586002 0.086278 -0.041197 587364.000000 0 0 1
-15.367334 18.397219 0.308373 23.973062 -0.874894 1.557933 0.126200 -0.054530 -287002.000000 0 1 0
-16.073034 17.349319 1.125073 23.677142 -0.823566 1.523261 0.102747 -0.042651 -315707.000000 0 1 0
-16.829034 16.472319 0.340173 23.551420 -0.774687 1.556352 0.085422 -0.034811 -346392.000000 0 1 0
-17.564434 15.684119 1.163073 23.576548 -0.728905 1.521445 0.096002 -0.044406 -433895.000000 0 1 0
-18.284634 14.480119 0.524973 23.329750 -0.669800 1.548292 0.122764 -0.039887 -138628.000000 0 1 0
-19.303234 14.674819 -0.413127 24.251511 -0.650014 1.587832 0.118935 -0.047379 61870.900000 0 1 0
-20.085734 13.527419 -0.647627 24.224929 -0.592707 1.597533 0.120281 -0.035861 749928.000000 0 1 0
-21.196334 13.632419 -1.785327 25.264892 -0.571545 1.641520 0.129892 -0.036366 735060.000000 0 0 1
-22.156334 12.538919 -1.904827 25.529512 -0.514991 1.645478 0.125577 -0.035678 2141170.000000 0 0 1
-23.338234 12.561219 -1.070327 26.525515 -0.493758 1.611158 0.121241 -0.020097 1203320.000000 0 0 1
-24.302234 13.815919 -1.056127 27.974874 -0.516939 1.608558 0.082059 -0.009396 -90835.200000 0 0 1
-23.630834 14.951719 -0.505027 27.968290 -0.564132 1.588854 0.051079 -0.014485 381966.000000 0 0 1
-24.542834 16.021219 -0.343227 29.311225 -0.578331 1.582506 0.035623 -0.006740 26838.400000 0 0 1
-23.997634 17.174419 0.573573 29.515692 -0.621166 1.551362 0.021744 -0.010191 154056.000000 0 0 1
-23.885334 16.754119 1.900073 29.237304 -0.611691 1.505763 0.020611 -0.013760 71860.800000 0 0 1
-23.194334 17.721619 2.617373 29.306714 -0.652432 1.481368 0.013085 -0.021205 -96890.900000 0 0 1
-24.155534 18.699919 3.366773 30.732913 -0.658777 1.461027 0.026011 -0.026047 208221.000000 0 0 1
-24.944034 17.922619 4.338173 31.020071 -0.623043 1.430486 0.040771 -0.027777 834078.000000 0 0 1
-26.309574 18.303719 4.453073 32.358146 -0.607838 1.432740 0.026027 -0.032895 516861.000000 0 0 1
-27.260824 18.108619 3.235373 32.886809 -0.586343 1.472258 0.062440 -0.027343 -1266550.000000 0 0 1
-28.357934 18.941919 3.429173 34.274304 -0.588896 1.470578 0.073973 -0.025446 -980672.000000 0 0 1
-29.145594 18.751119 2.308473 34.733257 -0.571693 1.504284 0.081060 -0.024543 -69263.200000 0 0 1
-30.444674 19.611519 2.136273 36.277451 -0.572265 1.511875 0.076613 -0.036847 1004690.000000 0 0 1
-31.579904 19.047419 2.832573 36.988078 -0.542732 1.494141 0.125558 -0.032449 268069.000000 0 0 1
-32.753304 19.745219 2.534573 38.328535 -0.542510 1.504620 0.105152 -0.036588 -344765.000000 0 0 1
-33.268154 20.432819 3.821473 39.228482 -0.550785 1.473226 0.091136 -0.036953 -656608.000000 0 0 1
-32.480374 21.496719 4.253873 39.181360 -0.584652 1.462013 0.072532 -0.035101 91223.700000 0 0 1
-32.707604 21.793719 5.627773 39.704223 -0.587762 1.428575 0.078771 -0.028311 -556686.000000 0 0 1
-31.819694 22.907019 6.137473 39.684921 -0.623958 1.415518 0.065009 -0.028427 -337939.000000 0 0 1
-31.996304 24.141559 5.483173 40.455450 -0.646382 1.434842 0.054358 -0.021926 812069.000000 0 0 1
-30.923244 24.949549 5.972273 40.179535 -0.678887 1.421604 0.051698 -0.021958 278570.000000 0 0 1
-31.289184 26.406829 5.822773 41.355027 -0.700977 1.429527 0.046088 -0.018574 -271465.000000 0 0 1
-32.313904 26.831079 6.722573 42.535728 -0.692961 1.412086 0.057164 -0.010637 87578.700000 0 0 1
-32.851274 28.040679 6.312773 43.650165 -0.706560 1.425665 0.051835 -0.005306 -176093.000000 0 0 1
-34.091711 28.435029 7.145873 44.965087 -0.695176 1.411199 0.047938 -0.001811 -305104.000000 0 0 1
-33.693604 28.619009 8.508973 45.018987 -0.704140 1.380644 0.062405 -0.009074 547997.000000 0 0 1
-34.666452 29.278959 9.325473 46.324774 -0.701345 1.368105 0.060711 -0.014540 331427.000000 0 0 1
-35.777346 28.349809 9.900873 46.709286 -0.670087 1.357208 0.045008 -0.008869 -93890.100000 0 0 1
-35.325968 27.338609 10.765973 45.948119 -0.658620 1.334291 0.053722 -0.009157 -257316.000000 0 0 1
-36.371694 26.706929 11.464373 46.557405 -0.633363 1.321996 0.054636 -0.008236 -178369.000000 0 0 1
-35.923575 25.475539 12.286573 45.721616 -0.616847 1.298727 0.086303 -0.011641 -168472.000000 0 0 1
-35.034491 25.934509 13.272473 45.565040 -0.637236 1.275225 0.104488 -0.023848 -278442.000000 0 0 1
-34.587986 24.931779 14.133873 44.918690 -0.624564 1.250704 0.124449 -0.025179 225603.000000 0 0 1
-33.277714 25.328759 14.874073 44.386825 -0.650588 1.229084 0.124307 -0.023565 327102.000000 0 0 1
-33.492704 26.396419 15.781173 45.470622 -0.667458 1.216359 0.108738 -0.030680 31214.600000 0 0 1
-32.240354 26.948269 16.143373 45.013976 -0.696225 1.203996 0.118615 -0.022103 280101.000000 0 0 1
-32.354964 28.218579 17.070073 46.200857 -0.717217 1.192352 0.108525 -0.028243 -93222.700000 0 0 1
-32.601784 29.338769 16.259673 46.776240 -0.732767 1.215780 0.115460 -0.025694 103099.000000 0 0 1
-32.843164 30.534889 17.012473 47.963288 -0.748994 1.208206 0.091970 -0.014467 94633.600000 0 0 1
-32.757314 31.756069 16.045373 48.362625 -0.769879 1.232615 0.067105 -0.026459 -858793.000000 0 0 1
-31.426844 32.019269 15.791273 47.563056 -0.794735 1.232366 0.066880 -0.020332 -1314370.000000 0 0 1
-31.088224 33.198827 15.201273 47.955379 -0.818217 1.248244 0.040666 -0.018745 -659211.000000 0 0 1
-29.556374 33.330031 15.077573 47.029814 -0.845334 1.244438 0.059605 -0.021382 -101144.000000 0 0 1
-28.979244 32.497967 14.088373 45.764578 -0.842572 1.257870 0.062539 -0.022594 -14249.200000 0 0 1
-28.748084 31.133469 14.462473 44.776202 -0.825212 1.241904 0.078841 -0.023600 -608525.000000 0 0 1
-29.796454 30.110369 14.005673 44.616385 -0.790638 1.251485 0.108407 -0.024058 -139844.000000 0 0 1
-29.845054 29.900849 12.586573 44.081853 -0.786332 1.281240 0.121483 -0.029737 351323.000000 0 0 1
-30.837764 28.889709 12.269673 44.001452 -0.752794 1.288203 0.121630 -0.030244 768639.000000 0 0 1
-31.010754 28.544929 10.762173 43.500622 -0.744018 1.320798 0.108518 -0.025416 253560.000000 0 0 1
-29.796094 28.058369 10.221073 42.184708 -0.755371 1.326067 0.098580 -0.019739 -164567.000000 0 0 1
-29.848224 27.949389 8.850173 41.837905 -0.752557 1.357651 0.088975 -0.018747 195189.000000 0 0 1
-28.630154 27.247399 8.187673 40.362661 -0.760657 1.366526 0.091880 -0.024187 25199.800000 0 0 1
-28.526614 27.288059 6.767773 40.052573 -0.763211 1.401010 0.070340 -0.029040 -519261.000000 0 0 1
-27.469144 26.488869 6.252773 38.669254 -0.767233 1.408384 0.065757 -0.024209 -151453.000000 0 0 1
-27.099614 26.846619 4.771173 38.443388 -0.780708 1.446366 0.053613 -0.022094 -183881.000000 0 0 1
-26.207104 27.922889 4.709573 38.583417 -0.817085 1.448429 0.057874 -0.024907 -115116.000000 0 0 1
-25.891934 28.274929 3.403873 38.489611 -0.829363 1.482245 0.051863 -0.025864 -353967.000000 0 0 1
-24.847734 29.398789 3.228873 38.628024 -0.869098 1.487110 0.051152 -0.025482 -139900.000000 0 0 1
-23.529034 28.945359 3.358473 37.453018 -0.888252 1.481004 0.048366 -0.025111 576106.000000 0 0 1
-22.523334 30.009239 3.180673 37.655964 -0.926945 1.486229 0.050737 -0.020652 2046890.000000 0 0 1
-21.023734 29.567779 3.281773 36.428298 -0.952702 1.480585 0.034496 -0.024477 1531230.000000 0 0 1
-20.070034 30.427899 2.620373 36.544899 -0.987707 1.499032 0.028328 -0.009941 1570770.000000 0 0 1
-18.704334 30.057539 2.962473 35.525821 -1.014152 1.487310 0.039072 -0.019991 3000720.000000 0 0 1
-17.491834 31.071799 2.589573 35.750899 -1.058066 1.498299 0.049791 -0.015816 1638080.000000 0 0 1
-17.605034 32.307049 3.307873 36.940826 -1.071855 1.481131 0.050281 -0.013888 -211714.000000 0 0 1
-16.521434 33.132019 3.008673 37.144859 -1.108226 1.489709 0.049935 -0.005843 -363915.000000 0 0 1
-16.425434 -33.955558 3.946173 37.925547 1.120247 1.466557 0.054700 -0.005034 -314011.000000 0 0 1
-17.373534 -32.946688 3.749473 37.435044 1.085530 1.470469 0.059009 -0.007644 -180710.000000 0 0 1
-17.370934 -32.004858 4.774373 36.726760 1.073529 1.440430 0.048425 -0.025625 11961.500000 0 0 1
-18.532634 -30.976618 4.731873 36.406044 1.031644 1.440453 0.057009 -0.018163 -11220.600000 0 0 1
-18.490834 -30.020698 3.664573 35.448305 1.018741 1.467233 0.069768 -0.019627 343270.000000 0 0 1
-19.571834 -29.099828 3.815073 35.276217 0.978714 1.462436 0.079279 -0.026083 -35052.500000 0 0 1
-19.873634 -28.345988 2.544973 34.712149 0.959326 1.497414 0.067965 -0.030385 425954.000000 0 0 1
-18.980534 -27.221338 2.372873 33.269993 0.961907 1.499414 0.072531 -0.031911 216111.000000 0 0 1
-19.375934 -26.431458 1.321773 32.799327 0.938223 1.530487 0.058615 -0.033097 -224030.000000 0 0 1
-18.565134 -25.120878 1.226073 31.260614 0.934352 1.531565 0.057779 -0.029519 -461718.000000 0 0 1
-17.253934 -25.469628 0.908073 30.777017 0.975378 1.541287 0.062251 -0.028400 -1087670.000000 0 0 1
-16.347334 -24.437798 1.219673 29.426670 0.981224 1.529337 0.057799 -0.028038 143116.000000 0 0 1
-14.914634 -24.645998 0.681773 28.815557 1.026595 1.547134 0.059228 -0.032483 -139884.000000 0 0 1
-14.801634 -24.601798 -0.739727 28.720794 1.029166 1.596555 0.055250 -0.028920 134096.000000 0 0 1
-15.079534 -23.336398 -1.380427 27.818796 0.997111 1.620439 0.065031 -0.029797 -395322.000000 0 0 1
-15.182434 -23.412398 -2.925827 28.057212 0.995492 1.675267 0.037440 -0.010079 222129.000000 0 0 1
-13.910134 -23.676498 -3.499827 27.682435 1.039613 1.697563 0.055520 -0.014029 257487.000000 0 0 1
-13.964634 -23.628898 -4.919827 27.884414 1.037022 1.748161 0.055988 -0.008832 760610.000000 0 0 1
-12.748234 -24.347698 -5.634927 28.054951 1.088455 1.773025 0.061673 -0.013586 775598.000000 0 0 1
-12.719034 -25.733218 -5.353227 29.199818 1.111747 1.755170 0.049536 -0.012216 -452074.000000 0 0 1
-11.837234 -26.376708 -6.228927 29.574489 1.148961 1.783004 0.056674 -0.008091 -238678.000000 0 0 1
23.195966 12.874702 28.068883 38.622182 0.506705 0.757210 0.016237 0.008446 7789.830000 0 0 1
24.217566 11.954502 28.418653 39.204852 0.458538 0.759942 0.021429 0.009080 395261.000000 0 0 1
23.782166 11.098002 29.466713 39.459400 0.436615 0.727619 0.033121 0.009897 -136877.000000 0 0 1
23.667966 11.729602 30.926493 40.671908 0.460113 0.706884 0.037807 -0.003500 -405104.000000 0 0 1
22.528966 12.435702 31.268463 40.495898 0.504368 0.688596 0.034900 -0.001899 -492468.000000 0 0 1
22.753666 12.718502 32.605133 41.744272 0.509700 0.674421 0.044312 -0.004456 -591552.000000 0 0 1
21.813666 13.673202 33.323128 42.109659 0.559906 0.657796 0.039215 -0.012929 -550351.000000 0 0 1
20.609366 13.017602 33.635107 41.539431 0.563356 0.627130 0.049354 -0.010529 270149.000000 0 0 1
19.747466 13.863802 -33.939307 41.641854 0.612104 2.523575 0.055909 -0.007125 337926.000000 0 0 1
18.465366 13.117102 -33.496887 40.435994 0.617647 2.547029 0.050702 -0.010446 -385630.000000 0 0 1
17.556566 12.787102 33.873632 40.238861 0.629492 0.570161 0.040486 -0.002078 -107027.000000 0 0 1
16.498466 12.142302 -33.825137 39.544593 0.634458 2.597055 0.036251 -0.003947 -81658.000000 0 0 1
15.241366 11.817502 33.728173 38.852828 0.659533 0.519433 0.036206 0.006415 254115.000000 0 0 1
15.376366 10.723502 32.824982 37.800867 0.608980 0.518899 0.030563 0.018405 173648.000000 0 0 1
14.070266 10.325302 32.437042 36.834032 0.633077 0.493613 0.049327 0.008401 469887.000000 0 0 1
14.166766 9.212202 31.412263 35.669205 0.576564 0.493553 0.057907 0.010475 22465.100000 0 0 1
14.433766 7.960002 31.872443 35.882417 0.503982 0.477282 0.047437 0.005579 -391387.000000 0 0 1
15.321066 7.351002 30.992243 35.345316 0.447355 0.501543 0.050646 -0.013282 -167345.000000 0 0 1
15.841066 6.005502 31.555663 35.815713 0.362369 0.492705 0.058736 -0.016597 230358.000000 0 0 1
14.898666 4.932302 31.500113 35.193109 0.319700 0.462220 0.049239 -0.012344 244635.000000 0 0 1
15.299666 3.900102 32.330051 35.979477 0.249598 0.454298 0.060463 -0.017630 238868.000000 0 0 1
14.122966 2.893002 32.357850 35.423976 0.202049 0.419126 0.043494 -0.016790 107227.000000 0 0 1
14.497366 1.588902 32.718289 35.821567 0.109164 0.419314 0.054611 -0.019782 -182993.000000 0 0 1
13.476266 0.862102 33.354575 35.984450 0.063885 0.384686 0.050034 -0.014800 63066.800000 0 0 1
13.977266 -0.616998 33.569974 36.368775 -0.044114 0.394877 0.045390 -0.015962 317251.000000 0 0 1
14.166066 -1.433898 32.457710 35.443425 -0.100877 0.413398 0.038615 -0.015265 28152.200000 0 0 1
14.584466 -2.751098 32.831740 36.030519 -0.186441 0.424560 0.060892 -0.015308 -30449.300000 0 0 1
14.942166 -3.691498 31.658363 35.201526 -0.242203 0.452524 0.069612 -0.020218 -950969.000000 0 0 1
15.294166 -5.035598 32.015133 35.836259 -0.318071 0.466000 0.076474 -0.022893 84988.100000 0 0 1
16.513966 -5.388598 32.641198 36.975612 -0.315412 0.489057 0.069134 -0.022834 425098.000000 0 0 1
17.803766 -5.067598 31.808563 36.802708 -0.277303 0.527040 0.075601 -0.022534 -269398.000000 0 0 1
17.966266 -3.661398 31.857673 36.757365 -0.201040 0.522244 0.073531 -0.023564 -476249.000000 0 0 1
19.012566 -3.199298 31.070573 36.566291 -0.166711 0.555370 0.090568 -0.024723 -382972.000000 0 0 1
18.890266 -1.624198 31.006653 36.344087 -0.085770 0.548818 0.094856 -0.022452 -122799.000000 0 0 1
19.217166 -0.987798 32.240163 37.546016 -0.051357 0.538100 0.072404 -0.020857 146978.000000 0 0 1
19.025766 0.401402 32.255683 37.450901 0.021095 0.533015 0.072829 -0.013877 157120.000000 0 0 1
20.216966 1.194002 31.651863 37.576479 0.058991 0.569201 0.076053 -0.017106 -37353.100000 0 0 1
20.262966 1.281202 30.245133 36.427975 0.063145 0.591201 0.076255 -0.017645 144761.000000 0 0 1
21.234066 2.195402 29.741433 36.609537 0.103024 0.622547 0.071488 -0.013975 119415.000000 0 0 1
20.790566 3.666902 29.728853 36.462289 0.174578 0.617495 0.059939 0.000839 -231085.000000 0 0 1
20.852766 4.122302 31.034283 37.615927 0.195170 0.600540 0.060042 -0.006315 428298.000000 0 0 1
20.318766 5.440202 31.121373 37.563119 0.261607 0.594357 0.061082 -0.004480 -114444.000000 0 0 1
20.309766 5.967702 32.576806 38.850332 0.285790 0.576234 0.066589 -0.003716 -376260.000000 0 0 1
19.204566 5.385602 33.229624 38.756006 0.273411 0.540589 0.062475 -0.009208 123400.000000 0 0 1
18.960466 5.979502 -33.900417 39.300026 0.305494 2.611194 0.056266 -0.002157 -436173.000000 0 0 1
17.717466 5.310102 -33.353917 38.139082 0.291191 2.635270 0.058224 -0.002223 -545207.000000 0 0 1
17.970866 3.951802 -33.024467 37.804553 0.216455 2.633261 0.052902 -0.009278 638692.000000 0 0 1
16.872166 3.441902 -32.247287 36.556863 0.201238 2.651126 0.051708 -0.008064 482467.000000 0 0 1
16.641066 1.942402 -32.496787 36.561444 0.116198 2.665575 0.053054 -0.014990 -12125.900000 0 0 1
17.657166 1.066902 -32.030967 36.590937 0.060350 2.637017 0.040190 -0.008104 76861.200000 0 0 1
17.677766 -0.171298 -32.665527 37.142556 -0.009690 2.645530 0.048171 -0.010473 -379133.000000 0 0 1
18.698466 -1.121698 -32.034647 37.109426 -0.059917 2.612466 0.052710 -0.009607 -355148.000000 0 0 1
18.518666 -1.513698 -30.695887 35.881329 -0.081558 2.597280 0.052497 -0.012235 101067.000000 0 0 1
18.757966 -0.470398 -29.747587 35.171033 -0.025072 2.578855 0.052332 -0.012593 -361768.000000 0 0 1
18.289566 -0.771498 -28.329437 33.729223 -0.042157 2.567910 0.038149 -0.012989 -837911.000000 0 0 1
16.911066 -0.765698 -28.114577 32.817677 -0.045247 2.599615 0.043287 -0.015160 -297881.000000 0 0 1
16.454666 -0.741798 -26.756907 31.420350 -0.045051 2.589786 0.036616 -0.014028 -69753.300000 0 0 1
16.943266 -1.908098 -25.866187 30.980232 -0.112144 2.558794 0.046216 -0.012618 -1248840.000000 0 0 1
18.226366 -1.642698 -25.381827 31.291150 -0.089885 2.516913 0.055823 -0.013887 -437770.000000 0 0 1
18.953266 -2.844098 -25.098017 31.578880 -0.148947 2.489429 0.052817 -0.014752 242125.000000 0 0 1
19.821466 -3.346198 -26.248507 33.061635 -0.167240 2.488036 0.064706 -0.021286 463054.000000 0 0 1
21.077766 -2.650298 -26.450087 33.924968 -0.125083 2.464926 0.065046 -0.014037 881289.000000 0 0 1
21.545266 -2.899898 -27.784737 35.278883 -0.133792 2.477659 0.064760 -0.021138 307837.000000 0 0 1
22.892266 -2.212598 -28.164427 36.361882 -0.096353 2.456814 0.046960 -0.017829 1007020.000000 0 0 1
24.018166 -2.988898 -27.711637 36.793215 -0.123807 2.423668 0.050110 -0.023261 563316.000000 0 0 1
25.236566 -2.512698 -28.285567 37.990410 -0.099239 2.410649 0.041010 -0.025415 372656.000000 0 0 1
26.347266 -3.578298 -28.138497 38.713792 -0.134987 2.384497 0.063212 -0.022937 -350600.000000 0 0 1
26.398766 -4.567598 -29.158157 39.597424 -0.171327 2.398478 0.068395 -0.031931 550492.000000 0 0 1
27.485466 -5.489598 -29.002677 40.332888 -0.197133 2.373278 0.069933 -0.033188 324497.000000 0 0 1
27.344366 -6.534398 -27.898587 39.607372 -0.234568 2.352344 0.054071 -0.024055 -219753.000000 0 0 1
27.407766 -6.030898 -26.587057 38.657846 -0.216592 2.329186 0.047250 -0.009257 304161.000000 0 0 1
27.118166 -7.082998 -25.660857 38.000571 -0.255483 2.312135 0.026435 -0.007873 -262995.000000 0 0 1
27.245766 -6.589998 -24.205527 37.036029 -0.237315 2.283084 0.017796 -0.001032 435800.000000 0 0 1
28.591866 -6.265998 -23.824827 37.740959 -0.215742 2.253989 0.010057 0.001970 905160.000000 0 0 1
28.661166 -6.047298 -22.446827 36.903826 -0.207943 2.224653 0.020007 0.001682 280456.000000 0 0 1
30.125466 -5.701798 -22.050927 37.766356 -0.187056 2.194293 0.025836 0.011349 274668.000000 0 0 1
30.578266 -4.476098 -22.596827 38.284232 -0.145349 2.202151 0.045335 0.004517 786245.000000 0 0 1
31.915566 -4.229198 -22.104827 39.052694 -0.131745 2.172473 0.052357 0.008480 1109180.000000 0 0 1
32.487966 -2.949498 -22.715427 39.751203 -0.090539 2.179056 0.063373 0.002384 -4214.520000 0 0 1
31.758966 -1.854698 -22.205627 38.796414 -0.058333 2.180181 0.049060 0.002492 163503.000000 0 0 1
32.258466 -0.601698 -22.670527 39.432518 -0.018650 2.183302 0.060511 0.000255 -40563.300000 0 0 1
31.358466 0.604102 -22.310327 38.489857 0.019262 2.189085 0.052441 -0.001139 170086.000000 0 0 1
30.218066 0.601502 -23.162027 38.078509 0.019903 2.224676 0.053548 -0.003679 187250.000000 0 0 1
29.290766 1.622502 -22.890427 37.209584 0.055336 2.233405 0.049570 -0.001636 -352056.000000 0 0 1
27.981166 1.552502 -23.671327 36.683616 0.055427 2.272190 0.049274 -0.007824 -438979.000000 0 0 1
27.058466 2.566602 -23.313027 35.808453 0.094571 2.279761 0.054824 -0.009983 -7833.520000 0 0 1
26.280666 2.828202 -24.459727 36.013198 0.107203 2.317452 0.076599 -0.011814 -698143.000000 0 0 1
25.088666 3.736202 -24.199127 35.057070 0.147833 2.332670 0.070710 -0.007127 -507007.000000 0 0 1
25.457466 5.004102 -23.743627 35.169354 0.194093 2.311927 0.069762 -0.005955 -466906.000000 0 0 1
24.337666 5.778602 -23.534227 34.344928 0.233118 2.325718 0.081241 -0.009045 -583329.000000 0 0 1
24.732066 7.222602 -23.079027 34.590209 0.284133 2.301257 0.094445 -0.005277 2506.680000 0 0 1
25.345066 7.961802 -24.101427 35.869785 0.304375 2.307587 0.091121 -0.007450 51314.000000 0 0 1
25.705566 9.197202 -23.647327 36.118704 0.343598 2.284597 0.102339 -0.014358 309906.000000 0 0 1
26.580866 10.091402 -24.691427 37.656944 0.362840 2.285898 0.108913 -0.015818 610320.000000 0 0 1
25.981066 10.465802 -25.914157 38.158778 0.382939 2.317351 0.106131 -0.027068 285688.000000 0 0 1
24.716166 11.102302 -25.924097 37.499451 0.422182 2.334110 0.104911 -0.035044 223269.000000 0 0 1
24.324466 11.551602 -27.358577 38.387640 0.443364 2.364125 0.089475 -0.028611 -239462.000000 0 0 1
23.960066 10.498702 -28.254137 38.504595 0.412977 2.394675 0.088193 -0.019796 291146.000000 0 0 1
24.969266 9.690802 -28.861807 39.374863 0.370214 2.393519 0.088979 -0.017006 111423.000000 0 0 1
25.655766 10.294302 -30.117567 40.881033 0.381581 2.398992 0.099631 -0.013157 -397446.000000 0 0 1
26.529566 11.403102 -29.821937 41.511403 0.405951 2.372301 0.103027 -0.007026 1066070.000000 0 0 1
27.562966 11.702102 -30.758877 42.927437 0.401497 2.369614 0.102622 -0.005534 365075.000000 0 0 1
28.644066 10.662702 -31.054837 43.572683 0.356356 2.364155 0.089371 -0.005610 -966972.000000 0 0 1
28.180166 9.559202 -31.882657 43.611970 0.327037 2.390660 0.090976 -0.005458 602133.000000 0 0 1
29.168666 8.549302 -32.090167 44.200458 0.285113 2.383305 0.075016 -0.002427 268246.000000 0 0 1
28.528866 7.388902 -32.878647 44.153115 0.253429 2.410808 0.072167 -0.001998 643876.000000 0 0 1
27.536966 6.677202 -32.102797 42.818911 0.237890 2.418456 0.072232 -0.004622 425662.000000 0 0 1
26.985666 5.666202 -32.938717 42.956852 0.206964 2.444616 0.062747 -0.000933 -415455.000000 0 0 1
25.630866 5.151202 -32.434447 41.658968 0.198334 2.463181 0.058860 0.000484 473071.000000 0 0 1
24.505766 6.029902 -32.671247 41.283201 0.241267 2.483881 0.063581 -0.002507 760779.000000 0 0 1
24.176166 6.820002 -31.553757 40.331614 0.274951 2.469239 0.075570 -0.008774 618211.000000 0 0 1
22.672566 7.295402 -31.525327 39.510941 0.311310 2.494581 0.066868 -0.012416 823891.000000 0 0 1
22.369166 8.407302 -32.310167 40.187178 0.359510 2.504775 0.071158 -0.008849 -7430.200000 0 0 1
21.035266 8.815002 -32.076097 39.358134 0.396827 2.523491 0.062875 -0.002420 127975.000000 0 0 1
20.466566 9.675202 -33.215567 40.196564 0.441596 2.543353 0.057040 -0.001600 -237872.000000 0 0 1
20.339166 9.071902 33.892874 40.554999 0.419549 0.581343 0.053384 -0.004224 63356.500000 0 0 1
20.041866 10.037102 32.950642 39.851783 0.464293 0.597349 0.041351 0.000500 203605.000000 0 0 1
18.907566 9.620802 31.942023 38.345126 0.470689 0.586263 0.045584 0.002291 418575.000000 0 0 1
19.252166 8.682102 30.952563 37.471135 0.423658 0.598756 0.032397 0.001168 -232691.000000 0 0 1
20.157966 9.108502 29.954833 37.237084 0.424396 0.636072 0.038584 0.001032 -502916.000000 0 0 1
19.711466 10.067002 28.782333 36.308526 0.472185 0.655545 0.027311 0.001622 -279270.000000 0 0 1
18.908466 9.368302 27.848873 34.940734 0.460005 0.648432 0.022346 0.007094 1240520.000000 0 0 1
17.513166 9.698002 28.106173 34.506799 0.505721 0.618910 0.030499 -0.004680 911669.000000 0 0 1
16.518166 8.891702 27.257063 33.088663 0.493815 0.602788 0.050007 -0.005826 -707017.000000 0 0 1
16.267366 9.323702 25.912283 31.984449 0.520446 0.626384 0.040764 -0.006012 130209.000000 0 0 1
15.058266 8.829802 25.380233 30.803782 0.530341 0.602481 0.055291 -0.010089 33311.400000 0 0 1
14.757566 7.339902 25.169943 30.086308 0.461538 0.579765 0.062035 -0.007977 -299983.000000 0 0 1
14.862766 6.654702 26.376333 30.998352 0.420976 0.553110 0.056595 -0.012292 -178421.000000 0 0 1
14.497366 5.337402 26.177323 30.395949 0.352764 0.533149 0.063219 -0.017001 -228762.000000 0 0 1
14.773466 4.462302 27.344983 31.399292 0.293335 0.513808 0.064077 -0.018495 -450391.000000 0 0 1
16.109266 4.082502 27.520223 32.148685 0.248200 0.543257 0.061414 -0.010966 -259764.000000 0 0 1
16.437466 3.754002 28.831793 33.399927 0.224530 0.529164 0.061159 -0.015253 -630862.000000 0 0 1
17.230066 2.480402 28.891873 33.730815 0.142975 0.542264 0.074994 -0.014399 -745535.000000 0 0 1
16.619566 1.228102 28.621433 33.119550 0.073761 0.527267 0.069542 -0.022085 -165240.000000 0 0 1
15.742066 0.880902 29.682643 33.610235 0.055900 0.488276 0.056707 -0.014788 87560.600000 0 0 1
15.239466 -0.570198 29.580653 33.280347 -0.037398 0.476005 0.051062 -0.012429 -315742.000000 0 0 1
14.515066 -0.959998 28.408103 31.915968 -0.066042 0.473252 0.046747 -0.017531 -41917.400000 0 0 1
15.174266 -1.231198 27.200003 31.170729 -0.080960 0.510268 0.055490 -0.022051 -587637.000000 0 0 1
16.340566 -2.296298 27.242073 31.849923 -0.139613 0.544616 0.066575 -0.015983 1230240.000000 0 0 1
17.620466 -1.957298 27.781813 32.956653 -0.110627 0.567997 0.082035 -0.022584 900472.000000 0 0 1
18.317266 -0.855998 27.150563 32.762906 -0.046698 0.594019 0.083131 -0.023823 -1076100.000000 0 0 1
19.750366 -0.706398 27.642913 33.980974 -0.035751 0.620682 0.114043 -0.028865 142565.000000 0 0 1
20.707366 -1.533198 26.920403 33.997850 -0.073906 0.657002 0.090921 -0.029125 1120.200000 0 0 1
22.004166 -1.144598 27.296173 35.079545 -0.051971 0.679126 0.089173 -0.031225 537663.000000 0 0 1
23.093566 -1.834998 26.349503 35.085272 -0.079293 0.721201 0.075576 -0.017281 551650.000000 0 0 1
23.053566 -1.353898 24.994793 34.029981 -0.058661 0.745877 0.083147 -0.007633 -107328.000000 0 0 1
22.304166 -2.150098 24.122953 32.924392 -0.096102 0.748549 0.085282 0.003554 -308877.000000 0 0 1
22.216266 -1.532398 22.750073 31.835146 -0.068867 0.774714 0.089915 -0.020722 -175598.000000 0 0 1
21.244066 -0.530298 22.595473 31.018494 -0.024957 0.754737 0.075635 -0.012535 -72959.200000 0 0 1
21.460166 0.144302 21.388073 30.298667 0.006724 0.787092 0.071965 -0.011268 -184215.000000 0 0 1
-30.622974 -27.408015 -10.652627 42.455203 0.730054 1.824421 0.026846 0.004518 -151031.000000 0 0 1
-30.263134 -26.464215 -9.748127 41.367112 0.718530 1.808683 0.032431 0.006581 -302541.000000 0 0 1
-30.742134 -26.929915 -8.530827 41.750139 0.719393 1.776576 0.043728 -0.002226 -599310.000000 0 0 1
-30.981064 -25.857815 -7.471227 41.039885 0.695505 1.753865 0.072941 -0.007356 749976.000000 0 0 1
-29.829074 -25.085515 -7.075327 39.612081 0.699231 1.750375 0.056359 -0.002565 -28254.600000 0 0 1
-29.009404 -25.657515 -6.104527 39.206107 0.724160 1.727136 0.061386 -0.002693 773453.000000 0 0 1
-27.853924 -24.645515 -5.630627 37.615774 0.724361 1.721049 0.050381 0.001806 500014.000000 0 0 1
-28.182324 -23.574415 -4.750427 37.048117 0.696602 1.699373 0.063867 0.001839 -281382.000000 0 0 1
-28.972854 -22.552515 -5.289227 37.094718 0.661432 1.713871 0.067940 0.000810 -245067.000000 0 0 1
-29.179254 -21.428815 -4.279627 36.454604 0.633433 1.688464 0.073282 -0.016211 203215.000000 0 0 1
-28.082954 -20.534615 -4.082927 35.028460 0.631368 1.687622 0.081194 -0.016253 504646.000000 0 0 1
-28.434124 -19.483715 -3.219127 34.619031 0.600740 1.663918 0.082075 -0.013031 -90683.500000 0 0 1
-27.226934 -18.570215 -2.929527 33.086870 0.598579 1.659453 0.081342 -0.016308 103850.000000 0 0 1
-26.915984 -17.714415 -4.066127 32.477747 0.582074 1.696323 0.090694 -0.018490 -177867.000000 0 0 1
-26.082684 -16.652915 -3.758727 31.172969 0.568224 1.691667 0.085309 -0.012957 -287907.000000 0 0 1
-26.182144 -15.585115 -4.899427 30.861057 0.536925 1.730228 0.089603 -0.026886 -97117.600000 0 0 1
-27.366184 -14.833515 -4.902427 31.511505 0.496710 1.727007 0.087475 -0.016837 -179429.000000 0 0 1
-27.408574 -14.047415 -6.069527 31.391065 0.473613 1.765374 0.097809 -0.033584 129049.000000 0 0 1
-28.648464 -13.117115 -6.087527 32.091294 0.429375 1.761647 0.085669 -0.025095 27841.500000 0 0 1
-29.820044 -13.783715 -6.436227 33.476123 0.432978 1.764264 0.083479 -0.021050 -294989.000000 0 0 1
-31.008834 -13.043315 -6.321027 34.229099 0.398165 1.756531 0.067155 -0.015167 1108400.000000 0 0 1
-32.255304 -13.716515 -7.075327 35.757624 0.402081 1.769980 0.062197 -0.015933 830099.000000 0 0 1
-32.724654 -14.884115 -6.466627 36.527484 0.426862 1.748769 0.061487 -0.016892 200267.000000 0 0 1
-33.215454 -15.782815 -7.442027 37.519960 0.443583 1.770469 0.064400 -0.016736 -658537.000000 0 0 1
-34.255335 -16.793915 -6.922527 38.773508 0.455823 1.750296 0.060489 -0.023025 -1103110.000000 0 0 1
-35.585089 -16.478915 -6.885427 39.815352 0.433682 1.744604 0.054708 -0.026292 -997831.000000 0 0 1
-35.948469 -15.637415 -5.814127 39.631114 0.410306 1.718034 0.047001 -0.027189 -72738.800000 0 0 1
35.405518 -15.726015 -5.412327 39.117151 -0.417994 1.709604 0.062244 -0.027370 127273.000000 0 0 1
34.597658 -15.037115 -6.358127 38.256222 -0.409997 1.737770 0.069446 -0.033569 1496300.000000 0 0 1
33.178858 -15.344815 -6.324327 37.098478 -0.433190 1.742107 0.078502 -0.038133 1291130.000000 0 0 1
32.332938 -14.634915 -5.273927 35.880551 -0.425040 1.718316 0.101938 -0.043094 -873570.000000 0 0 1
32.598998 -15.088215 -3.990027 36.142347 -0.433483 1.681419 0.089443 -0.036928 339153.000000 0 0 1
31.906308 -14.302415 -3.003027 35.094013 -0.421408 1.656472 0.103962 -0.040976 -968780.000000 0 0 1
31.956148 -14.929815 -1.564727 35.306418 -0.437063 1.615129 0.105850 -0.037110 -408035.000000 0 0 1
33.223768 -15.189815 -1.022627 36.545793 -0.428823 1.598782 0.110746 -0.033061 -13350.800000 0 0 1
34.118598 -16.028115 -1.733327 37.735707 -0.439178 1.616746 0.091650 -0.026363 -926541.000000 0 0 1
33.762428 -17.504915 -1.834827 38.074797 -0.478317 1.619005 0.084307 -0.030904 -933206.000000 0 0 1
33.881078 -18.350015 -0.662527 38.536858 -0.496372 1.587989 0.079701 -0.026609 317780.000000 0 0 1
33.607158 -19.730215 -1.007727 38.983817 -0.530868 1.596649 0.066972 -0.029458 -96013.200000 0 0 1
34.707038 -20.522115 -1.774927 40.359461 -0.533995 1.614788 0.066863 -0.034535 67440.500000 0 0 1
34.831888 -19.982315 -3.086527 40.275054 -0.520841 1.647508 0.047455 -0.033258 35064.900000 0 0 1
35.719198 -20.683915 -3.936027 41.462968 -0.524888 1.665868 0.048895 -0.024763 -119522.000000 0 0 1
35.902108 -19.957815 -5.245327 41.410013 -0.507358 1.697806 0.065223 -0.032401 -75370.400000 0 0 1
34.790348 -20.084015 -6.120127 40.634861 -0.523551 1.721984 0.049851 -0.036739 473273.000000 0 0 1
34.976948 -19.275415 -7.296127 40.597561 -0.503679 1.751496 0.060008 -0.033328 -226183.000000 0 0 1
33.794848 -19.369515 -8.258527 39.818000 -0.520443 1.779720 0.071611 -0.040463 -407299.000000 0 0 1
33.877188 -20.521915 -9.049027 40.628780 -0.544654 1.795405 0.082716 -0.040643 598255.000000 0 0 1
32.818168 -20.714015 -10.006727 40.077889 -0.563028 1.823148 0.074768 -0.036148 171341.000000 0 0 1
32.604368 -22.134615 -10.609127 40.811023 -0.596414 1.833774 0.081358 -0.020900 -59177.600000 0 0 1
32.085468 -23.062115 -9.659727 40.677374 -0.623213 1.810559 0.079875 -0.023534 92827.000000 0 0 1
32.035488 -24.373015 -10.167427 41.517381 -0.650386 1.818208 0.065449 -0.009568 -99598.400000 0 0 1
31.261018 -25.400815 -9.295027 41.338241 -0.682340 1.797588 0.074908 -0.008093 -685682.000000 0 0 1
29.933568 -25.055115 -9.103027 40.082944 -0.696912 1.799900 0.082467 -0.011738 -1146540.000000 0 0 1
29.281258 -26.132515 -8.510027 40.158697 -0.728637 1.784325 0.063627 -0.006583 461643.000000 0 0 1
27.771288 -25.771315 -8.303327 38.785956 -0.748063 1.786547 0.067761 -0.013303 657644.000000 0 0 1
27.069688 -25.217715 -9.402727 38.172142 -0.749994 1.819682 0.068573 -0.006557 1301850.000000 0 0 1
25.749288 -24.739715 -8.986827 36.821765 -0.765405 1.817350 0.063995 -0.010274 1553100.000000 0 0 1
25.014088 -23.991615 -10.163827 36.119324 -0.764537 1.856045 0.084278 -0.019911 8882.220000 0 0 1
24.529188 -24.871115 -11.205227 36.685291 -0.792320 1.881199 0.074279 -0.017000 516508.000000 0 0 1
23.781288 -24.148015 -12.196027 36.019708 -0.793049 1.916218 0.084622 -0.005046 159656.000000 0 0 1
22.868088 -25.088315 -12.983327 36.344735 -0.831662 1.936094 0.081775 -0.024840 49461.600000 0 0 1
23.654688 -26.134015 -13.561527 37.768321 -0.835154 1.938069 0.082128 -0.020238 364868.000000 0 0 1
23.010688 -27.390015 -13.507427 38.238139 -0.872071 1.931834 0.079974 -0.006164 -15078.700000 0 0 1
23.922688 -28.563115 -13.958827 39.786875 -0.873582 1.929264 0.071924 -0.016630 -174465.000000 0 0 1
24.129588 -28.651415 -15.373627 40.490604 -0.870861 1.960251 0.081737 -0.011437 409686.000000 0 0 1
24.366288 -30.031215 -15.753427 41.758357 -0.889164 1.957624 0.063774 -0.005556 -164448.000000 0 0 1
24.475488 -30.285215 -17.255927 42.591206 -0.891096 1.987942 0.078348 -0.014319 923153.000000 0 0 1
23.154288 -30.077815 -17.799627 41.924012 -0.914735 2.009282 0.081240 -0.018289 1175020.000000 0 0 1
23.158588 -30.332615 -19.189727 42.715728 -0.918719 2.036714 0.079305 -0.019736 -178654.000000 0 0 1
21.793788 -29.941215 -19.767227 41.978433 -0.941599 2.061096 0.061461 -0.015947 -273404.000000 0 0 1
21.612088 -30.302915 -21.140927 42.805231 -0.951265 2.087350 0.052914 -0.008813 760240.000000 0 0 1
20.283388 -29.991615 -21.595427 42.157743 -0.976153 2.108602 0.061761 -0.021602 450325.000000 0 0 1
20.111188 -30.397015 -23.073227 43.137133 -0.986298 2.135163 0.058838 -0.019708 -502546.000000 0 0 1
20.723888 -29.521115 -24.013827 43.331740 -0.958728 2.158181 0.059799 -0.011587 421558.000000 0 0 1
20.396188 -29.887415 -25.329267 44.168245 -0.971957 2.181535 0.067690 -0.016896 -525247.000000 0 0 1
20.837388 -28.869215 -26.409117 44.329108 -0.945598 2.208997 0.063024 -0.021935 106750.000000 0 0 1
20.050088 -27.692315 -26.665507 43.358040 -0.944124 2.233191 0.074640 -0.021341 -51698.800000 0 0 1
18.926288 -27.971715 -27.464527 43.530696 -0.975933 2.253539 0.091772 -0.030005 -340687.000000 0 0 1
18.196588 -26.697415 -27.898327 42.687053 -0.972536 2.283068 0.082214 -0.036953 183788.000000 0 0 1
17.324988 -26.147815 -26.875507 41.305645 -0.985629 2.279236 0.063324 -0.016271 377647.000000 0 0 1
16.851688 -24.877315 -27.349557 40.630758 -0.975405 2.309222 0.044492 0.002434 266311.000000 0 0 1
15.695488 -24.317615 -26.478727 39.227768 -0.997636 2.311760 0.056791 0.001531 -1278.680000 0 0 1
14.471388 -24.988315 -26.524827 39.209736 -1.045867 2.313777 0.079490 -0.017346 -199412.000000 0 0 1
13.422688 -24.489115 -25.679407 37.938335 -1.069407 2.314302 0.060034 -0.019027 633451.000000 0 0 1
13.409488 -24.761315 -24.180527 37.116506 -1.074464 2.280325 0.051857 -0.007331 138477.000000 0 0 1
14.497088 -24.172915 -23.450727 36.666497 -1.030579 2.264733 0.037434 -0.002254 88298.200000 0 0 1
14.402488 -24.416215 -22.040827 35.907956 -1.037856 2.231680 0.056558 -0.012889 422663.000000 0 0 1
15.469588 -23.763415 -21.095327 35.341490 -0.993730 2.210428 0.027310 -0.015880 311022.000000 0 0 1
15.480388 -22.313015 -20.942527 34.294351 -0.964255 2.227703 0.025787 -0.015955 -499736.000000 0 0 1
16.575988 -21.841515 -20.241727 34.081413 -0.921610 2.206722 0.026122 -0.011954 -911676.000000 0 0 1
16.353688 -20.447015 -19.672027 32.749232 -0.896172 2.215156 0.030752 0.005888 90362.700000 0 0 1
15.553888 -20.378415 -18.524827 31.628665 -0.918867 2.196537 0.038251 -0.007805 244194.000000 0 0 1
14.160088 -20.232615 -18.718627 30.987963 -0.960161 2.219384 0.022458 -0.007089 43273.600000 0 0 1
13.307488 -19.936915 -17.464427 29.657647 -0.982231 2.200453 0.036819 -0.007914 -14695.800000 0 0 1
13.584588 -18.671215 -16.915527 28.623249 -0.941807 2.203059 0.051229 -0.013995 166229.000000 0 0 1
13.127888 -18.551615 -15.556127 27.540824 -0.954960 2.171034 0.036635 -0.015064 -65073.100000 0 0 1
13.260988 -17.161915 -14.890327 26.307926 -0.912926 2.172444 0.040261 -0.013821 70554.500000 0 0 1
12.108088 -16.342315 -15.088927 25.324944 -0.933142 2.209074 0.038883 -0.023267 689251.000000 0 0 1
12.437588 -15.008115 -14.660827 24.390100 -0.878784 2.215670 0.044476 -0.026746 178815.000000 0 1 0
11.192288 -14.128815 -14.348227 23.038280 -0.900854 2.243112 0.046948 -0.023774 325285.000000 0 1 0
10.374688 -14.014015 -15.509127 23.335805 -0.933527 2.297763 0.066325 -0.007497 115093.000000 0 1 0
9.023888 -13.691015 -15.215627 22.369394 -0.988043 2.318830 0.062620 -0.008381 450918.000000 0 1 0
8.215688 -13.600515 -16.543127 22.937886 -1.027388 2.376350 0.056534 0.011904 -311241.000000 0 1 0
8.413388 -12.455315 -17.362027 22.964319 -0.976713 2.428043 0.045323 0.008299 -586260.000000 0 1 0
9.713188 -12.276915 -17.845427 23.738744 -0.901460 2.421497 0.066017 -0.005448 -384110.000000 0 1 0
9.759688 -10.908715 -18.583927 23.656161 -0.840934 2.474438 0.068652 -0.014847 66424.200000 0 1 0
9.089688 -11.095115 -19.815627 24.461870 -0.884427 2.515054 0.079667 -0.013286 356829.000000 0 1 0
9.131588 -9.918015 -20.590427 24.611352 -0.826658 2.561886 0.066467 -0.018322 -56614.400000 0 1 0
8.998488 -10.119515 -22.140327 25.953256 -0.843968 2.592665 0.080136 -0.007618 55120.200000 0 0 1
10.110488 -10.760815 -22.722527 27.098531 -0.816547 2.565349 0.082974 -0.017102 -366695.000000 0 0 1
9.967888 -10.850515 -24.113827 28.258966 -0.827769 2.593109 0.073738 -0.012191 149231.000000 0 0 1
11.111688 -11.536415 -24.892927 29.600951 -0.804149 2.569833 0.100318 -0.013611 85143.000000 0 0 1
11.276288 -12.894915 -24.532427 29.921121 -0.852263 2.532038 0.102889 -0.020650 -133882.000000 0 0 1
12.417888 -13.420415 -25.168307 31.108764 -0.824179 2.513317 0.083931 -0.027669 -133809.000000 0 0 1
12.542988 -14.928715 -24.979227 31.688403 -0.872024 2.478800 0.076693 -0.019801 -464803.000000 0 0 1
11.545788 -15.553815 -25.722567 32.200572 -0.932234 2.496133 0.086041 -0.023586 -450599.000000 0 0 1
11.382788 -16.854415 -25.255427 32.426467 -0.976800 2.463630 0.083353 -0.028043 597318.000000 0 0 1
10.082288 -17.527715 -25.810067 32.787695 -1.048797 2.477032 0.094032 -0.033049 484951.000000 0 0 1
10.139388 -17.968315 -27.150277 34.099928 -1.057046 2.491781 0.098632 -0.041474 -613565.000000 0 0 1
9.000988 -18.717915 -27.496287 34.459019 -1.122565 2.494669 0.098916 -0.037345 -350029.000000 0 0 1
9.090388 -19.993415 -28.404647 35.905373 -1.144066 2.483397 0.078053 -0.029621 -671112.000000 0 0 1
9.811088 -21.088915 -27.967827 36.375805 -1.135354 2.447850 0.070790 -0.026558 -276717.000000 0 0 1
9.851188 -22.076515 -28.954117 37.719482 -1.151083 2.445911 0.066861 -0.018345 136051.000000 0 0 1
10.369088 -23.451115 -28.443977 38.295334 -1.154483 2.407969 0.053061 -0.018515 137324.000000 0 0 1
10.300488 -24.416215 -29.475927 39.636876 -1.171579 2.409308 0.060570 -0.016159 200262.000000 0 0 1
11.023288 -25.666215 -29.324927 40.499615 -1.165132 2.380495 0.071728 -0.018189 630854.000000 0 0 1
10.371688 -26.625815 -28.300737 40.217380 -1.199344 2.351380 0.070690 -0.015313 367049.000000 0 0 1
10.818788 -26.236115 -27.017367 39.183135 -1.179678 2.331616 0.067375 -0.015289 -502452.000000 0 0 1
10.021488 -26.731215 -25.968527 38.592130 -1.212115 2.308914 0.051656 -0.014095 -435762.000000 0 0 1
9.180688 -25.628815 -25.394357 37.228948 -1.226820 2.321445 0.043089 -0.011882 -827891.000000 0 0 1
9.893388 -24.639515 -24.723127 36.279717 -1.188976 2.320550 0.039056 -0.013560 -378236.000000 0 0 1
9.324888 -23.328015 -24.876227 35.355007 -1.190523 2.351265 0.043274 -0.014030 -119229.000000 0 0 1
10.373388 -22.226415 -24.698927 34.808874 -1.134130 2.359668 0.071407 -0.014772 -53191.300000 0 0 1
10.865088 -22.143415 -23.372827 33.980436 -1.114641 2.329294 0.058153 -0.018165 -194624.000000 0 0 1
11.936088 -21.240515 -23.341727 33.741161 -1.058825 2.334758 0.069556 -0.024979 -270235.000000 0 0 1
12.467488 -20.852915 -21.868827 32.688346 -1.031939 2.303672 0.053797 -0.008522 143528.000000 0 0 1
11.659688 -19.947515 -21.130127 31.310285 -1.041838 2.311574 0.042846 -0.004281 -153144.000000 0 0 1
11.543288 -18.617915 -21.580927 30.750784 -1.015794 2.348719 0.050497 -0.011237 -364185.000000 0 0 1
12.709488 -17.648115 -21.373927 30.493144 -0.946667 2.347514 0.062882 -0.014481 -54912.100000 0 0 1
13.901788 -18.015315 -22.034727 31.675551 -0.913573 2.340104 0.061475 -0.006792 -380543.000000 0 0 1
14.778388 -16.924615 -21.999627 31.445619 -0.852993 2.345646 0.064608 0.000649 101443.000000 0 0 1
16.082488 -17.057715 -22.827627 32.721746 -0.814817 2.342879 0.025991 0.004401 638569.000000 0 0 1
17.221888 -17.643215 -22.176527 33.161345 -0.797482 2.303318 0.033256 0.011295 403101.000000 0 0 1
18.376588 -17.185415 -22.846227 33.985108 -0.751915 2.308030 0.020240 0.010947 -779859.000000 0 0 1
19.608888 -17.604715 -22.055227 34.363753 -0.731594 2.267661 0.013476 0.006064 -646935.000000 0 0 1
19.855088 -18.978415 -22.099027 35.252968 -0.762827 2.248326 0.021122 -0.000160 -429179.000000 0 0 1
21.110788 -19.222615 -21.550227 35.771310 -0.738618 2.217357 0.031664 -0.007772 -421409.000000 0 0 1
21.260088 -20.655015 -21.224927 36.457078 -0.770963 2.192215 0.035946 -0.016425 -841424.000000 0 0 1
20.426288 -21.125915 -20.270627 35.699242 -0.802234 2.174647 0.045444 -0.016761 -449361.000000 0 0 1
20.686388 -22.519215 -20.020427 36.549408 -0.827794 2.150485 0.063270 -0.020790 -183.520000 0 0 1
-16.654834 13.449002 28.342553 35.518438 -0.679306 0.646881 0.042743 -0.015433 70335.700000 0 0 1
-17.903934 14.057502 28.070063 36.139903 -0.665628 0.681378 0.039981 -0.022270 55352.700000 0 0 1
-18.493234 13.488902 26.919683 35.335810 -0.630184 0.704671 0.048393 -0.017107 -161236.000000 0 0 1
-19.721534 14.264002 26.439163 35.936471 -0.626174 0.744068 0.070066 -0.016867 -239696.000000 0 0 1
-19.373234 15.598102 26.260603 36.169631 -0.677865 0.758251 0.048860 -0.008502 -455962.000000 0 0 1
-20.420334 16.351202 25.754793 36.710505 -0.675187 0.793206 0.057653 -0.008979 -1098730.000000 0 0 1
-20.351834 17.852702 26.222123 37.689731 -0.720077 0.801352 0.054487 -0.006488 -378873.000000 0 0 1
-19.274434 18.641002 25.795643 37.207605 -0.768693 0.804753 0.036304 -0.002913 520263.000000 0 0 1
-18.068434 18.426802 26.549793 37.025758 -0.795217 0.771217 0.019562 0.007112 212567.000000 0 0 1
-16.812034 19.205002 26.161813 36.550198 -0.851741 0.773059 0.022791 0.003872 -248186.000000 0 0 1
-16.959234 20.604002 26.134553 37.351778 -0.882126 0.795837 0.033157 0.000218 -74356.800000 0 0 1
-15.956434 21.330702 25.445893 36.838839 -0.928544 0.808291 0.059963 -0.010810 100158.000000 0 0 1
-16.260634 22.834702 25.415563 37.838904 -0.951994 0.834325 0.045336 -0.008914 203280.000000 0 0 1
-15.737734 23.579002 26.512993 38.814744 -0.982254 0.818845 0.039192 -0.003797 169284.000000 0 0 1
-16.240434 24.893002 26.364873 39.730589 -0.992729 0.845187 0.031599 -0.008841 -128043.000000 0 0 1
-15.748634 25.852802 27.472033 40.879082 -1.023665 0.833848 0.028325 -0.003084 973380.000000 0 0 1
-14.315534 26.007502 27.385903 40.389507 -1.067616 0.825697 0.043380 -0.009133 988805.000000 0 0 1
-13.876234 26.995502 28.324203 41.515869 -1.095996 0.819961 0.043511 -0.001762 2786200.000000 0 0 1
-12.266834 27.160402 28.590773 41.298849 -1.146576 0.806139 0.057435 -0.012984 2883100.000000 0 0 1
-11.571434 27.618702 27.445033 40.619214 -1.174043 0.828928 0.065176 -0.013287 -1093780.000000 0 0 1
-10.237234 27.308702 27.621053 40.168255 -1.212139 0.812571 0.051788 -0.006177 -1045660.000000 0 0 1
-9.320534 28.128502 26.710673 39.894172 -1.250827 0.837209 0.055075 -0.011281 -483923.000000 0 0 1
-7.946334 27.844402 26.717463 39.398956 -1.292802 0.825586 0.046331 -0.016784 177327.000000 0 0 1
-7.376734 28.317302 25.466853 38.792349 -1.315957 0.854638 0.049129 -0.019787 -359378.000000 0 0 1
-5.885634 28.065302 25.220863 38.188922 -1.364080 0.849414 0.047593 -0.022851 -340381.000000 0 0 1
-5.003134 28.854902 26.001983 39.162990 -1.399114 0.844717 0.049028 -0.019871 -509755.000000 0 0 1
-3.671134 28.533202 25.756873 38.613952 -1.442837 0.840574 0.034563 -0.013433 -342924.000000 0 0 1
-2.913834 29.474202 24.806143 38.633712 -1.472256 0.873581 0.039876 -0.015605 -368978.000000 0 0 1
-3.351134 29.298102 23.456813 37.680644 -1.456911 0.898843 0.039232 -0.009615 -46962.000000 0 0 1
-2.715134 30.224502 22.566473 37.817167 -1.481205 0.931382 0.035574 -0.009087 -348692.000000 0 0 1
-2.953934 29.843902 21.105173 36.671685 -1.472138 0.957560 0.028815 -0.002010 958300.000000 0 0 1
-4.324634 29.821702 20.664673 36.538542 -1.426784 0.969686 0.023315 0.007318 930720.000000 0 0 1
-5.007334 28.634502 21.174673 35.963521 -1.397676 0.941245 0.032798 0.009173 -27715.700000 0 0 1
-6.550734 28.699002 20.941873 36.126262 -1.346384 0.952454 0.032563 0.004138 265024.000000 0 0 1
-6.926434 28.858502 19.554673 35.541157 -1.335238 0.988195 0.021604 0.007546 -244513.000000 0 0 1
-7.744834 27.831402 19.078873 34.620409 -1.299386 0.987129 0.007082 0.009974 -1105330.000000 0 0 1
-7.134334 26.420502 18.783373 33.192721 -1.307056 0.969286 -0.006921 0.010660 -187220.000000 0 0 1
-6.356634 26.399802 17.621573 32.370915 -1.334511 0.995165 0.003651 0.007810 -16326.800000 0 0 1
-4.998934 26.739202 17.837673 32.529322 -1.385978 0.990398 0.012064 0.011428 -379026.000000 0 0 1
-4.150634 26.839502 16.568773 31.813689 -1.417365 1.023001 0.005559 0.005303 -153688.000000 0 0 1
-3.729234 25.614902 16.025373 30.444095 -1.426224 1.016451 0.017860 -0.002018 -226027.000000 0 0 1
-3.036734 25.916202 14.837173 30.016878 -1.454153 1.053773 0.025635 -0.017865 -319355.000000 0 0 1
-2.373334 24.642002 14.267773 28.573244 -1.474780 1.047959 0.013823 -0.009298 -896480.000000 0 0 1
-1.327234 24.213102 15.043173 28.536518 -1.516036 1.015547 0.025986 -0.006484 -1169650.000000 0 0 1
-0.565034 23.309802 14.339973 27.373362 -1.546561 1.019413 0.026104 -0.022750 -109094.000000 0 0 1
0.671866 22.741402 15.112873 27.313397 1.541261 0.984459 0.020454 -0.020381 517290.000000 0 0 1
1.662566 23.710502 15.389673 28.315968 1.500791 0.996198 0.031879 -0.022604 -672282.000000 0 0 1
2.879566 23.105102 15.683373 28.073222 1.446807 0.978028 0.035568 -0.024163 -1059570.000000 0 0 1
4.010866 24.117102 15.649573 29.028103 1.405997 1.001407 0.039136 -0.026093 86477.900000 0 0 1
5.276366 23.457202 15.844773 28.794742 1.349543 0.988113 0.046214 -0.027355 565746.000000 0 0 1
6.291266 24.427602 16.051773 29.898949 1.318727 1.004077 0.058124 -0.029416 314267.000000 0 0 1
7.741766 23.873302 16.007173 29.767416 1.257211 1.003040 0.063507 -0.026358 254433.000000 0 0 1
8.238666 23.291802 14.800173 28.799805 1.230816 1.031073 0.056706 -0.014800 433692.000000 0 0 1
9.070666 24.248602 14.125173 29.492239 1.212842 1.071343 0.063588 -0.013349 -212666.000000 0 0 1
9.736766 23.758402 12.807173 28.693029 1.181850 1.108113 0.053246 -0.007851 351598.000000 0 0 1
10.806666 22.833002 13.026173 28.422019 1.128743 1.094700 0.062963 -0.009771 276657.000000 0 0 1
11.397866 22.385002 11.819273 27.761392 1.099836 1.131011 0.069316 -0.006459 193074.000000 0 0 1
12.607966 21.464102 12.107973 27.681609 1.039695 1.118089 0.065642 -0.010298 45573.500000 0 0 1
12.219066 20.056502 12.338373 26.529310 1.023616 1.087066 0.059136 -0.002278 -494974.000000 0 0 1
13.222266 19.163702 12.680773 26.511842 0.966838 1.072072 0.067650 -0.012942 -492945.000000 0 0 1
13.957066 19.169202 14.052473 27.563200 0.941460 1.035812 0.068983 -0.013409 95296.200000 0 0 1
14.694766 17.946902 14.304573 27.251573 0.884702 1.018189 0.069903 -0.023572 309802.000000 0 0 1
15.057566 17.897202 15.674173 28.155280 0.871354 0.980383 0.056479 -0.022858 1109170.000000 0 0 1
16.319166 16.906302 15.869373 28.354457 0.803068 0.976799 0.038293 -0.029369 1114190.000000 0 0 1
16.777966 16.585002 17.158173 29.171310 0.779614 0.941982 0.049662 -0.028713 593009.000000 0 0 1
17.994266 15.830902 17.038973 29.406422 0.721528 0.952767 0.043078 -0.032571 665341.000000 0 0 1
18.685566 15.605402 18.422773 30.529944 0.695814 0.922997 0.039080 -0.028492 -124243.000000 0 0 1
19.305166 16.794802 18.978373 31.858020 0.715971 0.932638 0.035691 -0.013580 257624.000000 0 0 1
18.400966 17.707702 19.503573 32.133279 0.766201 0.918568 0.029859 -0.007698 -446213.000000 0 0 1
19.108266 18.704102 20.419473 33.644080 0.774710 0.918609 0.010175 0.003501 -374828.000000 0 0 1
18.169566 19.508402 21.072473 33.981759 0.820917 0.901912 0.027776 -0.002922 115070.000000 0 0 1
18.806666 20.577502 21.786373 35.380366 0.830331 0.907426 0.020096 0.000628 128405.000000 0 0 1
17.807466 21.569702 22.422973 35.848955 0.880653 0.895044 0.031367 0.001068 -94308.700000 0 0 1
17.128766 21.030502 23.510133 35.894331 0.887293 0.856638 0.031167 -0.000927 -108016.000000 0 0 1
16.477666 22.076802 24.236063 36.691762 0.929617 0.849270 0.026162 -0.007965 132884.000000 0 0 1
15.735166 21.625402 25.512253 36.961175 0.941770 0.808969 0.041153 -0.008735 292516.000000 0 0 1
14.699066 20.681802 25.286723 35.822030 0.952909 0.787105 0.044552 -0.010199 -105158.000000 0 0 1
13.997066 20.434002 26.475443 36.254867 0.970216 0.752095 0.049570 -0.006357 -350898.000000 0 0 1
13.110166 19.214502 26.418543 35.199615 0.972045 0.721925 0.067258 -0.004448 -161113.000000 0 0 1
13.773966 17.938002 26.387313 34.753191 0.915959 0.708594 0.042905 -0.011071 163970.000000 0 0 1
14.512666 17.523102 25.254213 33.991938 0.879094 0.733334 0.043596 -0.014546 -298712.000000 0 0 1
13.693266 17.230002 23.988963 32.555319 0.899275 0.742371 0.069917 -0.014467 -452280.000000 0 0 1
13.122966 18.379902 23.366463 32.496532 0.950746 0.768369 0.071023 -0.009123 156020.000000 0 0 1
13.992066 19.015602 22.432573 32.566721 0.936432 0.810938 0.054921 -0.010834 385781.000000 0 0 1
14.521566 18.231502 21.181273 31.494600 0.898187 0.833165 0.052725 -0.011177 151051.000000 0 0 1
13.476366 17.824202 20.313673 30.198674 0.923421 0.832988 0.057091 -0.013848 109834.000000 0 0 1
13.903866 16.806702 19.422373 29.206357 0.879641 0.843296 0.046365 -0.023045 -232357.000000 0 0 1
12.794166 16.253502 18.530573 27.771372 0.903932 0.840280 0.045721 -0.019520 -281949.000000 0 0 1
12.360466 17.148502 17.472973 27.425481 0.946253 0.880057 0.065578 -0.020993 -225705.000000 0 0 1
11.386166 16.501302 16.710573 26.099444 0.966802 0.875953 0.052523 -0.021326 -226334.000000 0 0 1
11.127066 17.291302 15.378573 25.676861 0.998999 0.928635 0.047779 -0.019006 368104.000000 0 0 1
10.247166 18.437902 15.523873 26.190671 1.063537 0.936358 0.053608 -0.014233 515793.000000 0 0 1
9.861866 18.895202 14.244673 25.635829 1.089763 0.981646 0.041298 -0.007814 -234651.000000 0 0 1
8.734166 19.950402 14.335073 26.072946 1.158139 0.988664 0.046860 -0.005918 1351880.000000 0 0 1
7.509066 19.425002 14.934873 25.627469 1.201923 0.948665 0.038753 -0.009703 1496730.000000 0 0 1
6.497166 20.428002 15.080473 26.209484 1.262861 0.957725 0.044210 -0.012609 1639420.000000 0 0 1
5.102366 20.068302 15.741673 26.010981 1.321822 0.920788 0.043120 -0.021609 722117.000000 0 0 1
4.209066 19.329902 14.974773 24.811392 1.356394 0.922858 0.034441 -0.021691 -978425.000000 0 1 0
3.099466 19.048002 15.761373 24.916940 1.409491 0.885947 0.023487 -0.021113 81345.000000 0 1 0
1.870966 18.442802 15.016873 23.856737 1.469695 0.889938 0.020702 -0.019623 478554.000000 0 1 0
1.182766 19.380302 14.195373 24.052102 1.509843 0.939499 0.018087 -0.026088 622995.000000 0 1 0
0.113966 18.693802 13.487173 23.051573 1.564700 0.945809 0.016643 -0.029398 -104673.000000 0 1 0
-0.713334 19.539702 12.585973 23.253290 -1.534306 0.998867 0.022283 -0.037207 -452408.000000 0 1 0
-1.655734 20.312902 13.326873 24.350790 -1.489465 0.991677 0.020738 -0.030947 224045.000000 0 1 0
-2.633334 20.800902 12.417873 24.368330 -1.444869 1.036087 0.022134 -0.027450 418071.000000 0 1 0
-3.864034 21.591502 12.933873 25.463872 -1.393710 1.038016 0.015616 -0.022287 363968.000000 0 0 1
-4.702834 20.766902 13.743073 25.342709 -1.348094 0.997637 0.023266 -0.025309 45345.600000 0 0 1
-5.659834 21.610502 14.376173 26.565426 -1.314648 0.998979 0.008745 -0.010947 50980.100000 0 0 1
-6.550734 20.867302 15.410673 26.755284 -1.266615 0.956986 0.007829 -0.013000 -598498.000000 0 0 1
-7.326934 19.781502 14.948373 25.854315 -1.216071 0.954304 0.014346 -0.013960 359742.000000 0 0 1
-8.099034 19.162802 15.993373 26.241099 -1.170923 0.915394 0.015463 0.002698 883243.000000 0 0 1
-9.305434 19.929402 16.646573 27.584063 -1.133961 0.922932 0.013642 0.007439 458087.000000 0 0 1
-10.430834 20.161902 15.793373 27.653846 -1.093362 0.962940 0.013488 -0.002078 84791.200000 0 0 1
-11.598334 19.732002 16.445273 28.183687 -1.039401 0.947761 0.013777 0.001977 -331813.000000 0 0 1
-12.804234 19.607502 15.504973 28.085703 -0.992296 0.985964 0.013954 -0.004737 -294626.000000 0 0 1
-13.062834 20.835102 14.879573 28.742664 -1.010787 1.026656 0.001296 0.005624 781533.000000 0 0 1
-14.086234 20.696902 13.852273 28.612395 -0.973212 1.065422 0.002990 -0.002995 -69910.000000 0 0 1
-15.038334 21.811802 13.660873 29.808147 -0.967180 1.094722 -0.010881 0.002852 -1008600.000000 0 0 1
-16.054134 21.808202 14.612673 30.771140 -0.936218 1.075966 -0.025626 -0.002500 -902710.000000 0 0 1
-16.839234 22.926602 14.541473 31.947508 -0.937299 1.098236 0.003559 -0.007931 -84180.300000 0 0 1
-18.196834 22.778202 15.284073 32.917687 -0.896744 1.087939 0.068131 -0.021533 -630307.000000 0 0 1
-18.943834 21.640002 14.856673 32.370963 -0.851735 1.093983 0.064787 -0.027064 579079.000000 0 0 1
-20.127234 21.332602 15.598073 33.218749 -0.814463 1.082008 0.074249 -0.021703 532150.000000 0 0 1
-21.232934 22.401102 15.638473 34.600703 -0.812164 1.101824 0.075623 -0.024058 -1195300.000000 0 0 1
-21.996734 22.422102 14.424973 34.564241 -0.794974 1.140282 0.085546 -0.020836 829567.000000 0 0 1
-22.868334 23.598502 14.380373 35.869835 -0.801111 1.158293 0.105819 -0.029158 582131.000000 0 0 1
-22.225834 24.844302 13.696473 36.039150 -0.840970 1.180952 0.096604 -0.029721 -197112.000000 0 0 1
-21.187834 25.411602 14.467973 36.110885 -0.875791 1.158566 0.074596 -0.033989 -131511.000000 0 0 1
-20.676834 26.460402 13.681173 36.260982 -0.907484 1.183920 0.050054 -0.025940 -508449.000000 0 0 1
-19.173334 26.617302 13.971573 35.655326 -0.946554 1.168154 0.041655 -0.022032 -494952.000000 0 0 1
-18.356234 25.929602 13.081773 34.357362 -0.954771 1.180183 0.036776 -0.015270 -559151.000000 0 0 1
-17.028334 26.342302 13.297973 34.069298 -0.996938 1.169816 -0.013270 -0.007618 121484.000000 0 0 1
-15.979334 25.768902 12.276573 32.712224 -1.015727 1.186087 -0.001000 -0.010535 619155.000000 0 0 1
-14.690734 26.323602 12.431473 32.608146 -1.061769 1.179661 -0.011190 -0.005395 -28123.700000 0 0 1
-13.685034 25.713002 11.674773 31.380550 -1.081704 1.189592 -0.011723 -0.010488 410043.000000 0 0 1
-12.329334 26.493202 11.710173 31.480634 -1.135229 1.189655 -0.013184 -0.009629 -26421.300000 0 0 1
-11.260334 25.717302 11.158973 30.210882 -1.158092 1.192466 -0.015365 -0.008834 1092350.000000 0 0 1
-9.948734 26.244402 11.398073 30.292936 -1.208453 1.185038 0.002938 -0.008930 663606.000000 0 0 1
-9.590034 27.676502 10.864073 31.240768 -1.237239 1.215623 0.016024 -0.022029 -643841.000000 0 0 1
-8.433234 28.211202 11.503873 31.612188 -1.280320 1.198338 0.031979 -0.026104 347212.000000 0 0 1
-8.181834 29.501102 11.048373 32.547257 -1.300256 1.224457 0.042173 -0.028568 -545338.000000 0 0 1
-6.876234 30.049502 11.627173 32.946112 -1.345839 1.210112 0.031917 -0.023047 628450.000000 0 0 1
-5.689934 29.369902 11.189573 31.940147 -1.379433 1.212874 0.044971 -0.027010 608344.000000 0 0 1
-4.473034 29.876902 11.686873 32.391670 -1.422185 1.201672 0.039572 -0.027296 601362.000000 0 0 1
-3.182634 29.285802 11.046973 31.461452 -1.462546 1.212022 0.046593 -0.034610 203410.000000 0 0 1
-3.081334 29.708402 9.684673 31.398672 -1.467447 1.257241 0.064382 -0.042788 818382.000000 0 0 1
-1.793734 29.395902 9.127073 30.832450 -1.509852 1.270271 0.051364 -0.043804 775510.000000 0 0 1
-1.539034 30.360502 7.989573 31.431862 -1.520148 1.313789 0.045402 -0.044247 -72305.100000 0 0 1
-2.310034 30.098202 6.837973 30.951508 -1.494197 1.348033 0.059051 -0.044761 80.562700 0 0 1
-2.267234 31.165502 5.925373 31.804699 -1.498176 1.383396 0.061136 -0.035315 49780.400000 0 0 1
11.152266 34.045902 -26.296337 44.440903 1.254246 2.203981 0.108008 -0.036049 -19665.600000 0 0 1
11.807266 34.156302 -25.041627 43.967574 1.237972 2.176752 0.081128 -0.029543 100667.000000 0 0 1
12.692566 -33.125015 -25.098657 43.454695 -1.204881 2.186560 0.084817 -0.025088 86600.100000 0 0 1
13.538966 -32.942615 -23.785627 42.828444 -1.180855 2.159604 0.070006 -0.021048 172959.000000 0 0 1
12.772966 -32.271115 -22.764027 41.506319 -1.193914 2.151303 0.075106 -0.024659 700497.000000 0 0 1
13.325066 -32.408215 -21.433127 41.075890 -1.180704 2.119748 0.051414 -0.019056 1079650.000000 0 0 1
14.789166 -31.890415 -21.111927 41.005262 -1.136567 2.111639 0.027539 -0.019824 1867940.000000 0 0 1
15.855366 -32.719615 -21.639427 42.311118 -1.119558 2.107651 0.047781 -0.008915 -479802.000000 0 0 1
17.121866 -32.330715 -21.281027 42.323936 -1.083762 2.097646 0.036362 -0.007045 -1247860.000000 0 0 1
18.088566 -33.294915 -22.005327 43.817600 -1.073125 2.096941 0.024347 -0.008838 -1239000.000000 0 0 1
19.360366 -33.215715 -21.471927 44.035795 -1.043069 2.080137 0.043304 -0.005202 -517093.000000 0 0 1
20.097366 33.948802 -21.771427 45.060186 1.036287 2.075060 0.027833 0.003456 154554.000000 0 0 1
21.597666 33.929802 -21.390127 45.554672 1.003942 2.059576 0.065003 0.006924 -324960.000000 0 0 1
22.336366 -33.831015 -22.397927 46.315419 -0.987261 2.075554 0.053973 0.003068 -1066890.000000 0 0 1
23.672866 -34.138815 -22.167327 47.087724 -0.964494 2.060956 0.042401 0.006394 -901175.000000 0 0 1
24.514466 -33.607515 -23.335427 47.696607 -0.940588 2.082023 0.061051 0.000664 -258021.000000 0 0 1
24.832866 -32.207615 -23.297327 46.869683 -0.913975 2.091011 0.062973 -0.003269 350136.000000 0 0 1
23.739766 -31.363015 -23.676127 45.910503 -0.922872 2.112623 0.046281 0.000898 139769.000000 0 0 1
23.959766 -29.868415 -23.373227 44.860901 -0.894729 2.118837 0.047336 -0.020376 -160517.000000 0 0 1
24.946566 -29.200015 -24.133627 45.358616 -0.863792 2.131831 0.047288 -0.021062 -33423.300000 0 0 1
24.750966 -27.811615 -23.902527 44.242820 -0.843561 2.141540 0.049802 -0.014578 431051.000000 0 0 1
25.383066 -27.043515 -25.126977 44.799741 -0.817059 2.166237 0.045992 -0.012766 311014.000000 0 0 1
24.515966 -27.043115 -26.230827 44.949071 -0.834374 2.193912 0.036159 -0.013405 -470062.000000 0 0 1
25.111566 -26.368415 -27.327697 45.526774 -0.809808 2.214617 0.024050 -0.012637 -34512.000000 0 0 1
24.144266 -25.939015 -28.505297 45.478897 -0.821218 2.248211 0.034412 -0.014337 1043680.000000 0 0 1
23.363666 -24.709715 -28.262087 44.217378 -0.813391 2.264205 0.045546 -0.012971 -136176.000000 0 0 1
22.158266 -25.049615 -27.639467 43.386774 -0.846569 2.261459 0.047708 -0.013396 -647943.000000 0 0 1
21.268766 -23.841515 -27.289967 42.018098 -0.842369 2.277698 0.044548 -0.008443 -12288.800000 0 0 1
20.947866 -23.087815 -28.429897 42.191461 -0.833956 2.310177 0.056193 -0.006622 75429.600000 0 0 1
20.312966 -21.852115 -28.046597 40.948055 -0.821885 2.325306 0.036804 0.008244 -181232.000000 0 0 1
19.318566 -21.401315 -29.140287 40.992434 -0.836502 2.361531 0.051733 -0.004526 -351652.000000 0 0 1
18.154666 -22.193115 -29.097817 40.851062 -0.885157 2.363552 0.048290 -0.013225 180975.000000 0 0 1
17.173166 -21.488615 -29.896657 40.626203 -0.896559 2.397785 0.037910 -0.016268 1172020.000000 0 0 1
15.795766 -22.253615 -30.022707 40.572067 -0.953519 2.403844 0.040739 -0.019170 473276.000000 0 0 1
15.887166 -23.496715 -30.695717 41.793836 -0.976261 2.395660 0.053016 -0.019630 -38062.200000 0 0 1
14.856766 -24.434915 -30.449447 41.772688 -1.024505 2.387557 0.059709 -0.027460 -247767.000000 0 0 1
15.022066 -25.840115 -31.115867 43.145930 -1.044205 2.376297 0.082798 -0.031242 100898.000000 0 0 1
14.158166 -26.828215 -30.557317 43.057595 -1.085208 2.359847 0.090472 -0.027430 237888.000000 0 0 1
14.557166 -28.139915 -31.004677 44.328952 -1.093394 2.345386 0.146765 -0.034073 543300.000000 0 0 1
13.919166 -29.304115 -30.106647 44.259288 -1.127356 2.318877 0.141275 -0.038302 176705.000000 0 0 1
14.472366 -29.528415 -28.823847 43.728605 -1.115087 2.290488 0.147045 -0.043241 -60156.800000 0 0 1
14.101866 -28.519315 -27.848677 42.281944 -1.111585 2.289809 0.122533 -0.032657 -207273.000000 0 0 1
15.050766 -28.528215 -26.658067 41.845396 -1.085333 2.261476 0.099130 -0.022194 -442263.000000 0 0 1
14.970966 -29.569515 -25.750877 41.971344 -1.102124 2.231325 0.099297 -0.034310 -174612.000000 0 0 1
15.839366 -29.388315 -24.664527 41.507801 -1.076462 2.207085 0.097571 -0.037830 -936245.000000 0 0 1
15.493466 -28.272115 -23.569227 39.935805 -1.069480 2.202075 0.080125 -0.031879 473100.000000 0 0 1
14.345866 -28.462515 -22.750427 39.159936 -1.103933 2.190706 0.072876 -0.034377 1463670.000000 0 0 1
13.075666 -28.443515 -23.481227 39.132782 -1.139900 2.214347 0.069494 -0.027577 1724690.000000 0 0 1
11.804566 -28.163515 -22.554127 37.963404 -1.173896 2.206945 0.035115 -0.016060 1000490.000000 0 0 1
11.681866 -26.821115 -22.206027 36.727999 -1.160026 2.220069 0.026011 -0.011999 -306571.000000 0 0 1
10.377066 -26.530915 -21.780127 35.860102 -1.197959 2.223534 0.027016 -0.010779 -328802.000000 0 0 1
10.092566 -25.069115 -21.409027 34.477049 -1.188059 2.240769 0.026725 -0.007339 -10149.800000 0 0 1
10.719066 -24.623015 -20.211327 33.610847 -1.160211 2.215965 0.023925 0.000269 237386.000000 0 0 1
10.291866 -23.270915 -19.988427 32.357306 -1.154395 2.236663 0.030644 0.000250 -231647.000000 0 0 1
10.806166 -22.699615 -18.636827 31.295001 -1.126491 2.208710 0.012199 -0.006567 110438.000000 0 0 1
10.008466 -23.025315 -17.504527 30.606258 -1.160762 2.179649 0.023517 -0.006630 218226.000000 0 0 1
10.275466 -22.169115 -16.409427 29.433386 -1.136770 2.162181 0.022821 -0.004011 -150980.000000 0 0 1
9.592066 -22.572715 -15.099927 28.801789 -1.168976 2.122655 0.019150 0.003239 92820.800000 0 0 1
10.036466 -23.800215 -14.564527 29.653100 -1.171727 2.084222 0.023355 0.004707 89939.400000 0 0 1
9.322366 -24.042215 -13.375127 29.048729 -1.200895 2.049284 0.027625 0.000254 107752.000000 0 0 1
9.407066 -25.532915 -12.999427 30.156389 -1.217799 2.016471 0.046739 0.001205 -941223.000000 0 0 1
10.678866 -25.842615 -12.599827 30.669767 -1.178940 1.994152 0.041677 -0.004272 -1202770.000000 0 0 1
10.867066 -27.240515 -12.786827 31.994402 -1.191212 1.981940 0.048676 -0.010909 189914.000000 0 0 1
12.278766 -27.727015 -12.317627 32.730405 -1.153909 1.956635 0.042754 -0.000859 271178.000000 0 0 1
13.467466 -27.375715 -12.954127 33.145314 -1.113610 1.972328 0.038282 0.001975 -181596.000000 0 0 1
13.601166 -27.636915 -14.341227 33.977369 -1.113458 2.006537 0.041101 0.001599 -707467.000000 0 0 1
14.994666 -27.174415 -14.823427 34.395099 -1.066577 2.016369 0.028448 -0.001537 160855.000000 0 0 1
15.978366 -28.171615 -14.662627 35.551944 -1.054859 1.995914 0.051899 -0.002118 27902.500000 0 0 1
17.216266 -27.819615 -15.234027 36.088868 -1.016629 2.006585 0.068988 -0.016396 185640.000000 0 0 1
18.417666 -28.766215 -15.087327 37.340769 -1.001303 1.986730 0.060069 -0.015870 200674.000000 0 0 1
18.473666 -29.920815 -15.857327 38.574426 -1.017667 1.994439 0.048906 -0.009179 -255541.000000 0 0 1
19.810366 -30.358515 -15.883727 39.577555 -0.992632 1.983767 0.060673 -0.012245 84197.400000 0 0 1
20.092666 -31.440515 -17.001527 41.003331 -1.002144 1.998341 0.056767 -0.016939 -247787.000000 0 0 1
19.667066 -32.751615 -16.743427 41.710960 -1.030016 1.983858 0.032078 -0.007150 -97622.900000 0 0 1
20.037066 -33.683515 -17.729527 43.016269 -1.034163 1.995618 0.034644 -0.007998 63600.500000 0 0 1
19.862866 33.228702 -17.178327 42.352981 1.032024 1.988430 0.015421 -0.005074 -548319.000000 0 0 1
20.860466 32.962102 -16.253527 42.259157 1.006563 1.965588 0.036656 -0.007011 -452009.000000 0 0 1
20.877666 31.616202 -15.784127 41.043877 0.987182 1.965535 0.030341 -0.009118 380617.000000 0 0 1
22.014566 31.348402 -14.678927 41.022364 0.958559 1.936737 0.032313 -0.020599 100782.000000 0 0 1
23.269166 30.990802 -15.196027 41.626952 0.926757 1.944486 0.034732 -0.010762 -137308.000000 0 0 1
24.290266 30.801902 -14.245327 41.733722 0.903048 1.919137 0.034700 -0.010669 194333.000000 0 0 1
24.066666 29.604102 -13.265627 40.392872 0.888209 1.905421 0.025371 -0.001107 -1089120.000000 0 0 1
24.036566 28.375902 -14.083227 39.765382 0.868002 1.932810 0.033234 0.003546 87515.200000 0 0 1
23.651366 27.198502 -13.385227 38.448796 0.855042 1.926373 0.024003 0.001768 -1708.880000 0 0 1
22.153166 27.094602 -13.036327 37.347370 0.885402 1.927360 0.022335 -0.007304 -564818.000000 0 0 1
21.312666 26.661102 -14.070827 36.919267 0.896426 1.961808 0.024073 -0.007602 483886.000000 0 0 1
19.913266 26.537702 -13.822827 35.942431 0.927054 1.965552 0.042006 -0.013618 985918.000000 0 0 1
19.078566 27.875702 -13.830327 36.501019 0.970606 1.959406 0.053585 -0.015214 -368484.000000 0 0 1
19.014866 28.796002 -14.999227 37.626476 0.987193 1.980824 0.043489 -0.014178 92631.300000 0 0 1
18.608166 28.277402 -16.252027 37.550016 0.988777 2.018404 0.030506 -0.006478 -364873.000000 0 0 1
18.800366 29.231702 -17.423327 38.878252 0.999252 2.035492 0.021064 -0.000812 203326.000000 0 0 1
17.766066 30.218102 -17.528327 39.191951 1.039301 2.034477 0.024716 -0.003209 360480.000000 0 0 1
17.770866 30.816702 -18.797127 40.234373 1.047713 2.056907 0.014168 0.004162 -21129.100000 0 0 1
16.703166 31.920502 -19.072727 40.763748 1.088703 2.057692 0.005017 0.009688 81059.200000 0 0 1
16.831466 32.983202 -18.121927 41.226134 1.098939 2.025920 0.012177 -0.006776 -210107.000000 0 0 1
15.850666 33.962302 -18.343027 41.727068 1.134131 2.025944 0.013225 -0.013830 -176897.000000 0 0 1
15.980066 -33.171415 -17.446427 40.744118 -1.121861 2.013291 0.020605 -0.006359 -169173.000000 0 0 1
15.001566 -32.233315 -17.780227 39.751353 -1.135205 2.034525 0.009045 -0.001410 -375688.000000 0 0 1
14.824466 -31.291115 -16.791327 38.481780 -1.128361 2.022329 0.020380 0.000665 93516.400000 0 0 1
13.593466 -30.390615 -17.097627 37.425936 -1.150197 2.045235 0.031035 -0.003942 70246.500000 0 0 1
12.424166 -31.177415 -17.157327 37.693037 -1.191585 2.043377 0.029682 -0.009569 139927.000000 0 0 1
11.334066 -30.273715 -17.459327 36.739448 -1.212564 2.066011 0.017927 -0.004618 1158710.000000 0 0 1
9.943166 -30.904115 -17.786127 37.017256 -1.259514 2.072001 0.034069 -0.015695 -304835.000000 0 0 1
9.292866 -31.401015 -16.636127 36.730667 -1.283067 2.040836 0.046043 -0.021530 215464.000000 0 0 1
8.293366 -32.398315 -16.931527 37.484762 -1.320196 2.039456 0.068279 -0.020423 1000410.000000 0 0 1
6.913466 -31.858315 -17.447927 36.975376 -1.357103 2.062218 0.060713 -0.015334 -304585.000000 0 0 1
6.855366 -31.200815 -18.756227 37.044338 -1.354515 2.101706 0.046275 -0.016639 -138060.000000 0 0 1
6.806766 -32.083715 -19.883427 38.354238 -1.361740 2.115793 0.042024 -0.020553 -1603030.000000 0 0 1
6.907166 -31.378515 -21.279727 38.537605 -1.354128 2.155774 0.026267 -0.009681 1065220.000000 0 0 1
8.198366 -30.843915 -21.740927 38.616425 -1.311002 2.168804 0.034983 -0.020359 1997260.000000 0 0 1
9.338066 -31.698315 -21.591527 39.473747 -1.284308 2.149554 0.037247 -0.029314 -260263.000000 0 0 1
9.479466 -32.899115 -22.530627 40.985866 -1.290258 2.152822 0.051735 -0.028915 -584681.000000 0 0 1
8.466866 -33.883315 -22.394027 41.488063 -1.325928 2.140961 0.059131 -0.030281 -217959.000000 0 0 1
8.340566 33.589102 -23.512427 41.840495 1.327407 2.167542 0.074466 -0.036632 73031.700000 0 0 1
7.198366 32.497502 -23.433527 40.706686 1.352811 2.184217 0.073038 -0.043200 1352930.000000 0 0 1
5.843866 32.959602 -23.417927 40.851994 1.395316 2.181249 0.077561 -0.038953 763224.000000 0 0 1
5.481766 33.506802 -22.113827 40.518846 1.408631 2.148100 0.064492 -0.029188 -989042.000000 0 0 1
4.129666 -34.129315 -22.141527 40.891461 -1.450381 2.142982 0.061055 -0.019148 -330193.000000 0 0 1
3.038466 33.350302 -22.096727 40.121569 1.479940 2.154052 0.055301 -0.032069 -150032.000000 0 0 1
1.890366 34.010702 -22.589327 40.872717 1.515272 2.156367 0.043123 -0.018222 226677.000000 0 0 1
0.538866 33.323002 -22.263127 40.079417 1.554627 2.159731 0.032009 -0.023894 286960.000000 0 0 1
0.006766 33.627002 -21.004127 39.647808 1.570595 2.129123 0.022796 -0.022132 903740.000000 0 0 1
-1.301934 33.148002 -20.604427 39.051600 -1.531540 2.126593 0.028704 -0.023604 1234300.000000 0 0 1
-1.526334 33.464602 -19.113827 38.568739 -1.525218 2.089297 0.038226 -0.019984 23812.600000 0 0 1
-0.541134 32.952802 -18.245227 37.670523 -1.554376 2.076402 0.061275 -0.035246 -71340.300000 0 0 1
-1.052234 32.668102 -16.950627 36.818960 -1.538598 2.049217 0.037432 -0.026105 339660.000000 0 0 1
-0.080034 31.708202 -16.212927 35.612855 -1.568272 2.043455 0.022784 -0.023323 730204.000000 0 0 1
1.107466 32.291402 -15.715627 35.929682 1.536514 2.023501 0.035634 -0.017679 623529.000000 0 0 1
1.992066 31.312002 -15.095827 34.818009 1.507262 2.019240 0.060330 -0.006961 977184.000000 0 0 1
3.012366 31.854502 -14.067227 34.952404 1.476510 1.985008 0.067110 -0.012938 22632.600000 0 0 1
3.913766 32.809202 -14.550627 36.103768 1.452069 1.985613 0.058204 -0.018370 -312269.000000 0 0 1
4.851566 33.218302 -13.601127 36.221319 1.425771 1.955733 0.062215 -0.029586 -534061.000000 0 0 1
6.220366 33.463702 -14.223127 36.889153 1.387010 1.966615 0.072388 -0.047839 -829778.000000 0 0 1
6.989166 32.345102 -14.410727 36.093256 1.357987 1.981510 0.060892 -0.032431 -691608.000000 0 0 1
8.058266 32.630402 -15.309627 36.933230 1.328685 1.998214 0.055640 -0.014815 327455.000000 0 0 1
9.040666 31.421502 -15.260727 36.082326 1.290641 2.007486 0.035172 -0.020308 160074.000000 0 0 1
9.657566 31.242802 -13.972127 35.561237 1.271000 1.974583 0.035805 -0.028853 -22646.400000 0 0 1
10.416366 30.039202 -13.805827 34.662014 1.237012 1.980457 0.040350 -0.022089 29880.500000 0 0 1
9.640766 28.737802 -13.700427 33.264205 1.247121 1.995298 0.037682 -0.022366 -450293.000000 0 0 1
9.011566 28.324202 -14.886127 33.242526 1.262765 2.035104 0.029632 -0.023475 -25764.900000 0 0 1
8.453766 27.033402 -14.628427 31.878862 1.267715 2.047525 0.034720 -0.018392 -164578.000000 0 0 1
7.643866 26.419602 -15.814227 31.725602 1.289161 2.092628 0.029635 -0.007857 140008.000000 0 0 1
8.483166 25.806302 -16.761627 31.919923 1.253199 2.123646 0.035860 -0.010633 -347641.000000 0 0 1
7.755266 24.932302 -17.593427 31.484798 1.269230 2.163724 0.030331 -0.003911 602674.000000 0 0 1
8.630366 24.113002 -18.659227 31.687329 1.227089 2.200437 0.033001 0.001957 530153.000000 0 0 1
7.861466 23.118902 -19.325227 31.140820 1.243018 2.240273 0.045407 -0.004703 -364607.000000 0 0 1
8.750266 22.178602 -19.814627 31.001242 1.195009 2.264197 0.043192 -0.003861 -516995.000000 0 0 1
8.202666 21.175602 -20.818827 30.807684 1.201230 2.312802 0.044809 -0.015075 71846.400000 0 0 1
7.325666 20.149102 -20.345127 29.556317 1.222081 2.330010 0.054976 -0.014194 135484.000000 0 0 1
6.907866 19.280202 -21.354227 29.587968 1.226757 2.377080 0.054894 -0.011864 87687.600000 0 0 1
24.761166 -12.166998 -9.838027 29.290579 -0.456723 1.913332 0.061022 -0.017039 -522435.000000 0 0 1
25.542366 -11.707398 -8.782927 29.438333 -0.429778 1.873760 0.077685 -0.026019 144417.000000 0 0 1
24.891166 -11.919598 -7.566927 28.616523 -0.446600 1.838404 0.083451 -0.029199 -510845.000000 0 0 1
25.655266 -11.505798 -6.256327 28.804821 -0.421587 1.789739 0.079498 -0.031046 -282459.000000 0 0 1
25.653466 -10.114498 -5.946427 28.209279 -0.375561 1.783186 0.090282 -0.036598 597942.000000 0 0 1
26.647366 -9.389098 -6.658227 29.027044 -0.338763 1.802237 0.075756 -0.033934 -856510.000000 0 0 1
26.903466 -8.052198 -6.060627 28.729177 -0.290814 1.783350 0.113601 -0.038100 -249369.000000 0 0 1
27.466966 -7.953198 -4.766427 28.989764 -0.281847 1.735964 0.112177 -0.050031 -180997.000000 0 0 1
28.830866 -8.252698 -4.758827 30.363997 -0.278790 1.728171 0.108274 -0.043886 -994270.000000 0 0 1
29.503666 -8.032598 -3.424927 30.768801 -0.265815 1.682339 0.114898 -0.052197 -326578.000000 0 0 1
29.592566 -6.703198 -3.059527 30.496124 -0.222757 1.671291 0.108548 -0.042839 279174.000000 0 0 1
30.348766 -6.537498 -1.876427 31.101567 -0.212170 1.631165 0.111494 -0.041293 -24080.700000 0 0 1
30.703666 -5.041898 -1.555627 31.153745 -0.162759 1.620751 0.099375 -0.040041 -42363.000000 0 0 1
29.612066 -4.303798 -1.009127 29.940199 -0.144329 1.604507 0.109548 -0.037710 228218.000000 0 0 1
29.888466 -2.959098 -0.546127 30.039556 -0.098683 1.588978 0.093793 -0.023273 -211399.000000 0 0 1
30.530566 -2.892398 0.884773 30.680031 -0.094456 1.541954 0.093670 -0.025612 -247192.000000 0 0 1
29.742466 -3.379898 1.944373 29.996977 -0.113153 1.505932 0.119520 -0.034392 266234.000000 0 0 1
30.276066 -2.934998 3.176273 30.583380 -0.096639 1.466753 0.087382 -0.023784 67996.100000 0 0 1
29.744566 -3.793298 4.381273 30.303859 -0.126844 1.425710 0.096738 -0.029017 40391.200000 0 0 1
30.261366 -5.102898 4.188773 30.973145 -0.167056 1.435142 0.077969 -0.025341 168374.000000 0 0 1
30.032866 -5.909698 5.298973 31.064074 -0.194292 1.399376 0.081651 -0.024854 -256242.000000 0 0 1
30.722266 -7.292498 5.423973 32.038378 -0.233055 1.400681 0.050148 -0.015119 35514.700000 0 0 1
32.121466 -7.131698 5.583373 33.373999 -0.218479 1.402709 0.054717 -0.018248 82153.800000 0 0 1
32.795866 -8.385098 5.521673 34.298216 -0.250313 1.409103 0.069435 -0.018752 -407355.000000 0 0 1
34.312866 -8.225298 5.544973 35.717993 -0.235275 1.414923 0.089684 -0.023106 -520971.000000 0 0 1
34.877666 -7.823898 4.306173 36.002890 -0.220671 1.450903 0.096087 -0.027057 -249428.000000 0 0 1
36.159366 -7.288998 4.575773 37.169436 -0.198914 1.447377 0.108059 -0.028547 225928.000000 0 0 1
-35.844055 -7.159798 3.277273 36.698767 0.197154 1.481375 0.087945 -0.026791 29362.500000 0 0 1
-35.398255 -8.356398 2.697473 36.471115 0.231824 1.496767 0.109592 -0.035868 496685.000000 0 0 1
-34.431055 -8.029398 1.683873 35.394974 0.229108 1.523205 0.100752 -0.036319 133803.000000 0 0 1
-34.056155 -9.213098 0.793373 35.289266 0.264203 1.548312 0.091924 -0.031099 107260.000000 0 0 1
-33.212755 -10.087998 1.543773 34.745331 0.294883 1.526351 0.092923 -0.032434 418461.000000 0 0 1
-33.307555 -11.445898 1.058773 35.235249 0.331000 1.540743 0.100976 -0.032294 -662919.000000 0 0 1
-33.074655 -12.436598 2.211973 35.404726 0.359661 1.508279 0.078776 -0.043115 1139920.000000 0 0 1
-31.748055 -12.580298 2.759773 34.261046 0.377273 1.490158 0.079240 -0.032804 1202900.000000 0 0 1
-30.739955 -13.068098 1.880573 33.455292 0.401970 1.514555 0.089746 -0.010778 -1098050.000000 0 0 1
-29.499855 -13.495098 2.625373 32.546147 0.429043 1.490042 0.083628 -0.011625 -722838.000000 0 0 1
-28.770155 -12.348498 3.059773 31.457423 0.405433 1.473375 0.083156 -0.021899 -133927.000000 0 0 1
-27.499255 -12.750198 3.487873 30.511339 0.434152 1.456232 0.083229 -0.012587 -673257.000000 0 0 1
-26.634355 -11.591598 3.986973 29.319788 0.410489 1.434391 0.081757 -0.012615 391620.000000 0 0 1
-25.356855 -12.117098 4.404973 28.446405 0.445782 1.415319 0.073900 -0.003110 1296010.000000 0 0 1
-24.542555 -11.033898 4.945473 27.359489 0.422507 1.389038 0.068287 -0.005174 500645.000000 0 0 1
-23.281755 -11.488698 5.721573 26.585084 0.458405 1.353882 0.064664 0.012424 53174.000000 0 0 1
-23.441055 -12.211998 6.922173 27.322746 0.480280 1.314656 0.064434 0.004047 30161.000000 0 0 1
-22.249755 -12.931898 7.215073 26.727193 0.526493 1.297453 0.065268 0.008809 368949.000000 0 0 1
-21.672655 -12.523598 8.576173 26.459313 0.523975 1.240708 0.062816 0.002537 -486792.000000 0 0 1
-21.279555 -11.165698 8.652073 25.541156 0.483223 1.225208 0.057412 0.003269 550150.000000 0 0 1
-22.324455 -10.222698 8.940173 26.130663 0.429416 1.221610 0.069322 -0.001105 -164527.000000 0 0 1
-22.811555 -10.230198 10.433873 27.090399 0.421577 1.175426 0.081365 -0.001015 -169899.000000 0 0 1
-23.603255 -11.406598 10.742073 28.330483 0.450169 1.181897 0.064680 -0.007081 729413.000000 0 0 1
-24.997555 -11.295498 10.536073 29.384943 0.424403 1.204078 0.064575 -0.011989 302994.000000 0 0 1
-25.922555 -10.453598 11.474773 30.214681 0.383316 1.181244 0.061875 -0.013932 -476676.000000 0 0 1
-26.003155 -11.215198 12.711073 31.040556 0.407196 1.148892 0.078627 -0.017658 -134631.000000 0 0 1
-27.153055 -11.075698 13.497373 32.282171 0.387297 1.139437 0.076335 -0.021929 -352524.000000 0 0 1
-27.217555 -11.931898 14.782173 33.191537 0.413157 1.109220 0.071703 -0.021937 -134971.000000 0 0 1
-27.294055 -13.341798 14.552173 33.685824 0.454661 1.124091 0.060975 -0.020835 272246.000000 0 0 1
-27.262255 -13.997898 15.839973 34.497484 0.474352 1.093743 0.052747 -0.017628 -794488.000000 0 0 1
-27.012255 -15.510098 15.903973 34.973725 0.521223 1.098715 0.054245 -0.009136 202017.000000 0 0 1
-27.975155 -16.347198 15.241973 35.807233 0.528830 1.131097 0.059874 -0.009674 428093.000000 0 0 1
-27.502855 -17.655398 15.347073 36.106132 0.570694 1.131774 0.046436 -0.006718 -95302.200000 0 0 1
-28.459555 -18.617098 16.069073 37.613265 0.579294 1.129382 0.036194 0.005040 -150331.000000 0 0 1
-28.603555 -18.347198 17.452373 38.201680 0.570328 1.096347 0.046199 0.003274 -393664.000000 0 0 1
-29.081555 -19.434198 18.216873 39.437030 0.589109 1.090634 0.045367 0.010476 -360642.000000 0 0 1
-28.169855 -20.614398 18.598173 39.552322 0.631744 1.081260 0.041909 0.010141 -215624.000000 0 0 1
-27.082455 -20.298098 19.446473 39.033799 0.643176 1.049280 0.041379 0.011611 -17562.100000 0 0 1
-26.468655 -21.479498 19.883773 39.462931 0.681718 1.042735 0.040448 0.007803 825987.000000 0 0 1
-25.024055 -21.261998 20.496873 38.709142 0.704298 1.012774 0.027238 0.012474 1113920.000000 0 0 1
-24.021455 -20.901798 19.561073 37.370457 0.716065 1.019917 0.034766 0.008696 587504.000000 0 0 1
-22.733855 -21.018898 20.182173 36.958657 0.746222 0.993125 0.044019 0.004431 854915.000000 0 0 1
-21.552955 -20.745598 19.206673 35.550049 0.766313 1.000037 0.045653 -0.001426 47880.100000 0 0 1
-21.488655 -21.591098 18.082773 35.424913 0.787776 1.035084 0.028568 -0.001594 219336.000000 0 0 1
-20.185755 -21.613198 17.526073 34.376711 0.819535 1.035816 0.033280 0.004219 181398.000000 0 0 1
-19.997355 -22.448498 16.220873 34.160591 0.843082 1.076012 0.024650 0.015979 -513862.000000 0 0 1
-20.065055 -23.865798 16.174573 35.125483 0.871700 1.092261 0.023610 0.008156 -240551.000000 0 0 1
-19.150455 -24.634498 16.894273 35.482600 0.909999 1.074550 0.040412 -0.005021 542434.000000 0 0 1
-17.674855 -24.752698 16.336873 34.525208 0.950698 1.077892 0.046446 -0.009527 660448.000000 0 0 1
-16.946755 -23.575298 16.337773 33.315312 0.947541 1.058250 0.050305 -0.013355 -269985.000000 0 0 1
-15.789555 -23.772698 15.536373 32.493539 0.984511 1.072264 0.052273 -0.012550 -18287.700000 0 0 1
-14.872755 -22.538398 15.457773 31.114642 0.987503 1.050888 0.051171 -0.005854 -576314.000000 0 0 1
-15.261655 -21.454198 14.658173 30.134080 0.952487 1.062795 0.053558 -0.007010 -345282.000000 0 0 1
-16.313055 -20.655598 15.143473 30.366005 0.902328 1.048700 0.047785 -0.008781 -394993.000000 0 0 1
-15.858855 -19.420598 16.005973 29.746497 0.886015 1.002640 0.057241 -0.015274 -91482.900000 0 0 1
-15.149055 -18.433998 15.217273 28.299674 0.882903 1.003067 0.053501 -0.014050 210603.000000 0 0 1
-15.016555 -17.233798 16.012173 27.908608 0.854041 0.959736 0.035214 -0.005728 -362839.000000 0 0 1
-14.289255 -16.089298 15.264773 26.382980 0.844583 0.953805 0.037244 -0.001757 254055.000000 0 0 1
-14.989455 -15.366098 14.215973 25.746740 0.797805 0.985860 0.049812 -0.017841 198896.000000 0 0 1
-15.430255 -16.185998 13.136073 25.935221 0.809297 1.039681 0.055845 -0.017713 -159594.000000 0 0 1
-16.402355 -15.468498 12.162973 25.617369 0.756105 1.076066 0.054537 -0.015518 -484892.000000 0 0 1
-17.625555 -15.331298 12.818273 26.646144 0.715896 1.068938 0.046057 -0.018468 -366390.000000 0 0 1
-18.485955 -14.371398 12.161973 26.385246 0.660822 1.091744 0.062047 -0.020578 -998066.000000 0 0 1
-19.959855 -14.606898 12.388673 27.662908 0.631760 1.106444 0.054624 -0.019669 -918375.000000 0 0 1
-20.536455 -15.805798 11.889673 28.511990 0.655956 1.140648 0.064003 -0.022022 -65009.800000 0 0 1
-20.640955 -15.796198 10.482773 28.026013 0.653212 1.187438 0.066705 -0.015269 -380980.000000 0 0 1
-21.408055 -16.985598 9.782773 29.026161 0.670716 1.227033 0.063416 -0.011036 702438.000000 0 0 1
-20.690255 -18.222498 9.813673 29.265240 0.722065 1.228835 0.060412 -0.003491 524835.000000 0 0 1
-21.492655 -19.139598 9.047673 30.168176 0.727552 1.266200 0.053038 -0.003343 566929.000000 0 0 1
-21.117255 -20.625298 9.169673 30.909938 0.773613 1.269605 0.070001 0.000248 297399.000000 0 0 1
-19.896155 -20.872598 8.478573 30.056755 0.809344 1.284829 0.076354 -0.002392 -1440.370000 0 0 1
-19.644555 -22.297998 8.481173 30.903714 0.848578 1.292790 0.067347 -0.012415 93187.100000 0 0 1
-18.402555 -22.554098 7.598473 30.084517 0.886417 1.315460 0.059012 -0.015407 239914.000000 0 0 1
-17.214255 -22.064798 8.200373 29.162167 0.908265 1.285753 0.037463 -0.010181 132761.000000 0 0 1
-16.047655 -22.604098 7.579773 28.738919 0.953427 1.303893 0.050593 -0.004600 -485828.000000 0 0 1
-14.827255 -21.952298 8.181873 27.725330 0.976751 1.271231 0.022602 -0.000256 -1525220.000000 0 0 1
-13.675355 -22.326398 7.509673 27.237448 1.021222 1.291467 0.035508 -0.000186 -216286.000000 0 0 1
-12.493055 -22.011998 8.263673 26.625040 1.054574 1.255212 0.046952 -0.004113 539454.000000 0 0 1
-11.219755 -22.446798 7.523873 26.198288 1.107279 1.279505 0.064592 -0.002184 -137825.000000 0 0 1
-11.070355 -23.817298 7.422573 27.293059 1.135701 1.295369 0.058826 0.006495 -869613.000000 0 0 1
-9.742955 -24.164998 7.225473 27.038487 1.187548 1.300280 0.065343 0.001817 -539954.000000 0 0 1
-9.594355 -25.702888 7.121373 28.344383 1.213535 1.316830 0.068902 -0.001165 46701.200000 0 0 1
-9.964655 -26.326818 5.905873 28.762389 1.208962 1.363992 0.063480 -0.010567 -254180.000000 0 0 1
-10.033255 -27.732908 6.135873 30.123568 1.223664 1.365671 0.070780 -0.007820 658180.000000 0 0 1
-8.888455 -28.596708 5.478273 30.443190 1.269442 1.389860 0.066430 -0.010043 1000910.000000 0 0 1
-7.574355 -28.269268 5.954473 29.866003 1.309009 1.370078 0.066601 -0.010973 862142.000000 0 0 1
-6.507355 -29.134748 5.535673 30.361537 1.351049 1.387446 0.058688 -0.003321 873405.000000 0 0 1
-6.571355 -30.550598 6.092173 31.837656 1.358927 1.378258 0.058827 -0.009456 -690661.000000 0 0 1
-6.664355 -30.435338 7.482773 32.042399 1.355231 1.335093 0.061235 -0.010921 61802.800000 0 0 1
-6.562355 -31.660968 8.162873 33.348372 1.366421 1.323508 0.080174 -0.022990 -117231.000000 0 0 1
-6.989355 -31.553608 9.604873 33.715499 1.352809 1.281915 0.064203 -0.023566 196632.000000 0 0 1
-5.932355 -30.961278 10.380773 33.189668 1.381485 1.252687 0.038930 -0.011417 838778.000000 0 0 1
-6.217355 -31.136568 11.755573 33.857568 1.373708 1.216206 0.033788 -0.011983 -360813.000000 0 0 1
-5.276355 -30.336678 12.658073 33.292353 1.398592 1.180773 0.027353 -0.006605 -121498.000000 0 0 1
-5.388355 -28.924678 12.561973 31.991789 1.386618 1.167272 0.035662 -0.007220 174674.000000 0 0 1
-4.579355 -28.226978 13.516473 31.629540 1.409964 1.129251 0.016481 -0.010436 -430261.000000 0 0 1
-5.343355 -27.751118 14.784873 31.894646 1.380579 1.088795 0.039910 -0.008852 -10296.500000 0 0 1
-5.717355 -28.693848 15.789373 33.246494 1.374118 1.075925 0.057168 -0.012640 -1520.250000 0 0 1
-4.664355 -29.319588 16.477773 33.954550 1.413032 1.064103 0.041139 -0.009903 29011.400000 0 0 1
-5.159355 -30.711248 17.016973 35.487703 1.404355 1.070692 0.034573 -0.007747 326030.000000 0 0 1
-5.418355 -31.668718 15.999873 35.892370 1.401342 1.108758 0.025446 -0.005242 475467.000000 0 0 1
-6.126355 -32.827368 16.495373 37.246015 1.386295 1.111992 0.020784 -0.008402 167154.000000 0 0 1
-5.752355 -34.118279 15.676573 37.985543 1.403767 1.145382 0.014169 -0.010034 -171223.000000 0 0 1
-6.249355 34.060709 14.368973 37.492048 -1.389338 1.177480 0.026196 -0.017544 100955.000000 0 0 1
-5.581355 33.057625 13.629973 36.190250 -1.403537 1.184651 0.019555 -0.016487 599305.000000 0 0 1
-4.251355 33.420896 12.885973 36.070467 -1.444269 1.205480 0.037793 -0.026130 -16747.100000 0 0 1
-4.579355 34.050261 11.598673 36.261825 -1.437110 1.245216 0.040405 -0.030139 9106.620000 0 0 1
-3.457355 -33.935538 10.867073 35.800382 1.469267 1.262384 0.045362 -0.035414 -1027680.000000 0 0 1
-3.817355 -33.691638 9.345773 35.171610 1.457975 1.301846 0.050274 -0.038159 -609913.000000 0 0 1
-4.007355 33.524304 8.472973 34.809899 -1.451825 1.324919 0.068415 -0.051895 143002.000000 0 0 1
-4.764355 32.399898 8.872473 33.928943 -1.424794 1.306219 0.071132 -0.048152 263769.000000 0 0 1
-6.295355 32.627838 9.049173 34.439727 -1.380194 1.304921 0.079092 -0.045484 83390.400000 0 0 1
-6.997355 33.057161 7.926773 34.706953 -1.362201 1.340371 0.093640 -0.045516 141522.000000 0 0 1
-8.382155 33.263778 8.240773 35.279594 -1.323945 1.335034 0.077864 -0.038665 714621.000000 0 0 1
-9.275755 33.351307 7.010073 35.319830 -1.299529 1.370995 0.073355 -0.046684 -342146.000000 0 0 1
-9.372655 -33.705948 6.522373 35.587624 1.299577 1.386478 0.086561 -0.030133 -8971.180000 0 0 1
-10.080155 -33.698898 5.314173 35.573385 1.280143 1.420849 0.078904 -0.018267 -440237.000000 0 0 1
-10.244455 -32.261688 4.757973 34.181921 1.263324 1.431147 0.075998 -0.013648 423272.000000 0 0 1
-11.188155 -31.444108 5.461473 33.819143 1.228954 1.408595 0.075726 -0.015757 1039370.000000 0 0 1
-12.536755 -31.600508 4.966173 34.357317 1.193115 1.425743 0.079357 -0.011414 673329.000000 0 0 1
-13.549855 -30.716908 5.703473 34.053731 1.155351 1.402519 0.068484 -0.013096 -194438.000000 0 0 1
-13.684955 -31.036858 7.065873 34.648104 1.155514 1.365423 0.067355 -0.023143 444078.000000 0 0 1
-14.557655 -30.040688 7.679573 34.254111 1.119546 1.344680 0.059025 -0.021427 223854.000000 0 0 1
33.679678 -12.641098 -12.112627 37.958317 -0.359063 1.895580 0.034168 -0.018729 -263262.000000 0 0 1
32.504648 -12.715598 -11.293027 36.684752 -0.372891 1.883718 0.059279 -0.019225 866888.000000 0 0 1
32.048598 -14.083298 -11.164127 36.743566 -0.414034 1.879516 0.061263 -0.023849 -164076.000000 0 0 1
32.914318 -14.898498 -10.215927 37.545742 -0.425051 1.846364 0.070044 -0.027494 1044550.000000 0 0 1
34.280228 -15.127998 -10.631727 38.948992 -0.415599 1.847270 0.063526 -0.024520 645455.000000 0 0 1
35.156918 -15.494098 -9.635427 39.609562 -0.415104 1.816522 0.059147 -0.027418 249001.000000 0 0 1
-36.232304 -15.699098 -10.074527 40.752149 0.408871 1.820601 0.042556 -0.026417 611983.000000 0 0 1
-35.435470 -14.592498 -10.492127 39.732836 0.390641 1.838033 0.046118 -0.025200 -115440.000000 0 0 1
-34.120678 -14.943898 -10.801327 38.784139 0.412806 1.853027 0.067775 -0.031400 -262115.000000 0 0 1
-33.372954 -13.765998 -11.470227 37.879056 0.391227 1.878438 0.075223 -0.037876 -72943.900000 0 0 1
-33.182464 -12.697698 -10.574627 37.069262 0.365472 1.860081 0.081899 -0.028801 -74065.800000 0 0 1
-32.322264 -11.684898 -10.961927 36.075330 0.346894 1.879540 0.074952 -0.024663 -410705.000000 0 0 1
-32.571804 -10.290098 -10.211627 35.652291 0.305998 1.861287 0.069374 -0.017369 213844.000000 0 0 1
-32.142474 -10.214398 -8.819327 34.860480 0.307692 1.826565 0.076664 -0.013317 488762.000000 0 0 1
-33.074314 -9.354898 -8.201427 35.336776 0.275645 1.805025 0.082326 -0.008993 -16347.800000 0 0 1
-32.865594 -8.980298 -6.721327 34.727068 0.266732 1.765573 0.075153 -0.011095 505195.000000 0 0 1
-31.672654 -8.169598 -6.520127 33.352832 0.252436 1.767553 0.078609 -0.013877 1194220.000000 0 0 1
-31.409724 -7.982598 -5.121627 32.810420 0.248875 1.727535 0.076321 -0.014668 93856.500000 0 0 1
-30.667314 -9.080798 -4.304227 32.271836 0.287881 1.704569 0.074141 -0.008971 -247582.000000 0 0 1
-31.359604 -10.309698 -4.164827 33.272517 0.317626 1.696299 0.071552 -0.009942 295654.000000 0 0 1
-31.370254 -10.679098 -2.796227 33.255899 0.328116 1.654978 0.078257 -0.017248 -89638.700000 0 0 1
-31.865494 -12.117098 -2.548827 34.186697 0.363372 1.645422 0.079123 -0.016929 -25606.500000 0 0 1
-33.254504 -12.271398 -2.749327 35.552891 0.353513 1.648204 0.084910 -0.023735 161866.000000 0 0 1
-33.766804 -13.552798 -2.416627 36.465264 0.381682 1.637117 0.088945 -0.026473 756892.000000 0 0 1
-35.339188 -13.505898 -2.373827 37.906497 0.365050 1.633461 0.072797 -0.024717 927161.000000 0 0 1
-35.738095 -12.542298 -1.361427 37.899527 0.337521 1.606726 0.082816 -0.034477 -878.376000 0 0 1
35.733738 -12.329598 -1.239727 37.821369 -0.332250 1.603581 0.103689 -0.039251 89085.500000 0 0 1
35.363708 -11.328198 -0.113927 37.133986 -0.310006 1.573864 0.094684 -0.044643 -79192.900000 0 0 1
35.609058 -11.886198 1.143173 37.557869 -0.322168 1.540354 0.107992 -0.041459 192169.000000 0 0 1
35.379218 -10.992098 2.178473 37.111468 -0.301238 1.512062 0.104544 -0.036377 -108986.000000 0 0 1
35.695318 -11.588398 3.567573 37.698465 -0.313913 1.476020 0.113463 -0.039679 -149572.000000 0 0 1
34.684418 -12.344398 4.184973 37.052760 -0.341927 1.457608 0.112671 -0.041886 -130199.000000 0 0 1
35.070028 -12.716098 5.498373 37.707269 -0.347848 1.424457 0.110279 -0.030995 -210662.000000 0 0 1
33.907438 -12.704198 6.492673 36.786761 -0.358484 1.393372 0.109613 -0.028269 -339841.000000 0 0 1
33.432908 -11.374498 6.699773 35.944756 -0.327934 1.383309 0.100682 -0.026496 -39328.800000 0 0 1
32.910638 -11.393998 8.002173 35.734690 -0.333295 1.344948 0.082076 -0.008429 -696382.000000 0 0 1
32.243298 -10.066498 8.511073 34.833935 -0.302616 1.323965 0.060121 -0.019128 335060.000000 0 0 1
30.957188 -9.877898 7.920373 33.446265 -0.308870 1.331716 0.057038 -0.014443 446527.000000 0 0 1
30.167518 -9.035498 8.741173 32.682219 -0.291008 1.300041 0.044018 -0.000262 859738.000000 0 0 1
28.616768 -9.194498 8.504273 31.237491 -0.310880 1.295070 0.039695 0.000141 839282.000000 0 0 1
28.256188 -8.615998 7.281373 30.424759 -0.295968 1.329127 0.057886 -0.005572 -186719.000000 0 0 1
27.493888 -9.428998 6.437773 29.770200 -0.330379 1.352826 0.079868 -0.018331 -405312.000000 0 0 1
26.709888 -8.579398 5.428073 28.574257 -0.310797 1.379671 0.104886 -0.025356 -127631.000000 0 0 1
25.683688 -7.809098 6.042373 27.516252 -0.295167 1.349399 0.123420 -0.022158 572495.000000 0 0 1
24.767688 -7.195598 5.159973 26.302857 -0.282740 1.373340 0.159042 -0.037964 47199.800000 0 0 1
25.307188 -5.862798 4.509973 26.366001 -0.227649 1.398898 0.147975 -0.033821 -496299.000000 0 0 1
26.153988 -6.190498 3.465973 27.099194 -0.232417 1.442546 0.144495 -0.035454 -235622.000000 0 0 1
26.588788 -5.027098 2.766773 27.200926 -0.186863 1.468904 0.138193 -0.038091 245147.000000 0 0 1
27.186988 -5.430398 1.355273 27.757131 -0.197148 1.521951 0.135709 -0.045479 -153675.000000 0 0 1
26.165888 -5.822198 0.518973 26.810838 -0.218944 1.551438 0.158910 -0.054547 -279099.000000 0 0 1
26.669188 -5.740798 -0.822027 27.292454 -0.212024 1.600920 0.138402 -0.054397 -208140.000000 0 0 1
25.728988 -6.118798 -1.998327 26.521950 -0.233480 1.646214 0.144759 -0.050729 -259748.000000 0 0 1
24.714888 -5.144398 -2.040227 25.326923 -0.205219 1.651439 0.152556 -0.045923 -160343.000000 0 0 1
23.956588 -5.211298 -3.246827 24.730904 -0.214194 1.702463 0.123357 -0.037626 -29079.300000 0 1 0
22.833888 -4.138598 -3.197827 23.425211 -0.179302 1.707736 0.101895 -0.033358 -114925.000000 0 1 0
23.236188 -2.751198 -3.081027 23.600471 -0.117853 1.701719 0.097736 -0.032682 109468.000000 0 1 0
23.465188 -2.095098 -4.280027 23.944167 -0.089049 1.750512 0.089759 -0.028944 -520293.000000 0 1 0
22.295788 -1.331098 -4.914227 22.869709 -0.059631 1.787365 0.068176 -0.015824 -190420.000000 0 1 0
22.043088 -0.081198 -4.329027 22.464300 -0.003684 1.764716 0.053526 -0.007876 399386.000000 0 1 0
21.359288 0.730302 -5.287327 22.016093 0.034178 1.813324 0.078748 -0.002471 -435180.000000 0 1 0
21.125588 2.221302 -4.952527 21.811744 0.104762 1.799852 0.074652 0.003880 46399.900000 0 1 0
22.259088 3.106602 -4.861927 22.994702 0.138670 1.783841 0.094472 -0.000398 982870.000000 0 1 0
22.972388 2.973302 -3.612027 23.443930 0.128714 1.725483 0.097058 0.001420 422531.000000 0 1 0
24.297888 3.783802 -3.515227 24.840719 0.154485 1.712784 0.098403 -0.005450 350112.000000 0 1 0
24.002788 5.173102 -3.507527 24.803176 0.212274 1.712686 0.088532 0.006155 547001.000000 0 1 0
25.090188 5.901202 -3.011827 25.950199 0.231001 1.687120 0.086206 -0.001743 16965.800000 0 0 1
24.576188 7.359602 -2.970427 25.825882 0.290962 1.686069 0.065073 -0.003232 302577.000000 0 0 1
23.459188 7.600602 -2.141127 24.752516 0.313320 1.657406 0.068367 -0.002733 570550.000000 0 1 0
22.801488 8.816702 -2.543227 24.578651 0.368964 1.674455 0.071237 0.005197 -362322.000000 0 1 0
21.620888 9.222602 -1.686727 23.566167 0.403191 1.642432 0.048447 0.007495 -562426.000000 0 1 0
22.088088 9.845602 -0.520627 24.188645 0.419308 1.592322 0.039104 0.007333 794383.000000 0 1 0
21.024488 10.376402 0.247373 23.446961 0.458465 1.560246 0.024052 0.009466 192285.000000 0 1 0
21.540088 10.747602 1.676573 24.130835 0.462814 1.501262 0.043936 0.000027 62185.500000 0 1 0
22.411188 11.899702 1.779773 25.436820 0.488117 1.500771 0.056728 -0.008999 636840.000000 0 0 1
21.900088 13.215802 1.631373 25.630697 0.542959 1.507104 0.058949 -0.001046 -915088.000000 0 0 1
20.899088 13.706802 2.690273 25.137340 0.580481 1.463568 0.054972 -0.002861 567260.000000 0 0 1
19.550688 13.181202 2.457673 23.706827 0.593204 1.466940 0.076391 -0.002477 2239630.000000 0 1 0
18.570988 13.967902 3.204573 23.457475 0.644867 1.433756 0.067134 -0.004707 516318.000000 0 1 0
18.555088 13.798702 4.678973 23.592122 0.639432 1.371145 0.063045 -0.006509 -944889.000000 0 1 0
17.925888 12.675402 5.232273 22.569447 0.615475 1.336838 0.032291 -0.001158 341630.000000 0 1 0
18.164488 12.605002 6.603073 23.074558 0.606645 1.280577 0.043328 -0.016145 -66507.100000 0 1 0
18.051588 11.168802 7.146473 22.398081 0.554068 1.246052 0.010517 -0.012242 -639394.000000 0 1 0
19.117988 10.376702 6.767173 22.780870 0.497277 1.269189 0.006249 -0.008294 -157398.000000 0 1 0
19.086488 9.057602 7.277573 22.344960 0.443086 1.239053 0.008607 -0.006501 -40183.700000 0 1 0
20.161388 8.123302 6.663973 22.734954 0.383016 1.273312 0.017530 -0.004071 11713.800000 0 1 0
19.872088 7.793302 5.320973 21.998822 0.373741 1.326498 0.010000 -0.007533 888480.000000 0 1 0
20.887288 7.006702 4.700673 22.527072 0.323657 1.360584 0.025709 -0.009174 258666.000000 0 1 0
20.668788 6.878002 3.158073 22.010886 0.321246 1.426822 0.036813 -0.001785 -254216.000000 0 1 0
21.738988 6.178602 2.600273 22.749069 0.276915 1.456244 0.041600 -0.005750 120572.000000 0 1 0
21.645088 6.044902 1.187573 22.504688 0.272335 1.518002 0.058935 0.009065 26196.300000 0 1 0
22.798988 5.201302 0.613673 23.392819 0.224299 1.544560 0.086628 0.003442 28900.400000 0 1 0
22.543388 3.867502 0.812273 22.887151 0.169904 1.535299 0.081685 -0.003748 810240.000000 0 1 0
23.644388 3.078502 0.339473 23.846373 0.129472 1.556560 0.094857 -0.010073 302828.000000 0 1 0
23.508388 1.557402 0.256973 23.561321 0.066152 1.559890 0.121638 -0.018200 430961.000000 0 1 0
22.453088 1.194402 -0.683327 22.495215 0.053145 1.601178 0.097367 -0.015040 1477250.000000 0 1 0
22.550688 -0.072798 -1.245527 22.585176 -0.003228 1.625972 0.106920 -0.026241 -1172980.000000 0 1 0
22.191288 -1.316698 -0.348027 22.233040 -0.059265 1.586451 0.114389 -0.025559 184193.000000 0 1 0
23.138588 -1.740198 0.640173 23.212763 -0.075066 1.543214 0.121852 -0.022184 1078760.000000 0 1 0
24.436588 -2.105198 0.167473 24.527673 -0.085937 1.563968 0.135796 -0.036530 379367.000000 0 1 0
25.521588 -1.994898 1.285573 25.631694 -0.078007 1.520620 0.132075 -0.026933 -56765.600000 0 0 1
25.624088 -0.694298 1.880173 25.702353 -0.027089 1.497579 0.113510 -0.023986 370989.000000 0 0 1
26.449888 -0.645298 3.013373 26.628807 -0.024392 1.457391 0.112511 -0.026577 -154560.000000 0 0 1
26.290188 0.710502 3.761473 26.567414 0.027019 1.428737 0.111182 -0.022065 44005.700000 0 0 1
26.534588 2.002302 3.141873 26.794867 0.075317 1.453269 0.106073 -0.021489 415343.000000 0 0 1
27.853258 2.276702 2.686073 28.074941 0.081558 1.474975 0.096669 -0.023042 208154.000000 0 0 1
27.969508 3.491002 1.771073 28.242117 0.124172 1.508045 0.103702 -0.029212 -164861.000000 0 0 1
27.348588 3.340902 0.498273 27.556399 0.121558 1.552713 0.114098 -0.024008 168813.000000 0 0 1
27.661688 4.323802 -0.469327 28.001509 0.155055 1.587558 0.102036 -0.020527 173976.000000 0 0 1
29.035298 4.048102 -1.144127 29.338450 0.138527 1.609804 0.102733 -0.021663 525704.000000 0 0 1
30.182008 4.347902 -0.349527 30.495574 0.143072 1.582258 0.104296 -0.025764 818667.000000 0 0 1
31.407048 4.157002 -1.077927 31.699294 0.131594 1.604808 0.091805 -0.022631 1108320.000000 0 0 1
32.638748 4.686502 -0.254927 32.974477 0.142612 1.578527 0.062335 -0.020406 428463.000000 0 0 1
33.052658 3.936202 0.876073 33.297738 0.118531 1.544483 0.062958 -0.022591 226947.000000 0 0 1
32.378878 4.339602 2.051673 32.732755 0.133232 1.508076 0.064567 -0.008628 38577.200000 0 0 1
32.455118 3.297402 3.184873 32.777293 0.101251 1.473476 0.056895 -0.014311 -254201.000000 0 0 1
31.525748 2.260402 2.954473 31.744466 0.071578 1.477591 0.068897 -0.018577 142040.000000 0 0 1
31.488568 1.249402 3.950073 31.759943 0.039657 1.446101 0.064956 -0.021877 268237.000000 0 0 1
32.733558 0.295102 3.975073 32.975356 0.009015 1.449956 0.069305 -0.014092 22002.600000 0 0 1
33.907488 0.909502 4.408473 34.204964 0.026817 1.441553 0.064440 -0.021899 -259938.000000 0 0 1
35.004478 0.021902 4.248873 35.261408 0.000626 1.450006 0.046436 -0.023739 -740925.000000 0 0 1
36.353098 0.659402 4.547973 36.642415 0.018137 1.446358 0.071563 -0.030417 -403426.000000 0 0 1
-36.120484 1.783602 3.693673 36.352631 -0.049339 1.469014 0.068203 -0.030776 286875.000000 0 0 1
-35.830400 1.461402 2.339073 35.936395 -0.040764 1.505661 0.076386 -0.025693 -1096950.000000 0 0 1
-35.619165 2.722102 1.541973 35.756292 -0.076274 1.527658 0.071671 -0.027610 -660136.000000 0 0 1
-34.468485 3.470102 1.742373 34.686509 -0.100337 1.520543 0.100099 -0.040350 -357172.000000 0 0 1
-33.397954 2.846202 1.000273 33.533934 -0.085015 1.540963 0.119132 -0.041065 -1050160.000000 0 0 1
-32.123024 3.648102 1.235373 32.353105 -0.113082 1.532603 0.135709 -0.044885 -726916.000000 0 0 1
-31.675144 3.431502 2.579773 31.964749 -0.107913 1.490002 0.139195 -0.043733 -33827.700000 0 0 1
-30.891124 4.499302 3.087973 31.369425 -0.144633 1.472198 0.152171 -0.042611 -609397.000000 0 0 1
-31.116864 4.739602 4.561173 31.804517 -0.151154 1.426887 0.152870 -0.035404 726858.000000 0 0 1
-32.432284 5.130502 4.995173 33.213353 -0.156891 1.419827 0.139992 -0.018233 940619.000000 0 0 1
-33.476124 4.177402 4.895673 34.089135 -0.124146 1.426684 0.132989 -0.023249 -549931.000000 0 0 1
-33.592734 3.131402 5.999673 34.267674 -0.092948 1.394807 0.103469 -0.020635 -617120.000000 0 0 1
-34.065312 3.728602 7.191073 35.015132 -0.109021 1.363954 0.102413 -0.011435 340881.000000 0 0 1
-33.805034 3.002502 8.374273 34.956026 -0.088586 1.328878 0.092398 -0.013395 306802.000000 0 0 1
-35.008107 2.083502 8.778173 36.151969 -0.059445 1.325532 0.074440 -0.011072 244114.000000 0 0 1
-35.060442 0.963602 7.862973 35.944255 -0.027477 1.350258 0.079690 -0.018762 427141.000000 0 0 1
-35.992166 -0.089998 8.160473 36.905791 0.002500 1.347837 0.085509 -0.015347 215826.000000 0 0 1
-35.719339 -0.885698 9.465573 36.962855 0.024791 1.311828 0.081301 -0.009625 -631619.000000 0 0 1
-34.598669 -1.712098 9.439773 35.904156 0.049444 1.304753 0.090576 -0.028930 -497653.000000 0 0 1
-34.569580 -2.464798 10.593873 36.240326 0.071179 1.274142 0.090525 -0.021981 -7778.960000 0 0 1
-33.206974 -3.140298 10.907773 35.093362 0.094287 1.254739 0.090540 -0.022154 69867.300000 0 0 1
-32.823964 -4.000198 9.812273 34.491954 0.121270 1.282332 0.098537 -0.023967 -410185.000000 0 0 1
-31.661384 -4.705998 10.124973 33.572380 0.147555 1.264440 0.105393 -0.022356 -253944.000000 0 0 1
-31.327284 -5.831898 9.107773 33.141534 0.184053 1.292400 0.096880 -0.023176 23978.700000 0 0 1
-32.239024 -6.886698 9.255173 34.240904 0.210451 1.297096 0.087687 -0.021020 13866.800000 0 0 1
-32.166484 -7.767698 8.112073 34.070890 0.236948 1.330393 0.091487 -0.018057 -142582.000000 0 0 1
-33.149374 -8.932398 8.235673 35.305736 0.263208 1.335360 0.092331 -0.020066 382227.000000 0 0 1
-34.500581 -8.512198 8.357273 36.504679 0.241895 1.339811 0.099928 -0.027852 -56843.900000 0 0 1
-35.422655 -9.453598 7.928373 37.509920 0.260802 1.357823 0.111904 -0.032176 -164232.000000 0 0 1
7.611566 -24.012898 10.579073 27.321640 -1.263837 1.173198 0.098669 -0.024244 -17039.100000 0 0 1
7.029266 -24.554698 9.432173 27.227003 -1.291983 1.217037 0.088145 -0.024401 -550480.000000 0 0 1
5.732866 -25.013898 9.728173 27.444457 -1.345500 1.208452 0.090220 -0.021047 44368.600000 0 0 1
5.284066 -26.140168 8.796873 28.082285 -1.371341 1.252179 0.080755 -0.009779 -295427.000000 0 0 1
5.093866 -25.723678 7.456173 27.262605 -1.375303 1.293772 0.083321 -0.007898 -302378.000000 0 0 1
4.796366 -26.779628 6.569173 27.987634 -1.393570 1.333869 0.079467 -0.003668 -60160.100000 0 0 1
4.201366 -26.216338 5.227673 27.060607 -1.411890 1.376390 0.067360 -0.007552 1986610.000000 0 0 1
2.772866 -25.903638 5.181473 26.561907 -1.464157 1.374466 0.041613 -0.012172 1865420.000000 0 0 1
1.915466 -26.991988 4.737273 27.471407 -1.499951 1.397486 0.037687 -0.008570 1450670.000000 0 0 1
0.376366 -26.662468 4.755473 27.085852 -1.556681 1.394311 0.038040 -0.014786 422121.000000 0 0 1
-0.123734 -26.505648 6.044273 27.186356 1.566128 1.346595 0.032276 -0.015011 -875749.000000 0 0 1
-1.523534 -26.500428 6.066473 27.228587 1.513369 1.346113 0.014038 -0.014327 -45638.500000 0 0 1
-2.156434 -27.905088 6.199973 28.666772 1.493672 1.352796 0.022102 -0.011040 -508833.000000 0 0 1
-1.718634 -28.591798 7.389273 29.581176 1.510759 1.318326 0.018422 -0.018474 68672.900000 0 0 1
-2.390734 -29.814098 7.566673 30.852076 1.490780 1.323012 0.029155 -0.012863 -111419.000000 0 0 1
-2.182234 -30.375638 8.991373 31.753525 1.499078 1.283708 0.023153 -0.014178 1171160.000000 0 0 1
-0.810334 -30.691378 9.311873 32.083147 1.544400 1.276317 0.019218 -0.014561 889784.000000 0 0 1
-0.814334 -31.271858 10.587573 33.025580 1.544762 1.244447 0.014045 -0.004866 -21374.400000 0 0 1
0.588666 -31.504918 11.176973 33.433982 -1.552114 1.229934 0.035075 -0.016951 -53035.700000 0 0 1
1.305666 -32.607528 10.660973 34.330919 -1.530776 1.255040 0.042015 -0.017087 81202.500000 0 0 1
2.657366 -32.643798 11.073473 34.573125 -1.489570 1.244759 0.048241 -0.013094 332881.000000 0 0 1
3.013866 -33.400758 12.399273 35.755224 -1.480807 1.216658 0.048591 -0.015150 -354420.000000 0 0 1
2.626866 -32.681088 13.479273 35.449186 -1.490590 1.180738 0.037694 -0.015689 -236090.000000 0 0 1
3.283566 -33.022118 14.679373 36.286721 -1.471687 1.154322 0.047369 -0.013461 -560232.000000 0 0 1
2.973366 -32.187428 15.985473 36.061153 -1.478681 1.111533 0.046831 -0.012779 -191747.000000 0 0 1
3.436166 -30.850458 16.044673 34.942661 -1.459872 1.093734 0.048230 -0.013871 67629.000000 0 0 1
4.821666 -30.762318 16.325173 35.157929 -1.415322 1.087909 0.052811 -0.007786 105195.000000 0 0 1
5.519166 -29.542508 15.617273 33.869163 -1.386104 1.091555 0.068514 -0.009868 -377616.000000 0 0 1
5.692766 -29.529208 14.194973 33.254759 -1.380349 1.129784 0.065280 -0.012802 -818160.000000 0 0 1
4.552166 -29.397298 13.421673 32.635328 -1.417167 1.146958 0.059977 -0.003687 -1345750.000000 0 0 1
4.757066 -29.256258 11.929073 31.950917 -1.409607 1.188172 0.048662 -0.002539 100006.000000 0 0 1
5.318166 -30.357818 11.230673 32.802561 -1.397373 1.221356 0.053500 -0.010970 -1233200.000000 0 0 1
6.674466 -30.476508 11.382573 33.210375 -1.355197 1.220963 0.060852 -0.009929 -1543680.000000 0 0 1
7.273366 -31.749768 10.664573 34.273645 -1.345598 1.254383 0.054128 -0.012357 93935.800000 0 0 1
6.914266 -32.944188 11.370373 35.530438 -1.363921 1.245048 0.050100 -0.014763 221013.000000 0 0 1
7.153366 -34.103193 10.599973 36.421942 -1.364037 1.275490 0.061940 -0.014393 -203456.000000 0 0 1
7.038866 33.010000 11.455373 35.643110 1.360708 1.243598 0.056351 -0.011235 644797.000000 0 0 1
5.739566 32.811210 12.021573 35.412375 1.397621 1.224439 0.048590 -0.017260 445106.000000 0 0 1
5.665766 31.532209 12.673673 34.452911 1.393012 1.194095 0.044385 -0.020343 879047.000000 0 0 1
4.305866 31.213809 13.404773 34.242229 1.433714 1.168569 0.045281 -0.016452 915479.000000 0 0 1
4.391966 31.772139 14.732373 35.295906 1.433434 1.140218 0.049542 -0.013612 -1234920.000000 0 0 1
3.275966 31.465629 15.429773 35.197949 1.467058 1.117010 0.058075 -0.012520 -1225060.000000 0 0 1
3.440766 31.510489 16.954673 35.947332 1.462033 1.079632 0.058845 -0.017433 -184778.000000 0 0 1
3.636966 32.829537 17.433273 37.348695 1.460463 1.085161 0.056504 -0.015556 307349.000000 0 0 1
4.238166 32.763810 18.727873 37.975814 1.442156 1.055086 0.050885 -0.018378 -4609.860000 0 0 1
4.607066 34.066902 19.389773 39.468242 1.436376 1.057243 0.043500 -0.020588 620873.000000 0 0 1
3.437466 -33.479068 19.641773 38.967466 -1.468480 1.042508 0.041075 -0.017170 651507.000000 0 0 1
3.686266 -32.336548 20.542173 38.486644 -1.457289 1.007770 0.041215 -0.020954 870418.000000 0 0 1
2.376166 -31.598208 21.029273 38.030557 -1.495738 0.984887 0.034757 -0.018543 1087990.000000 0 0 1
1.494666 -32.371368 21.850073 39.084078 -1.524657 0.977553 0.049643 -0.017567 401197.000000 0 0 1
0.485866 -31.576808 22.497373 38.774511 -1.555411 0.951809 0.044775 -0.015190 514763.000000 0 0 1
-0.652834 -32.513818 23.019573 39.843134 1.550720 0.954821 0.037605 -0.016011 -656512.000000 0 0 1
-1.526634 -32.984958 22.018473 39.688175 1.524547 0.982690 0.025251 -0.016200 -127364.000000 0 0 1
-2.229234 -34.153202 22.424773 40.917981 1.505617 0.990775 0.035919 -0.019683 -432799.000000 0 0 1
-3.501534 -33.828198 23.214873 41.176912 1.467654 0.971836 0.053884 -0.019668 -480457.000000 0 0 1
-4.446734 -33.148098 22.358473 40.230227 1.437445 0.981516 0.042444 -0.018193 249094.000000 0 0 1
-5.584534 -32.742278 23.110673 40.464145 1.401862 0.962903 0.042277 -0.011624 309694.000000 0 0 1
-6.819034 -32.315438 22.289873 39.845015 1.362832 0.977117 0.047375 -0.008988 297972.000000 0 0 1
-7.528634 -33.367168 21.618073 40.464667 1.348882 1.007181 0.032844 0.005521 965436.000000 0 0 1
-8.658534 -32.794068 20.898473 39.839268 1.312660 1.018587 0.052800 -0.007216 535632.000000 0 0 1
-9.853234 -33.734138 20.802373 40.838915 1.286617 1.036337 0.074531 -0.010532 -210935.000000 0 0 1
-10.506134 -33.981058 22.066773 41.857301 1.270942 1.015505 0.089103 -0.019891 1371680.000000 0 0 1
-11.897934 34.006936 21.849373 42.135823 -1.234239 1.025646 0.064291 -0.019444 1415710.000000 0 0 1
-12.544834 33.403148 23.111373 42.512100 -1.211536 0.996026 0.059016 -0.016219 -204442.000000 0 0 1
-12.699734 -34.086038 24.247473 43.715914 1.214150 0.982842 0.068232 -0.021073 430084.000000 0 0 1
-11.536334 -33.457868 24.804473 43.217795 1.238760 0.959486 0.065569 -0.023558 -530.190000 0 0 1
-11.851134 -32.088978 25.458973 42.641660 1.217014 0.930984 0.069569 -0.025818 16373.300000 0 0 1
-12.608534 -32.115098 26.657073 43.599933 1.196682 0.912966 0.069772 -0.024580 237482.000000 0 0 1
-13.110734 -30.802758 26.825173 42.898615 1.168388 0.895260 0.082875 -0.026923 8335.910000 0 0 1
-13.993234 -30.441578 28.023873 43.678802 1.139926 0.874227 0.060069 -0.021383 -263655.000000 0 0 1
-13.270534 -29.971748 29.103673 43.834193 1.153973 0.844709 0.057469 -0.012093 34714.400000 0 0 1
-14.109434 -29.755468 30.212773 44.690890 1.128018 0.828423 0.063430 -0.014089 252021.000000 0 0 1
-13.296634 -29.228618 31.411173 44.919643 1.143860 0.796414 0.045533 -0.011074 -34648.600000 0 0 1
-14.150834 -29.138798 32.525673 45.904630 1.118706 0.783357 0.052008 -0.010623 380750.000000 0 0 1
-13.530334 -28.614418 33.680273 46.219213 1.129103 0.754364 0.040407 -0.003957 -417178.000000 0 0 1
-12.818334 -29.603398 -33.761227 46.695732 1.162167 2.378938 0.040518 0.001289 -311309.000000 0 0 1
-11.605534 -30.046888 34.061673 46.879649 1.202202 0.757470 0.042162 -0.000856 -320037.000000 0 0 1
-11.204334 -31.218148 -33.661027 47.256477 1.226211 2.363573 0.035386 0.001448 1015540.000000 0 0 1
-9.641934 -31.427988 -33.814527 47.160445 1.273118 2.370300 0.022365 -0.005941 1272540.000000 0 0 1
-8.914334 -30.688758 -32.819027 45.807792 1.288100 2.369498 0.042533 -0.010068 78050.400000 0 0 1
-7.538734 -31.027708 -32.881927 45.834183 1.332447 2.370875 0.062387 -0.016393 225823.000000 0 0 1
-6.623134 -30.174708 -31.995227 44.475538 1.354730 2.373719 0.080275 -0.018608 -138009.000000 0 0 1
-6.746834 -30.466178 -30.647127 43.737332 1.352860 2.347187 0.074431 -0.024523 -29047.700000 0 0 1
-5.971034 -29.582848 -29.861427 42.455895 1.371631 2.350898 0.072650 -0.019535 129221.000000 0 0 1
-6.314234 -29.755298 -28.359527 41.587379 1.361693 2.321189 0.064967 -0.019156 -221625.000000 0 0 1
-5.901934 -31.044498 -27.817427 42.099916 1.382926 2.292611 0.059011 -0.015944 -18929.700000 0 0 1
-6.574134 -31.412908 -26.637527 41.707888 1.364493 2.263563 0.059139 -0.016791 -124698.000000 0 0 1
-6.181934 -32.754738 -26.033827 42.294791 1.384257 2.233858 0.056081 -0.021010 204976.000000 0 0 1
-5.235734 -32.514198 -25.003427 41.349213 1.411138 2.220172 0.031624 -0.017981 1436.500000 0 0 1
-4.932934 -33.701228 -24.365127 41.877990 1.425456 2.191751 0.049739 -0.022201 68407.300000 0 0 1
-3.975934 -33.596858 -23.138627 40.987230 1.453002 2.170663 0.050652 -0.025888 330152.000000 0 0 1
-4.570834 -32.971808 -21.973127 39.885473 1.433046 2.154245 0.063585 -0.023326 360126.000000 0 0 1
-4.660834 -31.584558 -22.131627 38.847350 1.424287 2.176946 0.036339 -0.014053 -451045.000000 0 0 1
-5.138834 -30.904478 -20.820527 37.616336 1.406023 2.157354 0.069994 -0.025233 -843432.000000 0 0 1
-6.502134 -31.075108 -20.568627 37.828673 1.364533 2.145673 0.081497 -0.037706 -163198.000000 0 0 1
-7.200534 -29.894288 -20.147827 36.762088 1.334432 2.150839 0.085684 -0.034809 66444.700000 0 0 1
-7.427834 -28.767778 -21.241227 36.523246 1.318115 2.191467 0.098369 -0.042078 -557032.000000 0 0 1
-6.273634 -28.193448 -21.822227 36.199981 1.351843 2.217832 0.078570 -0.024433 -134345.000000 0 0 1
-6.496634 -27.683918 -23.138527 36.660565 1.340295 2.253839 0.107271 -0.038432 653242.000000 0 0 1
-5.250234 -28.026428 -24.060727 37.309037 1.385611 2.271693 0.106504 -0.032115 1609610.000000 0 0 1
-4.033634 -27.286998 -23.977427 36.548153 1.424037 2.286370 0.099488 -0.031459 807246.000000 0 0 1
-3.215134 -27.472438 -22.842627 35.872797 1.454295 2.261095 0.047729 -0.028981 801565.000000 0 0 1
-1.733034 -26.898478 -22.798527 35.303037 1.506457 2.272861 0.056502 -0.025395 1129570.000000 0 0 1
-1.614834 -25.482158 -22.891827 34.292621 1.507510 2.301701 0.075104 -0.028769 -54197.100000 0 0 1
-2.112734 -24.812798 -21.766127 33.074203 1.485854 2.289089 0.091230 -0.035755 -558864.000000 0 0 1
-2.539334 -23.366898 -22.220227 32.344994 1.462549 2.328115 0.107772 -0.035623 621737.000000 0 0 1
-3.385534 -23.107998 -23.362027 33.033706 1.425322 2.356352 0.081467 -0.042095 858829.000000 0 0 1
-4.691634 -23.659298 -23.305427 33.539779 1.375036 2.339021 0.078327 -0.045332 141176.000000 0 0 1
-5.586234 -23.605898 -24.589727 34.541267 1.338425 2.362988 0.063181 -0.034396 352707.000000 0 0 1
-5.956234 -22.296798 -25.005827 34.028155 1.309758 2.396252 0.091384 -0.035204 44414.200000 0 0 1
-6.481534 -22.366398 -26.307127 35.133047 1.288734 2.417025 0.098576 -0.039825 -770005.000000 0 0 1
-6.726734 -21.087098 -27.131227 35.014542 1.262003 2.457284 0.129168 -0.032696 -210467.000000 0 0 1
-6.713934 -21.205498 -28.538327 36.182678 1.264169 2.479535 0.133533 -0.028935 820343.000000 0 0 1
-5.392934 -21.509098 -29.017227 36.520193 1.325133 2.489067 0.109729 -0.034851 514000.000000 0 0 1
-5.394634 -21.838798 -30.560127 37.946760 1.328624 2.507049 0.116476 -0.037820 -44488.900000 0 0 1
-5.620934 -20.697198 -31.365627 37.996993 1.305613 2.541842 0.131380 -0.042921 -760335.000000 0 0 1
-6.598734 -21.093998 -32.244627 39.092404 1.267615 2.540700 0.114279 -0.040256 -587809.000000 0 0 1
-6.574934 -20.347198 -33.638627 39.859698 1.258250 2.575356 0.101753 -0.037269 -45205.900000 0 0 1
-5.527034 -20.757398 33.909973 40.141050 1.310566 0.564660 0.106149 -0.034176 -563740.000000 0 0 1
-5.447134 -20.161598 32.652173 38.759846 1.306923 0.569033 0.112697 -0.034754 -308621.000000 0 0 1
-4.291234 -20.677998 31.821073 38.191294 1.366174 0.585923 0.076125 -0.029646 -1473880.000000 0 0 1
-4.194834 -22.108798 31.602973 38.796179 1.383289 0.618775 0.090838 -0.027911 655054.000000 0 0 1
-3.002334 -22.555198 30.929373 38.397618 1.438464 0.634274 0.082243 -0.012762 854333.000000 0 0 1
-1.607734 -22.220398 31.486173 38.570844 1.498568 0.615785 0.066770 -0.019860 -720149.000000 0 0 1
-1.215234 -20.878298 31.351673 37.686967 1.512656 0.588279 0.051950 -0.015219 -302398.000000 0 0 1
-0.246334 -20.475798 32.299573 38.243710 1.558766 0.565031 0.050429 -0.015586 -130273.000000 0 0 1
-0.850734 -19.985998 33.620573 39.121692 1.528256 0.536732 0.041434 -0.016724 107070.000000 0 0 1
-1.611534 -18.803398 33.396373 38.359908 1.485301 0.514363 0.039842 -0.021747 4992.200000 0 0 1
-2.293934 -18.403498 -33.797727 38.551748 1.446789 2.639723 0.055987 -0.029631 20540.100000 0 0 1
-3.325234 -17.308698 -34.022827 38.317111 1.380995 2.663617 0.062511 -0.030942 -443585.000000 0 0 1
-2.767834 -16.078098 34.112073 37.812692 1.400318 0.446109 0.053011 -0.028286 591464.000000 0 0 1
-3.762034 -15.042598 -34.008327 37.376450 1.325731 2.713807 0.073711 -0.026669 817942.000000 0 0 1
-3.212834 -13.636098 34.136873 36.899750 1.339404 0.389432 0.048402 -0.029740 -75738.400000 0 0 1
-2.208134 -13.283498 -33.288027 35.908494 1.406071 2.757193 0.048258 -0.028495 326502.000000 0 0 1
-1.828534 -11.870098 -33.366327 35.462016 1.417952 2.796084 0.041459 -0.023324 60943.000000 0 0 1
-1.194234 -11.267398 33.770573 35.620669 1.465200 0.323712 0.039402 -0.026629 -489683.000000 0 0 1
-2.078034 -11.277798 32.634073 34.590312 1.388581 0.337922 0.039697 -0.026868 326198.000000 0 0 1
-1.535134 -10.802298 31.378173 33.221017 1.429630 0.334643 0.029252 -0.020484 -567752.000000 0 0 1
-0.583534 -11.819298 30.807773 33.002351 1.521465 0.366737 0.021233 -0.029247 -1186960.000000 0 0 1
-1.188134 -12.949298 30.232973 32.910919 1.479300 0.406196 0.035525 -0.031209 146993.000000 0 0 1
-0.230834 -13.911698 29.777473 32.867712 1.554205 0.437109 0.027101 -0.029721 53462.300000 0 0 1
-0.477534 -15.334898 30.358473 34.015056 1.539666 0.467936 0.027304 -0.029611 -458429.000000 0 0 1
-1.597034 -15.963298 29.831873 33.872083 1.471084 0.493413 0.034653 -0.033565 -339173.000000 0 0 1
-1.741234 -17.282698 30.408473 35.019977 1.470385 0.518995 0.050224 -0.025666 3269.280000 0 0 1
-2.418434 -18.313198 29.469073 34.779998 1.439496 0.559917 0.054347 -0.019280 -1113480.000000 0 0 1
-3.759334 -18.069198 29.246973 34.583434 1.365671 0.562934 0.059257 -0.020625 -1098050.000000 0 0 1
-4.319334 -19.138898 28.489073 34.591637 1.348831 0.603098 0.062308 -0.027176 200716.000000 0 0 1
-4.392634 -18.845798 26.942573 33.171698 1.341802 0.622856 0.058825 -0.019343 -472969.000000 0 0 1
-5.145034 -19.777898 26.174773 33.207760 1.316297 0.662897 0.067296 -0.020432 -251624.000000 0 0 1
-4.561134 -21.017698 25.807673 33.594398 1.357096 0.694750 0.072199 -0.012835 -317002.000000 0 0 1
-29.466434 -33.984815 -0.468227 44.982859 0.856488 1.581206 0.059512 -0.006213 -209444.000000 0 0 1
-28.990364 -32.714315 -0.153427 43.711453 0.845676 1.574306 0.058660 -0.003890 -10246.100000 0 0 1
-29.143424 -32.359015 1.216773 43.565187 0.837635 1.542863 0.041182 0.004555 -227711.000000 0 0 1
-28.456354 -31.029115 1.622273 42.133144 0.828621 1.532283 0.051582 -0.004057 59456.500000 0 0 1
-27.059554 -31.169515 1.593473 41.307351 0.855864 1.532211 0.064230 -0.009725 -433424.000000 0 0 1
-26.393344 -29.901315 1.600373 39.915641 0.847632 1.530692 0.077680 -0.002656 2081660.000000 0 0 1
-24.826234 -29.998115 1.927873 38.986478 0.879455 1.521326 0.076426 -0.010044 1556710.000000 0 0 1
-24.614234 -30.333515 3.297473 39.202755 0.889111 1.486584 0.073401 -0.011522 268486.000000 0 0 1
-23.230634 -30.166015 3.586773 38.242852 0.914559 1.476869 0.075598 -0.012632 465368.000000 0 0 1
-22.614334 -30.871615 4.818273 38.570461 0.938571 1.445548 0.085771 -0.018322 206291.000000 0 0 1
-23.235434 -30.198015 5.925073 38.560498 0.914972 1.416529 0.075376 -0.014426 362061.000000 0 0 1
-22.973534 -30.896915 7.151073 39.160445 0.931433 1.387156 0.063986 -0.012450 -54887.100000 0 0 1
-23.501934 -30.114115 8.372573 39.106276 0.908103 1.355028 0.070312 -0.003652 27778.000000 0 0 1
-22.776234 -28.960715 8.687273 37.854307 0.904371 1.339240 0.087457 -0.014638 34837.100000 0 0 1
-23.241834 -28.509715 9.953673 38.105935 0.886841 1.306520 0.072108 -0.012288 161352.000000 0 0 1
-22.477934 -27.250415 10.444273 36.836469 0.881076 1.283322 0.070876 -0.014209 -593919.000000 0 0 1
-21.154634 -27.549715 10.718873 36.351060 0.915955 1.271476 0.068158 -0.019624 -1058650.000000 0 0 1
-20.600734 -26.518915 11.506573 35.497103 0.910343 1.240678 0.057753 -0.014486 442891.000000 0 0 1
-19.330034 -26.920115 12.321173 35.357518 0.948058 1.214854 0.046934 -0.011996 375922.000000 0 0 1
-19.520334 -27.952315 13.252073 36.578584 0.961183 1.200072 0.045298 -0.004679 -423460.000000 0 0 1
-18.307434 -28.097315 13.927673 36.312550 0.993317 1.177159 0.054821 -0.014142 -175566.000000 0 0 1
-18.311334 -29.187015 14.954673 37.561004 1.010488 1.161304 0.083090 -0.028362 10801.000000 0 0 1
-18.133934 -30.473015 14.404573 38.274481 1.034001 1.184944 0.086792 -0.028814 -47122.300000 0 0 1
-18.147534 -31.406815 15.469073 39.433656 1.046844 1.167686 0.095077 -0.026665 163204.000000 0 0 1
-17.863334 -32.806615 14.917373 40.223136 1.072182 1.190856 0.084768 -0.040225 116170.000000 0 0 1
-17.796034 -33.764415 15.920873 41.354670 1.085732 1.175606 0.094452 -0.034980 88939.600000 0 0 1
-17.379534 33.365802 15.357673 40.634751 -1.090586 1.183221 0.073781 -0.038587 -267419.000000 0 0 1
-17.322234 32.237002 16.457873 40.126620 -1.077725 1.148179 0.062000 -0.030996 -601922.000000 0 0 1
-18.558034 31.908802 17.008373 40.643043 -1.044019 1.139023 0.068193 -0.036351 -360404.000000 0 0 1
-18.457434 30.846602 17.951973 40.180381 -1.031582 1.107628 0.037368 -0.024796 26643.400000 0 0 1
-19.217834 31.127702 19.279473 41.351626 -1.017690 1.085769 0.036475 -0.028748 50335.900000 0 0 1
-18.479534 31.873202 20.200773 42.017441 -1.045375 1.069262 0.038032 -0.024493 212046.000000 0 0 1
-19.310534 32.132402 21.328373 43.131049 -1.029666 1.053535 0.034686 -0.015750 381211.000000 0 0 1
-18.755934 33.364302 22.110973 44.202452 -1.058668 1.046943 0.024975 -0.008446 568511.000000 0 0 1
-17.524134 33.009102 22.741973 43.748067 -1.082745 1.024133 0.024163 -0.021997 137158.000000 0 0 1
-17.176434 33.790402 23.854773 44.786954 -1.100513 1.009094 0.030385 -0.023511 -36911.700000 0 0 1
-17.819034 33.330502 25.196873 45.423812 -1.079841 0.982786 0.012315 -0.028854 -331161.000000 0 0 1
-19.211234 33.489002 25.219673 46.115254 -1.049971 0.992159 -0.020540 -0.028860 -253792.000000 0 0 1
-19.860534 32.361202 25.784573 45.896975 -1.020354 0.974245 -0.014549 -0.017282 30735.700000 0 0 1
-21.385134 32.412802 25.508373 46.460636 -0.987581 0.989591 0.052950 -0.023640 30430.900000 0 0 1
-21.780334 32.025402 24.242973 45.691695 -0.973554 1.011515 0.036422 -0.014257 -407948.000000 0 0 1
-23.166734 32.146302 24.128173 46.392359 -0.946335 1.023841 0.020972 -0.011238 -628825.000000 0 0 1
-23.724034 31.731002 22.748873 45.685856 -0.928794 1.049573 0.018250 -0.006653 -253024.000000 0 0 1
-23.513934 32.649402 21.704973 45.716456 -0.946645 1.076089 0.020690 -0.003060 121802.000000 0 0 1
-23.813134 32.133202 20.443173 44.916938 -0.933031 1.098275 0.017117 -0.001239 -155046.000000 0 0 1
-23.320434 33.142202 19.397873 44.928005 -0.957626 1.124359 0.026466 -0.004235 448126.000000 0 0 1
-21.953634 33.533202 19.469973 44.559146 -0.991136 1.118595 0.037997 -0.012084 382483.000000 0 0 1
-21.446234 34.160502 18.325573 44.302454 -1.010180 1.144340 0.044305 -0.008200 1659060.000000 0 0 1
-20.019534 -33.518815 18.589073 43.241720 1.032392 1.126428 0.055670 -0.015547 1380810.000000 0 0 1
-20.240734 -32.407715 19.413873 42.858439 1.012510 1.100695 0.062794 -0.026021 -160908.000000 0 0 1
-19.108734 -31.896615 20.032073 42.235313 1.031051 1.076631 0.064200 -0.032992 -751234.000000 0 0 1
-19.513534 -30.800815 20.994573 42.074224 1.006080 1.048365 0.057377 -0.026216 -60535.400000 0 0 1
-20.016834 -29.667915 20.341273 41.165838 0.977255 1.053963 0.078018 -0.029828 79934.700000 0 0 1
-20.464634 -28.774715 21.333173 41.253966 0.952592 1.027316 0.082447 -0.023031 -324065.000000 0 0 1
-21.140134 -27.498215 20.756573 40.421435 0.915383 1.031533 0.061230 -0.016962 -226912.000000 0 0 1
-20.249034 -26.483415 20.295873 39.029695 0.918021 1.023932 0.051687 -0.008426 407812.000000 0 0 1
-20.925634 -25.245815 20.157073 38.490790 0.878695 1.019625 0.038071 0.007785 -333036.000000 0 0 1
-22.073534 -25.074915 19.118973 38.490614 0.848971 1.050983 0.019729 0.004233 -363051.000000 0 0 1
-23.222534 -25.623515 19.727473 39.812357 0.834513 1.052373 0.017047 0.003727 -720201.000000 0 0 1
-24.359434 -25.222915 19.003673 39.883794 0.802812 1.074154 0.015808 0.013434 -574468.000000 0 0 1
-25.643394 -25.829415 19.602573 41.340092 0.789012 1.076766 0.027717 -0.001604 -368482.000000 0 0 1
-25.823674 -27.200015 19.494673 42.269909 0.811349 1.091455 0.019271 -0.000631 -161341.000000 0 0 1
-26.032104 -27.737615 18.178973 42.160654 0.817106 1.124992 0.008844 -0.003188 -391533.000000 0 0 1
-27.162904 -28.792015 18.244073 43.584971 0.814505 1.138908 0.015328 -0.009267 478483.000000 0 0 1
-28.407064 -28.125815 18.468073 44.035127 0.780423 1.138019 0.021832 -0.014621 -622745.000000 0 0 1
-29.451384 -28.888415 17.975173 45.000348 0.775749 1.159885 0.025172 -0.009413 -1273730.000000 0 0 1
-30.811594 -28.363815 18.348273 45.722198 0.744057 1.157862 0.024366 -0.012615 -669204.000000 0 0 1
-31.225664 -27.169215 17.639873 44.993038 0.716044 1.167929 0.049151 -0.003843 -654704.000000 0 0 1
-32.583414 -26.993715 17.887073 45.937859 0.691849 1.170843 0.057471 0.008406 -791596.000000 0 0 1
-33.100184 -25.754215 17.194473 45.327162 0.661224 1.181712 0.069782 -0.008832 -301448.000000 0 0 1
-33.162224 -25.804415 15.782373 44.885234 0.661261 1.211499 0.086744 -0.021396 405046.000000 0 0 1
-33.848394 -24.646615 15.228173 44.554087 0.629368 1.221975 0.089111 -0.023557 53841.900000 0 0 1
-33.004754 -23.393715 14.963473 43.133342 0.616607 1.216520 0.081583 -0.015189 -303905.000000 0 0 1
-32.475254 -22.840015 16.167973 42.868540 0.612941 1.184077 0.067962 -0.007649 310885.000000 0 0 1
-31.970244 -21.508915 15.885273 41.678193 0.592222 1.179766 0.064128 -0.006042 728453.000000 0 0 1
-32.995174 -20.330315 16.246973 42.023414 0.552217 1.173836 0.058221 -0.018801 747686.000000 0 0 1
-33.339704 -20.315815 17.600273 42.825667 0.547272 1.147273 0.057691 -0.005799 539461.000000 0 0 1
-34.119667 -19.153615 17.974973 43.059404 0.511527 1.140164 0.069865 -0.001999 131255.000000 0 0 1
-34.392778 -19.117215 19.504973 43.917821 0.507323 1.110600 0.048382 -0.011929 -376735.000000 0 0 1
-35.473262 -19.954415 19.864173 45.289252 0.512405 1.116749 0.041449 -0.003537 17693.700000 0 0 1
-36.070854 -19.357415 20.988573 46.003654 0.492536 1.097034 0.043242 0.004071 -854350.000000 0 0 1
35.422848 -19.992415 21.252473 45.892727 -0.513826 1.089318 0.041503 0.010568 -741736.000000 0 0 1
35.380338 -21.366215 21.585573 46.628536 -0.543283 1.089503 0.040016 -0.000051 -480287.000000 0 0 1
36.095668 -21.769415 22.703873 47.877662 -0.542698 1.076734 0.021532 0.012396 -438891.000000 0 0 1
35.767108 -23.144815 23.317673 48.566267 -0.574332 1.070004 0.024352 0.012816 -743723.000000 0 0 1
34.626578 -23.179515 24.076173 48.124338 -0.589902 1.046862 0.046091 -0.000313 -829873.000000 0 0 1
34.230468 -24.458715 24.489173 48.679290 -0.620412 1.043647 0.045138 -0.012628 155524.000000 0 0 1
33.179008 -24.393815 25.627873 48.504563 -0.633974 1.014129 0.047492 -0.017328 1049960.000000 0 0 1
31.781008 -24.224415 25.374473 47.336229 -0.651282 1.005048 0.058435 -0.018488 891305.000000 0 0 1
31.034638 -24.367215 26.584173 47.577601 -0.665628 0.977914 0.059794 -0.018249 393005.000000 0 0 1
29.555908 -24.762615 26.435773 46.750282 -0.697382 0.969796 0.049779 -0.023331 162891.000000 0 0 1
28.612528 -23.844615 25.944273 45.391053 -0.694756 0.962375 0.057353 -0.019504 854525.000000 0 0 1
27.286988 -24.411015 25.873873 44.832295 -0.729825 0.955592 0.050619 -0.009862 1280760.000000 0 0 1
26.139288 -23.402415 25.580273 43.419877 -0.730210 0.940805 0.039954 -0.011982 -112834.000000 0 0 1
25.965888 -22.835415 24.247273 42.232851 -0.721339 0.959252 0.053119 -0.011368 -78495.800000 0 0 1
27.074388 -22.201515 23.627673 42.239752 -0.686829 0.977170 0.052216 -0.011345 -17406.200000 0 0 1
26.751888 -21.717915 22.185473 40.982027 -0.681911 0.998759 0.060256 -0.014808 6871.170000 0 0 1
26.217388 -20.435715 22.231073 39.989880 -0.662098 0.981330 0.053414 -0.014133 -191754.000000 0 0 1
26.156588 -19.877815 20.908973 38.942005 -0.649842 1.004007 0.040457 -0.007321 458270.000000 0 0 1
25.250088 -18.562315 20.797673 37.612095 -0.633922 0.984894 0.047514 -0.004337 371248.000000 0 0 1
25.741788 -17.414015 21.429373 37.750571 -0.594771 0.967139 0.050660 -0.017525 -51945.400000 0 0 1
25.895488 -17.425715 22.851573 38.683669 -0.592323 0.938834 0.050930 -0.009354 -69112.900000 0 0 1
25.891388 -15.978215 23.458973 38.418625 -0.552916 0.913960 0.062052 -0.000916 117505.000000 0 0 1
24.654488 -15.299715 23.260473 37.188367 -0.555404 0.895053 0.025005 -0.004834 45028.900000 0 0 1
24.502088 -14.124615 24.064473 37.134295 -0.522935 0.865790 0.017190 -0.003919 -530570.000000 0 0 1
23.222388 -13.317215 23.996473 35.950775 -0.520680 0.839975 0.008589 -0.005115 -1034730.000000 0 0 1
22.113788 -14.015815 24.444273 35.818782 -0.564906 0.819697 0.026810 -0.000328 -380214.000000 0 0 1
20.952588 -13.378815 23.914773 34.495217 -0.568268 0.804769 0.035677 0.003564 1268400.000000 0 0 1
19.553588 -14.043815 24.248273 34.169435 -0.622851 0.781798 0.051981 -0.001075 1015080.000000 0 0 1
19.292388 -15.203515 23.512273 34.002501 -0.667417 0.807251 0.059517 -0.007079 483339.000000 0 0 1
18.017688 -15.735415 23.911173 33.822841 -0.717884 0.785615 0.052941 0.005149 690516.000000 0 0 1
17.566888 -16.930715 23.076873 33.582536 -0.766959 0.813211 0.044124 -0.009874 -465948.000000 0 0 1
18.411288 -18.039915 23.240773 34.706593 -0.775210 0.837078 0.033468 -0.010209 -10379.300000 0 0 1
18.151288 -19.059215 22.321473 34.510449 -0.809793 0.867411 0.043453 -0.015945 35204.500000 0 0 1
18.655988 -20.411915 22.889873 35.897610 -0.830313 0.879361 0.038872 -0.010868 -260196.000000 0 0 1
17.821888 -20.745815 23.995073 36.383678 -0.861066 0.850642 0.048583 -0.014820 372802.000000 0 0 1
18.196388 -21.949915 24.657373 37.694739 -0.878623 0.857761 0.060018 -0.020556 -240295.000000 0 0 1
17.864588 -23.273315 23.856273 37.814183 -0.916126 0.888107 0.050604 -0.017386 259485.000000 0 0 1
18.480788 -23.513615 22.568073 37.466619 -0.904674 0.924353 0.051166 -0.008743 -259010.000000 0 0 1
19.778188 -24.037215 22.609473 38.472752 -0.882298 0.942614 0.047226 -0.016214 -594496.000000 0 0 1
20.327888 -24.174415 21.177673 38.027874 -0.871618 0.980149 0.047881 -0.012189 -390825.000000 0 0 1
19.717488 -25.094715 20.339873 37.844874 -0.904822 1.003381 0.057515 -0.014235 94203.800000 0 0 1
20.524488 -25.248515 19.181573 37.771350 -0.888240 1.038128 0.050146 -0.000534 380769.000000 0 0 1
19.718288 -25.929015 18.069073 37.250719 -0.920627 1.064357 0.043378 -0.005751 240237.000000 0 0 1
19.239488 -27.237115 18.463473 38.117164 -0.955808 1.065134 0.064568 -0.013599 -196826.000000 0 0 1
18.398088 -27.757015 17.466973 37.603679 -0.985457 1.087724 0.061943 -0.013524 -248344.000000 0 0 1
17.696788 -29.036815 18.104673 38.523916 -1.023450 1.081552 0.062244 -0.012665 -110263.000000 0 0 1
16.522988 -28.571615 18.717273 37.943150 -1.046485 1.054919 0.063589 -0.015582 -242941.000000 0 0 1
15.654688 -29.616115 19.137173 38.579981 -1.084542 1.051765 0.067012 -0.022188 74157.600000 0 0 1
14.511088 -29.129815 20.035973 38.217247 -1.108628 1.018944 0.054963 -0.017767 30329.900000 0 0 1
13.578988 -28.362215 19.286373 36.888594 -1.124276 1.020632 0.061185 -0.011913 -680224.000000 0 0 1
12.317688 -28.284215 19.879973 36.700621 -1.160068 0.998363 0.036092 -0.008037 110151.000000 0 0 1
11.291788 -27.868115 18.744373 35.432864 -1.185827 1.013362 0.041412 -0.014436 -102997.000000 0 0 1
11.078788 -28.860715 17.782773 35.663811 -1.204271 1.048788 0.045556 -0.019836 91312.700000 0 0 1
10.662688 -28.310915 16.535573 34.476456 -1.210599 1.070576 0.048783 -0.022606 -50118.300000 0 0 1
10.382388 -29.492115 15.538573 34.914554 -1.232306 1.109571 0.053407 -0.017769 -56369.600000 0 0 1
9.215288 -30.249415 15.777273 35.339369 -1.275085 1.108002 0.050011 -0.018034 42176.500000 0 0 1
9.061188 -31.095915 14.658873 35.551985 -1.287253 1.145795 0.046490 -0.012283 -60480.600000 0 0 1
7.811888 -31.992315 14.611073 36.028007 -1.331303 1.153218 0.041395 -0.018020 -410743.000000 0 0 1
7.886188 -33.102415 15.513273 37.398175 -1.336920 1.143058 0.049452 -0.017199 240952.000000 0 0 1
6.844388 -34.014615 15.190573 37.876024 -1.372229 1.158122 0.056097 -0.009715 45323.400000 0 0 1
6.951388 33.114602 16.116073 37.478346 1.363882 1.126292 0.050323 -0.013614 -776320.000000 0 0 1
8.104888 32.354102 16.068873 37.022774 1.325342 1.121839 0.041760 -0.015047 -727118.000000 0 0 1
8.073688 31.557102 17.220573 36.845396 1.320325 1.084479 0.040629 -0.018534 578789.000000 0 0 1
9.369088 30.674202 17.374073 36.476634 1.274357 1.074347 0.041094 -0.021043 411970.000000 0 0 1
9.581388 29.763202 16.298573 35.260383 1.259352 1.090283 0.043483 -0.011486 -239195.000000 0 0 1
10.706088 28.950602 16.590973 35.043088 1.216588 1.077599 0.044833 -0.018369 141815.000000 0 0 1
11.441288 28.441902 15.343073 34.281988 1.188336 1.106767 0.049108 -0.020435 -21219.000000 0 0 1
10.639288 27.572002 14.591473 32.959381 1.202528 1.112177 0.058256 -0.021441 83524.200000 0 0 1
11.438288 27.022302 13.548673 32.320361 1.170374 1.138233 0.050893 -0.013652 218998.000000 0 0 1
-9.244234 -8.779798 19.393573 23.208864 0.759636 0.581553 0.011914 -0.015376 -237150.000000 0 1 0
-9.614534 -8.926298 18.036673 22.303354 0.748295 0.628861 0.018382 -0.016548 -68188.400000 0 1 0
-9.632834 -10.320598 17.732573 22.666062 0.819853 0.672382 0.020684 -0.022612 -214693.000000 0 1 0
-10.023734 -10.655298 16.243173 21.859809 0.815930 0.733164 0.031387 -0.020899 472817.000000 0 1 0
-11.411334 -10.547398 15.932373 22.255486 0.746075 0.772905 0.040437 -0.023462 483926.000000 0 1 0
-11.877934 -11.082598 14.687273 21.900349 0.750773 0.835724 0.056669 -0.022153 178881.000000 0 1 0
-11.718234 -12.595498 14.427973 22.452839 0.821464 0.872922 0.038673 -0.020917 74559.400000 0 1 0
-10.451534 -12.893398 13.835173 21.607551 0.889619 0.875916 0.044280 -0.027471 501763.000000 0 1 0
-10.055934 -14.300498 13.794273 22.268992 0.957934 0.902769 0.034814 -0.024467 -47694.800000 0 1 0
-9.617234 -14.985698 15.105673 23.350454 1.000235 0.867269 0.038204 -0.024214 -201673.000000 0 1 0
-10.654534 -15.222398 16.035073 24.543106 0.960121 0.858804 0.057022 -0.005334 -269622.000000 0 1 0
-10.186834 -15.554098 17.355073 25.434231 0.990964 0.819822 0.047957 -0.007157 34227.500000 0 0 1
-11.201034 -15.225698 18.514873 26.459130 0.936532 0.795744 0.042262 0.001428 -24149.000000 0 0 1
-11.491234 -13.862598 18.657073 25.928873 0.878658 0.767645 0.041964 -0.002114 207941.000000 0 0 1
-12.578134 -13.477398 17.809273 25.632399 0.819898 0.802661 0.046169 -0.015175 562724.000000 0 0 1
-13.972934 -13.538298 18.528873 26.867220 0.769601 0.809796 0.023263 -0.005271 202396.000000 0 0 1
-14.441334 -14.833198 18.740773 27.924764 0.798783 0.835082 0.030125 -0.000862 -567259.000000 0 0 1
-15.285334 -14.855598 19.841773 29.120889 0.771142 0.821179 0.034735 -0.000784 -382751.000000 0 0 1
-15.823234 -16.263498 20.153973 30.348949 0.799118 0.844541 0.051898 -0.005468 696490.000000 0 0 1
-17.018734 -16.552298 19.378373 30.645345 0.771505 0.886222 0.056297 0.000064 906082.000000 0 0 1
-17.530334 -17.767498 19.902373 31.923362 0.792117 0.897659 0.042159 -0.003645 165536.000000 0 0 1
-18.938934 -18.184498 19.394973 32.642367 0.765079 0.934568 0.052192 -0.003910 58036.300000 0 0 1
-19.006034 -18.535498 18.050973 32.103452 0.772865 0.973662 0.052749 -0.011491 123388.000000 0 0 1
-19.480034 -17.474498 17.217873 31.325468 0.731181 0.988858 0.046817 -0.020360 -365748.000000 0 0 1
-18.953334 -17.535498 15.735173 30.237695 0.746561 1.023497 0.048556 -0.028648 -415802.000000 0 0 1
-19.414034 -18.608698 15.013473 30.799232 0.764221 1.061615 0.050845 -0.025766 -14375.300000 0 0 1
-19.189134 -18.399398 13.623673 29.872482 0.764391 1.097232 0.048161 -0.030829 29749.900000 0 0 1
-19.478734 -19.599498 12.749473 30.432063 0.788488 1.138509 0.063994 -0.019724 -162671.000000 0 0 1
-18.549134 -20.632998 12.969673 30.626841 0.838532 1.133520 0.057855 -0.011360 -103083.000000 0 0 1
-18.650034 -21.728498 12.070673 31.074950 0.861491 1.171861 0.043987 -0.008605 -501755.000000 0 0 1
-17.879734 -22.949498 12.579373 31.695504 0.908936 1.162679 0.034051 -0.010486 -159140.000000 0 0 1
-17.983034 -24.060098 11.692873 32.233540 0.928948 1.199574 0.051527 -0.015132 660746.000000 0 0 1
-16.875134 -24.178798 10.774573 31.392289 0.961460 1.220450 0.040288 -0.014126 314040.000000 0 0 1
-16.861634 -25.493488 9.853373 32.114196 0.986442 1.258943 0.046349 -0.019466 251877.000000 0 0 1
-18.087434 -25.581948 9.113273 32.628869 0.955362 1.287730 0.046395 -0.017040 430527.000000 0 0 1
-18.001234 -26.622728 8.227773 33.173940 0.976250 1.320161 0.070133 -0.023891 1113680.000000 0 0 1
-19.286934 -26.636338 7.270673 33.680009 0.944089 1.353208 0.058187 -0.028712 1217820.000000 0 0 1
-19.182034 -25.687148 6.227873 32.658328 0.929375 1.378923 0.063077 -0.033569 306921.000000 0 0 1
-20.243134 -25.750048 5.263073 33.174529 0.904564 1.411475 0.070235 -0.028296 463597.000000 0 0 1
-20.320334 -24.463298 4.433673 32.109599 0.877646 1.432274 0.072035 -0.033966 547678.000000 0 0 1
-21.431334 -24.290498 3.532973 32.585461 0.847851 1.462161 0.079454 -0.037444 566739.000000 0 0 1
-21.424434 -23.002498 2.936573 31.571265 0.820904 1.477648 0.075952 -0.024860 155622.000000 0 0 1
-22.174534 -23.056898 1.579573 32.028512 0.804903 1.521459 0.071137 -0.022362 -278375.000000 0 0 1
-21.439934 -23.607798 0.557473 31.895292 0.833485 1.553317 0.060200 -0.030816 -91384.000000 0 0 1
-22.127634 -23.520398 -0.667927 32.299960 0.815900 1.591477 0.069169 -0.028975 -647096.000000 0 0 1
-21.366034 -24.229398 -1.752927 32.351876 0.848115 1.625006 0.072734 -0.028055 -1395230.000000 0 0 1
-20.121334 -23.619798 -1.944627 31.089299 0.865209 1.633387 0.067616 -0.025403 -109725.000000 0 0 1
-19.328834 -24.157598 -3.003127 31.083953 0.895986 1.667561 0.056439 -0.018438 345094.000000 0 0 1
-18.901634 -25.671258 -2.917127 32.012418 0.936124 1.662048 0.074112 -0.018961 -580384.000000 0 0 1
-19.977534 -26.576728 -3.172927 33.398979 0.926213 1.665941 0.081640 -0.019306 50743.500000 0 0 1
-19.570034 -27.886338 -3.610927 34.258909 0.958878 1.676394 0.081458 -0.012908 -321683.000000 0 0 1
-20.685534 -28.689648 -4.291427 35.628690 0.946108 1.691538 0.075127 -0.016343 -32554.100000 0 0 1
-20.974134 -28.278288 -5.622127 35.653670 0.932626 1.729144 0.054043 -0.010519 19077.500000 0 0 1
-21.989734 -29.007978 -6.280527 36.938546 0.922158 1.741653 0.059156 -0.018683 -136276.000000 0 0 1
-22.409534 -28.398378 -7.616227 36.968392 0.902729 1.778302 0.042220 -0.002138 -261118.000000 0 0 1
-21.391834 -28.274798 -8.578627 36.478317 0.923104 1.808190 0.053743 -0.002254 243858.000000 0 0 1
-21.923034 -28.299368 -9.952527 37.155436 0.911684 1.841970 0.044265 -0.000622 77834.600000 0 0 1
-22.762934 -27.089788 -10.444027 36.892892 0.871974 1.857811 0.037580 0.011126 -227952.000000 0 0 1
-22.187134 -25.813768 -10.781727 35.705254 0.860808 1.877549 0.034289 0.019125 12485.200000 0 0 1
-21.645134 -25.076538 -9.670427 34.508865 0.858710 1.854830 0.022586 0.017783 29978.000000 0 0 1
-21.396034 -23.556798 -9.922627 33.334240 0.833429 1.873048 0.012140 0.014987 401751.000000 0 0 1
-22.565234 -22.832998 -10.318627 33.719574 0.791296 1.881799 0.018048 0.014043 381772.000000 0 0 1
-22.312534 -21.444398 -10.531827 32.689918 0.765561 1.898821 0.033682 0.017885 406222.000000 0 0 1
-23.627834 -20.619198 -10.651027 33.119031 0.717506 1.898213 0.049609 0.015617 -147870.000000 0 0 1
-24.304534 -20.760498 -11.881327 34.100947 0.706917 1.926677 0.050403 0.011626 -260002.000000 0 0 1
-25.538084 -20.132198 -11.992027 34.659888 0.667579 1.924092 0.058528 0.002925 -493482.000000 0 0 1
-25.536984 -18.625098 -11.926027 33.782569 0.630146 1.931597 0.065413 -0.005518 -867327.000000 0 0 1
-24.704734 -18.139698 -12.997927 33.291420 0.633351 1.971894 0.078679 -0.004713 698376.000000 0 0 1
-24.485434 -16.746998 -12.886627 32.342906 0.599878 1.980609 0.075235 -0.014419 452100.000000 0 0 1
-23.472734 -16.203098 -11.810027 30.870477 0.604182 1.963369 0.071170 -0.009038 -484526.000000 0 0 1
-24.094734 -16.259698 -10.525827 30.914835 0.593629 1.918222 0.080323 -0.008021 865518.000000 0 0 1
-23.234734 -16.134998 -9.374627 29.800581 0.606981 1.890809 0.073465 -0.007010 69036.200000 0 0 1
-24.052334 -16.531698 -8.138927 30.299405 0.602166 1.842753 0.065156 -0.008494 62516.300000 0 0 1
-24.296934 -17.907898 -8.058227 31.240500 0.635157 1.831688 0.061946 -0.004767 -80009.900000 0 0 1
-25.464664 -18.147598 -7.336827 32.118740 0.619171 1.801259 0.066905 -0.001270 -290643.000000 0 0 1
-25.589794 -19.617798 -6.938327 32.982358 0.654057 1.782744 0.067441 0.007966 27033.000000 0 0 1
-25.604064 -20.633798 -7.912627 33.822055 0.678316 1.806934 0.058583 -0.003770 193317.000000 0 0 1
-25.944804 -21.897998 -7.426127 34.753454 0.701014 1.786137 0.061892 0.007360 -165641.000000 0 0 1
-25.479204 -22.990298 -8.351027 35.319730 0.734093 1.809498 0.053715 0.015789 -603.331000 0 0 1
-25.904534 -24.309098 -7.945727 36.402084 0.753636 1.790845 0.049828 0.013410 -234232.000000 0 0 1
-25.448444 -25.396888 -8.749427 37.002401 0.784384 1.809513 0.031321 0.022082 -22871.300000 0 0 1
-26.129524 -26.780688 -8.401327 38.347615 0.797705 1.791671 0.046448 0.003265 99026.200000 0 0 1
-25.930034 -27.236048 -7.086627 38.267339 0.809958 1.757059 0.057606 -0.011281 133334.000000 0 0 1
-26.476824 -28.542518 -6.956327 39.548553 0.822925 1.747610 0.067355 -0.012713 -6126.360000 0 0 1
-26.303824 -29.227178 -5.596427 39.716987 0.837993 1.712174 0.081498 -0.015417 207658.000000 0 0 1
-27.144114 -28.553228 -4.664327 39.671724 0.810692 1.688642 0.052669 -0.017700 306520.000000 0 0 1
-26.652294 -28.683968 -3.323427 39.295801 0.822097 1.655472 0.048424 -0.016460 -28565.600000 0 0 1
-26.923804 -30.074768 -2.631227 40.451282 0.840623 1.635889 0.050405 0.001018 278135.000000 0 0 1
-26.033964 -31.060088 -3.206027 40.654335 0.873204 1.649739 0.088291 -0.015375 474048.000000 0 0 1
-26.139724 -32.299968 -2.484027 41.626236 0.890422 1.630506 0.087549 -0.017329 -405275.000000 0 0 1
-25.216734 -32.356518 -1.280627 41.042270 0.908780 1.602004 0.094452 -0.013943 -557323.000000 0 0 1
-23.899934 -32.132588 -1.725527 40.083507 0.931281 1.613858 0.096595 -0.024461 -845688.000000 0 0 1
-22.974734 -32.172028 -0.697727 39.539406 0.950656 1.588444 0.091026 -0.014380 298538.000000 0 0 1
-21.946934 -30.980678 -0.665427 37.972531 0.954450 1.588321 0.094889 -0.010245 601104.000000 0 0 1
-22.549534 -29.732958 -0.264427 37.317559 0.921940 1.577882 0.088976 -0.021810 135390.000000 0 0 1
-23.011334 -28.996628 -1.392827 37.044107 0.899978 1.608404 0.097789 -0.029992 25307.200000 0 0 1
-23.669034 -27.624048 -1.094927 36.393819 0.862352 1.600886 0.060082 -0.024750 24130.400000 0 0 1
-24.884734 -27.686468 -0.396427 37.228318 0.838642 1.581445 0.078777 -0.024844 -115244.000000 0 0 1
-25.596524 -26.474028 -0.124927 36.824880 0.802249 1.574189 0.080891 -0.030236 386910.000000 0 0 1
-25.120134 -25.549028 1.045473 35.845041 0.793863 1.541626 0.090668 -0.023795 -257639.000000 0 0 1
-25.231424 -26.089378 2.368573 36.371562 0.802114 1.505629 0.073587 -0.020272 -143019.000000 0 0 1
-24.818134 -25.250398 3.412473 35.569191 0.794031 1.474710 0.093127 -0.026646 25288.300000 0 0 1
-25.850454 -24.164598 3.805673 35.590124 0.751704 1.463661 0.100142 -0.025622 -378619.000000 0 0 1
-25.898284 -23.059498 2.936973 34.800681 0.727479 1.486302 0.100290 -0.028120 -210693.000000 0 0 1
-26.814294 -22.041898 3.223073 34.860290 0.688025 1.478207 0.084807 -0.026140 -453996.000000 0 0 1
-26.623154 -20.821798 2.435673 33.886164 0.663727 1.498856 0.080775 -0.020450 -951355.000000 0 0 1
-25.378344 -20.296698 2.642473 32.603665 0.674597 1.489659 0.074861 -0.017817 -1038220.000000 0 0 1
-25.036664 -19.363598 1.576873 31.690219 0.658316 1.521017 0.058720 -0.014724 -527138.000000 0 0 1
-23.733334 -18.592498 1.746773 30.199393 0.664532 1.512923 0.079682 -0.008194 -1311270.000000 0 0 1
-22.686934 -19.474898 1.569373 29.940467 0.709362 1.518356 0.077232 -0.012628 -1269930.000000 0 0 1
-21.526834 -18.803498 1.988073 28.651851 0.717975 1.501353 0.063443 -0.005442 -256551.000000 0 0 1
-20.260134 -19.676498 1.778173 28.298401 0.770785 1.507918 0.048824 -0.021010 -205744.000000 0 0 1
-19.779834 -19.816198 0.444473 28.002162 0.786317 1.554923 0.040466 -0.012971 531492.000000 0 0 1
-18.673934 -20.720798 0.381173 27.896462 0.837309 1.557132 0.041489 -0.007628 371802.000000 0 0 1
-18.310834 -20.990898 -1.035127 27.874288 0.853485 1.607940 0.039767 -0.013145 -69452.300000 0 0 1
-17.940434 -19.861598 -1.798027 26.824898 0.836176 1.637875 0.044262 -0.016790 16042.700000 0 0 1
-17.619434 -20.332598 -3.087127 27.081162 0.856766 1.685040 0.050268 -0.010966 114264.000000 0 0 1
-17.053734 -19.250998 -4.053527 26.035780 0.845847 1.727123 0.055387 -0.008259 -489183.000000 0 0 1
-15.696134 -18.983998 -3.965927 24.949737 0.879921 1.730430 0.073713 -0.021930 -827699.000000 0 1 0
-15.208934 -18.306698 -5.073827 24.334966 0.877564 1.780837 0.080041 -0.015025 879417.000000 0 1 0
-13.644534 -18.114198 -5.085827 23.241410 0.925218 1.791408 0.092757 -0.023636 1321740.000000 0 1 0
-12.871934 -19.318498 -5.329127 23.817864 0.983047 1.796452 0.068927 -0.022302 809168.000000 0 1 0
-11.524634 -19.069298 -5.715727 23.002714 1.027180 1.821908 0.059185 -0.028111 219960.000000 0 1 0
-10.570534 -20.230998 -5.699727 23.526929 1.089317 1.815495 0.058959 -0.030657 -165331.000000 0 1 0
-10.891534 -21.247898 -6.665427 24.789647 1.097125 1.843026 0.055804 -0.023888 134015.000000 0 1 0
-9.708834 -21.872298 -7.159227 24.978259 1.153037 1.861492 0.058163 -0.018266 282835.000000 0 1 0
-9.964634 -23.190998 -7.927527 26.456795 1.164971 1.875112 0.065609 -0.014311 -447420.000000 0 0 1
-10.607234 -22.910298 -9.140627 26.850442 1.137193 1.918168 0.052917 -0.004417 -77581.900000 0 0 1
-10.629234 -24.034798 -9.928827 28.093304 1.154411 1.932024 0.067257 -0.004564 -83295.300000 0 0 1
-11.333934 -23.668598 -11.244427 28.549917 1.124204 1.975614 0.078123 -0.006941 -89611.100000 0 0 1
-10.631234 -22.796598 -12.135127 27.927931 1.134428 2.020297 0.058328 -0.001837 -187370.000000 0 0 1
-11.445434 -22.365098 -13.219927 28.389471 1.097790 2.055180 0.063639 -0.012207 -484785.000000 0 0 1
-10.899534 -21.248698 -14.114027 27.740093 1.096842 2.104581 0.035338 0.006165 -275861.000000 0 0 1
-10.633734 -20.029198 -13.497027 26.389673 1.082726 2.107669 0.030218 0.008024 -221135.000000 0 0 1
-10.561534 -18.961498 -14.440827 26.069559 1.062596 2.157879 0.016723 0.019917 39124.500000 0 0 1
-10.226234 -17.636898 -13.708627 24.567509 1.045347 2.162768 0.031305 0.009754 -733929.000000 0 1 0
-11.247634 -17.215798 -12.842427 24.245018 0.992082 2.129035 0.035729 0.004274 -93646.300000 0 1 0
-10.789234 -16.289598 -11.833927 22.842951 0.985796 2.115373 0.038632 -0.001303 442779.000000 0 1 0
-10.203534 -14.852498 -12.170227 21.744499 0.968855 2.164811 0.032566 -0.001696 525595.000000 0 1 0
-11.171134 -13.912798 -12.623927 21.856892 0.894266 2.186548 0.029994 0.000517 164698.000000 0 1 0
-11.131034 -13.834098 -14.029327 22.629720 0.893252 2.239477 0.030437 -0.000518 -667671.000000 0 1 0
-12.440834 -13.332598 -14.599527 23.359767 0.819985 2.245910 0.027154 -0.004055 -695555.000000 0 1 0
-12.709034 -11.983598 -14.324327 22.590098 0.756028 2.257637 0.034513 0.006510 -336605.000000 0 1 0
-13.817134 -11.428698 -14.980827 23.365648 0.691072 2.266789 0.053532 -0.010095 -187187.000000 0 1 0
-14.049934 -9.981798 -14.422727 22.473362 0.617706 2.267600 0.051422 -0.013188 -397805.000000 0 1 0
-13.032434 -9.076998 -14.687627 21.632444 0.608368 2.317145 0.044023 -0.003619 -235501.000000 0 1 0
-13.094334 -8.390998 -15.945427 22.273910 0.569889 2.368679 0.046637 -0.007239 -213761.000000 0 1 0
-12.174834 -7.161198 -15.963927 21.315635 0.531695 2.417243 0.044940 0.000042 174147.000000 0 1 0
-10.818934 -7.465598 -16.261327 20.909693 0.604016 2.461784 0.038069 0.001109 -78190.700000 0 1 0
-10.069734 -6.333898 -15.978327 19.920461 0.561473 2.501610 0.035220 0.005420 -151051.000000 0 1 0
11.243266 22.333102 15.982973 29.675476 1.104404 1.002031 0.086329 -0.012996 25894.100000 0 0 1
12.312266 22.253302 16.936773 30.555779 1.065440 0.983286 0.093438 -0.018118 444714.000000 0 0 1
12.751666 20.908702 17.107073 29.873579 1.023148 0.961063 0.080183 -0.012893 -327468.000000 0 0 1
13.747166 20.669302 18.231673 30.799326 0.983879 0.937320 0.075398 -0.017981 1029450.000000 0 0 1
15.044566 21.239402 17.859673 31.566106 0.954500 0.969410 0.065204 -0.013056 970952.000000 0 0 1
16.003766 21.023602 18.870773 32.468730 0.920148 0.950596 0.060533 -0.013809 -10266.800000 0 0 1
17.421666 21.390702 18.382773 33.151213 0.887306 0.983019 0.055026 0.000250 -1245560.000000 0 0 1
17.627866 22.784702 18.198773 34.074618 0.912317 1.007370 0.060451 -0.006159 349321.000000 0 0 1
18.935966 23.124702 17.762073 34.768001 0.884659 1.034595 0.051764 -0.008462 808233.000000 0 0 1
20.213866 22.710602 18.541073 35.610998 0.843498 1.023177 0.041781 -0.010776 -468533.000000 0 0 1
20.535466 21.345602 18.306673 34.820602 0.804739 1.017209 0.042159 -0.005081 -128909.000000 0 0 1
21.810566 21.003402 18.790273 35.635909 0.766548 1.015394 0.044411 -0.008883 -242913.000000 0 0 1
22.127866 19.535202 18.552173 34.863300 0.723249 1.009670 0.030777 -0.007646 -266868.000000 0 0 1
22.288866 19.117302 17.200373 34.031127 0.708951 1.040915 0.017511 -0.001236 44944.700000 0 0 1
21.930966 17.798902 16.866573 32.897560 0.681767 1.032470 0.017437 0.005343 -639673.000000 0 0 1
22.821866 16.684102 17.335773 33.162115 0.631267 1.020713 0.027950 0.000804 197465.000000 0 0 1
24.070066 16.593402 16.603173 33.621041 0.603562 1.054304 0.033355 -0.010045 831331.000000 0 0 1
24.872866 15.583802 17.244973 34.042671 0.559705 1.039595 0.016371 -0.000350 -337717.000000 0 0 1
26.202866 15.556502 16.428173 34.619067 0.535770 1.076354 0.087278 -0.020385 87201.900000 0 0 1
27.059766 16.686702 16.763873 35.940289 0.552580 1.085538 0.061293 -0.018625 727675.000000 0 0 1
28.080166 16.497302 17.734173 37.083117 0.531183 1.072161 0.071052 -0.024387 569654.000000 0 0 1
29.358266 15.772302 17.168173 37.488924 0.492990 1.095105 0.089950 -0.038647 -162418.000000 0 0 1
30.255066 16.572502 16.426673 38.208015 0.501121 1.126384 0.121760 -0.033079 331088.000000 0 0 1
31.086966 15.714702 15.623573 38.176529 0.468044 1.149169 0.109285 -0.030134 365490.000000 0 0 1
30.414666 15.412102 14.205873 36.937672 0.469019 1.176032 0.075229 -0.028691 -126321.000000 0 0 1
30.562666 16.410702 13.202573 37.117322 0.492771 1.207135 0.083214 -0.016612 -558421.000000 0 0 1
29.842666 16.118902 12.020973 35.984823 0.495233 1.230192 0.067408 -0.013817 -369132.000000 0 0 1
28.345866 16.451602 11.956273 34.886900 0.525874 1.220991 0.049983 -0.019222 -512764.000000 0 0 1
27.953466 17.797802 11.914173 35.215132 0.566964 1.225660 0.032536 -0.011380 62042.100000 0 0 1
28.363666 18.637102 12.989173 36.339479 0.581334 1.205271 0.047996 -0.017726 452313.000000 0 0 1
27.351566 18.506902 14.225173 35.957880 0.594869 1.164068 0.030436 -0.014635 1515160.000000 0 0 1
26.088366 19.203202 14.186873 35.364292 0.634535 1.158009 0.031663 -0.004885 1002370.000000 0 0 1
25.452866 19.259202 15.477573 35.472814 0.647751 1.119289 0.026646 -0.007723 -162153.000000 0 0 1
26.173066 20.087602 16.523473 36.899408 0.654602 1.106495 0.044025 -0.020412 -607408.000000 0 0 1
26.036166 21.492302 16.410273 37.537955 0.690085 1.118352 0.029335 -0.017563 307281.000000 0 0 1
24.836766 22.134902 16.846573 37.291096 0.727940 1.102061 0.017541 -0.010920 105832.000000 0 0 1
24.784466 23.608702 16.489173 37.993860 0.761107 1.121873 0.021442 -0.002722 -193553.000000 0 0 1
24.827866 23.847402 15.100073 37.591671 0.765258 1.157438 0.042521 -0.018670 273656.000000 0 0 1
24.890366 25.241802 14.820173 38.422863 0.792408 1.174817 0.056288 -0.021500 -361135.000000 0 0 1
24.755866 25.598902 13.281973 38.007466 0.802139 1.213805 0.062535 -0.023043 -339573.000000 0 0 1
23.524666 25.293702 12.694273 36.801166 0.821619 1.218619 0.064553 -0.015150 -118920.000000 0 0 1
23.399066 25.741102 11.344473 36.589858 0.833022 1.255557 0.064575 -0.026743 237582.000000 0 0 1
22.613066 24.812202 10.310973 35.118546 0.831736 1.272801 0.069788 -0.028115 1311370.000000 0 0 1
21.199166 24.656102 10.601373 34.201127 0.860644 1.255633 0.078009 -0.022700 1016580.000000 0 0 1
20.830166 23.410302 11.171073 33.267566 0.843653 1.228348 0.072215 -0.025060 -140994.000000 0 0 1
20.524266 22.222002 10.176473 31.915881 0.825094 1.246277 0.089594 -0.029192 1140840.000000 0 0 1
19.346266 22.352702 9.286573 30.986476 0.857372 1.266421 0.096405 -0.027977 1427760.000000 0 0 1
19.536466 23.347202 8.297373 31.553316 0.874028 1.304704 0.082107 -0.022982 -74374.100000 0 0 1
18.391166 23.544802 7.259073 30.745517 0.907678 1.332444 0.077087 -0.023200 -601049.000000 0 0 1
18.244766 22.437402 6.382873 29.615022 0.888094 1.353564 0.083767 -0.019763 248907.000000 0 0 1
17.702366 22.617802 5.065473 29.165009 0.906710 1.396228 0.077612 -0.020821 -1079790.000000 0 0 1
16.338166 23.257202 4.932773 28.847276 0.958395 1.398956 0.069481 -0.005239 -1093960.000000 0 0 1
16.338166 24.641602 5.284273 30.034443 0.985314 1.393935 0.068197 -0.015407 320519.000000 0 0 1
14.986766 25.010902 5.518473 29.674937 1.030958 1.383743 0.050451 -0.011212 278606.000000 0 0 1
14.776166 26.552802 5.436473 30.869752 1.062990 1.393763 0.047321 -0.015137 -252703.000000 0 0 1
14.857166 26.960202 4.069773 31.050780 1.067126 1.439350 0.047996 -0.015602 293871.000000 0 0 1
14.714166 28.350102 3.989173 32.189260 1.092052 1.446548 0.055362 -0.022562 -363362.000000 0 0 1
14.115466 28.752002 2.614773 32.136599 1.114424 1.489342 0.061184 -0.022560 81018.700000 0 0 1
14.848666 28.262302 1.454173 31.958648 1.087045 1.525279 0.083830 -0.028937 202411.000000 0 0 1
14.394866 27.027402 0.921273 30.635622 1.081408 1.540720 0.075019 -0.023430 -38136.600000 0 0 1
15.312066 26.423002 -0.166127 30.539515 1.045589 1.576236 0.078777 -0.024589 101701.000000 0 0 1
15.145066 27.098302 -1.372327 31.073691 1.061151 1.614974 0.066765 -0.009950 -915466.000000 0 0 1
16.286266 27.003902 -2.127527 31.606638 1.028095 1.638160 0.062444 -0.007542 -761579.000000 0 0 1
16.244566 27.563102 -3.582427 32.193855 1.038238 1.682304 0.076771 -0.020900 161356.000000 0 0 1
15.260566 26.958602 -4.443727 31.295332 1.055696 1.713271 0.094162 -0.023983 640.185000 0 0 1
15.548866 27.171802 -5.825827 31.843591 1.051037 1.754784 0.099854 -0.020880 -219101.000000 0 0 1
14.395066 27.005402 -6.807127 31.350385 1.081064 1.789670 0.124366 -0.039167 -137310.000000 0 0 1
14.093466 25.655902 -7.112627 30.123754 1.068470 1.809161 0.079849 -0.030589 540916.000000 0 0 1
12.836866 25.647102 -7.822527 29.727948 1.106733 1.837069 0.065083 -0.034397 959283.000000 0 0 1
12.363566 24.198102 -8.223527 28.390708 1.098442 1.864663 0.071131 -0.018712 106614.000000 0 0 1
13.216366 23.663402 -9.225327 28.631025 1.061439 1.898864 0.068245 -0.025347 268791.000000 0 0 1
12.805666 22.406002 -9.746527 27.586388 1.051575 1.931903 0.071148 -0.017054 144013.000000 0 0 1
13.301866 22.024202 -11.223227 28.070731 1.027466 1.982116 0.089919 -0.018917 271249.000000 0 0 1
12.364466 21.088902 -11.699927 27.101847 1.040510 2.017175 0.093904 -0.013898 113734.000000 0 0 1
12.507966 20.906702 -13.096227 27.659548 1.031646 2.064033 0.088177 -0.012860 352970.000000 0 0 1
13.596666 19.865902 -13.569227 27.634169 0.970602 2.084069 0.071605 -0.010422 389677.000000 0 0 1
14.868866 20.312602 -13.208827 28.428122 0.938914 2.054024 0.053677 -0.007776 -384796.000000 0 0 1
15.972966 19.604602 -13.780227 28.798797 0.887122 2.069742 0.051269 -0.005479 906516.000000 0 0 1
17.328066 20.333002 -13.603927 29.979321 0.865018 2.041796 0.039417 0.007492 -214651.000000 0 0 1
17.504166 21.553502 -14.351927 31.255833 0.888705 2.047864 0.029783 0.003662 351572.000000 0 0 1
16.553166 22.654502 -14.238027 31.463553 0.939776 2.040391 0.034658 -0.002459 370683.000000 0 0 1
17.138266 24.007502 -14.701727 32.957869 0.950821 2.033173 0.032362 -0.015489 42327.900000 0 0 1
17.379366 24.310202 -16.076427 33.933461 0.950140 2.064355 0.023344 -0.004651 460883.000000 0 0 1
16.124666 24.484202 -16.747627 33.763353 0.988417 2.089817 0.057081 -0.000550 755834.000000 0 0 1
16.075266 24.623102 -18.270927 34.619909 0.992418 2.126755 0.027946 0.012475 98661.900000 0 0 1
16.418166 23.428402 -19.001827 34.344077 0.959547 2.157091 0.031687 0.011330 -50890.500000 0 0 1
16.213366 23.531802 -20.375527 35.096739 0.967492 2.190204 0.038336 0.016069 -158077.000000 0 0 1
16.609966 22.228202 -21.086227 34.851297 0.929059 2.220605 0.041631 0.012253 680920.000000 0 0 1
15.655766 21.119702 -20.948427 33.615196 0.932895 2.243603 0.045383 0.009857 729282.000000 0 0 1
16.064466 20.061602 -21.776227 33.685888 0.895594 2.273718 0.038514 0.010285 274523.000000 0 0 1
15.125866 18.810602 -21.824427 32.541300 0.893552 2.305906 0.034742 0.006343 -377202.000000 0 0 1
14.771166 18.176402 -20.592327 31.186742 0.888386 2.292003 0.035978 0.002281 241030.000000 0 0 1
13.831266 17.159502 -20.858527 30.345191 0.892383 2.328665 0.037492 -0.001787 400571.000000 0 0 1
12.335166 17.475202 -21.126027 30.064066 0.956144 2.349982 0.051006 -0.002175 -420997.000000 0 0 1
11.536366 17.326502 -20.000327 28.867083 0.983379 2.336219 0.054109 -0.005764 1737070.000000 0 0 1
10.091466 17.441702 -20.292127 28.597571 1.046274 2.359691 0.052608 -0.009845 2205480.000000 0 0 1
9.272466 16.903202 -19.092827 27.133612 1.069057 2.351331 0.062101 -0.019905 -365127.000000 0 0 1
9.158566 15.483702 -18.971227 26.144442 1.036652 2.382748 0.064165 -0.032906 -858091.000000 0 0 1
7.917366 15.025302 -18.589827 25.179874 1.085833 2.401315 0.075996 -0.028969 -721587.000000 0 0 1
7.532866 15.167002 -17.103827 24.069128 1.109823 2.361165 0.069572 -0.034288 -179407.000000 0 1 0
7.246066 16.541702 -16.738827 24.623601 1.157926 2.318270 0.071789 -0.025241 -466955.000000 0 1 0
6.523466 16.540902 -15.562927 23.629679 1.195141 2.289777 0.063355 -0.031392 -549582.000000 0 1 0
6.166966 18.016302 -15.246927 24.394413 1.240998 2.245950 0.067333 -0.018747 -88779.200000 0 1 0
7.244366 18.898302 -14.950127 25.162133 1.204739 2.207007 0.058241 -0.021332 82430.700000 0 0 1
7.933966 19.370502 -16.101727 26.408896 1.182050 2.226489 0.066459 -0.017184 223103.000000 0 0 1
9.182866 20.254202 -15.774627 27.265300 1.145134 2.187759 0.055935 -0.002431 235541.000000 0 0 1
8.972366 21.558902 -15.233027 27.880723 1.176421 2.148813 0.052085 -0.012245 -109277.000000 0 0 1
8.753266 21.493802 -13.842227 27.022406 1.184059 2.108599 0.055202 -0.017445 -239716.000000 0 0 1
8.430366 22.861702 -13.230927 27.726989 1.217512 2.068246 0.057766 -0.018802 -245223.000000 0 0 1
7.168166 23.358502 -13.634027 27.980152 1.273043 2.079763 0.049346 -0.013718 -127359.000000 0 0 1
6.734266 24.434502 -12.818027 28.402413 1.301868 2.039019 0.040151 -0.020073 10156.200000 0 0 1
6.043066 24.178202 -11.465927 27.433038 1.325875 2.001996 0.036671 -0.019637 -738732.000000 0 0 1
6.903066 23.868502 -10.424127 26.944761 1.289266 1.968032 0.035501 -0.021948 -515371.000000 0 0 1
6.150366 23.433102 -9.319427 25.957446 1.314121 1.938022 0.053637 -0.024664 -39013.500000 0 0 1
6.913766 23.069802 -8.029527 25.386792 1.279625 1.892610 0.029802 -0.023123 70093.600000 0 0 1
7.476266 24.255502 -7.399127 26.438060 1.271807 1.854451 0.040358 -0.017974 173006.000000 0 0 1
8.560666 23.913602 -6.569727 26.235599 1.227027 1.823903 0.046590 -0.016885 -225654.000000 0 0 1
9.078566 25.157902 -5.855427 27.379306 1.224477 1.786324 0.042430 -0.015766 123980.000000 0 0 1
9.701366 26.160202 -6.707827 28.696125 1.215674 1.806733 0.049593 -0.027855 281115.000000 0 0 1
9.888266 27.364602 -5.959527 29.700424 1.224044 1.772822 0.051082 -0.018963 117152.000000 0 0 1
9.954366 28.549202 -6.915427 31.015633 1.235303 1.795652 0.049072 -0.019802 547543.000000 0 0 1
11.186166 28.614502 -7.631927 31.657011 1.198136 1.814277 0.066662 -0.030265 77525.900000 0 0 1
11.385366 29.889502 -8.183827 33.014904 1.206850 1.821291 0.066297 -0.023258 1276870.000000 0 0 1
12.836266 30.185202 -8.759827 33.950710 1.168714 1.831764 0.091545 -0.032470 2358370.000000 0 0 1
13.926166 30.154202 -7.777127 34.113014 1.138147 1.800800 0.080250 -0.026366 1089910.000000 0 0 1
14.997866 30.981902 -8.263027 35.399037 1.119962 1.806395 0.077342 -0.028845 527877.000000 0 0 1
16.175366 31.158602 -7.288627 35.855614 1.091962 1.775500 0.073682 -0.027311 54656.700000 0 0 1
16.957966 30.007102 -7.037027 35.178382 1.056410 1.772193 0.074621 -0.025053 130805.000000 0 0 1
18.071866 30.380402 -6.219027 35.892025 1.034170 1.744946 0.066673 -0.013961 215351.000000 0 0 1
19.150866 29.312302 -6.017727 35.527169 0.992077 1.741001 0.059068 -0.010741 -446731.000000 0 0 1
18.883866 28.203302 -5.120027 34.325520 0.980792 1.720516 0.074671 -0.013626 -530347.000000 0 0 1
19.935966 27.289102 -5.008827 34.164692 0.939862 1.717935 0.055912 -0.009487 -295165.000000 0 0 1
19.899766 26.203802 -6.165127 33.476092 0.921292 1.756019 0.051850 -0.005581 -142232.000000 0 0 1
20.313866 26.757302 -7.386627 34.397218 0.921440 1.787227 0.045202 -0.002476 134056.000000 0 0 1
20.132166 25.811502 -8.451127 33.807681 0.908389 1.823452 0.038958 -0.003168 -1022100.000000 0 0 1
20.719766 26.261502 -9.792427 34.854940 0.902812 1.855578 0.033995 -0.000386 2081360.000000 0 0 1
22.187366 26.162102 -9.879527 35.697897 0.867422 1.851211 0.030468 -0.000604 2073530.000000 0 0 1
22.759866 24.859402 -9.821927 35.106575 0.829460 1.854356 0.042387 -0.000013 920696.000000 0 0 1
24.352766 24.895302 -9.720027 36.156773 0.796414 1.842975 0.021358 0.007219 1485410.000000 0 0 1
24.931566 25.068402 -10.992527 37.024903 0.788135 1.872236 0.025158 0.006814 512939.000000 0 0 1
26.351866 25.164502 -10.836527 38.014515 0.762354 1.859868 0.011311 0.016760 866178.000000 0 0 1
27.202266 25.318702 -12.116127 39.087089 0.749550 1.885966 0.012471 0.014994 200678.000000 0 0 1
27.001166 26.556602 -12.812227 39.980861 0.777098 1.897010 0.009310 0.023909 -203430.000000 0 0 1
27.873966 26.592202 -13.893927 40.952954 0.761869 1.916932 0.016767 0.023450 16863.700000 0 0 1
27.398766 27.649802 -14.898227 41.679265 0.789958 1.936332 0.016639 0.014352 191072.000000 0 0 1
27.884566 28.955602 -14.579327 42.761346 0.804239 1.918720 0.014627 0.017475 86172.200000 0 0 1
27.928966 29.724402 -15.785727 43.735071 0.816530 1.940072 0.038636 0.011517 -102258.000000 0 0 1
28.210966 31.254002 -15.624527 44.908764 0.836527 1.926145 0.029567 0.007139 -397503.000000 0 0 1
29.482566 31.512902 -15.122227 45.727087 0.818673 1.907848 0.017517 0.006209 -494826.000000 0 0 1
29.866966 32.841902 -15.300527 46.954577 0.832803 1.902716 0.018261 -0.004885 -163268.000000 0 0 1
15.852666 -32.176415 -27.979907 45.491801 -1.113022 2.233251 0.102941 -0.042740 -163067.000000 0 0 1
17.006866 -32.848615 -27.531297 46.111142 -1.093062 2.210632 0.079101 -0.027774 126584.000000 0 0 1
17.379966 -32.559315 -26.213887 45.269638 -1.080480 2.188373 0.083122 -0.030244 549517.000000 0 0 1
18.675366 -33.283015 -25.672857 45.995913 -1.059465 2.162957 0.033120 -0.020229 2197910.000000 0 0 1
19.992066 -32.813615 -26.094527 46.447179 -1.023595 2.167369 0.047736 -0.024717 1737550.000000 0 0 1
20.405466 -33.298915 -27.397647 47.705680 -1.021021 2.182552 0.060091 -0.021762 -9338.250000 0 0 1
21.925066 -33.091215 -27.640747 48.370942 -0.985639 2.179047 0.074064 -0.015131 253132.000000 0 0 1
22.140466 -31.722315 -27.995637 47.752081 -0.961450 2.197244 0.072605 -0.026081 -143968.000000 0 0 1
23.440866 -31.383515 -27.607497 47.922575 -0.929272 2.184728 0.032975 -0.014869 -414088.000000 0 0 1
24.108666 -30.146115 -28.255047 47.836845 -0.896222 2.202666 0.013679 -0.009513 36185.300000 0 0 1
24.356066 -30.337015 -29.626677 48.900843 -0.894320 2.221633 0.012257 -0.013519 -139404.000000 0 0 1
24.914566 -29.184515 -30.229017 48.849412 -0.864163 2.238037 0.015699 -0.021657 -22916.200000 0 0 1
25.204366 -29.304415 -31.700787 49.989487 -0.860475 2.257704 0.023530 -0.018360 491318.000000 0 0 1
26.279066 -30.222815 -31.949437 51.232553 -0.855084 2.244156 0.026283 -0.015423 87874.600000 0 0 1
26.160866 -30.798315 -33.222637 52.313199 -0.866636 2.258898 0.015642 -0.016833 -128281.000000 0 0 1
27.440966 -31.499815 -33.710267 53.680789 -0.854153 2.249747 0.011030 -0.021650 5276.260000 0 0 1
28.532166 -30.668115 -33.990897 53.944406 -0.821463 2.252491 0.021723 -0.023843 -1167120.000000 0 0 1
29.628866 -31.371815 33.985838 54.928114 -0.813963 0.903667 0.029947 -0.009714 -182090.000000 0 0 1
30.954366 -30.538215 33.944790 55.163431 -0.778631 0.907967 0.040336 -0.018901 553405.000000 0 0 1
31.099166 -29.806115 32.722989 54.095810 -0.764171 0.921146 0.047589 -0.014993 249543.000000 0 0 1
32.339166 -29.111115 32.657317 54.403851 -0.732915 0.926950 0.061930 -0.022441 330384.000000 0 0 1
32.396266 -28.264415 31.368653 53.220180 -0.717389 0.940465 0.054313 -0.019765 -77199.300000 0 0 1
33.545266 -27.427715 31.350763 53.483033 -0.685401 0.944459 0.035813 -0.025700 214877.000000 0 0 1
33.642466 -26.570115 30.236483 52.459808 -0.668478 0.956511 0.049361 -0.017124 -278101.000000 0 0 1
34.216966 -27.200515 28.930783 52.418117 -0.671649 0.986127 0.043876 -0.016579 -701719.000000 0 0 1
33.563566 -28.235615 28.274923 52.184617 -0.699397 0.998190 0.048959 -0.030442 -105042.000000 0 0 1
32.390966 -27.804415 27.618063 50.843068 -0.709351 0.996550 0.055411 -0.030081 -330103.000000 0 0 1
31.951766 -28.745915 26.529233 50.507853 -0.732630 1.017788 0.046449 -0.018568 552822.000000 0 0 1
30.657166 -28.277515 26.112983 49.207394 -0.745042 1.011403 0.052345 -0.014493 615300.000000 0 0 1
30.067766 -29.181115 25.186173 48.887129 -0.770434 1.029567 0.050120 -0.013460 946539.000000 0 0 1
28.696566 -28.583415 24.676473 47.428186 -0.783423 1.023604 0.058336 -0.008774 1705570.000000 0 0 1
27.637766 -28.365015 25.644193 47.180980 -0.798383 0.996162 0.050188 -0.010067 1148100.000000 0 0 1
26.402666 -27.949915 25.064383 45.896861 -0.813857 0.993092 0.045162 -0.001546 1223740.000000 0 0 1
25.183466 -27.855015 26.038693 45.695978 -0.835726 0.964504 0.049589 -0.004804 496704.000000 0 0 1
25.219766 -26.725015 26.921153 45.552294 -0.814368 0.938505 0.033124 -0.008445 -452479.000000 0 0 1
24.080666 -26.721315 27.714043 45.408979 -0.837331 0.914331 0.041043 -0.016752 -561548.000000 0 0 1
24.047366 -25.582815 28.746013 45.377191 -0.816326 0.884740 0.043036 -0.003041 153992.000000 0 0 1
22.852566 -25.506715 29.537963 45.225253 -0.840227 0.859086 0.065575 -0.004277 688101.000000 0 0 1
22.785166 -24.302415 30.322563 45.046964 -0.817609 0.832360 0.073176 -0.003030 -241934.000000 0 0 1
22.228666 -22.952115 29.684933 43.613168 -0.801409 0.822158 0.072818 -0.007942 -189687.000000 0 0 1
23.154966 -22.440515 28.744043 43.196634 -0.769730 0.842736 0.066491 -0.007081 200368.000000 0 0 1
22.970166 -21.067015 28.386853 42.157574 -0.742208 0.832064 0.080381 -0.003523 -20438.800000 0 0 1
23.587066 -20.026615 29.323743 42.629765 -0.703943 0.812246 0.087584 -0.002699 38186.000000 0 0 1
22.944366 -20.035215 30.593203 43.171725 -0.717814 0.783228 0.094963 -0.001382 85214.900000 0 0 1
23.795066 -19.400515 31.509943 43.993882 -0.684011 0.772405 0.086205 -0.013559 -351326.000000 0 0 1
23.287866 -19.163915 32.938515 44.660118 -0.688558 0.741380 0.110937 -0.015759 -361079.000000 0 0 1
23.155266 -20.289115 33.748194 45.681015 -0.719521 0.739539 0.081588 -0.010891 566840.000000 0 0 1
22.541766 -19.943815 -33.336067 44.913031 -0.724325 2.407197 0.083041 -0.015551 396023.000000 0 0 1
22.424766 -21.127515 -32.339717 44.666535 -0.755621 2.380417 0.065179 -0.004972 365265.000000 0 0 1
23.660866 -21.435215 -31.705337 44.994816 -0.736085 2.352718 0.048164 -0.001005 185031.000000 0 0 1
23.591966 -22.579915 -30.924147 44.974841 -0.763482 2.328958 0.040735 0.002204 140617.000000 0 0 1
24.889166 -22.731415 -30.109197 45.196810 -0.740118 2.299871 0.035162 -0.001418 20005.900000 0 0 1
26.027466 -23.234815 -30.758847 46.512282 -0.728769 2.293355 0.043089 -0.002384 -402696.000000 0 0 1
26.929966 -23.701315 -29.762167 46.612896 -0.721716 2.263339 0.038529 -0.010540 -165888.000000 0 0 1
28.077166 -24.508815 -30.347337 48.062149 -0.717645 2.254178 0.023601 -0.005452 -244523.000000 0 0 1
29.094066 -23.850915 -31.127907 48.829064 -0.686690 2.262029 0.023357 -0.002009 472017.000000 0 0 1
28.907566 -23.856815 -32.545817 49.638949 -0.689966 2.285841 0.025881 0.003207 -171760.000000 0 0 1
29.120366 -25.260215 -33.212767 50.883810 -0.714533 2.281963 0.019764 -0.000845 -270073.000000 0 0 1
28.220866 -26.268515 -32.840147 50.645113 -0.749584 2.276325 0.043600 -0.010203 -234528.000000 0 0 1
28.540166 -27.434315 -33.510127 51.866284 -0.765644 2.273243 0.029330 -0.017913 5137.680000 0 0 1
28.089466 -27.645215 33.407314 51.665508 -0.777428 0.867667 0.035695 -0.008398 -144845.000000 0 0 1
28.808766 -26.859115 32.468370 51.044609 -0.750390 0.881391 0.019390 -0.008993 -90907.900000 0 0 1
28.234766 -26.764315 31.161913 49.845716 -0.758669 0.895450 0.022317 -0.010191 -471001.000000 0 0 1
29.134066 -26.107915 30.077383 49.346388 -0.730673 0.915347 0.035434 -0.018220 57217.500000 0 0 1
29.416866 -24.713315 30.097623 48.805398 -0.698723 0.906270 0.022159 -0.018218 244614.000000 0 0 1
30.036266 -24.282915 31.318283 49.725970 -0.679874 0.889478 0.023364 -0.005519 -1296740.000000 0 0 1
30.541566 -22.803815 31.492483 49.442671 -0.641353 0.880262 0.014120 -0.001118 568329.000000 0 0 1
31.762666 -22.479415 30.841543 49.652712 -0.615896 0.900593 0.021519 -0.007324 65335.500000 0 0 1
32.859066 -23.054515 31.517143 51.034882 -0.611811 0.905159 0.018700 -0.008852 -1499480.000000 0 0 1
34.227466 -22.549815 31.089823 51.445026 -0.582552 0.921870 0.012635 -0.016992 -557229.000000 0 0 1
34.571466 -22.873715 29.792413 51.048810 -0.584512 0.947633 0.017321 -0.013037 415308.000000 0 0 1
35.893966 -22.409715 29.516413 51.592546 -0.558118 0.961725 0.000452 -0.011340 441982.000000 0 0 1
36.413666 -22.716915 28.134923 51.318488 -0.557777 0.990536 0.014985 -0.010754 -265649.000000 0 0 1
-36.042255 -24.047915 28.018393 51.598224 0.588382 0.996778 0.019652 -0.014732 138178.000000 0 0 1
-35.599055 -24.279815 26.672713 50.677764 0.598567 1.016530 0.018732 -0.002398 -191888.000000 0 0 1
-35.376455 -25.784715 26.493193 51.168685 0.629838 1.026564 0.008722 -0.002092 -280162.000000 0 0 1
36.239166 -26.428415 26.454993 52.073073 -0.630106 1.037893 0.025699 -0.007741 -68965.300000 0 0 1
36.327866 -27.740815 25.998133 52.584880 -0.652163 1.053648 0.023862 -0.011054 36040.500000 0 0 1
-35.765055 -28.757815 26.868343 53.179497 0.677221 1.041138 0.014089 -0.015686 -623965.000000 0 0 1
-35.440055 -30.037815 26.289523 53.379835 0.703080 1.055837 0.014512 -0.009238 1385870.000000 0 0 1
-34.202755 -30.635915 26.798133 53.165098 0.730443 1.042509 0.010113 -0.011725 2843320.000000 0 0 1
-32.841855 -29.822315 26.522503 51.685598 0.737249 1.031945 0.012948 -0.003115 313750.000000 0 0 1
-32.488555 -29.757615 25.216803 50.763264 0.741553 1.050943 0.006655 0.003912 -693840.000000 0 0 1
-31.213855 -29.258015 24.991233 49.546926 0.753066 1.042115 -0.010621 0.012459 -547099.000000 0 0 1
-30.850755 -29.153915 23.481693 48.508862 0.757127 1.065496 0.001146 0.008076 -400731.000000 0 0 1
-30.761055 -30.388315 22.752873 48.860878 0.779303 1.086409 0.004437 0.010357 372027.000000 0 0 1
-30.207755 -30.297915 21.443673 47.857113 0.786888 1.106183 0.004998 0.008939 -444126.000000 0 0 1
-30.112655 -31.651115 20.728673 48.355382 0.810302 1.127772 0.015287 0.007455 -78154.800000 0 0 1
-29.207355 -32.665715 21.066873 48.620280 0.841235 1.122652 0.010352 0.004254 199845.000000 0 0 1
-27.834955 -32.384015 20.799773 47.498839 0.860797 1.117534 0.025844 0.000646 547921.000000 0 0 1
-26.913055 -33.631015 21.017473 47.927986 0.895906 1.116843 0.023760 0.010198 30783.400000 0 0 1
-27.182955 33.634202 20.080473 47.680163 -0.891079 1.136084 0.024026 0.005629 1243410.000000 0 0 1
-28.364355 32.791602 20.302373 47.874963 -0.857665 1.132861 0.030322 0.002427 1251510.000000 0 0 1
-28.136855 31.753202 21.422073 47.527399 -0.845708 1.103212 0.035720 0.001119 -166.735000 0 0 1
-27.223055 30.741002 21.065173 46.150248 -0.846016 1.096798 0.037536 0.001437 -38135.400000 0 0 1
-27.075955 29.743202 22.075373 45.881232 -0.832306 1.068840 0.043099 -0.001802 -47202.600000 0 0 1
-26.179655 28.639602 21.490573 44.355899 -0.830242 1.065001 0.035657 -0.000982 442497.000000 0 0 1
-24.817955 29.028302 21.363073 43.760188 -0.863431 1.060787 0.029185 0.003123 463563.000000 0 0 1
-24.015355 28.100002 20.615673 42.324382 -0.863615 1.062045 0.028970 -0.002538 304252.000000 0 0 1
-22.511355 28.256202 20.922173 41.748190 -0.898079 1.045867 0.019237 0.001377 -332522.000000 0 0 1
-22.114055 28.135202 22.258773 42.143492 -0.904655 1.014357 0.015798 -0.004298 424392.000000 0 0 1
-20.813255 28.691302 22.374573 41.916630 -0.943213 1.007723 0.010807 -0.008432 125921.000000 0 0 1
-20.289655 28.769502 23.816923 42.504119 -0.956556 0.975995 0.001052 -0.005921 -462530.000000 0 0 1
-20.276255 27.455002 24.431143 41.973615 -0.934679 0.949537 0.005456 -0.008758 280193.000000 0 0 1
-20.135555 27.429202 25.849223 42.731534 -0.937554 0.921129 0.006234 -0.011029 -1095450.000000 0 0 1
-18.829355 27.817302 26.480463 42.773377 -0.975747 0.903216 0.019794 -0.007215 -1332250.000000 0 0 1
-18.557355 29.227602 26.311873 43.484972 -1.005091 0.920930 -0.007001 -0.004617 -1043830.000000 0 0 1
-17.235955 29.565902 26.461263 43.259902 -1.042995 0.912613 0.014789 -0.002634 -1248520.000000 0 0 1
-16.808655 29.934602 27.935973 44.260929 -1.059157 0.887741 0.002427 0.003698 -294826.000000 0 0 1
-16.902655 28.763102 28.734213 44.030339 -1.039507 0.859785 0.011966 0.006393 133322.000000 0 0 1
-17.043155 29.046002 30.107013 45.172686 -1.040166 0.841310 0.009211 0.008900 -392263.000000 0 0 1
-16.795455 27.895802 31.051483 44.993973 -1.028850 0.809134 0.008369 0.014954 825160.000000 0 0 1
-15.382055 27.721102 31.314363 44.560705 -1.064210 0.791562 0.014631 0.017182 1229420.000000 0 0 1
-14.968655 26.757802 32.273443 44.515342 -1.060755 0.759768 0.026620 0.019734 -351303.000000 0 0 1
-15.488955 26.756502 33.731630 45.756321 -1.046047 0.741877 0.025994 0.022217 -911466.000000 0 0 1
-16.796755 26.325402 33.929136 46.112298 -1.002872 0.743958 0.022770 0.019364 -968002.000000 0 0 1
-17.360155 27.135302 -33.456107 46.443629 -1.001651 2.375117 0.021054 0.010751 -431980.000000 0 0 1
-18.588655 26.410502 -32.927047 46.122046 -0.957501 2.365864 0.010332 0.011869 -600247.000000 0 0 1
-19.704155 26.363002 -33.761507 47.149772 -0.928950 2.368921 0.010671 0.012037 -1256330.000000 0 0 1
-20.750955 25.673702 -33.203547 46.821113 -0.891041 2.359099 0.023094 0.004541 -826256.000000 0 0 1
-22.037655 25.776402 -34.048717 48.056178 -0.863433 2.358194 0.054688 -0.014098 -460976.000000 0 0 1
-22.156855 25.088702 33.135504 47.099159 -0.847374 0.790449 0.050944 -0.010093 19733.800000 0 0 1
-22.144055 23.666002 33.211902 46.405487 -0.818609 0.773186 0.047362 -0.005989 -612006.000000 0 0 1
-22.445855 22.948802 31.855523 45.224310 -0.796477 0.789234 0.038448 -0.004173 -609922.000000 0 0 1
-23.785755 22.988302 31.475693 45.661180 -0.768351 0.810230 0.058815 -0.014703 -626820.000000 0 0 1
-24.019555 22.294202 30.234953 44.588371 -0.748162 0.825635 0.072780 -0.014815 1317210.000000 0 0 1
-25.536655 22.027202 29.857743 45.042237 -0.711748 0.846133 0.091597 -0.029202 1245010.000000 0 0 1
-26.093455 20.834402 30.411303 45.164012 -0.673797 0.832062 0.112201 -0.034838 939551.000000 0 0 1
-27.422155 20.581002 29.917243 45.503776 -0.643837 0.853344 0.126751 -0.042461 584261.000000 0 0 1
-27.879355 19.145302 30.160913 45.315358 -0.601757 0.842528 0.149861 -0.042849 -604994.000000 0 0 1
-28.442555 19.117802 31.413613 46.489615 -0.591793 0.828866 0.142937 -0.039427 -273112.000000 0 0 1
-28.592755 17.852602 32.089903 46.540551 -0.558150 0.809992 0.123770 -0.027134 412129.000000 0 0 1
-29.679055 16.867502 31.549673 46.483769 -0.516807 0.824772 0.113048 -0.025950 -260538.000000 0 0 1
-31.027455 17.195702 31.633263 47.529553 -0.506069 0.842567 0.101137 -0.025015 -534511.000000 0 0 1
-31.782955 16.187502 30.976123 47.240995 -0.471071 0.855681 0.094181 -0.001611 -1246070.000000 0 0 1
-33.255755 16.435602 30.952893 48.313102 -0.459012 0.875422 0.071605 0.003408 -1412430.000000 0 0 1
-33.772155 16.247702 32.248413 49.441949 -0.448412 0.860250 0.059569 0.000358 519993.000000 0 0 1
-35.159155 16.540302 32.370177 50.572483 -0.439722 0.876201 0.051230 -0.004555 183415.000000 0 0 1
-35.498855 16.696302 33.872312 51.829226 -0.439634 0.858548 0.045314 -0.002175 -795770.000000 0 0 1
36.002266 16.913702 34.049706 52.360471 0.439193 0.862825 0.029478 -0.005443 -792353.000000 0 0 1
35.770466 17.475402 -33.050917 51.742430 0.454440 2.263680 0.035173 -0.013605 -539886.000000 0 0 1
34.285266 17.715102 -32.809597 50.653470 0.476916 2.275393 0.049250 -0.015569 -608026.000000 0 0 1
33.607366 16.502302 -32.927767 49.859993 0.456448 2.292154 0.063784 -0.006377 340361.000000 0 0 1
32.249766 16.659902 -32.484997 48.712163 0.476831 2.300806 0.074003 -0.007926 635554.000000 0 0 1
31.366766 15.393302 -32.625537 47.804325 0.456222 2.321948 0.091256 -0.002982 104072.000000 0 0 1
30.834566 15.171902 -33.923717 48.288463 0.457261 2.349732 0.084035 -0.010431 -44431.200000 0 0 1
30.052966 13.985602 -34.041267 47.514058 0.435558 2.369491 0.082805 -0.011213 239731.000000 0 0 1
30.780966 12.596902 -33.974077 47.543535 0.388449 2.366832 0.078037 -0.008155 22806.800000 0 0 1
31.375566 12.345002 -32.727467 46.988428 0.374855 2.341305 0.084563 0.001989 103897.000000 0 0 1
32.025166 11.074802 -32.806797 47.165119 0.332942 2.340014 0.078940 0.002698 34300.000000 0 0 1
17.584866 -20.876098 10.239373 29.152766 -0.870764 1.211910 0.012675 -0.016796 -55863.700000 0 0 1
17.449566 -22.203098 10.640773 30.177657 -0.904708 1.210444 0.014348 -0.015594 576568.000000 0 0 1
18.698866 -22.902798 10.710673 31.446849 -0.886108 1.223246 0.006866 -0.013805 205393.000000 0 0 1
18.579566 -24.301998 11.447273 32.662325 -0.918062 1.212720 0.019305 -0.000607 529310.000000 0 0 1
17.691766 -25.286668 10.851973 32.713598 -0.960307 1.232663 0.017330 -0.011646 865195.000000 0 0 1
16.341666 -25.207048 11.302573 32.096627 -0.995619 1.210938 0.023029 -0.010637 579155.000000 0 0 1
15.375666 -26.240638 10.652073 32.224973 -1.040773 1.233907 0.037935 -0.005691 172404.000000 0 0 1
15.242766 -25.966948 9.280173 31.507871 -1.039986 1.271827 0.035929 -0.014949 61376.000000 0 0 1
14.286466 -26.717538 8.563973 31.484466 -1.079758 1.295319 0.043501 -0.006875 -129136.000000 0 0 1
14.137766 -26.150528 7.154973 30.576465 -1.075175 1.334604 0.048918 -0.011906 -415670.000000 0 0 1
13.540666 -24.909198 7.082473 29.222923 -1.072879 1.325999 0.063823 -0.019978 -55639.900000 0 0 1
13.089266 -24.461598 5.780973 28.339343 -1.079469 1.365363 0.058923 -0.006085 255862.000000 0 0 1
12.355766 -23.110898 5.921573 26.867147 -1.079830 1.348570 0.071064 -0.006522 -280429.000000 0 0 1
11.715766 -22.630698 4.795173 25.930703 -1.093094 1.384803 0.069735 -0.006227 -269259.000000 0 0 1
11.030066 -21.460798 5.218273 24.687215 -1.096040 1.357814 0.076810 -0.010602 201113.000000 0 1 0
10.201366 -20.778398 4.082273 23.504780 -1.114407 1.396233 0.067028 -0.015277 -441866.000000 0 1 0
10.988066 -20.203098 3.132573 23.210252 -1.072664 1.435418 0.054615 -0.008301 -354011.000000 0 1 0
10.228166 -19.559798 2.100573 22.172359 -1.088983 1.475916 0.043870 -0.004493 -40610.500000 0 1 0
11.134566 -19.150898 0.940273 22.172496 -1.044156 1.528376 0.046401 0.001584 -240975.000000 0 1 0
11.910666 -18.028698 1.202673 21.641265 -0.986970 1.515195 0.039057 0.002382 -202617.000000 0 1 0
12.616966 -17.764998 -0.029727 21.789536 -0.953248 1.572161 0.047159 -0.003154 39004.100000 0 1 0
13.842566 -16.819198 0.130773 21.783461 -0.882175 1.564793 0.047384 0.008256 419693.000000 0 1 0
14.896166 -17.641898 0.623173 23.098067 -0.869584 1.543814 0.049990 0.003369 441751.000000 0 1 0
16.128166 -16.962498 0.874673 23.422407 -0.810606 1.533444 0.051107 -0.006310 434754.000000 0 1 0
17.222566 -17.777598 1.568973 24.801643 -0.801255 1.507493 0.042819 0.001862 -83861.700000 0 1 0
17.748766 -18.788798 0.763873 25.857710 -0.813855 1.541251 0.050247 -0.010388 759513.000000 0 0 1
19.031666 -19.263298 1.214973 27.106367 -0.791447 1.525959 0.053094 -0.005913 1060490.000000 0 0 1
19.364166 -20.618398 0.524973 28.290721 -0.816757 1.552239 0.037495 -0.002672 5804.620000 0 0 1
18.547766 -21.637098 1.062273 28.518627 -0.862125 1.533539 0.038575 -0.001525 133847.000000 0 0 1
18.544166 -22.723298 0.148773 29.330130 -0.886324 1.565724 0.033785 -0.003685 638925.000000 0 0 1
17.447366 -23.795598 0.574173 29.512214 -0.938122 1.551340 0.027514 -0.000685 611660.000000 0 0 1
17.690766 -24.312398 1.842373 30.123915 -0.941757 1.509598 0.019296 0.000662 681163.000000 0 0 1
16.593266 -25.197398 2.163673 30.247758 -0.988447 1.499204 0.018296 0.000950 -29194.200000 0 0 1
16.703466 -25.857198 3.558973 30.988172 -0.997246 1.455693 0.023738 -0.004339 -85412.100000 0 0 1
17.682266 -26.832418 3.692473 32.346183 -0.988128 1.456392 0.001642 -0.001959 -698366.000000 0 0 1
18.979466 -26.357878 3.903773 32.713871 -0.946728 1.451180 0.010856 0.003678 -765444.000000 0 0 1
20.108066 -27.394988 3.878773 34.203283 -0.937611 1.457148 0.032345 -0.000016 -250909.000000 0 0 1
20.300266 -27.963058 2.607273 34.653013 -0.942854 1.495486 0.036722 -0.001265 -273969.000000 0 0 1
21.128266 -29.094898 2.545573 36.047145 -0.942712 1.500120 0.075427 -0.005116 -320874.000000 0 0 1
20.611866 -30.385348 3.135273 36.850351 -0.974750 1.485612 0.069492 -0.006365 -186215.000000 0 0 1
20.501366 -30.548538 4.557873 37.071464 -0.979725 1.447536 0.080979 -0.005695 -23283.600000 0 0 1
19.910266 -31.808388 4.794473 37.830930 -1.011519 1.443720 0.070538 -0.017261 22619.000000 0 0 1
19.527466 -32.105528 6.258373 38.095329 -1.024349 1.405766 0.087124 -0.026299 431203.000000 0 0 1
20.639966 -32.748148 6.899373 39.319852 -1.008421 1.394415 0.087357 -0.036150 504525.000000 0 0 1
20.283366 -33.431078 8.043673 39.921831 -1.025449 1.367922 0.078743 -0.034462 -608238.000000 0 0 1
21.415166 34.162786 8.676473 41.243017 1.010863 1.358838 0.078079 -0.034031 -242332.000000 0 0 1
22.368766 -33.384888 9.355173 41.260535 -0.980471 1.342073 0.088908 -0.032813 212578.000000 0 0 1
23.443566 34.131338 9.735173 42.536133 0.968941 1.339881 0.100180 -0.034553 271585.000000 0 0 1
24.521966 -33.560708 10.647873 42.907169 -0.939778 1.320015 0.092420 -0.036592 4245.020000 0 0 1
25.284166 -32.640158 9.880873 42.453512 -0.911715 1.335896 0.082834 -0.035674 364841.000000 0 0 1
26.169366 -31.819468 10.668073 42.557280 -0.882526 1.317418 0.068934 -0.028339 952705.000000 0 0 1
27.018666 -30.836148 9.815073 42.156993 -0.851286 1.335818 0.071841 -0.029657 552089.000000 0 0 1
26.060366 -29.882138 9.352973 40.737734 -0.853608 1.339140 0.056397 -0.028220 783926.000000 0 0 1
26.650966 -29.167758 8.299273 40.372145 -0.830456 1.363751 0.063458 -0.026001 14006.900000 0 0 1
26.118566 -27.730868 8.261673 38.979941 -0.815330 1.357230 0.054119 -0.018127 66222.900000 0 0 1
26.592466 -27.007068 9.390873 39.047785 -0.793133 1.327919 0.059501 -0.024382 350491.000000 0 0 1
25.962866 -25.729148 9.326873 37.723336 -0.780877 1.320961 0.044884 -0.011734 109283.000000 0 0 1
26.636466 -24.804298 10.353673 37.841156 -0.749796 1.293653 0.040407 -0.017421 -50926.100000 0 0 1
27.860766 -24.359998 9.820573 38.289365 -0.718460 1.311415 0.075865 -0.018828 -476200.000000 0 0 1
28.611866 -23.688498 10.853973 38.698741 -0.691538 1.286509 0.051152 -0.018924 -647186.000000 0 0 1
30.006666 -23.429498 10.331873 39.447294 -0.662930 1.305789 0.070899 -0.020650 -748517.000000 0 0 1
30.145666 -22.591798 9.190873 38.776574 -0.643131 1.331498 0.082464 -0.016926 -900400.000000 0 0 1
31.455566 -22.558998 8.725973 39.680016 -0.622157 1.349076 0.082620 -0.026830 -347565.000000 0 0 1
31.594366 -21.699098 7.410573 39.038077 -0.601814 1.379808 0.078895 -0.011625 -178299.000000 0 0 1
31.309566 -20.352698 7.462473 38.081620 -0.576408 1.373560 0.073625 -0.006352 -116572.000000 0 0 1
31.804166 -19.618798 6.387073 37.910380 -0.552726 1.401511 0.064021 -0.008580 -8731.170000 0 0 1
31.281966 -18.165698 6.420673 36.739339 -0.526114 1.395131 0.069551 -0.007166 -152212.000000 0 0 1
32.001866 -17.362298 7.322573 37.137433 -0.497098 1.372321 0.080906 -0.009558 -224496.000000 0 0 1
31.455366 -16.112998 7.587373 36.147434 -0.473399 1.359323 0.082161 -0.010047 -527609.000000 0 0 1
32.115266 -15.421498 8.769173 36.689390 -0.447676 1.329449 0.083932 -0.022147 12924.500000 0 0 1
33.503766 -15.318198 8.491873 37.805575 -0.428832 1.344244 0.084701 -0.019489 -226911.000000 0 0 1
34.131166 -14.790898 9.645673 38.428456 -0.408926 1.317080 0.079699 -0.032516 -202490.000000 0 0 1
35.650266 -14.953898 9.746173 39.869142 -0.397170 1.323840 0.073128 -0.039744 -14175.300000 0 0 1
36.344466 -14.020198 8.932473 39.965926 -0.368170 1.345390 0.078123 -0.024629 692695.000000 0 0 1
-35.092355 -14.166298 8.979773 38.894649 0.383680 1.337820 0.083003 -0.027005 1090780.000000 0 0 1
-34.268755 -13.119898 8.200273 37.599518 0.365638 1.350934 0.094056 -0.028656 -224171.000000 0 0 1
-34.657455 -13.119498 6.803073 37.676813 0.361877 1.389237 0.096180 -0.032239 169792.000000 0 0 1
-33.676455 -12.672898 5.871673 36.457955 0.359922 1.409039 0.077531 -0.025430 -59616.600000 0 0 1
-32.632255 -13.735498 5.562273 35.839459 0.398408 1.414967 0.060071 -0.015259 -814449.000000 0 0 1
-31.762455 -14.070698 6.574973 35.356306 0.417016 1.383744 0.071399 -0.022366 -530769.000000 0 0 1
-30.795955 -14.984598 6.123073 34.791106 0.452852 1.393880 0.065464 -0.010591 192149.000000 0 0 1
-30.191855 -15.820298 7.293473 34.857204 0.482657 1.360000 0.055873 -0.020370 862874.000000 0 0 1
-31.246455 -16.672098 7.799373 36.264721 0.490140 1.354035 0.061445 -0.026975 859038.000000 0 0 1
-31.000855 -16.988998 9.137873 36.512735 0.501320 1.317842 0.042482 -0.024454 12139.100000 0 0 1
-32.151055 -17.850098 9.678373 38.026139 0.506823 1.313446 0.016439 -0.026926 864923.000000 0 0 1
-33.471955 -17.207798 9.749973 38.878555 0.474861 1.317310 0.045563 -0.025161 1550440.000000 0 0 1
-34.380055 -17.849198 10.600773 40.161654 0.478868 1.303678 0.065538 -0.033174 -34650.400000 0 0 1
-34.792755 -19.354698 10.375073 41.143435 0.507656 1.315876 0.065806 -0.025826 -1630660.000000 0 0 1
-33.806555 -20.281598 10.688473 40.846907 0.540369 1.306043 0.060954 -0.013130 -779339.000000 0 0 1
-33.579255 -20.497298 12.070173 41.150877 0.548043 1.273104 0.056299 -0.030317 230421.000000 0 0 1
-34.733655 -21.223498 12.858673 42.687342 0.548494 1.264815 0.082173 -0.043976 221188.000000 0 0 1
-34.867655 -22.639798 12.533473 43.421213 0.575888 1.277981 0.088604 -0.049643 -169827.000000 0 0 1
-35.840055 -22.879998 11.546473 44.060469 0.568171 1.305640 0.087569 -0.030360 -470183.000000 0 0 1
36.383166 -24.284398 11.611273 45.258021 -0.588553 1.311338 0.096193 -0.020798 -21575.300000 0 0 1
35.683766 -24.546898 12.818973 45.168656 -0.602560 1.283039 0.143496 -0.020313 37166.500000 0 0 1
35.074566 -25.828368 12.886473 45.424564 -0.634730 1.283157 0.100681 -0.014208 -282603.000000 0 0 1
34.085066 -25.805058 14.049373 45.000863 -0.648016 1.253286 0.097423 -0.017834 555335.000000 0 0 1
32.872766 -25.110938 13.663473 43.564532 -0.652327 1.251775 0.094159 -0.017514 1284780.000000 0 0 1
32.029966 -24.628898 14.771873 43.019875 -0.655509 1.220290 0.063096 -0.000532 50143.900000 0 0 1
32.088366 -23.139298 15.056973 42.329692 -0.624755 1.207126 0.084337 -0.003960 -103573.000000 0 0 1
33.302766 -22.754898 15.643073 43.261592 -0.599412 1.200821 0.080229 -0.011990 500036.000000 0 0 1
34.319166 -22.280598 14.696173 43.476519 -0.575825 1.225978 0.080407 -0.024821 721754.000000 0 0 1
35.595466 -21.745198 15.366873 44.452578 -0.548394 1.217821 0.070519 -0.024959 -358565.000000 0 0 1
35.593266 -20.485598 16.006573 44.076646 -0.522245 1.199146 0.070166 -0.012249 34302.500000 0 0 1
34.738666 -20.376698 17.144473 43.771197 -0.530487 1.168335 0.074716 -0.019416 260073.000000 0 0 1
34.925066 -19.020198 17.866673 43.597548 -0.498688 1.148552 0.062877 -0.009196 -293599.000000 0 0 1
34.519866 -18.029098 16.912473 42.458230 -0.481314 1.161099 0.064696 -0.017589 23870.600000 0 0 1
34.406866 -16.714398 17.438273 42.039231 -0.452212 1.143063 0.071462 -0.023061 -410910.000000 0 0 1
35.629066 -15.963198 17.961973 42.975418 -0.421222 1.139599 0.055555 -0.023582 -434905.000000 0 0 1
36.181366 -16.365398 19.209173 44.112468 -0.424778 1.120248 0.054853 -0.003979 179019.000000 0 0 1
-35.609655 -15.514198 19.536673 43.478954 0.410877 1.104774 0.053319 -0.009845 -219951.000000 0 0 1
-35.152355 -15.473898 21.012373 43.779554 0.414670 1.070189 0.027122 0.003780 -510358.000000 0 0 1
-34.350855 -16.540898 21.354073 43.698730 0.448761 1.060237 0.017676 0.009844 -221651.000000 0 0 1
-33.878655 -16.369398 22.665373 43.925386 0.450099 1.028625 0.011351 0.010348 -359974.000000 0 0 1
-33.093855 -17.608298 23.091073 44.027867 0.488974 1.018710 0.018925 0.012174 -590401.000000 0 0 1
-33.854455 -18.818298 23.208073 45.153816 0.507330 1.030980 0.019458 0.009635 372589.000000 0 0 1
-33.181055 -19.866798 23.881573 45.453290 0.539492 1.017600 0.012937 0.014387 -186300.000000 0 0 1
-32.068455 -20.612898 23.069773 44.558858 0.571282 1.026593 0.008177 0.020223 468436.000000 0 0 1
-30.934355 -19.768798 22.984373 43.313059 0.568644 1.011421 0.019202 0.021859 -640777.000000 0 0 1
-29.850555 -20.309998 22.307273 42.440147 0.597443 1.017356 0.028632 0.019322 490931.000000 0 0 1
-28.542455 -19.439498 22.425173 41.175893 0.597910 0.994862 0.037547 0.013361 559052.000000 0 0 1
-27.927955 -19.321598 23.678773 41.400231 0.605227 0.961918 0.027765 0.009415 598206.000000 0 0 1
-26.844655 -18.378998 23.582773 40.181715 0.600345 0.943568 0.043435 0.002587 417525.000000 0 0 1
-26.492055 -17.879798 25.037473 40.600384 0.593689 0.906277 0.042552 -0.005955 -369147.000000 0 0 1
-25.483555 -16.890298 25.120673 39.569457 0.585315 0.882982 0.056767 -0.016483 273101.000000 0 0 1
-25.026055 -16.444998 26.418573 39.933474 0.581361 0.847893 0.055745 -0.017439 780819.000000 0 0 1
-24.023955 -17.396098 27.196073 40.241782 0.626728 0.828724 0.046319 -0.014650 -270826.000000 0 0 1
-24.550455 -18.644498 27.351573 41.212264 0.649513 0.845074 0.046392 -0.011425 -764529.000000 0 0 1
-23.743055 -19.492398 28.113873 41.642239 0.687399 0.829657 0.052819 -0.014622 -766971.000000 0 0 1
-24.268355 -20.833898 28.632773 42.928313 0.709397 0.840634 0.053617 -0.011173 39155.600000 0 0 1
-25.394755 -20.512298 29.484573 43.988498 0.679441 0.836211 0.048058 -0.020199 783871.000000 0 0 1
-25.826055 -21.643898 30.225273 45.265998 0.697524 0.839647 0.048471 -0.017221 -262711.000000 0 0 1
-27.041455 -21.398098 31.133573 46.458780 0.669418 0.836408 0.055421 -0.019573 -562705.000000 0 0 1
-26.618555 -20.730898 32.317373 46.719698 0.661688 0.806916 0.070625 -0.029136 926092.000000 0 0 1
-27.601855 -20.769698 33.372573 48.030942 0.645083 0.802635 0.076479 -0.028137 492290.000000 0 0 1
-28.847055 -19.868698 33.194473 48.257546 0.603142 0.812259 0.060345 -0.035871 -134218.000000 0 0 1
-29.734955 -20.340898 32.184773 48.309205 0.599957 0.841662 0.060589 -0.034961 -169122.000000 0 0 1
-30.953555 -19.676298 32.266273 48.850708 0.566237 0.849301 0.061567 -0.035838 -91901.600000 0 0 1
-32.127955 -20.078698 31.327273 49.160529 0.558571 0.879879 0.050110 -0.007887 -5175.010000 0 0 1
-32.064755 -19.578698 30.043573 48.104991 0.548176 0.896252 0.037091 -0.019388 193460.000000 0 0 1
-33.166455 -20.131998 29.362573 48.656672 0.545550 0.922958 0.028945 -0.013225 -55753.200000 0 0 1
-33.592255 -19.243498 28.183273 47.885788 0.520221 0.941530 0.019959 -0.002893 -540494.000000 0 0 1
-34.748855 -19.757298 27.595773 48.573248 0.516992 0.966568 0.002287 0.001668 -347063.000000 0 0 1
-35.216855 -18.823498 26.686073 48.028090 0.490867 0.981670 0.014674 0.005756 426114.000000 0 0 1
-36.427855 -19.328998 25.806473 48.647434 0.487835 1.011630 0.003937 0.005717 1213000.000000 0 0 1
35.245266 -19.666798 26.513873 48.290757 -0.508963 0.989573 0.017460 0.004725 -479359.000000 0 0 1
34.247466 -20.251398 25.790573 47.414784 -0.534017 0.995677 0.056791 0.000890 -376633.000000 0 0 1
33.143566 -20.844298 26.711973 47.397365 -0.561406 0.972089 0.060452 -0.006959 17914.800000 0 0 1
32.382466 -19.853798 27.402073 46.836642 -0.549999 0.945847 0.054613 -0.005298 -164873.000000 0 0 1
31.433166 -20.614398 28.098273 46.930910 -0.580453 0.928900 0.052779 -0.004572 -243884.000000 0 0 1
-30.008004 -6.187298 33.734695 45.571839 0.203339 0.737350 0.005206 0.007631 -290555.000000 0 0 1
-31.040744 -5.899798 32.850255 45.579322 0.187826 0.765946 0.004112 0.009876 2284.210000 0 0 1
-30.844114 -4.631898 32.259863 44.872180 0.149057 0.768538 0.021464 0.008368 -91943.500000 0 0 1
-31.699994 -4.493898 30.994593 44.561749 0.140825 0.801622 0.026294 -0.001238 -74707.100000 0 0 1
-31.340204 -5.249898 29.854963 43.601475 0.165972 0.816572 0.010935 -0.001748 -355034.000000 0 0 1
-30.063934 -5.090998 29.287013 42.278688 0.167748 0.805552 0.032776 -0.006919 -11989.400000 0 0 1
-29.612934 -6.270998 28.340753 41.466245 0.208683 0.818297 0.042331 -0.011298 137522.000000 0 0 1
-30.365074 -6.252498 27.139683 41.203080 0.203073 0.851732 0.032296 -0.017252 77658.900000 0 0 1
-29.703414 -7.049798 26.164883 40.206884 0.233028 0.862216 0.050414 -0.015894 355222.000000 0 0 1
-30.185124 -6.738098 24.747073 39.610116 0.219625 0.895964 0.050184 -0.012336 164046.000000 0 0 1
-29.633904 -5.511598 24.317333 38.728266 0.183888 0.891949 0.069903 -0.020174 -214489.000000 0 0 1
-30.195724 -5.140798 23.110873 38.370848 0.168632 0.924413 0.076782 -0.017889 -52313.500000 0 0 1
-29.712254 -3.715698 22.630573 37.533548 0.124410 0.923612 0.096448 -0.022931 -269970.000000 0 0 1
-28.418624 -3.775198 22.118373 36.209014 0.132069 0.913659 0.097180 -0.020785 -702629.000000 0 0 1
-28.053984 -2.481998 21.567473 35.473119 0.088242 0.917264 0.106633 -0.014430 -390539.000000 0 0 1
-26.674814 -2.599998 20.956673 34.021872 0.097163 0.907171 0.091321 -0.012238 -867326.000000 0 0 1
-26.737004 -3.341598 19.750773 33.408482 0.124336 0.938262 0.096013 -0.009304 -319636.000000 0 0 1
-25.463624 -3.354598 19.172273 32.050359 0.130987 0.929553 0.068172 -0.007028 -510914.000000 0 0 1
-25.485364 -4.034498 17.813873 31.354665 0.157004 0.966551 0.060337 -0.008690 -12158.600000 0 0 1
-26.165794 -3.272198 16.845073 31.290773 0.124410 1.002330 0.072644 -0.010169 137249.000000 0 0 1
-25.739874 -3.772498 15.579573 30.323191 0.145526 1.031207 0.073014 -0.018221 -354972.000000 0 0 1
-26.848254 -3.909598 14.562573 30.792567 0.144602 1.078189 0.091021 -0.022138 -509141.000000 0 0 1
-27.337634 -2.765898 13.906473 30.795883 0.100832 1.102273 0.097277 -0.028231 -1532180.000000 0 0 1
-28.549594 -3.024898 13.363473 31.667202 0.105559 1.135149 0.101525 -0.031167 -1394950.000000 0 0 1
-29.096734 -1.856798 12.561473 31.746782 0.063728 1.163991 0.116177 -0.019564 -344789.000000 0 0 1
-28.588354 -1.676298 11.269073 30.774924 0.058569 1.195899 0.116399 -0.025993 155413.000000 0 0 1
-29.087894 -0.464198 10.695673 30.995458 0.015957 1.218481 0.117576 -0.023943 367876.000000 0 0 1
-30.392064 -0.506598 9.825773 31.944952 0.016667 1.258143 0.114627 -0.021251 378851.000000 0 0 1
-30.465004 -1.387598 8.693373 31.711458 0.045516 1.293101 0.113443 -0.032302 -35153.500000 0 0 1
-31.770554 -1.417798 8.154573 32.831011 0.044597 1.319789 0.104914 -0.030381 -173512.000000 0 0 1
-31.882864 -2.339898 6.906673 32.706180 0.073259 1.358021 0.109054 -0.033117 -391743.000000 0 0 1
-31.361564 -1.765698 5.676673 31.920056 0.056242 1.392005 0.116802 -0.039968 573790.000000 0 0 1
-32.121534 -0.738398 5.049773 32.524427 0.022984 1.414905 0.116178 -0.036919 102089.000000 0 0 1
-31.423364 -0.145498 3.749773 31.646639 0.004630 1.452028 0.123508 -0.036254 27246.600000 0 0 1
-31.765754 -0.857698 2.622473 31.885359 0.026994 1.488456 0.114251 -0.041930 171957.000000 0 0 1
-31.221564 -0.381898 1.417273 31.256048 0.012231 1.525437 0.107583 -0.043464 -287098.000000 0 0 1
-31.978254 -0.816598 0.113573 31.988880 0.025531 1.567246 0.093242 -0.032772 1112190.000000 0 0 1
-33.373654 -0.427598 0.165873 33.376805 0.012812 1.565827 0.090510 -0.027691 1391770.000000 0 0 1
-34.060565 -0.963598 -0.984427 34.088410 0.028283 1.599679 0.079666 -0.021916 -215545.000000 0 0 1
-35.581969 -0.797698 -0.906727 35.602457 0.022415 1.596267 0.059732 -0.021517 -375968.000000 0 0 1
-36.189974 -1.835998 -0.136727 36.236774 0.050689 1.574570 0.059954 -0.019828 -427158.000000 0 0 1
35.306318 -1.580098 -0.035827 35.341676 -0.044724 1.571810 0.061007 -0.017415 -622800.000000 0 0 1
34.407688 -2.631898 0.632873 34.514003 -0.076343 1.552459 0.071273 -0.030853 -297079.000000 0 0 1
34.555138 -2.721198 2.042473 34.722243 -0.078587 1.511939 0.068628 -0.025270 241978.000000 0 0 1
33.943848 -3.903698 2.571073 34.264181 -0.114502 1.495689 0.062419 -0.014992 6949.500000 0 0 1
34.047368 -4.081298 4.084873 34.533555 -0.119302 1.452232 0.063871 -0.005288 -81228.300000 0 0 1
33.303938 -3.133198 4.812373 33.795386 -0.093803 1.427913 0.056148 -0.010766 65666.600000 0 0 1
33.329358 -3.362798 6.194473 34.066494 -0.100556 1.387944 0.055571 -0.014410 -23872.500000 0 0 1
32.521408 -2.316598 7.007073 33.348278 -0.071113 1.359101 0.054368 -0.010599 680677.000000 0 0 1
31.095568 -2.446498 6.946673 31.955844 -0.078515 1.351663 0.049292 -0.005460 494782.000000 0 0 1
30.570828 -1.287698 7.530873 31.511073 -0.042097 1.329469 0.080923 -0.009174 -248772.000000 0 0 1
29.094478 -1.409698 7.966673 30.198407 -0.048415 1.303825 0.069478 -0.011147 -223340.000000 0 0 1
28.192198 -1.342098 6.839573 29.041023 -0.047569 1.333049 0.077217 -0.012963 1060520.000000 0 0 1
26.849288 -1.618498 7.266573 27.862284 -0.060208 1.306942 0.093404 -0.011288 496074.000000 0 0 1
26.557188 -3.108498 7.121473 27.670605 -0.116519 1.310501 0.113431 -0.014265 -874217.000000 0 0 1
27.175388 -3.850298 8.143273 28.629345 -0.140746 1.282376 0.086565 -0.006606 401438.000000 0 0 1
27.151888 -5.236498 7.959073 28.774863 -0.190520 1.290544 0.116404 -0.009765 -124039.000000 0 0 1
27.463388 -5.928798 9.293573 29.593222 -0.212617 1.251347 0.072953 -0.008188 433467.000000 0 0 1
26.299088 -5.863498 10.127773 28.785316 -0.219367 1.211262 0.065201 -0.001964 1077750.000000 0 0 1
26.583688 -6.485998 11.373973 29.633223 -0.239309 1.176861 0.061019 0.003597 1016740.000000 0 0 1
25.322088 -6.344398 12.330973 28.870615 -0.245494 1.129500 0.061188 -0.007605 1150940.000000 0 0 1
24.272888 -7.223398 12.006873 28.027050 -0.289245 1.128072 0.080998 -0.018668 -140478.000000 0 0 1
23.055288 -6.896798 12.643673 27.184087 -0.290669 1.087034 0.099080 -0.025589 458270.000000 0 0 1
22.037288 -8.072198 12.584373 26.630225 -0.351119 1.078603 0.104745 -0.025433 326701.000000 0 0 1
22.408188 -9.114598 13.440973 27.674221 -0.386314 1.063649 0.082199 -0.030540 486608.000000 0 0 1
21.342388 -10.061798 13.455073 27.162037 -0.440545 1.052543 0.111813 -0.051274 362373.000000 0 0 1
21.703588 -11.284298 14.309773 28.339914 -0.479462 1.041491 0.085923 -0.037085 -210066.000000 0 0 1
21.684688 -10.986898 15.731073 28.955211 -0.468966 0.996446 0.062342 -0.040924 35024.300000 0 0 1
22.209988 -11.945798 16.588673 30.185588 -0.493473 0.988964 0.054496 -0.036769 -429976.000000 0 0 1
22.141688 -11.458398 18.081173 30.797371 -0.477552 0.943323 0.065171 -0.032271 617668.000000 0 0 1
20.789288 -11.497098 18.550073 30.141051 -0.505166 0.907850 0.074483 -0.037872 419298.000000 0 0 1
20.749388 -11.798698 19.926073 31.093323 -0.517033 0.875195 0.097558 -0.028771 268174.000000 0 0 1
21.363088 -10.779798 20.945073 31.800655 -0.467320 0.851791 0.069846 -0.020205 98201.000000 0 0 1
20.535688 -9.658398 21.257473 31.094682 -0.439625 0.818062 0.079584 -0.014435 11838.300000 0 0 1
20.571288 -8.566698 20.343373 30.173150 -0.394598 0.830887 0.068913 -0.010697 -625800.000000 0 0 1
21.697688 -7.562698 20.713673 30.936068 -0.335381 0.837175 0.046279 -0.003553 1211460.000000 0 0 1
23.061888 -7.989898 20.592973 31.933676 -0.333513 0.869947 0.050753 -0.003118 713007.000000 0 0 1
23.536788 -8.315198 19.304973 31.556376 -0.339598 0.912511 0.050158 -0.018135 -942994.000000 0 0 1
24.916888 -8.987398 19.381973 32.822027 -0.346171 0.939097 0.019315 -0.021370 -189127.000000 0 0 1
24.892488 -10.249198 20.010773 33.542705 -0.390585 0.931568 0.011753 -0.021384 -25976.900000 0 0 1
26.093188 -10.976798 19.909373 34.608202 -0.398203 0.957851 0.015041 -0.028673 -24397.900000 0 0 1
25.829788 -12.436498 20.334673 35.147451 -0.448721 0.953842 0.006706 -0.029454 64975.300000 0 0 1
24.891488 -13.015198 19.446273 34.163417 -0.481782 0.965248 0.030842 -0.035251 142422.000000 0 0 1
24.735888 -14.390898 19.698673 34.741903 -0.526916 0.967937 0.034367 -0.024736 -359051.000000 0 0 1
23.658388 -15.097798 18.888473 33.829532 -0.568006 0.978410 0.052725 -0.025903 -544085.000000 0 0 1
23.923888 -15.116498 17.482873 33.264272 -0.563516 1.017405 0.041674 -0.027151 1082650.000000 0 0 1
22.848788 -15.688598 16.650973 32.333483 -0.601694 1.029816 0.037940 -0.020063 692976.000000 0 0 1
22.589588 -17.213898 16.735773 32.965040 -0.651155 1.038304 0.037502 -0.022599 -843034.000000 0 0 1
23.629188 -18.034098 16.345573 33.922632 -0.651904 1.068033 0.053799 -0.015136 -680348.000000 0 0 1
23.365288 -19.386298 16.631373 34.617449 -0.692593 1.069648 0.040124 -0.010238 310391.000000 0 0 1
24.605688 -20.284698 16.339273 35.831281 -0.689437 1.097294 0.031434 -0.003122 288212.000000 0 0 1
24.932288 -20.338798 14.971173 35.488332 -0.684278 1.135298 0.025385 -0.011069 -511801.000000 0 0 1
25.965788 -21.224498 14.742373 36.633851 -0.685262 1.156632 0.023118 -0.011436 -423416.000000 0 0 1
26.539288 -21.269098 13.284673 36.512886 -0.675606 1.198414 0.022836 -0.022426 -200298.000000 0 0 1
25.538688 -21.586498 12.349973 35.647206 -0.701728 1.217012 0.022520 -0.016232 53880.500000 0 0 1
25.877788 -21.240398 11.051673 35.255551 -0.687294 1.251948 0.051393 -0.015769 -82912.000000 0 0 1
24.600588 -21.200498 10.187473 34.035785 -0.711298 1.266820 0.021964 -0.013374 322180.000000 0 0 1
24.053888 -22.503798 9.940873 34.406851 -0.752117 1.277696 0.013114 -0.013619 -562133.000000 0 0 1
22.683888 -22.461598 9.705373 33.365797 -0.780474 1.275652 -0.000301 -0.008300 -444289.000000 0 0 1
22.187288 -23.493298 8.665173 33.455882 -0.813980 1.308807 0.009329 -0.009363 -354813.000000 0 0 1
22.363388 -24.805398 9.112373 34.618842 -0.837124 1.304438 0.003203 -0.003426 -17517.300000 0 0 1
22.196788 -25.761588 8.103773 34.957516 -0.859593 1.336850 0.014971 -0.004763 475118.000000 0 0 1
20.730588 -26.158348 7.731673 34.260695 -0.900643 1.343164 0.012523 -0.003201 674311.000000 0 0 1
19.914588 -25.081888 7.284473 32.844413 -0.899735 1.347149 0.016273 -0.006684 325910.000000 0 0 1
18.540188 -25.455388 7.372273 32.342940 -0.941302 1.340834 0.013196 -0.020421 305187.000000 0 0 1
17.485788 -24.394398 7.564073 30.952458 -0.948887 1.323919 0.015338 -0.014378 -461106.000000 0 0 1
17.407088 -23.661498 6.343573 30.051857 -0.936529 1.358109 0.020056 -0.003983 -141463.000000 0 0 1
16.531488 -22.576698 6.459473 28.717977 -0.938761 1.343927 0.035765 -0.010489 -290113.000000 0 0 1
16.226088 -21.959098 5.072473 27.770810 -0.934422 1.387110 0.048745 -0.003390 13300.300000 0 0 1
15.331388 -20.874198 5.254673 26.427168 -0.937311 1.370626 0.063696 -0.007953 45420.900000 0 0 1
15.037588 -20.291698 3.992673 25.569973 -0.933034 1.414008 0.055968 -0.007308 536392.000000 0 0 1
14.314088 -18.894798 4.070173 24.051462 -0.922469 1.400750 0.060055 -0.005181 595170.000000 0 1 0
15.213588 -17.938498 4.629873 23.972457 -0.867408 1.376442 0.052512 -0.005242 371330.000000 0 1 0
14.713088 -16.635298 4.525873 22.664766 -0.846639 1.369757 0.045815 -0.001352 -309921.000000 0 1 0
15.865688 -15.639398 4.575573 22.743058 -0.778216 1.368228 0.049900 -0.003771 -1013360.000000 0 1 0
16.243388 -15.383298 5.906873 23.138381 -0.758210 1.312654 0.058850 -0.017150 -325729.000000 0 1 0
17.309388 -14.502898 6.002273 23.366135 -0.697406 1.311005 0.065524 -0.019166 -45929.000000 0 1 0
18.742288 -14.900898 5.601373 24.590354 -0.671710 1.340992 0.092168 -0.029170 85928.100000 0 1 0
19.749488 -13.885998 5.566473 24.775973 -0.612808 1.344190 0.111097 -0.029240 715452.000000 0 1 0
20.999488 -14.279898 5.026073 25.887360 -0.597185 1.375404 0.116467 -0.028884 5881.760000 0 0 1
21.944588 -13.085098 5.001173 26.034524 -0.537679 1.377497 0.118622 -0.024781 -211072.000000 0 0 1
22.344688 -12.629298 6.354173 26.441629 -0.514441 1.328112 0.149354 -0.034306 800531.000000 0 0 1
23.402688 -11.674398 6.227373 26.884150 -0.462726 1.337036 0.148723 -0.030631 354093.000000 0 0 1
23.774388 -10.963798 7.579073 27.255618 -0.432096 1.289008 0.160252 -0.030191 183364.000000 0 0 1
24.390288 -11.868598 8.506773 28.427363 -0.452880 1.266894 0.128919 -0.015669 470775.000000 0 0 1
24.254288 -11.253798 9.780773 28.470721 -0.434429 1.220115 0.129504 -0.030761 -65113.100000 0 0 1
24.636488 -12.182998 10.946073 29.583754 -0.459246 1.191784 0.092999 -0.025247 -640035.000000 0 0 1
23.655188 -13.094298 11.336673 29.318061 -0.505564 1.173769 0.094827 -0.027595 -311526.000000 0 0 1
23.915188 -13.982798 12.405473 30.353758 -0.529081 1.149771 0.068564 -0.028514 -307851.000000 0 0 1
22.806188 -15.021198 12.723973 30.127364 -0.582429 1.134772 0.053454 -0.035336 277500.000000 0 0 1
21.596288 -14.376998 13.106873 29.066954 -0.587344 1.103000 0.061080 -0.035722 411363.000000 0 0 1
20.614188 -15.393998 13.403473 29.009878 -0.641429 1.090512 0.050982 -0.033497 1936820.000000 0 0 1
19.274988 -14.758598 14.049373 28.048641 -0.653465 1.046166 0.039292 -0.037825 876438.000000 0 0 1
19.472988 -14.389598 15.442773 28.718235 -0.636393 1.003049 0.038448 -0.036082 147339.000000 0 0 1
18.870888 -13.160198 15.834173 27.928878 -0.608966 0.968002 0.058982 -0.048960 6530.440000 0 0 1
17.331088 -13.151398 16.042973 27.031516 -0.649130 0.935406 0.066142 -0.039178 65040.000000 0 0 1
16.678988 -13.389898 14.754573 25.984138 -0.676446 0.966929 0.060166 -0.048440 367220.000000 0 0 1
15.268188 -13.222198 14.908573 25.103976 -0.713708 0.934932 0.088380 -0.047380 441900.000000 0 0 1
14.732288 -11.828098 14.558573 23.851546 -0.676488 0.914253 0.072096 -0.040764 -570889.000000 0 1 0
15.054288 -10.851698 15.457573 24.152174 -0.624575 0.876288 0.061515 -0.030919 -28495.600000 0 1 0
14.707988 -9.522698 15.118973 23.142818 -0.574581 0.858874 0.049094 -0.024328 -348230.000000 0 1 0
15.373588 -8.494198 16.053873 23.795492 -0.504775 0.830292 0.064037 -0.022590 -211696.000000 0 1 0
16.773888 -8.427398 15.982073 24.653823 -0.465575 0.865500 0.065485 -0.034405 -384875.000000 0 1 0
17.360288 -8.903198 17.166873 25.987459 -0.473874 0.849201 0.081704 -0.028651 -728154.000000 0 0 1
18.874388 -8.952798 17.043173 26.960431 -0.442906 0.886465 0.078170 -0.024527 -772527.000000 0 0 1
19.503888 -7.724198 17.008373 27.006474 -0.377083 0.889515 0.069911 -0.025962 -124991.000000 0 0 1
20.744988 -7.775998 16.333273 27.524470 -0.358628 0.935509 0.071710 -0.011958 212649.000000 0 0 1
21.478888 -6.373798 16.338973 27.729586 -0.288470 0.940697 0.074710 -0.001418 395700.000000 0 0 1
22.249488 -6.196198 17.556573 29.011477 -0.271605 0.920830 0.071960 -0.005724 575732.000000 0 0 1
22.787788 -4.869398 17.605973 29.205557 -0.210518 0.923754 0.085996 -0.011861 -69803.500000 0 0 1
-5.545034 -32.879315 -6.405427 33.953295 1.403720 1.760588 0.036260 -0.018765 -100071.000000 0 0 1
-6.165534 -31.612915 -6.553427 32.868490 1.378182 1.771525 0.035262 -0.024354 -124496.000000 0 0 1
-5.573934 -30.620415 -5.771127 31.654138 1.390735 1.754140 0.035851 -0.025080 -1220890.000000 0 0 1
-6.264334 -29.264215 -5.817727 30.487409 1.359918 1.762798 0.036631 -0.026506 -426800.000000 0 0 1
-7.564434 -29.214515 -5.307627 30.641140 1.317433 1.744893 0.033479 -0.026216 -302513.000000 0 0 1
-8.485534 -29.619315 -6.321427 31.452640 1.291783 1.773157 0.035757 -0.023743 57795.200000 0 0 1
-9.995134 -29.679015 -5.867027 31.861711 1.245952 1.755994 0.065412 -0.012859 925368.000000 0 0 1
-10.852934 -30.040215 -6.932427 32.684236 1.224108 1.784523 0.044952 -0.009197 411212.000000 0 0 1
-12.189434 -30.126515 -6.416427 33.126421 1.186324 1.765724 0.049252 -0.008429 709596.000000 0 0 1
-13.272534 -30.735115 -7.316027 34.268524 1.163150 1.785943 0.052911 -0.011120 72889.100000 0 0 1
-13.608734 -29.953615 -8.434027 33.963944 1.144350 1.821745 0.076196 -0.018597 -274026.000000 0 0 1
-14.609234 -30.538815 -9.210527 35.083939 1.124592 1.836438 0.083271 -0.013234 -174724.000000 0 0 1
-14.850534 -29.715315 -10.531227 34.848889 1.107341 1.877793 0.094871 -0.013978 -175854.000000 0 0 1
-15.379234 -28.417115 -10.384427 33.939499 1.074737 1.881752 0.091041 -0.020850 -63985.000000 0 0 1
-14.379134 -27.524315 -10.003027 32.625266 1.089377 1.882419 0.080956 -0.019251 -175618.000000 0 0 1
-14.864934 -26.085715 -9.615727 31.526069 1.052841 1.880744 0.068669 -0.003958 79961.600000 0 0 1
-15.376234 -25.275415 -10.642527 31.441033 1.024262 1.916110 0.074896 -0.009876 148319.000000 0 0 1
-15.674534 -23.969315 -10.166527 30.390416 0.991655 1.911904 0.060129 -0.000034 -119746.000000 0 0 1
-16.334234 -23.115615 -11.280927 30.469627 0.955633 1.950058 0.073681 0.001040 203567.000000 0 0 1
-17.601734 -23.654115 -11.632027 31.696092 0.931063 1.946563 0.079241 -0.007249 209361.000000 0 0 1
-18.070934 -23.017915 -12.869127 31.968696 0.905219 1.985102 0.079036 -0.006235 533152.000000 0 0 1
-19.523434 -23.394715 -13.353827 33.268632 0.875356 1.983835 0.058315 0.002266 713505.000000 0 0 1
-19.643834 -24.737815 -13.748727 34.450939 0.899675 1.981311 0.076618 -0.002934 -99141.900000 0 0 1
-19.531234 -25.713415 -12.688427 34.693587 0.921196 1.945212 0.085118 -0.008813 -1398970.000000 0 0 1
-19.668634 -27.207215 -13.182727 36.067603 0.944853 1.944967 0.080857 -0.018554 232919.000000 0 0 1
-18.665434 -27.673415 -14.085227 36.229959 0.977397 1.970096 0.087756 -0.028371 512452.000000 0 0 1
-17.303734 -27.500215 -13.754027 35.282493 1.009167 1.971239 0.101946 -0.030920 -485806.000000 0 0 1
-16.446934 -28.744515 -13.988727 35.950428 1.051087 1.970463 0.094036 -0.033979 -331149.000000 0 0 1
-16.280634 -28.987415 -15.354527 36.620906 1.059057 2.003452 0.103923 -0.038356 12865.200000 0 0 1
-15.471734 -30.077115 -15.728927 37.301562 1.095693 2.006082 0.123625 -0.041689 87729.700000 0 0 1
-16.212134 -31.480615 -15.652627 38.715206 1.095230 1.987012 0.119142 -0.046828 277475.000000 0 0 1
-16.458834 -31.796115 -14.286027 38.548369 1.093139 1.950451 0.120011 -0.044046 230992.000000 0 0 1
-16.992634 -33.098515 -14.123927 39.796314 1.096490 1.933609 0.097956 -0.042215 -749275.000000 0 0 1
-17.593234 -33.358815 -12.717927 39.800479 1.085475 1.896043 0.097008 -0.027760 574685.000000 0 0 1
-18.966834 -33.072515 -12.425827 40.099043 1.050096 1.885861 0.097945 -0.023477 838931.000000 0 0 1
-19.392934 -31.717915 -12.561227 39.241514 1.022023 1.896632 0.098969 -0.025781 -674030.000000 0 0 1
-18.785634 -30.607415 -11.662727 37.758881 1.020320 1.884805 0.113663 -0.026988 -397642.000000 0 0 1
-19.117034 -30.816915 -10.328427 37.707024 1.015553 1.848255 0.100479 -0.024128 224582.000000 0 0 1
-18.493734 -29.942515 -9.402627 36.427761 1.017506 1.831869 0.092843 -0.021246 -353334.000000 0 0 1
-18.722134 -30.339115 -7.887327 36.512876 1.017901 1.788528 0.094178 -0.019548 -24974.600000 0 0 1
-17.807934 -31.261715 -7.334627 36.718035 1.052999 1.771905 0.092370 -0.019832 205919.000000 0 0 1
-18.172734 -31.495515 -5.943027 36.844746 1.047465 1.732803 0.105632 -0.025639 -63974.200000 0 0 1
-17.284434 -32.500115 -5.220427 37.178784 1.082013 1.711676 0.092904 -0.013575 123399.000000 0 0 1
-15.975134 -32.181215 -4.790027 36.246101 1.110023 1.703337 0.081402 -0.009948 559980.000000 0 0 1
-15.993434 -31.666915 -3.474727 35.646279 1.103115 1.668429 0.065758 -0.007516 179336.000000 0 0 1
-14.677134 -30.908315 -3.171827 34.362810 1.127462 1.663232 0.067961 -0.012180 87576.900000 0 0 1
-13.464634 -31.598415 -3.087727 34.486088 1.167980 1.660452 0.052673 -0.003976 -765109.000000 0 0 1
-12.421234 -30.703415 -2.812827 33.240017 1.186369 1.655519 0.057079 -0.006850 -257439.000000 0 0 1
-11.092534 -31.468415 -2.715127 33.476520 1.231898 1.651991 0.058007 -0.014929 -399802.000000 0 0 1
-11.031134 -32.299915 -1.603827 34.169324 1.241694 1.617751 0.056295 -0.004799 207667.000000 0 0 1
-9.879334 -33.155915 -1.585127 34.632767 1.281207 1.616582 0.065604 -0.009340 856940.000000 0 0 1
-8.726134 -32.637715 -0.659927 33.790551 1.309543 1.590328 0.061744 -0.012143 154935.000000 0 0 1
-8.966134 -32.583715 0.727973 33.802663 1.302270 1.549259 0.072609 -0.010600 965536.000000 0 0 1
-7.710434 -32.458815 1.459473 33.393945 1.337574 1.527078 0.074503 -0.016209 1545970.000000 0 0 1
-6.922034 -33.740315 1.773273 34.488664 1.368448 1.519358 0.072186 -0.021118 270937.000000 0 0 1
-7.668834 33.780602 2.713673 34.746281 -1.347561 1.492617 0.087457 -0.023202 240021.000000 0 0 1
-6.927234 32.740402 3.290573 33.626602 -1.362291 1.472783 0.081258 -0.028179 -303460.000000 0 0 1
-6.120634 33.152002 4.532673 34.015621 -1.388229 1.437146 0.084284 -0.034298 -590818.000000 0 0 1
-4.931734 33.822902 4.289673 34.448686 -1.426006 1.445949 0.073089 -0.029382 -738403.000000 0 0 1
-4.580134 -33.961515 5.502573 34.707931 1.436743 1.411585 0.069025 -0.031833 -389355.000000 0 0 1
-3.427034 -32.973215 5.434373 33.593301 1.467234 1.408313 0.050112 -0.021479 -353036.000000 0 0 1
-3.745434 -31.701915 4.897173 32.295851 1.453196 1.418574 0.042472 -0.015961 -52180.300000 0 0 1
-3.739934 -31.741915 3.461473 32.148376 1.453514 1.462915 0.041392 -0.027230 -156965.000000 0 0 1
-4.071534 -30.412015 2.771673 30.808282 1.437709 1.480709 0.042119 -0.025702 -17944.400000 0 0 1
-3.108034 -29.429315 3.049873 29.749726 1.465576 1.468098 0.031215 -0.015889 -65958.400000 0 0 1
-3.180534 -28.442515 2.041073 28.692481 1.459436 1.499600 0.026046 -0.021366 65657.700000 0 0 1
-2.650734 -27.122215 2.494273 27.365349 1.473373 1.479523 0.022584 -0.020189 -302822.000000 0 0 1
-2.952734 -26.099715 1.510173 26.309587 1.458143 1.513365 0.027830 -0.022624 -300416.000000 0 0 1
-2.883834 -24.806415 2.056473 25.058009 1.455062 1.488635 0.022823 -0.019715 208043.000000 0 0 1
-3.995634 -24.363315 3.065373 24.878359 1.408241 1.447268 0.019003 -0.015524 -45985.100000 0 1 0
-4.077434 -25.016415 4.325173 25.712908 1.409227 1.401783 0.033458 -0.017231 -510285.000000 0 0 1
-5.032334 -24.421515 5.147873 25.460467 1.367579 1.367202 0.028519 -0.015801 -104066.000000 0 0 1
-5.638334 -25.393615 6.206373 26.742206 1.352303 1.336579 0.045772 -0.014534 640068.000000 0 0 1
-4.656734 -25.706115 7.213373 27.102071 1.391587 1.301394 0.026758 -0.017232 317251.000000 0 0 1
-5.267234 -26.532115 8.173173 28.257701 1.374821 1.277367 0.033494 -0.015478 467006.000000 0 0 1
-4.316634 -27.077915 9.313073 28.958248 1.412711 1.243374 0.025919 -0.014431 298157.000000 0 0 1
-3.932034 -26.067415 10.298073 28.302320 1.421084 1.198388 0.022373 -0.012577 -327183.000000 0 0 1
-4.974034 -25.464915 11.023973 28.190972 1.377896 1.169028 0.039735 -0.015555 -284474.000000 0 0 1
-4.528434 -24.453015 12.150673 27.678430 1.387682 1.116317 0.011346 -0.017361 29956.500000 0 0 1
-3.791234 -25.163515 13.141773 28.640568 1.421257 1.094094 -0.006419 -0.012565 -125143.000000 0 0 1
-3.135334 -24.238215 13.963673 28.147923 1.442156 1.051716 0.005174 -0.015924 -682214.000000 0 0 1
-2.177434 -24.841715 14.985973 29.093494 1.483367 1.029675 0.019753 -0.011898 -335882.000000 0 0 1
-2.692234 -25.380215 16.170073 30.213816 1.465115 1.006066 0.019288 -0.009492 488997.000000 0 0 1
-1.612534 -25.959615 16.948873 31.044584 1.508759 0.993271 0.026295 -0.007570 861308.000000 0 0 1
-2.111634 -26.535515 18.252073 32.275854 1.491386 0.969754 0.027104 -0.008434 189337.000000 0 0 1
-2.597434 -25.430015 19.043073 31.875868 1.469009 0.930524 0.047966 -0.005587 -191165.000000 0 0 1
-2.670234 -25.707415 20.424273 32.941649 1.467297 0.902036 0.060138 -0.008550 124364.000000 0 0 1
-3.277634 -24.571815 21.251573 32.651896 1.438189 0.862089 0.087593 -0.011613 -240081.000000 0 0 1
-3.118434 -24.945615 22.596973 33.802833 1.446432 0.838615 0.104568 -0.013060 -27461.400000 0 0 1
-3.009634 -23.883715 23.531273 33.663193 1.445445 0.796769 0.094769 -0.014498 83537.500000 0 0 1
-1.937334 -22.783915 23.362473 32.690445 1.485970 0.774662 0.090467 -0.016830 -160597.000000 0 0 1
-2.363734 -21.774115 22.425873 31.346756 1.462663 0.773581 0.105399 -0.016205 -583216.000000 0 0 1
-1.379834 -20.882915 22.059773 30.407789 1.504817 0.759087 0.098995 -0.018658 -708698.000000 0 0 1
-2.009934 -19.693015 21.342673 29.109523 1.469085 0.747802 0.085100 -0.008982 -145113.000000 0 0 1
-2.754134 -18.784415 22.172573 29.190109 1.425216 0.708111 0.088708 -0.026016 1605470.000000 0 0 1
-4.119534 -19.117915 22.584973 29.875512 1.358561 0.713663 0.090629 -0.027712 1998520.000000 0 0 1
-5.183834 -18.969115 21.392073 29.057189 1.304032 0.743350 0.068164 -0.027909 76575.700000 0 0 1
-5.003334 -19.882515 20.325573 28.869996 1.324270 0.789729 0.081746 -0.032253 -323231.000000 0 0 1
-5.577234 -21.155015 20.438373 29.939393 1.313025 0.819402 0.074761 -0.017235 -272396.000000 0 0 1
-5.515934 -21.836315 19.096073 29.528125 1.323369 0.867536 0.050723 -0.025319 -293140.000000 0 0 1
-6.001534 -23.144315 19.008673 30.545169 1.317075 0.899101 0.046553 -0.022422 -113583.000000 0 0 1
-5.756334 -23.631215 17.693473 30.077046 1.331859 0.941876 0.042372 -0.025830 147428.000000 0 0 1
-6.248634 -25.061015 17.554273 31.229031 1.326442 0.973857 0.039010 -0.026646 465289.000000 0 0 1
-7.653734 -25.226515 17.552773 31.671068 1.276223 0.983369 0.075859 -0.027041 -203738.000000 0 0 1
-8.104434 -26.559215 17.286073 32.709052 1.274625 1.013987 0.105151 -0.031829 -428224.000000 0 0 1
-9.597334 -26.711215 17.512873 33.351140 1.225861 1.017957 0.090802 -0.033118 -500095.000000 0 0 1
-10.397934 -26.103315 16.460873 32.564711 1.191724 1.040856 0.114960 -0.038996 896024.000000 0 0 1
-11.809434 -26.273615 16.651573 33.272217 1.148376 1.046661 0.108545 -0.028960 1073780.000000 0 0 1
-12.541734 -25.371015 17.704173 33.382948 1.111692 1.011800 0.084507 -0.023480 -263973.000000 0 0 1
-12.536834 -23.978215 17.351273 32.143330 1.089042 1.000586 0.077008 -0.026792 117883.000000 0 0 1
-13.055634 -23.215715 18.425473 32.386989 1.058512 0.965609 0.059156 -0.011089 344114.000000 0 0 1
-11.898234 -22.540015 19.227873 31.926969 1.085101 0.924485 0.050978 -0.017605 487689.000000 0 0 1
-11.146734 -23.406715 20.062173 32.781317 1.126353 0.912209 0.064231 -0.016310 3079.650000 0 0 1
-9.778734 -23.055615 19.945673 32.015854 1.169657 0.898232 0.074074 -0.027508 308633.000000 0 0 1
-8.895834 -24.027015 20.776873 32.986539 1.216203 0.889425 0.073834 -0.026682 99180.700000 0 0 1
-8.859034 -23.690015 22.154273 33.623074 1.212941 0.851440 0.058613 -0.019293 118457.000000 0 0 1
-7.824234 -24.349415 22.860573 34.303330 1.259886 0.841394 0.056087 -0.011122 204218.000000 0 0 1
-7.607734 -23.836215 24.294873 34.875258 1.261849 0.800118 0.064908 -0.012899 370001.000000 0 0 1
-6.621334 -24.592515 25.009073 35.694363 1.307791 0.794495 0.077681 -0.013841 261288.000000 0 0 1
-6.583834 -24.138815 26.372373 36.352872 1.304524 0.759101 0.075781 -0.012336 -11341.900000 0 0 1
-5.388734 -24.684415 27.181373 37.110454 1.355863 0.748890 0.087617 -0.014969 256435.000000 0 0 1
-4.169934 -23.989915 26.930773 36.306623 1.398696 0.735107 0.085869 -0.008422 -552477.000000 0 0 1
-3.161134 -24.547815 27.712973 37.156384 1.442727 0.728991 0.084553 -0.005357 -766471.000000 0 0 1
-1.881934 -23.763715 27.430873 36.341555 1.491768 0.715436 0.080028 -0.006548 -977956.000000 0 0 1
-1.965334 -22.387215 27.800873 35.748265 1.483233 0.679822 0.089794 -0.009607 -522529.000000 0 0 1
-0.945234 -21.687915 27.149973 34.761763 1.527240 0.674483 0.091299 -0.010162 -186567.000000 0 0 1
0.290266 -21.498615 28.053273 35.344884 -1.557296 0.653927 0.085712 -0.009726 -683641.000000 0 0 1
0.949466 -22.656215 28.340773 36.296074 -1.528913 0.674816 0.084886 -0.013165 -649027.000000 0 0 1
1.632766 -22.523315 29.559773 37.198734 -1.498431 0.652374 0.063070 -0.015397 -455178.000000 0 0 1
2.310866 -23.820815 29.937273 38.327688 -1.474089 0.674391 0.071782 -0.026192 -379676.000000 0 0 1
3.240466 -24.371315 28.996573 38.016613 -1.438609 0.703266 0.058940 -0.032173 669747.000000 0 0 1
4.004366 -25.437615 29.595773 39.230307 -1.414659 0.716040 0.032113 -0.020829 -779584.000000 0 0 1
5.194366 -25.083315 30.493973 39.825074 -1.366598 0.698671 0.015385 -0.019541 -25240.600000 0 0 1
6.427266 -24.776615 29.826873 39.304360 -1.316982 0.709221 0.013886 -0.017432 525015.000000 0 0 1
7.064166 -25.864715 29.205173 39.646287 -1.304179 0.742703 0.018389 -0.017983 -1013210.000000 0 0 1
8.450066 -25.482815 28.662973 39.272681 -1.250608 0.752701 0.025257 -0.018566 -512506.000000 0 0 1
8.283566 -24.570315 27.577773 37.853024 -1.245626 0.754595 0.038236 -0.021048 536635.000000 0 0 1
9.407366 -24.503615 26.692473 37.435462 -1.204231 0.776991 0.012548 -0.012797 24670.800000 0 0 1
9.364566 -23.265915 25.741073 35.938847 -1.188135 0.772388 0.035643 -0.003454 63887.700000 0 0 1
8.330466 -23.427415 24.785573 35.107906 -1.229154 0.786987 0.041973 -0.010018 138026.000000 0 0 1
8.182966 -22.185115 24.092173 33.757563 -1.217429 0.776055 0.039707 -0.009389 33279.500000 0 0 1
7.407166 -22.261715 22.769673 32.694160 -1.249588 0.800365 0.051437 -0.005734 4420.900000 0 0 1
8.100766 -23.078015 21.860073 32.803658 -1.233216 0.841438 0.036376 0.001324 -124130.000000 0 0 1
7.489666 -23.087215 20.631373 31.855426 -1.257100 0.866292 0.061262 -0.008162 -558319.000000 0 0 1
8.300966 -23.830915 19.588973 31.945992 -1.235612 0.910703 0.065648 -0.013563 324246.000000 0 0 1
9.518466 -23.175615 19.240173 31.589470 -1.181091 0.915910 0.047844 -0.010769 -77646.600000 0 0 1
10.274766 -24.017815 18.417673 31.963056 -1.166558 0.956703 0.068469 -0.015029 -311493.000000 0 0 1
11.405266 -23.254415 17.743573 31.395578 -1.114813 0.970167 0.053121 -0.016475 -410506.000000 0 0 1
10.932766 -22.434015 16.720073 30.039495 -1.117336 0.980505 0.056908 -0.011790 -197506.000000 0 0 1
11.929166 -22.063015 15.790173 29.638003 -1.075132 1.008929 0.054305 -0.020742 91100.200000 0 0 1
-12.332034 22.305902 10.727573 27.653447 -1.065760 1.172413 0.008837 -0.002939 -681937.000000 0 0 1
-13.356934 21.416502 10.430373 27.310564 -1.013150 1.178927 0.004821 -0.013120 -267768.000000 0 0 1
-12.859034 20.194202 9.938873 25.921838 -1.003779 1.177303 0.039181 -0.022751 210998.000000 0 0 1
-13.894834 19.565402 8.968473 25.618447 -0.953275 1.213141 0.056948 -0.023679 -475566.000000 0 0 1
-14.073634 20.425702 7.859173 26.020051 -0.967480 1.263961 0.062005 -0.021842 -535018.000000 0 0 1
-14.909234 19.982302 6.878873 25.863034 -0.929782 1.301583 0.069149 -0.015058 255094.000000 0 0 1
-16.445034 19.945402 7.191673 26.832412 -0.881292 1.299457 0.056936 -0.017714 -36208.400000 0 0 1
-16.897434 18.903702 7.969873 26.578037 -0.841379 1.266243 0.049590 -0.021667 200557.000000 0 0 1
-18.253034 19.100802 8.340273 27.705126 -0.808090 1.265016 0.067054 -0.019010 331673.000000 0 0 1
-18.873234 18.061702 9.375973 27.754871 -0.763430 1.226203 0.051893 -0.017866 106986.000000 0 0 1
-18.955434 16.811602 8.740073 26.801628 -0.725531 1.238619 0.053301 -0.023847 190454.000000 0 0 1
-19.446234 15.796202 9.658373 26.850701 -0.682197 1.202843 0.057441 -0.023457 -464268.000000 0 0 1
-18.503534 15.208002 10.750473 26.253318 -0.687951 1.148901 0.059109 -0.017140 155215.000000 0 0 1
-17.580134 14.383502 10.007373 24.821235 -0.685721 1.155810 0.044087 -0.009626 409433.000000 0 1 0
-16.749434 13.506702 10.776373 24.064595 -0.678630 1.106482 0.047459 -0.014857 203967.000000 0 1 0
-17.446034 12.344802 11.502373 24.270616 -0.615808 1.077057 0.037120 -0.017730 -279266.000000 0 1 0
-18.070434 11.318202 10.769973 23.887959 -0.559561 1.103075 0.024391 -0.022981 136111.000000 0 1 0
-18.909234 10.602802 11.664573 24.617895 -0.511037 1.077167 0.035247 -0.020383 -325664.000000 0 1 0
-20.064034 9.839602 11.022573 24.917470 -0.455946 1.112564 0.039148 -0.021272 -721237.000000 0 1 0
-19.692634 8.713302 10.168373 23.814224 -0.416570 1.129638 0.037765 -0.023044 417854.000000 0 1 0
-19.210534 9.114302 8.835973 23.025844 -0.442994 1.176952 0.046601 -0.020923 -365837.000000 0 1 0
-20.189134 9.558502 7.704073 23.628771 -0.442181 1.238678 0.063435 -0.023164 -72818.100000 0 1 0
-20.713134 8.425002 7.028773 23.439671 -0.386309 1.266244 0.051601 -0.028351 672560.000000 0 1 0
-21.590434 8.757302 5.937973 24.043641 -0.385333 1.321248 0.067603 -0.023764 384326.000000 0 1 0
-21.960534 7.446102 5.213373 23.767388 -0.326902 1.349648 0.096134 -0.021004 -111267.000000 0 1 0
-22.624234 6.448902 5.981173 24.273828 -0.277680 1.321828 0.098188 -0.025194 339882.000000 0 1 0
-22.278534 5.098402 5.567773 23.522901 -0.224974 1.331833 0.096085 -0.024190 -581442.000000 0 1 0
-23.282734 4.009102 5.955673 24.364495 -0.170520 1.323854 0.111144 -0.023166 -887815.000000 0 1 0
-24.359034 4.159002 5.116173 25.235591 -0.169107 1.366645 0.125001 -0.031127 -617798.000000 0 0 1
-25.395294 3.201902 5.254373 26.130089 -0.125421 1.368331 0.149344 -0.029321 940721.000000 0 0 1
-26.539264 3.327802 4.161573 27.068902 -0.124741 1.416444 0.158529 -0.035902 624465.000000 0 0 1
-26.057144 2.982002 2.889673 26.385929 -0.113945 1.461061 0.150260 -0.034504 745937.000000 0 0 1
-27.145584 2.791502 1.961873 27.359169 -0.102474 1.499027 0.147509 -0.031034 462726.000000 0 0 1
-26.798404 2.666602 0.451273 26.934529 -0.099180 1.554041 0.157160 -0.031792 -328729.000000 0 0 1
-26.344204 3.891902 -0.132327 26.630461 -0.146672 1.575765 0.155394 -0.037553 331316.000000 0 0 1
-26.559054 3.973102 -1.548027 26.899168 -0.148494 1.628377 0.193709 -0.029291 -639684.000000 0 0 1
-27.938764 4.443302 -1.992527 28.359965 -0.157716 1.641113 0.166476 -0.032628 -275537.000000 0 0 1
-28.950514 3.439902 -1.819427 29.210879 -0.118266 1.633123 0.130581 -0.033825 -356439.000000 0 0 1
-30.172884 4.061402 -1.982227 30.509459 -0.133800 1.635813 0.113639 -0.020582 -1080480.000000 0 0 1
-31.322794 3.111702 -2.347627 31.564401 -0.099018 1.645241 0.098098 -0.018705 -345552.000000 0 0 1
-31.263274 2.692602 -3.694427 31.595746 -0.085915 1.687992 0.084527 -0.024764 1098240.000000 0 0 1
-32.232114 1.619802 -3.908527 32.508606 -0.050212 1.691318 0.095826 -0.030628 606980.000000 0 0 1
-32.289374 1.142302 -5.397227 32.757267 -0.035362 1.736315 0.089908 -0.027599 -55765.800000 0 0 1
-31.031294 0.634502 -5.852627 31.584759 -0.020444 1.757173 0.104855 -0.032145 862081.000000 0 0 1
-31.173504 -0.101598 -7.093727 31.970590 0.003259 1.794541 0.113368 -0.030340 -204088.000000 0 0 1
-31.505404 0.715702 -8.336527 32.597552 -0.022713 1.829410 0.107404 -0.032591 -550477.000000 0 0 1
-32.887534 0.820202 -8.546627 33.989814 -0.024934 1.824971 0.105948 -0.025993 -73224.300000 0 0 1
-33.154124 1.809402 -9.530427 34.544159 -0.054521 1.850313 0.103262 -0.032723 -847995.000000 0 0 1
-34.627745 2.144302 -9.546227 35.983457 -0.061845 1.839306 0.101204 -0.032173 -661422.000000 0 0 1
-35.067867 2.967402 -8.420227 36.186475 -0.084418 1.805639 0.081686 -0.028967 352728.000000 0 0 1
-36.417954 2.768802 -8.052827 37.400289 -0.075882 1.787810 0.079704 -0.025467 37227.400000 0 0 1
36.163558 3.665902 -6.779927 36.975792 0.101025 1.755201 0.089645 -0.022196 27153.300000 0 0 1
34.769718 3.707502 -6.544127 35.573929 0.106229 1.755809 0.090386 -0.025801 269296.000000 0 0 1
34.557998 4.417802 -5.349727 35.247578 0.127148 1.723161 0.091548 -0.023378 237325.000000 0 0 1
33.094268 4.373102 -4.803527 33.725783 0.131380 1.713711 0.094726 -0.026515 578873.000000 0 0 1
32.989128 3.120702 -4.114127 33.390828 0.094317 1.694322 0.090352 -0.032076 -200733.000000 0 0 1
31.776438 2.473502 -4.401927 32.175102 0.077684 1.708038 0.110176 -0.034844 -207301.000000 0 0 1
31.543278 1.128302 -3.735127 31.783685 0.035755 1.688586 0.122943 -0.028833 -221778.000000 0 0 1
32.407148 0.136202 -4.235227 32.683007 0.004203 1.700747 0.091422 -0.033169 127520.000000 0 0 1
32.229148 -1.047198 -3.512127 32.436856 -0.032481 1.679285 0.093656 -0.030046 -597893.000000 0 0 1
33.465418 -1.906398 -3.611327 33.713650 -0.056905 1.678120 0.072111 -0.031356 -462850.000000 0 0 1
33.253828 -3.220298 -3.190027 33.561342 -0.096539 1.665991 0.062165 -0.024708 -200602.000000 0 0 1
34.465878 -3.911798 -3.297027 34.843497 -0.113014 1.665562 0.078894 -0.025390 -48133.600000 0 0 1
34.399158 -5.392698 -2.736927 34.926695 -0.155503 1.649239 0.080220 -0.028369 -38198.700000 0 0 1
34.061708 -5.526998 -1.343027 34.533337 -0.160862 1.609697 0.074483 -0.028418 -41141.100000 0 0 1
34.395818 -6.746298 -0.796927 35.060233 -0.193679 1.593529 0.088880 -0.034909 -341828.000000 0 0 1
33.782718 -6.924498 0.593873 34.490193 -0.202171 1.553577 0.082950 -0.031781 -667049.000000 0 0 1
32.504268 -7.459498 0.563073 33.353989 -0.225587 1.553914 0.075435 -0.021057 -714488.000000 0 0 1
32.022278 -7.604798 1.878973 32.966495 -0.233165 1.513769 0.075852 -0.028057 -636433.000000 0 0 1
31.586298 -9.062598 2.112173 32.928501 -0.279410 1.506608 0.088887 -0.028786 825778.000000 0 0 1
30.468868 -9.627898 1.352673 31.982465 -0.306062 1.528490 0.090472 -0.036479 -277544.000000 0 0 1
29.288048 -9.306398 1.951573 30.792977 -0.307664 1.507377 0.090685 -0.038982 -1894090.000000 0 0 1
28.181458 -10.273298 1.420373 30.029197 -0.349570 1.523479 0.112218 -0.041473 125248.000000 0 0 1
26.840488 -10.147798 1.896373 28.757361 -0.361466 1.504805 0.126971 -0.044664 902584.000000 0 0 1
26.077088 -9.081198 1.390473 27.648076 -0.335110 1.520483 0.141347 -0.046252 -402955.000000 0 0 1
25.278188 -9.405398 0.097073 26.971424 -0.356204 1.567197 0.128578 -0.041947 -115393.000000 0 0 1
26.161488 -9.572098 -1.060527 27.877827 -0.350756 1.608847 0.118652 -0.048418 783355.000000 0 0 1
25.648688 -10.018998 -2.307127 27.632560 -0.372398 1.654387 0.113150 -0.053755 -595718.000000 0 0 1
24.879188 -11.343598 -2.323227 27.441731 -0.427789 1.655558 0.102587 -0.035557 -450605.000000 0 0 1
23.537188 -11.256298 -1.920827 26.160907 -0.446084 1.644286 0.089805 -0.025308 -265299.000000 0 0 1
23.108288 -12.595798 -1.676727 26.371547 -0.499056 1.634420 0.078955 -0.017088 125516.000000 0 0 1
21.583588 -12.703698 -1.420727 25.084929 -0.531981 1.627463 0.069581 -0.019187 1149250.000000 0 0 1
20.727288 -12.434898 -2.606527 24.311338 -0.540367 1.678217 0.067373 -0.010481 1421450.000000 0 1 0
19.334288 -12.376998 -2.334627 23.074992 -0.569425 1.672145 0.064023 -0.012585 781626.000000 0 1 0
18.433988 -11.879898 -3.527827 22.212372 -0.572468 1.730294 0.049350 -0.001274 274473.000000 0 1 0
18.434988 -12.782798 -4.607027 22.901384 -0.606282 1.773347 0.052943 -0.002255 302643.000000 0 1 0
17.804288 -12.234398 -5.732227 22.350204 -0.602057 1.830168 0.059038 -0.006516 -347291.000000 0 1 0
17.957688 -13.103698 -6.991327 23.303736 -0.630381 1.875498 0.059028 -0.010049 -317874.000000 0 1 0
17.087788 -14.202598 -7.094627 23.324666 -0.693451 1.879862 0.062093 -0.010248 357661.000000 0 1 0
17.259588 -14.741198 -8.423927 24.210718 -0.706862 1.926171 0.070637 -0.014469 -203295.000000 0 1 0
16.218288 -15.820098 -8.784427 24.299682 -0.772970 1.940677 0.064087 -0.019450 827348.000000 0 1 0
14.849988 -15.344598 -8.756027 23.079143 -0.801777 1.959935 0.072627 -0.015476 1964750.000000 0 1 0
13.898688 -16.201898 -9.482227 23.357818 -0.861766 1.988820 0.063906 -0.013884 856853.000000 0 1 0
13.844388 -15.822598 -10.996027 23.726237 -0.851980 2.052686 0.069255 -0.026662 37240.300000 0 1 0
13.009988 -14.679798 -11.405627 22.690187 -0.845629 2.097478 0.050799 -0.024797 861772.000000 0 1 0
13.431688 -13.408898 -10.883927 21.878498 -0.784549 2.091478 0.061018 -0.019237 -74440.600000 0 1 0
13.529588 -12.299698 -11.968227 21.853393 -0.737818 2.150361 0.081405 -0.020868 -354730.000000 0 1 0
14.642688 -12.479898 -12.790927 23.103333 -0.705825 2.157525 0.088161 -0.021008 -123827.000000 0 1 0
14.449388 -11.827098 -14.063427 23.376164 -0.685931 2.216316 0.102515 -0.023031 -438044.000000 0 1 0
15.736388 -11.517898 -14.844327 24.508161 -0.631834 2.221428 0.108147 -0.029307 -400836.000000 0 1 0
16.438288 -12.667898 -15.236327 25.745653 -0.656576 2.204089 0.100363 -0.019966 67439.200000 0 0 1
17.503688 -12.174998 -16.045027 26.684313 -0.607745 2.215912 0.089819 -0.014545 -158058.000000 0 0 1
18.564988 -13.238998 -16.382927 28.077218 -0.619475 2.193822 0.074167 -0.010425 -494573.000000 0 0 1
19.192788 -13.632798 -15.197327 28.020975 -0.617611 2.144034 0.057448 -0.021610 -119261.000000 0 0 1
20.257088 -14.513998 -15.491127 29.342474 -0.621707 2.126972 0.045068 -0.016223 -241361.000000 0 0 1
21.359188 -14.437298 -14.416727 29.537984 -0.594388 2.080678 0.027826 -0.015565 10234.200000 0 0 1
22.156788 -13.238898 -14.518627 29.613886 -0.538586 2.083189 0.027141 -0.014035 273259.000000 0 0 1
23.113088 -13.201998 -13.478927 29.836036 -0.518967 2.039541 0.029740 -0.012769 323159.000000 0 0 1
23.903588 -11.848898 -13.429127 29.868367 -0.460198 2.037125 0.044685 -0.015497 -23909.600000 0 0 1
23.143288 -10.754498 -12.927427 28.607506 -0.435004 2.039678 0.034857 -0.007745 163259.000000 0 0 1
23.818988 -9.517198 -12.937827 28.728185 -0.380130 2.037957 0.045967 -0.016597 -246728.000000 0 0 1
24.818888 -9.245698 -11.789527 28.990569 -0.356601 1.989600 0.055601 -0.017250 -209808.000000 0 0 1
26.065988 -9.826698 -12.063127 30.356528 -0.360517 1.979458 0.053491 -0.011334 -266224.000000 0 0 1
27.074088 -9.351498 -11.203727 30.756792 -0.332575 1.943643 0.059929 -0.008205 -1133600.000000 0 0 1
28.337028 -10.145598 -11.366227 32.173148 -0.343813 1.931874 0.072474 -0.010615 -971289.000000 0 0 1
28.949338 -9.892298 -12.625127 33.095552 -0.329271 1.962188 0.058163 -0.005517 -245066.000000 0 0 1
30.182648 -10.566998 -12.628527 34.382167 -0.336765 1.946899 0.045763 -0.003436 -429736.000000 0 0 1
30.930448 -10.277198 -13.970527 35.461092 -0.320791 1.975741 0.025517 0.000087 -530674.000000 0 0 1
30.433938 -10.737698 -15.170927 35.660619 -0.339185 2.010228 0.020670 0.004108 -197938.000000 0 0 1
31.149248 -10.318398 -16.302327 36.640290 -0.319880 2.031891 0.004559 0.007491 -480429.000000 0 0 1
30.667958 -11.158998 -17.521727 37.041299 -0.348973 2.063526 -0.008583 0.009835 137554.000000 0 0 1
29.515628 -10.756598 -18.233927 36.322896 -0.349478 2.096701 0.002230 0.005353 109848.000000 0 0 1
29.731898 -9.499698 -18.856827 36.466559 -0.309260 2.114255 0.006873 0.006196 92755.500000 0 0 1
28.413378 -8.918898 -19.457027 35.573061 -0.304158 2.149524 -0.039042 0.003323 444593.000000 0 0 1
27.922198 -9.510398 -20.657627 36.011587 -0.328279 2.181737 -0.024585 0.006612 -223472.000000 0 0 1
26.544988 -9.308398 -20.747027 34.953137 -0.337267 2.206280 0.015233 0.012856 -557295.000000 0 0 1
25.994088 -9.736698 -22.091327 35.475663 -0.358397 2.243008 0.028345 0.001438 -208090.000000 0 0 1
25.851988 -11.120098 -22.223527 35.858988 -0.406220 2.239218 0.011296 0.005288 58440.400000 0 0 1
25.009688 -11.445498 -23.301327 36.047688 -0.429191 2.273657 0.025831 -0.001173 -755892.000000 0 0 1
24.952188 -12.971398 -23.579927 36.699889 -0.479401 2.268561 0.008157 0.003954 635061.000000 0 0 1
26.084688 -13.475098 -24.297827 38.110020 -0.476832 2.262137 0.005016 0.008225 853962.000000 0 0 1
27.339488 -13.421998 -23.618127 38.541064 -0.456372 2.230401 -0.012986 0.012820 305522.000000 0 0 1
28.585648 -13.933398 -24.394127 40.079325 -0.453538 2.225150 -0.011820 0.015709 327925.000000 0 0 1
29.046108 -13.197598 -25.488687 40.835354 -0.426480 2.244880 0.006907 0.001542 539891.000000 0 0 1
30.412438 -13.547598 -25.733367 42.079211 -0.419074 2.228809 0.005508 0.000822 473460.000000 0 0 1
31.036908 -12.934098 -26.985647 43.113869 -0.394847 2.247101 0.026380 -0.008818 -15561.700000 0 0 1
30.753598 -13.659398 -28.156537 43.876572 -0.417984 2.267537 0.031554 -0.013460 63163.800000 0 0 1
31.560418 -13.149298 -29.178477 44.948277 -0.394767 2.277272 0.031011 -0.016706 -45754.700000 0 0 1
31.469928 -14.076098 -30.364007 45.939807 -0.420596 2.292883 0.033355 -0.020593 211315.000000 0 0 1
32.111678 -15.345298 -30.153937 46.646522 -0.445790 2.273699 0.045937 -0.022424 -129709.000000 0 0 1
32.309898 -16.093798 -31.317037 47.788039 -0.462132 2.285419 0.020937 -0.019103 189699.000000 0 0 1
31.097118 -16.832098 -31.951897 47.657885 -0.496120 2.305602 0.018717 -0.007680 587330.000000 0 0 1
30.198598 -16.055498 -32.728097 47.337751 -0.488657 2.334186 0.023278 -0.015765 -47286.500000 0 0 1
28.995928 -16.724698 -33.022857 47.021149 -0.523182 2.349417 0.016844 -0.018429 233429.000000 0 0 1
28.055228 -15.918698 -33.961877 46.839192 -0.516108 2.381938 0.034958 -0.018258 -356418.000000 0 0 1
27.506088 -14.684198 -33.491357 45.758951 -0.490362 2.391915 0.036756 -0.026341 -246351.000000 0 0 1
28.432998 -13.631998 -33.363637 45.906416 -0.447067 2.384411 0.039710 -0.024120 -304286.000000 0 0 1
27.783088 -12.206498 -33.329287 45.074826 -0.413962 2.403007 0.049764 -0.028044 531485.000000 0 0 1
27.174188 -11.883798 33.754533 44.933613 -0.412259 0.720905 0.073489 -0.039223 191203.000000 0 0 1
26.411088 -10.717498 33.954848 44.332178 -0.385492 0.698327 0.056187 -0.030027 -3489.490000 0 0 1
20.329566 -29.611815 9.177573 37.072614 -0.969164 1.320639 0.033865 -0.020720 -139216.000000 0 0 1
21.012866 -29.311615 7.975173 36.936631 -0.948832 1.353167 0.034468 -0.022713 633243.000000 0 0 1
22.296966 -29.946215 7.897073 38.161424 -0.930781 1.362352 0.058893 -0.020134 822042.000000 0 0 1
23.043566 -29.543615 6.570873 38.039552 -0.908380 1.397188 0.054438 -0.020389 92834.600000 0 0 1
23.451866 -28.225315 6.393873 37.249699 -0.877507 1.398293 0.054103 -0.016846 180230.000000 0 0 1
24.083866 -27.998015 5.114473 37.283767 -0.860411 1.433185 0.062286 -0.010252 241600.000000 0 0 1
24.207166 -26.537815 4.648473 36.219482 -0.831295 1.442100 0.057125 -0.013213 -230042.000000 0 0 1
24.983266 -25.792115 5.504473 36.327621 -0.801327 1.418687 0.054781 -0.012052 -374171.000000 0 0 1
24.660166 -24.430515 5.375573 35.126495 -0.780720 1.417158 0.050746 -0.006129 397682.000000 0 0 1
25.605166 -23.521515 6.230573 35.322886 -0.743010 1.393479 0.038943 -0.004053 880280.000000 0 0 1
26.965466 -23.444915 5.792673 36.198833 -0.715674 1.410082 0.048713 -0.002729 983567.000000 0 0 1
27.850366 -22.718915 6.679673 36.556943 -0.684271 1.387044 0.053715 -0.003850 483885.000000 0 0 1
27.703266 -21.176715 6.885373 35.543390 -0.652661 1.375846 0.049322 -0.000186 -376170.000000 0 0 1
27.916166 -20.437515 5.740073 35.070683 -0.631948 1.406385 0.049105 -0.001359 12017.100000 0 0 1
27.447566 -19.114815 5.855473 33.956319 -0.608314 1.397489 0.054960 -0.007637 47858.600000 0 0 1
27.363666 -18.407715 4.531473 33.288864 -0.592172 1.434247 0.053313 -0.001688 185678.000000 0 0 1
28.633666 -17.991415 4.074573 34.061415 -0.560991 1.450885 0.057693 -0.000099 6272.460000 0 0 1
28.493866 -17.351715 2.823473 33.480658 -0.546984 1.486365 0.054067 0.003121 422199.000000 0 0 1
29.733166 -16.576315 2.262873 34.116799 -0.508585 1.504420 0.064494 -0.018441 397991.000000 0 0 1
29.800366 -15.428115 3.093273 33.699509 -0.477719 1.478877 0.078002 -0.024143 810945.000000 0 0 1
31.029866 -14.668615 3.150373 34.466589 -0.441591 1.479265 0.087513 -0.026450 768844.000000 0 0 1
30.959266 -13.461615 4.151973 34.013676 -0.410156 1.448423 0.093143 -0.028442 143942.000000 0 0 1
30.631066 -13.795815 5.469373 34.036756 -0.423175 1.409406 0.074932 -0.014428 -17498.600000 0 0 1
30.130566 -12.641615 6.129873 33.245102 -0.397255 1.385351 0.053334 -0.015727 -282007.000000 0 0 1
29.716566 -12.856815 7.591773 33.256684 -0.408331 1.340488 0.067413 -0.008400 325756.000000 0 0 1
28.498966 -13.636215 7.767673 32.534200 -0.446285 1.329714 0.040228 -0.007907 1147040.000000 0 0 1
27.798866 -13.294715 8.989473 32.098864 -0.446094 1.286944 0.062766 0.000707 326331.000000 0 0 1
27.973466 -14.208915 10.241473 33.004482 -0.469981 1.255282 0.067057 -0.001810 -390825.000000 0 0 1
29.265366 -14.131915 10.775973 34.238783 -0.449865 1.250624 0.052911 0.000643 -204566.000000 0 0 1
29.391666 -15.240115 11.626573 35.090004 -0.478352 1.233077 0.070580 -0.010277 -151599.000000 0 0 1
30.093166 -15.077215 12.962873 36.068784 -0.464462 1.203179 0.069725 -0.010827 -72619.600000 0 0 1
31.442266 -14.706915 12.820173 37.003598 -0.437511 1.217004 0.076157 -0.009651 14297.000000 0 0 1
32.254066 -14.926015 13.960773 38.183948 -0.433417 1.196499 0.080731 -0.012168 -166932.000000 0 0 1
33.756066 -14.941415 13.653173 39.358951 -0.416707 1.216545 0.084173 -0.016968 -189509.000000 0 0 1
34.319866 -13.631515 13.489773 39.314697 -0.378082 1.220557 0.082364 -0.019325 -122717.000000 0 0 1
35.683566 -13.732615 13.163273 40.437277 -0.367373 1.239231 0.090646 -0.018322 -29814.600000 0 0 1
36.427866 -12.359515 13.104073 40.638206 -0.327100 1.242472 0.100052 -0.024733 120601.000000 0 0 1
-35.193855 -12.325515 12.433873 39.308103 0.336869 1.248950 0.103194 -0.024668 25256.700000 0 0 1
-34.517655 -11.088615 12.557973 38.368328 0.310832 1.237351 0.107874 -0.031492 -49501.000000 0 0 1
-33.303755 -11.046215 11.604173 36.956945 0.320263 1.251402 0.101272 -0.028894 218501.000000 0 0 1
-32.179555 -11.820215 11.991773 36.318643 0.352021 1.234300 0.083051 -0.023777 211545.000000 0 0 1
-32.226655 -13.179815 11.597673 36.698376 0.388217 1.249258 0.074429 -0.021221 -1436750.000000 0 0 1
-31.076855 -13.994115 12.078673 36.159376 0.423109 1.230210 0.049447 -0.016083 -1066680.000000 0 0 1
-29.881255 -13.624115 11.447473 34.778593 0.427784 1.235390 0.050959 -0.018397 -992053.000000 0 0 1
-28.900855 -14.543115 11.816273 34.443953 0.466210 1.220626 0.055770 -0.020824 113834.000000 0 0 1
-27.564455 -14.250915 11.039573 32.935694 0.477158 1.228994 0.060676 -0.021120 383519.000000 0 0 1
-27.541055 -14.586215 9.693773 32.637963 0.487060 1.269237 0.054007 -0.014970 993270.000000 0 0 1
-26.216455 -14.417015 9.144273 31.285309 0.502784 1.274179 0.056324 -0.012528 962261.000000 0 0 1
-26.250355 -14.385815 7.609073 30.885770 0.501325 1.321872 0.072546 -0.007130 -70922.500000 0 0 1
-26.621355 -15.568015 7.000173 31.623758 0.529164 1.347590 0.069019 -0.003368 188597.000000 0 0 1
-26.417655 -15.474815 5.599773 31.124265 0.529895 1.389895 0.074801 -0.004036 -637394.000000 0 0 1
-26.897455 -16.585315 4.677373 31.944070 0.552545 1.423844 0.074058 -0.001789 647318.000000 0 0 1
-28.327755 -16.671015 4.585273 33.187485 0.531924 1.432190 0.058257 -0.010282 866553.000000 0 0 1
-28.820255 -17.682615 3.718873 34.016349 0.550322 1.461251 0.060214 -0.010359 893824.000000 0 0 1
-30.346055 -18.037315 3.846973 35.510942 0.536282 1.462251 0.065092 -0.016684 1017860.000000 0 0 1
-31.221655 -17.056715 3.295973 35.729354 0.500006 1.478417 0.079866 -0.016439 170517.000000 0 0 1
-32.564555 -17.343015 3.636673 37.073654 0.489365 1.472545 0.083244 -0.016420 375522.000000 0 0 1
-33.612055 -16.418215 2.958073 37.524368 0.454375 1.491884 0.077382 -0.025043 328147.000000 0 0 1
-33.622355 -16.631115 1.538073 37.542275 0.459354 1.529816 0.072068 -0.018411 -205853.000000 0 0 1
-34.693655 -15.942515 0.951973 38.193190 0.430745 1.545869 0.092094 -0.023380 -90540.900000 0 0 1
-35.178355 -16.527015 -0.404627 38.869302 0.439202 1.581206 0.082608 -0.022630 194712.000000 0 0 1
-34.097155 -16.658215 -1.316427 37.971635 0.454447 1.605472 0.082338 -0.015609 592024.000000 0 0 1
-34.592955 -17.423115 -2.385627 38.806297 0.466572 1.632310 0.067310 -0.005462 739621.000000 0 0 1
-33.437855 -18.039415 -3.269627 38.133989 0.494739 1.656642 0.065104 -0.007281 619429.000000 0 0 1
-33.890355 -19.086815 -4.114627 39.112566 0.512916 1.676191 0.068334 -0.014275 -140421.000000 0 0 1
-32.808855 -19.631015 -4.800027 38.533596 0.539202 1.695688 0.065724 -0.013902 -551083.000000 0 0 1
-33.159255 -20.817315 -5.732427 39.569654 0.560609 1.716177 0.074259 -0.012389 -479135.000000 0 0 1
-33.603855 -21.950215 -5.107627 40.461326 0.578625 1.697369 0.082012 -0.017554 46977.300000 0 0 1
-33.876755 -22.972315 -6.073527 41.379337 0.595886 1.718105 0.081634 -0.012694 144970.000000 0 0 1
-34.498455 -24.273115 -5.516927 42.541321 0.613138 1.700847 0.065831 -0.016817 116912.000000 0 0 1
-33.560455 -25.147115 -4.939327 42.226514 0.643058 1.688037 0.077063 -0.012179 -184804.000000 0 0 1
-34.107055 -26.446615 -4.753627 43.420175 0.659560 1.680496 0.065040 -0.003416 59932.100000 0 0 1
-33.151555 -27.367215 -3.976827 43.171811 0.690108 1.663043 0.061143 -0.003890 -596822.000000 0 0 1
-32.146355 -27.906215 -4.814427 42.840678 0.714908 1.683414 0.069781 -0.010002 657644.000000 0 0 1
-31.262155 -28.934315 -4.312727 42.814910 0.746747 1.671697 0.068817 -0.010786 1078490.000000 0 0 1
-30.358755 -28.595415 -3.045527 41.816588 0.755497 1.643691 0.069363 -0.012683 -521230.000000 0 0 1
-31.107555 -28.137915 -1.971927 41.991794 0.735316 1.617773 0.063409 -0.009292 -49194.900000 0 0 1
-30.247655 -28.161815 -0.831727 41.336427 0.749703 1.590919 0.050661 -0.016451 373552.000000 0 0 1
-30.972755 -28.122715 0.536173 41.838811 0.737208 1.557981 0.047342 -0.005705 -42237.000000 0 0 1
-31.505955 -29.345915 0.921173 43.065723 0.749916 1.549405 0.044887 0.001347 381667.000000 0 0 1
-32.442255 -29.186315 2.007973 43.684927 0.732616 1.524815 0.049876 0.005117 342965.000000 0 0 1
-32.979855 -30.479315 2.636673 44.984570 0.746015 1.512150 0.032121 0.006157 -999075.000000 0 0 1
-33.755155 -30.268715 3.786473 45.496626 0.730997 1.487475 0.029855 0.007947 -14413.000000 0 0 1
-34.351855 -31.441515 4.325673 46.768903 0.741192 1.478174 0.022464 0.011407 -233956.000000 0 0 1
-35.462755 -32.085715 3.517173 47.952796 0.735445 1.497384 0.010421 0.010539 -1260510.000000 0 0 1
-35.979555 -33.220715 4.121873 49.144014 0.745552 1.486824 0.014376 0.000848 -156598.000000 0 0 1
35.899266 -33.760515 3.255073 49.387501 -0.754705 1.504840 0.021581 0.001698 -554862.000000 0 0 1
34.771366 33.783702 3.933073 48.640060 0.770992 1.489847 0.024815 -0.000070 -1633.820000 0 0 1
33.782066 -34.028415 4.786673 48.187896 -0.789031 1.471299 0.029421 -0.000847 388366.000000 0 0 1
33.177966 -32.817615 4.368673 46.870659 -0.779938 1.477454 0.026732 -0.004906 -329168.000000 0 0 1
32.131266 -32.922015 3.204473 46.114488 -0.797553 1.501251 0.030016 -0.001543 -325204.000000 0 0 1
32.738666 -33.359115 1.990473 46.782613 -0.794785 1.528236 0.033830 0.001798 -469161.000000 0 0 1
31.846866 -33.259315 0.909973 46.056845 -0.807089 1.551037 0.035525 0.007978 -670762.000000 0 0 1
32.303566 -33.948615 -0.397027 46.863488 -0.810223 1.579268 0.040696 -0.001479 959822.000000 0 0 1
33.473466 -33.487915 -1.080727 47.361180 -0.785614 1.593617 0.024552 0.012766 1102270.000000 0 0 1
34.747966 -33.510015 -0.384727 48.275152 -0.767264 1.578766 0.024294 0.016670 401314.000000 0 0 1
35.845566 -33.229015 -1.414727 48.898605 -0.747536 1.599732 0.010312 0.020166 -494870.000000 0 0 1
36.083966 34.101302 -2.366427 49.704641 0.757157 1.618424 0.011969 0.006914 422847.000000 0 0 1
-35.828855 -33.773915 -3.328727 49.350427 0.755883 1.638298 0.005858 0.007372 -127084.000000 0 0 1
-35.335855 33.500602 -4.217027 48.874291 -0.758743 1.657187 0.003613 0.003878 447866.000000 0 0 1
-34.222555 32.787202 -3.628627 47.532629 -0.763981 1.647210 0.011997 0.010306 695829.000000 0 0 1
-33.685955 31.803102 -4.529927 46.547836 -0.756655 1.668268 0.029558 -0.008620 562636.000000 0 0 1
-32.314755 31.209702 -4.082627 45.110494 -0.768004 1.661423 0.047539 -0.018292 -226411.000000 0 0 1
-31.232255 32.104602 -4.151627 44.982165 -0.799170 1.663223 0.048069 -0.010891 -381246.000000 0 0 1
-29.987155 31.502802 -3.902527 43.667902 -0.810042 1.660284 0.089161 -0.020929 152194.000000 0 0 1
-29.635055 31.246902 -2.398927 43.131893 -0.811867 1.626443 0.068394 -0.022746 -172472.000000 0 0 1
-30.569555 30.398802 -1.693327 43.144550 -0.782597 1.610054 0.040617 -0.007037 177067.000000 0 0 1
-30.366755 30.318802 -0.302927 42.912251 -0.784608 1.577856 0.035301 0.004944 -451.447000 0 0 1
-31.600055 29.689402 0.372873 43.360847 -0.754234 1.562197 0.028586 0.001830 -44512.500000 0 0 1
-31.782355 28.287402 0.123073 42.547742 -0.727282 1.567904 0.031580 -0.008159 916935.000000 0 0 1
-32.971255 28.010502 -0.682227 43.268433 -0.704229 1.586564 0.029552 -0.003589 1055890.000000 0 0 1
-33.184255 26.512702 -1.059727 42.488129 -0.674103 1.595741 0.033700 -0.003812 -150579.000000 0 0 1
-33.405455 25.660502 0.045973 42.123484 -0.655018 1.569705 0.028523 -0.003427 -22541.600000 0 0 1
-33.790655 24.358202 -0.450627 41.657333 -0.624587 1.581614 0.067212 -0.004923 -127016.000000 0 0 1
-33.694055 23.194102 0.643273 40.910506 -0.602880 1.555072 0.075463 -0.021641 748684.000000 0 0 1
-32.351355 22.943502 1.090073 39.676223 -0.616872 1.543319 0.074322 -0.028879 738773.000000 0 0 1
-31.975955 23.846202 2.112173 39.944515 -0.640778 1.517894 0.058280 -0.029904 -566071.000000 0 0 1
-30.437755 23.872902 2.326773 38.752887 -0.665106 1.510719 0.050935 -0.034942 250514.000000 0 0 1
-29.717455 24.656802 1.404773 38.640114 -0.692595 1.534433 0.058218 -0.031190 -156767.000000 0 0 1
-29.609455 25.988802 1.781073 39.437417 -0.720368 1.525619 0.033205 -0.025148 -481497.000000 0 0 1
-28.995255 26.804602 0.661173 39.492387 -0.746159 1.554054 0.039555 -0.025406 2802740.000000 0 0 1
-27.527555 26.505902 0.591873 38.218836 -0.766493 1.555309 0.044731 -0.032039 2423750.000000 0 0 1
-26.835555 27.400102 -0.265827 38.353399 -0.795807 1.577727 0.058188 -0.027561 199411.000000 0 0 1
-25.623155 26.788002 -0.985627 37.082537 -0.807620 1.597379 0.062690 -0.031311 -463678.000000 0 0 1
-25.912855 25.732502 -1.857327 36.566205 -0.781906 1.621612 0.063683 -0.038083 640413.000000 0 0 1
-24.768255 25.194102 -2.595927 35.425246 -0.793921 1.644141 0.054664 -0.028451 851061.000000 0 0 1
-23.864455 24.230602 -1.817227 34.057842 -0.793011 1.624179 0.039871 -0.032108 -498675.000000 0 0 1
-24.496955 23.025402 -1.417727 33.649367 -0.754443 1.612941 0.024536 -0.023980 -405594.000000 0 0 1
-23.592355 22.080402 -0.902027 32.325795 -0.752306 1.598704 0.020221 -0.037583 -1203250.000000 0 0 1
-24.058155 20.602202 -0.722927 31.682300 -0.708169 1.593616 0.020503 -0.028148 -518142.000000 0 0 1
-24.839255 20.199302 0.392973 32.018039 -0.682739 1.558523 0.005699 -0.020448 450177.000000 0 0 1
-26.057955 20.881002 0.680673 33.399050 -0.675551 1.550415 0.006505 -0.021398 768380.000000 0 0 1
-27.197155 20.759202 -0.428527 34.217150 -0.651950 1.583320 0.019497 -0.034114 -407060.000000 0 0 1
-27.612155 19.427202 -0.430027 33.764363 -0.613121 1.583533 0.032202 -0.032570 -147160.000000 0 0 1
-28.562155 19.186902 -1.437627 34.438360 -0.591520 1.612553 0.052739 -0.030481 -399684.000000 0 0 1
-28.866355 17.664002 -1.656927 33.882574 -0.549141 1.619718 0.050510 -0.015811 42649.400000 0 0 1
-29.532655 17.124902 -0.510927 34.142364 -0.525481 1.585762 0.062720 -0.018390 365421.000000 0 0 1
-29.679655 15.697302 -0.546227 33.579541 -0.486492 1.587064 0.074305 -0.023118 206912.000000 0 0 1
-28.473755 14.879402 0.014573 32.127115 -0.481537 1.570343 0.074293 -0.007486 74946.100000 0 0 1
-28.384755 14.886302 1.427273 32.083226 -0.483013 1.526295 0.078089 -0.004325 222815.000000 0 0 1
-27.228555 14.273002 1.987073 30.806837 -0.482814 1.506250 0.069222 -0.009321 227047.000000 0 0 1
-27.238855 12.705902 1.965373 30.120721 -0.436459 1.505500 0.084883 -0.005591 -125166.000000 0 0 1
-26.908955 12.216002 0.663773 29.559485 -0.426155 1.548339 0.079488 -0.009858 247486.000000 0 0 1
-26.566755 10.876802 0.739273 28.716612 -0.388595 1.545050 0.109927 -0.009952 -120005.000000 0 0 1
-26.426755 10.106302 -0.610727 28.299889 -0.365266 1.592379 0.107313 -0.012773 53540.900000 0 0 1
-27.684455 9.773702 -1.182527 29.382863 -0.339380 1.611053 0.103681 -0.022385 244615.000000 0 0 1
-27.635155 8.744402 -2.139927 29.064508 -0.306455 1.644490 0.119577 -0.026224 257568.000000 0 0 1
-29.012155 8.314102 -2.721627 30.302420 -0.279093 1.660733 0.115284 -0.028738 248316.000000 0 0 1
-28.863755 7.275302 -3.647127 29.989130 -0.246913 1.692713 0.134329 -0.025737 1512010.000000 0 0 1
-30.091655 7.138602 -4.438427 31.243671 -0.232923 1.713337 0.128076 -0.019919 1237870.000000 0 0 1
-11.556734 18.066502 -19.906227 29.261143 -1.001712 2.318962 0.082848 -0.014995 160807.000000 0 0 1
-11.748534 17.356502 -21.059827 29.711825 -0.975746 2.358596 0.068117 -0.014493 1114920.000000 0 0 1
-10.499534 17.117802 -21.775727 29.621641 -1.020604 2.396653 0.067795 -0.020655 1160050.000000 0 0 1
-10.727434 16.073002 -22.857427 29.931275 -0.982273 2.439765 0.067644 -0.023053 -151253.000000 0 0 1
-10.325534 14.751202 -22.500427 28.818116 -0.960084 2.466699 0.062699 -0.021712 18423.300000 0 0 1
-10.276834 13.862902 -23.575827 29.216656 -0.932874 2.509734 0.050758 -0.015651 -577244.000000 0 0 1
-9.541734 12.594202 -23.206327 28.074761 -0.922430 2.543818 0.033671 -0.008034 -950979.000000 0 0 1
-8.161034 12.747602 -23.119427 27.633526 -1.001340 2.561924 0.028038 -0.010541 -739939.000000 0 0 1
-7.662434 11.499602 -22.635527 26.520197 -0.983033 2.593501 0.017209 -0.001903 691084.000000 0 0 1
-6.108434 11.391902 -22.575027 26.013847 -1.078603 2.621570 0.022462 -0.001624 871959.000000 0 0 1
-5.303334 11.238402 -23.733327 26.789883 -1.129885 2.659241 0.013256 -0.012946 -507315.000000 0 0 1
-3.954134 11.124902 -23.422727 26.230188 -1.229292 2.674694 0.027683 -0.012952 -464301.000000 0 0 1
-3.010434 10.975702 -24.657827 27.157636 -1.303098 2.709167 0.037323 -0.017824 -130738.000000 0 0 1
-3.119034 9.727402 -25.277867 27.263919 -1.260509 2.757542 0.027113 -0.012758 55371.600000 0 0 1
-2.564034 9.761302 -26.584327 28.435607 -1.313926 2.778761 0.031949 -0.009838 -486066.000000 0 0 1
-2.374734 8.266502 -27.107807 28.439543 -1.291057 2.834357 0.026973 0.003878 520163.000000 0 0 1
-1.368134 7.440502 -26.476427 27.536050 -1.388951 2.863274 0.030376 -0.001489 426877.000000 0 0 1
-1.620334 7.085102 -25.140747 26.170237 -1.345967 2.860172 0.037019 -0.021032 -635370.000000 0 0 1
-0.646334 6.074902 -24.536327 25.285441 -1.464801 2.897569 -0.020005 -0.010790 -717144.000000 0 0 1
0.570166 6.577202 -24.092827 24.980973 1.484324 2.874140 0.023371 -0.002823 -539228.000000 0 1 0
1.084366 5.719602 -23.082327 23.805116 1.383432 2.894539 0.012404 -0.011111 -148111.000000 0 1 0
1.292166 6.379302 -21.716427 22.670871 1.370944 2.850392 0.024670 -0.013315 195689.000000 0 1 0
2.400566 7.267902 -21.762127 23.068925 1.251781 2.803390 0.032099 -0.014224 207799.000000 0 1 0
2.393366 8.092102 -20.621727 22.281516 1.283229 2.753172 0.043232 -0.014400 200244.000000 0 1 0
3.206266 9.407102 -20.716327 22.976943 1.242310 2.694282 0.052566 -0.022504 -55672.300000 0 1 0
3.055166 10.180502 -19.597527 22.294388 1.279248 2.644629 0.054473 -0.025305 -91038.900000 0 1 0
3.657266 11.432302 -19.688527 23.058864 1.261178 2.594110 0.068343 -0.027706 502331.000000 0 1 0
4.959066 11.603302 -18.819727 22.658577 1.166908 2.550942 0.064993 -0.024419 422317.000000 0 1 0
6.057466 10.902802 -19.319927 22.996164 1.063673 2.568332 0.071309 -0.020633 -388788.000000 0 1 0
6.938866 10.461002 -18.296727 22.188976 0.985123 2.540267 0.063171 -0.019998 317929.000000 0 1 0
8.014566 9.436902 -18.800227 22.510818 0.866721 2.559227 0.080558 -0.020651 164457.000000 0 1 0
7.628066 8.075302 -19.077227 22.075745 0.813871 2.614298 0.079494 -0.018821 114949.000000 0 1 0
6.944866 7.870102 -20.316627 22.867773 0.847770 2.664730 0.064784 -0.013213 106888.000000 0 1 0
6.750766 6.395102 -20.675527 22.670413 0.758350 2.718942 0.064980 -0.003503 -366633.000000 0 1 0
7.935266 5.693802 -20.898227 23.067807 0.622395 2.704409 0.066182 0.008100 -383784.000000 0 1 0
7.710266 4.337802 -21.291627 23.056412 0.512466 2.747793 0.059096 0.013609 -239114.000000 0 1 0
7.377466 4.241902 -22.833927 24.368196 0.521820 2.784846 0.069358 0.004533 99093.600000 0 1 0
6.071666 4.678502 -23.161127 24.396544 0.656522 2.821992 0.063980 -0.009152 -119982.000000 0 1 0
5.772866 4.383202 -24.495727 25.545628 0.649412 2.853899 0.071046 -0.012496 -4650.980000 0 0 1
4.538666 5.126502 -25.063807 25.982205 0.846143 2.874919 0.043181 -0.016976 53453.300000 0 0 1
4.672066 6.533102 -25.289047 26.533857 0.949983 2.834069 0.069962 -0.023280 7693.580000 0 0 1
4.503166 7.318902 -24.108127 25.593879 1.019218 2.799185 0.063759 -0.031292 -897729.000000 0 0 1
4.624466 8.863802 -24.414927 26.382596 1.089920 2.752933 0.068630 -0.031605 1301660.000000 0 0 1
3.545666 9.455402 -25.203077 27.150902 1.212036 2.760501 0.070681 -0.027465 847462.000000 0 0 1
2.216866 9.324302 -24.783627 26.572265 1.337378 2.772591 0.055828 -0.013196 -1019510.000000 0 0 1
1.193866 9.991002 -25.659217 27.561583 1.451866 2.767878 0.040174 -0.005631 -639070.000000 0 0 1
1.199966 11.419502 -25.545147 28.007133 1.466100 2.719160 0.063447 -0.024682 -338021.000000 0 0 1
0.278366 11.983102 -26.404047 28.997344 1.547571 2.715452 0.070935 -0.026165 -779096.000000 0 0 1
0.295566 13.503002 -26.511667 29.753772 1.548911 2.670418 0.068144 -0.030865 -348987.000000 0 0 1
-0.111734 14.147302 -25.329687 29.012957 -1.562899 2.632213 0.063694 -0.035604 37742.800000 0 0 1
-0.339534 15.507902 -25.551027 29.890890 -1.548906 2.595981 0.062420 -0.045475 -304132.000000 0 0 1
-0.968834 16.099102 -24.280627 29.149075 -1.510689 2.555270 0.073932 -0.030632 -830469.000000 0 0 1
-2.204034 15.562102 -23.999427 28.688138 -1.430104 2.561775 0.055461 -0.026447 -1090340.000000 0 0 1
-2.557534 15.642302 -22.629427 27.628130 -1.408729 2.530588 0.056638 -0.035629 -282060.000000 0 0 1
-3.848134 14.915502 -22.205927 27.025609 -1.318307 2.535118 0.048737 -0.023425 -105883.000000 0 0 1
-5.035234 15.413602 -22.755827 27.942090 -1.255050 2.522478 0.039084 -0.025699 -280328.000000 0 0 1
-5.375834 14.787602 -24.022427 28.716716 -1.222113 2.561718 0.041392 -0.025499 399868.000000 0 0 1
-6.818834 15.068402 -24.573027 29.620717 -1.145844 2.549168 0.026169 -0.030513 458270.000000 0 0 1
-7.034234 16.344002 -25.022727 30.704132 -1.164372 2.523461 0.034082 -0.031542 -903007.000000 0 0 1
-8.385134 16.457302 -25.304397 31.328354 -1.099571 2.511063 0.047390 -0.023971 -1250410.000000 0 0 1
-8.790434 17.855402 -25.826917 32.605471 -1.113318 2.485044 0.053938 -0.026801 -678311.000000 0 0 1
-9.036034 18.778802 -24.772727 32.372540 -1.122316 2.442209 0.049576 -0.027672 -741415.000000 0 0 1
-10.272834 19.384002 -24.887627 33.176266 -1.083465 2.419106 0.056196 -0.021177 -659042.000000 0 0 1
-10.641534 20.517302 -23.857127 33.216930 -1.092331 2.372040 0.036832 -0.018206 125563.000000 0 0 1
-9.931634 21.773502 -23.918127 33.834886 -1.142853 2.355912 0.058114 -0.011128 475316.000000 0 0 1
-10.749234 22.823702 -24.467427 35.144308 -1.130643 2.340885 0.049875 -0.023739 271471.000000 0 0 1
-10.545234 23.067702 -26.005157 36.326148 -1.142018 2.368680 0.035034 -0.016262 -40727.100000 0 0 1
-11.149634 22.040602 -26.745737 36.406551 -1.102465 2.395933 0.039021 -0.015052 -33230.800000 0 0 1
-10.968634 22.351502 -28.110257 37.551127 -1.114589 2.416724 0.035096 -0.007676 -181012.000000 0 0 1
-11.727934 21.478902 -29.161007 38.069042 -1.071013 2.443397 0.026332 -0.006255 -6583.970000 0 0 1
-11.075034 20.322602 -29.623107 37.592459 -1.071830 2.478361 0.041296 -0.017933 -336496.000000 0 0 1
-10.902134 19.275502 -28.777477 36.311771 -1.056059 2.485712 0.051648 -0.017840 214337.000000 0 0 1
-9.805634 18.268902 -29.324047 35.913827 -1.078191 2.526139 0.039007 -0.015759 395528.000000 0 0 1
-8.563234 19.003202 -29.308507 35.964416 -1.147426 2.523406 0.031060 -0.023171 162053.000000 0 0 1
-7.456334 18.259502 -29.737797 35.683931 -1.183109 2.555967 0.034949 -0.020654 61245.600000 0 0 1
-6.928334 16.986402 -29.063267 34.368782 -1.183519 2.578540 0.043897 -0.027946 -992682.000000 0 0 1
-7.791534 15.889102 -29.307107 34.235626 -1.114883 2.598358 0.042821 -0.021847 510555.000000 0 0 1
-7.411934 14.759902 -28.523797 32.960559 -1.105417 2.616728 0.016685 -0.021892 114362.000000 0 0 1
-8.687834 13.892602 -28.411357 32.797684 -1.011940 2.618465 0.042480 -0.017092 786689.000000 0 0 1
-9.695434 14.330002 -27.474097 32.468083 -0.975960 2.579587 0.065546 -0.025364 881847.000000 0 0 1
-10.948034 13.675302 -27.668367 32.747700 -0.895708 2.577165 0.103111 -0.023440 479288.000000 0 0 1
-12.015534 14.184702 -26.693377 32.528683 -0.868002 2.533275 0.087568 -0.018472 -336749.000000 0 0 1
-12.478934 15.470202 -26.855247 33.410406 -0.892018 2.504450 0.072011 -0.021411 -1226640.000000 0 0 1
-13.501434 15.623202 -25.969517 33.178140 -0.858121 2.469836 0.075045 -0.022275 -561897.000000 0 0 1
-14.480634 16.784902 -26.273587 34.376199 -0.858965 2.440745 0.061474 -0.015950 122440.000000 0 0 1
-13.908134 18.075202 -26.151827 34.699671 -0.914957 2.424413 0.061129 -0.007679 207072.000000 0 0 1
-14.862734 19.082802 -26.487397 35.869714 -0.909082 2.401541 0.043167 -0.005820 92717.800000 0 0 1
-14.332134 20.508102 -26.406127 36.376859 -0.960841 2.383145 0.033312 -0.008925 79261.400000 0 0 1
-15.340134 21.484302 -26.684477 37.536066 -0.950726 2.361577 0.000956 -0.002374 247993.000000 0 0 1
-14.910834 22.811902 -26.850627 38.257967 -0.991865 2.348761 -0.000379 -0.005726 -130689.000000 0 0 1
-14.408634 23.566102 -25.615567 37.671304 -1.022027 2.318526 -0.010087 -0.006943 11885.000000 0 0 1
-14.011034 24.890802 -25.853677 38.526273 -1.058103 2.306442 0.000836 -0.008465 -118562.000000 0 0 1
-13.575934 25.567302 -24.727527 38.071558 -1.082667 2.277725 0.020781 -0.012698 -69766.200000 0 0 1
-13.143034 27.032802 -25.032327 39.116865 -1.118259 2.265213 0.041611 -0.016479 371374.000000 0 0 1
-14.252634 27.885502 -25.300267 40.259686 -1.098298 2.250325 0.057257 -0.023682 162177.000000 0 0 1
-14.743734 28.663602 -24.219527 40.318299 -1.095718 2.215183 0.066693 -0.025256 -1078490.000000 0 0 1
-15.967134 29.419402 -24.635727 41.561636 -1.073543 2.205267 0.049325 -0.027096 -943166.000000 0 0 1
-17.079234 28.554702 -24.524527 41.334291 -1.031758 2.205975 0.028012 -0.024890 -634851.000000 0 0 1
-18.188834 29.169802 -25.146577 42.591799 -1.013240 2.202362 0.030462 -0.025265 -66020.900000 0 0 1
-19.419634 28.242302 -25.199997 42.541622 -0.968436 2.204782 0.050613 -0.015097 126212.000000 0 0 1
-19.984134 27.891902 -23.915527 41.824350 -0.949092 2.179505 0.054159 -0.023641 -38941.300000 0 0 1
-21.034034 26.963502 -24.116927 41.845994 -0.908312 2.185022 0.055855 -0.040309 -201526.000000 0 0 1
-21.753534 26.634402 -22.763627 41.240639 -0.885928 2.155522 0.045589 -0.031058 223845.000000 0 0 1
-22.702434 27.683802 -22.455727 42.261721 -0.883942 2.130989 0.033621 -0.023803 351688.000000 0 0 1
-23.077434 27.659202 -21.089127 41.741474 -0.875459 2.100447 0.006584 -0.010598 -476122.000000 0 0 1
-24.410334 28.303902 -20.706727 42.728723 -0.859126 2.076713 -0.003900 -0.001145 -326668.000000 0 0 1
-25.583624 27.604102 -21.001227 43.099417 -0.823368 2.079762 0.005557 -0.004613 -133443.000000 0 0 1
-26.739904 28.424502 -20.847327 44.244613 -0.815926 2.061428 0.029487 -0.002855 111280.000000 0 0 1
-27.983384 27.677302 -21.320727 44.762442 -0.779899 2.067248 0.028338 0.000479 -406276.000000 0 0 1
-27.998924 27.384502 -22.696027 45.265443 -0.774305 2.096011 0.025548 0.001749 -473057.000000 0 0 1
-29.302854 27.180902 -23.171527 46.199333 -0.747848 2.096192 0.031981 0.001317 -144330.000000 0 0 1
-29.501554 26.744502 -24.656327 46.835291 -0.736420 2.125213 0.028044 0.008452 84664.600000 0 0 1
-29.213954 25.392802 -24.952627 46.053046 -0.715536 2.143402 0.017625 0.021544 -255372.000000 0 0 1
-29.053664 25.230002 -26.307127 46.612587 -0.715076 2.170476 0.036675 0.019384 -29278.600000 0 0 1
-29.268304 23.793002 -26.772637 46.254888 -0.682574 2.188061 0.022294 0.024900 -603691.000000 0 0 1
-28.323304 22.902302 -26.269907 44.909164 -0.679965 2.195623 0.023471 0.002529 -177408.000000 0 0 1
-28.184794 21.804002 -27.153417 44.800727 -0.658440 2.221936 0.038211 0.006003 -233198.000000 0 0 1
-27.162444 20.795402 -26.622147 43.347270 -0.653407 2.232117 0.045750 0.003830 -139729.000000 0 0 1
-27.690114 19.756302 -25.816547 42.703021 -0.619715 2.220010 0.023655 0.012348 -136570.000000 0 0 1
-26.761244 18.726202 -25.714627 41.570144 -0.610559 2.237736 0.023383 0.003291 -38119.700000 0 0 1
-27.520344 17.359102 -25.686037 41.454556 -0.562740 2.239054 0.014746 0.015340 46733.900000 0 0 1
-28.076424 17.025502 -26.931477 42.467137 -0.545111 2.257734 0.013297 0.011802 -13220.900000 0 0 1
-28.955774 15.950402 -26.808407 42.562223 -0.503499 2.252174 -0.000635 0.002791 -630013.000000 0 0 1
-29.752724 15.700302 -28.064897 43.810530 -0.485556 2.266072 -0.005465 -0.006666 238407.000000 0 0 1
-31.003594 16.382602 -28.204367 45.001098 -0.486116 2.248170 -0.014173 -0.007968 602075.000000 0 0 1
-31.675464 15.853302 -29.333837 45.990610 -0.464041 2.262464 0.002550 -0.007373 45451.600000 0 0 1
-33.043454 16.418802 -29.763267 47.405685 -0.461153 2.249574 0.014237 -0.007226 -437525.000000 0 0 1
-34.029354 16.146502 -28.810767 47.421163 -0.443030 2.223770 0.008978 -0.006407 -460670.000000 0 0 1
-35.213153 16.791702 -29.233927 48.749870 -0.444964 2.213887 0.026424 -0.007913 271614.000000 0 0 1
36.403248 16.534702 -28.330787 49.002309 0.426349 2.187258 0.045261 -0.012644 218553.000000 0 0 1
36.400388 17.217902 -27.109427 48.542409 0.441827 2.163335 0.043985 -0.025914 39396.200000 0 0 1
35.307158 16.822902 -26.300837 47.131088 0.444649 2.162813 0.076462 -0.027479 -169008.000000 0 0 1
34.675788 17.965402 -25.536187 46.661149 0.478020 2.149894 0.087556 -0.030930 -231096.000000 0 0 1
33.900568 18.875802 -26.288577 46.868259 0.508048 2.166273 0.094355 -0.040288 149378.000000 0 0 1
33.516558 19.992802 -25.504087 46.621135 0.537846 2.149632 0.107833 -0.043025 -209133.000000 0 0 1
32.663248 21.076502 -26.223187 46.890961 0.573040 2.164262 0.121053 -0.044144 496265.000000 0 0 1
31.290198 20.806002 -26.408917 45.928173 0.586804 2.183406 0.120491 -0.046299 -93414.700000 0 0 1
30.410128 21.155702 -25.370617 44.899976 0.607820 2.171287 0.109958 -0.038845 -92025.900000 0 0 1
28.950958 21.132602 -25.882307 44.211295 0.630542 2.196198 0.080387 -0.036636 234158.000000 0 0 1
28.407778 19.836902 -26.095677 43.376133 0.609578 2.216316 0.093491 -0.051716 205237.000000 0 0 1
27.075588 19.813002 -26.596877 42.813974 0.631729 2.241094 0.082492 -0.043063 135129.000000 0 0 1
26.503188 18.417402 -26.768487 41.930556 0.607303 2.263215 0.098273 -0.030712 -386615.000000 0 0 1
27.111288 17.521002 -27.728687 42.554524 0.573743 2.280493 0.101330 -0.028327 977379.000000 0 0 1
28.251968 16.854302 -27.114337 42.631308 0.537894 2.260125 0.097632 -0.027035 684180.000000 0 0 1
28.986678 15.869402 -28.055527 43.349487 0.500900 2.274694 0.091546 -0.018984 -234774.000000 0 0 1
28.450328 14.585402 -28.292277 42.692014 0.473726 2.295223 0.108065 -0.011744 -196612.000000 0 0 1
28.136868 13.705802 -27.203407 41.467550 0.453284 2.286325 0.116693 -0.018807 313286.000000 0 0 1
29.184898 13.345602 -26.077277 41.350789 0.428890 2.253168 0.106030 -0.021179 500956.000000 0 0 1
29.745218 14.486802 -25.415387 41.720347 0.453218 2.225828 0.105467 -0.030650 66956.400000 0 0 1
30.878438 14.210902 -24.623527 41.973155 0.431321 2.197712 0.096649 -0.022633 -220440.000000 0 0 1
-13.969734 -31.950415 -24.038227 42.353499 1.158611 2.174338 0.097736 -0.012160 -94691.300000 0 0 1
-13.562634 -30.683815 -24.552627 41.572504 1.154605 2.202596 0.094535 -0.011316 215773.000000 0 0 1
-14.084534 -30.456715 -25.871897 42.371461 1.137642 2.227611 0.065810 -0.004001 126351.000000 0 0 1
-13.480834 -29.208715 -26.579547 41.729537 1.138392 2.261329 0.067349 -0.004924 -30008.500000 0 0 1
-13.773134 -27.917915 -26.117607 40.635436 1.112488 2.268853 0.064012 0.008521 151755.000000 0 0 1
-13.180734 -26.863815 -26.925457 40.253901 1.114657 2.303512 0.065535 0.002644 77823.400000 0 0 1
-13.713534 -25.445415 -26.532977 39.236833 1.076485 2.313424 0.036863 0.003173 32364.500000 0 0 1
-13.299134 -24.985315 -25.238707 37.922622 1.081661 2.299002 0.044039 -0.013122 254000.000000 0 0 1
-13.821434 -23.686115 -24.897927 37.040125 1.042579 2.307956 0.039251 -0.008386 12487.300000 0 0 1
-13.442034 -23.110915 -23.497227 35.593853 1.043993 2.291813 0.038935 -0.006277 -641665.000000 0 0 1
-12.094834 -22.795115 -23.378427 34.820298 1.082978 2.306896 0.045052 -0.021947 -693191.000000 0 0 1
-11.716234 -22.321315 -22.092127 33.519746 1.087436 2.290389 0.026385 -0.012936 1123640.000000 0 0 1
-10.157134 -22.106415 -21.965727 32.777342 1.140099 2.305207 0.025127 -0.017222 1027800.000000 0 0 1
-9.701734 -20.981615 -22.682927 32.386216 1.137685 2.346738 0.029103 -0.024178 -425130.000000 0 0 1
-8.340034 -20.757415 -22.431827 31.679857 1.188751 2.357570 0.050369 -0.026067 -93244.000000 0 0 1
-7.642134 -19.684015 -23.306527 31.449275 1.200468 2.405478 0.051835 -0.022494 -118127.000000 0 0 1
-7.945034 -18.496015 -22.687027 30.330304 1.165075 2.415838 0.038458 -0.018216 -80390.600000 0 0 1
-8.090634 -17.343615 -23.580227 30.369170 1.134314 2.459814 0.033553 -0.016390 -947870.000000 0 0 1
-6.850334 -16.827015 -24.265627 30.313301 1.184181 2.498916 0.052837 -0.029606 -612624.000000 0 0 1
-6.521534 -17.610415 -25.438437 31.619159 1.216133 2.505673 0.074501 -0.031820 449023.000000 0 0 1
-5.559634 -16.938915 -26.279057 31.755712 1.253658 2.545504 0.060821 -0.030628 344355.000000 0 0 1
-5.242734 -17.532915 -27.659087 33.164959 1.280237 2.557088 0.077127 -0.018259 415235.000000 0 0 1
-6.383434 -17.420515 -28.534157 34.035580 1.219558 2.565069 0.100488 -0.015842 644045.000000 0 0 1
-6.265234 -18.100515 -29.745857 35.379342 1.237568 2.569499 0.097279 -0.026335 292460.000000 0 0 1
-7.455634 -17.785415 -30.727827 36.278187 1.173849 2.581123 0.106520 -0.027455 569324.000000 0 0 1
-7.394934 -16.639215 -31.544347 36.422443 1.152586 2.618081 0.101026 -0.021878 -196293.000000 0 0 1
-7.393834 -15.356915 -30.917697 35.304499 1.122085 2.637771 0.079169 -0.019312 99875.600000 0 0 1
-7.919534 -14.353515 -31.971937 35.929754 1.066612 2.667803 0.069716 -0.018409 40228.000000 0 0 1
-6.929234 -14.176815 -32.941447 36.525817 1.116171 2.694869 0.093218 -0.029807 60447.200000 0 0 1
-7.401534 -13.400015 -34.092875 37.372012 1.066149 2.719557 0.094675 -0.030755 -29404.400000 0 0 1
-7.545834 -11.900015 -33.847547 36.663421 1.005678 2.747113 0.068275 -0.021377 412664.000000 0 0 1
-6.373634 -11.084615 -33.816507 36.153120 1.048963 2.780097 0.061803 -0.020758 84710.600000 0 0 1
-6.030334 -10.571515 33.280216 35.435781 1.052402 0.350591 0.051210 -0.025851 507407.000000 0 0 1
-4.848634 -9.542915 33.263966 34.943783 1.100700 0.311327 0.040383 -0.022702 345748.000000 0 0 1
-4.800834 -8.708115 32.173163 33.674793 1.066951 0.299758 0.039801 -0.022540 -423427.000000 0 0 1
-3.727934 -7.811215 32.202683 33.345544 1.125511 0.262568 0.030101 -0.026101 -919886.000000 0 0 1
-3.747934 -6.778215 31.077623 32.028266 1.065700 0.244252 0.038625 -0.023563 52091.300000 0 0 1
-4.887634 -5.958515 30.981013 31.925163 0.883813 0.243806 0.033963 -0.019518 587079.000000 0 0 1
-6.104834 -6.564115 30.475383 31.766422 0.821635 0.286077 0.032173 -0.015446 559513.000000 0 0 1
-7.180734 -5.465415 30.316323 31.630889 0.650581 0.289312 0.021221 -0.008674 754680.000000 0 0 1
-8.362634 -5.984515 29.652923 31.385409 0.621136 0.333814 0.037567 -0.009580 114539.000000 0 0 1
-9.394334 -5.021015 29.724963 31.575901 0.490844 0.344094 0.029661 -0.010935 -192884.000000 0 0 1
-10.658634 -5.627815 29.107453 31.504326 0.485800 0.392595 0.040506 -0.014100 -399925.000000 0 0 1
-10.461534 -5.608015 27.703713 30.139496 0.492078 0.404795 0.032724 -0.010162 540537.000000 0 0 1
-11.400234 -6.419115 27.004403 30.006801 0.512821 0.451158 0.042701 -0.019751 237238.000000 0 0 1
-11.051734 -6.178715 25.546283 28.511925 0.509782 0.460150 0.032039 -0.018336 704231.000000 0 0 1
-9.822734 -6.718615 25.033403 27.718173 0.599897 0.443768 0.032481 -0.016637 548813.000000 0 0 1
-9.401434 -6.389915 23.712123 26.296059 0.596954 0.447026 0.024869 -0.013082 -371977.000000 0 0 1
-10.308234 -6.684015 22.464373 25.604370 0.575260 0.500454 0.024986 -0.017431 -222372.000000 0 0 1
-11.420134 -5.851015 22.374673 25.793018 0.473472 0.520702 0.025681 -0.017653 -684361.000000 0 0 1
-12.161734 -6.109015 21.177173 25.173408 0.465498 0.571202 0.019905 -0.021183 505295.000000 0 0 1
-13.331234 -5.041415 21.158373 25.511064 0.361543 0.592799 0.022429 -0.013999 435421.000000 0 0 1
-12.957034 -3.707215 20.982973 24.938190 0.278671 0.570929 0.012088 -0.003481 -698085.000000 0 1 0
-14.103734 -2.932515 20.834973 25.330042 0.205004 0.604933 0.026084 -0.001915 -144936.000000 0 0 1
-13.808534 -1.564515 20.360573 24.651090 0.112819 0.598911 0.022976 0.003221 28700.400000 0 1 0
-12.977434 -0.707515 21.125673 24.803395 0.054465 0.551528 0.021898 -0.001008 -124803.000000 0 1 0
-13.112634 0.631485 20.830273 24.621945 -0.048121 0.562350 0.022907 -0.010489 -204411.000000 0 1 0
-12.637234 1.111485 19.399273 23.179017 -0.087727 0.579142 0.037421 -0.022228 210395.000000 0 1 0
-13.439134 0.909485 18.224973 22.662460 -0.067571 0.636481 0.045388 -0.015133 324939.000000 0 1 0
-14.727834 1.537485 18.200773 23.463611 -0.104016 0.682969 0.046837 -0.010749 240894.000000 0 1 0
-15.640634 0.791485 17.251573 23.299627 -0.050561 0.737097 0.061390 -0.010913 -485137.000000 0 1 0
-15.952534 -0.458515 17.898873 23.980475 0.028735 0.728170 0.043268 -0.007998 27667.700000 0 1 0
-16.929634 -1.150515 17.175573 24.144077 0.067854 0.779339 0.047088 0.003611 -255198.000000 0 1 0
-16.917434 -2.699515 17.541273 24.519037 0.158236 0.773579 0.050410 0.009146 -208412.000000 0 1 0
-17.439434 -2.893515 18.811873 25.814585 0.164420 0.754330 0.046154 0.004530 -120346.000000 0 0 1
-17.488734 -4.276015 19.081773 26.234598 0.239797 0.756342 0.051323 0.002456 -40227.100000 0 0 1
-18.284034 -4.663415 20.364173 27.762436 0.249730 0.747317 0.039988 0.004437 63867.300000 0 0 1
-17.710834 -4.322215 21.612673 28.274773 0.239365 0.700717 0.033324 0.002829 51823.500000 0 0 1
-18.546334 -4.746315 22.678473 29.678395 0.250539 0.701088 0.039638 -0.003079 -486695.000000 0 0 1
-18.692634 -6.262615 22.974173 30.272884 0.323278 0.709170 0.059577 -0.014661 316319.000000 0 0 1
-17.605834 -6.895115 23.644503 30.274915 0.373277 0.674542 0.050646 -0.021940 884895.000000 0 0 1
-16.402034 -7.008215 22.854173 28.990602 0.403798 0.662706 0.042879 -0.017291 -342305.000000 0 0 1
-15.212134 -7.486915 23.640283 29.091680 0.457362 0.622174 0.044409 -0.019736 -776698.000000 0 0 1
-15.429634 -8.738315 24.256003 30.046388 0.515297 0.631259 0.044335 -0.023014 -260505.000000 0 0 1
-14.627034 -8.927115 25.373353 30.617814 0.547970 0.593994 0.060966 -0.021148 59076.700000 0 0 1
-15.306134 -9.937015 26.366493 32.065775 0.575825 0.605421 0.046457 -0.025365 213044.000000 0 0 1
-15.398434 -11.297615 26.006723 32.266042 0.632978 0.633418 0.040418 -0.028070 83453.700000 0 0 1
-14.709934 -12.147115 26.951523 33.019981 0.690262 0.615961 0.049248 -0.028570 212509.000000 0 0 1
-14.931034 -13.654815 26.721243 33.517377 0.740783 0.648095 0.025224 -0.026000 -47101.200000 0 0 1
-16.054334 -14.234015 27.359483 34.769097 0.725371 0.665042 0.038076 -0.029965 115962.000000 0 0 1
-16.232034 -15.649215 27.150653 35.292135 0.767119 0.693033 0.050434 -0.018859 -354401.000000 0 0 1
-15.216634 -16.532915 27.862973 35.794252 0.826833 0.678651 0.045326 -0.019987 -1117940.000000 0 0 1
-13.952734 -16.431015 27.339183 34.815053 0.866784 0.667666 0.051192 -0.024907 -926181.000000 0 0 1
-13.003534 -17.215215 28.040263 35.379540 0.923879 0.655807 0.063313 -0.027052 -249057.000000 0 0 1
-11.582734 -17.161615 27.451413 34.384020 0.977101 0.646201 0.067396 -0.032989 -479956.000000 0 0 1
-10.783834 -17.917015 28.295383 35.184360 1.028998 0.636462 0.089346 -0.040119 -144711.000000 0 0 1
-9.586834 -18.365215 27.658723 34.557104 1.089696 0.642872 0.079340 -0.033142 438450.000000 0 0 1
-8.626834 -19.145015 28.573163 35.459547 1.147440 0.633778 0.094301 -0.038541 197173.000000 0 0 1
-9.162734 -20.428215 28.921543 36.574900 1.149163 0.658766 0.089392 -0.026351 336854.000000 0 0 1
-8.159834 -21.068415 29.674113 37.296300 1.201284 0.650747 0.084208 -0.024851 211949.000000 0 0 1
-8.599134 -22.444915 30.170993 38.574708 1.204924 0.672696 0.072634 -0.026372 -160525.000000 0 0 1
-8.589234 -23.487615 29.249243 38.483259 1.220211 0.707405 0.081760 -0.021205 27287.100000 0 0 1
-8.708434 -24.742215 29.934413 39.800541 1.232371 0.719537 0.076873 -0.022973 -213815.000000 0 0 1
-8.784234 -25.930615 28.929613 39.830667 1.244170 0.757851 0.080683 -0.018631 393553.000000 0 0 1
-9.957734 -25.882515 28.098593 39.479007 1.203524 0.778831 0.063433 -0.017555 721279.000000 0 0 1
-10.108034 -27.186115 27.529463 39.989105 1.214826 0.811482 0.067170 -0.012557 -56427.400000 0 0 1
-11.498234 -27.393115 26.874423 40.060289 1.173382 0.835443 0.069917 -0.015491 112970.000000 0 0 1
-11.772134 -26.715415 25.651343 38.862423 1.155745 0.849904 0.069120 -0.016544 135891.000000 0 0 1
-12.100134 -25.340315 25.702063 38.067582 1.125306 0.829602 0.054794 -0.007428 -499880.000000 0 0 1
-12.239734 -24.670115 24.323713 36.743280 1.110245 0.847325 0.067499 -0.022047 -231821.000000 0 0 1
-13.311834 -25.186215 23.585393 36.984065 1.084581 0.879265 0.060419 -0.016712 -184367.000000 0 0 1
-13.437834 -24.526815 22.313473 35.777522 1.069580 0.897364 0.069840 -0.022749 290811.000000 0 0 1
-14.850434 -24.669615 21.682673 36.045299 1.028928 0.925369 0.057206 -0.021715 172145.000000 0 0 1
-15.291534 -25.948015 21.254973 36.863320 1.038271 0.956249 0.070493 -0.020539 426048.000000 0 0 1
-16.515534 -26.008315 20.525073 37.019912 1.005031 0.983114 0.060801 -0.021970 606791.000000 0 0 1
-17.024634 -27.408015 20.161673 38.046425 1.014967 1.012287 0.065744 -0.026605 599844.000000 0 0 1
-16.084134 -27.930615 19.182873 37.507349 1.048316 1.033933 0.063285 -0.024227 633654.000000 0 0 1
-16.171834 -29.301115 18.919173 38.445008 1.066481 1.056284 0.086648 -0.019787 77265.700000 0 0 1
-15.013734 -29.773915 18.023073 37.904213 1.103748 1.075275 0.093789 -0.027791 113265.000000 0 0 1
-15.231534 -29.270615 16.698773 36.981313 1.090986 1.102299 0.085868 -0.030548 492508.000000 0 0 1
-14.060034 -29.493015 15.915373 36.343109 1.125942 1.117513 0.107817 -0.038676 560050.000000 0 0 1
-14.293134 -28.949615 14.478573 35.383654 1.112182 1.149232 0.074366 -0.028706 -34378.100000 0 0 1
-14.263034 -27.533715 14.413573 34.194893 1.092836 1.135684 0.072337 -0.025398 -209775.000000 0 0 1
-14.495734 -27.039115 13.070673 33.347901 1.078686 1.168047 0.063089 -0.017036 -96083.200000 0 0 1
-13.450834 -27.057715 11.924873 32.484573 1.109458 1.194914 0.062947 -0.016531 -2837.390000 0 0 1
-13.959734 -26.486315 10.736373 31.806741 1.085740 1.226483 0.040388 -0.009644 368706.000000 0 0 1
-13.051534 -26.748315 9.637173 31.284021 1.116844 1.257649 0.051236 -0.009593 359509.000000 0 0 1
-13.427334 -26.118015 8.310173 30.520534 1.095931 1.295033 0.048267 -0.004385 -281507.000000 0 0 1
-14.503334 -26.673315 7.590673 31.295858 1.072772 1.325807 0.044490 -0.016050 -98522.900000 0 0 1
-14.809334 -25.816715 6.479973 30.459960 1.049990 1.356421 0.045336 -0.019142 35173.700000 0 0 1
-15.843534 -26.471715 5.516773 31.340135 1.031475 1.393845 0.047940 -0.025187 -148243.000000 0 0 1
-15.329934 -27.567515 4.782173 31.903666 1.063292 1.420335 0.061158 -0.022061 -478764.000000 0 0 1
-15.981134 -27.821915 3.597873 32.286224 1.049407 1.459128 0.066492 -0.017605 -752267.000000 0 0 1
-15.412434 -28.974615 2.821773 32.939852 1.081933 1.485027 0.062893 -0.015599 -15125.100000 0 0 1
-14.132434 -28.753015 2.257373 32.117866 1.113963 1.500454 0.061210 -0.010710 -9253.090000 0 0 1
-13.707634 -29.826715 1.436773 32.857213 1.140008 1.527055 0.066386 -0.005378 -451958.000000 0 0 1
-12.356834 -29.604015 0.774873 32.088775 1.175377 1.546646 0.051102 -0.007951 -428796.000000 0 0 1
-12.176934 -28.681215 -0.290427 31.160458 1.169297 1.580117 0.059072 -0.012946 -112220.000000 0 0 1
-12.040834 -27.298015 0.065373 29.835676 1.155378 1.568605 0.057069 -0.018297 -210457.000000 0 0 1
-11.800734 -26.411615 -1.164527 28.951457 1.150606 1.611031 0.056474 -0.015798 281236.000000 0 0 1
-10.594034 -26.751215 -1.826127 28.830467 1.193725 1.634179 0.055403 -0.020482 -251848.000000 0 0 1
-10.392934 -25.969515 -2.990127 28.131293 1.190120 1.677289 0.066694 -0.028786 729476.000000 0 0 1
-9.105034 -26.458515 -3.742027 28.230435 1.239365 1.703741 0.056462 -0.033056 644422.000000 0 0 1
-8.805834 -25.616115 -4.861927 27.520291 1.239690 1.748395 0.050520 -0.031535 -401819.000000 0 0 1
-7.483034 -25.905215 -5.252827 27.471224 1.289589 1.763193 0.051503 -0.023644 -34267.300000 0 0 1
-6.791634 -24.751315 -5.943327 26.345342 1.302993 1.798348 0.035390 -0.025385 -216351.000000 0 0 1
-7.135234 -24.598615 -7.315727 26.636879 1.288478 1.849018 0.047591 -0.019535 532168.000000 0 0 1
-6.206934 -23.654515 -7.918627 25.705384 1.314182 1.883942 0.040008 -0.014306 110893.000000 0 0 1
-6.354334 -23.558615 -9.445027 26.164756 1.307341 1.940118 0.047439 -0.010244 -110419.000000 0 0 1
-5.854934 -24.701115 -10.147327 27.338500 1.338060 1.951069 0.039238 -0.015144 32058.600000 0 0 1
-6.027834 -24.670415 -11.565727 27.905738 1.331157 1.998142 0.035439 -0.006194 1451760.000000 0 0 1
-7.448534 -25.177415 -12.127927 28.921783 1.283159 2.003509 0.039055 -0.012224 1518840.000000 0 0 1
-7.612134 -25.249915 -13.529227 29.640223 1.277990 2.044796 0.049878 -0.009602 -188437.000000 0 0 1
-8.703634 -26.079215 -13.839027 30.779821 1.248681 2.037129 0.059329 -0.010438 -470536.000000 0 0 1
-8.762534 -26.112215 -15.359727 31.536503 1.247032 2.079501 0.068919 -0.019867 435282.000000 0 0 1
-7.825334 -26.913315 -16.111127 32.328483 1.287837 2.092499 0.057739 -0.025178 191018.000000 0 0 1
-6.585634 -26.293615 -16.305827 31.632338 1.325380 2.112364 0.059314 -0.019656 -306234.000000 0 0 1
-5.398334 -27.146715 -16.788027 32.371655 1.374499 2.116012 0.047165 -0.022417 -143393.000000 0 0 1
-5.453034 -27.215515 -18.211527 33.197584 1.373050 2.151461 0.078440 -0.024452 412133.000000 0 0 1
-4.290334 -27.802515 -18.784627 33.826750 1.417689 2.159542 0.057868 -0.028371 246701.000000 0 0 1
-25.134774 14.644202 -6.232227 29.749792 -0.527547 1.781848 0.074736 -0.023171 -119857.000000 0 0 1
-25.040684 13.590402 -5.313727 28.982245 -0.497247 1.755184 0.063201 -0.024325 324378.000000 0 0 1
-23.762634 12.992002 -5.361327 27.607946 -0.500338 1.766233 0.085704 -0.030305 -374289.000000 0 0 1
-23.643334 11.589202 -4.654927 26.739207 -0.455751 1.745774 0.080629 -0.025136 -268458.000000 0 0 1
-24.161034 10.385202 -5.295127 26.826225 -0.405957 1.769487 0.084853 -0.014217 687928.000000 0 0 1
-25.571514 10.260602 -5.408627 28.079094 -0.381585 1.764629 0.099482 -0.018549 197915.000000 0 0 1
-26.041924 9.602502 -6.753127 28.565618 -0.353265 1.809463 0.111705 -0.018388 -46856.400000 0 0 1
-26.060614 10.532902 -7.801627 29.171270 -0.384095 1.841534 0.139363 -0.018018 122342.000000 0 0 1
-26.333694 9.845002 -8.989927 29.516204 -0.357767 1.880290 0.134869 -0.013751 -98923.300000 0 0 1
-26.931314 10.724302 -10.109427 30.700274 -0.378962 1.906352 0.108403 -0.012365 -110036.000000 0 0 1
-25.978834 11.658702 -10.570327 30.373622 -0.421836 1.926244 0.132713 -0.020886 441476.000000 0 0 1
-26.494284 12.572302 -11.523427 31.508716 -0.443064 1.945205 0.120370 -0.032162 -340747.000000 0 0 1
-25.442864 13.594902 -11.944727 31.222383 -0.490733 1.963372 0.101789 -0.031273 -150549.000000 0 0 1
-25.273804 14.774402 -11.138927 31.322896 -0.528999 1.934370 0.105188 -0.023337 363614.000000 0 0 1
-24.220534 15.542102 -11.707927 31.068742 -0.570512 1.957178 0.098398 -0.029396 234760.000000 0 0 1
-24.244134 16.994802 -11.213427 31.659789 -0.611387 1.932839 0.097983 -0.034120 -98308.400000 0 0 1
-23.688634 17.159502 -9.919427 30.886808 -0.626900 1.897744 0.099499 -0.031225 -20615.200000 0 0 1
-23.216234 18.523402 -9.828527 31.284339 -0.673437 1.890376 0.041253 -0.016467 162582.000000 0 0 1
-22.092234 18.519002 -8.721727 30.117914 -0.697638 1.864591 0.038941 -0.014962 -66295.800000 0 0 1
-22.315034 18.060902 -7.388227 29.643596 -0.680422 1.822687 0.055806 -0.017663 -423986.000000 0 0 1
-23.334034 18.730802 -6.694927 30.661737 -0.676400 1.790918 0.045243 -0.016683 -352941.000000 0 0 1
-23.601434 17.956502 -5.408027 30.144823 -0.650392 1.751174 0.037517 -0.013559 566991.000000 0 0 1
-22.438434 17.963502 -4.566027 29.103596 -0.675087 1.728336 0.040543 -0.024452 794660.000000 0 0 1
-22.801434 17.359602 -3.334227 28.850966 -0.650718 1.686622 0.028151 -0.023483 -668896.000000 0 0 1
-21.636334 17.277802 -2.398627 27.792207 -0.673859 1.657210 0.025437 -0.025128 -1019660.000000 0 0 1
-21.230334 18.487502 -1.877327 28.214166 -0.716450 1.637384 0.025607 -0.027236 575747.000000 0 0 1
-20.066334 18.326602 -1.052527 27.196137 -0.740115 1.609507 0.057404 -0.036668 490424.000000 0 0 1
-19.518334 19.620602 -0.357227 27.677806 -0.788011 1.583703 0.066139 -0.044175 -469072.000000 0 0 1
-20.288434 20.212102 0.646773 28.645556 -0.783513 1.548216 0.054453 -0.032094 -184628.000000 0 0 1
-20.106134 21.608602 0.772573 29.526008 -0.821400 1.544628 0.068739 -0.033121 -261994.000000 0 0 1
-21.241934 22.203902 1.607973 30.770417 -0.807536 1.518515 0.034729 -0.033884 -538205.000000 0 0 1
-21.096434 21.828802 2.948373 30.499983 -0.802458 1.473977 0.056660 -0.033799 486984.000000 0 0 1
-22.183534 22.206602 3.793073 31.616921 -0.785918 1.450537 0.024986 -0.034881 50363.500000 0 0 1
-21.964334 21.881502 5.289973 31.451802 -0.783509 1.401800 0.049221 -0.037197 423285.000000 0 0 1
-20.888934 22.678902 5.842673 31.381793 -0.826460 1.383523 0.048744 -0.031525 706418.000000 0 0 1
-20.361934 22.160202 7.064673 30.912659 -0.827663 1.340222 0.050713 -0.020238 122989.000000 0 0 1
-21.311234 21.934702 8.269373 31.680946 -0.799814 1.306717 0.039878 -0.027225 66239.200000 0 0 1
-22.378434 20.954302 8.170673 31.727542 -0.752545 1.310335 0.048870 -0.022544 1084910.000000 0 0 1
-22.905934 20.471402 9.373573 32.118903 -0.729332 1.274647 0.064877 -0.021304 -23233.300000 0 0 1
-23.480034 21.465002 10.424273 33.477212 -0.740595 1.254147 0.067074 -0.022249 -220135.000000 0 0 1
-24.673434 22.099502 9.969773 34.591367 -0.730423 1.278433 0.085017 -0.023259 673169.000000 0 0 1
-25.240174 22.839002 11.049373 35.787917 -0.735498 1.256922 0.101426 -0.020310 -14159.100000 0 0 1
-26.404584 23.804902 10.809473 37.158042 -0.733668 1.275623 0.105596 -0.026651 -96491.900000 0 0 1
-26.979674 24.310202 11.985873 38.243298 -0.733398 1.252013 0.104287 -0.019358 65005.800000 0 0 1
-27.456124 25.628502 11.851573 39.384243 -0.750983 1.265137 0.101022 -0.019697 95283.900000 0 0 1
-27.885224 26.273102 13.187673 40.518838 -0.755640 1.239287 0.120902 -0.021388 -49854.700000 0 0 1
-26.797894 26.346502 14.068073 40.126997 -0.776905 1.212597 0.099435 -0.018356 56685.800000 0 0 1
-27.253404 26.616502 15.400473 41.089667 -0.773576 1.186614 0.105510 -0.020121 -651748.000000 0 0 1
-26.144474 26.621202 16.391873 40.754329 -0.794433 1.156865 0.085049 -0.022688 -899149.000000 0 0 1
-25.647824 25.341402 16.760173 39.760544 -0.779389 1.135667 0.089540 -0.021343 -41845.700000 0 0 1
-24.597434 25.578102 17.672773 39.643409 -0.804940 1.108736 0.072297 -0.019224 -110214.000000 0 0 1
-24.060034 24.253802 18.244073 38.729553 -0.789409 1.080300 0.074329 -0.010174 7326.610000 0 0 1
-22.927634 24.345702 19.098573 38.511622 -0.815386 1.051906 0.058183 -0.017685 490663.000000 0 0 1
-22.441834 23.090302 19.492873 37.640005 -0.799639 1.026430 0.062892 -0.018797 -254701.000000 0 0 1
-20.957634 23.066202 19.928073 36.991893 -0.833258 1.001886 0.032259 -0.021577 -677469.000000 0 0 1
-20.164434 23.032402 18.768873 35.907750 -0.851694 1.020785 0.042333 -0.026904 840857.000000 0 0 1
-18.806434 22.606002 19.051173 35.037986 -0.876891 0.995922 0.027178 -0.022774 816349.000000 0 0 1
-18.629734 21.065102 19.153573 34.024474 -0.846674 0.972863 0.033292 -0.006597 -728036.000000 0 0 1
-19.144034 20.506302 20.349373 34.656881 -0.819742 0.943242 0.047861 -0.004980 158373.000000 0 0 1
-18.230134 20.591502 21.423973 34.861645 -0.846149 0.908990 0.050078 -0.003542 -376811.000000 0 0 1
-18.931734 20.286902 22.726073 35.867022 -0.819939 0.884573 0.026483 -0.001356 -279195.000000 0 0 1
-19.808434 21.333102 23.031173 37.120212 -0.822440 0.901482 0.004839 -0.004564 451454.000000 0 0 1
-20.692534 21.065802 24.157473 38.151441 -0.794337 0.885116 0.017675 0.003345 299108.000000 0 0 1
-21.829034 22.067302 24.323473 39.434805 -0.790826 0.906123 0.016463 0.003230 -879638.000000 0 0 1
-21.467234 23.342502 24.788673 40.251618 -0.827223 0.907341 0.022802 -0.006996 442931.000000 0 0 1
-22.464834 24.407402 24.899473 41.477388 -0.826818 0.926902 0.023304 -0.006187 687864.000000 0 0 1
-23.263434 24.897002 23.632473 41.467358 -0.819304 0.964406 0.026045 -0.012895 346233.000000 0 0 1
-24.287634 23.969802 23.323773 41.333266 -0.778812 0.971228 0.032448 -0.009184 -216211.000000 0 0 1
-25.117374 24.324602 22.267573 41.453751 -0.769365 1.003722 0.039348 -0.017024 -22418.300000 0 0 1
-26.086734 23.172802 21.910973 41.201785 -0.726312 1.010076 0.057376 -0.009462 129969.000000 0 0 1
-27.306424 23.126702 22.625173 42.336551 -0.702711 1.006984 0.077308 -0.015807 189027.000000 0 0 1
-28.097434 22.057002 22.143073 42.027286 -0.665539 1.015878 0.092925 -0.016727 51121.000000 0 0 1
-29.617984 22.133702 22.370673 43.215422 -0.641775 1.026689 0.099566 -0.016190 -406377.000000 0 0 1
-30.250314 23.094502 21.537973 43.730101 -0.652052 1.055813 0.108944 -0.015521 591824.000000 0 0 1
-31.595034 23.419302 21.904973 45.017082 -0.637867 1.062611 0.116553 -0.024121 817327.000000 0 0 1
-32.662664 22.525102 21.223973 44.996520 -0.603731 1.079601 0.118481 -0.034412 -1152520.000000 0 0 1
-32.694844 21.250002 21.795073 44.671474 -0.576340 1.061118 0.117725 -0.028905 745931.000000 0 0 1
-33.525944 20.314102 21.070873 44.504306 -0.544762 1.077585 0.110846 -0.020151 363651.000000 0 0 1
-35.033765 20.572802 20.874273 45.676472 -0.530975 1.096174 0.112193 -0.033378 -539217.000000 0 0 1
-35.578981 19.884302 19.773873 45.301825 -0.509634 1.119101 0.116389 -0.027105 -465528.000000 0 0 1
35.898298 20.067702 19.718273 45.609327 0.509738 1.123721 0.122707 -0.040211 -347760.000000 0 0 1
35.164298 19.366002 18.551973 44.223812 0.503403 1.137900 0.130284 -0.031325 -37690.200000 0 0 1
35.097708 17.949602 18.701073 43.632183 0.472740 1.127846 0.139400 -0.040607 402941.000000 0 0 1
34.583208 17.332202 17.506773 42.460459 0.464586 1.145811 0.146276 -0.050234 114308.000000 0 0 1
34.972148 15.825202 17.538073 42.202750 0.424938 1.142230 0.130799 -0.055557 164572.000000 0 0 1
34.138498 15.003802 16.713473 40.864303 0.414086 1.149439 0.144383 -0.052237 236657.000000 0 0 1
34.638418 13.730502 16.421973 40.718888 0.377395 1.155675 0.121929 -0.043513 -423972.000000 0 0 1
33.714678 12.886102 15.559573 39.304343 0.365077 1.163777 0.112815 -0.041725 -376570.000000 0 0 1
33.770618 13.209802 14.205773 38.945570 0.372865 1.197422 0.118308 -0.037453 385325.000000 0 0 1
32.788888 12.547202 13.434373 37.590235 0.365475 1.205325 0.121975 -0.029652 -130022.000000 0 0 1
32.827908 12.888702 11.929773 37.230493 0.374123 1.244613 0.120659 -0.027364 -562190.000000 0 0 1
34.074498 12.464502 11.482273 38.056245 0.350682 1.264302 0.109750 -0.021686 -139505.000000 0 0 1
34.227408 12.539102 10.011273 37.801721 0.351163 1.302762 0.100710 -0.015623 83913.800000 0 0 1
35.682868 12.792602 9.526673 39.085486 0.344234 1.324577 0.082663 -0.011947 -19147.100000 0 0 1
-36.345044 11.672402 9.826173 39.417773 -0.310751 1.318857 0.119429 -0.026180 1581190.000000 0 0 1
-34.941218 11.883702 9.489773 38.107307 -0.327833 1.319120 0.134838 -0.018553 1241930.000000 0 0 1
-34.637354 11.614902 7.965273 37.391146 -0.323545 1.356126 0.148975 -0.034810 -734269.000000 0 0 1
-35.031717 12.682102 7.159073 37.938229 -0.347341 1.380955 0.135656 -0.034803 36429.700000 0 0 1
-34.606379 12.427702 5.866873 37.235325 -0.344773 1.412575 0.138928 -0.043324 -127186.000000 0 0 1
-35.443154 13.261902 4.836473 38.150841 -0.358046 1.443682 0.148562 -0.047130 1120770.000000 0 0 1
36.123998 12.654602 4.547973 38.545638 0.336951 1.452532 0.142223 -0.039525 892328.000000 0 0 1
35.106748 13.589402 4.288373 37.888596 0.369326 1.457370 0.127058 -0.035581 80227.700000 0 0 1
34.400098 14.138902 5.552873 37.604649 0.389964 1.422590 0.109043 -0.017190 -990219.000000 0 0 1
33.558488 15.240902 5.289173 37.234830 0.426307 1.428265 0.086282 -0.018012 -96317.000000 0 0 1
33.177268 15.966802 6.447473 37.379670 0.448541 1.397443 0.070605 -0.012933 516443.000000 0 0 1
31.908158 15.421702 7.189873 36.161494 0.450211 1.370636 0.097867 -0.009012 162855.000000 0 0 1
32.130748 14.215802 7.792373 35.988818 0.416546 1.352546 0.112040 -0.008455 1242980.000000 0 0 1
30.881718 13.603802 8.259973 34.741489 0.414937 1.330742 0.114389 -0.016750 1106830.000000 0 0 1
30.565168 12.253102 7.508873 33.775008 0.381269 1.346603 0.117867 -0.011752 -303927.000000 0 0 1
30.319188 12.465802 6.120273 33.348270 0.390083 1.386224 0.106960 -0.022124 161549.000000 0 0 1
30.445248 11.316902 5.307573 32.911331 0.355886 1.408820 0.128999 -0.026094 -209735.000000 0 0 1
30.162068 11.573202 3.833873 32.532874 0.366377 1.452676 0.114671 -0.035070 959868.000000 0 0 1
28.804158 11.163602 3.546573 31.094753 0.369744 1.456491 0.076416 -0.025285 896636.000000 0 0 1
28.438938 11.586202 2.263473 30.791826 0.386875 1.497221 0.098469 -0.032058 -806126.000000 0 0 1
26.960088 11.346402 2.032173 29.320929 0.398358 1.501433 0.103486 -0.018224 -631784.000000 0 0 1
26.684788 10.014502 1.600073 28.546950 0.359024 1.514716 0.056883 -0.018560 126946.000000 0 0 1
25.290188 9.755602 1.658173 27.157226 0.368159 1.509700 0.049289 -0.013442 86374.700000 0 0 1
24.923188 8.255302 1.413173 26.292819 0.319856 1.517023 0.049464 -0.012259 -179734.000000 0 0 1
25.264788 7.304202 2.385173 26.407384 0.281433 1.480351 0.061096 -0.007919 54378.300000 0 0 1
26.637588 6.988202 2.258273 27.631428 0.256562 1.488977 0.078927 -0.021818 -162270.000000 0 0 1
27.211488 6.663202 3.689373 28.257296 0.240142 1.439859 0.080243 -0.024559 593303.000000 0 0 1
28.605568 6.383302 3.854973 29.561561 0.219552 1.440019 0.101356 -0.032286 735053.000000 0 0 1
28.846558 5.827702 5.118573 29.871153 0.199341 1.398591 0.087197 -0.025625 -549157.000000 0 0 1
30.314578 5.608902 5.452073 31.307483 0.182954 1.395758 0.088902 -0.030950 -586468.000000 0 0 1
31.031918 6.788802 5.741873 32.280596 0.215375 1.391971 0.112752 -0.027852 -722111.000000 0 0 1
32.309548 6.494902 6.229573 33.539502 0.198377 1.383973 0.097821 -0.021098 -379226.000000 0 0 1
32.792938 7.745502 7.041173 34.423069 0.231943 1.364794 0.091206 -0.020547 -359361.000000 0 0 1
32.170438 7.845702 8.236373 34.122279 0.239210 1.327011 0.082836 -0.021457 -533001.000000 0 0 1
32.781148 8.825802 9.038273 35.131023 0.262998 1.310597 0.103700 -0.022460 -155111.000000 0 0 1
32.320168 8.833502 10.506473 35.114242 0.266797 1.266933 0.088011 -0.015845 -787898.000000 0 0 1
30.986848 9.200802 10.676673 34.041604 0.288634 1.251776 0.082551 -0.018016 -496781.000000 0 0 1
30.676698 9.021702 12.049273 34.170687 0.286026 1.210427 0.076976 -0.019052 -467374.000000 0 0 1
29.220618 9.331002 12.442273 33.101695 0.309094 1.185450 0.061027 -0.020134 -270017.000000 0 0 1
28.835268 10.686602 12.628473 33.243863 0.354915 1.181136 0.084725 -0.029909 82675.000000 0 0 1
28.976078 11.583702 11.551673 33.275161 0.380306 1.216260 0.088081 -0.032269 -378198.000000 0 0 1
27.941078 11.601202 10.381473 31.985414 0.393543 1.240240 0.071669 -0.024978 -90695.200000 0 0 1
28.105928 12.688402 9.568973 32.287830 0.424059 1.269912 0.055075 -0.005571 13362.300000 0 0 1
27.010588 12.806802 8.694773 31.131738 0.442746 1.287742 0.058173 -0.014589 -296012.000000 0 0 1
27.075188 14.116702 7.902973 31.540514 0.480612 1.317532 0.058068 -0.012758 -133337.000000 0 0 1
27.018388 15.326702 8.696173 32.257162 0.516005 1.297830 0.057213 -0.005395 191724.000000 0 0 1
27.298788 16.473202 7.920773 32.853140 0.542946 1.327301 0.058984 -0.002176 -848469.000000 0 0 1
26.796988 17.860302 8.485973 33.302863 0.587890 1.313143 0.063698 -0.014748 1510250.000000 0 0 1
25.371288 18.112802 8.444873 32.296930 0.620000 1.306245 0.076385 -0.021375 842137.000000 0 0 1
24.493488 17.257602 9.098373 31.313514 0.613793 1.275987 0.090352 -0.020257 -1402750.000000 0 0 1
23.238688 18.059502 9.400773 30.895902 0.660640 1.261622 0.090478 -0.026233 -955621.000000 0 0 1
22.482188 18.294402 8.244873 30.134894 0.683056 1.293664 0.098943 -0.032712 -60897.000000 0 0 1
21.530588 19.328902 8.387073 30.125000 0.731566 1.288659 0.145970 -0.040990 50695.700000 0 0 1
20.743988 19.676402 7.136073 29.468582 0.758992 1.326206 0.118958 -0.033420 -21215.400000 0 0 1
21.524888 20.450402 6.248173 30.341051 0.759806 1.363381 0.081903 -0.022242 181034.000000 0 0 1
20.751988 20.872702 5.149173 29.880238 0.788298 1.397605 0.104040 -0.024086 -398180.000000 0 0 1
18.502766 16.874102 33.366643 41.718348 0.739393 0.643822 0.051033 -0.021099 -192133.000000 0 0 1
17.628366 17.542202 32.487061 40.913289 0.782948 0.653359 0.046630 -0.021229 -69998.800000 0 0 1
17.044966 16.636702 31.641643 39.604347 0.773277 0.645260 0.048229 -0.025477 110644.000000 0 0 1
16.340566 17.307502 30.406543 38.615043 0.814127 0.664172 0.046184 -0.027684 -246516.000000 0 0 1
17.296566 17.651202 29.480813 38.468876 0.795545 0.697649 0.041618 -0.011040 -737739.000000 0 0 1
16.675366 18.083302 28.365923 37.545961 0.825882 0.714381 0.044149 -0.012447 -158739.000000 0 0 1
17.662766 18.325802 27.191253 37.244765 0.803820 0.752373 0.034670 -0.009154 181099.000000 0 0 1
18.446066 19.529002 27.351093 38.336947 0.813907 0.776402 0.040151 -0.016456 183072.000000 0 0 1
19.137966 19.796702 26.156123 37.977808 0.802316 0.811073 0.039309 -0.014953 -766783.000000 0 0 1
20.009666 21.012502 26.260763 39.134890 0.809839 0.835197 0.058802 -0.016310 -422452.000000 0 0 1
19.243766 22.193802 26.193333 39.357058 0.856471 0.842592 0.052200 -0.014133 556384.000000 0 0 1
20.042266 23.319502 26.520043 40.605471 0.860834 0.859106 0.079829 -0.021477 216014.000000 0 0 1
19.156866 24.585202 26.374433 40.829259 0.908866 0.868504 0.087222 -0.026134 235499.000000 0 0 1
18.872866 24.964002 25.030093 40.073582 0.923464 0.896173 0.087376 -0.026004 -199725.000000 0 0 1
18.067166 26.064802 25.124083 40.460053 0.964673 0.900829 0.081918 -0.021099 -637599.000000 0 0 1
18.017966 26.965402 23.912893 40.294000 0.981741 0.935445 0.060480 -0.016827 -388559.000000 0 0 1
19.167466 27.713102 23.657473 41.171395 0.965704 0.958669 0.091512 -0.026809 -80969.200000 0 0 1
18.754166 28.732602 22.750373 41.168685 0.992516 0.985299 0.094604 -0.023571 103175.000000 0 0 1
19.810566 29.837102 22.596373 42.347458 0.984672 1.007951 0.102017 -0.026319 534669.000000 0 0 1
20.906566 29.458402 21.733273 42.157053 0.953591 1.029169 0.098954 -0.031662 503317.000000 0 0 1
21.934466 30.439902 21.911173 43.448911 0.946390 1.042228 0.115954 -0.042340 1133230.000000 0 0 1
22.897566 30.470402 20.644973 43.346959 0.926356 1.074385 0.139986 -0.038740 900980.000000 0 0 1
22.162666 31.252302 19.731673 43.095580 0.953954 1.095212 0.101854 -0.030201 351733.000000 0 0 1
22.691166 31.076802 18.439173 42.669189 0.940111 1.123929 0.100316 -0.008014 -102836.000000 0 0 1
22.268966 32.060302 17.355073 42.719648 0.963706 1.152444 0.093084 -0.022317 -478865.000000 0 0 1
22.710766 33.315902 17.720173 44.042397 0.972472 1.156721 0.113861 -0.022637 98466.400000 0 0 1
22.568266 -34.083615 16.661573 44.143261 -0.985931 1.183763 0.107092 -0.018357 74824.600000 0 0 1
23.693466 34.148202 15.598373 44.393572 0.964215 1.211767 0.088153 -0.018554 -168235.000000 0 0 1
23.660866 33.045002 14.706373 43.221362 0.949400 1.223606 0.103944 -0.027630 98081.900000 0 0 1
22.708966 33.146302 13.658673 42.437410 0.970132 1.243109 0.076273 -0.021113 168421.000000 0 0 1
22.236366 31.839102 12.940373 40.934553 0.961146 1.249156 0.078781 -0.033668 -71057.300000 0 0 1
23.220766 31.319702 12.077873 40.816696 0.932815 1.270393 0.102699 -0.048959 179466.000000 0 0 1
22.710366 30.205402 11.310573 39.446877 0.926103 1.279985 0.102873 -0.048406 213784.000000 0 0 1
23.878766 29.531802 10.484773 39.398645 0.890847 1.301431 0.104643 -0.043404 1427270.000000 0 0 1
24.952866 28.829102 11.139373 39.722138 0.857347 1.286552 0.094316 -0.040016 1043960.000000 0 0 1
25.864466 29.727202 11.812373 41.136471 0.854771 1.279545 0.090212 -0.036933 -1667220.000000 0 0 1
27.173366 29.101302 12.106473 41.615433 0.819644 1.275615 0.088075 -0.033144 -1360840.000000 0 0 1
27.188866 28.029902 13.001573 41.157633 0.800628 1.249394 0.082241 -0.031975 -80276.800000 0 0 1
28.474166 27.900302 13.578873 42.114021 0.775219 1.242500 0.060818 -0.022635 134003.000000 0 0 1
28.827366 26.624702 14.383173 41.794347 0.745697 1.219472 0.052401 -0.029881 -66893.300000 0 0 1
29.998866 26.750302 15.155373 42.955744 0.728216 1.210220 0.039776 -0.029753 -16909.500000 0 0 1
30.249366 25.571002 15.881973 42.674786 0.701783 1.189458 0.047972 -0.037249 729922.000000 0 0 1
31.507666 25.794302 16.826673 44.059232 0.686020 1.178934 0.054031 -0.038193 818073.000000 0 0 1
32.736266 25.813802 16.131273 44.701605 0.667713 1.201600 0.058898 -0.035931 221165.000000 0 0 1
33.802866 26.141102 17.042673 46.004822 0.658272 1.191299 0.059730 -0.037702 -24562.200000 0 0 1
35.143766 26.318502 16.373473 46.859774 0.642785 1.213850 0.078276 -0.039207 -719333.000000 0 0 1
35.212166 27.556402 15.678873 47.382264 0.664030 1.233537 0.053621 -0.026517 -426623.000000 0 0 1
-36.314755 27.971102 15.537673 48.400033 -0.656330 1.243984 0.081328 -0.024401 -161846.000000 0 0 1
-36.053155 29.241202 14.687573 48.688835 -0.681447 1.264361 0.043037 -0.014219 75033.700000 0 0 1
36.221766 30.424402 15.200773 49.686256 0.698629 1.259876 0.041310 -0.023365 77195.800000 0 0 1
36.238666 31.349302 14.150473 49.962541 0.713183 1.283645 0.037847 -0.011840 113396.000000 0 0 1
35.616566 32.667902 14.666973 50.505957 0.742243 1.276151 0.029656 -0.015311 -615465.000000 0 0 1
35.488466 33.721302 13.693373 50.833708 0.759870 1.298051 0.005195 -0.018410 780318.000000 0 0 1
34.440366 -33.719415 14.036473 50.201199 -0.774821 1.287414 0.011670 -0.011104 1088250.000000 0 0 1
32.980666 -34.139215 13.685573 49.401470 -0.802657 1.290097 0.052781 -0.009526 107221.000000 0 0 1
32.581666 32.988002 14.189973 48.488437 0.791595 1.273803 0.039264 -0.017178 611861.000000 0 0 1
31.290566 32.617602 13.647873 47.215166 0.806160 1.277555 0.055636 -0.012542 617802.000000 0 0 1
30.720566 31.363602 14.254173 46.158533 0.795755 1.256856 0.080440 -0.029419 -517249.000000 0 0 1
30.101566 31.566902 15.472373 46.281399 0.809155 1.229922 0.091237 -0.024779 -303995.000000 0 0 1
29.585466 30.461402 16.097373 45.412798 0.799985 1.208452 0.081841 -0.035111 117302.000000 0 0 1
28.567066 30.962602 17.183173 45.497488 0.825617 1.183514 0.095718 -0.034240 223503.000000 0 0 1
28.229466 29.926702 18.063773 44.931171 0.814574 1.157061 0.089365 -0.037591 -83873.000000 0 0 1
28.953866 30.003402 19.301573 45.946504 0.803198 1.137254 0.084701 -0.042305 157468.000000 0 0 1
28.644666 28.912502 20.349473 45.503304 0.790052 1.107154 0.087856 -0.045824 275050.000000 0 0 1
27.487766 29.096302 21.159273 45.275677 0.813818 1.084513 0.102670 -0.051704 144169.000000 0 0 1
27.575166 28.203702 22.287973 45.305544 0.796666 1.056470 0.094162 -0.048648 417787.000000 0 0 1
26.359266 28.235902 23.285273 45.103004 0.819758 1.028308 0.099141 -0.041654 -393168.000000 0 0 1
25.177266 27.851502 22.679973 43.863220 0.835785 1.027382 0.119321 -0.039043 -410517.000000 0 0 1
24.084566 27.626302 23.575193 43.578304 0.853782 0.999189 0.128003 -0.039809 413386.000000 0 0 1
24.083266 26.362002 24.526153 43.318483 0.830540 0.968930 0.111567 -0.038591 -60448.000000 0 0 1
25.144966 26.374702 25.505263 44.479351 0.809263 0.960124 0.105026 -0.039812 561657.000000 0 0 1
24.921566 25.376702 26.463853 44.332798 0.794447 0.931119 0.119995 -0.036245 -1123980.000000 0 0 1
26.213666 25.061902 27.202083 45.334408 0.762940 0.927256 0.113929 -0.039349 -396956.000000 0 0 1
26.735866 26.026302 28.102013 46.710791 0.771951 0.925272 0.132228 -0.028892 255983.000000 0 0 1
27.165066 27.197702 27.467953 47.245574 0.785998 0.950364 0.098850 -0.024369 -1277970.000000 0 0 1
27.592166 28.325602 28.422963 48.698379 0.798514 0.947576 0.061472 -0.017672 -504869.000000 0 0 1
28.639166 27.986302 29.281573 49.606909 0.773869 0.939400 0.053927 -0.014955 -234755.000000 0 0 1
28.918066 29.135702 30.051903 50.874950 0.789147 0.938869 0.057163 -0.013447 -981212.000000 0 0 1
30.401566 29.368902 30.218573 51.961041 0.768123 0.950149 0.035665 -0.010440 -902339.000000 0 0 1
30.902566 29.820302 28.951743 51.792107 0.767577 0.977618 0.020810 -0.013675 188190.000000 0 0 1
32.309066 30.023802 28.985413 52.777444 0.748752 0.989389 0.024597 -0.018270 469736.000000 0 0 1
32.946866 30.296602 27.593683 52.581284 0.743517 1.018338 0.022638 -0.013042 54913.400000 0 0 1
32.623766 31.595502 27.161913 52.918384 0.769388 1.031795 0.034792 -0.014027 305568.000000 0 0 1
33.326966 31.788602 25.950713 52.864368 0.761777 1.057683 0.045424 -0.025401 -56825.100000 0 0 1
33.288166 33.276302 25.554003 53.557645 0.785220 1.073409 0.037926 -0.031031 -189745.000000 0 0 1
34.067966 34.116902 26.381053 54.959524 0.786116 1.070132 0.043526 -0.023519 133214.000000 0 0 1
33.731866 -32.887715 26.162233 53.887875 -0.772728 1.063868 0.041533 -0.024041 -45369.800000 0 0 1
34.617466 -31.933915 27.042293 54.308650 -0.745097 1.049578 0.036597 -0.021314 54597.700000 0 0 1
34.380466 -31.827915 28.451583 54.813550 -0.746864 1.025044 0.050169 -0.026952 -70538.000000 0 0 1
35.481866 -31.354715 29.162813 55.610706 -0.723727 1.018774 0.048091 -0.032465 -429262.000000 0 0 1
35.011366 -30.930315 30.601333 55.847307 -0.723588 0.990889 0.057939 -0.029300 -148417.000000 0 0 1
34.873666 -31.927015 31.606693 56.872576 -0.741316 0.981537 0.059339 -0.024206 -68110.000000 0 0 1
33.663166 -32.639215 31.603023 56.544480 -0.769956 0.977731 0.064605 -0.027660 -646222.000000 0 0 1
33.575166 -33.601315 32.812305 57.732032 -0.785787 0.966291 0.072218 -0.022776 -359947.000000 0 0 1
33.492466 -32.857115 34.037405 57.964474 -0.775823 0.943187 0.062353 -0.022539 261736.000000 0 0 1
33.783566 -33.623515 -33.159777 58.064111 -0.783024 2.178628 0.057122 -0.023141 -68847.500000 0 0 1
33.005666 33.427802 -32.925897 57.366425 0.791752 2.182127 0.043470 -0.020450 -19155.200000 0 0 1
33.462566 32.412302 -33.765047 57.535894 0.769456 2.197962 0.053216 -0.023446 -24149.800000 0 0 1
32.588866 31.308802 -33.715557 56.382746 0.765368 2.211770 0.049209 -0.018299 85640.800000 0 0 1
32.680966 30.427402 33.403485 55.764372 0.749704 0.928531 0.042158 -0.010184 -335839.000000 0 0 1
33.899866 29.765102 33.261616 56.049061 0.720544 0.935473 0.049388 -0.016035 -295360.000000 0 0 1
33.908566 28.936402 32.117253 54.942007 0.706445 0.946451 0.035697 -0.009988 -535084.000000 0 0 1
35.285866 28.288402 32.035083 55.421770 0.675772 0.954492 0.037735 -0.010075 -551889.000000 0 0 1
35.484366 27.243002 32.897557 55.529907 0.654763 0.936725 0.032418 -0.004306 698711.000000 0 0 1
-36.047755 26.761202 32.666206 55.521919 -0.638608 0.941782 0.016137 0.000471 661504.000000 0 0 1
-35.677955 25.555602 33.585419 55.262877 -0.621572 0.917586 0.017354 0.003715 -52254.600000 0 0 1
-36.295255 24.373102 33.163568 54.874546 -0.591357 0.921843 0.013378 -0.000506 -15831.800000 0 0 1
-36.115355 23.307602 34.053146 54.837760 -0.573110 0.900804 0.009044 -0.007401 233556.000000 0 0 1
36.034266 21.993502 33.585572 53.946020 0.547995 0.898764 0.008278 -0.011601 -47939.800000 0 0 1
-36.224255 21.518702 32.394866 53.147704 -0.536027 0.915335 0.007746 -0.009108 67919.400000 0 0 1
35.937466 20.484502 31.764373 52.154498 0.518072 0.915942 -0.007450 -0.005110 -253492.000000 0 0 1
-36.052055 19.655002 30.805763 51.332882 -0.499138 0.927148 0.009564 -0.007313 -175653.000000 0 0 1
-35.663955 20.436902 29.673303 50.696050 -0.520361 0.945524 0.019822 -0.010222 88227.100000 0 0 1
-34.533055 19.785702 29.119233 49.314659 -0.520292 0.939145 0.060264 -0.020856 20651.500000 0 0 1
-34.826455 18.705602 28.038583 48.465901 -0.492892 0.953881 0.080272 -0.018002 -365594.000000 0 0 1
-35.452155 17.563902 28.522513 48.773760 -0.459981 0.946173 0.063289 -0.014037 81311.300000 0 0 1
-36.050855 16.762502 27.568453 48.380421 -0.435232 0.964501 0.070068 -0.025633 4871.340000 0 0 1
36.248666 15.420202 28.126293 48.402859 0.402210 0.950732 0.035714 -0.011994 -68415.000000 0 0 1
-35.570055 14.567102 28.529713 47.868296 -0.388697 0.932280 0.062288 -0.015079 357793.000000 0 0 1
-36.051255 13.326202 29.029893 48.166537 -0.354068 0.923918 0.066237 -0.018554 96447.300000 0 0 1
-34.847655 12.432602 29.414133 47.266477 -0.342693 0.899113 0.068149 -0.009377 561757.000000 0 0 1
-34.170455 12.883202 30.650293 47.676381 -0.360547 0.872541 0.075013 -0.003103 840571.000000 0 0 1
-33.270355 11.960302 31.203503 47.155317 -0.345102 0.847689 0.071694 -0.001470 -140783.000000 0 0 1
-31.759155 12.068902 30.954653 45.961863 -0.363159 0.831882 0.081634 0.001059 -597121.000000 0 0 1
-31.372555 11.657102 29.649133 44.712373 -0.355760 0.845833 0.076906 -0.010359 234759.000000 0 0 1
-30.136055 12.111802 29.122653 43.623462 -0.382147 0.839827 0.096791 -0.003724 807909.000000 0 0 1
-28.829855 11.451202 29.674603 42.928692 -0.378090 0.807574 0.084136 -0.007589 105294.000000 0 0 1
-28.496555 10.208402 29.091193 41.982884 -0.343990 0.805252 0.075750 -0.014166 -939156.000000 0 0 1
-27.412255 9.638302 29.721413 41.565502 -0.338104 0.774101 0.077482 -0.015034 -811644.000000 0 0 1
-26.836855 8.531902 28.826023 40.298259 -0.307813 0.773719 0.065863 -0.021087 -73273.400000 0 0 1
-27.587555 7.334302 28.732623 40.502207 -0.259845 0.782137 0.060931 -0.028998 -51340.100000 0 0 1
-28.764155 7.426702 27.947943 40.787498 -0.252675 0.815906 0.069676 -0.021364 -265390.000000 0 0 1
-29.652555 6.222002 27.990983 41.249029 -0.206830 0.824962 0.062418 -0.027746 -517045.000000 0 0 1
-30.307255 5.975202 29.228423 42.526855 -0.194658 0.813040 0.066495 -0.027834 130910.000000 0 0 1
-30.822855 4.659602 29.245463 42.744091 -0.150038 0.817292 0.080113 -0.033610 250752.000000 0 0 1
-31.568655 4.258702 30.607183 44.175968 -0.134093 0.805367 0.071475 -0.021843 1345810.000000 0 0 1
-32.900955 4.791802 30.729063 45.273717 -0.144626 0.824751 0.068566 -0.021630 1047790.000000 0 0 1
-33.639455 4.365202 31.886963 46.555841 -0.129043 0.816304 0.060938 -0.020424 1771860.000000 0 0 1
-35.172555 4.779502 31.946773 47.755089 -0.135060 0.837973 0.043942 -0.013626 1305280.000000 0 0 1
-35.479055 6.136402 32.197413 48.302092 -0.171264 0.841179 0.039582 -0.008094 -826793.000000 0 0 1
36.012866 6.298702 32.334146 48.806733 0.173150 0.846654 0.041843 0.000331 -734334.000000 0 0 1
35.626966 7.783202 32.555606 48.884828 0.215085 0.842009 0.038859 -0.002946 -607752.000000 0 0 1
36.042466 8.221202 33.833024 50.113082 0.224261 0.829651 0.034754 -0.001586 166235.000000 0 0 1
36.300166 9.616302 33.945835 50.621093 0.258962 0.835797 0.046900 -0.008179 -168494.000000 0 0 1
-36.419755 10.042902 -32.992577 50.157438 -0.269067 2.288664 0.049656 -0.011766 177174.000000 0 0 1
35.339866 9.636702 -32.162267 48.746114 0.266214 2.291337 0.089518 -0.004535 367276.000000 0 0 1
35.623466 9.708102 -30.851537 48.115444 0.266059 2.266855 0.100293 0.007892 -555924.000000 0 0 1
34.483866 9.229102 -29.960167 46.603916 0.261507 2.269033 0.094326 0.004117 -169216.000000 0 0 1
34.055166 7.892902 -30.251747 46.230082 0.227747 2.284150 0.067562 0.006905 1155130.000000 0 0 1
32.831066 7.532102 -29.579177 44.827884 0.225517 2.291401 0.075742 -0.002663 631686.000000 0 0 1
35.065628 6.470902 -20.499227 41.130149 0.182484 2.092547 0.028558 -0.002894 -733293.000000 0 0 1
34.611798 7.090802 -19.361427 40.287974 0.202071 2.072108 0.026201 -0.003792 443647.000000 0 0 1
35.304628 8.329002 -19.038827 40.966644 0.231682 2.054137 0.022112 -0.006430 433373.000000 0 0 1
-36.094084 8.205702 -18.501227 41.381298 -0.223542 2.034307 0.032607 -0.013617 698497.000000 0 0 1
-35.113347 7.579002 -19.326227 40.790826 -0.212583 2.064384 0.030936 -0.018211 374303.000000 0 0 1
-34.477713 8.478902 -20.249327 40.873460 -0.241139 2.089109 0.029355 -0.011572 144396.000000 0 0 1
-33.397214 7.720102 -21.115027 40.259387 -0.227170 2.122894 0.022733 -0.008815 171220.000000 0 0 1
-33.943564 6.643602 -21.815627 40.892842 -0.193282 2.133509 0.019154 -0.003955 -31481.400000 0 0 1
-34.627448 6.968002 -22.962727 42.129562 -0.198576 2.147245 0.016692 -0.001750 -217222.000000 0 0 1
-34.823180 5.751302 -23.908327 42.630264 -0.163680 2.166184 0.026899 -0.005821 1007940.000000 0 0 1
-33.542104 5.471802 -24.527727 41.912083 -0.161708 2.195946 0.016384 -0.011172 1161260.000000 0 0 1
-33.478634 4.256402 -25.237747 42.141188 -0.126459 2.212905 0.024520 -0.007460 513827.000000 0 0 1
-32.148424 4.071002 -26.061107 41.584559 -0.125961 2.248109 0.034806 -0.009799 1625610.000000 0 0 1
-30.952644 4.068702 -25.243887 40.148155 -0.130700 2.250765 0.040164 -0.013035 -302667.000000 0 0 1
-29.837024 3.844902 -25.988067 39.754382 -0.128157 2.283281 0.047458 -0.010029 -76074.800000 0 0 1
-28.479924 4.216602 -25.259487 38.300489 -0.146987 2.290961 0.044510 -0.014804 772668.000000 0 0 1
-28.212184 5.626302 -25.203977 38.246870 -0.196846 2.290260 0.034089 -0.010529 477091.000000 0 0 1
-26.950764 5.956502 -24.632627 36.994458 -0.217517 2.299424 0.055276 -0.015023 484524.000000 0 0 1
-26.473654 7.421802 -24.852527 37.061916 -0.273330 2.305770 0.048014 -0.014914 253249.000000 0 0 1
-27.175864 8.301002 -23.947327 37.160580 -0.296454 2.271072 0.038499 -0.016345 144076.000000 0 0 1
-26.969714 9.693002 -24.099427 37.444654 -0.345027 2.269991 0.035871 -0.014873 37059.100000 0 0 1
-25.563864 10.237302 -23.739727 36.357779 -0.380903 2.282266 0.054760 -0.015855 49588.400000 0 0 1
-25.445294 10.355102 -22.316327 35.393637 -0.386488 2.253017 0.057140 -0.015298 199081.000000 0 0 1
-24.136634 10.720602 -21.928927 34.327631 -0.417989 2.263750 0.084280 -0.026070 -520801.000000 0 0 1
-23.946234 10.996202 -20.425027 33.339471 -0.430481 2.230190 0.102663 -0.036988 -798581.000000 0 0 1
-24.308934 12.317302 -19.970227 33.785354 -0.468992 2.203207 0.096961 -0.042490 1306350.000000 0 0 1
-25.669984 12.711502 -20.188227 35.044184 -0.459792 2.184720 0.079856 -0.028964 432196.000000 0 0 1
-26.873874 12.081702 -19.467927 35.315334 -0.422497 2.154670 0.072507 -0.025292 -420631.000000 0 0 1
-26.844804 12.349402 -18.088927 34.646219 -0.431163 2.120112 0.091475 -0.030177 -243676.000000 0 0 1
-27.704544 11.514602 -17.417327 34.691369 -0.393900 2.096781 0.081289 -0.029349 -903078.000000 0 0 1
-27.248914 11.080302 -15.960227 33.466479 -0.386211 2.067923 0.102777 -0.033496 285626.000000 0 0 1
-26.314234 10.038102 -15.792627 32.289464 -0.364431 2.081849 0.121352 -0.032923 743815.000000 0 0 1
-24.969434 10.243202 -16.177127 31.465779 -0.389294 2.110776 0.110698 -0.026149 -266669.000000 0 0 1
-24.083334 9.012702 -16.354927 30.474898 -0.358095 2.137281 0.099952 -0.022118 69866.100000 0 0 1
-22.692534 9.255002 -16.411727 29.494931 -0.387250 2.160874 0.101397 -0.018602 386498.000000 0 0 1
-21.936134 8.145902 -15.982327 28.336980 -0.355564 2.170030 0.097665 -0.015870 -186950.000000 0 0 1
-20.467534 8.460202 -15.612527 27.096973 -0.391960 2.184834 0.105648 -0.018665 -139879.000000 0 0 1
-19.840034 8.742602 -16.856127 27.462503 -0.415055 2.231645 0.097934 -0.024583 -991748.000000 0 0 1
-18.478034 8.869202 -16.649827 26.406765 -0.447509 2.253011 0.094793 -0.024171 -1248130.000000 0 0 1
-17.688234 9.264902 -17.942927 26.845123 -0.482497 2.302834 0.065765 -0.014312 -18673.600000 0 0 1
-17.406934 8.289702 -18.913727 27.008324 -0.444451 2.346604 0.093582 -0.025262 474904.000000 0 0 1
-16.487334 7.252002 -18.520927 25.835024 -0.414384 2.370131 0.089945 -0.020870 -152470.000000 0 0 1
-15.833034 6.451402 -19.708427 26.090758 -0.386925 2.427030 0.080999 -0.028614 559493.000000 0 0 1
-16.740434 5.642502 -20.474727 27.042456 -0.325099 2.429709 0.078930 -0.022331 606713.000000 0 0 1
-17.771034 6.384202 -21.144427 28.348800 -0.344889 2.412631 0.068992 -0.025190 508053.000000 0 0 1
-18.800534 5.496402 -21.897227 29.379569 -0.284427 2.411813 0.079568 -0.015897 475946.000000 0 0 1
-19.570834 4.546502 -21.144327 29.167975 -0.228261 2.381709 0.103372 -0.019140 650587.000000 0 0 1
-20.302134 3.586902 -21.895827 30.074404 -0.174871 2.386277 0.069512 -0.004976 -57258.200000 0 0 1
-21.058734 2.673702 -20.884627 29.778962 -0.126288 2.348046 0.087080 -0.000511 -246760.000000 0 0 1
-22.005434 1.778102 -21.422127 30.762124 -0.080628 2.341137 0.085277 -0.002885 260531.000000 0 0 1
-22.619034 1.266102 -20.244327 30.381845 -0.055917 2.300072 0.087927 -0.007864 -161640.000000 0 0 1
-23.297534 -0.118198 -20.520027 31.046104 0.005073 2.292885 0.088262 0.002675 -197934.000000 0 0 1
-22.323134 -1.089898 -20.777227 30.515625 0.048785 2.319749 0.070525 -0.011265 -89062.500000 0 0 1
-22.804734 -2.373498 -21.139627 31.186106 0.103706 2.315636 0.074503 -0.012496 -184409.000000 0 0 1
-23.396234 -2.569298 -22.649727 32.664892 0.109378 2.336989 0.077043 -0.016388 45321.100000 0 0 1
-22.481434 -2.520898 -23.702627 32.765597 0.111666 2.379510 0.047822 -0.014136 -114982.000000 0 0 1
-21.518334 -3.580698 -23.598527 32.136437 0.164891 2.395465 0.033926 -0.023487 471396.000000 0 0 1
-20.519034 -3.568298 -24.822527 32.402490 0.172180 2.443498 0.036610 -0.021588 149672.000000 0 0 1
-21.160934 -3.802598 -26.044907 33.772505 0.177801 2.451500 0.039956 -0.021746 110330.000000 0 0 1
-20.294434 -3.869598 -27.150247 34.117060 0.188411 2.491119 0.042895 -0.029602 -321579.000000 0 0 1
-21.125934 -3.861998 -28.460307 35.654021 0.180812 2.495157 0.048251 -0.030260 246306.000000 0 0 1
-21.954934 -5.014098 -28.485637 36.312420 0.224531 2.472621 0.054641 -0.030275 323890.000000 0 0 1
-22.761334 -5.099898 -29.640467 37.717961 0.220419 2.474857 0.029781 -0.028964 -319062.000000 0 0 1
-22.354834 -6.328298 -30.471187 38.318132 0.275866 2.490160 0.042612 -0.028460 -218159.000000 0 0 1
-21.133634 -6.156998 -31.140547 38.134929 0.283490 2.526272 0.031893 -0.028188 -135771.000000 0 0 1
-20.601334 -7.310398 -31.728567 38.529974 0.340990 2.538310 0.031110 -0.026262 318605.000000 0 0 1
-19.103234 -7.215198 -32.175827 38.108746 0.361131 2.576084 0.046133 -0.033405 280069.000000 0 0 1
-18.921534 -6.599998 -33.454077 38.996919 0.335613 2.601896 0.051302 -0.038847 276122.000000 0 0 1
-19.089734 -7.508998 33.843811 39.575327 0.374763 0.544909 0.048837 -0.031842 -755246.000000 0 0 1
-19.151834 -6.920098 32.399715 38.267767 0.346731 0.561123 0.055697 -0.027584 382780.000000 0 0 1
-17.966234 -6.548598 31.666273 36.992195 0.349529 0.543264 0.064773 -0.031868 77421.400000 0 0 1
-17.283234 -5.480198 32.269283 37.014177 0.307054 0.511914 0.050903 -0.032172 -551431.000000 0 0 1
-15.978434 -5.284498 31.487723 35.703122 0.319403 0.490851 0.047447 -0.027336 -345230.000000 0 0 1
-16.326434 -5.232098 30.126193 34.662873 0.310127 0.517376 0.047667 -0.028900 -35666.100000 0 0 1
-15.236534 -4.876298 29.307603 33.389606 0.309739 0.499658 0.040539 -0.017938 64583.200000 0 0 1
-15.505534 -5.125598 27.776663 32.221675 0.319258 0.531498 0.051125 -0.021225 346334.000000 0 0 1
-16.517934 -4.229898 27.320873 32.205034 0.250692 0.557951 0.040684 -0.015813 -103247.000000 0 0 1
-16.698534 -4.214898 25.919053 31.119185 0.247247 0.586476 0.041931 -0.016382 -20785.600000 0 0 1
-15.581534 -3.619798 25.025893 29.701556 0.228264 0.568743 0.033517 -0.009597 234146.000000 0 0 1
-15.418634 -2.184998 25.155823 29.585873 0.140774 0.554308 0.033790 -0.004682 -48612.400000 0 0 1
-14.372734 -1.682698 24.334233 28.311867 0.116545 0.536493 0.033440 -0.002304 83133.900000 0 0 1
-14.364234 -0.132298 24.507103 28.406809 0.009210 0.530174 0.029902 0.003937 -11137.400000 0 0 1
-15.374034 0.531102 23.775253 28.317938 -0.034532 0.574282 0.031682 -0.000348 -88416.700000 0 0 1
-15.678934 1.792502 24.258733 28.940078 -0.113831 0.576749 0.014525 0.004102 -520988.000000 0 0 1
-16.375234 2.677002 23.223673 28.542137 -0.162045 0.620371 0.016483 0.000630 -197911.000000 0 0 1
-15.562734 3.217502 22.208573 27.308821 -0.203872 0.621101 0.018522 0.002283 464097.000000 0 0 1
-16.373334 4.065302 21.416773 27.263361 -0.243367 0.667210 0.012623 -0.003616 201252.000000 0 0 1
-15.500234 4.814902 20.368873 26.044798 -0.301184 0.672815 0.005356 0.000289 318768.000000 0 0 1
-14.537534 5.633702 21.013273 26.165552 -0.369709 0.638335 0.013589 0.000286 1135250.000000 0 0 1
-13.271434 5.564802 20.305373 24.887871 -0.397039 0.616557 0.015156 -0.001005 760026.000000 0 1 0
-12.232134 6.631202 20.606473 24.864123 -0.496768 0.593902 0.002085 0.004066 -159999.000000 0 1 0
-12.667334 7.924402 20.340873 25.239029 -0.559015 0.633553 0.006995 0.001627 63737.300000 0 0 1
-11.577234 8.804402 20.427373 25.076431 -0.650183 0.618749 0.003192 0.001357 64100.900000 0 0 1
-12.092734 10.274002 20.479673 25.907649 -0.704263 0.659192 -0.000475 0.006481 -117466.000000 0 0 1
-12.503134 10.766802 19.229773 25.338440 -0.710919 0.709148 0.002480 0.007190 139794.000000 0 0 1
-12.870534 12.085702 19.414973 26.242256 -0.753960 0.737969 -0.011204 0.006736 -616050.000000 0 0 1
-13.553434 12.761702 18.181073 26.021299 -0.755321 0.797218 0.003349 0.002987 -126031.000000 0 0 1
-12.737834 13.437702 17.246873 25.303732 -0.812129 0.820857 0.007224 0.004739 -66219.900000 0 0 1
-12.208034 14.654702 17.711573 26.028756 -0.876228 0.822404 0.020148 -0.007501 -684908.000000 0 0 1
-13.055934 15.948702 17.477073 27.023444 -0.884804 0.867497 0.015891 -0.002236 7045.490000 0 0 1
-13.202934 16.317702 16.085273 26.444675 -0.890521 0.916928 0.026658 -0.007685 -8909.130000 0 0 1
-13.826734 15.451502 15.188573 25.702533 -0.840835 0.938577 0.047770 -0.011976 -646247.000000 0 0 1
-14.230934 16.223002 13.930473 25.685858 -0.850718 0.997576 0.042655 -0.014392 -381213.000000 0 0 1
-15.390334 16.989502 14.104973 26.915716 -0.834746 1.019206 0.031597 -0.010496 -537618.000000 0 0 1
-15.864934 17.357902 12.853673 26.799436 -0.830306 1.070569 0.035180 -0.012889 748169.000000 0 0 1
-17.125534 18.300502 12.982073 28.226343 -0.818553 1.092883 0.036530 -0.013461 1448540.000000 0 0 1
-18.418034 17.711302 13.185373 28.753577 -0.765839 1.094417 0.050440 -0.012526 987195.000000 0 0 1
-19.430634 18.718702 13.302973 30.081695 -0.766739 1.112715 0.047633 -0.015662 77389.300000 0 0 1
-20.856134 18.181802 13.362773 30.726534 -0.716999 1.120876 0.054027 -0.013044 -365944.000000 0 0 1
-21.273634 17.509402 12.220873 30.141273 -0.688643 1.153322 0.059602 -0.018067 109269.000000 0 0 1
-22.594434 17.028302 12.449073 30.910369 -0.645833 1.156280 0.064543 -0.014308 243356.000000 0 0 1
-23.144934 16.234202 11.233773 30.420961 -0.611675 1.192565 0.058908 -0.016896 -345912.000000 0 0 1
-22.509734 15.012302 10.947073 29.187252 -0.588181 1.186331 0.050721 -0.014370 -136970.000000 0 0 1
-23.069434 14.426202 9.809973 28.923168 -0.558843 1.224758 0.047246 -0.016850 -93980.700000 0 0 1
-22.365734 13.141402 9.221973 27.531205 -0.531229 1.229229 0.074921 -0.019214 -452524.000000 0 0 1
-22.431434 11.986402 10.077173 27.356762 -0.490754 1.193551 0.073175 -0.022486 846778.000000 0 0 1
-23.685834 11.279402 10.072273 28.101500 -0.444434 1.204216 0.086294 -0.015211 528229.000000 0 0 1
-24.073934 10.566002 8.788573 27.720636 -0.413583 1.248189 0.089781 -0.012778 -406856.000000 0 0 1
-24.324534 11.355202 7.632773 27.908471 -0.436754 1.293774 0.080874 -0.008848 -605018.000000 0 0 1
-25.664284 11.214202 7.287173 28.939880 -0.411955 1.316253 0.111246 -0.013081 -626101.000000 0 0 1
-26.303614 12.510402 6.620573 29.870089 -0.443950 1.347295 0.095886 0.001173 1318.080000 0 0 1
-25.637654 12.939302 5.422773 29.225353 -0.467400 1.384164 0.088458 -0.008320 134674.000000 0 0 1
-24.383234 13.536402 5.620973 28.449457 -0.506790 1.371910 0.080230 -0.010872 -664849.000000 0 0 1
-24.348134 15.022902 6.139273 29.261064 -0.552829 1.359415 0.065106 -0.014660 824205.000000 0 0 1
-22.991434 15.545302 6.327673 28.465802 -0.594529 1.346633 0.050237 -0.012780 1698060.000000 0 0 1
-22.960534 16.892802 6.782073 29.301013 -0.634307 1.337216 0.043434 -0.013803 -195007.000000 0 0 1
-21.584334 17.559602 6.630573 28.603978 -0.682939 1.336863 0.048124 -0.015117 -178491.000000 0 0 1
-21.094734 17.778402 5.353173 28.101883 -0.700293 1.379133 0.047169 -0.021563 736849.000000 0 0 1
-19.728034 18.210002 5.316073 27.368962 -0.745406 1.375316 0.058700 -0.022633 468437.000000 0 0 1
-19.290934 18.831202 3.985073 27.251332 -0.773339 1.424036 0.064770 -0.025348 -381818.000000 0 0 1
-17.888134 18.978602 3.970173 26.380578 -0.814968 1.419726 0.060963 -0.032637 273296.000000 0 0 1
-17.424134 19.985002 3.041073 26.687991 -0.853747 1.456599 0.069043 -0.028506 -59548.600000 0 0 1
-17.485634 21.426202 3.617273 27.891113 -0.886323 1.440737 0.063212 -0.037551 147059.000000 0 0 1
-16.504734 21.810902 4.598473 27.735674 -0.923009 1.404231 0.061301 -0.033749 374526.000000 0 0 1
-16.631634 23.169702 4.930273 28.943979 -0.948212 1.399623 0.047103 -0.041235 -266695.000000 0 0 1
-15.954034 23.644402 6.225473 29.194955 -0.977219 1.355908 0.047950 -0.020827 109001.000000 0 0 1
-16.631934 23.301502 7.448973 29.581555 -0.950888 1.316245 0.045737 -0.016051 440691.000000 0 0 1
-15.735034 23.352402 8.535273 29.424086 -0.977866 1.276488 0.035641 -0.017978 181579.000000 0 0 1
-16.336534 22.593102 9.759273 29.539363 -0.944750 1.234088 0.019471 -0.013973 -126800.000000 0 0 1
-17.410434 23.285802 10.316473 30.850954 -0.928779 1.229831 0.023570 -0.011770 -554625.000000 0 0 1
-18.304034 22.413902 10.961773 30.944807 -0.885993 1.208699 0.031093 -0.016110 154227.000000 0 0 1
-19.567034 23.109802 11.566273 32.414663 -0.868222 1.205932 0.045255 -0.017602 -154757.000000 0 0 1
-20.479834 23.628202 10.680173 33.042118 -0.856656 1.241657 0.062168 -0.014630 -365142.000000 0 0 1
-20.072834 24.913902 10.232673 33.590605 -0.892597 1.261247 0.034411 -0.017100 -594398.000000 0 0 1
-21.201434 25.825802 9.745573 34.805876 -0.883417 1.287004 0.054386 -0.018618 -452540.000000 0 0 1
-22.007234 26.336502 10.744673 35.963560 -0.874712 1.267397 0.075006 -0.026738 -542712.000000 0 0 1
-23.013534 27.145602 10.194373 37.019342 -0.867592 1.291812 0.071612 -0.020464 -282922.000000 0 0 1
-23.702434 27.815702 11.426773 38.289551 -0.865070 1.267748 0.069298 -0.027267 -253402.000000 0 0 1
-22.859634 28.691002 12.131773 38.638275 -0.898039 1.251411 0.087287 -0.021822 96806.000000 0 0 1
-23.629734 29.321202 13.102773 39.872043 -0.892473 1.235954 0.080568 -0.022351 -370708.000000 0 0 1
9.509866 -33.248915 28.223093 44.637102 -1.292214 0.886305 0.043384 -0.023342 -245564.000000 0 0 1
10.857466 -32.908015 27.978883 44.538073 -1.252108 0.891557 0.021233 -0.035348 251677.000000 0 0 1
10.994666 -32.462115 26.637333 43.407593 -1.244231 0.910114 0.040315 -0.031354 -941551.000000 0 0 1
12.352266 -32.610215 26.005893 43.500702 -1.208711 0.930009 0.000944 -0.017981 -968458.000000 0 0 1
12.747866 -33.948715 25.903923 44.564970 -1.211584 0.950518 0.014024 -0.029390 -126505.000000 0 0 1
14.125466 -34.105315 25.684113 44.970824 -1.178133 0.962917 0.037709 -0.022424 -66910.200000 0 0 1
14.703666 32.865302 25.257913 43.980541 1.150113 0.959051 0.052705 -0.010880 170631.000000 0 0 1
14.597366 32.543802 23.900753 42.935162 1.149153 0.980423 0.026114 -0.023181 812881.000000 0 0 1
15.697266 31.677402 23.583183 42.497393 1.110727 0.982515 0.025812 -0.014337 343892.000000 0 0 1
15.506666 31.110202 22.152473 41.219333 1.108395 1.003411 0.025742 -0.029539 217223.000000 0 0 1
14.397166 30.225202 22.003373 40.062322 1.126263 0.989355 0.023196 -0.014635 -4636.140000 0 0 1
14.682166 28.881102 22.287373 39.324433 1.100478 0.968233 0.026955 -0.011807 -203738.000000 0 0 1
14.320466 28.367702 23.731613 39.660959 1.103303 0.929341 0.028611 -0.015840 148112.000000 0 0 1
15.221066 28.792702 24.749403 40.905176 1.084498 0.920976 0.036043 -0.012834 461804.000000 0 0 1
14.703266 28.321602 25.984463 41.152053 1.091943 0.887406 0.024991 -0.010795 -688009.000000 0 0 1
15.507666 28.698902 27.188623 42.465702 1.075386 0.875974 0.035917 -0.014584 -434643.000000 0 0 1
15.527466 30.059302 27.480283 43.587037 1.093988 0.888639 0.041406 -0.019961 174975.000000 0 0 1
16.067166 30.387202 28.758403 44.817202 1.084416 0.874107 0.071282 -0.028691 -108287.000000 0 0 1
16.022966 31.913002 29.200093 46.128305 1.105484 0.885350 0.087436 -0.033226 169215.000000 0 0 1
16.784466 32.867602 28.478083 46.615434 1.098650 0.913580 0.078469 -0.027846 247789.000000 0 0 1
16.330666 34.157902 28.902683 47.632111 1.124827 0.918781 0.070171 -0.015415 69713.700000 0 0 1
17.211966 -33.144715 28.282123 46.847651 -1.091830 0.922657 0.057884 -0.019955 -650050.000000 0 0 1
17.258866 -33.198015 26.849723 46.053059 -1.091374 0.948359 0.066544 -0.018422 -137740.000000 0 0 1
17.557466 -32.017215 26.172053 44.925973 -1.069201 0.948922 0.068792 -0.022892 65625.100000 0 0 1
19.031866 -31.544915 26.038823 45.114453 -1.027935 0.955534 0.092136 -0.018410 327020.000000 0 0 1
19.644366 -31.129915 27.255083 45.801881 -1.007862 0.933450 0.072611 -0.022475 957893.000000 0 0 1
20.784666 -30.242215 27.073543 45.602310 -0.968663 0.935162 0.088957 -0.021085 890713.000000 0 0 1
20.979866 -29.380515 28.341153 45.897608 -0.950687 0.905253 0.088923 -0.022161 -256307.000000 0 0 1
19.831866 -28.639115 28.641283 45.097948 -0.965139 0.882671 0.097561 -0.024806 -64824.800000 0 0 1
20.133566 -27.903715 29.778653 45.505450 -0.945762 0.857411 0.111590 -0.020776 588728.000000 0 0 1
18.842766 -27.335015 30.475023 45.066394 -0.967269 0.828170 0.099990 -0.024630 290017.000000 0 0 1
18.144766 -26.577315 29.537583 43.681289 -0.971765 0.828195 0.111981 -0.019936 -22982.600000 0 0 1
16.901466 -26.129215 30.057663 43.264980 -0.996645 0.802746 0.098699 -0.019830 -86874.900000 0 0 1
16.014766 -25.500815 28.992823 41.801293 -1.010035 0.804340 0.077782 -0.014881 -598971.000000 0 0 1
15.293966 -26.425915 28.191753 41.557302 -1.046149 0.825237 0.075220 -0.016641 643756.000000 0 0 1
14.528866 -25.783215 27.129503 40.148126 -1.057647 0.828835 0.073138 -0.032978 235794.000000 0 0 1
13.046566 -25.439215 27.422593 39.615214 -1.096920 0.806230 0.029540 -0.015968 32627.800000 0 0 1
12.109366 -26.479515 27.547273 40.083085 -1.141879 0.813094 0.020716 -0.012857 112279.000000 0 0 1
11.771766 -27.122715 26.303983 39.574179 -1.161312 0.843737 0.017054 -0.011051 -343160.000000 0 0 1
10.763366 -28.334115 26.500143 40.260771 -1.207760 0.852354 0.037647 -0.015675 1305750.000000 0 0 1
9.414766 -27.984615 26.895713 39.939402 -1.246265 0.831980 0.021722 -0.026489 636416.000000 0 0 1
8.789566 -29.228115 27.121093 40.830048 -1.278676 0.844315 0.016375 -0.032756 -98129.800000 0 0 1
7.260866 -29.073515 27.351183 40.571870 -1.326061 0.830995 0.015892 -0.018396 -372260.000000 0 0 1
6.374066 -28.758515 26.285953 39.479517 -1.352681 0.842214 0.037869 -0.028677 71141.100000 0 0 1
6.574766 -27.633015 25.479643 38.157873 -1.337208 0.839624 0.047448 -0.027758 -721471.000000 0 0 1
5.502666 -27.335915 24.399223 37.052040 -1.372153 0.851956 0.071310 -0.029786 -954069.000000 0 0 1
5.374266 -28.257015 23.327823 37.034159 -1.382849 0.889372 0.054111 -0.020653 179437.000000 0 0 1
4.431666 -29.328015 23.419763 37.792293 -1.420824 0.902440 0.063839 -0.018463 692977.000000 0 0 1
2.968366 -28.882315 23.756693 37.515061 -1.468381 0.885041 0.057776 -0.022240 -630824.000000 0 0 1
2.273166 -28.348515 22.619873 36.338193 -1.490781 0.898886 0.060539 -0.020712 1113360.000000 0 0 1
0.954866 -27.829515 22.903973 36.055314 -1.536498 0.882470 0.058704 -0.012036 1054970.000000 0 0 1
0.896166 -26.454815 23.505493 35.400121 -1.536934 0.844648 0.068818 -0.013838 -277661.000000 0 0 1
1.412066 -26.434115 24.821443 36.288571 -1.517429 0.817562 0.068254 -0.015524 -11755.200000 0 0 1
1.444466 -25.101715 25.318833 35.682291 -1.513315 0.781919 0.078343 -0.013323 -730007.000000 0 0 1
2.669266 -24.678315 26.091673 36.012770 -1.463053 0.760471 0.076441 -0.007083 -646001.000000 0 0 1
3.862966 -24.599315 25.303663 35.501044 -1.415033 0.777373 0.085691 -0.014052 402608.000000 0 0 1
4.932266 -23.936715 25.947783 35.645210 -1.367586 0.755475 0.074679 -0.012124 202278.000000 0 0 1
4.730966 -22.416415 26.305793 34.883699 -1.362799 0.716514 0.094355 -0.009843 -774754.000000 0 0 1
4.727466 -21.639215 25.154283 33.516302 -1.355708 0.721965 0.098723 -0.018720 61436.700000 0 0 1
4.095466 -20.398515 25.333143 32.781708 -1.372658 0.687582 0.100446 -0.020983 -124472.000000 0 0 1
4.175766 -19.431315 24.125873 31.258131 -1.359117 0.689087 0.105360 -0.028162 84377.600000 0 0 1
5.446166 -18.875815 23.867493 30.913012 -1.289899 0.688680 0.095958 -0.020397 -72980.300000 0 0 1
5.382866 -18.158815 22.648473 29.524077 -1.282615 0.696459 0.090728 -0.024396 1198310.000000 0 0 1
6.797266 -17.530615 22.360973 29.215379 -1.200906 0.699159 0.072324 -0.020632 1466780.000000 0 0 1
7.900566 -18.373615 22.068173 29.782762 -1.164702 0.736281 0.060175 -0.021552 100518.000000 0 0 1
9.106466 -17.722915 21.771673 29.513305 -1.096150 0.741154 0.032013 -0.014161 -260819.000000 0 0 1
10.276166 -17.947915 22.700773 30.709157 -1.050802 0.738887 0.026761 -0.008761 -482388.000000 0 0 1
10.192666 -17.128615 23.832063 31.068426 -1.034012 0.696514 0.046875 -0.005638 -530178.000000 0 0 1
11.279766 -17.337215 24.654483 32.181605 -0.993992 0.698038 0.044922 -0.000277 -635657.000000 0 0 1
11.019066 -16.456915 25.929023 32.627658 -0.980786 0.652292 0.052210 -0.014949 -71473.000000 0 0 1
11.232366 -15.096615 25.784363 31.920326 -0.931126 0.630433 0.070378 -0.020852 48800.400000 0 0 1
11.063366 -14.367715 27.022983 32.543370 -0.914608 0.591028 0.063864 -0.023062 -107808.000000 0 0 1
11.195166 -12.872815 26.788683 31.759638 -0.854990 0.567063 0.078338 -0.012394 -301887.000000 0 0 1
10.127666 -12.268215 26.133313 30.594587 -0.880686 0.546823 0.082008 -0.006478 -339327.000000 0 0 1
10.445066 -10.894115 26.082143 30.134023 -0.806438 0.524573 0.084571 0.000329 -371568.000000 0 0 1
9.526066 -10.045015 25.255563 28.800898 -0.811908 0.501418 0.075438 -0.000922 -899333.000000 0 0 1
8.291466 -9.801915 25.842303 28.855685 -0.868686 0.461084 0.048906 -0.000824 -810880.000000 0 0 1
7.308766 -9.447015 24.900343 27.616865 -0.912325 0.447260 0.045100 0.009781 -581557.000000 0 0 1
5.902266 -9.568515 25.438303 27.811876 -1.018085 0.416140 0.029928 0.007804 -1557660.000000 0 0 1
5.452966 -8.456115 26.231493 28.095052 -0.998047 0.366271 0.032238 0.009254 118955.000000 0 0 1
4.077566 -8.471615 26.554413 28.169694 -1.122203 0.340287 0.028470 0.003359 788996.000000 0 0 1
3.015966 -8.437815 25.414933 26.948313 -1.227514 0.338965 0.021587 0.006340 -384708.000000 0 0 1
2.966466 -7.114115 24.813633 25.983205 -1.175736 0.301179 0.029078 0.003604 -384861.000000 0 0 1
1.863766 -7.004615 23.955043 25.027631 -1.310745 0.293823 0.051957 -0.011928 126570.000000 0 0 1
1.748366 -5.563315 23.293473 24.012354 -1.266302 0.245310 0.042007 -0.015302 15400.700000 0 1 0
1.197566 -4.555115 24.125283 24.580734 -1.313708 0.192802 0.039371 -0.009653 41537.600000 0 1 0
1.555566 -3.252515 23.626283 23.899788 -1.124687 0.151431 0.041676 -0.009451 -858846.000000 0 1 0
0.842766 -2.795515 22.324073 22.514204 -1.277991 0.130053 0.030260 -0.018479 892725.000000 0 1 0
-0.325334 -1.979515 22.540173 22.629266 1.407902 0.088766 0.031874 -0.025919 128399.000000 0 1 0
-1.451734 -2.598515 23.073673 23.264870 1.061315 0.128293 0.042806 -0.021475 -922328.000000 0 1 0
-2.420934 -1.573515 23.664933 23.840426 0.576349 0.121410 0.047107 -0.028287 -52034.700000 0 1 0
-1.770134 -0.853515 24.734413 24.812356 0.449287 0.079284 0.055644 -0.028637 953695.000000 0 1 0
-2.574534 0.174485 25.400593 25.531329 -0.067670 0.101242 0.048863 -0.025301 258524.000000 0 0 1
-1.717134 0.807485 26.558753 26.626451 -0.439567 0.071325 0.081897 -0.033676 297873.000000 0 0 1
-1.631134 0.130485 27.763293 27.811473 -0.079826 0.058871 0.092083 -0.029605 226403.000000 0 0 1
-0.702434 -0.965515 27.799223 27.824852 0.941837 0.042924 0.093899 -0.032587 35204.900000 0 0 1
0.552766 -0.688515 28.676543 28.690132 -0.894327 0.030780 0.078351 -0.032050 -59879.700000 0 0 1
1.510066 0.212485 28.126473 28.167781 0.139794 0.054164 0.072606 -0.028330 296532.000000 0 0 1
2.408466 -0.241515 27.132013 27.239771 -0.099944 0.088978 0.066266 -0.027430 457219.000000 0 0 1
3.526866 -1.233515 27.592903 27.844723 -0.336451 0.134591 0.063852 -0.028651 -130259.000000 0 0 1
2.909966 -2.486515 27.981863 28.242438 -0.707091 0.135946 0.062782 -0.021265 547113.000000 0 0 1
3.856866 -3.531115 28.285623 28.764920 -0.741335 0.182806 0.047781 -0.005581 374315.000000 0 0 1
4.329866 -4.342815 27.029643 27.716590 -0.786891 0.223104 0.052122 -0.010184 -149366.000000 0 0 1
5.250666 -3.569315 26.327893 27.082604 -0.597028 0.236632 0.042602 -0.009759 -771957.000000 0 0 1
5.595966 -4.165715 25.095883 26.047482 -0.639916 0.271138 0.037738 0.000007 -744614.000000 0 0 1
6.904066 -3.511315 24.659453 25.847322 -0.470493 0.304347 0.037833 -0.002646 -950052.000000 0 0 1
8.001466 -3.705415 25.504443 26.985740 -0.433688 0.332871 0.038653 -0.002646 -205113.000000 0 0 1
8.733566 -4.913815 25.425013 27.328594 -0.512492 0.375445 0.043217 -0.001517 -52884.100000 0 0 1
9.602566 -5.141215 24.168343 26.509435 -0.491565 0.423422 0.043689 -0.001226 -897300.000000 0 0 1
8.828366 -5.426615 23.058673 25.280241 -0.551143 0.422364 0.042997 -0.001456 -283847.000000 0 0 1
9.644866 -5.420315 21.904173 24.539683 -0.512002 0.467712 0.059626 -0.001778 236832.000000 0 1 0
9.500266 -4.109815 21.161773 23.557722 -0.408290 0.454924 0.063414 -0.018441 1686530.000000 0 1 0
8.089166 -3.808315 20.941673 22.770409 -0.440009 0.403511 0.053775 -0.023015 1126360.000000 0 1 0
8.022766 -2.647515 20.168473 21.866445 -0.318748 0.396682 0.039748 -0.027284 -375464.000000 0 1 0
6.608066 -2.104515 20.028273 21.194981 -0.308321 0.333344 0.044040 -0.023395 -35561.000000 0 1 0
6.002866 -1.677515 21.276973 22.171108 -0.272501 0.284966 0.048719 -0.020427 980599.000000 0 1 0
4.778466 -0.929515 21.146773 21.699855 -0.192122 0.226260 0.036249 -0.016549 908943.000000 0 1 0
4.118466 -0.400515 22.456773 22.834816 -0.096944 0.182217 0.030875 -0.027777 568805.000000 0 1 0
2.840866 0.207485 22.238573 22.420252 0.072906 0.127392 0.030245 -0.026217 350339.000000 0 1 0
2.380166 0.630485 23.534793 23.663245 0.258944 0.104243 0.042222 -0.025020 567172.000000 0 1 0
0.921566 1.195485 23.438953 23.487507 0.914070 0.064311 0.047912 -0.031839 501595.000000 0 1 0
0.820266 2.523485 23.168173 23.319628 1.256516 0.114033 0.047345 -0.022701 -641697.000000 0 1 0
-0.539434 2.791485 23.220073 23.393485 -1.379907 0.121836 0.031309 -0.017274 -744543.000000 0 1 0
-0.951834 4.172485 22.622473 23.023724 -1.346513 0.186968 0.034941 -0.018040 -349069.000000 0 1 0
-0.649234 5.295485 23.381103 23.982069 -1.448804 0.224341 0.048687 -0.018988 11868.500000 0 1 0
-1.438534 6.437485 22.993373 23.920823 -1.350946 0.279374 0.048619 -0.023590 37711.000000 0 1 0
-1.202834 7.790485 23.697713 24.974388 -1.417608 0.321126 0.056106 -0.019403 -12426.300000 0 1 0
-0.098634 8.601485 23.355833 24.889560 -1.559330 0.352887 0.049897 -0.014762 -89218.700000 0 1 0
-0.123134 9.793485 24.020853 25.940872 -1.558224 0.387161 0.074005 -0.017382 -644294.000000 0 0 1
0.864866 10.801485 23.446423 25.829340 1.490898 0.432922 0.090277 -0.022527 49813.200000 0 0 1
2.241766 10.630485 23.680533 26.053797 1.362961 0.430136 0.077528 -0.019367 -654020.000000 0 0 1
2.691866 10.953485 25.001333 27.427935 1.329818 0.423812 0.095160 -0.023191 260430.000000 0 0 1
4.026866 11.825485 24.965883 27.916895 1.242588 0.463948 0.081354 -0.021518 1904960.000000 0 0 1
5.224366 11.262485 24.383443 27.362197 1.136465 0.470953 0.055661 -0.019347 751165.000000 0 0 1
5.070666 10.798485 23.029973 25.936433 1.131786 0.477951 0.062762 -0.021042 -1122420.000000 0 0 1
6.371066 10.178485 22.425873 25.438392 1.011525 0.491606 0.050288 -0.024258 608962.000000 0 0 1
7.269866 11.186485 21.941873 25.679450 0.994506 0.546300 0.043271 -0.026489 125999.000000 0 0 1
8.327566 10.530485 21.261873 25.145709 0.901687 0.563208 0.044409 -0.031546 93219.100000 0 0 1
9.311866 11.528485 20.611373 25.385931 0.891362 0.623361 0.028520 -0.039678 -301885.000000 0 0 1
8.666266 12.266485 19.580773 24.677469 0.955722 0.654311 0.034670 -0.035029 606725.000000 0 1 0
9.460866 13.369485 19.115973 25.172833 0.954957 0.708423 0.053761 -0.032069 183203.000000 0 0 1
10.820066 13.145485 18.424173 25.086405 0.882127 0.745972 0.031182 -0.035976 39524.100000 0 0 1
11.876466 12.923485 19.356173 26.129071 0.827592 0.736550 0.039700 -0.041984 70221.800000 0 0 1
13.064066 12.638485 18.644973 26.039127 0.768842 0.772688 0.038913 -0.042317 643408.000000 0 0 1
14.382466 12.366485 19.438273 27.159376 0.710174 0.773154 0.045050 -0.035590 620717.000000 0 0 1
14.833666 13.498485 20.199073 28.464878 0.738307 0.781846 0.041906 -0.034534 -78281.500000 0 0 1
16.021766 13.122485 20.863873 29.397241 0.686244 0.781693 0.039068 -0.025283 243086.000000 0 0 1
16.815966 14.395485 21.332273 30.742032 0.708002 0.803888 0.037708 -0.012700 170501.000000 0 0 1
16.189466 15.082485 22.413573 31.495212 0.750014 0.778952 0.035915 -0.013910 -315638.000000 0 0 1
17.071866 15.988485 22.889973 32.726612 0.752640 0.796197 0.024493 -0.005865 -871925.000000 0 0 1
-21.145934 12.954202 -24.312227 34.728177 -0.549640 2.346295 0.027593 0.000741 -53437.800000 0 0 1
-21.185234 12.754202 -25.735957 35.690661 -0.541913 2.376162 0.027410 -0.014757 -263800.000000 0 0 1
-21.942134 13.663602 -26.454007 36.986021 -0.556951 2.367769 0.020260 -0.016601 -438294.000000 0 0 1
-21.696334 13.517202 -27.955007 37.880444 -0.557173 2.400868 0.011925 -0.000784 -89670.800000 0 0 1
-20.360334 13.787602 -28.320937 37.506221 -0.595245 2.426603 0.030947 -0.005490 -165808.000000 0 0 1
-20.324034 13.948702 -29.677797 38.579843 -0.601483 2.448473 0.026288 0.001742 240401.000000 0 0 1
-18.921234 14.371102 -30.180907 38.411311 -0.649568 2.474671 0.024532 -0.009916 79311.800000 0 0 1
-17.958034 13.347102 -30.299477 37.665560 -0.639160 2.505519 0.023725 -0.021475 -395295.000000 0 0 1
-16.665434 13.882102 -30.294097 37.258311 -0.694534 2.520225 0.046398 -0.006582 128045.000000 0 0 1
-15.753434 13.620402 -29.011087 35.711752 -0.712909 2.518998 0.081079 -0.011463 249761.000000 0 0 1
-16.180434 14.233102 -27.806447 35.179342 -0.721457 2.482290 0.083901 -0.015032 -69356.800000 0 0 1
-17.168434 13.421302 -27.207337 34.858653 -0.663509 2.466269 0.068821 -0.007517 -118766.000000 0 0 1
-17.768034 14.057502 -25.945497 34.445395 -0.669332 2.423764 0.064893 -0.007548 229385.000000 0 0 1
-16.761934 14.201702 -24.956827 33.248970 -0.702901 2.419773 0.126546 -0.026138 424091.000000 0 0 1
-17.433434 14.588102 -23.835527 32.937360 -0.696774 2.379891 0.101521 -0.029083 -150180.000000 0 0 1
-16.471934 15.195502 -22.800427 31.970101 -0.745113 2.364820 0.105948 -0.023896 91977.500000 0 0 1
-16.014334 16.474402 -23.287727 32.713652 -0.799558 2.362947 0.099050 -0.028052 -157127.000000 0 0 1
-15.216634 17.092502 -22.321227 31.967745 -0.843393 2.343735 0.095250 -0.022086 -556651.000000 0 0 1
-14.954534 18.565302 -22.579427 32.835028 -0.892705 2.329061 0.087005 -0.019482 -86699.200000 0 0 1
-16.042734 19.437902 -22.489127 33.778132 -0.880798 2.299348 0.074101 -0.019741 495915.000000 0 0 1
-17.086334 19.349302 -23.479027 34.894169 -0.847427 2.308870 0.057483 -0.014671 732044.000000 0 0 1
-18.347434 20.237202 -23.234127 35.860805 -0.834336 2.275617 0.037066 -0.018578 276978.000000 0 0 1
-18.164534 21.624702 -23.425427 36.692351 -0.872142 2.263251 0.029629 -0.017413 541272.000000 0 0 1
-19.386334 22.369302 -23.315427 37.680562 -0.856716 2.237966 0.043653 -0.030750 416817.000000 0 0 1
-19.136934 23.808802 -23.755427 38.696274 -0.893757 2.231781 0.032021 -0.033344 -103164.000000 0 0 1
-18.638434 24.521902 -22.662227 38.239919 -0.920880 2.205120 0.029034 -0.026572 -302708.000000 0 0 1
-17.826034 25.566702 -23.114627 38.803475 -0.961928 2.208914 0.025576 -0.012742 134596.000000 0 0 1
-16.498134 25.688302 -22.275227 37.792367 -0.999893 2.201126 0.027251 -0.022802 719333.000000 0 0 1
-15.457934 24.726102 -22.408827 36.776125 -1.012077 2.226013 0.037865 -0.033287 132380.000000 0 0 1
-15.767434 23.424602 -21.893827 35.730430 -0.978343 2.230332 0.049532 -0.016057 -771065.000000 0 0 1
-14.631634 22.396802 -21.633227 34.404912 -0.992111 2.250784 0.073596 -0.016520 56251.100000 0 0 1
-13.824734 22.746702 -20.532727 33.617385 -1.024684 2.227838 0.080780 -0.024112 -250472.000000 0 0 1
-12.845734 21.778702 -20.271227 32.407520 -1.037888 2.246581 0.071542 -0.023552 -347987.000000 0 0 1
-12.034434 22.101402 -18.991727 31.527532 -1.072178 2.217283 0.061637 -0.025001 -86678.400000 0 0 1
-12.695434 22.053402 -17.709027 31.002197 -1.048460 2.178786 0.069140 -0.018820 7892.050000 0 0 1
-13.702434 23.015002 -17.525127 32.009016 -1.033788 2.150177 0.067305 -0.027792 -208145.000000 0 0 1
-14.394134 22.928802 -16.128127 31.512498 -1.010204 2.108076 0.077033 -0.027052 -240021.000000 0 0 1
-13.677034 23.521702 -15.085327 31.111072 -1.044117 2.077029 0.082909 -0.052056 -302912.000000 0 0 1
-14.307034 23.511002 -13.830627 30.801699 -1.024132 2.036466 0.093653 -0.045123 -103136.000000 0 0 1
-13.314434 23.763802 -12.656527 30.036313 -1.060093 2.005756 0.129313 -0.044925 -31933.900000 0 0 1
-12.938234 25.125102 -12.491227 30.898210 -1.095258 1.986977 0.116167 -0.049836 336765.000000 0 0 1
-12.002834 25.326902 -11.440827 30.272306 -1.128232 1.958356 0.093191 -0.041525 -99604.500000 0 0 1
-11.548534 26.818102 -11.494427 31.379947 -1.164171 1.945824 0.112654 -0.042165 -93528.000000 0 0 1
-10.822634 27.054202 -12.688027 31.781209 -1.190260 1.981474 0.104574 -0.043145 52549.300000 0 0 1
-10.682034 28.376702 -13.056727 33.012440 -1.210767 1.977419 0.092384 -0.024310 -587598.000000 0 0 1
-9.929634 28.652602 -14.380927 33.561589 -1.237196 2.013621 0.125272 -0.049010 1073850.000000 0 0 1
-8.505834 28.534402 -14.175727 32.977455 -1.281092 2.015135 0.090857 -0.044217 755609.000000 0 0 1
-7.957834 27.254202 -14.407727 31.838675 -1.286708 2.040389 0.092773 -0.047891 768950.000000 0 0 1
-6.529834 27.282502 -15.108927 31.863040 -1.335874 2.064833 0.103506 -0.045309 1385450.000000 0 0 1
-5.557734 27.938802 -14.309627 31.878370 -1.374434 2.036310 0.092297 -0.045746 -696471.000000 0 0 1
-4.362134 28.010102 -15.041427 32.091098 -1.416303 2.058627 0.100577 -0.046726 62035.900000 0 0 1
-3.320734 28.981602 -14.386127 32.525700 -1.456713 2.028958 0.071202 -0.037469 179363.000000 0 0 1
-3.509834 30.407902 -14.589027 33.908688 -1.455880 2.015560 0.052825 -0.026501 234817.000000 0 0 1
-4.438034 30.995102 -13.657727 34.160298 -1.428578 1.982109 0.048095 -0.020353 304215.000000 0 0 1
-4.658734 32.505402 -13.708127 35.583953 -1.428444 1.966257 0.039807 -0.028536 94413.600000 0 0 1
-3.537534 33.294902 -13.318127 36.033833 -1.464945 1.949376 0.022362 -0.025918 221743.000000 0 0 1
-3.733134 -33.746815 -13.803027 36.651158 1.460622 1.956926 0.019436 -0.024795 410486.000000 0 0 1
-2.870334 -32.716315 -13.022627 35.329661 1.483286 1.948302 0.024782 -0.021881 105746.000000 0 0 1
-3.183334 -32.689915 -11.667927 34.855483 1.473723 1.912138 0.030135 -0.020119 -458949.000000 0 0 1
-2.530234 -31.761415 -10.926527 33.683506 1.491300 1.901161 0.012498 -0.018452 -572501.000000 0 0 1
-2.777834 -31.962215 -9.406827 33.433336 1.484104 1.856008 0.011657 -0.024720 -553797.000000 0 0 1
-1.993234 -31.125315 -8.670027 32.371710 1.506845 1.841934 0.022292 -0.021384 -488734.000000 0 0 1
-2.030434 -31.505715 -7.294027 32.402710 1.506439 1.797848 0.011276 -0.030283 476268.000000 0 0 1
-0.997834 -30.755615 -6.345127 31.419169 1.538364 1.774146 0.025540 -0.026685 730899.000000 0 0 1
-1.215134 -30.928915 -4.931627 31.343186 1.531529 1.728796 0.028855 -0.024908 524852.000000 0 0 1
-0.160934 -30.210815 -4.252927 30.509124 1.565469 1.710650 0.027033 -0.023373 608881.000000 0 0 1
-0.136334 -30.322315 -2.696627 30.442293 1.566300 1.659494 0.033749 -0.016230 -260849.000000 0 0 1
-0.006634 -31.564815 -2.094227 31.634212 1.570586 1.637046 0.037709 -0.017705 541945.000000 0 0 1
1.093666 -32.410915 -2.483427 32.524313 -1.537065 1.647227 0.033614 -0.019698 1635580.000000 0 0 1
2.568666 -32.062715 -2.030627 32.229477 -1.490853 1.633843 0.045429 -0.021556 486452.000000 0 0 1
2.657666 -32.164215 -0.614127 32.279670 -1.488356 1.589823 0.041605 -0.014171 115435.000000 0 0 1
3.986566 -31.999515 -0.162427 32.247296 -1.446853 1.575833 0.046641 -0.007540 176705.000000 0 0 1
4.478866 -30.569215 0.076073 30.895679 -1.425316 1.568334 0.033146 -0.012546 -514538.000000 0 0 1
4.654466 -29.889615 -1.135627 30.271155 -1.416315 1.608320 0.044419 -0.022905 76136.600000 0 0 1
4.233466 -28.558815 -0.942527 28.886269 -1.423631 1.603431 0.054137 -0.017995 -282278.000000 0 0 1
3.848266 -27.742415 -2.136327 28.089405 -1.432962 1.646924 0.055883 -0.020054 521965.000000 0 0 1
2.587566 -28.122215 -2.746027 28.374199 -1.479043 1.667727 0.041984 -0.018359 912622.000000 0 0 1
2.203266 -27.182815 -3.726227 27.525345 -1.489919 1.706588 0.042157 -0.022038 -146179.000000 0 0 1
2.847466 -27.276015 -5.127227 27.899418 -1.466779 1.755622 0.040824 -0.021411 -171698.000000 0 0 1
2.346466 -28.338215 -5.879927 29.036768 -1.488183 1.774706 0.037831 -0.020339 63550.400000 0 0 1
2.851866 -28.137715 -7.183827 29.179985 -1.469787 1.819544 0.049036 -0.030454 -188934.000000 0 0 1
1.941066 -28.762815 -8.226627 29.979071 -1.503413 1.848775 0.036849 -0.025555 18891.500000 0 0 1
0.679966 -28.135415 -8.401727 29.370955 -1.546633 1.860904 0.033648 -0.019966 -83543.600000 0 0 1
0.424266 -27.941315 -9.744027 29.594648 -1.555613 1.906305 0.040176 -0.021085 -678176.000000 0 0 1
-0.909134 -27.277815 -10.026827 29.076503 1.537480 1.922868 0.028098 -0.025010 -1109420.000000 0 0 1
-1.063034 -25.988215 -9.449527 27.673289 1.529915 1.919274 0.035409 -0.012750 67752.900000 0 0 1
-2.421134 -25.639015 -9.249127 27.363614 1.476644 1.915596 0.047328 -0.027227 607615.000000 0 0 1
-3.263834 -26.425815 -8.189827 27.857667 1.447909 1.869193 0.044360 -0.021460 -454205.000000 0 0 1
-2.959834 -26.266015 -6.855927 27.306921 1.458583 1.824581 0.047291 -0.022519 484612.000000 0 0 1
-1.802734 -27.041615 -6.440127 27.856311 1.504230 1.804098 0.035037 -0.023333 979723.000000 0 0 1
-1.360234 -26.728415 -5.021127 27.229949 1.519949 1.756255 0.044010 -0.023076 -256873.000000 0 0 1
-2.378134 -27.037815 -4.123127 27.453582 1.483066 1.721552 0.042744 -0.026325 -222175.000000 0 0 1
-2.031934 -26.494115 -2.882827 26.727843 1.494252 1.678865 0.042412 -0.026564 -346075.000000 0 0 1
-3.073034 -26.734915 -1.772227 26.969242 1.456354 1.636557 0.027887 -0.023669 261282.000000 0 0 1
-4.251234 -25.976015 -2.027127 26.399538 1.408575 1.647658 0.035414 -0.020253 -662341.000000 0 0 1
-5.106834 -26.029715 -0.969527 26.543659 1.377065 1.607330 0.042764 -0.027005 -911392.000000 0 0 1
-6.220234 -24.978615 -1.053927 25.763022 1.326738 1.611716 0.049094 -0.028060 -339032.000000 0 0 1
-5.881534 -23.632015 -0.834727 24.367219 1.326872 1.605059 0.036942 -0.027442 -150471.000000 0 1 0
-6.574534 -23.094715 0.303073 24.014209 1.293456 1.558175 0.050174 -0.017822 6727.970000 0 1 0
-6.156934 -21.628115 0.615773 22.495830 1.293460 1.543420 0.031936 -0.017431 599600.000000 0 1 0
-4.876234 -21.743115 1.243573 22.317867 1.350181 1.515047 0.027345 -0.020820 377472.000000 0 1 0
-4.213934 -20.495115 1.340373 20.966726 1.368016 1.506824 0.009940 -0.013320 31185.600000 0 1 0
-3.227834 -20.372915 2.524373 20.780930 1.413665 1.449020 0.011787 -0.009053 -303023.000000 0 1 0
-3.856534 -20.369315 3.758173 21.069070 1.383681 1.391463 0.012061 0.000075 -268175.000000 0 1 0
-2.988734 -20.285215 4.875073 21.075788 1.424513 1.337371 0.021167 -0.002625 194411.000000 0 1 0
-2.100134 -21.507115 5.255073 22.239208 1.473457 1.332243 0.015489 -0.012918 1018880.000000 0 1 0
-1.138034 -21.808515 4.207073 22.239737 1.518661 1.380480 0.026349 -0.016575 188755.000000 0 1 0
-0.389034 -22.967915 4.530373 23.413687 1.553860 1.376076 0.027003 -0.017768 -717425.000000 0 1 0
0.547866 -23.397315 3.406273 23.650311 -1.547385 1.426267 0.032898 -0.024171 253263.000000 0 1 0
1.776366 -22.744415 3.193473 23.036106 -1.492853 1.431719 0.022786 -0.018203 9793.780000 0 1 0
2.755866 -22.884115 4.183073 23.425961 -1.450946 1.391268 0.039959 -0.023539 -636553.000000 0 1 0
3.868366 -21.824415 4.230673 22.564750 -1.395369 1.382190 0.047602 -0.025508 653922.000000 0 1 0
4.761266 -21.840815 3.074473 22.564203 -1.356156 1.434117 0.040687 -0.017768 -156063.000000 0 1 0
5.837666 -21.019615 3.401373 22.078766 -1.299899 1.416124 0.056679 -0.016907 10494.000000 0 1 0
6.706666 -20.528615 2.185473 21.706674 -1.255029 1.469943 0.065183 -0.014785 -288021.000000 0 1 0
7.473366 -21.584715 1.743273 22.908298 -1.237480 1.494625 0.067568 -0.013803 -724018.000000 0 1 0
7.234766 -21.938815 0.392473 23.104274 -1.252256 1.553808 0.067241 -0.011938 550165.000000 0 1 0
8.438066 -22.784515 -0.189227 24.297549 -1.216115 1.578584 0.060861 -0.007240 646095.000000 0 1 0
9.552066 -21.961915 -0.394227 23.952518 -1.160539 1.587256 0.058646 -0.007702 -733092.000000 0 1 0
10.501066 -22.535515 -1.254827 24.893703 -1.134734 1.621225 0.059027 -0.015553 154306.000000 0 1 0
11.673266 -21.653515 -1.740927 24.661117 -1.076365 1.641449 0.061382 -0.017641 -62034.300000 0 1 0
11.485166 -20.681415 -2.697827 23.809835 -1.063864 1.684347 0.061763 -0.007982 -457847.000000 0 1 0
12.740666 -20.564315 -3.299827 24.415251 -1.016124 1.706366 0.060666 -0.008817 -455448.000000 0 1 0
12.872866 -19.447715 -4.346127 23.723683 -0.986086 1.755035 0.058984 -0.017886 -70080.200000 0 1 0
12.854466 -18.238015 -3.711827 22.619464 -0.956845 1.735641 0.073255 -0.009369 87361.700000 0 1 0
13.076166 -17.155515 -4.584927 22.052650 -0.919524 1.780232 0.075598 -0.018317 -1062000.000000 0 1 0
13.531766 -15.896615 -3.853127 21.228699 -0.865585 1.753314 0.090236 -0.016825 1434370.000000 0 1 0
14.862566 -15.812515 -3.258127 21.944177 -0.816356 1.719821 0.078246 -0.014961 1174120.000000 0 1 0
15.883166 -15.933615 -4.184827 22.883790 -0.786984 1.754704 0.077737 -0.014720 -501121.000000 0 1 0
17.375766 -15.634615 -3.842927 23.688110 -0.732701 1.733747 0.070877 -0.011029 1073100.000000 0 1 0
18.076666 -16.623715 -3.056527 24.747851 -0.743551 1.694619 0.078346 -0.012952 -278959.000000 0 1 0
19.450066 -16.507115 -3.189227 25.709164 -0.703734 1.695167 0.046495 0.000389 -854311.000000 0 0 1
20.230166 -17.468915 -2.272927 26.825153 -0.712284 1.655629 0.060899 -0.012198 -492286.000000 0 0 1
21.606666 -17.259015 -2.320827 27.750818 -0.673998 1.654525 0.051734 -0.010693 -362779.000000 0 0 1
22.325366 -18.096815 -1.424027 28.774026 -0.681168 1.620307 0.044894 -0.004849 1237580.000000 0 0 1
23.885966 -17.850315 -1.403227 29.852005 -0.641780 1.617820 0.051731 -0.013378 936636.000000 0 0 1
24.306066 -16.575915 -0.976227 29.436353 -0.598520 1.603966 0.064147 -0.017665 628363.000000 0 0 1
25.723066 -16.655015 -0.773427 30.653937 -0.574597 1.596030 0.075543 -0.018061 723068.000000 0 0 1
26.345666 -15.336215 -0.344827 30.486268 -0.527165 1.582107 0.079632 -0.021182 -220201.000000 0 0 1
25.758766 -14.928515 0.854073 29.784292 -0.525248 1.542117 0.091337 -0.020466 -211079.000000 0 0 1
26.459666 -13.916715 1.495573 29.933688 -0.484199 1.520813 0.080708 -0.025271 -5202.600000 0 0 1
25.672766 -13.142415 2.626173 28.960504 -0.473138 1.479990 0.104846 -0.024433 63959.200000 0 0 1
25.160566 -14.007415 3.664973 29.029189 -0.507989 1.444207 0.100597 -0.018216 -359993.000000 0 0 1
26.054666 -14.611515 4.530873 30.213752 -0.511099 1.420268 0.091213 -0.016632 -604786.000000 0 0 1
25.428266 -15.075415 5.841573 30.132853 -0.535153 1.375700 0.081003 -0.009472 124223.000000 0 0 1
24.662366 -16.253215 5.700273 30.081430 -0.582696 1.380149 0.093677 -0.017638 -136763.000000 0 0 1
23.977766 -16.600815 6.874473 29.962956 -0.605568 1.339302 0.077862 -0.017212 -20996.700000 0 0 1
23.182566 -17.910315 6.710873 30.054061 -0.657794 1.345604 0.078132 -0.012148 -329996.000000 0 0 1
24.057666 -18.973315 6.489173 31.318802 -0.667788 1.362087 0.075979 -0.012887 -261672.000000 0 0 1
23.394866 -20.197415 6.546473 31.592905 -0.712180 1.362071 0.043743 -0.003522 -162668.000000 0 0 1
1.680066 23.253002 -3.411827 23.561945 1.498670 1.716110 0.006559 -0.005752 368194.000000 0 1 0
2.585066 24.259302 -2.959527 24.575498 1.464637 1.691515 0.011003 -0.005113 -115591.000000 0 1 0
3.411166 24.683602 -3.987727 25.235257 1.433470 1.729484 0.028542 -0.007927 269065.000000 0 0 1
4.458466 25.786002 -3.590327 26.413751 1.399586 1.707145 0.016131 0.002046 770769.000000 0 0 1
5.370066 25.453402 -2.545727 26.137980 1.362869 1.668347 0.006541 0.004284 265051.000000 0 0 1
6.284866 26.482902 -2.188427 27.306278 1.337789 1.651026 0.007147 -0.001959 -452822.000000 0 0 1
7.378566 25.961802 -1.298727 27.021197 1.293889 1.618878 -0.000712 -0.014267 -1170710.000000 0 0 1
8.480966 25.592402 -2.068827 27.040301 1.250799 1.647380 0.018836 -0.018251 -681530.000000 0 0 1
9.259266 24.619202 -1.344027 26.337151 1.211062 1.621850 0.024268 -0.008766 -374269.000000 0 0 1
10.386166 24.188102 -2.270227 26.421405 1.165212 1.656826 0.041947 -0.012453 -1402500.000000 0 0 1
11.327666 25.266202 -2.366027 27.790197 1.149330 1.656038 0.050577 -0.013025 -20386.700000 0 0 1
12.364566 25.188502 -3.314627 28.254732 1.114470 1.688379 0.070540 -0.018949 623434.000000 0 0 1
13.266366 23.890602 -3.284027 27.523484 1.063896 1.690399 0.069022 -0.020257 -882858.000000 0 0 1
12.647266 22.637202 -3.552527 26.172824 1.061303 1.706950 0.059707 -0.020048 -293442.000000 0 0 1
12.327266 22.419802 -4.942727 26.058387 1.068077 1.761631 0.080056 -0.029567 110927.000000 0 0 1
11.337666 21.253802 -5.233027 24.650585 1.080755 1.784712 0.071177 -0.023488 938859.000000 0 1 0
10.005066 21.514902 -4.770627 24.202298 1.135514 1.769210 0.047108 -0.023286 568894.000000 0 1 0
9.130766 20.432902 -5.085827 22.950817 1.150552 1.794248 0.022336 -0.009925 455700.000000 0 1 0
7.635466 20.771302 -4.840827 22.653497 1.218532 1.786147 0.015715 -0.007694 206620.000000 0 1 0
7.353166 21.162102 -3.497327 22.674543 1.236378 1.725655 0.004229 -0.007226 -1055400.000000 0 1 0
6.004366 21.446702 -3.507827 22.545915 1.297818 1.727017 0.011353 -0.002593 -927147.000000 0 1 0
5.655466 22.249802 -2.250127 23.067316 1.321887 1.668498 0.009426 -0.000186 20752.600000 0 1 0
5.514666 21.333902 -1.128327 22.063998 1.317840 1.621957 0.007802 -0.002246 -278875.000000 0 1 0
4.843866 22.028502 -0.127027 22.555134 1.354350 1.576428 0.018448 -0.000462 -90536.700000 0 1 0
4.298266 21.103602 0.981173 21.559216 1.369870 1.525270 0.007062 -0.002419 110421.000000 0 1 0
3.569666 21.797402 2.012073 22.179217 1.408472 1.479953 0.014417 -0.000033 290056.000000 0 1 0
3.204066 20.947402 3.031273 21.406735 1.419015 1.428715 0.017139 0.001046 -335488.000000 0 1 0
2.242266 21.461202 4.096573 21.963443 1.466694 1.383180 0.011073 -0.003216 24471.900000 0 1 0
0.971566 21.823302 3.578873 22.136142 1.526306 1.408408 0.007941 0.004969 -144992.000000 0 1 0
0.099466 22.268602 4.577773 22.734479 1.566330 1.368052 0.008045 -0.001036 -201625.000000 0 1 0
-1.263034 22.611102 3.972673 22.992157 -1.514995 1.397141 0.002641 0.005794 256124.000000 0 1 0
-2.294434 23.032302 4.893173 23.657863 -1.471506 1.362462 0.019969 -0.001598 -948711.000000 0 1 0
-3.483934 23.051902 4.224673 23.693371 -1.420797 1.391532 0.030404 -0.005498 -1893390.000000 0 1 0
-4.598334 23.229002 5.205373 24.245146 -1.375366 1.354414 0.039886 -0.018910 -1166790.000000 0 1 0
-4.834134 24.535202 5.594773 25.625114 -1.376260 1.350692 0.065414 -0.020036 330611.000000 0 0 1
-6.014334 24.521202 6.403773 26.047454 -1.330274 1.322400 0.077963 -0.027521 581644.000000 0 0 1
-6.495034 25.941602 6.811773 27.596239 -1.325468 1.321381 0.086630 -0.038578 472016.000000 0 0 1
-5.599234 26.609702 7.758573 28.277607 -1.363401 1.292860 0.065533 -0.037182 765863.000000 0 0 1
-6.166834 27.770402 8.424073 29.667997 -1.352277 1.282891 0.075596 -0.041701 222476.000000 0 0 1
-6.409834 29.080102 7.545473 30.719252 -1.353846 1.322630 0.086768 -0.042633 670404.000000 0 0 1
-7.721234 29.016102 6.985273 30.827676 -1.310721 1.342220 0.081015 -0.045533 -104198.000000 0 0 1
-7.887234 30.031402 6.023873 31.628793 -1.313964 1.379170 0.097572 -0.048095 -2548.060000 0 0 1
-9.375034 30.126102 5.597873 32.043867 -1.269103 1.395201 0.105453 -0.049732 548509.000000 0 0 1
-10.299334 30.650202 6.517873 32.984751 -1.246622 1.371885 0.088010 -0.041208 -225968.000000 0 0 1
-10.824134 29.727102 7.419073 32.494693 -1.221601 1.340448 0.064262 -0.036227 -678372.000000 0 0 1
-11.630034 30.370102 8.584773 33.634790 -1.205080 1.312706 0.040968 -0.034118 -570906.000000 0 0 1
-10.912634 30.868602 9.689973 34.144571 -1.230990 1.283049 0.053232 -0.034244 -631499.000000 0 0 1
-11.710634 31.213602 10.749573 35.028291 -1.211870 1.258880 0.045071 -0.029081 -1006330.000000 0 0 1
-10.891234 31.720402 11.907373 35.589161 -1.240057 1.229638 0.043280 -0.027666 -586850.000000 0 0 1
-10.327234 32.950802 11.577773 36.420487 -1.267079 1.247291 0.047377 -0.030397 -12007.100000 0 0 1
-9.345234 33.367702 12.488373 36.833359 -1.297724 1.224889 0.052028 -0.029869 -110375.000000 0 0 1
-9.117134 -33.464915 12.519873 36.875058 1.304813 1.224388 0.053496 -0.023566 140842.000000 0 0 1
-10.133334 -32.713415 13.158473 36.687837 1.270409 1.203964 0.056668 -0.021990 -30640.600000 0 0 1
-9.766634 -31.377215 13.181573 35.407211 1.269037 1.189327 0.061926 -0.018263 -4016.510000 0 0 1
-10.646334 -30.428515 14.026373 35.156480 1.234228 1.160403 0.071623 -0.017848 -193235.000000 0 0 1
-10.766434 -30.682315 15.425973 35.990015 1.233320 1.127834 0.074140 -0.026620 -612035.000000 0 0 1
-9.622534 -30.431415 16.152073 35.770849 1.264541 1.102303 0.081429 -0.026574 -490602.000000 0 0 1
-9.852234 -30.832915 17.664673 36.875138 1.261514 1.071235 0.084358 -0.030767 108995.000000 0 0 1
-10.472734 -29.821715 18.418773 36.582291 1.233072 1.043164 0.107271 -0.032270 103763.000000 0 0 1
-11.169834 -30.421815 19.495773 37.819799 1.218912 1.029216 0.089273 -0.030137 -109471.000000 0 0 1
-11.489034 -29.451815 20.623573 37.745716 1.198857 0.992758 0.104175 -0.038483 95749.300000 0 0 1
-10.482234 -29.291315 21.622973 37.886822 1.227135 0.963407 0.098343 -0.028599 201710.000000 0 0 1
-10.712434 -28.299615 22.566173 37.747273 1.208929 0.930014 0.078168 -0.021397 -431302.000000 0 0 1
-9.535434 -28.162415 23.515073 37.907846 1.244325 0.901643 0.085184 -0.023161 -292053.000000 0 0 1
-9.394434 -29.277515 24.404473 39.255656 1.260300 0.899910 0.089066 -0.020056 443992.000000 0 0 1
-8.108134 -29.395715 25.020273 39.444441 1.301661 0.883672 0.090749 -0.022908 432568.000000 0 0 1
-8.097134 -30.542515 26.103273 40.985237 1.311648 0.880333 0.092217 -0.027603 -64315.600000 0 0 1
-8.022134 -31.822215 25.454873 41.532620 1.323849 0.911085 0.107753 -0.026091 332706.000000 0 0 1
-8.124234 -32.872415 26.395373 42.933839 1.328507 0.908674 0.104403 -0.019515 -475131.000000 0 0 1
-7.906734 34.084202 25.870373 43.514657 -1.342852 0.934127 0.091599 -0.017092 159021.000000 0 0 1
-6.521434 33.755702 25.704273 42.926520 -1.379952 0.928798 0.080502 -0.017812 799947.000000 0 0 1
-6.281634 32.458602 25.145073 41.536663 -1.379632 0.920565 0.072786 -0.016312 -459889.000000 0 0 1
-6.904734 32.182302 23.816773 40.627756 -1.359450 0.944412 0.075017 -0.013658 -566645.000000 0 0 1
-8.157634 31.555302 23.979473 40.463553 -1.317816 0.936490 0.063963 -0.007467 -1720.630000 0 0 1
-8.682734 31.308902 22.687673 39.627865 -1.300270 0.961222 0.049501 0.002228 2907.670000 0 0 1
-9.754834 30.206802 22.609473 38.971732 -1.258433 0.951883 0.040334 -0.013238 -108337.000000 0 0 1
-9.198234 28.920102 22.641273 37.863003 -1.262857 0.929819 0.039598 -0.008881 -268223.000000 0 0 1
-10.070134 27.932402 23.092573 37.615071 -1.224782 0.909782 0.032819 -0.007126 -485017.000000 0 0 1
-9.533234 26.483702 22.885273 36.276779 -1.225271 0.888146 0.026265 -0.012088 -477992.000000 0 0 1
-8.336234 26.123802 23.491373 36.108038 -1.261906 0.862441 0.025191 -0.015234 -378266.000000 0 0 1
-8.079734 24.760302 23.162673 34.854900 -1.255373 0.843911 0.031795 -0.014696 852845.000000 0 0 1
-6.623234 24.273302 23.530373 34.449076 -1.304420 0.818869 0.033626 -0.007315 462389.000000 0 0 1
-5.638634 24.784802 22.726773 34.096727 -1.347100 0.841241 0.023778 -0.003489 -111961.000000 0 0 1
-4.337734 24.740802 23.325273 34.278150 -1.397233 0.822392 0.057974 0.001423 1540330.000000 0 0 1
-3.186034 25.446202 22.491573 34.110568 -1.446238 0.850812 0.044793 0.004035 679867.000000 0 0 1
-2.880734 24.820702 21.270073 32.814354 -1.455252 0.865586 0.049047 0.003881 -355573.000000 0 0 1
-1.851034 25.544002 20.675373 32.914942 -1.498458 0.891629 0.056315 0.002234 -315198.000000 0 0 1
-1.215034 24.811202 19.492073 31.575511 -1.521864 0.905470 0.045996 -0.008625 -354428.000000 0 0 1
-0.374234 23.751402 19.891173 30.982703 -1.555041 0.873681 0.055782 0.000721 -204184.000000 0 0 1
-0.123234 22.838802 18.866973 29.624124 -1.565401 0.880353 0.044581 -0.002855 -663528.000000 0 0 1
0.937766 21.811902 19.271973 29.121253 1.527829 0.847601 0.049515 0.003047 524272.000000 0 0 1
2.266266 22.326202 19.215173 29.543495 1.469636 0.862682 0.042163 -0.009647 -236407.000000 0 0 1
3.258266 21.381402 19.328573 29.006454 1.419572 0.841488 0.046026 -0.002681 323671.000000 0 0 1
4.726766 21.865902 19.114073 29.424611 1.357901 0.863745 0.039812 -0.007927 1126370.000000 0 0 1
5.610666 20.769002 18.736373 28.528629 1.306948 0.854286 0.050082 -0.009202 1379140.000000 0 0 1
6.977466 21.238702 18.735173 29.168033 1.253379 0.873277 0.070495 -0.014452 1306600.000000 0 0 1
8.090966 20.175602 18.470273 28.524895 1.189405 0.866478 0.062748 -0.007127 230287.000000 0 0 1
8.499966 19.369802 19.545073 28.800148 1.157274 0.824880 0.070500 -0.007534 -465506.000000 0 0 1
9.606966 18.608102 19.152573 28.379152 1.094211 0.829992 0.055504 -0.013666 -277806.000000 0 0 1
10.110266 17.777002 20.404673 28.889270 1.053689 0.786530 0.070296 -0.016107 -281312.000000 0 0 1
9.269066 16.735702 20.877573 28.317350 1.065002 0.741774 0.078038 -0.017337 -119848.000000 0 0 1
9.894666 16.012302 21.901873 28.878889 1.017289 0.709935 0.073111 -0.025153 -519297.000000 0 0 1
9.042166 14.951502 22.515773 28.500319 1.026879 0.659958 0.065102 -0.018984 -273216.000000 0 0 1
7.987866 15.535402 23.308573 29.128067 1.095876 0.643151 0.073049 -0.004596 -196649.000000 0 0 1
7.012966 14.632302 23.686273 28.711069 1.123862 0.600616 0.067493 -0.008096 -511263.000000 0 0 1
7.353066 13.552302 24.670573 29.092432 1.073676 0.558584 0.077679 -0.011003 -832127.000000 0 0 1
7.720166 14.107702 25.946173 30.525925 1.070082 0.554865 0.086081 -0.018690 -208004.000000 0 0 1
8.206166 13.053402 26.722873 30.851975 1.009569 0.523321 0.102339 -0.022572 -1046660.000000 0 0 1
9.149366 13.532602 27.827773 32.268051 0.976293 0.530817 0.057610 -0.016858 275019.000000 0 0 1
10.485366 13.911902 27.475573 32.532922 0.924933 0.565078 0.070380 -0.014792 603868.000000 0 0 1
10.572866 14.964202 26.563273 32.269495 0.955692 0.603825 0.058401 -0.009758 -943261.000000 0 0 1
11.779566 14.913602 25.598573 31.881979 0.902273 0.638624 0.059131 -0.016220 -222648.000000 0 0 1
11.497366 13.998402 24.575973 30.530691 0.883181 0.635189 0.057107 -0.027848 728800.000000 0 0 1
12.669366 13.639502 23.805473 30.220016 0.822256 0.663667 0.065083 -0.025675 284721.000000 0 0 1
12.521466 12.461402 22.829973 28.866612 0.782994 0.658554 0.050723 -0.032600 22210.800000 0 0 1
12.204366 11.189202 23.455573 28.710776 0.742030 0.614676 0.050053 -0.029569 -830072.000000 0 0 1
10.940566 11.109002 23.987173 28.609270 0.793037 0.576381 0.070592 -0.026173 -1434910.000000 0 0 1
10.671766 9.836202 24.846473 28.774723 0.744677 0.528662 0.055744 -0.018578 -49097.000000 0 0 1
10.660666 8.820702 23.947673 27.657650 0.691230 0.523928 0.053284 -0.018234 164705.000000 0 0 1
10.392466 7.556402 24.491673 27.657632 0.628686 0.483162 0.057699 -0.017949 -50736.700000 0 0 1
10.672566 6.521202 23.397673 26.530752 0.548486 0.490903 0.064323 -0.022477 705669.000000 0 0 1
12.062966 6.316002 23.097873 26.812660 0.482338 0.532671 0.063722 -0.021649 817649.000000 0 0 1
12.291266 5.146702 22.298273 25.976465 0.396547 0.538648 0.071597 -0.026912 21332.900000 0 0 1
11.974066 3.757202 22.900273 26.113547 0.304049 0.501318 0.067004 -0.029408 -198803.000000 0 0 1
12.990066 3.347902 23.806473 27.325783 0.252239 0.513136 0.061841 -0.023264 -122263.000000 0 0 1
12.685166 2.190902 24.510773 27.685582 0.171026 0.483601 0.061068 -0.015523 -685940.000000 0 0 1
13.835666 1.435102 25.222273 28.803615 0.103355 0.503988 0.036255 -0.009573 -176035.000000 0 0 1
14.665466 0.695402 24.392473 28.470199 0.047382 0.541819 0.054150 -0.014019 -250306.000000 0 0 1
15.945866 1.263702 24.193373 29.003222 0.079084 0.584186 0.049761 -0.021597 -295831.000000 0 0 1
16.806066 0.327602 23.325473 28.751154 0.019491 0.624444 0.053297 -0.022236 -394189.000000 0 0 1
17.082866 -0.887198 23.995973 29.468935 -0.051888 0.619308 0.060501 -0.021383 -257141.000000 0 0 1
18.069566 -1.469198 23.198473 29.442094 -0.081129 0.663347 0.077919 -0.016193 -186315.000000 0 0 1
18.327466 -2.981698 23.567273 30.003381 -0.161277 0.667313 0.077866 -0.006104 69113.600000 0 0 1
17.387666 -3.877698 22.987073 29.082177 -0.219424 0.659305 0.066471 0.001662 170376.000000 0 0 1
17.442766 -5.192498 23.453673 29.686477 -0.289334 0.659913 0.083522 0.003990 -252824.000000 0 0 1
16.454766 -6.123798 22.756773 28.742494 -0.356278 0.657133 0.077694 -0.000095 -275585.000000 0 0 1
16.666266 -6.268998 21.383373 27.826487 -0.359778 0.694375 0.066282 -0.008100 -12970.900000 0 0 1
15.854266 -7.280098 20.820873 27.163695 -0.430469 0.697428 0.081277 -0.011968 -273907.000000 0 0 1
16.463766 -8.688898 20.819573 27.928608 -0.485607 0.729576 0.081677 -0.014133 -1455.170000 0 0 1
16.490566 -9.262698 22.128973 29.110613 -0.511779 0.707224 0.072013 -0.009986 289665.000000 0 0 1
17.426566 -10.323098 22.161873 30.023327 -0.534796 0.740465 0.057952 -0.017879 83854.500000 0 0 1
17.114866 -11.054398 23.511973 31.111593 -0.573484 0.714028 0.061483 -0.005070 320999.000000 0 0 1
15.908466 -11.794798 23.372073 30.634137 -0.637985 0.702944 0.068523 -0.011904 299912.000000 0 0 1
15.565966 -12.519398 24.510573 31.619659 -0.677345 0.683814 0.068241 -0.004054 -70366.400000 0 0 1
14.401066 -13.496098 24.333473 31.331346 -0.752970 0.681467 0.077370 -0.010037 17982.800000 0 0 1
14.743166 -14.427398 23.350773 31.157172 -0.774574 0.723564 0.065228 -0.017825 -185971.000000 0 0 1
13.610166 -15.166798 23.017573 30.742105 -0.839438 0.724650 0.066913 -0.020069 -530301.000000 0 0 1
13.795766 -16.272798 21.954073 30.612227 -0.867592 0.771068 0.036452 -0.022546 -427630.000000 0 0 1
14.238666 -17.462998 22.476873 31.826180 -0.886758 0.786625 0.062903 -0.027397 -39336.500000 0 0 1
14.547366 -18.245198 21.381473 31.649337 -0.897688 0.829053 0.044645 -0.021373 -315872.000000 0 0 1
-25.324494 -33.069615 25.753363 48.971064 0.917264 1.017036 0.010968 -0.010642 -607727.000000 0 0 1
-24.543734 -33.988915 26.352343 49.518554 0.945385 1.009633 0.030730 -0.001223 53873.200000 0 0 1
-25.385304 33.381702 26.942603 49.846319 -0.920637 0.999749 0.026012 -0.010357 61933.700000 0 0 1
-25.710834 33.469202 28.414023 50.878199 -0.915752 0.978254 0.014428 -0.003640 -85520.700000 0 0 1
-26.708434 -33.954315 28.745913 51.889917 0.904280 0.983661 0.039080 -0.010954 68371.400000 0 0 1
-26.766904 -33.750715 30.164893 52.588009 0.900291 0.959893 0.023355 -0.013199 194767.000000 0 0 1
-27.989244 -32.961415 30.732813 53.050527 0.866795 0.952912 0.011604 -0.013223 101268.000000 0 0 1
-27.977304 -31.570415 30.476343 52.040639 0.845665 0.945144 -0.006258 -0.003647 213280.000000 0 0 1
-28.951754 -30.908715 31.267893 52.642510 0.818079 0.934816 -0.000815 0.008065 -7372.080000 0 0 1
-29.081084 -29.456915 30.981573 51.703744 0.791818 0.928278 -0.009255 0.009471 6792.620000 0 0 1
-29.679234 -29.152315 29.732623 51.134560 0.776442 0.950276 -0.009803 0.011419 101873.000000 0 0 1
-30.124474 -27.817515 29.734673 50.650260 0.745604 0.943376 -0.004857 0.012600 -331824.000000 0 0 1
-30.650714 -27.494115 28.335783 49.983089 0.731163 0.968050 -0.011628 0.008073 -338358.000000 0 0 1
-29.756154 -27.351415 27.255123 48.748029 0.743314 0.977494 -0.002711 0.014159 -46499.100000 0 0 1
-29.077384 -26.094115 27.215653 47.613956 0.731378 0.962354 0.005367 0.005789 592429.000000 0 0 1
-28.067344 -25.955015 25.997673 46.231132 0.746317 0.973582 0.013818 0.012408 548605.000000 0 0 1
-28.721614 -25.862015 24.746043 45.892718 0.733057 1.001292 0.011032 0.009665 15979.800000 0 0 1
-27.779774 -25.952015 23.724093 44.811332 0.751395 1.012878 0.030451 0.005743 -277389.000000 0 0 1
-28.424864 -25.996115 22.342273 44.530305 0.740799 1.045197 0.017480 0.008388 68767.700000 0 0 1
-29.073594 -24.841415 21.816373 44.026400 0.707062 1.052352 0.021264 0.009434 282147.000000 0 0 1
-29.352024 -24.996615 20.467873 43.649809 0.705431 1.082739 0.023510 0.006258 -170451.000000 0 0 1
-30.172684 -23.852315 19.791573 43.255406 0.668938 1.095557 0.025419 0.003738 808891.000000 0 0 1
-31.562564 -23.989015 20.155173 44.473579 0.649900 1.100451 0.038830 0.004462 751727.000000 0 0 1
-32.200284 -22.891815 19.486573 44.052468 0.618017 1.112580 0.052680 0.004853 239221.000000 0 0 1
-33.718894 -22.691915 19.739673 45.183420 0.592356 1.118671 0.052086 0.010438 177757.000000 0 0 1
-34.514544 -23.792115 19.374173 46.180916 0.603533 1.137871 0.052130 0.003256 924287.000000 0 0 1
-35.907658 -23.393915 19.323273 47.010892 0.577430 1.147204 0.038013 -0.002091 1176510.000000 0 0 1
36.118568 -24.479515 18.600273 47.431717 -0.595639 1.167830 0.038707 -0.002653 -7126.420000 0 0 1
35.842468 -25.721815 19.252073 48.134567 -0.622464 1.159319 0.025310 0.005063 -162118.000000 0 0 1
35.274148 -26.723815 18.387373 47.922054 -0.648350 1.177004 0.044671 0.007617 -21568.000000 0 0 1
34.878058 -27.879715 19.277873 48.635314 -0.674343 1.163230 0.042538 0.006476 556526.000000 0 0 1
33.657648 -27.729315 20.031173 47.989583 -0.689124 1.140207 0.035885 0.001544 505373.000000 0 0 1
33.727738 -26.775515 21.096973 47.953840 -0.670993 1.115261 0.033507 -0.001050 -553795.000000 0 0 1
32.617858 -26.903615 22.167173 47.740053 -0.689688 1.087918 0.041235 -0.008814 -491336.000000 0 0 1
31.439068 -26.307815 21.775673 46.418704 -0.696773 1.082509 0.044476 -0.006371 -803866.000000 0 0 1
30.552118 -25.931315 22.827273 46.118861 -0.703772 1.053001 0.046406 -0.002406 -102770.000000 0 0 1
29.558668 -24.884015 22.279173 44.601464 -0.699745 1.047756 0.056583 -0.002656 -334291.000000 0 0 1
30.063318 -23.685515 21.685173 43.989242 -0.667291 1.055302 0.051557 0.006776 501099.000000 0 0 1
30.863938 -22.791115 22.543273 44.499626 -0.636060 1.039566 0.058408 -0.001953 784020.000000 0 0 1
31.744718 -21.763115 21.809873 44.238341 -0.600973 1.055252 0.062916 -0.002441 219563.000000 0 0 1
30.946478 -20.783215 21.193673 42.881211 -0.591400 1.053834 0.071788 -0.009017 314362.000000 0 0 1
31.786558 -19.749215 20.663173 42.747906 -0.555939 1.066293 0.080810 -0.011806 -14384.000000 0 0 1
31.099528 -18.359615 20.717273 41.634859 -0.533294 1.049973 0.073030 -0.001916 208055.000000 0 0 1
30.817208 -17.817615 22.043973 41.870090 -0.524214 1.016336 0.067140 -0.004892 -16697.700000 0 0 1
29.943388 -18.494515 22.898073 41.987799 -0.553296 0.993989 0.072634 -0.006631 -453276.000000 0 0 1
30.075768 -17.989015 24.394563 42.699545 -0.539038 0.962698 0.062702 -0.001513 105212.000000 0 0 1
29.446848 -16.748215 24.647693 41.894251 -0.517133 0.941803 0.064027 -0.009739 102364.000000 0 0 1
29.733918 -16.276015 25.916693 42.669538 -0.500836 0.918036 0.057989 -0.002971 -236235.000000 0 0 1
29.353238 -14.804015 26.099823 41.975852 -0.467114 0.899781 0.056460 -0.012421 -337979.000000 0 0 1
27.961098 -14.609815 26.195923 41.006049 -0.481489 0.877819 0.067407 -0.012189 99384.700000 0 0 1
27.575588 -13.251515 26.519343 40.488162 -0.447969 0.856627 0.051378 -0.018011 10779.000000 0 0 1
28.060818 -12.137915 25.591753 39.870745 -0.408254 0.873865 0.057779 -0.035964 -561395.000000 0 0 1
27.416288 -12.117515 24.329063 38.605573 -0.416166 0.888991 0.043558 -0.020486 140718.000000 0 0 1
27.949818 -11.192615 23.402203 38.133057 -0.380898 0.910060 0.038295 -0.014669 28551.200000 0 0 1
29.188058 -11.616115 22.566073 38.679510 -0.378759 0.947873 0.046997 -0.033208 -143740.000000 0 0 1
28.945858 -12.652815 21.605473 38.272090 -0.412092 0.970941 0.045400 -0.034966 -88956.200000 0 0 1
29.170208 -13.944715 22.110873 39.169462 -0.445931 0.970978 0.058655 -0.030578 -331522.000000 0 0 1
28.504438 -15.037915 21.244173 38.599958 -0.485455 0.987992 0.069089 -0.025119 -223948.000000 0 0 1
28.889798 -15.084015 19.873073 38.171808 -0.481189 1.023217 0.063950 -0.026597 -13185.400000 0 0 1
28.179468 -16.109215 19.197673 37.711270 -0.519324 1.036692 0.065327 -0.028064 -171234.000000 0 0 1
28.701678 -16.173015 17.759373 37.426569 -0.513139 1.076386 0.063130 -0.027600 152305.000000 0 0 1
27.986868 -17.149015 16.978373 36.954278 -0.549743 1.093429 0.076165 -0.025818 1148630.000000 0 0 1
26.622988 -16.819315 16.643773 35.618647 -0.563445 1.084588 0.036937 -0.026137 408882.000000 0 0 1
26.459988 -15.635615 15.578173 34.456971 -0.533713 1.101672 0.045309 -0.028572 -708428.000000 0 0 1
26.803888 -16.154115 14.252973 34.388240 -0.542386 1.143433 0.065590 -0.027209 167305.000000 0 0 1
25.945788 -17.126815 13.674273 33.963178 -0.583443 1.156418 0.043313 -0.026533 -301129.000000 0 0 1
26.156388 -17.580115 12.213273 33.799129 -0.591765 1.201082 0.051654 -0.018150 -545370.000000 0 0 1
25.794088 -16.625515 11.217973 32.673929 -0.572533 1.220335 0.048808 -0.018594 -103508.000000 0 0 1
25.673188 -17.182115 9.883373 32.434838 -0.589798 1.261157 0.048082 -0.024245 -404344.000000 0 0 1
27.017688 -17.449715 9.204673 33.454058 -0.573461 1.292057 0.061621 -0.016636 303746.000000 0 0 1
27.767788 -18.478915 9.906773 34.794604 -0.587181 1.282080 0.069467 -0.017997 -112848.000000 0 0 1
29.104018 -18.668915 9.499973 35.858356 -0.570345 1.302664 0.081381 -0.005832 124962.000000 0 0 1
29.840378 -19.542415 10.545073 37.196138 -0.579811 1.283355 0.092318 -0.018016 -89792.200000 0 0 1
29.791578 -18.888215 11.803673 37.197170 -0.565054 1.247887 0.099526 -0.031573 129921.000000 0 0 1
30.372798 -19.670715 12.821073 38.390413 -0.574716 1.230289 0.080128 -0.027324 20081.000000 0 0 1
29.968858 -19.163915 14.196873 38.300643 -0.568931 1.191067 0.102564 -0.021481 85327.000000 0 0 1
30.368748 -20.124715 15.139373 39.452067 -0.585236 1.176952 0.095592 -0.014911 -138396.000000 0 0 1
30.265088 -19.662415 16.485673 39.678250 -0.576145 1.142322 0.101442 -0.018377 171486.000000 0 0 1
30.129978 -20.811815 17.514073 40.591747 -0.604480 1.124676 0.085745 -0.010356 633511.000000 0 0 1
28.873768 -21.473815 17.336373 39.942071 -0.639466 1.121826 0.061519 -0.002101 391818.000000 0 0 1
28.504838 -22.266415 18.445573 40.602440 -0.663138 1.099213 0.059004 -0.003842 -19799.500000 0 0 1
27.165188 -22.989615 18.254473 39.996195 -0.702336 1.096845 0.038375 0.006090 -354336.000000 0 0 1
26.042988 -22.274615 18.656773 39.018853 -0.707564 1.072252 0.048048 -0.000348 167971.000000 0 0 1
24.828588 -23.042715 18.641473 38.664325 -0.748110 1.067705 0.054143 -0.000742 707478.000000 0 0 1
23.720288 -22.498415 19.554273 38.094623 -0.758968 1.031761 0.045289 -0.004180 -98273.100000 0 0 1
22.808488 -21.578315 18.925973 36.661195 -0.757690 1.028342 0.030206 -0.009300 677447.000000 0 0 1
21.595988 -21.267815 19.593073 36.091483 -0.777742 0.996943 0.042005 -0.019808 409577.000000 0 0 1
21.682888 -20.557615 20.938373 36.485321 -0.758765 0.959555 0.036306 -0.010380 -670422.000000 0 0 1
22.182888 -21.452915 21.938273 37.862856 -0.768671 0.952787 0.044240 -0.010506 -212480.000000 0 0 1
22.271588 -20.826115 23.205673 38.317802 -0.751871 0.920263 0.046942 -0.011446 -141190.000000 0 0 1
22.704588 -21.798415 24.317113 39.774253 -0.765039 0.912995 0.049496 -0.016030 -163199.000000 0 0 1
21.670588 -22.584015 24.833653 39.954504 -0.806036 0.900079 0.050064 -0.013755 -490190.000000 0 0 1
22.178188 -23.608915 25.661193 41.324928 -0.816635 0.900827 0.053150 -0.011728 63353.500000 0 0 1
21.195288 -24.406315 26.611373 41.869722 -0.855697 0.882043 0.065649 -0.011674 319395.000000 0 0 1
20.375388 -25.312015 25.842433 41.517296 -0.893033 0.898927 0.079533 -0.008458 88517.000000 0 0 1
19.515288 -26.041715 26.659153 42.068133 -0.927689 0.884452 0.088778 -0.022173 -449725.000000 0 0 1
18.703388 -27.063915 25.870513 41.851591 -0.966081 0.904411 0.090546 -0.015378 188430.000000 0 0 1
17.781688 -26.444415 24.945663 40.469514 -0.978823 0.906626 0.085879 -0.017962 588050.000000 0 0 1
17.302888 -27.346215 23.990653 40.283456 -1.006655 0.932851 0.077737 -0.021379 -215110.000000 0 0 1
16.281788 -26.795215 22.987773 38.878244 -1.024780 0.938156 0.061194 -0.022651 1085250.000000 0 0 1
14.947288 -26.537215 23.492263 38.464680 -1.057832 0.913790 0.043222 -0.017930 708140.000000 0 0 1
14.305688 -25.626815 22.665273 37.082354 -1.061656 0.913202 0.024323 -0.011177 -63500.100000 0 0 1
12.900488 -25.317915 23.237973 36.707258 -1.099546 0.885294 0.023593 -0.011289 144249.000000 0 0 1
11.872288 -26.185215 22.795573 36.691346 -1.145121 0.900422 0.020334 -0.010279 -271425.000000 0 0 1
10.651188 -25.485915 22.829673 35.835368 -1.174934 0.880104 0.011487 -0.000669 -632765.000000 0 0 1
9.405788 -26.319415 22.668473 35.986666 -1.227570 0.889355 0.017916 -0.004400 -602013.000000 0 0 1
9.301888 -26.923415 21.451273 35.658835 -1.238141 0.925332 0.023702 -0.012217 77893.000000 0 0 1
8.081788 -27.644315 21.401873 35.882637 -1.286373 0.931737 0.031786 -0.010889 86684.000000 0 0 1
7.924988 -28.494315 20.099673 35.759310 -1.299527 0.973895 0.039404 -0.012340 -194095.000000 0 0 1
8.632188 -29.689615 20.077773 36.866040 -1.287849 0.994867 0.039172 -0.017714 219179.000000 0 0 1
8.069988 -30.400515 18.968073 36.730148 -1.311325 1.028135 0.046945 -0.018186 272327.000000 0 0 1
8.557688 -31.862415 18.807773 37.976043 -1.308406 1.052670 0.039320 -0.018980 -252549.000000 0 0 1
8.110388 -32.648715 19.863373 39.067513 -1.327311 1.037428 0.045659 -0.022368 283122.000000 0 0 1
8.634288 -33.981315 19.832473 40.281605 -1.321973 1.056014 0.041872 -0.026117 -82674.600000 0 0 1
8.170788 33.510902 21.012573 40.388990 1.331638 1.023647 0.058954 -0.034296 238363.000000 0 0 1
7.140988 32.574102 20.705373 39.252748 1.354987 1.015155 0.046511 -0.029267 183885.000000 0 0 1
7.424788 31.357702 21.377773 38.670946 1.338301 0.985061 0.046459 -0.039948 490081.000000 0 0 1
6.391488 30.196202 21.012273 37.338684 1.362210 0.973090 0.039815 -0.034778 -269661.000000 0 0 1
5.104088 30.516702 21.385873 37.612183 1.405075 0.966007 0.060326 -0.042240 -1649160.000000 0 0 1
4.267988 29.518102 20.967173 36.457597 1.427203 0.958056 0.073214 -0.032240 -627059.000000 0 0 1
2.791988 29.617602 21.358673 36.622267 1.476806 0.948115 0.071846 -0.026016 -369018.000000 0 0 1
2.594688 29.071902 22.656773 36.949116 1.481781 0.910706 0.068156 -0.027304 762955.000000 0 0 1
1.206688 28.981102 23.011373 37.025445 1.529183 0.900138 0.070344 -0.020292 731775.000000 0 0 1
0.981888 28.364802 24.396133 37.425892 1.536194 0.860773 0.079090 -0.008490 -165881.000000 0 0 1
1.349988 29.226202 25.459433 38.783708 1.524638 0.854698 0.084026 -0.013194 154578.000000 0 0 1
1.002788 28.780602 26.747113 39.303138 1.535968 0.822305 0.076883 -0.005348 -379332.000000 0 0 1
2.086488 28.040402 27.528083 39.349878 1.496523 0.795998 0.060044 -0.000258 -299412.000000 0 0 1
2.497888 26.805502 26.969223 38.106605 1.477879 0.784515 0.058610 -0.002454 560432.000000 0 0 1
3.576388 26.219002 27.692183 38.302527 1.435229 0.762682 0.033042 0.012391 410642.000000 0 0 1
4.123288 24.866102 27.077333 36.993330 1.406472 0.749614 0.021210 0.024763 698361.000000 0 0 1
3.102188 23.847802 27.116743 36.244433 1.441440 0.725507 0.040576 0.023470 537638.000000 0 0 1
3.469888 22.719702 26.321703 34.943626 1.419241 0.717789 0.024185 0.025618 176488.000000 0 0 1
2.541688 21.467702 26.439253 34.151961 1.452949 0.685401 0.038616 0.027767 201913.000000 0 0 1
3.223588 20.215802 26.623653 33.584059 1.412669 0.655494 0.056642 0.024269 -6210.810000 0 0 1
3.924888 19.780402 25.503173 32.512780 1.374918 0.669061 0.063741 0.025976 -267005.000000 0 0 1
4.136588 18.272102 25.751513 31.845274 1.348161 0.628952 0.063150 0.009399 324564.000000 0 0 1
5.168588 17.980002 26.694153 32.597125 1.290881 0.611285 0.051825 0.006946 -700038.000000 0 0 1
6.311988 17.485702 26.097153 32.041416 1.224373 0.618961 0.076376 0.014298 -1556180.000000 0 0 1
7.418188 17.567102 27.148203 33.176158 1.171234 0.612341 0.051046 -0.001670 -636184.000000 0 0 1
7.860888 18.830402 27.571993 34.301492 1.175332 0.637119 0.044072 0.000693 134149.000000 0 0 1
8.694788 19.507402 26.638623 34.143144 1.151510 0.675804 0.027139 -0.000547 -97036.000000 0 0 1
9.400788 20.797202 27.159753 35.476056 1.146262 0.698854 0.025128 0.003988 524637.000000 0 0 1
10.365788 20.548502 28.196483 36.396869 1.103591 0.684563 0.037501 -0.017250 206750.000000 0 0 1
10.659488 21.758602 28.834833 37.663099 1.115263 0.698824 0.045247 -0.022476 299087.000000 0 0 1
11.568288 21.607902 30.122753 38.834352 1.079252 0.683016 0.064340 -0.025311 670512.000000 0 0 1
12.917088 21.449202 29.732143 38.870551 1.028748 0.699908 0.054153 -0.024350 -675790.000000 0 0 1
13.806088 21.356702 30.812003 39.951173 0.996919 0.690007 0.061336 -0.014195 -732334.000000 0 0 1
15.212088 21.226402 30.277413 39.983615 0.948977 0.711711 0.038441 -0.019866 -934431.000000 0 0 1
15.677688 22.265402 29.525373 40.165727 0.957305 0.744999 0.030644 -0.019198 -155406.000000 0 0 1
17.000588 21.992502 29.094313 40.238901 0.912726 0.762604 0.062493 -0.009063 237625.000000 0 0 1
-8.491134 16.837502 4.603673 19.411198 -1.103716 1.331349 0.023824 -0.011681 -18061.600000 0 1 0
-8.281934 18.197302 4.985773 20.605585 -1.143694 1.326409 0.030445 -0.010613 596832.000000 0 1 0
-6.892734 18.530202 5.029373 20.400312 -1.214682 1.321694 0.018507 -0.003974 240185.000000 0 1 0
-6.563134 20.024902 5.464173 21.769901 -1.254080 1.317087 0.022219 -0.006007 -332248.000000 0 1 0
-6.835834 21.157102 4.662673 22.717660 -1.258285 1.364083 0.025839 -0.008619 670.736000 0 1 0
-8.212334 21.352602 4.385073 23.293881 -1.203631 1.381416 0.027078 -0.012752 182667.000000 0 1 0
-8.506034 22.477602 3.298173 24.258465 -1.209028 1.434414 0.067433 -0.023258 -220824.000000 0 1 0
-7.925734 22.294002 2.068873 23.751210 -1.229222 1.483580 0.047540 -0.021218 -253097.000000 0 1 0
-8.255934 21.106402 1.327373 22.702479 -1.197936 1.512295 0.058457 -0.022204 -495964.000000 0 1 0
-7.729234 21.122002 -0.141527 22.492222 -1.219999 1.577089 0.033409 -0.010306 1600050.000000 0 1 0
-6.376034 20.670302 -0.438227 21.635786 -1.271593 1.591052 0.013153 -0.007030 891923.000000 0 1 0
-5.406434 21.625802 -0.125627 22.291716 -1.325818 1.576432 0.021291 -0.007465 -1351230.000000 0 1 0
-4.061334 21.335902 -0.735227 21.731445 -1.382695 1.604635 0.012019 -0.002429 -794192.000000 0 1 0
-4.076034 21.537102 -2.147727 22.024385 -1.383752 1.668467 0.012609 -0.008989 657977.000000 0 1 0
-2.742734 21.613902 -2.673427 21.950639 -1.444574 1.692892 0.005338 0.004537 623461.000000 0 1 0
-2.671834 21.887202 -4.167127 22.439992 -1.449324 1.757581 0.006777 -0.007104 -140524.000000 0 1 0
-1.477634 22.437802 -4.649327 22.962025 -1.505037 1.774685 0.014930 0.003182 -254859.000000 0 1 0
-1.635634 22.603102 -6.032727 23.451424 -1.498559 1.830965 0.015921 -0.010837 -72007.000000 0 1 0
-0.392934 23.113402 -6.768927 24.087385 -1.553798 1.855648 0.009792 -0.016722 83823.200000 0 1 0
0.709366 22.222902 -6.792627 23.248663 1.538887 1.867294 0.026293 -0.002372 -293753.000000 0 1 0
1.910866 22.903302 -7.063627 24.043866 1.487557 1.868976 0.023296 -0.006266 274614.000000 0 1 0
3.141466 22.000902 -6.761827 23.229955 1.428967 1.866154 0.028968 -0.000855 75293.600000 0 1 0
2.984166 20.911402 -7.610527 22.452441 1.429048 1.916610 0.029759 -0.014880 57558.500000 0 1 0
3.906366 19.835702 -7.466427 21.551387 1.376349 1.924578 0.027610 -0.014983 306764.000000 0 1 0
3.689366 18.848002 -8.610027 21.047355 1.377497 1.992241 0.020127 -0.009829 252373.000000 0 1 0
4.154566 19.219402 -9.893327 22.011900 1.357907 2.036950 0.031152 -0.013006 -446000.000000 0 1 0
3.093566 19.110502 -10.784627 22.160542 1.410311 2.079058 0.030536 -0.016688 -707412.000000 0 1 0
3.481066 19.300702 -12.268127 23.133133 1.392355 2.129783 0.042777 -0.021430 17417.400000 0 1 0
3.772766 20.632302 -12.602827 24.469510 1.389937 2.111853 0.076538 -0.024793 -34297.100000 0 1 0
4.026266 20.690602 -13.942527 25.272631 1.378604 2.155179 0.093193 -0.019399 112407.000000 0 0 1
4.439766 22.033902 -14.528527 26.763454 1.371962 2.144623 0.081327 -0.018305 631164.000000 0 0 1
3.320666 22.919802 -14.646327 27.401807 1.426915 2.134715 0.106469 -0.022534 578676.000000 0 0 1
3.773866 23.995402 -15.437727 28.780980 1.414800 2.136946 0.085847 -0.015320 524454.000000 0 0 1
2.639166 25.002102 -15.812127 29.700062 1.465628 2.132222 0.104794 -0.019548 383571.000000 0 0 1
1.965266 25.594802 -14.718827 29.590539 1.494163 2.091415 0.121394 -0.028906 106707.000000 0 0 1
1.768266 27.005002 -14.820627 30.855273 1.505410 2.071824 0.083397 -0.022542 -34082.900000 0 0 1
0.873666 27.525102 -13.631227 30.727917 1.539066 2.030420 0.090935 -0.020128 1041380.000000 0 0 1
-0.545334 27.369002 -13.647927 30.587997 -1.550874 2.033295 0.085075 -0.031965 462409.000000 0 0 1
-1.124634 26.077902 -13.613727 29.439010 -1.527697 2.051540 0.078846 -0.037262 -279843.000000 0 0 1
-0.909134 25.133702 -12.424227 28.051576 -1.534640 2.029634 0.086322 -0.039495 -376776.000000 0 0 1
-1.717534 25.509502 -11.288927 27.948604 -1.503569 1.986591 0.059259 -0.039695 169011.000000 0 0 1
-2.187834 24.305802 -10.726727 26.657481 -1.481025 1.984923 0.074416 -0.033796 -574859.000000 0 0 1
-3.223234 24.403402 -9.626827 26.430873 -1.439475 1.943599 0.044488 -0.024494 -442194.000000 0 0 1
-2.877734 24.914102 -8.316827 26.422782 -1.455800 1.891000 0.056291 -0.027624 -382290.000000 0 0 1
-2.411734 26.226402 -8.279727 27.607870 -1.479096 1.875389 0.048866 -0.032511 -366900.000000 0 0 1
-2.171534 26.681602 -6.840827 27.630062 -1.489588 1.820985 0.039716 -0.030100 173274.000000 0 0 1
-0.994534 26.088102 -6.320027 26.861141 -1.532693 1.808308 0.029804 -0.023562 -134328.000000 0 0 1
-0.648434 26.456002 -5.018127 26.935517 -1.546291 1.758193 0.027201 -0.027520 -524995.000000 0 0 1
-1.474234 25.902802 -3.844327 26.227988 -1.513944 1.717900 0.026437 -0.016838 -203419.000000 0 0 1
-2.661834 26.638902 -3.634827 27.017187 -1.471204 1.705743 0.025405 -0.015194 -245998.000000 0 0 1
-3.444734 26.417902 -2.527427 26.761159 -1.441134 1.665381 0.018977 -0.003786 -74596.900000 0 0 1
-4.461034 25.252602 -2.610327 25.776123 -1.395944 1.672239 0.028031 -0.009982 439017.000000 0 0 1
-5.648434 25.536202 -3.380527 26.371014 -1.353108 1.699341 0.020574 -0.015651 1096500.000000 0 0 1
-6.599334 24.440102 -3.319427 25.532105 -1.307065 1.701175 -0.004164 -0.021716 226230.000000 0 0 1
-7.964234 24.839302 -3.853627 26.367980 -1.260522 1.717470 0.024408 -0.013529 -238979.000000 0 0 1
-8.772234 25.531202 -2.886527 27.150071 -1.239844 1.677315 0.040104 -0.020292 -38357.100000 0 0 1
-9.994434 26.014602 -3.423027 28.077844 -1.203997 1.693012 0.064717 -0.020458 352234.000000 0 0 1
-10.946934 26.496502 -2.306827 28.761457 -1.179008 1.651088 0.063573 -0.018210 -421857.000000 0 0 1
-11.575834 25.551902 -1.501827 28.091904 -1.145424 1.624283 0.066678 -0.018649 -361379.000000 0 0 1
-10.761634 24.831602 -0.602927 27.069997 -1.161845 1.593071 0.075318 -0.030724 -397961.000000 0 0 1
-11.140334 23.365702 -0.273927 25.887025 -1.125895 1.581378 0.071463 -0.027861 219071.000000 0 0 1
-12.117134 23.256402 0.762073 26.234822 -1.090472 1.541744 0.093276 -0.034998 239327.000000 0 0 1
-12.502734 21.925002 0.964873 25.257772 -1.052539 1.532586 0.092967 -0.037572 -451771.000000 0 0 1
-13.429634 21.728402 2.137073 25.632900 -1.017197 1.487327 0.098063 -0.041048 -325506.000000 0 0 1
-12.862634 21.767902 3.453173 25.518881 -1.037096 1.435062 0.104104 -0.039024 11565.800000 0 0 1
-12.563734 23.072502 3.844673 26.551257 -1.072160 1.425484 0.086957 -0.039774 -121277.000000 0 0 1
-12.219034 23.040202 5.368573 26.626627 -1.083176 1.367780 0.082280 -0.035535 -821760.000000 0 0 1
-10.959134 22.619802 5.756073 25.785469 -1.119631 1.345670 0.071098 -0.027848 -585469.000000 0 0 1
-11.075734 22.135202 7.068573 25.741091 -1.106855 1.292620 0.047938 -0.027929 -598428.000000 0 0 1
-9.739134 21.997702 7.765773 25.279573 -1.154001 1.258552 0.039767 -0.018790 -755725.000000 0 0 1
-9.363834 23.190602 8.395373 26.381199 -1.187038 1.246931 0.045922 -0.025015 111394.000000 0 0 1
-8.245034 23.054602 9.246373 26.172326 -1.227340 1.209713 0.054257 -0.022764 -60558.200000 0 0 1
-8.546734 22.522702 10.693173 26.356454 -1.208111 1.153037 0.038155 -0.029968 -406094.000000 0 0 1
-9.069134 21.240502 10.815373 25.502556 -1.167255 1.132840 0.046782 -0.026737 -102343.000000 0 0 1
-8.931634 20.789402 12.134173 25.675113 -1.165015 1.078553 0.031921 -0.019081 -445497.000000 0 0 1
-10.101834 19.973502 12.673373 25.721629 -1.102550 1.055592 0.032354 -0.012670 -518969.000000 0 0 1
-10.265834 18.818102 11.931773 24.533151 -1.071392 1.062885 0.050367 -0.021844 -154134.000000 0 1 0
-10.777434 17.794102 12.675973 24.361104 -1.026215 1.023551 0.047162 -0.019462 -482241.000000 0 1 0
-10.940734 16.574302 11.800873 23.101249 -0.987352 1.034643 0.052010 -0.027335 -222663.000000 0 1 0
-11.070734 15.406102 12.533173 22.737404 -0.947700 0.986978 0.042865 -0.022585 -46696.300000 0 1 0
-11.323334 14.306802 11.606873 21.624568 -0.901281 1.004222 0.039163 -0.018043 -55085.800000 0 1 0
-11.735834 12.934102 12.200273 21.304164 -0.833932 0.961036 0.021402 -0.021862 284236.000000 0 1 0
-12.968834 12.947002 12.918473 22.421026 -0.784556 0.956753 0.033764 -0.015199 533374.000000 0 1 0
-13.368734 11.702602 13.474273 22.298653 -0.719040 0.921955 0.028162 -0.002637 234798.000000 0 1 0
-14.396334 11.771402 14.631473 23.662213 -0.685421 0.904158 0.030482 -0.009318 824933.000000 0 1 0
-15.650434 12.354002 14.277373 24.523474 -0.668226 0.949374 0.047790 -0.018448 302999.000000 0 1 0
-16.446134 12.671902 15.372773 25.833593 -0.656498 0.933445 0.036835 -0.013032 -7003.460000 0 0 1
-17.494834 13.802702 15.195773 26.972120 -0.667972 0.972315 0.050615 -0.015900 37217.500000 0 0 1
-18.660134 13.352302 14.548773 27.168940 -0.621088 1.005705 0.054094 -0.015812 -173975.000000 0 0 1
-19.549034 14.449602 14.377473 28.243007 -0.636519 1.036700 0.061594 -0.016224 -105200.000000 0 0 1
-20.802234 14.075902 13.560073 28.543642 -0.594885 1.075759 0.056278 -0.014909 -415797.000000 0 0 1
-21.662634 13.278502 14.334873 29.173222 -0.549900 1.057133 0.048102 -0.007436 -289321.000000 0 0 1
-22.713134 12.784102 13.552673 29.376770 -0.512656 1.091292 0.041985 -0.007433 195415.000000 0 0 1
-23.519734 11.584902 14.245473 29.838252 -0.457679 1.073077 0.062367 -0.016554 329156.000000 0 0 1
-24.267534 12.072802 15.327573 31.138404 -0.461636 1.056135 0.074275 -0.013480 -617186.000000 0 0 1
-25.117094 11.112202 15.776673 31.674166 -0.416529 1.049398 0.082301 -0.025051 -626121.000000 0 0 1
-25.968774 11.537702 16.997573 33.112131 -0.418096 1.031731 0.071452 -0.013932 147247.000000 0 0 1
-27.004324 12.461302 16.692173 34.104929 -0.432340 1.059354 0.066602 -0.002769 400229.000000 0 0 1
-27.608884 13.005502 17.884273 35.372881 -0.440231 1.040727 0.056026 0.011340 924387.000000 0 0 1
-28.822814 13.965502 17.579473 36.535294 -0.451195 1.068814 0.043073 0.011999 1118520.000000 0 0 1
-28.298294 15.197002 17.057973 36.369172 -0.492830 1.082612 0.039282 0.011589 529344.000000 0 0 1
-29.357904 16.122802 17.216273 37.659412 -0.502214 1.096000 0.049553 0.009294 -22524.900000 0 0 1
-29.062334 17.569702 16.737173 37.860885 -0.543760 1.112891 0.068981 0.007245 -68944.100000 0 0 1
-28.224664 18.240102 17.688373 37.976459 -0.573732 1.086289 0.061015 0.012450 -138200.000000 0 0 1
-28.888144 18.734302 18.787973 39.223549 -0.575328 1.071284 0.068728 -0.001697 -862858.000000 0 0 1
-28.017554 18.783402 20.072073 39.251593 -0.590593 1.034019 0.073796 -0.008561 336753.000000 0 0 1
-27.643654 17.570202 20.756673 38.777868 -0.566183 1.005968 0.076368 -0.009758 -366501.000000 0 0 1
-26.744764 16.732102 20.129573 37.422524 -0.559046 1.002852 0.075847 0.006868 -634175.000000 0 0 1
-26.457824 15.549102 21.062973 37.221497 -0.531322 0.969294 0.066087 0.002272 -495709.000000 0 0 1
-27.572544 14.731502 21.192173 37.767320 -0.490695 0.975052 0.053363 -0.001433 -422186.000000 0 0 1
-27.311014 13.446502 21.679573 37.372500 -0.457507 0.951952 0.052975 0.005627 50521.400000 0 0 1
-28.562374 12.532602 21.852673 38.084309 -0.413484 0.959661 0.048378 -0.003895 -35978.000000 0 0 1
-29.170934 12.158802 20.682173 37.769460 -0.394915 0.991315 0.048891 -0.007845 18371.200000 0 0 1
-30.249064 11.251802 20.926473 38.464609 -0.356113 0.995546 0.076199 -0.010931 391173.000000 0 0 1
-31.162724 11.145702 19.665873 38.497903 -0.343484 1.034647 0.093785 -0.011847 -56397.300000 0 0 1
-30.494854 10.597402 18.496673 37.207095 -0.334459 1.050511 0.101877 -0.019612 546129.000000 0 0 1
-30.298724 9.186902 18.478873 36.658976 -0.294400 1.042486 0.105279 -0.021354 -578347.000000 0 0 1
-29.474364 8.734802 17.304073 35.276987 -0.288107 1.058110 0.113213 -0.034383 -454784.000000 0 0 1
-30.136084 8.772502 16.036773 35.246537 -0.283268 1.098437 0.121005 -0.025751 294291.000000 0 0 1
-30.545304 10.059502 15.527973 35.711722 -0.318144 1.120964 0.114600 -0.022453 -324902.000000 0 0 1
-29.455954 10.958102 14.921573 34.790610 -0.356152 1.127525 0.105545 -0.016242 -197642.000000 0 0 1
-28.980154 10.582202 13.639673 33.732373 -0.350110 1.154529 0.111781 -0.027131 205711.000000 0 0 1
-28.044544 11.543602 13.194173 33.073212 -0.390480 1.160438 0.091240 -0.024180 -76246.800000 0 0 1
-27.693014 11.445302 11.638673 32.145865 -0.391912 1.200321 0.104571 -0.018866 234777.000000 0 0 1
-26.817964 10.427602 11.121573 30.848459 -0.370839 1.201968 0.119220 -0.018591 600108.000000 0 0 1
-27.456714 9.180902 11.061073 30.992054 -0.322690 1.205849 0.116464 -0.017031 -295875.000000 0 0 1
-26.708114 7.994802 10.420373 29.762801 -0.290851 1.213104 0.128283 -0.021339 -357980.000000 0 0 1
-26.432394 8.169402 9.077673 29.117258 -0.299755 1.253749 0.120080 -0.016150 220022.000000 0 0 1
-25.925294 6.977602 8.525873 28.169101 -0.262913 1.263306 0.150720 -0.032830 -361277.000000 0 0 1
-25.526454 7.165802 7.039473 27.431783 -0.273677 1.311276 0.135264 -0.020459 323180.000000 0 0 1
-26.579084 7.438502 6.114973 28.269628 -0.272882 1.352764 0.137371 -0.023841 502920.000000 0 0 1
-25.868854 7.892602 4.973073 27.499494 -0.296130 1.388953 0.131980 -0.022043 521402.000000 0 0 1
-26.760124 8.344202 3.779473 28.284525 -0.302260 1.436772 0.111794 -0.019681 538113.000000 0 0 1
-27.541174 7.409702 2.989873 28.676807 -0.262818 1.466346 0.141221 -0.030581 779971.000000 0 0 1
-26.738834 6.422102 2.355673 27.599960 -0.235714 1.485342 0.150682 -0.032572 -194681.000000 0 0 1
-25.929544 6.771702 1.111373 26.822236 -0.255452 1.529350 0.162668 -0.027913 -140633.000000 0 0 1
-24.855834 7.605002 1.459473 26.034181 -0.296920 1.514707 0.143114 -0.024272 374186.000000 0 0 1
-23.778234 7.610902 0.511773 24.971827 -0.309774 1.550301 0.145625 -0.013462 853736.000000 0 1 0
-22.457634 8.235102 1.069673 23.943818 -0.351470 1.526107 0.116886 -0.012317 397182.000000 0 1 0
-22.675234 9.609702 1.352973 24.664613 -0.400851 1.515914 0.097535 -0.009634 484730.000000 0 1 0
-21.495534 10.186802 1.852473 23.859182 -0.442553 1.493076 0.094560 -0.012397 -108743.000000 0 1 0
-21.840534 11.636002 2.428273 24.865678 -0.489519 1.472985 0.081197 -0.010680 376531.000000 0 1 0
-20.732334 12.285802 3.033073 24.289300 -0.534954 1.445597 0.078700 -0.014395 684130.000000 0 1 0
-21.247934 13.464402 3.609273 25.412431 -0.564817 1.428287 0.069527 -0.025852 -327051.000000 0 0 1
-20.232634 14.190302 4.470373 25.113908 -0.611636 1.391839 0.046701 -0.020170 -31794.400000 0 0 1
-19.642334 13.316402 5.461273 24.351043 -0.595769 1.344600 0.047602 -0.026378 395063.000000 0 1 0
-18.633434 13.980402 6.200173 24.105987 -0.643684 1.310668 0.039306 -0.025790 -101575.000000 0 1 0
-17.980734 13.111502 7.250673 23.404925 -0.630054 1.255821 0.021793 -0.033419 266819.000000 0 1 0
-17.068134 12.097602 6.753373 21.983657 -0.616596 1.258547 0.037816 -0.029410 684057.000000 0 1 0
-16.593134 11.312402 7.800073 21.543993 -0.598374 1.200327 0.034826 -0.026364 -533209.000000 0 1 0
10.949666 -32.750915 -14.115427 37.306339 -1.248148 1.958826 0.051350 -0.009122 646693.000000 0 0 1
12.236866 -32.893815 -13.484327 37.597488 -1.214649 1.937617 0.030124 -0.005438 990917.000000 0 0 1
12.949766 -31.662515 -13.529227 36.786564 -1.182561 1.947413 0.021778 -0.003879 1042880.000000 0 0 1
14.392866 -31.553415 -12.890227 36.999062 -1.142846 1.926653 0.050440 0.001635 924264.000000 0 0 1
15.326666 -32.350615 -13.576027 38.285474 -1.128354 1.933283 0.035366 -0.004579 49244.600000 0 0 1
16.667066 -31.964915 -13.286627 38.419805 -1.090162 1.923917 0.048448 -0.000943 746705.000000 0 0 1
17.667066 -33.044615 -13.834827 39.943389 -1.079820 1.924485 0.047098 -0.012353 293663.000000 0 0 1
17.623866 34.104802 -13.173927 40.586827 1.093834 1.901371 0.048159 -0.010261 -294354.000000 0 0 1
18.583666 33.241702 -13.727727 40.482266 1.061034 1.916761 0.045056 -0.009883 -297038.000000 0 0 1
18.690566 31.877202 -13.063727 39.193803 1.040489 1.910610 0.037467 -0.019306 -9912.220000 0 0 1
19.624066 31.841502 -11.983827 39.275913 1.018474 1.880860 0.037133 -0.027324 159696.000000 0 0 1
19.586666 30.535102 -11.353927 38.012387 1.000457 1.874116 0.027358 -0.023131 230200.000000 0 0 1
20.390066 30.384202 -10.009027 37.935935 0.979748 1.837798 0.040128 -0.021311 594963.000000 0 0 1
21.780566 30.268302 -10.267527 38.677969 0.947048 1.839479 0.031704 -0.015806 380029.000000 0 0 1
22.521566 29.941202 -9.066027 38.547235 0.925893 1.808213 0.030990 -0.007562 -5309.420000 0 0 1
23.812466 29.221302 -9.432727 38.857359 0.887035 1.815999 0.001631 0.001793 -39506.900000 0 0 1
24.881666 29.970702 -10.016727 40.220332 0.877910 1.822492 0.006387 -0.005253 353697.000000 0 0 1
26.055366 29.169402 -10.008227 40.372029 0.841727 1.821308 0.001262 0.009544 320470.000000 0 0 1
27.067766 29.754802 -11.036527 41.711115 0.832651 1.838580 0.014570 0.011107 -101301.000000 0 0 1
27.662166 31.022002 -10.783027 42.939885 0.842589 1.824633 -0.001475 0.000065 243080.000000 0 0 1
28.494166 31.355602 -11.885627 44.004084 0.833172 1.844296 -0.001997 0.008520 -60552.900000 0 0 1
28.871066 32.806502 -11.771927 45.259069 0.849118 1.833923 -0.001535 -0.003437 -149219.000000 0 0 1
27.862666 33.753802 -12.047627 45.395954 0.880718 1.839405 0.018028 -0.004793 34114.000000 0 0 1
28.267166 -33.356215 -11.572927 45.228337 -0.867794 1.829552 0.036689 -0.006458 -619618.000000 0 0 1
27.296866 -32.255115 -11.880327 43.893662 -0.868466 1.844877 0.045348 -0.012618 -425484.000000 0 0 1
26.065866 -32.453015 -11.219927 43.110490 -0.894115 1.834088 0.034611 -0.014354 -155793.000000 0 0 1
25.027966 -31.498215 -11.331527 41.796414 -0.899367 1.845345 0.041065 -0.014537 240215.000000 0 0 1
25.173166 -30.035915 -10.810627 40.653588 -0.873250 1.839955 0.060996 -0.016202 -478181.000000 0 0 1
25.958566 -29.242215 -11.697827 40.814133 -0.844814 1.861485 0.049630 -0.005093 182216.000000 0 0 1
26.511566 -28.068215 -11.111427 40.176507 -0.813911 1.851014 0.050323 0.002130 81465.800000 0 0 1
27.398066 -27.134515 -12.008327 40.387323 -0.780565 1.872690 0.053699 0.001158 959166.000000 0 0 1
28.598666 -27.705015 -12.552127 41.749341 -0.769528 1.876175 0.040521 0.007250 505565.000000 0 0 1
28.420066 -28.729215 -13.497627 42.605797 -0.790808 1.893153 0.043603 -0.003987 -348215.000000 0 0 1
29.716966 -29.446215 -13.967827 44.105305 -0.780822 1.893037 0.035395 0.009311 285922.000000 0 0 1
30.164666 -30.430715 -13.057627 44.793271 -0.789789 1.866600 0.033549 -0.003621 63220.000000 0 0 1
31.464866 -30.852315 -13.404827 46.060749 -0.775569 1.866094 0.033610 -0.008645 -207381.000000 0 0 1
31.999766 -31.901515 -12.433627 46.864558 -0.783861 1.839322 0.029239 -0.007209 -379123.000000 0 0 1
33.077266 -32.626715 -12.964827 48.235825 -0.778541 1.842923 0.020347 -0.004645 -187661.000000 0 0 1
33.826566 -33.337515 -11.959327 48.976035 -0.778117 1.817478 0.020431 -0.004343 153846.000000 0 0 1
33.293966 33.769402 -11.185327 48.723426 0.792487 1.802430 0.012118 0.003208 5605.000000 0 0 1
32.660166 33.997502 -9.908227 48.173536 0.805458 1.777953 0.008568 -0.003743 16988.200000 0 0 1
32.172066 32.767002 -9.419627 46.876941 0.794559 1.773118 0.011416 0.007443 -278436.000000 0 0 1
31.336766 32.857502 -8.116727 46.124718 0.809083 1.747691 -0.004897 -0.001940 719361.000000 0 0 1
30.123366 33.614202 -8.299627 45.893524 0.840112 1.752642 0.004641 -0.008157 200208.000000 0 0 1
29.536166 33.875902 -7.033927 45.491076 0.853729 1.726041 0.014071 -0.005340 717832.000000 0 0 1
28.498266 -33.317215 -7.213427 44.432213 -0.863198 1.733865 0.025454 -0.016053 235508.000000 0 0 1
29.155866 -32.078915 -7.489227 43.991020 -0.833097 1.741874 0.027463 -0.023127 446490.000000 0 0 1
28.300466 -31.074515 -8.031627 42.790758 -0.832085 1.759612 0.029799 -0.012640 362890.000000 0 0 1
27.171666 -30.531915 -7.120527 41.487338 -0.843565 1.743282 0.048043 -0.016269 417244.000000 0 0 1
26.183166 -29.800815 -7.848927 40.438255 -0.849928 1.766133 0.055614 -0.022314 -265038.000000 0 0 1
25.168966 -29.431915 -6.984527 39.350961 -0.863315 1.749235 0.063951 -0.036028 -512019.000000 0 0 1
24.248366 -28.327315 -7.600527 38.055066 -0.862825 1.771873 0.074909 -0.032693 -4911.010000 0 0 1
23.238166 -28.845815 -8.445827 37.992439 -0.892651 1.794972 0.078940 -0.030399 114963.000000 0 0 1
22.542266 -27.834815 -9.124227 36.961903 -0.890073 1.820230 0.087978 -0.025230 -1138280.000000 0 0 1
21.394866 -28.395715 -9.895227 36.904911 -0.925088 1.842245 0.077873 -0.016025 -1179400.000000 0 0 1
21.674566 -29.162315 -11.076327 37.985688 -0.931636 1.866687 0.081582 -0.017421 -84909.700000 0 0 1
20.672666 -30.069015 -11.496927 38.258125 -0.968504 1.876023 0.068296 -0.015224 27022.500000 0 0 1
20.521566 -31.360415 -10.665627 38.966215 -0.991350 1.848049 0.063049 -0.018075 34140.400000 0 0 1
21.513066 -32.325215 -10.950527 40.344090 -0.983588 1.845673 0.059534 -0.020030 36110.800000 0 0 1
21.075466 -33.668015 -10.654827 41.124638 -1.011493 1.832872 0.052485 -0.023567 124642.000000 0 0 1
22.179366 33.607102 -10.800827 41.689560 0.987451 1.832863 0.042903 -0.020624 -150319.000000 0 0 1
23.089066 33.821302 -9.783027 42.103362 0.971791 1.805297 0.035528 -0.019935 -836541.000000 0 0 1
24.319466 33.186202 -9.975427 42.335205 0.938382 1.808663 0.024451 -0.014448 15010.800000 0 0 1
25.501166 33.635302 -9.069527 43.172900 0.922089 1.782448 0.014322 -0.010910 109342.000000 0 0 1
25.682166 33.217502 -7.691827 42.686535 0.912642 1.751979 0.010130 -0.018790 3504.320000 0 0 1
26.019466 31.831302 -7.545427 41.799257 0.885525 1.752307 0.008307 -0.001360 -228219.000000 0 0 1
26.038766 31.363302 -6.033927 41.207794 0.877892 1.717752 0.015941 -0.000265 -178221.000000 0 0 1
27.007566 31.996502 -5.182327 42.190535 0.869750 1.693939 0.015736 -0.004457 302127.000000 0 0 1
27.957966 31.058402 -4.674127 42.049015 0.837885 1.682186 0.019723 -0.005444 -52072.300000 0 0 1
27.524066 30.024702 -3.596127 40.889963 0.828823 1.658857 0.025637 0.003856 -728556.000000 0 0 1
26.904266 30.644202 -2.478127 40.853981 0.850294 1.631492 0.034618 -0.001329 75047.200000 0 0 1
26.601766 29.808002 -1.376727 39.975822 0.842175 1.605242 0.034639 0.009387 545140.000000 0 0 1
25.389166 28.802702 -1.553027 38.426778 0.848305 1.611223 0.018643 0.014643 550605.000000 0 0 1
24.163366 29.502902 -1.331327 38.158379 0.884567 1.605693 0.023414 0.015586 -178279.000000 0 0 1
23.185166 28.516502 -1.053527 36.767550 0.888152 1.599454 0.034612 0.010450 1708520.000000 0 0 1
21.803666 29.118502 -0.459027 36.379908 0.928070 1.583414 0.033809 -0.000308 1743670.000000 0 0 1
21.981566 29.508702 0.893073 36.806933 0.930556 1.546530 0.038004 -0.003290 -1054060.000000 0 0 1
20.904466 30.167102 1.376573 36.727996 0.964814 1.533307 0.035900 -0.002979 -912080.000000 0 0 1
20.050166 29.376802 2.411273 35.648561 0.971901 1.503105 0.050545 -0.015981 118009.000000 0 0 1
19.354666 28.240702 1.894373 34.288905 0.969973 1.515521 0.072360 -0.015132 400893.000000 0 0 1
18.541666 27.563902 2.840773 33.341147 0.978643 1.485490 0.079706 -0.019756 -150560.000000 0 0 1
18.005766 26.195002 2.338073 31.872438 0.968594 1.497373 0.081092 -0.007749 -413679.000000 0 0 1
18.908266 25.200902 1.914073 31.563771 0.927102 1.510118 0.077932 -0.017592 -491060.000000 0 0 1
19.707566 24.702602 2.928673 31.736160 0.897402 1.478383 0.078868 -0.013847 -357221.000000 0 0 1
20.880366 23.759602 2.527873 31.731664 0.849808 1.491048 0.081281 -0.012206 -88884.900000 0 0 1
20.544966 22.640202 1.722073 30.620906 0.833878 1.514528 0.081919 -0.009258 113670.000000 0 0 1
21.651466 21.832502 1.343273 30.777403 0.789561 1.527138 0.045453 -0.006828 171888.000000 0 0 1
21.359266 20.857402 0.116773 29.854030 0.773511 1.566885 0.079108 -0.013992 -343060.000000 0 0 1
21.165066 21.434902 -1.114827 30.143953 0.791732 1.607788 0.067090 -0.009901 281597.000000 0 0 1
21.190166 20.544902 -2.216427 29.597782 0.769938 1.645751 0.102316 -0.016258 -122616.000000 0 0 1
21.064666 21.304002 -3.626227 30.178306 0.791047 1.691247 0.082639 -0.012268 -335296.000000 0 0 1
22.196566 22.109402 -3.800927 31.558838 0.783431 1.691529 0.072930 -0.009431 136864.000000 0 0 1
22.125266 22.740502 -5.085227 32.132808 0.799110 1.729721 0.051553 -0.005817 -625782.000000 0 0 1
23.238466 23.753502 -5.350527 33.658332 0.796358 1.730439 0.047375 0.007024 -541124.000000 0 0 1
23.260466 25.014902 -4.638027 34.471813 0.821724 1.705751 0.028633 0.013027 141251.000000 0 0 1
23.674366 24.951802 -3.245027 34.548491 0.811663 1.664862 0.049669 0.005544 -222040.000000 0 0 1
22.533866 24.622302 -2.273327 33.454460 0.829657 1.638802 0.041773 -0.004626 -1616860.000000 0 0 1
21.676766 25.684902 -1.979827 33.667731 0.869825 1.629635 0.043362 -0.000148 883106.000000 0 0 1
20.516166 25.362502 -1.187827 32.643231 0.890642 1.607193 0.054769 -0.002297 634408.000000 0 0 1
19.592866 24.225402 -1.653127 31.200694 0.890728 1.623805 0.088101 -0.018394 -1528110.000000 0 0 1
18.795466 24.574702 -2.765227 31.061745 0.917871 1.659938 0.069688 -0.010075 8514.770000 0 0 1
18.019566 23.552502 -3.293027 29.837378 0.917713 1.681387 0.072343 -0.016939 -19981.800000 0 0 1
17.187166 23.986802 -4.540427 29.856001 0.949065 1.723466 0.066708 -0.024205 617393.000000 0 0 1
16.398466 22.882702 -5.109727 28.611834 0.948995 1.750347 0.073443 -0.026554 780886.000000 0 0 1
16.242166 22.999602 -6.513727 28.900143 0.955926 1.798137 0.059950 -0.029377 -297992.000000 0 0 1
15.391166 21.992702 -7.227027 27.799224 0.960184 1.833790 0.077964 -0.023814 -556930.000000 0 0 1
16.150166 20.786902 -7.412327 27.347134 0.910276 1.845276 0.062063 -0.016863 646468.000000 0 0 1
15.517566 19.889402 -8.322227 26.563935 0.908250 1.889452 0.085848 -0.018730 -261719.000000 0 0 1
16.374066 18.686902 -8.728627 26.334375 0.851269 1.908640 0.074408 -0.011716 -151212.000000 0 0 1
17.549066 19.004402 -9.450627 27.539996 0.825191 1.921076 0.064478 -0.015859 213411.000000 0 0 1
17.948466 17.818202 -10.099127 27.232850 0.781756 1.950714 0.073476 -0.017284 770797.000000 0 0 1
19.433266 17.881602 -10.636727 28.470046 0.743839 1.953695 0.058365 -0.012072 764505.000000 0 0 1
19.545466 18.529802 -11.854527 29.426325 0.758729 1.985430 0.053122 -0.010738 -244139.000000 0 0 1
20.887466 18.623802 -12.231227 30.540713 0.728169 1.982847 0.050273 -0.007159 -403064.000000 0 0 1
21.045666 19.074902 -13.703527 31.536623 0.736317 2.020310 0.041324 -0.012575 -145990.000000 0 0 1
20.753966 18.006602 -14.541027 31.087076 0.714636 2.057541 0.037885 -0.006146 181376.000000 0 0 1
21.227166 18.328302 -15.818327 32.198427 0.712243 2.084351 0.028485 -0.007899 11831.400000 0 0 1
21.153966 17.149602 -16.873827 32.036310 0.681234 2.125521 0.032369 -0.010299 130796.000000 0 0 1
22.136066 16.118802 -16.661927 32.053721 0.629382 2.117428 0.039846 -0.009059 548966.000000 0 0 1
22.359366 15.256602 -17.825227 32.410552 0.598772 2.153139 0.054581 -0.019243 -221209.000000 0 0 1
23.166266 15.834502 -18.999827 33.888063 0.599577 2.165984 0.060819 -0.023009 163688.000000 0 0 1
24.530966 16.088102 -18.615127 34.743608 0.580462 2.136234 0.079536 -0.024077 640304.000000 0 0 1
25.242866 16.459402 -19.760027 36.035717 0.577809 2.151181 0.108664 -0.035372 -1505260.000000 0 0 1
26.720666 16.489202 -19.497527 36.959997 0.552895 2.126487 0.102360 -0.037794 -1186210.000000 0 0 1
27.117866 17.624902 -18.793127 37.405848 0.576331 2.097182 0.090496 -0.029919 674804.000000 0 0 1
28.471166 17.715602 -18.334427 38.217811 0.556605 2.071149 0.090466 -0.041722 576177.000000 0 0 1
28.447166 18.915002 -17.330127 38.306029 0.586790 2.040265 0.078239 -0.031626 97501.100000 0 0 1
27.693466 18.699102 -16.153927 37.115143 0.593899 2.021099 0.070443 -0.033036 299401.000000 0 0 1
26.392366 19.261902 -16.161927 36.452514 0.630466 2.030151 0.081728 -0.029766 -131553.000000 0 0 1
25.530166 18.859502 -14.952027 35.086084 0.636239 2.011032 0.070358 -0.021361 40117.600000 0 0 1
26.034666 19.231402 -13.628027 35.119422 0.636220 1.969309 0.068694 -0.024522 255355.000000 0 0 1
25.038666 19.066502 -12.663027 33.923717 0.650809 1.953338 0.061100 -0.024528 -95490.300000 0 0 1
25.521366 19.560902 -11.238227 34.062689 0.653947 1.907023 0.068192 -0.022105 85821.000000 0 0 1
25.666966 20.984602 -11.223527 35.001632 0.685364 1.897220 0.063140 -0.015810 218247.000000 0 0 1
26.240666 21.583202 -10.036327 35.427885 0.688316 1.858018 0.062656 -0.012752 215564.000000 0 0 1
25.394666 21.447802 -8.754227 34.373446 0.701338 1.828313 0.070183 -0.012330 -519128.000000 0 0 1
25.571066 20.218002 -8.113127 33.592706 0.669019 1.814723 0.085541 -0.023309 -95912.100000 0 0 1
24.732666 19.960302 -7.032127 32.551025 0.679020 1.788547 0.089283 -0.021331 192669.000000 0 0 1
23.231366 19.618602 -7.265727 31.263025 0.701285 1.805347 0.090218 -0.018051 282384.000000 0 0 1
22.460866 20.700302 -7.682227 31.496184 0.744630 1.817192 0.067627 -0.010855 1276040.000000 0 0 1
21.039766 20.466502 -7.877627 30.390895 0.771588 1.833001 0.056742 -0.011982 1786880.000000 0 0 1
20.169666 21.780302 -8.023327 30.750134 0.823774 1.834771 0.032215 -0.007522 -88465.400000 0 0 1
20.403766 22.532002 -9.193127 31.757178 0.834926 1.864482 0.038835 -0.007442 224513.000000 0 0 1
19.692766 22.075602 -10.343627 31.338919 0.842385 1.907160 0.037983 0.003202 166355.000000 0 0 1
18.223966 22.557302 -10.429327 30.817457 0.891259 1.916037 0.044412 -0.006231 -225647.000000 0 0 1
18.056966 23.948102 -10.423527 31.752410 0.924738 1.905273 0.051763 -0.017057 -646756.000000 0 0 1
16.744566 24.368002 -10.582427 31.403308 0.968744 1.914509 0.060489 -0.017264 -639562.000000 0 0 1
16.571266 25.782602 -9.964627 32.227988 0.999548 1.885139 0.064904 -0.017738 157799.000000 0 0 1
17.395566 26.802002 -10.523427 33.640683 0.995096 1.888955 0.090779 -0.011614 294136.000000 0 0 1
17.052566 27.973902 -9.823027 34.202647 1.023356 1.862100 0.086717 -0.033606 59159.700000 0 0 1
20.461066 28.902102 33.268996 48.588197 0.954759 0.816586 0.049423 0.007287 -433248.000000 0 0 1
19.130666 29.282302 33.422711 48.378850 0.992092 0.808127 0.074182 -0.013206 -765613.000000 0 0 1
18.312266 28.137402 33.436761 47.382164 0.993848 0.787410 0.069199 -0.014366 -447259.000000 0 0 1
16.843666 28.417502 33.738607 47.218186 1.035746 0.774850 0.103801 -0.030749 -639094.000000 0 0 1
16.109666 28.908502 32.672908 46.505287 1.062393 0.791803 0.087931 -0.027959 -255780.000000 0 0 1
14.831666 29.361602 33.120556 46.680330 1.103047 0.781982 0.115454 -0.042053 499394.000000 0 0 1
13.942966 29.663202 31.868743 45.715737 1.131401 0.799442 0.098271 -0.039935 -119960.000000 0 0 1
13.536166 28.435702 31.357113 44.441933 1.126510 0.787562 0.078300 -0.037005 -326476.000000 0 0 1
12.431766 28.622802 30.494413 43.631672 1.161049 0.796930 0.070202 -0.002832 210831.000000 0 0 1
11.456166 27.395802 30.464323 42.542316 1.174723 0.772605 0.047081 -0.010828 82703.600000 0 0 1
11.560566 26.386202 29.467753 41.209547 1.157858 0.774071 0.041636 -0.008991 1201880.000000 0 0 1
12.828666 25.676702 29.608413 41.237432 1.107450 0.769874 0.028204 -0.010356 1239510.000000 0 0 1
13.101766 24.811202 28.318333 39.864520 1.084955 0.780781 0.037828 0.002818 -366514.000000 0 0 1
13.269966 25.515302 27.092473 39.511071 1.091215 0.815241 0.013797 0.001623 123707.000000 0 0 1
13.308866 24.651402 25.994293 38.216760 1.075754 0.822788 0.022142 0.002193 -47227.400000 0 0 1
12.002166 23.937802 25.570703 37.026088 1.106038 0.808460 0.033042 0.004892 -292667.000000 0 0 1
12.128466 23.307502 24.316733 35.800039 1.090988 0.824073 0.043573 -0.000463 268791.000000 0 0 1
11.041766 22.429502 24.029853 34.676173 1.113338 0.805184 0.061620 -0.005590 203703.000000 0 0 1
11.031766 21.950402 22.555573 33.350770 1.105089 0.828050 0.078420 -0.008889 -149636.000000 0 0 1
10.533466 22.858002 21.622773 33.181116 1.138979 0.861027 0.080483 -0.020091 -18039.800000 0 0 1
10.543766 22.500902 20.261173 32.062076 1.132588 0.886748 0.084499 -0.015356 -450421.000000 0 0 1
10.178366 23.682202 19.219073 32.153049 1.164876 0.930121 0.071319 -0.024280 1417460.000000 0 0 1
8.775766 24.035602 19.099173 31.929651 1.220720 0.929588 0.070143 -0.027571 938228.000000 0 0 1
8.279566 24.734902 20.201073 32.991664 1.247787 0.911819 0.059979 -0.027147 419742.000000 0 0 1
6.904866 25.416302 19.828473 32.967164 1.305528 0.925467 0.061450 -0.028942 752919.000000 0 0 1
7.114766 26.522702 18.977173 33.379735 1.308714 0.966086 0.058816 -0.034663 -382157.000000 0 0 1
5.930566 27.174302 18.648473 33.487010 1.355924 0.980163 0.053756 -0.035483 -295023.000000 0 0 1
6.240366 28.292202 17.581173 33.889356 1.353704 1.025371 0.060822 -0.029765 111232.000000 0 0 1
6.220266 27.791702 16.262673 32.795501 1.350608 1.051947 0.057215 -0.020093 26866.900000 0 0 1
6.827966 28.678302 15.332773 33.228903 1.337060 1.091191 0.047535 -0.016498 -32877.100000 0 0 1
7.355466 28.060702 14.010173 32.214761 1.314437 1.120870 0.052161 -0.018396 263292.000000 0 0 1
6.373266 27.929202 12.982573 31.451646 1.346444 1.145294 0.051353 -0.021808 79119.300000 0 0 1
6.499466 26.759502 12.216073 30.125511 1.332526 1.153264 0.038455 -0.020172 76890.100000 0 0 1
6.026666 26.805302 10.744073 29.500508 1.349643 1.198023 0.036906 -0.020369 440977.000000 0 0 1
6.913566 27.623502 9.937473 30.159718 1.325556 1.235028 0.032812 -0.018583 656345.000000 0 0 1
6.811966 28.987502 10.123973 31.451120 1.339988 1.243066 0.031226 -0.017234 -324162.000000 0 0 1
6.799466 29.774402 8.785573 31.779459 1.346280 1.290694 0.042259 -0.010859 -404703.000000 0 0 1
5.639066 29.623802 8.011673 31.201852 1.382691 1.311119 0.034873 -0.020172 -240536.000000 0 0 1
5.455066 28.399702 7.327673 29.832794 1.381026 1.322632 0.018071 -0.010191 -539855.000000 0 0 1
3.971366 28.103902 7.079973 29.252813 1.430416 1.326342 0.030001 -0.015091 -291649.000000 0 0 1
3.472266 29.085702 6.158873 29.932698 1.451978 1.363559 0.045206 -0.015195 184607.000000 0 0 1
2.048166 29.051902 6.110673 29.758163 1.500413 1.363981 0.031681 -0.012056 387426.000000 0 0 1
1.580366 30.279702 5.333973 30.786509 1.518651 1.396661 0.032899 -0.020689 -414965.000000 0 0 1
1.820966 30.114102 3.938873 30.425150 1.510401 1.440971 0.034042 -0.015469 286732.000000 0 0 1
0.912566 30.812602 3.071373 30.978743 1.541188 1.471489 0.033992 -0.025392 1246770.000000 0 0 1
-0.197634 29.859102 2.442173 29.959460 -1.564178 1.489190 0.038177 -0.025273 698098.000000 0 0 1
0.365266 29.051402 1.425973 29.088671 1.558224 1.521755 0.035351 -0.015652 -216034.000000 0 0 1
-0.417834 27.935602 1.040573 27.958097 -1.555840 1.533569 0.040777 -0.019136 -97112.300000 0 0 1
-0.644034 28.023002 -0.517027 28.035169 -1.547818 1.589239 0.026494 -0.015350 -240632.000000 0 0 1
-1.639834 28.993202 -0.817127 29.051033 -1.514297 1.598927 0.028358 -0.019006 74850.900000 0 0 1
-1.393534 29.609602 -2.024427 29.711425 -1.523767 1.638985 0.033420 -0.017022 136351.000000 0 0 1
-2.464634 30.726702 -2.412927 30.919684 -1.490756 1.648914 0.046126 -0.022238 718145.000000 0 0 1
-3.629034 30.290002 -3.095627 30.663284 -1.451555 1.671924 0.039602 -0.021407 107520.000000 0 0 1
-3.420134 29.697702 -4.351027 30.208976 -1.456137 1.715330 0.031248 -0.020005 -124331.000000 0 0 1
-4.754234 29.364302 -5.091127 30.179207 -1.410284 1.740303 0.035429 -0.018510 844258.000000 0 0 1
-5.573734 30.491902 -5.456627 31.473757 -1.389998 1.745048 0.043722 -0.015807 -43680.000000 0 0 1
-6.465734 30.151202 -6.458127 31.505683 -1.359552 1.777243 0.045953 -0.014591 -259555.000000 0 0 1
-7.204134 31.415202 -7.059727 32.994760 -1.345374 1.786429 0.046148 -0.002347 87657.500000 0 0 1
-8.111234 32.066802 -6.203927 33.653538 -1.323045 1.756204 0.035717 -0.000181 -67107.500000 0 0 1
-8.615834 33.160602 -6.948827 34.959180 -1.316596 1.770899 0.032947 -0.006241 208575.000000 0 0 1
-9.749034 34.041602 -6.323027 35.970196 -1.291876 1.747500 0.040321 -0.006694 1216580.000000 0 0 1
-11.063934 33.470202 -6.496827 35.845136 -1.251543 1.753051 0.046661 0.002694 967.247000 0 0 1
-11.963034 -34.001115 -5.930527 36.528909 1.232481 1.733870 0.052459 0.002590 -19073.300000 0 0 1
-13.447334 34.061902 -6.276127 37.154188 -1.194788 1.740531 0.064117 0.002560 324355.000000 0 0 1
-13.835334 -34.053815 -7.622827 37.539130 1.184889 1.775282 0.072432 -0.002658 391086.000000 0 0 1
-15.159234 33.814202 -7.791727 37.867052 -1.149349 1.778042 0.081886 -0.004391 -619072.000000 0 0 1
-15.560034 33.857202 -9.253327 38.393343 -1.140006 1.814207 0.101089 -0.015025 166936.000000 0 0 1
-16.914434 33.586602 -9.572327 38.804476 -1.104268 1.820050 0.114769 -0.022357 117839.000000 0 0 1
-17.816134 -33.766915 -9.194527 39.270326 1.085297 1.807124 0.107006 -0.025740 -1579220.000000 0 0 1
-19.251434 34.077602 -9.325027 40.235019 -1.056563 1.804687 0.095719 -0.027501 -527192.000000 0 0 1
-19.745434 33.050302 -8.461727 39.418339 -1.032264 1.787145 0.082016 -0.024949 314412.000000 0 0 1
-19.936634 33.578202 -7.159527 39.701685 -1.034994 1.752121 0.060121 -0.008875 -681040.000000 0 0 1
-20.489834 32.556002 -6.180027 38.960483 -1.009059 1.730092 0.057818 -0.011895 -407378.000000 0 0 1
-20.228534 32.902902 -4.819727 38.923313 -1.019569 1.694941 0.064973 -0.015586 519541.000000 0 0 1
-21.452534 32.949402 -4.093427 39.530120 -0.993666 1.674534 0.076514 -0.021637 563579.000000 0 0 1
-22.150134 -34.003415 -4.055227 40.783643 0.993431 1.670394 0.089410 -0.027479 251481.000000 0 0 1
-22.697034 -33.642215 -5.354427 40.934385 0.977281 1.701977 0.096206 -0.024280 -101501.000000 0 0 1
-23.581634 -32.581915 -5.377127 40.578173 0.944298 1.703700 0.097709 -0.029924 -587605.000000 0 0 1
-24.365734 -32.548315 -6.658727 41.199763 0.928191 1.733129 0.095817 -0.028209 -440839.000000 0 0 1
-23.604934 -32.066815 -7.759127 40.566952 0.936240 1.763249 0.108758 -0.029189 231116.000000 0 0 1
-24.068934 -32.453815 -9.095527 41.416088 0.932669 1.792214 0.074648 -0.023300 64202.500000 0 0 1
-25.303474 -31.805715 -9.765627 41.799961 0.898766 1.806603 0.071406 -0.018865 -1054810.000000 0 0 1
-26.502124 -32.129315 -9.094827 42.630639 0.881081 1.785789 0.080887 -0.015285 241856.000000 0 0 1
-27.623204 -31.594815 -9.832227 43.103903 0.852365 1.800928 0.044704 -0.009327 542714.000000 0 0 1
-27.798974 -30.065515 -9.870327 42.120559 0.824548 1.807331 0.032907 -0.005892 -1234180.000000 0 0 1
-26.806924 -29.391215 -10.604527 41.169293 0.831351 1.831317 0.034875 0.001517 -208839.000000 0 0 1
-27.090684 -29.363815 -12.013027 41.718720 0.825641 1.862885 0.022907 -0.000821 -294214.000000 0 0 1
-26.007414 -28.682015 -12.830427 40.788030 0.834265 1.890793 0.038798 0.004201 429684.000000 0 0 1
-24.721634 -29.306115 -12.775727 40.413200 0.870050 1.892441 0.039871 -0.007075 498586.000000 0 0 1
-23.739034 -28.696215 -13.573327 39.638992 0.879657 1.920292 0.041198 -0.005645 -32735.000000 0 0 1
-22.408434 -29.464515 -13.665427 39.459339 0.920595 1.924438 0.059126 -0.024341 -298598.000000 0 0 1
-22.465734 -30.654915 -14.395227 40.640566 0.938356 1.932864 0.068069 -0.026322 24409.300000 0 0 1
-22.990434 -31.688815 -13.610027 41.448449 0.943156 1.905363 0.058086 -0.020243 -383699.000000 0 0 1
-23.161534 -33.034015 -14.340627 42.817711 0.959304 1.912320 0.051421 -0.022474 -521258.000000 0 0 1
-23.879734 -33.969915 -13.624827 43.701633 0.958082 1.887851 0.041741 -0.020987 -217961.000000 0 0 1
-23.992834 33.171802 -14.331127 43.375174 -0.944610 1.907523 0.035284 -0.025689 -307409.000000 0 0 1
-24.379334 32.040302 -13.348527 42.415988 -0.920358 1.890942 0.016743 -0.016856 -693926.000000 0 0 1
-23.517334 31.668702 -12.320527 41.325138 -0.932045 1.873536 0.020572 -0.012456 -329382.000000 0 0 1
-23.376534 32.531102 -11.206927 41.597237 -0.947702 1.843582 0.054514 -0.018108 -104613.000000 0 0 1
-22.634334 31.941102 -10.002527 40.405415 -0.954304 1.820951 0.051531 -0.017181 -143167.000000 0 0 1
-23.232434 30.774902 -9.466127 39.704510 -0.924157 1.811529 0.040543 -0.008399 229355.000000 0 0 1
-22.607634 30.360902 -8.275127 38.747480 -0.930741 1.786020 0.042782 -0.001790 -14386.200000 0 0 1
-23.519934 29.320702 -7.612427 38.351530 -0.894739 1.770614 0.044126 -0.010421 59626.500000 0 0 1
-23.257734 28.034902 -8.173927 37.332171 -0.878266 1.791536 0.039823 -0.003062 -30236.200000 0 0 1
-23.833034 26.952402 -7.462527 36.744180 -0.846744 1.775313 0.037412 -0.013471 331189.000000 0 0 1
-22.938334 26.408602 -6.280827 35.539136 -0.855606 1.748459 0.050955 -0.012560 -20066.000000 0 0 1
-22.977334 27.199502 -5.083527 35.966832 -0.869346 1.712611 0.066772 -0.013662 120580.000000 0 0 1
-21.956834 26.872202 -4.147827 34.948852 -0.885725 1.689760 0.056770 -0.009209 -363532.000000 0 0 1
-20.648934 27.629702 -4.378127 34.769913 -0.928996 1.697049 0.032761 -0.017209 -472926.000000 0 0 1
-20.012134 27.312702 -5.655027 34.328538 -0.938457 1.736283 0.025849 -0.012452 297040.000000 0 0 1
-18.764734 28.014502 -5.621127 34.183689 -0.980612 1.735985 0.058235 -0.011428 395995.000000 0 0 1
-18.055334 27.812102 -7.011227 33.891966 -0.994991 1.779171 0.083122 -0.018723 -152554.000000 0 0 1
-18.440234 28.501802 -8.204727 34.924382 -0.996544 1.807941 0.091857 -0.021663 34933.200000 0 0 1
-18.201534 29.890702 -8.290427 35.964998 -1.023832 1.803402 0.092920 -0.018121 -63032.800000 0 0 1
-18.369334 30.410402 -9.733827 36.837105 -1.027406 1.838212 0.080664 -0.019685 338454.000000 0 0 1
-17.230034 30.073502 -10.532927 36.224745 -1.050519 1.865824 0.098504 -0.023764 479559.000000 0 0 1
-17.074634 30.839102 -11.729527 37.150708 -1.065141 1.892020 0.090843 -0.031614 335307.000000 0 0 1
-15.615034 30.867102 -12.294927 36.712021 -1.102456 1.912297 0.114921 -0.028992 622084.000000 0 0 1
-15.293834 31.447202 -13.558327 37.505414 -1.118141 1.940676 0.116846 -0.032463 -79014.700000 0 0 1
-15.909734 30.819402 -14.710527 37.674325 -1.094253 1.971934 0.116512 -0.039371 -86556.900000 0 0 1
-15.490334 31.370902 -16.046427 38.491190 -1.112137 2.000813 0.174741 -0.045354 412873.000000 0 0 1
-14.115734 31.237202 -16.388427 37.994700 -1.146373 2.016768 0.164604 -0.054638 117340.000000 0 0 1
-13.652634 31.816502 -17.567127 38.823809 -1.165453 2.040344 0.138680 -0.062524 -175121.000000 0 0 1
-12.131134 32.072902 -17.495727 38.495921 -1.209191 2.042588 0.150992 -0.060760 30765.300000 0 0 1
-11.371834 30.851602 -17.535127 37.264200 -1.217650 2.060724 0.158542 -0.067435 887271.000000 0 0 1
-10.018234 31.067302 -17.970327 37.262245 -1.258856 2.074036 0.139224 -0.059860 848703.000000 0 0 1
-9.857134 31.001302 -19.550227 37.953329 -1.262946 2.111935 0.139962 -0.062650 -390835.000000 0 0 1
-10.317134 29.719702 -20.009327 37.283738 -1.236665 2.137290 0.131126 -0.063414 252393.000000 0 0 1
-10.154634 29.565502 -21.448727 37.911520 -1.239958 2.172148 0.107570 -0.056301 -254303.000000 0 0 1
-11.470034 29.499202 -22.257627 38.693236 -1.199960 2.183685 0.110934 -0.050352 100947.000000 0 0 1
-12.252734 30.655102 -22.326227 39.853797 -1.190552 2.165427 0.122028 -0.051936 -602258.000000 0 0 1
-13.277334 30.753702 -21.395427 39.747227 -1.163238 2.139200 0.125969 -0.053416 -362936.000000 0 0 1
-14.152834 32.029802 -21.667527 41.178789 -1.154728 2.124901 0.149633 -0.052162 268757.000000 0 0 1
-14.989434 31.974202 -22.794927 42.031434 -1.132421 2.144005 0.106955 -0.045053 37123.400000 0 0 1
-15.723734 33.190102 -22.996027 43.331697 -1.128370 2.130220 0.100473 -0.045108 480841.000000 0 0 1
-16.240034 33.427502 -24.452327 44.486547 -1.118550 2.152750 0.081804 -0.035468 338048.000000 0 0 1
-15.142334 33.459602 -25.368927 44.636506 -1.145819 2.175289 0.078570 -0.030526 261552.000000 0 0 1
-15.456234 33.124502 -26.734227 45.286275 -1.134215 2.202274 0.079100 -0.021684 62104.400000 0 0 1
-15.789534 -34.010815 -27.619527 46.571270 1.136155 2.205650 0.069539 -0.017197 22515.900000 0 0 1
-16.963634 -33.420415 -27.126627 46.266002 1.101101 2.197303 0.064114 -0.007640 -561666.000000 0 0 1
-17.493534 -32.446815 -27.974427 46.275135 1.076325 2.219964 0.049915 0.001633 -549509.000000 0 0 1
-18.900034 -32.030115 -27.589127 46.306582 1.037710 2.209049 0.054562 -0.008901 213718.000000 0 0 1
-19.910834 -33.031815 -27.867927 47.583227 1.028337 2.196499 0.047345 -0.010359 993839.000000 0 0 1
-21.239234 -32.629315 -27.496027 47.663495 0.993771 2.185698 0.036239 -0.007281 1311630.000000 0 0 1
-22.366834 -33.677015 -27.498527 48.893615 0.984533 2.168101 0.013785 0.001350 39094.500000 0 0 1
-22.437434 33.863902 -26.338927 48.414268 -0.985631 2.146032 0.044977 -0.012714 -190863.000000 0 0 1
-23.572634 33.002602 -26.316727 48.346778 -0.950560 2.146390 0.027342 -0.010849 29266.600000 0 0 1
-23.556134 31.741802 -27.193627 47.978399 -0.932359 2.173399 0.047042 -0.015789 119692.000000 0 0 1
-22.632334 30.732002 -26.827427 46.651788 -0.936029 2.183470 0.054597 -0.041857 -112444.000000 0 0 1
-23.236534 29.884602 -25.891127 45.862582 -0.909900 2.170669 0.040752 -0.037347 -152971.000000 0 0 1
30.936448 10.158402 -26.955177 42.271013 0.317271 2.262273 0.093258 -0.015343 14485.000000 0 0 1
30.946638 8.759802 -26.607717 41.742055 0.275845 2.261957 0.079470 -0.010749 206377.000000 0 0 1
29.695648 8.128202 -26.806997 40.822963 0.267173 2.287184 0.086267 -0.013415 142871.000000 0 0 1
29.654588 6.645102 -26.234427 40.147193 0.220442 2.282938 0.072699 -0.007967 -98932.200000 0 0 1
29.764958 6.522502 -24.847627 39.317939 0.215724 2.254885 0.057468 0.001366 296517.000000 0 0 1
29.058778 5.393002 -24.371627 38.307614 0.183502 2.260370 0.055712 0.000816 17350.000000 0 0 1
29.176188 5.361902 -22.833627 37.434936 0.181749 2.226800 0.055120 0.006805 -2803.410000 0 0 1
30.453978 4.979902 -22.379227 38.119208 0.162088 2.198250 0.050442 0.001063 -4827.600000 0 0 1
30.497348 5.039502 -20.928127 37.329229 0.163764 2.165951 0.046356 0.001580 -223241.000000 0 0 1
31.832088 4.656402 -20.258927 38.018259 0.145250 2.132789 0.036857 0.003071 -281926.000000 0 0 1
32.138658 3.287202 -20.129727 38.064484 0.101927 2.128020 0.044219 0.007585 67269.800000 0 0 1
33.221228 3.099002 -19.250827 38.520750 0.093015 2.094109 0.050067 0.004361 -127694.000000 0 0 1
33.781948 1.641202 -19.167627 38.875590 0.048544 2.086389 0.061404 -0.004731 386199.000000 0 0 1
32.873258 0.652902 -18.635127 37.793456 0.019859 2.086421 0.077152 -0.000130 432762.000000 0 0 1
33.385358 -0.647398 -18.802027 38.321241 -0.019389 2.083623 0.081044 0.003277 27434.500000 0 0 1
32.333138 -1.671598 -18.343027 37.211459 -0.051653 2.086262 0.063274 0.003221 225659.000000 0 0 1
32.163828 -1.863298 -16.906527 36.384260 -0.057867 2.054054 0.061960 -0.003391 -652394.000000 0 0 1
30.888908 -1.486198 -16.508927 35.055358 -0.048077 2.061151 0.056998 -0.006810 -587549.000000 0 0 1
30.416528 -1.832098 -15.080127 33.999000 -0.060161 2.030348 0.063343 -0.003890 -83754.400000 0 0 1
30.233708 -3.208498 -14.822127 33.824060 -0.105727 2.024405 0.064407 0.002658 383292.000000 0 0 1
29.463328 -3.524298 -13.686027 32.677450 -0.119051 2.002944 0.069291 -0.002726 -236735.000000 0 0 1
29.261048 -5.047498 -13.514327 32.623967 -0.170818 1.997910 0.061272 0.002835 87630.400000 0 0 1
28.572438 -5.724098 -14.570227 32.579764 -0.197719 2.034448 0.049228 -0.002875 522131.000000 0 0 1
28.301148 -7.074298 -14.339227 32.505601 -0.244946 2.027655 0.045243 -0.007008 -306649.000000 0 0 1
27.606288 -7.875098 -15.449427 32.600753 -0.277884 2.064508 0.027322 -0.004551 922772.000000 0 0 1
26.251388 -7.405998 -15.657127 31.450434 -0.274972 2.091897 0.036257 -0.013189 929077.000000 0 0 1
25.541788 -8.270698 -16.517727 31.521781 -0.313156 2.122349 0.022536 -0.010378 783677.000000 0 0 1
24.071188 -7.737598 -16.695227 30.298897 -0.311015 2.154380 0.039780 -0.012859 391144.000000 0 0 1
23.988388 -6.563898 -17.467727 30.391594 -0.267090 2.183101 0.037888 -0.007313 -82237.900000 0 0 1
22.733088 -6.283498 -18.046427 29.697629 -0.269670 2.223923 0.069887 -0.020405 -94658.900000 0 0 1
22.516688 -6.896198 -19.479327 30.561462 -0.297200 2.261892 0.048997 -0.010723 -64810.800000 0 0 1
23.300588 -6.240698 -20.457927 31.628950 -0.261692 2.274191 0.041417 -0.012204 330753.000000 0 0 1
23.247688 -6.871098 -21.753027 32.570864 -0.287379 2.302136 0.049674 -0.012863 106709.000000 0 0 1
23.777288 -5.914198 -22.900027 33.537269 -0.243786 2.322416 0.059655 -0.014897 -84114.100000 0 0 1
23.763288 -6.406098 -24.183527 34.504709 -0.263320 2.347421 0.069150 -0.016994 200913.000000 0 0 1
23.739588 -5.365098 -25.153507 35.000732 -0.222264 2.372665 0.071695 -0.021876 -270515.000000 0 0 1
23.487688 -5.915298 -26.595927 35.972289 -0.246716 2.402893 0.080189 -0.024517 66480.200000 0 0 1
22.193588 -6.414898 -26.893747 35.453912 -0.281374 2.431889 0.085665 -0.023113 100718.000000 0 0 1
22.092288 -6.668398 -28.282327 36.502421 -0.293147 2.457206 0.076435 -0.028528 -226603.000000 0 0 1
20.803988 -7.355398 -28.735877 36.230629 -0.339840 2.486740 0.077119 -0.032973 -260950.000000 0 0 1
20.679988 -8.687998 -28.273397 36.090556 -0.397727 2.470916 0.078135 -0.024393 28195.100000 0 0 1
19.745988 -9.355098 -29.069297 36.365450 -0.442446 2.497035 0.067847 -0.028883 -299722.000000 0 0 1
19.794688 -10.857998 -28.866037 36.646608 -0.501715 2.477841 0.077715 -0.023974 -222596.000000 0 0 1
19.131988 -11.241798 -27.683467 35.479365 -0.531246 2.465893 0.076546 -0.019775 198558.000000 0 0 1
19.173088 -12.604098 -27.247477 35.621561 -0.581549 2.441706 0.070565 -0.018669 -442576.000000 0 0 1
19.035788 -13.773598 -28.214407 36.716836 -0.626366 2.447184 0.053752 -0.011565 14255.700000 0 0 1
17.760588 -13.934998 -28.811057 36.601908 -0.665281 2.476965 0.053017 -0.014242 343716.000000 0 0 1
17.852588 -14.855198 -29.938127 37.890412 -0.694012 2.481808 0.048485 -0.012464 148765.000000 0 0 1
16.522588 -15.146098 -30.724977 38.031887 -0.741960 2.511332 0.053095 -0.019257 28736.000000 0 0 1
15.649588 -15.916698 -29.966407 37.366248 -0.793860 2.501373 0.058750 -0.026350 -488279.000000 0 0 1
14.609388 -16.359198 -30.798007 37.809719 -0.841841 2.522754 0.060736 -0.036571 -704616.000000 0 0 1
13.511588 -17.028798 -29.987737 37.037918 -0.900059 2.514351 0.077162 -0.039397 -402669.000000 0 0 1
13.796688 -18.396098 -29.724857 37.581008 -0.927309 2.483163 0.065009 -0.032064 130771.000000 0 0 1
12.798688 -18.912098 -28.863347 36.804439 -0.975848 2.472259 0.075148 -0.027205 -53681.200000 0 0 1
13.169888 -20.172598 -28.057057 36.980781 -0.992413 2.432101 0.078064 -0.029206 -39937.800000 0 0 1
14.213788 -19.859998 -27.155337 36.522098 -0.949611 2.409133 0.062763 -0.021330 -15563.600000 0 0 1
14.131788 -20.670498 -25.974827 36.078645 -0.971115 2.374527 0.055369 -0.011734 -566537.000000 0 0 1
15.216188 -20.373398 -24.945727 35.621581 -0.929304 2.346611 0.047715 -0.001892 -1354810.000000 0 0 1
16.478588 -20.761698 -25.345617 36.674137 -0.899908 2.333811 0.035950 0.001129 -859017.000000 0 0 1
17.272088 -20.884498 -24.198127 36.332309 -0.879790 2.299660 0.028051 0.014436 694187.000000 0 0 1
18.755888 -21.373398 -24.472527 37.516797 -0.850533 2.281423 0.010974 0.016503 922583.000000 0 0 1
18.939388 -22.696598 -24.899227 38.649806 -0.875394 2.270808 0.030060 0.003771 92291.000000 0 0 1
18.789288 -23.665998 -23.877027 38.512715 -0.899764 2.239511 0.038187 -0.013154 -510317.000000 0 0 1
19.403988 -25.061998 -24.054127 39.789692 -0.911962 2.219974 0.044658 -0.014679 409453.000000 0 0 1
20.825188 -24.979198 -23.861627 40.336411 -0.875841 2.203795 0.046604 -0.010047 559209.000000 0 0 1
21.357788 -26.142728 -23.306227 41.021672 -0.885794 2.175045 0.061611 -0.025910 -213134.000000 0 0 1
21.368188 -26.243498 -21.776327 40.243373 -0.887440 2.142560 0.089215 -0.027930 -654240.000000 0 0 1
20.127788 -26.583558 -21.220127 39.523502 -0.922734 2.137553 0.079942 -0.023351 -255862.000000 0 0 1
20.178388 -26.680948 -19.797427 38.871307 -0.923285 2.105176 0.070802 -0.025375 -553283.000000 0 0 1
18.841288 -26.973898 -19.110527 38.049935 -0.961077 2.096994 0.062985 -0.018971 -436429.000000 0 0 1
18.616788 -28.396458 -19.300927 39.057258 -0.990493 2.087676 0.060356 -0.021115 478475.000000 0 0 1
17.409888 -28.946278 -18.775027 38.645736 -1.029308 2.078102 0.040098 -0.012245 1086260.000000 0 0 1
16.066788 -28.721918 -19.551327 38.279821 -1.060772 2.106850 0.044506 -0.013056 658102.000000 0 0 1
15.358388 -27.543768 -19.177727 36.909680 -1.062137 2.117162 0.044749 -0.008569 381675.000000 0 0 1
14.041988 -27.516048 -19.727927 36.653806 -1.098927 2.139124 0.039676 0.000411 1144060.000000 0 0 1
13.041988 -26.467278 -19.081627 35.138565 -1.112958 2.144849 0.026590 -0.005494 -23602.800000 0 0 1
12.704788 -26.844328 -17.735227 34.591442 -1.128755 2.109130 0.031106 -0.002626 -161603.000000 0 0 1
11.754588 -26.097708 -17.007527 33.294395 -1.147604 2.106938 0.033277 -0.006109 128941.000000 0 0 1
10.283388 -26.157068 -17.482427 33.099480 -1.196218 2.127250 0.040524 -0.010198 -422247.000000 0 0 1
9.639388 -27.321098 -17.075427 33.629309 -1.231613 2.103372 0.050516 0.000578 -245552.000000 0 0 1
8.248288 -27.205688 -16.884627 33.064700 -1.276422 2.106742 0.041204 0.002629 125816.000000 0 0 1
7.365188 -27.937198 -17.893227 33.983829 -1.313028 2.125300 0.041341 -0.005973 -94340.400000 0 0 1
7.463988 -27.401008 -19.167827 34.262691 -1.304851 2.164503 0.043981 -0.009587 83654.200000 0 0 1
6.549588 -28.113588 -19.974927 35.103685 -1.341910 2.176118 0.048774 -0.008584 -80844.600000 0 0 1
6.744188 -27.572208 -21.381427 35.536969 -1.330906 2.216383 0.044253 -0.021480 -150285.000000 0 0 1
6.298388 -26.243388 -21.596227 34.565621 -1.335252 2.245658 0.061081 -0.024886 96137.600000 0 0 1
6.437088 -25.796328 -22.947427 35.120807 -1.326255 2.282844 0.053511 -0.020610 710233.000000 0 0 1
5.144388 -24.960098 -23.357627 34.569495 -1.367538 2.312672 0.040649 -0.018154 1517380.000000 0 0 1
3.949588 -25.750378 -23.424327 35.033988 -1.418603 2.303144 0.035232 -0.009647 360378.000000 0 0 1
2.870288 -24.997598 -23.969527 34.751356 -1.456474 2.331931 0.050302 -0.014789 389953.000000 0 0 1
1.702088 -25.963258 -24.282227 35.589527 -1.505332 2.321681 0.032461 -0.018170 -247460.000000 0 0 1
1.980788 -26.857718 -25.425167 37.036464 -1.497178 2.327447 0.021557 -0.011079 -38303.700000 0 0 1
0.969488 -27.736808 -25.820037 37.907054 -1.535857 2.320116 0.026112 -0.024038 -139705.000000 0 0 1
1.572888 -28.648518 -26.930897 39.350792 -1.515948 2.324549 0.012905 -0.005634 31261.700000 0 0 1
1.948088 -28.048258 -28.160427 39.793335 -1.501453 2.356987 0.015447 -0.012887 56106.500000 0 0 1
2.228488 -29.046608 -29.163347 41.221020 -1.494225 2.356733 0.025832 -0.015432 110410.000000 0 0 1
3.640388 -29.686868 -29.202217 41.801101 -1.448779 2.344234 0.023788 -0.007039 -183305.000000 0 0 1
4.126488 -30.390708 -28.084747 41.585768 -1.435840 2.312229 0.013563 -0.016938 -444598.000000 0 0 1
5.167588 -31.183738 -28.597387 42.625580 -1.406575 2.306215 0.018077 -0.008907 -64185.000000 0 0 1
5.771688 -32.041848 -27.470297 42.598236 -1.392578 2.271649 0.038701 -0.017123 70420.100000 0 0 1
4.972888 -33.215548 -27.363627 43.321708 -1.422184 2.254460 0.043085 -0.023817 284616.000000 0 0 1
5.414288 -34.162993 -26.434487 43.533972 -1.413620 2.223347 0.058145 -0.035675 345981.000000 0 0 1
4.253488 33.232128 -25.974047 42.392424 1.443495 2.230275 0.077545 -0.046731 404993.000000 0 0 1
3.784188 32.344880 -27.011707 42.310089 1.454331 2.263243 0.074253 -0.047006 -118129.000000 0 0 1
2.488888 31.889339 -26.705787 41.669216 1.492907 2.266466 0.059390 -0.041306 166117.000000 0 0 1
1.519988 32.331948 -27.877137 42.717678 1.523819 2.281794 0.068592 -0.027582 -204618.000000 0 0 1
1.491588 31.436669 -28.967727 42.774036 1.523384 2.314783 0.078770 -0.029969 45031.000000 0 0 1
0.574688 31.993139 -29.902247 43.795383 1.552835 2.322346 0.075308 -0.040193 236078.000000 0 0 1
0.124688 30.959639 -30.942427 43.771550 1.566769 2.355912 0.071438 -0.034254 -2229.710000 0 0 1
1.139088 30.668619 -31.884207 44.254541 1.533672 2.375281 0.086942 -0.038832 96393.100000 0 0 1
0.678788 29.811029 -32.896197 44.399527 1.548031 2.405225 0.097141 -0.033888 -306987.000000 0 0 1
1.808188 29.399169 -33.835657 44.860142 1.509369 2.425304 0.094399 -0.027490 -195415.000000 0 0 1
2.156888 30.500869 33.758845 45.547939 1.500198 0.735982 0.088183 -0.029249 -318098.000000 0 0 1
3.157488 30.137659 32.821714 44.671166 1.466408 0.745512 0.064128 -0.028078 -439700.000000 0 0 1
2.853788 29.352479 31.528333 43.171146 1.473876 0.752020 0.071160 -0.011429 -291423.000000 0 0 1
2.542888 27.992219 31.658063 42.335133 1.480202 0.726059 0.071262 -0.014443 -588212.000000 0 0 1
3.658688 27.186559 31.815493 42.008577 1.437023 0.711540 0.058718 -0.005743 -845340.000000 0 0 1
3.290088 25.727739 32.208163 41.353439 1.443606 0.677965 0.045494 -0.005272 20899.000000 0 0 1
2.790088 24.928039 31.097133 39.952764 1.459335 0.678767 0.059620 0.000872 437061.000000 0 0 1
3.249088 23.599809 31.276613 39.315824 1.433982 0.650927 0.039754 0.005515 -9478.870000 0 0 1
2.490288 22.565219 30.401013 37.942222 1.460882 0.641423 0.039887 0.018106 388306.000000 0 0 1
1.113088 22.414219 30.694243 38.023318 1.521177 0.631322 0.049968 0.000139 -80664.500000 0 0 1
0.486588 21.730819 29.647303 36.761771 1.548408 0.632637 0.042481 0.008397 536918.000000 0 0 1
-0.984712 21.296919 29.922653 36.740897 -1.524592 0.619061 0.042966 0.005266 115032.000000 0 0 1
-1.934412 22.282719 30.038893 37.451256 -1.484201 0.640027 0.049382 -0.005073 -338855.000000 0 0 1
-3.247112 21.788919 30.154883 37.344580 -1.422859 0.630934 0.042045 -0.011571 321445.000000 0 0 1
-4.380012 22.825719 30.389933 38.258933 -1.381211 0.652905 0.032420 -0.019878 233142.000000 0 0 1
-4.388512 23.425809 31.666003 39.632856 -1.385606 0.645193 0.048610 -0.022802 -151831.000000 0 0 1
-5.453912 24.286719 31.951263 40.502753 -1.349897 0.661834 0.030897 -0.021711 -184527.000000 0 0 1
-5.281912 24.983069 33.329208 41.986765 -1.362445 0.653760 0.047904 -0.015615 -260044.000000 0 0 1
-6.524512 25.362919 33.843332 42.792733 -1.319010 0.658573 0.029684 -0.010549 -233388.000000 0 0 1
-6.449712 25.845519 -33.193377 42.560427 -1.326243 2.465321 0.032854 -0.009748 875741.000000 0 0 1
-7.854212 26.355739 -32.674407 42.707499 -1.281168 2.441953 0.030230 0.001915 645831.000000 0 0 1
-8.326012 27.528149 -33.324657 44.018794 -1.277089 2.429590 0.024676 0.002841 190797.000000 0 0 1
-9.664912 27.883209 -33.016737 44.283053 -1.237135 2.412207 0.022711 0.006050 388145.000000 0 0 1
-9.870812 28.430139 -31.542567 43.596322 -1.236622 2.379676 0.015723 0.005454 -401236.000000 0 0 1
-9.255712 29.671619 -31.225237 44.057787 -1.268423 2.358498 0.020897 0.005750 162955.000000 0 0 1
-9.228112 29.739369 -29.789227 43.092762 -1.269917 2.334057 0.038825 0.000461 -564129.000000 0 0 1
-8.733812 31.061079 -29.264217 43.559896 -1.296692 2.307454 0.036226 -0.007477 648550.000000 0 0 1
-7.322112 31.208849 -29.537827 43.590008 -1.340348 2.315329 0.028016 -0.004228 788570.000000 0 0 1
-6.808912 32.394975 -28.945597 43.973211 -1.363628 2.289295 0.041171 -0.006078 -896775.000000 0 0 1
-5.315212 32.555903 -29.050787 43.955506 -1.408960 2.292832 0.037566 -0.010726 -1195600.000000 0 0 1
-4.836812 33.797958 -28.650347 44.570608 -1.428652 2.268955 0.054789 -0.015334 -133827.000000 0 0 1
-4.616312 -33.555728 -29.618947 44.995325 1.434083 2.289311 0.054407 -0.017235 -288612.000000 0 0 1
-3.522512 -33.737918 -30.682527 45.739181 1.466765 2.306103 0.065358 -0.032890 -433717.000000 0 0 1
-3.792912 33.662697 -31.720407 46.408486 -1.458595 2.323349 0.063862 -0.022745 101962.000000 0 0 1
-4.775812 34.079822 -32.666797 47.448522 -1.431567 2.330171 0.076789 -0.024774 99709.800000 0 0 1
-4.355612 -33.256108 -33.767257 47.593779 1.440566 2.359569 0.043212 -0.026377 -316809.000000 0 0 1
-4.232112 -31.913778 -33.297647 46.315584 1.438955 2.373058 0.041359 -0.026169 -53264.100000 0 0 1
-3.702912 -31.167228 34.037953 46.299999 1.452543 0.744892 0.029314 -0.027243 -50148.100000 0 0 1
32.643298 19.633802 12.796773 40.184928 0.541496 1.246706 0.095075 -0.031703 -141095.000000 0 0 1
33.722978 18.763302 12.927373 40.699112 0.507740 1.247564 0.106417 -0.034968 64554.800000 0 0 1
33.268048 17.410702 12.775573 39.662461 0.482150 1.242842 0.111490 -0.026895 -788418.000000 0 0 1
34.341138 16.507202 13.351673 40.374108 0.448075 1.233752 0.128909 -0.035447 -790897.000000 0 0 1
35.549658 16.419702 12.691673 41.163859 0.432690 1.257369 0.117088 -0.019380 -1249380.000000 0 0 1
-36.415574 15.640102 13.377973 41.829140 -0.405667 1.245252 0.119545 -0.021184 -484952.000000 0 0 1
-35.442932 14.960102 12.366573 40.409629 -0.399403 1.259776 0.112518 -0.026414 89693.400000 0 0 1
-34.653128 13.941702 12.972773 39.541157 -0.382506 1.236523 0.088526 -0.024761 -192071.000000 0 0 1
-35.356369 12.754202 13.237773 39.849480 -0.346204 1.232167 0.090447 -0.022441 -387510.000000 0 0 1
-34.643474 11.746902 14.108273 39.207184 -0.326913 1.202701 0.102590 -0.033616 -152904.000000 0 0 1
-34.724162 12.271502 15.391473 39.915593 -0.339700 1.174938 0.100248 -0.029442 343919.000000 0 0 1
-34.070770 11.416502 16.335873 39.471693 -0.323324 1.144103 0.099745 -0.028498 -61246.900000 0 0 1
-34.021274 12.079902 17.735973 40.223573 -0.341184 1.114156 0.095590 -0.021029 -422965.000000 0 0 1
-35.224233 12.303602 18.419873 41.610298 -0.336045 1.112216 0.102599 -0.026952 -54850.200000 0 0 1
-34.947238 13.053502 19.621773 42.151125 -0.357473 1.086585 0.097455 -0.031826 8634.980000 0 0 1
-36.248434 13.283002 20.404973 43.666348 -0.351248 1.084570 0.117238 -0.039248 180.278000 0 0 1
36.077018 12.121002 21.012573 43.474108 0.324127 1.066336 0.110797 -0.020827 654705.000000 0 0 1
35.055808 12.377302 22.000673 43.198806 0.339411 1.036438 0.113296 -0.032018 747414.000000 0 0 1
34.550928 11.000102 22.644073 42.749536 0.308227 1.012559 0.110852 -0.023668 942317.000000 0 0 1
35.556248 10.395802 23.507643 43.874009 0.284448 1.005343 0.101319 -0.016455 853364.000000 0 0 1
35.387438 10.969402 24.802643 44.584410 0.300588 0.980861 0.096322 -0.015538 877629.000000 0 0 1
-36.139704 10.637702 25.652613 45.577356 -0.286265 0.972983 0.085842 -0.016626 2041560.000000 0 0 1
-35.117010 11.619202 25.488243 44.920605 -0.319533 0.967444 0.074366 -0.021984 593182.000000 0 0 1
-34.371615 11.645302 24.259453 43.652514 -0.326668 0.981543 0.084491 -0.022787 -253259.000000 0 0 1
-33.828644 13.055102 23.834783 43.392507 -0.368309 0.989290 0.089218 -0.020339 922935.000000 0 0 1
-32.815824 13.700102 24.661883 43.275623 -0.395488 0.964437 0.086932 -0.019073 970094.000000 0 0 1
-33.290704 14.017202 25.981723 44.494975 -0.398524 0.947241 0.073456 -0.018879 -691339.000000 0 0 1
-32.165734 14.608102 26.816063 44.352365 -0.426301 0.921515 0.086352 -0.018227 -481979.000000 0 0 1
-31.820484 15.884402 26.372703 44.276143 -0.462998 0.932732 0.133584 -0.024581 -173442.000000 0 0 1
-31.229364 16.637102 27.450173 44.783683 -0.489495 0.911007 0.140885 -0.023314 76844.100000 0 0 1
-30.593084 17.953002 26.891563 44.512955 -0.530681 0.922124 0.144871 -0.020626 -120825.000000 0 0 1
-31.532674 18.713702 26.140933 45.031772 -0.535604 0.951454 0.111989 -0.045286 343230.000000 0 0 1
-30.979094 19.951302 25.739393 44.947469 -0.572163 0.961056 0.124964 -0.054133 -362498.000000 0 0 1
-31.963004 21.005302 25.205083 45.805594 -0.581403 0.988118 0.142630 -0.037874 -321135.000000 0 0 1
-32.875044 21.405002 26.216803 47.183295 -0.577149 0.981667 0.113493 -0.042993 -112998.000000 0 0 1
-33.861194 22.275402 25.795183 48.043370 -0.581870 1.004021 0.098753 -0.033588 -1045060.000000 0 0 1
-33.541284 23.748902 25.759353 48.503322 -0.616108 1.010917 0.100498 -0.029745 -694184.000000 0 0 1
-34.343995 24.271802 24.772553 48.808910 -0.615226 1.038467 0.098659 -0.028211 -123713.000000 0 0 1
-34.210274 25.685602 24.667993 49.382211 -0.644023 1.047738 0.087155 -0.022433 -32959.400000 0 0 1
-35.095442 26.216802 23.530103 49.726014 -0.641588 1.077882 0.088844 -0.020439 -15098.800000 0 0 1
-34.706730 25.861502 22.213573 48.649945 -0.640386 1.096626 0.101801 -0.033169 79674.800000 0 0 1
-35.637101 26.382402 21.293173 49.187735 -0.637269 1.123093 0.089124 -0.033004 57513.800000 0 0 1
-35.313908 26.015802 19.831373 48.137068 -0.634935 1.146173 0.117423 -0.049286 88995.400000 0 0 1
-35.641610 24.726602 19.496273 47.558741 -0.606523 1.148407 0.124364 -0.046728 260283.000000 0 0 1
-34.989618 24.444202 18.239873 46.416434 -0.609794 1.166946 0.128533 -0.038574 204314.000000 0 0 1
-35.531472 23.155002 17.641273 45.933148 -0.577552 1.176602 0.131976 -0.038854 10137.200000 0 0 1
36.013558 23.249402 17.150473 46.169792 0.573257 1.190210 0.115026 -0.049384 -365482.000000 0 0 1
35.763898 22.204702 16.265073 45.129345 0.555623 1.202089 0.112957 -0.042973 431488.000000 0 0 1
34.404088 22.208602 15.490773 43.781586 0.573221 1.209145 0.099467 -0.035897 386034.000000 0 0 1
33.385768 21.531902 16.174973 42.893613 0.572812 1.184138 0.097168 -0.052640 16201.900000 0 0 1
32.133198 21.830302 15.563673 41.848923 0.596745 1.189740 0.103445 -0.049537 46123.200000 0 0 1
30.969658 20.897702 15.976473 40.633500 0.593598 1.166704 0.067991 -0.048060 383364.000000 0 0 1
30.297798 21.329602 17.182273 40.842857 0.613404 1.136588 0.067482 -0.039593 602737.000000 0 0 1
29.169988 22.180002 16.967673 40.382454 0.650105 1.137159 0.060257 -0.031298 -80037.300000 0 0 1
28.684688 22.842802 18.271073 40.968732 0.672506 1.108532 0.046130 -0.018306 146591.000000 0 0 1
29.619178 23.788202 18.739873 42.359852 0.676650 1.112527 0.024620 -0.024556 132178.000000 0 0 1
28.978858 24.455902 19.820573 42.786919 0.700955 1.089150 0.013491 -0.016707 24003.700000 0 0 1
29.873518 25.233202 20.815573 44.299318 0.701390 1.081636 0.022984 -0.023788 276552.000000 0 0 1
30.737108 26.195702 20.163273 45.139142 0.705799 1.107732 0.050911 -0.035428 -395270.000000 0 0 1
31.763818 26.429502 21.023773 46.362244 0.693988 1.100144 0.057096 -0.039326 -335362.000000 0 0 1
33.019278 27.244902 20.464773 47.448544 0.689872 1.124858 0.061218 -0.036517 1674030.000000 0 0 1
34.002138 27.631902 21.482873 48.797348 0.682408 1.114923 0.058902 -0.027297 919887.000000 0 0 1
33.550838 28.614002 22.440973 49.477440 0.706149 1.100041 0.034137 -0.017942 -517356.000000 0 0 1
34.482878 28.879502 23.633913 50.810002 0.697194 1.087000 0.038014 -0.026441 811911.000000 0 0 1
35.703788 29.575702 23.297373 51.886898 0.691798 1.105147 0.057241 -0.023107 794345.000000 0 0 1
36.424718 29.827202 24.510773 53.077302 0.686143 1.090780 0.052913 -0.011613 814261.000000 0 0 1
-35.140199 30.704402 24.427123 52.671417 -0.718132 1.088557 0.045721 -0.013995 957622.000000 0 0 1
-33.960104 30.102102 23.924313 51.301052 -0.725248 1.085635 0.049696 -0.012738 136600.000000 0 0 1
-32.843074 30.969502 24.056173 51.151510 -0.756046 1.081174 0.048655 -0.007026 -307008.000000 0 0 1
-31.575444 30.245302 23.631393 49.701405 -0.763885 1.075301 0.076161 -0.004731 -815739.000000 0 0 1
-31.422644 29.922002 22.308673 48.789195 -0.760941 1.095900 0.062608 -0.003706 -87040.400000 0 0 1
-31.813204 28.605002 21.877173 48.051397 -0.732348 1.098102 0.077247 -0.001987 56386.100000 0 0 1
-31.112274 27.353602 22.491873 47.138916 -0.721198 1.073399 0.083308 -0.003958 -637592.000000 0 0 1
-29.725854 27.203502 22.381673 46.093342 -0.741120 1.063778 0.058683 -0.005151 -393133.000000 0 0 1
-29.278334 26.148202 23.157173 45.576352 -0.728985 1.037823 0.067781 -0.007385 -175073.000000 0 0 1
-29.013034 26.390902 24.628783 46.312123 -0.738106 1.010072 0.078823 -0.007392 -671721.000000 0 0 1
-30.141284 26.681602 25.425683 47.611660 -0.724588 1.007446 0.068451 -0.007890 -267843.000000 0 0 1
-29.857624 26.967102 26.777913 48.329689 -0.734575 0.983554 0.079021 -0.021247 -124775.000000 0 0 1
-31.149254 27.366202 27.541843 49.776883 -0.720838 0.984469 0.080061 -0.026768 103229.000000 0 0 1
-32.017474 26.329902 27.806273 49.915640 -0.688227 0.979948 0.068792 -0.022136 -645037.000000 0 0 1
-33.023004 26.618602 28.726803 51.227902 -0.678427 0.975487 0.059407 -0.011585 -182441.000000 0 0 1
-33.776114 25.311102 29.087733 51.259866 -0.643103 0.967383 0.056046 -0.017729 -120054.000000 0 0 1
-33.090624 24.594702 30.106223 51.051673 -0.639169 0.940084 0.056492 -0.018251 -100930.000000 0 0 1
-33.683524 23.396002 30.553363 51.141574 -0.607081 0.930507 0.036738 -0.024273 -155771.000000 0 0 1
-32.749474 22.552902 31.425723 50.682713 -0.603067 0.901992 0.068656 -0.034688 -159447.000000 0 0 1
-31.538654 22.085302 30.813123 49.314255 -0.610901 0.895880 0.084287 -0.029644 653599.000000 0 0 1
-30.886214 21.136902 31.667763 49.026258 -0.600143 0.868549 0.076205 -0.027379 24418.700000 0 0 1
-30.076554 21.670902 32.876419 49.548824 -0.624369 0.845288 0.063691 -0.025964 -746117.000000 0 0 1
-30.876684 22.327602 33.848677 50.966894 -0.626076 0.844466 0.080320 -0.027366 153063.000000 0 0 1
-30.512804 22.044102 -33.161757 50.166480 -0.625637 2.292992 0.064573 -0.017765 -413659.000000 0 0 1
-29.164194 22.549002 -32.648607 49.243672 -0.658168 2.295617 0.062390 -0.013507 -367166.000000 0 0 1
-29.226334 23.876202 -32.163377 49.585627 -0.684986 2.276597 0.049855 -0.013849 33946.800000 0 0 1
-28.409184 24.031402 -31.036757 48.454827 -0.702110 2.265984 0.084229 -0.008965 -275016.000000 0 0 1
-28.805374 25.303702 -30.290527 48.862490 -0.720773 2.239429 0.055490 -0.004565 -482913.000000 0 0 1
-28.324114 26.552602 -30.757637 49.531084 -0.753128 2.240784 0.063078 -0.015797 155026.000000 0 0 1
-29.312624 27.093802 -31.621887 50.923941 -0.746082 2.240767 0.052511 -0.013172 -6903.830000 0 0 1
-29.149184 28.522102 -32.244657 51.989452 -0.774525 2.239814 0.059957 -0.014954 -176596.000000 0 0 1
-29.179444 29.516202 -31.229687 51.941693 -0.791135 2.215855 0.052490 -0.024317 -25525.500000 0 0 1
-28.927744 30.821902 -31.735847 52.857998 -0.817089 2.214795 0.068147 -0.038836 -59752.200000 0 0 1
-29.198794 32.015002 -30.783467 53.152157 -0.831372 2.188491 0.053333 -0.029391 -163024.000000 0 0 1
-28.299864 32.082002 -29.701357 52.079821 -0.847953 2.177673 0.039433 -0.029720 -118724.000000 0 0 1
-28.579014 33.140102 -28.841287 52.410364 -0.859165 2.153517 0.026439 -0.019738 -94919.500000 0 0 1
-27.746604 33.263702 -27.493307 51.305261 -0.875582 2.136342 0.023585 -0.015754 522027.000000 0 0 1
-26.413234 33.762402 -27.564927 50.964536 -0.906925 2.142261 0.012290 -0.009961 235983.000000 0 0 1
-26.113884 -33.306315 -28.063427 50.781901 0.905856 2.156309 0.017595 0.000545 -820967.000000 0 0 1
-26.469044 -32.122315 -27.158537 49.699493 0.881587 2.148922 0.020363 0.000385 -554370.000000 0 0 1
-27.845424 -31.906915 -27.061467 50.256760 0.853266 2.139410 0.015285 -0.013334 -712124.000000 0 0 1
-28.177324 -31.115515 -25.922297 49.336623 0.834912 2.124001 0.006525 -0.002634 970728.000000 0 0 1
-29.740634 -30.992315 -25.800027 50.106589 0.806005 2.111691 -0.006947 -0.002711 970279.000000 0 0 1
-30.309114 -30.090815 -26.716697 50.377390 0.781784 2.129787 0.001830 -0.005700 478351.000000 0 0 1
-31.701904 -29.869315 -26.489947 50.979447 0.755643 2.117203 0.006195 -0.006538 262712.000000 0 0 1
-32.341014 -28.873415 -27.399157 51.286734 0.728812 2.134399 0.018962 -0.010740 -260394.000000 0 0 1
-33.706234 -28.685515 -27.072617 51.883481 0.705100 2.119752 0.026955 -0.013721 499.565000 0 0 1
-34.285887 -27.837215 -28.065257 52.326774 0.681964 2.136898 0.031251 -0.012664 252519.000000 0 0 1
-35.794582 -28.130415 -28.273327 53.590609 0.666075 2.126546 0.032135 -0.022708 496287.000000 0 0 1
36.202848 -27.557815 -27.291957 53.055917 -0.650634 2.111104 0.021729 -0.011584 314667.000000 0 0 1
34.870208 -27.537915 -27.822737 52.424926 -0.668445 2.130241 0.029728 -0.008367 629643.000000 0 0 1
33.838188 -27.184515 -26.716257 50.968414 -0.676791 2.122540 0.036277 -0.012842 -33518.700000 0 0 1
33.718788 -28.074015 -25.634787 50.815837 -0.694301 2.099558 0.040743 -0.013151 41599.900000 0 0 1
32.682318 -27.619715 -24.800027 49.457294 -0.701640 2.096062 0.044849 -0.013910 12942.500000 0 0 1
32.703978 -28.381215 -23.471727 49.254092 -0.714750 2.067515 0.029679 -0.005593 293915.000000 0 0 1
32.043128 -29.679215 -23.535627 49.613946 -0.747118 2.065051 0.046882 -0.010981 110570.000000 0 0 1
31.757168 -30.309215 -22.288827 49.233709 -0.762073 2.040604 0.056519 -0.011674 -687117.000000 0 0 1
32.795858 -30.446315 -21.211527 49.522473 -0.748264 2.013430 0.039225 -0.006087 -2672350.000000 0 0 1
33.801568 -31.361415 -21.397827 50.832582 -0.747969 2.005285 0.023354 -0.007856 562881.000000 0 0 1
34.866288 -31.220115 -20.386227 51.048525 -0.730281 1.981604 0.013061 -0.003164 1682310.000000 0 0 1
35.733228 -29.893515 -20.518327 50.906656 -0.696648 1.985652 0.011514 -0.008438 -791022.000000 0 0 1
34.965728 -28.742915 -20.228827 49.577845 -0.688031 1.991082 0.015949 -0.005325 -388838.000000 0 0 1
35.552388 -27.561815 -20.683127 49.511794 -0.659463 2.001754 0.009293 -0.008910 -188815.000000 0 0 1
34.679648 -26.366415 -20.370727 48.091916 -0.650051 2.008189 0.017922 -0.010348 -316751.000000 0 0 1
33.566208 -26.144815 -21.160427 47.518474 -0.661744 2.032316 0.029776 -0.010443 -317173.000000 0 0 1
32.469818 -25.521815 -20.527127 46.119574 -0.666156 2.032065 0.039131 -0.013572 928556.000000 0 0 1
31.136748 -25.500915 -21.371327 45.568930 -0.686218 2.058942 0.047414 -0.019913 757077.000000 0 0 1
30.574608 -26.733815 -21.703327 46.049299 -0.718479 2.061568 0.060299 -0.020086 260149.000000 0 0 1
29.360938 -26.543115 -22.443727 45.500797 -0.735036 2.086630 0.060721 -0.020081 557399.000000 0 0 1
28.596768 -27.826015 -22.803127 45.956989 -0.771739 2.089994 0.064188 -0.011725 -187232.000000 0 0 1
28.118458 -28.442815 -21.668127 45.487901 -0.791133 2.067294 0.068373 -0.014018 -146707.000000 0 0 1
27.620388 -29.745415 -22.054927 46.196270 -0.822425 2.068510 0.068349 -0.013103 29865.000000 0 0 1
27.069388 -30.607115 -20.858627 45.876242 -0.846659 2.042800 0.080430 -0.011905 512906.000000 0 0 1
28.031768 -31.000015 -19.865627 46.275524 -0.835638 2.014503 0.084100 -0.015345 109077.000000 0 0 1
28.821368 -32.126215 -20.178827 47.643993 -0.839570 2.008139 0.083002 -0.008700 -144053.000000 0 0 1
29.692908 -32.425715 -18.931527 47.869599 -0.829363 1.977388 0.066346 -0.010737 -319929.000000 0 0 1
29.124858 -32.907315 -17.684627 47.369767 -0.846298 1.953394 0.073211 -0.015014 -232052.000000 0 0 1
28.265028 -32.033515 -17.012427 45.983482 -0.847814 1.949771 0.055547 -0.009749 -187082.000000 0 0 1
27.674588 -32.639715 -15.731527 45.592925 -0.867534 1.923081 0.055316 -0.004629 -566764.000000 0 0 1
26.468388 -33.314715 -15.934327 45.435103 -0.899421 1.929120 0.069089 -0.011784 -402649.000000 0 0 1
25.965588 -33.796915 -14.699727 45.083536 -0.915697 1.902924 0.051024 -0.004270 187163.000000 0 0 1
24.426088 -34.024515 -14.748827 44.405285 -0.948160 1.909369 0.046159 -0.005357 184634.000000 0 0 1
23.746688 -32.852715 -15.021727 43.230295 -0.944917 1.925680 0.051996 -0.006813 222117.000000 0 0 1
22.376288 -32.944115 -14.629627 42.426866 -0.974154 1.922843 0.058387 -0.015137 216890.000000 0 0 1
-0.236934 -7.097998 -29.002307 29.859195 1.537428 2.901443 0.061153 -0.015106 74395.800000 0 0 1
0.087766 -8.473098 -28.967277 30.181191 -1.560438 2.857011 0.054314 -0.010528 49185.300000 0 0 1
-0.227734 -9.083098 -30.209467 31.546259 1.545729 2.849434 0.048097 -0.016705 -73124.400000 0 0 1
-0.140334 -10.628598 -30.114917 31.935796 1.557594 2.802278 0.057665 -0.009678 -176448.000000 0 0 1
1.158566 -11.013998 -29.756347 31.750443 -1.465991 2.785295 0.029114 -0.011226 -311156.000000 0 0 1
1.221266 -12.378598 -29.437597 31.957680 -1.472455 2.741804 0.039886 -0.011942 -649075.000000 0 0 1
2.600066 -12.773998 -28.951237 31.750741 -1.369996 2.718513 0.032861 -0.009416 -1388170.000000 0 0 1
3.565466 -12.787498 -30.007737 32.813061 -1.298878 2.725081 0.034762 -0.008079 119394.000000 0 0 1
4.870866 -12.911198 -29.472237 32.542851 -1.210047 2.703692 0.060927 -0.021725 262880.000000 0 0 1
5.341966 -14.212998 -28.832747 32.586397 -1.211280 2.656881 0.077575 -0.035748 -1548440.000000 0 0 1
4.771766 -14.469698 -27.608627 31.533763 -1.252250 2.637320 0.073300 -0.025201 -393467.000000 0 0 1
5.473766 -15.411698 -26.844477 31.434194 -1.229524 2.594402 0.085055 -0.034543 -221179.000000 0 0 1
5.264666 -16.886498 -27.210497 32.454302 -1.268579 2.565183 0.072722 -0.030045 -172486.000000 0 0 1
5.596266 -17.310798 -28.536037 33.842095 -1.258119 2.574025 0.062481 -0.033215 154311.000000 0 0 1
5.269766 -18.658798 -28.650017 34.593998 -1.295538 2.546647 0.052516 -0.031857 -598664.000000 0 0 1
5.471966 -19.211898 -30.059407 36.091653 -1.293322 2.555057 0.053655 -0.030276 -195893.000000 0 0 1
6.818066 -19.380798 -30.461057 36.742039 -1.232523 2.548206 0.049839 -0.030777 74115.200000 0 0 1
6.869066 -19.907598 -31.796827 38.138364 -1.238540 2.556612 0.037562 -0.029010 290551.000000 0 0 1
8.282866 -19.784698 -32.435437 38.885701 -1.174316 2.557336 0.044663 -0.025515 382535.000000 0 0 1
8.700966 -18.437698 -32.622587 38.469322 -1.129871 2.583026 0.048706 -0.030608 -71875.000000 0 0 1
9.849766 -18.389198 -33.432927 39.407374 -1.079054 2.583738 0.033339 -0.025449 -260707.000000 0 0 1
10.078466 -16.981098 -34.050827 39.362317 -1.035162 2.616069 0.033746 -0.020044 142478.000000 0 0 1
9.109166 -16.635798 33.333586 38.351723 -1.069825 0.517306 0.034938 -0.019864 318902.000000 0 0 1
9.166166 -15.267398 32.906387 37.415803 -1.030101 0.496031 0.046923 -0.016885 -287962.000000 0 0 1
8.292566 -15.158298 31.628603 36.040382 -1.070210 0.499989 0.050730 -0.033793 -109802.000000 0 0 1
8.668866 -15.983998 30.533073 35.537388 -1.073848 0.537128 0.055586 -0.031865 -363008.000000 0 0 1
7.779866 -15.785698 29.422353 34.283953 -1.112891 0.539051 0.054262 -0.023946 -142571.000000 0 0 1
8.146766 -16.503198 28.148743 33.631489 -1.112243 0.579063 0.049630 -0.020135 -602547.000000 0 0 1
7.544266 -17.790498 28.079973 34.086693 -1.169721 0.602748 0.063992 -0.019936 420542.000000 0 0 1
8.121666 -18.627998 27.118273 33.887527 -1.159652 0.643095 0.050272 -0.021515 105204.000000 0 0 1
7.532566 -20.054198 27.315033 34.713419 -1.211491 0.665072 0.051536 -0.017780 17595.700000 0 0 1
8.007266 -20.442098 28.577193 36.036809 -1.197461 0.655079 0.053527 -0.010814 313912.000000 0 0 1
7.358966 -21.583698 29.084503 36.958337 -1.242206 0.664940 0.031487 -0.007565 -96693.800000 0 0 1
7.770666 -21.805298 30.611163 38.378348 -1.228462 0.647465 0.020404 -0.008877 -42096.300000 0 0 1
7.203266 -20.991798 31.642603 38.649669 -1.240240 0.611648 0.036646 -0.013738 215145.000000 0 0 1
7.442466 -19.600598 31.460023 37.806174 -1.207906 0.587841 0.035887 -0.017824 -405753.000000 0 0 1
6.855066 -18.809598 32.635247 38.286450 -1.221311 0.550244 0.036314 -0.018601 -111246.000000 0 0 1
5.445466 -18.786798 32.533985 37.961257 -1.288672 0.541316 0.041216 -0.016165 -433305.000000 0 0 1
4.916666 -17.910298 33.470111 38.277940 -1.302880 0.506605 0.045238 -0.017441 504687.000000 0 0 1
3.442666 -18.219598 33.871015 38.614134 -1.384044 0.500868 0.045814 -0.018684 401564.000000 0 0 1
3.303866 -19.331098 -33.625247 38.926394 -1.401522 2.613592 0.036617 -0.019586 94606.200000 0 0 1
2.637666 -19.031698 -32.406447 37.674138 -1.433080 2.606414 0.033271 -0.026487 -130595.000000 0 0 1
2.153566 -20.199898 -31.530527 37.507971 -1.464585 2.569252 0.055754 -0.024859 -625312.000000 0 0 1
1.079066 -20.919598 -32.136087 38.360424 -1.519260 2.563929 0.048692 -0.027452 238229.000000 0 0 1
0.326066 -21.672498 -31.218147 38.004950 -1.555752 2.534698 0.054971 -0.029473 350851.000000 0 0 1
-0.592934 -20.829698 -30.260217 36.741103 1.542338 2.538537 0.055641 -0.032373 -165121.000000 0 0 1
-1.783334 -20.309098 -30.874847 36.998594 1.483211 2.557998 0.067789 -0.037987 460768.000000 0 0 1
-2.431934 -19.403298 -29.974897 35.789618 1.446110 2.563544 0.082888 -0.020823 240570.000000 0 0 1
-1.869034 -17.945298 -30.105037 35.097583 1.467019 2.601678 0.059110 -0.014550 401781.000000 0 0 1
-2.807734 -16.960798 -29.645247 34.269414 1.406742 2.616075 0.069900 -0.017254 48272.700000 0 0 1
-2.365334 -15.642398 -29.955197 33.876146 1.420720 2.655696 0.074538 -0.022858 -58165.600000 0 0 1
-3.244934 -14.513598 -29.430967 32.975081 1.350835 2.673702 0.069910 -0.013474 1897.670000 0 0 1
-3.250934 -14.325798 -28.008467 31.627066 1.347647 2.658549 0.059953 -0.017174 -367732.000000 0 0 1
-4.237634 -13.395098 -27.717217 31.074593 1.264401 2.672453 0.052050 -0.015425 -483849.000000 0 0 1
-4.336134 -13.000898 -26.260997 29.622042 1.248873 2.660599 0.048065 -0.016289 -562127.000000 0 0 1
-4.760334 -14.024398 -25.405597 29.407293 1.243567 2.613802 0.045139 -0.014665 141971.000000 0 0 1
-4.848234 -13.657898 -24.058827 28.086843 1.229695 2.599415 0.032419 -0.011605 -291931.000000 0 0 1
-5.910034 -12.624298 -23.604627 27.413133 1.132954 2.608167 0.039257 -0.012035 -972263.000000 0 0 1
-7.178734 -13.168498 -23.565127 27.933113 1.071689 2.574799 0.044830 -0.013870 -993963.000000 0 0 1
-8.170434 -12.219198 -23.275327 27.528270 0.981418 2.578309 0.042000 -0.014014 233420.000000 0 0 1
-9.622534 -12.649398 -23.596027 28.449481 0.920475 2.548831 0.062724 -0.017795 354755.000000 0 0 1
-10.202034 -13.650698 -22.755127 28.429191 0.928985 2.498782 0.047372 -0.016208 36530.000000 0 0 1
-11.165834 -14.449898 -23.422627 29.700082 0.912908 2.479388 0.027803 -0.008413 348950.000000 0 0 1
-11.821534 -15.513598 -22.479827 29.761771 0.919652 2.426947 0.017996 -0.009996 597187.000000 0 0 1
-10.824034 -16.503998 -22.187227 29.695365 0.990324 2.414577 0.028655 -0.011172 139920.000000 0 0 1
-11.335934 -17.704898 -21.675927 30.196236 1.001291 2.371485 0.037175 -0.005061 65187.300000 0 0 1
-11.976334 -18.637598 -22.773527 31.771468 0.999648 2.369987 0.019425 0.001801 574877.000000 0 0 1
-13.192134 -18.165698 -23.311327 32.364224 0.942695 2.375003 0.016730 0.002067 119402.000000 0 0 1
-13.885334 -18.993298 -24.271527 33.803179 0.939524 2.371757 0.013551 0.003688 1226780.000000 0 0 1
-14.914534 -18.158298 -25.179687 34.441019 0.883165 2.390723 0.014477 -0.004632 2122600.000000 0 0 1
-16.203934 -17.964198 -24.511527 34.439728 0.836870 2.362744 0.007907 0.005247 1002090.000000 0 0 1
-17.134034 -17.368898 -25.367487 35.196067 0.792205 2.375677 0.002286 0.000552 -189017.000000 0 0 1
-17.726134 -16.050398 -24.936327 34.549262 0.735826 2.377140 -0.001885 0.007600 144495.000000 0 0 1
-18.734434 -16.072298 -23.916227 34.369808 0.709063 2.340399 0.012359 0.006482 564669.000000 0 0 1
-19.194434 -14.771398 -23.618227 33.829590 0.655907 2.343611 0.022479 0.001152 -5946.720000 0 0 1
-20.013634 -14.645598 -22.308527 33.357300 0.631739 2.303356 0.029886 -0.013233 253980.000000 0 0 1
-19.153134 -14.790598 -21.196927 32.170080 0.657576 2.290154 0.029638 -0.005603 207554.000000 0 0 1
-19.838534 -14.820598 -19.952827 31.801460 0.641618 2.249030 0.048583 -0.014331 -163431.000000 0 0 1
-20.309434 -13.472198 -19.350427 31.119323 0.585701 2.241853 0.073803 -0.020038 7029.910000 0 0 1
-21.584534 -13.029898 -19.766427 32.037197 0.543112 2.235700 0.083457 -0.029882 110118.000000 0 0 1
-22.020134 -12.015598 -18.874427 31.392752 0.499508 2.215842 0.103452 -0.032741 -136929.000000 0 0 1
-23.514834 -11.678098 -18.965327 32.388409 0.460945 2.196366 0.108365 -0.028516 -260608.000000 0 0 1
-23.905734 -11.029598 -20.127327 33.139786 0.432276 2.223512 0.113986 -0.035020 208805.000000 0 0 1
-25.314724 -10.963598 -20.282827 34.240748 0.408704 2.204780 0.118863 -0.036147 254005.000000 0 0 1
-25.799254 -10.050998 -21.419227 35.005819 0.371496 2.229227 0.122919 -0.019710 -53813.000000 0 0 1
-25.706654 -10.563998 -22.754127 35.919081 0.389905 2.256843 0.100528 -0.019816 263449.000000 0 0 1
-26.530084 -9.662498 -23.448027 36.701760 0.349277 2.263838 0.089639 -0.011971 -116405.000000 0 0 1
-26.550434 -10.051098 -24.932127 37.783079 0.361894 2.291449 0.071379 -0.000309 1194190.000000 0 0 1
-25.372064 -9.754198 -25.763497 37.451886 0.367027 2.329401 0.054193 -0.005912 1225300.000000 0 0 1
-24.805834 -10.998698 -26.148217 37.683286 0.417345 2.337680 0.048802 0.002976 338259.000000 0 0 1
-23.630834 -10.993098 -27.186467 37.661234 0.435423 2.377295 0.045203 -0.003892 381482.000000 0 0 1
-24.028234 -10.790698 -28.542917 38.839327 0.422092 2.396312 0.044946 0.005244 -90705.200000 0 0 1
-22.932534 -10.705798 -29.408797 38.799389 0.436769 2.430993 0.037235 0.007595 -73430.700000 0 0 1
-23.355134 -10.959198 -30.871437 40.231977 0.438739 2.445472 0.033159 0.006377 -142302.000000 0 0 1
-24.356034 -10.193598 -31.481607 41.087923 0.396373 2.443705 0.023637 0.003856 -157327.000000 0 0 1
-23.930934 -9.090598 -32.287247 41.204307 0.363032 2.471218 0.023848 -0.002808 -1081070.000000 0 0 1
-25.080434 -8.153698 -32.643287 41.965404 0.314324 2.462053 0.038099 -0.010329 -921640.000000 0 0 1
-25.954284 -8.589798 -33.690307 43.387167 0.319612 2.459895 0.054337 -0.003704 918394.000000 0 0 1
-27.042444 -9.362898 -33.192337 43.825665 0.333312 2.430076 0.052956 -0.007047 -35200.000000 0 0 1
-28.140244 -8.738198 -32.266827 43.696425 0.301083 2.401538 0.032605 -0.000394 -852769.000000 0 0 1
-29.411414 -9.198798 -32.662087 44.905023 0.303124 2.385262 0.026787 -0.002335 19177.700000 0 0 1
-30.343174 -8.831198 -31.635117 44.715533 0.283220 2.356715 0.023700 0.002790 -978086.000000 0 0 1
-31.743974 -9.284298 -31.862277 45.924751 0.284538 2.337539 0.023793 -0.000148 -1267250.000000 0 0 1
-31.900104 -10.692598 -31.875757 46.346652 0.323421 2.329207 0.023774 -0.002628 579014.000000 0 0 1
-33.227924 -11.034198 -31.478807 47.082521 0.320619 2.303105 0.017007 -0.005318 291827.000000 0 0 1
-33.529594 -12.498798 -31.912927 47.946726 0.356813 2.299082 0.033832 -0.008615 568687.000000 0 0 1
-34.748239 -13.017898 -31.350117 48.577110 0.358450 2.272301 0.027392 -0.013121 562041.000000 0 0 1
-34.862690 -14.374398 -31.634117 49.221416 0.391077 2.268801 0.026041 -0.013041 405909.000000 0 0 1
-35.953163 -15.091898 -30.772527 49.672364 0.397429 2.238915 0.029141 -0.019518 518904.000000 0 0 1
-35.689287 -15.109398 -29.324737 48.599993 0.400480 2.218541 0.045136 -0.017882 493062.000000 0 0 1
36.161778 -15.935698 -28.719207 48.850932 -0.415075 2.199250 0.035077 -0.020729 584750.000000 0 0 1
36.399198 -15.892298 -27.210117 48.144130 -0.411664 2.171448 0.054149 -0.024745 -315443.000000 0 0 1
-35.212631 -16.261998 -26.712647 47.095090 0.432642 2.173906 0.052761 -0.027260 -430468.000000 0 0 1
-35.184269 -16.158498 -25.316737 46.259778 0.430522 2.149899 0.065427 -0.025611 461692.000000 0 0 1
-33.754044 -15.775298 -24.853927 44.787422 0.437197 2.159076 0.080914 -0.020403 358467.000000 0 0 1
-32.700204 -16.629098 -25.182057 44.496812 0.470450 2.172357 0.079932 -0.020429 109376.000000 0 0 1
-31.427574 -16.283198 -24.648827 43.132350 0.478037 2.179092 0.084648 -0.006540 974276.000000 0 0 1
-30.268284 -17.203498 -25.151837 42.950486 0.516835 2.196417 0.083934 -0.019050 150525.000000 0 0 1
-30.174934 -18.400698 -24.414127 42.955348 0.547595 2.175308 0.085998 -0.027562 -361301.000000 0 0 1
-31.122124 -19.417898 -24.580927 44.157257 0.557827 2.161166 0.077520 -0.031810 -359968.000000 0 0 1
-30.827824 -20.661098 -23.684727 44.025016 0.590451 2.138839 0.072822 -0.036765 928201.000000 0 0 1
-29.546184 -21.227098 -24.031127 43.601167 0.622994 2.154548 0.073543 -0.025972 746237.000000 0 0 1
-29.421224 -22.483598 -23.385927 43.795230 0.652525 2.134101 0.056987 -0.023444 -164824.000000 0 0 1
-27.980224 -23.045498 -23.487327 43.193083 0.688987 2.145725 0.055953 -0.016097 969030.000000 0 0 1
-26.831524 -22.321598 -23.006027 41.802652 0.693902 2.153578 0.057467 -0.010341 625776.000000 0 0 1
-26.686584 -22.014598 -21.609027 40.789292 0.689759 2.129128 0.052571 -0.021505 -285488.000000 0 0 1
-26.613574 -23.263498 -20.655627 40.940537 0.718332 2.099631 0.048335 -0.015735 -132755.000000 0 0 1
-26.442054 -22.871898 -19.295227 39.932590 0.713128 2.075097 0.042099 -0.017100 89454.600000 0 0 1
-26.542084 -23.933098 -18.387627 40.191793 0.733756 2.045975 0.028731 0.013840 -211895.000000 0 0 1
-26.584234 -23.495398 -16.949027 39.319521 0.723798 2.016462 0.026892 0.011370 -99290.100000 0 0 1
-27.686244 -22.651098 -16.702427 39.478746 0.685702 2.007631 0.034413 0.002930 -142440.000000 0 0 1
-27.637864 -21.944998 -15.469627 38.532374 0.671084 1.983919 0.034676 0.000634 -468661.000000 0 0 1
-29.000214 -21.471398 -14.984727 39.071414 0.637321 1.964403 0.053318 -0.003001 -306927.000000 0 0 1
-29.589434 -20.451798 -15.770827 39.275051 0.604786 1.984003 0.064570 -0.012816 293575.000000 0 0 1
-30.930144 -20.194398 -15.374327 40.010717 0.578414 1.965197 0.070814 -0.012860 293802.000000 0 0 1
-31.825734 -19.514098 -16.420427 40.783671 0.550036 1.985176 0.080581 -0.034793 -210388.000000 0 0 1
-32.463314 -20.500898 -17.190427 42.067379 0.563267 1.991760 0.066028 -0.031217 -369955.000000 0 0 1
-33.281274 -19.911198 -18.155027 42.821770 0.539147 2.008618 0.058722 -0.030585 68137.600000 0 0 1
-34.049550 -20.815498 -19.219127 44.294827 0.548708 2.019603 0.049743 -0.033080 890160.000000 0 0 1
-35.143011 -21.594398 -18.751027 45.309494 0.550993 1.997468 0.048078 -0.028544 42192.200000 0 0 1
-34.797515 -22.580198 -17.818127 45.146628 0.575603 1.976508 0.042426 -0.020190 -519892.000000 0 0 1
-35.801729 -23.719998 -17.831027 46.501050 0.585139 1.964330 0.044191 -0.013653 -307152.000000 0 0 1
35.712498 -23.432898 -17.517727 46.166590 -0.580689 1.959994 0.042300 -0.014885 141265.000000 0 0 1
35.056978 -24.654098 -17.216627 46.186887 -0.612909 1.952778 0.044314 -0.012290 502222.000000 0 0 1
33.622288 -24.580398 -16.606627 44.837867 -0.631278 1.950204 0.041210 -0.007247 -57754.300000 0 0 1
32.626458 -24.177398 -17.472927 44.207867 -0.637740 1.977131 0.043231 -0.009290 -726470.000000 0 0 1
31.400458 -24.415498 -16.826627 43.188432 -0.660903 1.971004 0.050171 -0.005202 -149018.000000 0 0 1
30.134178 -24.417598 -17.698527 42.632448 -0.680987 1.998895 0.048940 -0.016006 -167854.000000 0 0 1
29.898608 -23.129798 -18.143227 41.929596 -0.658440 2.018290 0.016377 -0.016907 -815575.000000 0 0 1
28.589708 -23.055498 -18.588927 41.164009 -0.678647 2.039334 0.052094 -0.024590 -954352.000000 0 0 1
34.670168 29.589302 -18.220727 49.087088 0.706494 1.951089 0.032287 0.002830 -88154.900000 0 0 1
33.889318 29.877902 -19.359727 49.152558 0.722574 1.975635 0.033211 -0.005463 -137625.000000 0 0 1
34.559908 29.474702 -20.517327 49.840806 0.706151 1.995068 0.031324 0.007948 -452649.000000 0 0 1
33.657088 29.386602 -21.755127 49.695649 0.717763 2.023910 0.043070 0.006082 -891779.000000 0 0 1
32.603268 28.466902 -21.497627 48.326862 0.717770 2.031790 0.042058 -0.001248 536154.000000 0 0 1
31.656308 28.311502 -22.569427 48.094095 0.729679 2.059268 0.051207 0.004514 562174.000000 0 0 1
30.645148 29.488902 -22.641527 48.180485 0.766173 2.060009 0.050529 0.001248 -805868.000000 0 0 1
31.205378 30.770702 -23.017027 49.501467 0.778385 2.054405 0.050038 -0.014295 328371.000000 0 0 1
30.205148 31.775202 -22.906827 49.464504 0.810724 2.052282 0.065104 -0.009955 149925.000000 0 0 1
30.884378 33.113102 -22.514927 50.569203 0.820209 2.032227 0.058166 -0.014329 220846.000000 0 0 1
31.146078 33.188002 -21.131527 50.180306 0.817127 2.005467 0.067251 -0.024191 861143.000000 0 0 1
32.555428 33.089702 -20.822627 50.875987 0.793537 1.992463 0.058423 -0.017980 663210.000000 0 0 1
32.858268 33.044102 -19.297427 50.437775 0.788218 1.963404 0.042067 -0.012623 -425107.000000 0 0 1
32.863928 -34.021715 -18.734527 50.877278 -0.802706 1.947901 0.051038 -0.013641 74636.100000 0 0 1
32.820528 -33.950715 -17.329727 50.300672 -0.802323 1.922527 0.024280 -0.025112 -720406.000000 0 0 1
32.798898 -32.435315 -17.037927 49.174265 -0.779825 1.924613 0.022629 -0.003378 13931.000000 0 0 1
34.022128 -31.743715 -17.153827 49.592564 -0.750768 1.923989 0.030744 -0.005044 126741.000000 0 0 1
35.088868 -32.088715 -16.276127 50.257603 -0.740768 1.900597 0.033255 -0.002222 -507383.000000 0 0 1
36.301478 -31.198515 -16.531527 50.640261 -0.709942 1.903342 0.026664 0.002771 -764705.000000 0 0 1
-35.812135 -31.765515 -17.564627 50.990912 0.725589 1.922466 0.023894 0.001050 -665596.000000 0 0 1
-34.654473 -30.999915 -17.821927 49.795063 0.729792 1.936820 0.008244 0.005536 335562.000000 0 0 1
-33.644084 -31.715815 -18.796727 49.911264 0.755904 1.956923 0.005278 0.003924 -315870.000000 0 0 1
-33.030864 -32.779915 -18.133327 49.943752 0.781585 1.942362 0.022944 -0.000444 212200.000000 0 0 1
-32.094114 -33.503915 -18.921527 50.105575 0.806886 1.958035 0.028805 0.003004 1276110.000000 0 0 1
-30.692694 -32.964915 -19.380427 49.033948 0.821077 1.977131 0.020183 0.004940 -47613.900000 0 0 1
-30.906484 -32.031815 -20.406127 48.965886 0.803276 2.000654 0.011198 0.007979 319826.000000 0 0 1
-29.716574 -31.560515 -21.040527 48.185523 0.815481 2.022675 0.018801 -0.002408 117220.000000 0 0 1
-29.021134 -32.634515 -21.902027 48.856285 0.843937 2.035653 0.024376 0.007814 -518935.000000 0 0 1
-29.769144 -33.273215 -22.916627 50.184465 0.840924 2.045020 0.018591 0.017395 -343049.000000 0 0 1
-29.041044 34.040202 -23.538127 50.558491 -0.864482 2.055066 0.015544 0.004383 -194237.000000 0 0 1
-29.677694 33.392902 -24.749227 51.072259 -0.844236 2.076693 0.009050 -0.006820 -1590550.000000 0 0 1
-30.733774 32.553602 -24.357027 50.966328 -0.814145 2.069064 0.015915 -0.008033 -146230.000000 0 0 1
-31.333954 31.874102 -25.483597 51.450838 -0.793944 2.088976 0.014675 -0.005048 290123.000000 0 0 1
-32.221444 32.770302 -26.349887 52.975755 -0.793843 2.091390 0.024725 -0.015169 -750903.000000 0 0 1
-31.471884 33.784102 -27.001727 53.487739 -0.820816 2.099971 0.016350 -0.024020 -204783.000000 0 0 1
-32.373284 -33.737715 -27.711677 54.352553 0.806034 2.105807 0.020095 -0.023462 332491.000000 0 0 1
-31.761864 -32.960415 -28.913847 54.140701 0.803914 2.134180 0.028490 -0.024897 235719.000000 0 0 1
-31.425204 -33.761015 -30.091707 55.071412 0.821216 2.148871 0.040917 -0.024742 381564.000000 0 0 1
-32.581514 -34.045915 -30.877297 56.339035 0.807374 2.150842 0.045589 -0.027568 295211.000000 0 0 1
-32.299994 33.456802 -32.094507 56.504023 -0.802989 2.174875 0.066841 -0.028119 111202.000000 0 0 1
-31.583744 34.012902 -33.212977 57.074620 -0.822413 2.191886 0.049128 -0.029444 59729.400000 0 0 1
-31.816544 33.228802 34.070433 57.247184 -0.807107 0.933349 0.045722 -0.043081 -741659.000000 0 0 1
-30.897724 33.618202 32.919074 56.289592 -0.827541 0.946143 0.053121 -0.037638 630038.000000 0 0 1
-29.531934 33.263202 33.184568 55.495867 -0.844748 0.929837 0.059679 -0.031885 441278.000000 0 0 1
-29.231864 31.901702 32.867208 54.336670 -0.829043 0.921180 0.063922 -0.042262 -283379.000000 0 0 1
-27.715214 31.589002 32.936624 53.393064 -0.850626 0.906036 0.045310 -0.034176 -235432.000000 0 0 1
-27.191394 31.552902 -34.150639 53.863008 -0.859508 2.257547 0.050354 -0.040351 -208124.000000 0 0 1
-25.850264 31.108202 -34.156634 52.939891 -0.877449 2.272077 0.038138 -0.031496 -566281.000000 0 0 1
-25.659534 29.567102 34.119461 51.930364 -0.856036 0.853933 0.058509 -0.036547 -612162.000000 0 0 1
-25.800424 28.787302 -33.094747 50.888436 -0.840061 2.278827 0.069038 -0.031055 80888.100000 0 0 1
-25.453794 27.473302 -33.400377 50.182299 -0.823536 2.299068 0.060290 -0.022547 -155463.000000 0 0 1
-25.404524 26.505302 -32.221207 48.847999 -0.806601 2.291112 0.075901 -0.025300 177065.000000 0 0 1
-24.307834 26.678902 -31.309927 47.780185 -0.831868 2.285364 0.070601 -0.024644 322429.000000 0 0 1
-24.423034 27.695702 -30.347127 47.796282 -0.848108 2.258710 0.060687 -0.031229 -168365.000000 0 0 1
-23.132434 27.862902 -29.543957 46.736455 -0.877896 2.255108 0.096455 -0.033209 -211096.000000 0 0 1
-21.924634 28.035402 -30.255757 46.712784 -0.907107 2.275355 0.084768 -0.026437 732517.000000 0 0 1
-20.735034 27.901502 -29.449807 45.560142 -0.931693 2.273645 0.047845 -0.028934 1057060.000000 0 0 1
-20.331934 29.206002 -28.641817 45.680759 -0.962655 2.248492 0.036635 -0.015451 -513986.000000 0 0 1
-19.938534 30.209102 -29.490847 46.688810 -0.987411 2.254472 0.032674 -0.003875 -143525.000000 0 0 1
-19.831434 31.375202 -28.756877 46.953669 -1.007127 2.229955 0.040909 -0.008574 -31796.800000 0 0 1
-19.421934 32.554502 -29.626717 48.111843 -1.032882 2.234183 0.044951 -0.004196 -846360.000000 0 0 1
-18.078134 32.619602 -29.923917 47.815250 -1.064726 2.246984 0.040823 -0.004425 -1343270.000000 0 0 1
-17.833534 33.513602 -30.987057 49.004022 -1.081778 2.255363 0.036051 0.006623 -503808.000000 0 0 1
-16.406434 33.534602 -31.501317 48.847452 -1.115795 2.271678 0.030079 0.011773 -908978.000000 0 0 1
-15.529434 34.180102 -30.608537 48.438881 -1.144338 2.254799 0.038064 -0.000638 772395.000000 0 0 1
-14.151634 -34.032915 -31.017247 48.172375 1.176725 2.270355 0.048974 -0.004084 1483610.000000 0 0 1
-13.273634 33.063102 -30.958327 47.199323 -1.189029 2.286179 0.047651 -0.005407 -700139.000000 0 0 1
-13.169434 32.551002 -29.630587 45.945331 -1.186349 2.271701 0.054687 -0.015609 -122928.000000 0 0 1
-12.668934 31.235802 -29.595957 44.856414 -1.185480 2.291340 0.044299 -0.011703 -254079.000000 0 0 1
-12.522734 30.688202 -28.173717 43.501068 -1.183358 2.275300 0.030397 -0.020638 198250.000000 0 0 1
-11.316534 31.041002 -27.500087 42.986771 -1.221203 2.264948 0.042157 -0.012318 -18030.400000 0 0 1
-11.291434 30.636802 -26.104017 41.803467 -1.217686 2.245219 0.030454 -0.018136 547192.000000 0 0 1
-9.925934 31.023402 -25.458967 41.341681 -1.261139 2.234221 0.047909 -0.019207 1486780.000000 0 0 1
-8.787234 30.257702 -25.939577 40.811832 -1.288158 2.259568 0.054042 -0.011217 311486.000000 0 0 1
-7.592234 30.725802 -25.372887 40.564767 -1.328552 2.246557 0.070436 -0.016409 -88323.700000 0 0 1
-6.408734 29.841802 -25.820857 39.979015 -1.359253 2.272946 0.044136 -0.017566 -137628.000000 0 0 1
-6.348534 28.601802 -25.118797 38.591721 -1.352375 2.279547 0.042962 -0.025678 -189200.000000 0 0 1
-5.251134 27.894002 -25.643047 38.252001 -1.384721 2.305506 0.041002 -0.025884 -113400.000000 0 0 1
-4.738634 26.850202 -24.704527 36.792685 -1.396111 2.306963 0.059687 -0.031876 -366363.000000 0 0 1
-5.676434 25.794702 -24.664227 36.137413 -1.354187 2.321991 0.056665 -0.033036 81073.700000 0 0 1
-5.255534 24.635902 -23.927127 34.742707 -1.360619 2.330484 0.057275 -0.043705 -234199.000000 0 0 1
-6.255734 23.433802 -23.890327 34.044456 -1.309926 2.348632 0.048266 -0.034898 100971.000000 0 0 1
-6.515034 22.906102 -25.190777 34.665695 -1.293690 2.384269 0.039686 -0.032724 99931.300000 0 0 1
-6.904134 21.554602 -25.073477 33.777910 -1.260813 2.407299 0.043664 -0.040051 -492842.000000 0 0 1
-6.875434 20.856002 -26.461037 34.386493 -1.252354 2.448883 0.037433 -0.030561 -286400.000000 0 0 1
-5.731934 20.130702 -26.835757 34.033191 -1.293401 2.479191 0.042303 -0.036011 -657909.000000 0 0 1
-5.534534 18.933302 -26.063257 32.686302 -1.286403 2.493730 0.041929 -0.036119 -102578.000000 0 0 1
-4.225834 18.082502 -26.263357 32.165175 -1.341219 2.526145 0.036451 -0.035490 698279.000000 0 0 1
-4.259434 17.538002 -27.582367 32.962270 -1.332541 2.562183 0.038604 -0.034613 209191.000000 0 0 1
-3.148234 16.654502 -27.721647 32.492669 -1.383969 2.592822 0.044111 -0.030899 183826.000000 0 0 1
-2.738534 16.423202 -29.207757 33.620146 -1.405569 2.623484 0.062104 -0.024269 -23335.800000 0 0 1
-2.105334 17.541702 -29.798217 34.642135 -1.451349 2.606404 0.070443 -0.030521 105737.000000 0 0 1
-1.884934 17.418702 -31.186917 35.771329 -1.463003 2.629745 0.073487 -0.034078 -111534.000000 0 0 1
-1.279634 18.745802 -31.631617 36.791327 -1.502640 2.605591 0.078474 -0.024226 35216.300000 0 0 1
0.012366 19.016002 -31.109477 36.461048 1.570146 2.592934 0.093220 -0.026705 32035.200000 0 0 1
0.688666 20.085002 -31.724097 37.553960 1.536522 2.576914 0.094487 -0.020795 249206.000000 0 0 1
0.427466 21.537402 -31.194857 37.909913 1.550951 2.537236 0.087091 -0.034365 -400445.000000 0 0 1
1.283966 21.881002 -30.153587 37.278219 1.512184 2.513040 0.106196 -0.042821 -344010.000000 0 0 1
0.635566 22.772602 -29.288707 37.105575 1.542894 2.480520 0.104679 -0.048194 -215424.000000 0 0 1
1.340666 23.005802 -27.946057 36.222181 1.512587 2.452020 0.105798 -0.047083 36611.100000 0 0 1
2.524466 23.746102 -28.005067 36.803995 1.464883 2.435533 0.091288 -0.051777 -248373.000000 0 0 1
3.707966 23.021102 -27.707187 36.213373 1.411100 2.442007 0.098060 -0.051585 -12024.700000 0 0 1
4.913566 23.898402 -27.414807 36.699433 1.368020 2.414348 0.102552 -0.053177 -438678.000000 0 0 1
5.403166 24.603302 -28.532457 38.060712 1.354617 2.418339 0.085883 -0.055352 -43527.700000 0 0 1
6.134866 25.734202 -28.135187 38.619613 1.336771 2.386956 0.098108 -0.060514 -10944.500000 0 0 1
6.814866 26.503602 -29.296677 40.089632 1.319119 2.390259 0.085250 -0.051860 819734.000000 0 0 1
8.036866 25.929402 -29.800047 40.310891 1.270235 2.402760 0.089163 -0.052252 836577.000000 0 0 1
8.844566 26.928502 -30.430347 41.585774 1.253451 2.391681 0.105475 -0.050562 840739.000000 0 0 1
10.386166 26.664502 -30.334007 41.701560 1.199363 2.385332 0.107512 -0.049861 667734.000000 0 0 1
11.112366 27.724102 -30.905987 42.980118 1.189584 2.373269 0.113001 -0.051039 -39350.600000 0 0 1
12.400166 27.859902 -30.322727 43.004721 1.152033 2.353364 0.109306 -0.049150 432722.000000 0 0 1
13.300566 28.929702 -31.016927 44.450900 1.139860 2.343089 0.116586 -0.051371 45097.700000 0 0 1
12.881466 30.273502 -30.827527 45.086068 1.168500 2.323683 0.116289 -0.044442 138279.000000 0 0 1
13.654066 31.222202 -31.563997 46.449385 1.158538 2.317925 0.150224 -0.051591 256882.000000 0 0 1
13.019166 32.638602 -31.504657 47.194496 1.191248 2.301709 0.154015 -0.058313 114055.000000 0 0 1
11.945366 32.834002 -32.390317 47.643427 1.221871 2.318353 0.124027 -0.060055 -256677.000000 0 0 1
11.139066 33.904002 -31.972757 47.914688 1.253359 2.301354 0.104715 -0.041085 -351963.000000 0 0 1
9.967866 34.121902 -32.948537 48.469255 1.286580 2.318262 0.076280 -0.038266 -430753.000000 0 0 1
10.207066 -33.580815 -34.162168 48.978660 -1.275715 2.342686 0.065708 -0.026464 -460670.000000 0 0 1
9.094166 -33.544915 33.385345 48.192805 -1.306056 0.805507 0.061947 -0.034575 -385698.000000 0 0 1
9.364266 -32.712715 32.136693 46.803613 -1.291994 0.813955 0.056427 -0.025992 -81133.100000 0 0 1
9.092966 -31.378615 32.394658 46.007753 -1.288740 0.789623 0.043460 -0.029381 116305.000000 0 0 1
9.442966 -30.604815 31.249203 44.747480 -1.271519 0.797713 0.062568 -0.027530 -635222.000000 0 0 1
9.132066 -29.079615 31.285093 43.678091 -1.266512 0.772361 0.040985 -0.040032 925014.000000 0 0 1
7.724866 -28.816715 31.121813 43.111992 -1.308885 0.764277 0.019818 -0.025037 826186.000000 0 0 1
6.990966 -28.870815 32.359705 43.926621 -1.333223 0.742654 0.019312 -0.014833 163632.000000 0 0 1
5.463266 -28.713915 32.138973 43.442488 -1.382778 0.738016 0.021474 -0.012773 513011.000000 0 0 1
4.584466 -29.673915 31.574093 43.571572 -1.417513 0.760272 0.041983 -0.024226 215091.000000 0 0 1
4.889766 -30.074315 30.242473 42.929959 -1.409617 0.789133 0.044657 -0.029334 -607213.000000 0 0 1
4.370066 -29.300115 29.021113 41.470703 -1.422739 0.795682 0.031531 -0.026873 -940463.000000 0 0 1
3.019166 -29.526115 28.700953 41.287426 -1.468896 0.802168 0.057265 -0.028850 7886.560000 0 0 1
2.652566 -28.675415 27.601793 39.889529 -1.478556 0.806602 0.063964 -0.023588 650345.000000 0 0 1
1.205766 -29.014915 27.080943 39.707639 -1.529263 0.820291 0.065614 -0.015251 720267.000000 0 0 1
1.065866 -30.265215 26.431633 40.196399 -1.535593 0.853218 0.062016 -0.025053 55844.900000 0 0 1
0.749566 -31.321915 27.338503 41.581462 -1.546870 0.853342 0.088555 -0.037698 -713145.000000 0 0 1
1.128366 -32.765515 26.918753 42.420177 -1.536372 0.883339 0.092633 -0.044677 1773640.000000 0 0 1
2.561966 -33.060015 26.915943 42.708269 -1.493456 0.888950 0.080926 -0.037755 1412330.000000 0 0 1
3.237066 -32.639115 25.812673 41.738286 -1.471942 0.904039 0.077926 -0.048637 152284.000000 0 0 1
4.800666 -32.604915 25.991783 41.972606 -1.424609 0.903002 0.097847 -0.035295 1018780.000000 0 0 1
5.489566 -32.222115 24.793833 41.026018 -1.402050 0.921854 0.084863 -0.048566 887484.000000 0 0 1
6.901266 -32.191515 25.056143 41.373076 -1.359611 0.920258 0.068513 -0.045739 511888.000000 0 0 1
7.726466 -31.944715 23.788183 40.571428 -1.333484 0.944277 0.050636 -0.039733 408962.000000 0 0 1
9.014066 -31.361315 24.013913 40.514855 -1.290915 0.936366 0.033351 -0.021822 681294.000000 0 0 1
9.599766 -31.002215 22.762573 39.641236 -1.270512 0.959152 0.028024 -0.016889 219796.000000 0 0 1
10.802566 -30.025815 22.720373 39.172188 -1.225439 0.952052 0.013060 -0.010007 21156.400000 0 0 1
11.954666 -30.574915 23.296273 40.254886 -1.198076 0.953639 0.020611 -0.016588 83412.100000 0 0 1
13.050966 -29.647315 23.334553 39.922329 -1.156116 0.946534 0.032064 -0.011535 712961.000000 0 0 1
14.098266 -29.936515 24.416503 41.123250 -1.130667 0.935098 0.054883 -0.012824 -71191.700000 0 0 1
13.551666 -29.676415 25.682673 41.520320 -1.142428 0.903892 0.048248 -0.015906 -300565.000000 0 0 1
14.569466 -29.522615 26.615213 42.334663 -1.112361 0.890934 0.057550 -0.021884 -489334.000000 0 0 1
-10.798634 -13.739898 25.475443 30.893259 0.904692 0.601252 0.068473 -0.025081 934477.000000 0 0 1
-9.363534 -13.683998 25.430563 30.358542 0.970706 0.577786 0.063851 -0.026434 418120.000000 0 0 1
-8.720934 -13.965698 26.677343 31.349259 1.012590 0.552963 0.078229 -0.030096 197349.000000 0 0 1
-7.175234 -13.876898 26.595273 30.844137 1.093592 0.531106 0.085617 -0.029247 323871.000000 0 0 1
-6.591534 -14.908298 25.773133 30.495246 1.154499 0.563946 0.078308 -0.035483 167470.000000 0 0 1
-6.798734 -14.694598 24.354963 29.245824 1.137457 0.586709 0.065848 -0.028398 -792939.000000 0 0 1
-6.282734 -15.848898 23.424683 28.971988 1.193385 0.629149 0.059540 -0.028107 507973.000000 0 0 1
-7.101134 -17.039698 23.332203 29.751791 1.175942 0.669345 0.065118 -0.026296 77966.500000 0 0 1
-7.164734 -17.751898 24.545263 31.127692 1.187187 0.662374 0.076217 -0.026880 -375865.000000 0 0 1
-7.715134 -19.135898 24.437333 31.982638 1.187555 0.701180 0.069166 -0.021420 -976535.000000 0 0 1
-9.059634 -19.272898 24.131013 32.184272 1.131377 0.723072 0.054267 -0.016879 -880631.000000 0 0 1
-9.400334 -20.633198 23.802383 32.873219 1.143301 0.761117 0.047448 -0.015146 813322.000000 0 0 1
-10.962234 -20.766098 23.860913 33.477523 1.085086 0.777393 0.035686 -0.014768 852430.000000 0 0 1
-11.555434 -20.644098 25.156313 34.533272 1.060502 0.754716 0.042411 -0.023046 -1321700.000000 0 0 1
-12.919334 -20.646598 25.104453 34.977489 1.011667 0.770257 0.046755 -0.021434 -1278410.000000 0 0 1
-13.585034 -20.480198 26.489893 36.134555 0.985111 0.747942 0.051671 -0.022976 -200512.000000 0 0 1
-13.512334 -21.576098 27.326683 37.347808 1.011289 0.750012 0.050779 -0.022147 962632.000000 0 0 1
-12.311934 -21.563698 28.151443 37.537721 1.052006 0.722809 0.060130 -0.028391 976321.000000 0 0 1
-11.998834 -22.938198 28.728693 38.671317 1.088845 0.733413 0.057915 -0.019517 -448267.000000 0 0 1
-13.027834 -23.432798 29.535023 39.889072 1.063384 0.737088 0.047149 -0.020270 -268339.000000 0 0 1
-12.657534 -24.690498 30.077383 40.920445 1.097082 0.745099 0.050895 -0.012616 -62919.100000 0 0 1
-13.611634 -25.287878 31.125453 42.350291 1.077006 0.745200 0.042119 -0.018984 37708.900000 0 0 1
-13.509734 -24.699998 32.384417 42.910992 1.070296 0.715618 0.041132 -0.021541 -196200.000000 0 0 1
-14.611934 -25.118828 33.158975 44.090608 1.043932 0.719608 0.050903 -0.021267 -14574.600000 0 0 1
-14.648334 -24.447398 -33.829927 44.234748 1.030982 2.441499 0.051121 -0.022278 59589.900000 0 0 1
-14.753734 -23.041398 -33.715677 43.420336 1.001260 2.459881 0.053497 -0.027072 -169735.000000 0 0 1
-15.926234 -22.499398 34.104520 43.851865 0.954820 0.679764 0.053671 -0.032194 -365899.000000 0 0 1
-16.050834 -20.947798 -34.027507 43.061709 0.916989 2.481937 0.035654 -0.026410 -270974.000000 0 0 1
-16.155234 -20.744198 -32.615107 41.893419 0.909127 2.463110 0.024105 -0.020748 178616.000000 0 0 1
-16.167834 -19.376198 -32.285467 40.977888 0.875419 2.478148 0.013105 -0.018199 -512160.000000 0 0 1
-16.251834 -19.121898 -30.759337 39.697682 0.866356 2.457258 0.008657 -0.010183 1003810.000000 0 0 1
-17.527534 -19.423998 -30.127917 39.902350 0.836676 2.426513 0.008354 -0.012059 1084360.000000 0 0 1
-17.490134 -19.358198 -28.686197 38.775540 0.836051 2.403571 0.001738 -0.000615 -279382.000000 0 0 1
-16.706334 -20.436198 -27.937907 38.435224 0.885483 2.384568 -0.001961 0.003702 145274.000000 0 0 1
-15.305634 -20.206198 -28.001767 37.771045 0.922530 2.405884 0.004309 0.000270 -32756.100000 0 0 1
-14.599934 -21.352598 -27.615127 37.837637 0.971057 2.388873 0.014049 -0.001221 40917.200000 0 0 1
-13.074234 -21.269398 -27.820827 37.380762 1.019640 2.410215 0.045325 -0.007900 -250301.000000 0 0 1
-12.455134 -20.407698 -26.894967 35.985327 1.022826 2.414917 0.043739 -0.015945 991671.000000 0 0 1
-11.016634 -20.327598 -26.997397 35.544858 1.074151 2.433387 0.029452 -0.029005 1364030.000000 0 0 1
-10.253534 -21.350798 -26.111137 35.253128 1.123080 2.404872 0.055677 -0.030237 -603345.000000 0 0 1
-10.383534 -22.666598 -26.579157 36.442339 1.141228 2.388165 0.060097 -0.031776 413002.000000 0 0 1
-9.660734 -23.550198 -25.685437 36.161904 1.181512 2.360706 0.079272 -0.034857 -100017.000000 0 0 1
-9.884134 -25.040798 -25.989977 37.419468 1.194849 2.338601 0.077437 -0.027744 151749.000000 0 0 1
-8.952034 -25.491538 -26.990997 38.189938 1.233074 2.355700 0.084457 -0.030027 471997.000000 0 0 1
-9.139034 -26.818378 -27.558047 39.524591 1.242363 2.342334 0.072552 -0.022421 -161023.000000 0 0 1
-8.947434 -28.144288 -26.700767 39.813170 1.262988 2.305883 0.089633 -0.020227 39669.600000 0 0 1
-10.016834 -28.420868 -25.798217 39.669015 1.231944 2.278824 0.095742 -0.018951 274850.000000 0 0 1
-9.682234 -29.420838 -24.894727 39.737625 1.252866 2.247822 0.115801 -0.018679 201298.000000 0 0 1
-10.637834 -29.406748 -23.659427 39.213376 1.223694 2.218493 0.123583 -0.022888 373392.000000 0 0 1
-10.380934 -28.318518 -22.822327 37.822756 1.219430 2.218557 0.110480 -0.029474 364503.000000 0 0 1
-11.417734 -27.357208 -23.019827 37.532572 1.175417 2.231065 0.100318 -0.021963 237610.000000 0 0 1
-11.338534 -26.214018 -22.000827 36.052372 1.162559 2.227168 0.095002 -0.021722 -22687.900000 0 0 1
-11.819734 -26.535868 -20.707127 35.674130 1.151754 2.190080 0.087057 -0.021916 115419.000000 0 0 1
-11.982934 -25.364038 -19.913527 34.401653 1.129440 2.188119 0.073446 -0.015526 -63854.800000 0 0 1
-12.653934 -25.662078 -18.554527 34.101830 1.112685 2.146103 0.082044 -0.020550 224765.000000 0 0 1
-14.020334 -26.025108 -18.614427 34.933836 1.076652 2.132759 0.091592 -0.022423 -90786.400000 0 0 1
-14.455034 -26.394078 -17.364227 34.743514 1.069750 2.094145 0.088886 -0.023160 374908.000000 0 0 1
-16.001034 -26.571828 -17.230427 35.482147 1.028775 2.077855 0.094024 -0.028556 192292.000000 0 0 1
-16.724334 -25.312998 -17.351327 34.950247 0.986935 2.090310 0.075858 -0.013629 1122830.000000 0 0 1
-18.138334 -25.432018 -17.108927 35.616037 0.951260 2.071875 0.069701 -0.015156 1255990.000000 0 0 1
-19.011234 -26.083348 -18.240927 37.074243 0.940960 2.085194 0.064916 -0.015989 -788143.000000 0 0 1
-18.802034 -27.501238 -18.313727 38.016144 0.971108 2.073430 0.075361 -0.028840 -36623.600000 0 0 1
-19.285934 -28.367298 -17.281127 38.409481 0.973712 2.037470 0.083153 -0.035628 -1501690.000000 0 0 1
-20.783934 -28.511628 -17.226527 39.263699 0.940895 2.024992 0.063480 -0.031861 -1177320.000000 0 0 1
-21.318434 -29.417078 -18.159727 40.615463 0.943688 2.034332 0.059596 -0.029920 731422.000000 0 0 1
-22.471434 -30.129028 -17.630627 41.515813 0.929963 2.009397 0.051348 -0.017244 839219.000000 0 0 1
-23.002734 -31.182348 -18.609327 42.985715 0.935224 2.018525 0.029743 -0.014423 -310391.000000 0 0 1
-22.289834 -32.370568 -18.659827 43.507235 0.967774 2.014060 0.027134 -0.015631 -24530.500000 0 0 1
-22.793634 -33.140078 -19.747027 44.808031 0.968308 2.027178 0.013636 0.001906 37845.700000 0 0 1
-22.312934 33.792052 -19.667527 45.017568 -0.987214 2.022930 -0.000164 0.000781 -290981.000000 0 0 1
-23.021734 32.957973 -18.792927 44.377948 -0.961066 2.008074 -0.004416 0.004261 -44648.000000 0 0 1
-22.204234 31.851709 -18.465627 42.994636 -0.962011 2.014721 -0.012259 -0.005179 -138287.000000 0 0 1
-22.994134 30.576629 -18.094127 42.320891 -0.926006 2.012573 -0.007637 -0.014682 -77730.500000 0 0 1
-23.516734 30.612029 -16.755227 42.081714 -0.915737 1.980306 -0.017040 -0.015875 153891.000000 0 0 1
-24.122134 29.364629 -16.374627 41.379792 -0.883101 1.977643 -0.007493 -0.009777 117443.000000 0 0 1
-23.133634 28.165659 -16.108027 39.848938 -0.883177 1.986930 -0.003195 -0.023151 108414.000000 0 0 1
-22.423934 27.819489 -17.280327 39.690886 -0.892376 2.021249 -0.011970 -0.017600 -175798.000000 0 0 1
-21.788934 26.591779 -17.053927 38.375992 -0.884346 2.031290 0.002235 -0.014476 -231946.000000 0 0 1
-21.272834 25.970779 -18.331627 38.250011 -0.884513 2.070606 0.017709 -0.016681 -907545.000000 0 0 1
-20.885134 24.601929 -18.111427 37.006317 -0.866928 2.082215 0.026466 -0.025686 184336.000000 0 0 1
-20.101234 24.005479 -19.122627 36.687838 -0.873686 2.119082 0.026722 -0.012235 677401.000000 0 0 1
-18.649734 24.593279 -19.257527 36.379861 -0.921988 2.128626 0.033844 -0.018349 -568492.000000 0 0 1
-17.833434 24.194959 -18.182327 35.128683 -0.935620 2.114831 0.047338 -0.021337 535291.000000 0 0 1
-16.735134 25.120539 -18.016527 35.152545 -0.983122 2.108918 0.066501 -0.029539 372836.000000 0 0 1
-17.096934 26.357659 -17.149827 35.793126 -0.995370 2.070468 0.062227 -0.046779 -279224.000000 0 0 1
-18.096234 27.199279 -17.721827 37.166350 -0.983726 2.067835 0.046031 -0.039189 176443.000000 0 0 1
-18.097934 28.520599 -17.060927 37.842238 -1.005354 2.038506 0.061603 -0.049909 -226081.000000 0 0 1
-19.198734 29.508809 -17.516827 39.321755 -0.993992 2.032500 0.038816 -0.042025 -178436.000000 0 0 1
-19.165334 29.933549 -18.893727 40.252954 -1.001297 2.059379 0.056153 -0.040518 21181.100000 0 0 1
-19.727334 29.038749 -19.807927 40.308443 -0.974068 2.084503 0.027021 -0.027465 -579241.000000 0 0 1
-19.684834 29.545569 -21.216827 41.359244 -0.983080 2.109459 0.031343 -0.029778 146961.000000 0 0 1
-20.646234 30.547029 -21.550127 42.705924 -0.976440 2.099734 0.034024 -0.027738 328086.000000 0 0 1
-20.840834 30.763069 -22.986327 43.692997 -0.975357 2.124789 0.039506 -0.028254 -93288.900000 0 0 1
-21.477734 32.152059 -23.220127 45.102353 -0.981868 2.111608 0.037594 -0.025312 -141613.000000 0 0 1
-20.637534 33.256701 -22.901927 45.347704 -1.015402 2.100212 0.018592 -0.019605 155147.000000 0 0 1
-20.768034 -34.039648 -23.830527 46.453234 1.022974 2.109473 0.027769 -0.010602 -188497.000000 0 0 1
-19.604334 -33.028358 -23.667727 45.115005 1.035125 2.123052 0.041694 -0.011591 28831.700000 0 0 1
-19.640234 -32.136788 -22.552227 43.898917 1.022222 2.110324 0.046481 -0.013902 -68700.900000 0 0 1
-19.120334 -32.734938 -21.402527 43.534257 1.042153 2.084751 0.069030 -0.029302 -341532.000000 0 0 1
-18.789834 -31.763388 -20.249827 42.095442 1.036609 2.072643 0.083281 -0.034600 -140103.000000 0 0 1
-17.688734 -30.913208 -20.472727 41.081021 1.051064 2.092491 0.098992 -0.037439 -21697.900000 0 0 1
-17.255234 -30.282388 -19.318027 39.849119 1.052871 2.076907 0.091567 -0.038350 56381.300000 0 0 1
-16.035234 -29.332658 -19.525827 38.714229 1.070515 2.099435 0.112906 -0.029191 1533000.000000 0 0 1
-14.752834 -29.995728 -19.632527 38.766299 1.113705 2.101839 0.125686 -0.044040 1717390.000000 0 0 1
-13.672034 -29.083378 -20.003727 37.853884 1.131355 2.127565 0.114063 -0.042004 1020710.000000 0 0 1
-12.325134 -29.821258 -20.266327 38.104336 1.178877 2.131597 0.138092 -0.046976 776655.000000 0 0 1
-11.626234 -30.399418 -19.126927 37.750938 1.205511 2.102104 0.136718 -0.046125 608105.000000 0 0 1
-10.921534 -29.496098 -18.264227 36.371441 1.216179 2.096889 0.116471 -0.041167 -244969.000000 0 0 1
-10.164734 -30.275078 -17.163427 36.255833 1.246876 2.063940 0.102383 -0.028721 -164771.000000 0 0 1
-10.950434 -30.883628 -16.152627 36.532422 1.230055 2.028785 0.125601 -0.038616 -128333.000000 0 0 1
-11.316034 -32.146238 -16.581927 37.899783 1.232325 2.023636 0.137572 -0.039182 -121635.000000 0 0 1
-12.327134 -32.929118 -15.689727 38.502631 1.212592 1.990508 0.157738 -0.041769 92352.300000 0 0 1
-11.902434 -33.350468 -14.387827 38.222130 1.227997 1.956733 0.138851 -0.036888 107312.000000 0 0 1
-13.030534 -33.693628 -13.610727 38.604498 1.201777 1.931111 0.145490 -0.031804 323950.000000 0 0 1
-12.549734 -34.053688 -12.155827 38.274190 1.217712 1.893992 0.106142 -0.022133 373755.000000 0 0 1
-11.972834 -32.924658 -11.489027 36.869766 1.222019 1.887684 0.082462 -0.005486 223474.000000 0 0 1
-11.672934 -33.260068 -10.120627 36.673105 1.233267 1.850394 0.084479 -0.005863 -832347.000000 0 0 1
-10.459434 -32.604948 -9.547827 35.547762 1.260374 1.842727 0.071259 -0.009488 226252.000000 0 0 1
-9.187834 -33.039388 -10.065327 35.739730 1.299562 1.856287 0.043631 -0.011752 920753.000000 0 0 1
-8.038134 -32.322118 -9.589427 34.659603 1.327053 1.851128 0.031707 -0.016601 1128740.000000 0 0 1
-6.782534 -33.063208 -10.181827 35.254051 1.368465 1.863783 0.029256 -0.024216 225043.000000 0 0 1
-6.554134 34.040170 -9.616827 35.974619 -1.380583 1.841410 0.026629 -0.014386 -575622.000000 0 0 1
-5.478034 33.554114 -10.357027 35.540898 -1.408964 1.866498 0.029639 -0.012423 -439657.000000 0 0 1
-4.504234 32.631868 -9.618427 34.316775 -1.433631 1.854886 0.039732 -0.015863 -52043.400000 0 0 1
-3.894034 33.245033 -8.494527 34.533357 -1.454196 1.819327 0.048469 -0.021105 30085.400000 0 0 1
-3.245334 32.276019 -7.685027 33.336665 -1.470584 1.803416 0.047600 -0.029469 61347.500000 0 0 1
-2.941734 32.806997 -6.257027 33.527648 -1.481368 1.758520 0.050583 -0.026991 19042.600000 0 0 1
-1.818534 33.676265 -6.174127 34.285824 -1.516848 1.751862 0.029763 -0.023656 193015.000000 0 0 1
-1.536334 34.080787 -4.791227 34.450199 -1.525748 1.710326 0.038872 -0.022200 -165493.000000 0 0 1
-0.561834 33.177612 -4.046227 33.428155 -1.553864 1.692136 0.039965 -0.027705 106812.000000 0 0 1
0.796066 33.335641 -4.484927 33.645405 1.546921 1.704494 0.039114 -0.025693 576626.000000 0 0 1
1.695166 32.525699 -3.742127 32.784115 1.518726 1.685190 0.037632 -0.023748 1406180.000000 0 0 1
3.210566 32.745183 -4.147627 33.162592 1.473062 1.696194 0.040915 -0.017935 736716.000000 0 0 1
3.812366 33.967643 -3.817927 34.393480 1.459029 1.682033 0.040208 -0.016500 -664552.000000 0 0 1
5.141166 33.840429 -4.262427 34.493108 1.420025 1.694686 0.052447 -0.013021 -67160.400000 0 0 1
5.962666 -33.285548 -3.798327 34.028053 -1.393540 1.682653 0.053757 -0.011611 -18138.700000 0 0 1
5.790266 -32.140648 -4.584127 32.978215 -1.392554 1.710253 0.058925 -0.014529 -240471.000000 0 0 1
6.308466 -31.032848 -3.927827 31.910222 -1.370246 1.694199 0.055136 -0.018765 -119752.000000 0 0 1
6.175466 -29.761408 -4.723827 30.760240 -1.366201 1.724976 0.059403 -0.021530 200755.000000 0 0 1
7.044466 -29.694088 -5.876527 31.078883 -1.337868 1.761026 0.073192 -0.025076 222798.000000 0 0 1
6.803066 -28.564508 -6.694027 30.116820 -1.336987 1.794937 0.066331 -0.026505 6716.160000 0 0 1
7.121966 -27.180828 -6.109027 28.754827 -1.314536 1.784880 0.065056 -0.022153 -138049.000000 0 0 1
6.312066 -26.753328 -5.062727 27.950205 -1.339098 1.752936 0.065613 -0.027572 -521573.000000 0 0 1
6.882766 -25.656198 -4.412527 26.927372 -1.308698 1.735406 0.062262 -0.025425 -297674.000000 0 0 1
5.924266 -25.040398 -3.390727 25.954104 -1.338480 1.701814 0.065789 -0.027943 -188690.000000 0 0 1
4.804066 -24.372998 -3.912827 25.148207 -1.376185 1.727022 0.058698 -0.032798 -204495.000000 0 0 1
4.113066 -23.677998 -2.848627 24.200818 -1.398804 1.688778 0.051824 -0.032979 835191.000000 0 1 0
2.834766 -22.973298 -3.435127 23.401035 -1.448023 1.718123 0.048635 -0.030774 470632.000000 0 1 0
1.786966 -23.817898 -3.798427 24.184987 -1.495910 1.728507 0.046132 -0.026374 -177694.000000 0 1 0
0.566566 -23.119498 -4.025627 23.474196 -1.546295 1.743140 0.033653 -0.025579 686363.000000 0 1 0
-15.119934 23.338902 18.083673 33.171312 -0.995939 0.994216 -0.011626 -0.001645 -179548.000000 0 0 1
-15.615534 22.750302 19.271673 33.657369 -0.969264 0.961142 0.006675 -0.005982 140566.000000 0 0 1
-15.424634 23.586302 20.393773 34.787051 -0.991638 0.944379 0.008734 -0.011123 -1103990.000000 0 0 1
-15.380034 22.826202 21.769973 35.092914 -0.977879 0.901604 0.018225 -0.012032 -445950.000000 0 0 1
-14.208734 22.076502 22.007073 34.257427 -0.998924 0.873167 0.020079 -0.010586 1088530.000000 0 0 1
-12.928134 22.757902 22.007173 34.196116 -1.054184 0.871659 0.006309 -0.015844 523324.000000 0 0 1
-12.640434 23.790602 23.121273 35.501641 -1.082407 0.861535 0.026303 -0.014966 -695992.000000 0 0 1
-12.446234 23.329602 24.387853 35.971466 -1.080713 0.825788 0.021390 -0.012396 125338.000000 0 0 1
-12.228634 24.294902 25.427383 37.233500 -1.104479 0.819048 0.050848 -0.019236 -132103.000000 0 0 1
-11.595034 23.660502 26.652663 37.478375 -1.115133 0.779667 0.047630 -0.016936 1239680.000000 0 0 1
-10.168434 23.446202 26.507923 36.821072 -1.161586 0.767121 0.025820 -0.019312 1139140.000000 0 0 1
-9.649634 22.528302 27.491683 36.829776 -1.166105 0.728081 0.025892 -0.013965 -177144.000000 0 0 1
-8.107734 22.341202 27.426983 36.291928 -1.222671 0.714025 0.030996 -0.027148 436365.000000 0 0 1
-7.366934 23.355302 28.091693 37.267748 -1.265246 0.717000 0.034576 -0.025765 -62645.100000 0 0 1
-7.214334 24.525902 27.259863 37.372002 -1.284714 0.753324 0.032852 -0.019143 -490818.000000 0 0 1
-6.120834 25.499802 27.792863 38.211879 -1.335219 0.756365 0.031786 -0.019940 1000200.000000 0 0 1
-4.793434 24.955002 27.706983 37.595292 -1.381025 0.742205 0.028555 -0.020484 827302.000000 0 0 1
-3.805034 25.807002 28.314203 38.499009 -1.424409 0.744462 0.039094 -0.015194 243560.000000 0 0 1
-2.383034 25.305602 28.079503 37.874936 -1.476903 0.735680 0.052328 -0.013821 -386921.000000 0 0 1
-1.756434 25.409702 26.807233 36.977908 -1.501782 0.759831 0.051804 -0.012190 380431.000000 0 0 1
-0.469734 24.790102 26.882323 36.570877 -1.551850 0.745020 0.068376 0.003418 742579.000000 0 0 1
0.156166 24.679602 25.446773 35.449194 1.564469 0.770105 0.060741 -0.001717 88888.600000 0 0 1
-0.276534 23.450102 24.851423 34.169825 -1.559004 0.756429 0.062103 0.001600 383603.000000 0 0 1
0.207766 23.298802 23.510783 33.100366 1.561879 0.780889 0.066249 -0.001374 27325.300000 0 0 1
-0.284234 22.016002 22.938273 31.795431 -1.557887 0.764927 0.045274 0.006654 3877.410000 0 0 1
0.534966 20.963002 23.385943 31.410761 1.545282 0.730981 0.065827 0.007343 58114.900000 0 0 1
0.123966 19.727902 22.807373 30.155956 1.564513 0.713136 0.061524 0.005295 -231949.000000 0 0 1
1.137466 18.604902 22.961873 29.575053 1.509734 0.681874 0.073180 0.012972 -133171.000000 0 0 1
2.274366 18.725802 22.138973 29.085434 1.449932 0.705680 0.069585 0.007386 18707.500000 0 0 1
3.208466 17.652702 22.271973 28.599876 1.391004 0.678136 0.068567 0.001421 280684.000000 0 0 1
4.551466 17.959402 21.569673 28.434253 1.322591 0.709664 0.072265 -0.004457 -428400.000000 0 0 1
5.385566 18.680302 22.397973 29.658509 1.290106 0.714844 0.062989 0.004522 -1317710.000000 0 0 1
6.615566 18.889402 21.788273 29.585538 1.233920 0.742989 0.067285 -0.008749 -465824.000000 0 0 1
7.736166 19.436102 22.736673 30.896061 1.191989 0.743789 0.073174 -0.010984 25403.400000 0 0 1
7.564666 20.690202 23.318573 32.079034 1.220278 0.756985 0.057262 0.003162 -5222.440000 0 0 1
7.210166 21.820902 22.503773 32.164546 1.251666 0.795895 0.060708 -0.005700 44715.400000 0 0 1
5.848866 22.401502 22.983573 32.623322 1.315405 0.789059 0.039620 0.001298 122912.000000 0 0 1
5.559066 23.590802 22.313473 32.944198 1.339373 0.826695 0.036770 -0.009024 74875.400000 0 0 1
4.507966 24.225302 23.011173 33.714998 1.386816 0.819591 0.021213 -0.006325 -296841.000000 0 0 1
4.207566 25.679002 22.478073 34.385731 1.408387 0.858328 0.040429 -0.013945 142041.000000 0 0 1
3.819866 25.842402 21.079573 33.567387 1.424045 0.891844 0.046512 -0.016048 118995.000000 0 0 1
2.685666 25.145502 20.619773 32.629497 1.464395 0.886747 0.054577 -0.016770 -371194.000000 0 0 1
2.353866 25.540202 19.174973 32.023775 1.478893 0.928828 0.050166 -0.015742 -555441.000000 0 0 1
2.089866 26.905802 19.143473 33.087192 1.493279 0.953814 0.064624 -0.024267 170290.000000 0 0 1
1.686166 27.349502 17.845273 32.700033 1.509222 0.993541 0.065958 -0.019424 -414655.000000 0 0 1
0.581366 28.377402 17.938473 33.576833 1.550312 1.007174 0.060312 -0.008074 -437033.000000 0 0 1
0.962666 29.691602 18.302673 34.892775 1.538386 1.018621 0.060216 -0.007910 -389256.000000 0 0 1
-0.176234 30.478802 18.460973 35.634196 -1.565014 1.026204 0.046873 -0.006203 -332226.000000 0 0 1
0.102766 31.863502 19.098773 37.149110 1.567571 1.030825 0.043163 -0.001341 -197319.000000 0 0 1
0.247166 31.747002 20.487973 37.784788 1.563011 0.997710 0.054553 -0.007029 -226818.000000 0 0 1
0.884266 32.895702 20.924273 38.996593 1.543922 1.004433 0.045493 -0.015913 -271621.000000 0 0 1
1.499366 32.788002 22.326873 39.696226 1.525099 0.973459 0.051519 -0.027277 -70875.100000 0 0 1
0.470266 32.553602 23.278073 40.022828 1.556351 0.950078 0.053081 -0.015674 111420.000000 0 0 1
0.786666 32.721202 24.647633 40.973182 1.546759 0.925350 0.067526 -0.030299 -801257.000000 0 0 1
-0.308034 32.184602 25.544163 41.090725 -1.561226 0.899945 0.074042 -0.028193 -700788.000000 0 0 1
-1.417534 33.051702 25.559843 41.805860 -1.527934 0.912976 0.065641 -0.025428 -145948.000000 0 0 1
-2.397734 32.761702 26.544293 42.233608 -1.497739 0.891159 0.060598 -0.020537 103497.000000 0 0 1
-2.048734 32.993502 28.077643 43.371909 -1.508781 0.866669 0.079665 -0.026492 -1117360.000000 0 0 1
-1.122234 32.111202 28.572453 42.997369 -1.535862 0.843950 0.090224 -0.032764 -467720.000000 0 0 1
-0.540734 32.792602 29.643553 44.208453 -1.554308 0.835859 0.096591 -0.032631 652546.000000 0 0 1
0.759566 32.241902 30.412223 44.328551 1.547242 0.814731 0.087744 -0.022188 2490790.000000 0 0 1
2.113766 32.584902 30.041853 44.370674 1.506018 0.827029 0.081265 -0.023937 1264890.000000 0 0 1
2.498466 32.070602 28.775653 43.160213 1.493048 0.841001 0.080794 -0.025927 -1362770.000000 0 0 1
3.978666 32.099702 28.467163 43.088281 1.447478 0.849085 0.069455 -0.022725 -808253.000000 0 0 1
4.593266 30.951102 29.020273 42.676047 1.423468 0.823016 0.069512 -0.018587 117868.000000 0 0 1
5.998866 30.983102 28.828993 42.744003 1.379545 0.830567 0.062074 -0.031500 253229.000000 0 0 1
6.706166 29.704202 29.421993 42.343428 1.348754 0.802596 0.051773 -0.007353 127785.000000 0 0 1
6.766266 29.726202 30.832133 43.359541 1.346990 0.779762 0.058963 -0.019588 195819.000000 0 0 1
7.243466 28.421402 31.244233 42.853774 1.321249 0.753806 0.039459 -0.018022 48745.400000 0 0 1
7.270366 28.428202 32.776286 43.992110 1.320418 0.730188 0.063815 -0.034159 245753.000000 0 0 1
5.981266 28.502402 33.387493 44.304482 1.363947 0.717287 0.066260 -0.034436 167828.000000 0 0 1
6.004566 28.228202 -33.632817 44.317633 1.361205 2.432424 0.083541 -0.037962 52908.900000 0 0 1
5.976566 26.739802 -33.161987 43.016901 1.350902 2.451059 0.074711 -0.038830 156110.000000 0 0 1
7.221266 26.145702 -33.492217 43.098411 1.301321 2.460858 0.055429 -0.034489 148504.000000 0 0 1
7.352066 24.773802 -33.157527 42.038265 1.282307 2.479563 0.061379 -0.035735 442872.000000 0 0 1
8.773866 24.200802 -33.473877 42.227479 1.222990 2.486028 0.065451 -0.032707 40490.100000 0 0 1
8.984566 23.892602 33.536773 42.146103 1.211114 0.650590 0.038093 -0.019554 -272187.000000 0 0 1
10.221566 23.239002 33.440544 41.985731 1.156419 0.649355 0.052063 -0.032531 -730924.000000 0 0 1
10.212866 21.762302 33.835390 41.505831 1.132016 0.617729 0.034598 -0.034914 -865793.000000 0 0 1
9.448966 20.967202 32.932915 40.168189 1.147398 0.609603 0.021214 -0.026783 -48671.200000 0 0 1
9.394166 19.640202 33.426164 39.891055 1.124648 0.577305 0.022520 -0.022933 902380.000000 0 0 1
8.007166 19.283502 34.116420 39.998728 1.177227 0.549209 0.034601 -0.029783 713285.000000 0 0 1
7.844366 19.802502 -32.935437 39.222649 1.193631 2.567535 0.039570 -0.025938 -220425.000000 0 0 1
7.032566 20.919002 -32.963237 39.669089 1.246485 2.551619 0.063184 -0.030990 -1020480.000000 0 0 1
6.840166 21.689202 -31.618117 38.947589 1.265297 2.518045 0.072204 -0.045908 -569234.000000 0 0 1
8.068966 22.164302 -31.164417 39.084337 1.221658 2.493710 0.083293 -0.047961 -328369.000000 0 0 1
7.964666 22.684002 -29.872937 38.345694 1.233130 2.463934 0.059240 -0.041734 -729924.000000 0 0 1
9.297466 23.004702 -29.217327 38.331598 1.186713 2.437541 0.069585 -0.040673 -402983.000000 0 0 1
10.018466 21.795302 -28.990517 37.627848 1.139937 2.450349 0.060772 -0.039829 -915091.000000 0 0 1
11.389166 22.030902 -29.113447 38.244824 1.093670 2.436018 0.069094 -0.036898 -659353.000000 0 0 1
12.149066 20.731702 -29.025107 37.681031 1.040724 2.450083 0.059040 -0.043289 -380630.000000 0 0 1
12.063166 19.885102 -30.124677 38.058290 1.025506 2.484122 0.038536 -0.036194 676209.000000 0 0 1
10.756166 19.340202 -30.412637 37.612060 1.063239 2.512544 0.038471 -0.032314 724939.000000 0 0 1
10.775266 18.307602 -31.520497 38.010741 1.038825 2.548565 0.040656 -0.026148 -47096.400000 0 0 1
11.469466 17.090502 -31.159197 37.343400 0.979730 2.557833 0.041556 -0.017847 461581.000000 0 0 1
11.635666 16.087002 -32.183867 37.815099 0.944606 2.588845 0.036699 -0.010400 227533.000000 0 0 1
12.815366 16.327302 -33.181527 39.138576 0.905328 2.582612 0.028952 -0.004005 -21219.800000 0 0 1
12.622666 17.477102 -33.995267 40.254925 0.945299 2.576426 0.038417 -0.011468 -81979.400000 0 0 1
13.322266 17.550002 33.138399 39.794959 0.921494 0.586779 0.038122 -0.012170 -28662.800000 0 0 1
12.761366 16.720902 32.008213 38.301001 0.918902 0.581387 0.050131 -0.021090 -797152.000000 0 0 1
13.259966 17.133702 30.767753 37.630374 0.912167 0.613512 0.041043 -0.028464 -57262.500000 0 0 1
12.462266 16.772602 29.612843 36.242912 0.931782 0.614493 0.052090 -0.024454 537320.000000 0 0 1
11.020266 17.325702 29.561843 35.993454 1.004280 0.607090 0.043210 -0.023828 118797.000000 0 0 1
10.063066 16.689402 30.398373 36.109036 1.028202 0.570095 0.043327 -0.017961 95011.000000 0 0 1
8.857266 17.446602 30.505673 36.241290 1.101025 0.570302 0.049227 -0.019336 700534.000000 0 0 1
7.889966 16.547802 31.367753 36.332041 1.125882 0.528899 0.058207 -0.013620 125409.000000 0 0 1
8.290966 16.536802 32.684950 37.556782 1.106058 0.515024 0.064253 -0.012260 -57822.700000 0 0 1
7.512266 15.602202 33.401773 37.623680 1.122068 0.478284 0.064679 -0.009681 -96640.300000 0 0 1
7.719466 15.523902 -33.444877 37.671495 1.109340 2.663346 0.060657 -0.013214 -174055.000000 0 0 1
7.022266 16.569702 -32.805367 37.417367 1.169941 2.639842 0.061343 -0.019419 346739.000000 0 0 1
7.150566 16.509802 -31.401617 36.190686 1.162076 2.621295 0.069571 -0.017025 -359341.000000 0 0 1
6.219566 17.558502 -30.799687 35.994510 1.230367 2.597655 0.070965 -0.027280 -487034.000000 0 0 1
6.068666 17.538102 -29.371817 34.743595 1.237665 2.578087 0.068455 -0.032465 422312.000000 0 0 1
5.409366 18.677002 -28.787407 34.739120 1.288883 2.547531 0.077977 -0.037402 168835.000000 0 0 1
3.864666 18.763802 -28.863767 34.642935 1.367673 2.555628 0.099792 -0.042958 -537780.000000 0 0 1
3.217066 17.826802 -27.957677 33.313302 1.392256 2.566671 0.116055 -0.041115 947782.000000 0 0 1
1.848066 17.600602 -28.354637 33.424272 1.466179 2.583610 0.098834 -0.036263 1213180.000000 0 0 1
0.870966 18.745102 -27.966707 33.678987 1.524366 2.550604 0.085313 -0.041121 -736354.000000 0 0 1
0.753066 18.920002 -26.561787 32.619965 1.531015 2.522284 0.115576 -0.046674 866409.000000 0 0 1
-0.266534 19.962902 -26.425277 33.119236 -1.557446 2.494572 0.120488 -0.052951 686730.000000 0 0 1
-0.803234 20.442702 -25.095987 32.378354 -1.531525 2.457646 0.081692 -0.053306 307008.000000 0 0 1
-1.832434 19.614802 -24.534827 31.465156 -1.477646 2.465056 0.066516 -0.048883 439726.000000 0 0 1
-2.252634 20.236202 -23.318827 30.957163 -1.459936 2.423803 0.086094 -0.047177 -46110.900000 0 0 1
-3.114334 19.320302 -22.421527 29.760679 -1.410976 2.424005 0.068627 -0.046619 -83934.100000 0 0 1
-4.470434 19.327102 -22.815627 30.233665 -1.343490 2.425906 0.052628 -0.035162 -392971.000000 0 0 1
-5.142334 18.471402 -21.924127 29.125653 -1.299277 2.423015 0.035849 -0.036212 -1370490.000000 0 0 1
-6.631634 18.515602 -22.140027 29.613964 -1.226866 2.415269 0.068200 -0.026023 -515398.000000 0 0 1
-7.421334 19.379802 -21.264627 29.712578 -1.205081 2.368390 0.032756 -0.014061 663135.000000 0 0 1
-7.463534 20.716202 -21.655227 30.883883 -1.224997 2.347851 0.035936 -0.025548 -3289.970000 0 0 1
-8.309034 21.739202 -20.802427 31.214963 -1.205716 2.300200 0.046731 -0.032982 307225.000000 0 0 1
-7.598734 22.021302 -19.596927 30.442044 -1.238527 2.270179 0.051101 -0.038564 481145.000000 0 0 1
-8.140334 23.041802 -18.801727 30.833336 -1.231198 2.226587 0.076546 -0.036924 -292723.000000 0 0 1
-7.303234 23.270502 -17.532327 30.037243 -1.266690 2.194058 0.103986 -0.048299 613603.000000 0 0 1
-5.920334 23.626102 -17.666027 30.088728 -1.325268 2.198306 0.121812 -0.052905 359222.000000 0 0 1
-5.470034 23.694702 -16.354227 29.305646 -1.343916 2.162839 0.137826 -0.042750 183963.000000 0 0 1
-3.927334 23.856902 -16.294527 29.156257 -1.407639 2.163818 0.135932 -0.042202 241072.000000 0 0 1
-3.448334 25.135202 -16.643427 30.342595 -1.434456 2.151386 0.115046 -0.041037 295679.000000 0 0 1
-2.067334 25.037802 -16.995727 30.331834 -1.488415 2.165576 0.108773 -0.043128 602419.000000 0 0 1
-1.393834 26.407402 -17.165027 31.526684 -1.518063 2.146542 0.090822 -0.056809 -17960.200000 0 0 1
-2.033634 27.162802 -18.189227 32.753648 -1.496067 2.159561 0.093563 -0.060801 20917.300000 0 0 1
-1.300734 28.295702 -18.585127 33.878394 -1.524859 2.151465 0.093922 -0.057200 -390371.000000 0 0 1
-2.156134 29.248002 -19.485127 35.210293 -1.497210 2.157229 0.112695 -0.050289 322569.000000 0 0 1
-2.922134 30.211402 -18.782127 35.693640 -1.474373 2.124926 0.067351 -0.036309 -144432.000000 0 0 1
-4.207234 29.825002 -18.349527 35.269487 -1.430657 2.117959 0.047569 -0.040648 -438786.000000 0 0 1
-4.850334 30.938102 -17.548127 35.897474 -1.415287 2.081556 0.070626 -0.029274 -433073.000000 0 0 1
-5.314534 31.962202 -18.325227 37.224193 -1.406028 2.085519 0.110787 -0.037125 -93340.500000 0 0 1
-5.515334 33.093202 -17.523327 37.850309 -1.405654 2.052132 0.096531 -0.049990 78709.100000 0 0 1
-6.278934 -34.092415 -18.224327 39.164319 1.388663 2.054804 0.097586 -0.039682 838756.000000 0 0 1
-7.664134 33.979302 -18.428927 39.407579 -1.348956 2.057426 0.126932 -0.049615 669127.000000 0 0 1
-8.427034 -33.254315 -18.787027 39.112872 1.322609 2.071826 0.177068 -0.056046 75377.100000 0 0 1
29.455366 -20.741498 -26.182797 44.535011 -0.613517 2.199275 0.051615 0.000467 354331.000000 0 0 1
28.957366 -21.924798 -25.555237 44.410539 -0.648055 2.183928 0.050195 -0.009597 700306.000000 0 0 1
27.516966 -22.025398 -25.632597 43.581322 -0.675003 2.199573 0.027581 -0.011113 1296260.000000 0 0 1
27.083766 -23.417798 -25.101277 43.726397 -0.712934 2.182244 0.026818 -0.008378 148900.000000 0 0 1
27.442366 -24.563298 -25.898497 45.024119 -0.730094 2.183662 0.036209 -0.000793 1223600.000000 0 0 1
28.860466 -24.933198 -25.934297 46.121347 -0.712521 2.167968 0.044139 -0.002518 1631130.000000 0 0 1
29.223166 -26.254218 -26.656027 47.474427 -0.731933 2.166972 0.041770 -0.002997 14041.400000 0 0 1
28.782766 -27.353508 -25.853907 47.382345 -0.759943 2.147954 0.052328 -0.013558 -137212.000000 0 0 1
29.151966 -28.619448 -26.356027 48.616357 -0.776181 2.143757 0.042233 -0.009865 497419.000000 0 0 1
27.984666 -29.208148 -27.198427 48.744353 -0.806787 2.162747 0.043716 -0.010803 8627.170000 0 0 1
27.752766 -28.633868 -28.482317 49.003641 -0.801023 2.191034 0.027860 -0.015478 171143.000000 0 0 1
28.788866 -28.625468 -29.482447 50.174007 -0.782552 2.198891 0.009724 -0.012092 -149771.000000 0 0 1
28.921566 -30.023448 -30.191747 51.472382 -0.804089 2.197604 0.023899 -0.005237 -701423.000000 0 0 1
29.532066 -31.054778 -29.321187 51.925661 -0.810526 2.170837 0.032793 -0.005271 1718920.000000 0 0 1
30.930266 -30.937308 -28.900487 52.431256 -0.785512 2.154607 0.029811 -0.002740 1542270.000000 0 0 1
31.942966 -30.726998 -30.039647 53.543272 -0.765998 2.166432 0.021845 -0.006921 -1018590.000000 0 0 1
32.030066 -29.345868 -30.356397 52.996377 -0.741692 2.180716 0.025090 -0.009903 -489364.000000 0 0 1
33.275766 -29.081118 -30.931797 53.942230 -0.718231 2.181476 0.038422 -0.014945 -379536.000000 0 0 1
33.380866 -27.626738 -31.569337 53.611025 -0.691358 2.200443 0.029379 0.000376 88285.500000 0 0 1
33.077866 -26.532798 -30.738747 52.373707 -0.676039 2.198036 0.018117 0.005250 1402140.000000 0 0 1
31.777266 -26.404868 -30.066377 51.097933 -0.693322 2.199883 0.031836 0.007099 1120130.000000 0 0 1
31.516966 -25.057118 -29.380167 49.843481 -0.671707 2.201172 0.031882 0.005518 -838453.000000 0 0 1
32.363166 -24.720298 -28.335737 49.612314 -0.652300 2.178694 0.032488 -0.000765 -368760.000000 0 0 1
32.336366 -23.374898 -27.909747 48.692715 -0.625909 2.181179 0.030360 0.001890 163196.000000 0 0 1
33.399066 -23.113798 -26.795087 48.659244 -0.605370 2.153961 0.037350 -0.002703 16844.300000 0 0 1
33.325666 -23.835198 -25.550287 48.285960 -0.620868 2.128389 0.047204 -0.012220 -434998.000000 0 0 1
32.321966 -23.560498 -24.625627 46.970503 -0.629880 2.122664 0.048043 -0.010132 -296533.000000 0 0 1
32.688066 -22.328898 -23.775027 46.177281 -0.599287 2.111646 0.058354 -0.019618 -44586.500000 0 0 1
32.684566 -21.119498 -24.441627 45.953316 -0.573672 2.131615 0.056998 -0.020341 -70969.200000 0 0 1
32.733366 -19.954898 -23.655527 45.047255 -0.547463 2.123661 0.038291 -0.027459 -76071.900000 0 0 1
32.803566 -18.655298 -24.441927 44.961116 -0.517085 2.145545 0.030693 -0.026110 -370859.000000 0 0 1
31.684166 -18.430398 -25.228017 44.497403 -0.526848 2.173601 0.053085 -0.020185 -377706.000000 0 0 1
31.707866 -17.140298 -25.776587 44.312651 -0.495574 2.191611 0.058932 -0.023007 32162.800000 0 0 1
30.739266 -17.030298 -26.993167 44.312128 -0.505928 2.225797 0.033735 -0.008456 217158.000000 0 0 1
29.394366 -16.987198 -26.549747 43.098524 -0.524016 2.234482 0.021532 -0.004420 -371271.000000 0 0 1
28.546866 -16.932798 -27.655137 43.202429 -0.535373 2.265463 0.003625 -0.004472 413554.000000 0 0 1
27.051066 -16.752398 -27.219217 41.872292 -0.554481 2.278451 -0.022262 0.002546 658738.000000 0 0 1
26.446866 -17.771198 -26.488257 41.435251 -0.591657 2.264343 0.008532 0.008346 -108068.000000 0 0 1
26.308966 -17.321598 -25.148787 40.307084 -0.582252 2.244558 0.003444 0.012619 -279360.000000 0 0 1
25.985266 -18.469098 -24.210627 40.031190 -0.617906 2.220304 0.010148 0.009337 -347105.000000 0 0 1
25.832566 -18.031198 -22.857427 38.921814 -0.609384 2.198472 0.007214 0.007289 -113341.000000 0 0 1
25.297966 -19.011298 -22.025927 38.555908 -0.644457 2.178852 0.018385 -0.002185 -181289.000000 0 0 1
25.179666 -18.405598 -20.577127 37.365757 -0.631211 2.153993 0.023147 -0.009786 64762.300000 0 0 1
24.308266 -17.288398 -20.332727 36.099866 -0.618213 2.169093 0.022048 -0.014554 167840.000000 0 0 1
24.610966 -16.021598 -20.901027 36.045031 -0.577074 2.189352 0.012777 -0.006507 -3255.420000 0 0 1
25.938066 -15.331498 -20.483227 36.433511 -0.533836 2.167850 0.012567 -0.011784 174169.000000 0 0 1
25.851666 -14.509998 -19.348927 35.400985 -0.511461 2.149053 0.019562 -0.022096 419245.000000 0 0 1
26.988166 -13.649198 -19.318127 35.886652 -0.468235 2.139226 0.009314 -0.012515 90663.500000 0 0 1
27.076066 -12.707998 -18.115127 34.968049 -0.438824 2.115364 0.020462 -0.006602 -481065.000000 0 0 1
27.416166 -13.232398 -16.867227 34.802958 -0.449671 2.076758 0.018588 -0.004116 232275.000000 0 0 1
27.314266 -12.277498 -15.862527 33.888433 -0.422430 2.057914 0.013392 0.000378 -161486.000000 0 0 1
27.768366 -12.665798 -14.436027 33.762457 -0.427934 2.012606 0.028370 -0.001015 563883.000000 0 0 1
26.841466 -13.542998 -13.702727 33.040004 -0.467285 1.998444 0.050494 -0.013365 1214640.000000 0 0 1
27.381966 -13.803098 -12.420127 33.084092 -0.466918 1.955636 0.059407 -0.013044 51429.600000 0 0 1
26.793866 -15.090998 -11.774027 32.928365 -0.512941 1.936455 0.072030 -0.026490 -263420.000000 0 0 1
25.453766 -14.993098 -11.389427 31.660800 -0.532316 1.938778 0.053250 -0.027008 -80669.900000 0 0 1
24.898266 -16.288298 -11.172427 31.781370 -0.579318 1.930012 0.036507 -0.027178 -1172360.000000 0 0 1
23.447566 -16.304498 -10.807127 30.535537 -0.607605 1.932555 0.053592 -0.037531 -1367990.000000 0 0 1
23.230466 -15.843898 -9.474227 29.672288 -0.598564 1.895782 0.041520 -0.024834 -28204.600000 0 0 1
21.882866 -15.688498 -9.126827 28.430403 -0.621999 1.897606 0.047790 -0.029409 -512453.000000 0 0 1
21.800566 -15.305298 -7.678527 27.721411 -0.612107 1.851455 0.047612 -0.026586 -315334.000000 0 0 1
22.285866 -14.046698 -7.307727 27.338114 -0.562399 1.841396 0.059974 -0.022752 251527.000000 0 0 1
22.033666 -13.696198 -5.935427 26.613861 -0.556153 1.795708 0.064506 -0.020642 -245312.000000 0 0 1
22.850166 -14.389798 -4.772927 27.422203 -0.562005 1.745741 0.064227 -0.019934 -292974.000000 0 0 1
24.224366 -14.179998 -4.974627 28.506827 -0.529586 1.746201 0.079414 -0.024433 -346348.000000 0 0 1
24.925166 -14.711198 -3.908427 29.205463 -0.533193 1.705024 0.081606 -0.034854 637511.000000 0 0 1
26.491666 -14.525298 -4.036927 30.480969 -0.501535 1.703628 0.091122 -0.033772 1044820.000000 0 0 1
26.982266 -13.269898 -3.574527 30.280524 -0.457067 1.689119 0.098816 -0.031779 306930.000000 0 0 1
28.265766 -13.053498 -4.140927 31.408512 -0.432634 1.703022 0.097693 -0.035710 364880.000000 0 0 1
29.122566 -11.886698 -3.502427 31.649399 -0.387522 1.681687 0.112054 -0.041528 -325886.000000 0 0 1
29.588866 -12.252798 -2.164527 32.098555 -0.392604 1.638281 0.112852 -0.045203 174668.000000 0 0 1
30.163266 -11.224898 -1.446027 32.216641 -0.356259 1.615696 0.118211 -0.043694 -815928.000000 0 0 1
31.603766 -10.871198 -1.771627 33.468189 -0.331306 1.623756 0.114788 -0.040870 -1116180.000000 0 0 1
31.803766 -10.198898 -3.004727 33.533945 -0.310322 1.660519 0.127766 -0.043640 465257.000000 0 0 1
32.917566 -10.721198 -3.738427 34.820771 -0.314863 1.678366 0.110175 -0.037169 224272.000000 0 0 1
32.792266 -10.583998 -5.241527 34.854374 -0.312204 1.721753 0.112817 -0.034131 -18992.400000 0 0 1
31.667866 -11.269598 -5.740127 34.099951 -0.341893 1.739934 0.097973 -0.039425 440188.000000 0 0 1
31.884066 -11.286598 -7.152927 34.570875 -0.340224 1.779208 0.085942 -0.032920 380998.000000 0 0 1
30.594066 -11.701698 -7.915727 33.698448 -0.365315 1.807911 0.103971 -0.033447 306961.000000 0 0 1
30.426466 -13.088098 -7.801327 34.028354 -0.406229 1.802113 0.088784 -0.033950 1336090.000000 0 0 1
29.069166 -13.433498 -8.190127 33.053797 -0.432889 1.821186 0.086805 -0.034944 1288250.000000 0 0 1
28.913166 -14.965598 -8.168827 33.565906 -0.477632 1.816632 0.092269 -0.038509 92637.200000 0 0 1
29.641966 -15.627798 -9.192527 34.747328 -0.485185 1.838537 0.092469 -0.035317 334429.000000 0 0 1
29.580566 -17.049298 -9.016927 35.312795 -0.522862 1.829000 0.088419 -0.028077 -81348.300000 0 0 1
29.762066 -17.834798 -10.273727 36.185772 -0.539865 1.858672 0.077345 -0.029750 291119.000000 0 0 1
31.081666 -17.598198 -10.770527 37.306445 -0.515190 1.863669 0.083171 -0.028923 690818.000000 0 0 1
31.346966 -18.112098 -12.098227 38.171292 -0.523932 1.893304 0.064749 -0.015639 -225133.000000 0 0 1
30.742966 -17.373298 -13.286827 37.729316 -0.514373 1.930676 0.055714 -0.023351 -258382.000000 0 0 1
31.373166 -16.148998 -13.547927 37.796985 -0.475369 1.937392 0.038534 -0.016691 303051.000000 0 0 1
30.705066 -15.462698 -14.621527 37.358871 -0.466514 1.972927 0.023119 -0.020408 -819242.000000 0 0 1
31.510166 -14.379998 -15.377327 37.896400 -0.428131 1.988621 0.020733 -0.009206 453828.000000 0 0 1
32.543466 -14.816398 -16.278527 39.288590 -0.427236 1.998005 -0.004527 -0.014349 417067.000000 0 0 1
33.686866 -15.268798 -15.606127 40.143398 -0.425559 1.970081 0.011893 -0.013327 -1302310.000000 0 0 1
34.678366 -15.827698 -16.638127 41.592456 -0.428175 1.982343 0.033740 -0.018643 -77660.700000 0 0 1
35.992566 -16.097998 -16.179527 42.619098 -0.420572 1.960194 0.049383 -0.023322 -47782.800000 0 0 1
-36.097455 -16.690398 -17.214027 43.334956 0.433093 1.979295 0.055742 -0.028894 -65568.200000 0 0 1
-34.605255 -16.372598 -16.935927 41.861812 0.441917 1.987302 0.055381 -0.027448 34291.900000 0 0 1
-33.939055 -17.096798 -15.922427 41.202957 0.466643 1.967564 0.059570 -0.028978 105280.000000 0 0 1
-34.345755 -16.697198 -14.630727 40.896033 0.452507 1.936658 0.065139 -0.031380 -763987.000000 0 0 1
-33.692455 -17.421398 -13.400227 40.227512 0.477211 1.910397 0.066030 -0.027987 -1065230.000000 0 0 1
-32.331755 -17.227998 -13.350927 38.992224 0.489582 1.920266 0.079516 -0.030581 -1122400.000000 0 0 1
-31.773055 -17.747498 -12.146127 38.367032 0.509400 1.892915 0.086463 -0.021472 1070610.000000 0 0 1
-30.214755 -17.568698 -12.000027 36.953907 0.526676 1.901522 0.101220 -0.023215 982676.000000 0 0 1
-29.690455 -16.220298 -11.976927 35.889664 0.500009 1.911038 0.096117 -0.030135 126034.000000 0 0 1
-28.542055 -15.990298 -11.183927 34.574829 0.510668 1.900191 0.092520 -0.023178 137589.000000 0 0 1
-28.783555 -16.147398 -9.623027 34.377815 0.511245 1.854507 0.090892 -0.017860 -214398.000000 0 0 1
-29.110655 -17.410798 -9.120527 35.124780 0.539014 1.833467 0.087649 -0.017220 -198914.000000 0 0 1
-29.445955 -17.310198 -7.800127 35.036398 0.531448 1.795307 0.099429 -0.015872 -512154.000000 0 0 1
-30.133555 -18.587798 -7.289327 36.147914 0.552715 1.773841 0.090827 -0.014072 72051.700000 0 0 1
-31.401355 -18.749898 -7.910927 37.419067 0.538288 1.783818 0.065667 -0.010496 133246.000000 0 0 1
-31.355455 -19.679498 -8.968927 38.090535 0.560485 1.808492 0.069586 -0.011643 435018.000000 0 0 1
-32.732055 -20.289598 -9.404927 39.642249 0.554901 1.810325 0.054741 -0.010100 528263.000000 0 0 1
-33.705855 -19.448398 -9.988427 40.175783 0.523339 1.822050 0.070513 -0.007469 382837.000000 0 0 1
-34.891855 -20.233698 -10.125527 41.585699 0.525507 1.816755 0.075614 -0.018759 578649.000000 0 0 1
-36.121555 -19.446198 -10.676127 42.389870 0.493858 1.825394 0.066339 -0.027842 90041.800000 0 0 1
-36.172755 -19.298398 -12.035227 42.728715 0.490092 1.856326 0.060023 -0.027858 458645.000000 0 0 1
35.548466 -18.569698 -12.508827 42.011878 -0.481388 1.873126 0.070822 -0.027955 330190.000000 0 0 1
35.257966 -18.838398 -13.996027 42.354436 -0.490711 1.907577 0.063220 -0.025268 -80017.500000 0 0 1
34.877866 -20.203998 -14.147827 42.718007 -0.525044 1.908362 0.051238 -0.027943 124628.000000 0 0 1
34.545166 -20.505798 -15.528427 43.069576 -0.535696 1.939646 0.052442 -0.032652 -410766.000000 0 0 1
33.096266 -20.958098 -15.660927 42.188498 -0.564507 1.951112 0.062421 -0.026464 -868204.000000 0 0 1
32.178166 -19.965698 -15.332627 40.855269 -0.555338 1.955507 0.067963 -0.021307 107898.000000 0 0 1
30.860966 -20.438698 -15.082327 39.970192 -0.584962 1.957718 0.075882 -0.026781 338549.000000 0 0 1
29.845066 -20.379798 -16.208027 39.607630 -0.599125 1.992390 0.079241 -0.023940 -706211.000000 0 0 1
29.403266 -19.111998 -16.543327 38.775021 -0.576372 2.011581 0.047578 -0.020734 -242116.000000 0 0 1
28.505966 -19.046598 -17.608927 38.541372 -0.589037 2.045285 0.043349 -0.021791 -189859.000000 0 0 1
27.687066 -17.725398 -17.498927 37.242125 -0.569459 2.059939 0.045742 -0.015787 -222112.000000 0 0 1
26.764266 -17.723298 -16.438527 36.064754 -0.584904 2.044074 0.054659 -0.029621 -42297.800000 0 0 1
26.272666 -16.401298 -16.264627 34.982763 -0.558076 2.054355 0.033362 -0.018871 31227.300000 0 0 1
24.941566 -16.441898 -15.402027 33.610121 -0.582827 2.046828 0.027629 -0.016556 2512590.000000 0 0 1
23.741366 -17.038498 -16.031527 33.331258 -0.622488 2.072564 0.024787 -0.018083 1803150.000000 0 0 1
23.241866 -16.327498 -17.163927 33.186925 -0.612404 2.114360 0.024425 -0.013971 -870938.000000 0 0 1
22.238266 -17.180898 -17.964727 33.353489 -0.657798 2.139590 0.028604 -0.012502 385886.000000 0 0 1
20.973266 -17.309198 -17.304827 32.232643 -0.689977 2.137522 0.032724 -0.004062 309118.000000 0 0 1
20.084266 -17.936398 -18.212027 32.508000 -0.728966 2.165462 0.035958 -0.013014 322690.000000 0 0 1
18.588566 -17.998898 -17.813527 31.413642 -0.769283 2.173733 0.041607 -0.004992 102735.000000 0 0 1
17.909066 -16.786598 -17.731227 30.280703 -0.753058 2.196369 0.042149 0.000243 -531307.000000 0 0 1
16.556066 -17.070998 -17.534527 29.546268 -0.800710 2.206147 0.052931 -0.007705 -616592.000000 0 0 1
15.671666 -15.883598 -17.192327 28.168528 -0.792114 2.227284 0.062364 0.001327 -447927.000000 0 0 1
15.241366 -15.133698 -18.303727 28.219754 -0.781854 2.276558 0.064385 0.004116 994508.000000 0 0 1
14.075266 -14.303498 -18.042427 26.985781 -0.793440 2.303108 0.072620 0.003088 1026280.000000 0 0 1
13.330266 -14.070798 -19.384627 27.412536 -0.812417 2.356248 0.077987 -0.004685 -72004.700000 0 0 1
13.904166 -13.043398 -20.188427 27.767403 -0.753467 2.384819 0.090218 -0.011098 69361.900000 0 0 1
12.983166 -12.542198 -21.131227 27.792051 -0.768124 2.434623 0.088854 -0.007997 -47398.400000 0 0 1
13.264866 -11.111198 -21.580227 27.660832 -0.697275 2.465738 0.082011 -0.006746 86432.000000 0 0 1
14.292966 -10.847498 -22.532427 28.803948 -0.649198 2.469096 0.072770 -0.002880 55043.600000 0 0 1
14.348266 -9.511798 -22.986927 28.718389 -0.585406 2.498801 0.065156 -0.007359 520325.000000 0 0 1
15.651866 -9.190498 -23.798927 29.930505 -0.530941 2.490034 0.047977 0.001162 788421.000000 0 0 1
15.579866 -9.705098 -25.112377 31.105509 -0.557106 2.510408 0.052177 -0.003928 -444084.000000 0 0 1
16.865766 -9.871098 -25.620167 32.222440 -0.529521 2.489974 0.059835 -0.010423 -578347.000000 0 0 1
22.700566 5.165502 -7.685027 24.516480 0.223740 1.889635 0.145958 0.023457 -152140.000000 0 1 0
22.301066 6.544902 -7.697727 24.483225 0.285464 1.890630 0.098733 0.020687 831178.000000 0 1 0
21.752566 6.952702 -6.432227 23.725256 0.309364 1.845346 0.082348 0.019702 -121355.000000 0 1 0
21.335166 8.427302 -6.418927 23.820398 0.376185 1.843641 0.073582 0.015999 -924639.000000 0 1 0
20.150966 8.697102 -7.109027 23.070312 0.407445 1.884040 0.041519 0.004684 69896.100000 0 1 0
19.751166 10.073502 -7.131327 23.290338 0.471632 1.881987 0.046764 0.003194 -45133.700000 0 1 0
19.439766 10.787802 -5.772527 22.969616 0.506624 1.824831 0.068714 0.001833 -1062910.000000 0 1 0
20.515366 11.225002 -5.017527 23.917703 0.500653 1.782149 0.080799 0.005538 -342563.000000 0 1 0
20.056266 12.129702 -4.010027 23.779483 0.543929 1.740240 0.088388 -0.008681 440472.000000 0 1 0
21.099066 12.479402 -2.888327 24.682960 0.534122 1.688082 0.082916 -0.017642 -11509.500000 0 1 0
22.208766 13.256502 -3.367927 26.082697 0.538140 1.700283 0.083127 -0.020375 1223470.000000 0 0 1
23.087266 13.618202 -2.277927 26.901045 0.532929 1.655576 0.080324 -0.023537 -24767.600000 0 0 1
24.015466 12.568002 -1.716227 27.159579 0.482137 1.634029 0.067779 -0.015153 -549223.000000 0 0 1
25.122766 12.155402 -2.573727 28.027330 0.450636 1.662755 0.060615 -0.015986 957256.000000 0 0 1
25.792466 11.074402 -1.980127 28.139200 0.405563 1.641224 0.056499 -0.011376 -574991.000000 0 0 1
27.194766 10.898202 -2.558327 29.408692 0.381150 1.657899 0.076745 -0.012575 253516.000000 0 0 1
28.214166 11.819902 -2.104627 30.662334 0.396722 1.639489 0.069316 -0.022616 -232349.000000 0 0 1
29.468366 11.255202 -2.156427 31.618260 0.364843 1.639051 0.078245 -0.017711 -1118450.000000 0 0 1
30.561766 12.214902 -1.703427 32.956442 0.380230 1.622507 0.069674 -0.017407 -909454.000000 0 0 1
30.434666 12.482502 -0.316027 32.896529 0.389218 1.580403 0.097106 -0.026818 727103.000000 0 0 1
31.397866 13.398002 0.231973 34.137754 0.403324 1.564001 0.099352 -0.029369 2511690.000000 0 0 1
32.974766 13.028102 0.208473 35.455749 0.376269 1.564916 0.115816 -0.030188 2088030.000000 0 0 1
33.903866 14.014302 0.666573 36.692194 0.391965 1.552629 0.129187 -0.043371 436558.000000 0 0 1
34.648666 14.551302 -0.440927 37.582774 0.397600 1.582529 0.116181 -0.026524 -471377.000000 0 0 1
34.089866 15.719102 -1.269927 37.560909 0.432053 1.604613 0.087651 -0.013769 -117541.000000 0 0 1
32.911466 15.401602 -1.990027 36.391402 0.437697 1.625508 0.077099 -0.006684 52735.700000 0 0 1
32.568766 16.342602 -2.984827 36.561105 0.465077 1.652527 0.061011 0.005755 629496.000000 0 0 1
31.214066 16.061702 -3.721727 35.300814 0.475232 1.676422 0.065503 -0.005209 130448.000000 0 0 1
31.331966 15.010902 -4.664427 35.053904 0.446782 1.704257 0.039659 -0.002819 1259430.000000 0 0 1
30.169266 14.784302 -5.506627 34.045310 0.455652 1.733254 0.043393 -0.010251 1676430.000000 0 0 1
28.826266 14.214202 -4.921027 32.514822 0.458112 1.722727 0.051199 -0.013997 662464.000000 0 0 1
27.716566 14.225702 -5.799827 31.689377 0.474196 1.754855 0.073105 -0.023876 267291.000000 0 0 1
26.621766 13.540202 -5.237527 30.323047 0.470515 1.744391 0.066164 -0.005935 -52556.900000 0 0 1
25.572266 13.229702 -6.341427 29.481851 0.477428 1.787586 0.057465 -0.008679 -404861.000000 0 0 1
25.987266 12.283702 -7.357027 29.670746 0.441555 1.821366 0.048736 0.000298 339502.000000 0 0 1
25.114166 12.095302 -8.464827 29.131958 0.448830 1.865617 0.055351 0.004658 -219246.000000 0 0 1
24.626166 13.301702 -9.339427 29.506071 0.495246 1.892861 0.077420 -0.001209 -148882.000000 0 0 1
23.649066 13.991502 -8.599327 28.792167 0.534242 1.874094 0.092107 -0.012821 -208763.000000 0 0 1
23.421966 15.249002 -9.173727 29.415605 0.577117 1.887953 0.083220 -0.015123 -476095.000000 0 0 1
22.268666 16.145702 -8.577627 28.812374 0.627335 1.873086 0.088332 -0.002336 55572.200000 0 0 1
20.948066 15.772102 -8.784727 27.654152 0.645364 1.894061 0.089557 -0.012523 -281999.000000 0 0 1
20.637666 14.587702 -8.082727 26.533842 0.615307 1.880335 0.089514 -0.015696 -1731530.000000 0 0 1
19.183966 14.140802 -8.166327 25.192772 0.635204 1.900913 0.093512 -0.018367 -458867.000000 0 0 1
18.208666 14.869702 -7.455827 24.662784 0.684798 1.877912 0.113635 -0.040180 538765.000000 0 1 0
16.930366 14.259402 -7.649427 23.419684 0.699971 1.903526 0.122198 -0.055800 776025.000000 0 1 0
15.771366 14.835302 -6.763627 22.684110 0.754824 1.873567 0.095689 -0.030087 224560.000000 0 1 0
15.762366 14.464102 -5.392327 22.062176 0.742473 1.817713 0.038262 -0.022445 237032.000000 0 1 0
16.680666 15.112702 -4.532227 22.960389 0.736121 1.769495 0.117345 -0.012570 -153723.000000 0 1 0
16.437866 14.779902 -3.095327 22.321066 0.732338 1.709918 0.075425 0.020541 -223433.000000 0 1 0
16.895066 13.449002 -2.827427 21.778734 0.672316 1.700989 0.052334 -0.004649 653515.000000 0 1 0
16.318666 12.711602 -1.706827 20.755649 0.661780 1.653124 0.024400 -0.006382 -8605.960000 0 1 0
16.361366 13.351102 -0.253027 21.118955 0.684429 1.582778 0.024747 -0.011007 -126001.000000 0 1 0
15.436066 14.411802 -0.143427 21.118540 0.751095 1.577588 0.035970 -0.012963 436760.000000 0 1 0
15.550066 14.942802 1.166773 21.597529 0.765486 1.516747 0.036169 -0.014618 80939.500000 0 1 0
14.376866 15.927802 1.497873 21.508900 0.836532 1.501100 0.042797 -0.008562 111582.000000 0 1 0
14.275066 16.981302 0.573673 22.191693 0.871765 1.544943 0.053193 -0.014871 -473526.000000 0 1 0
13.264466 17.829302 0.931573 22.241805 0.931166 1.528900 0.051744 -0.022065 -935618.000000 0 1 0
13.188966 19.129402 0.150173 23.235864 0.967179 1.564333 0.043631 -0.017618 -366085.000000 0 1 0
12.803166 19.078502 -1.225727 23.008970 0.979746 1.624093 0.047895 -0.032342 66176.400000 0 1 0
11.918966 20.042602 -1.700927 23.380778 1.034297 1.643610 0.045479 -0.027569 -209875.000000 0 1 0
10.460566 20.147302 -1.242627 22.735024 1.091904 1.625481 0.032848 -0.026514 -346593.000000 0 1 0
10.209866 20.445702 0.118573 22.853493 1.107657 1.565608 0.023147 -0.023408 185745.000000 0 1 0
8.817466 20.681002 0.295473 22.484191 1.167778 1.557655 0.008141 -0.009231 540182.000000 0 1 0
8.210866 20.550802 1.691973 22.194967 1.190687 1.494490 0.006846 -0.011381 14056.100000 0 1 0
8.278466 21.772402 2.357573 23.412147 1.207451 1.469927 0.006385 -0.000022 -45024.500000 0 1 0
7.170466 21.806502 3.209773 23.178476 1.253111 1.431869 0.001626 -0.001499 -283426.000000 0 1 0
6.994966 23.184702 3.902773 24.529402 1.277775 1.411011 0.009332 0.004058 72822.100000 0 1 0
7.732866 23.431702 5.085773 25.193391 1.252033 1.367530 0.020357 -0.005836 153461.000000 0 0 1
7.650566 24.779902 5.481473 26.507003 1.271340 1.362500 0.024617 -0.004267 -282793.000000 0 0 1
8.190566 24.979002 6.881473 27.173343 1.253945 1.314765 0.027920 -0.007514 -43214.800000 0 0 1
7.449366 24.231802 7.854873 26.540013 1.272545 1.270332 0.025722 -0.016303 154384.000000 0 0 1
8.173366 24.046502 9.025273 26.953547 1.243149 1.229355 0.033461 -0.023126 -503026.000000 0 0 1
7.556366 23.115502 10.064473 26.319550 1.254850 1.178409 0.030392 -0.018946 -467524.000000 0 0 1
6.496766 23.674402 10.796873 26.818981 1.302968 1.156459 0.027393 -0.017725 76047.800000 0 0 1
5.818166 22.608402 11.472273 26.011611 1.318916 1.114034 0.019580 -0.013582 444787.000000 0 0 1
4.431966 22.905802 12.126673 26.293997 1.379671 1.091454 0.029022 -0.019700 474578.000000 0 0 1
3.455266 23.208802 11.153973 25.980732 1.423004 1.127060 0.014668 -0.016524 -555949.000000 0 0 1
2.207466 23.442102 11.725373 26.303791 1.476906 1.108765 0.011565 -0.018749 -903150.000000 0 0 1
1.103566 23.633502 10.718173 25.973823 1.524135 1.145432 0.030917 -0.016302 -932841.000000 0 0 1
1.244466 24.868602 10.112473 26.874861 1.520796 1.185018 0.035232 -0.016280 -253959.000000 0 0 1
0.531666 24.927402 8.931973 26.484678 1.549471 1.226801 0.020494 -0.016170 987297.000000 0 0 1
-0.967934 25.390502 9.126873 26.998412 -1.532693 1.225950 0.032763 -0.027502 756274.000000 0 0 1
-1.940134 24.581402 9.702773 26.498174 -1.492033 1.195909 0.028160 -0.023253 -297757.000000 0 0 1
-3.183934 25.211802 9.813873 27.241227 -1.445174 1.202252 0.032310 -0.024977 -143002.000000 0 0 1
-4.358234 24.411702 10.422273 26.898869 -1.394127 1.172920 0.047978 -0.030451 89209.300000 0 0 1
-4.685534 24.678902 11.766973 27.739215 -1.383170 1.132718 0.026753 -0.013085 555740.000000 0 0 1
-5.777234 25.599502 11.871673 28.803603 -1.348837 1.145974 0.036907 -0.013216 53630.700000 0 0 1
-6.374134 25.717902 13.281573 29.638492 -1.327844 1.106136 0.020073 -0.001041 -10434.800000 0 0 1
-7.275534 24.706202 13.746273 29.194003 -1.284410 1.080532 0.016061 -0.016075 364591.000000 0 0 1
-7.511934 24.861802 15.134473 30.059784 -1.277370 1.043176 -0.002533 0.013557 -113830.000000 0 0 1
-8.732234 24.087102 15.681473 30.039124 -1.223005 1.021561 0.000483 -0.001975 678310.000000 0 0 1
-9.977534 24.614002 15.179973 30.591368 -1.185678 1.051560 -0.005679 0.003252 552513.000000 0 0 1
-11.005434 23.673302 15.490473 30.356211 -1.135631 1.035274 -0.001335 -0.001989 743083.000000 0 0 1
-12.433434 24.185702 15.091173 31.101156 -1.095947 1.064172 -0.006972 -0.008084 522196.000000 0 0 1
-12.923634 25.132202 16.049973 32.499992 -1.095833 1.054290 -0.008205 -0.004665 150720.000000 0 0 1
-13.821534 26.050002 15.438773 33.286530 -1.082987 1.088500 -0.011905 -0.005153 -293672.000000 0 0 1
-14.373034 27.055302 16.495773 34.794884 -1.082465 1.076870 0.004300 -0.005056 259738.000000 0 0 1
-15.470934 26.565502 17.280173 35.265848 -1.043441 1.058710 -0.002162 -0.010684 410610.000000 0 0 1
-15.906934 27.545802 18.181773 36.638485 -1.047106 1.051525 0.014799 -0.016819 -392618.000000 0 0 1
-17.208134 27.219002 18.926473 37.352447 -1.007029 1.039444 0.008414 -0.021160 -84254.300000 0 0 1
-18.371634 27.355802 18.140873 37.615795 -0.979399 1.067555 0.014073 -0.025296 168657.000000 0 0 1
-19.468334 26.663102 18.751473 37.967812 -0.940114 1.054252 0.014675 -0.015692 154459.000000 0 0 1
-20.724934 26.658502 17.867773 38.202825 -0.909974 1.084100 0.026293 -0.021339 -397677.000000 0 0 1
-21.417134 27.879402 17.956073 39.476261 -0.915745 1.098584 0.022702 -0.023151 -5601.410000 0 0 1
-21.895834 28.285302 16.679373 39.467547 -0.912045 1.134473 0.046864 -0.027136 161382.000000 0 0 1
-22.789434 29.614102 16.838673 40.986512 -0.914902 1.147427 0.043417 -0.030004 -410371.000000 0 0 1
-23.975134 29.216102 17.420173 41.615502 -0.883612 1.138895 0.044697 -0.027047 -459518.000000 0 0 1
-24.843934 30.359902 17.595373 42.994672 -0.884988 1.149169 0.047958 -0.027588 588964.000000 0 0 1
-26.278824 30.092802 18.111173 43.865338 -0.852953 1.145181 0.041487 -0.022276 -114293.000000 0 0 1
-27.193084 29.570602 17.171973 43.689368 -0.827258 1.166853 0.064929 -0.022436 948264.000000 0 0 1
-28.531294 29.400702 17.688673 44.624266 -0.800404 1.163213 0.092478 -0.020125 1110170.000000 0 0 1
-28.903594 28.298302 18.714073 44.569363 -0.774817 1.137476 0.081538 -0.017374 -624471.000000 0 0 1
-28.811524 26.991402 18.254073 43.495411 -0.752793 1.137706 0.104226 -0.016162 91641.000000 0 0 1
-29.306844 26.068002 19.211073 43.674902 -0.726975 1.115348 0.104367 -0.015640 34823.000000 0 0 1
-29.498724 24.624302 18.684673 42.727601 -0.695579 1.118205 0.108006 -0.012686 245660.000000 0 0 1
-30.582344 24.525402 17.762873 43.038293 -0.675927 1.145355 0.113837 -0.022892 296510.000000 0 0 1
-30.389754 23.370702 16.920473 41.905002 -0.655571 1.155150 0.111750 -0.014083 -125706.000000 0 0 1
-30.805294 21.978902 17.443473 41.669089 -0.619714 1.138872 0.093810 -0.007012 112615.000000 0 0 1
-32.158254 21.606102 17.269873 42.417277 -0.591595 1.151473 0.099801 -0.011517 155061.000000 0 0 1
-32.200084 20.190402 17.312273 41.763770 -0.560057 1.143372 0.096349 -0.016343 570883.000000 0 0 1
-33.583484 19.680402 16.792973 42.393071 -0.530072 1.163503 0.114262 -0.028314 576623.000000 0 0 1
-33.671734 19.783002 15.367173 41.967878 -0.531197 1.195912 0.097208 -0.027229 -193032.000000 0 0 1
-34.956756 19.409602 14.937573 42.683000 -0.506862 1.213262 0.101447 -0.038817 -32698.400000 0 0 1
-35.254088 19.866702 13.520573 42.665471 -0.513171 1.248340 0.104883 -0.027330 7111.260000 0 0 1
-35.344519 21.253202 13.425873 43.372660 -0.541386 1.256080 0.110582 -0.035789 -52146.600000 0 0 1
-35.543921 21.787402 12.107273 43.412524 -0.549903 1.288159 0.081610 -0.019317 469690.000000 0 0 1
-34.349135 21.584702 11.113873 42.062817 -0.561034 1.303400 0.081384 -0.011145 274992.000000 0 0 1
-34.526398 20.346402 10.464473 41.419239 -0.532515 1.315381 0.100067 -0.020542 487658.000000 0 0 1
-33.474644 20.147002 9.510673 40.210774 -0.541785 1.332013 0.096576 -0.014463 446930.000000 0 0 1
-32.553904 18.950002 9.873873 38.940372 -0.527162 1.314434 0.072609 -0.020764 156875.000000 0 0 1
-32.051074 19.240802 11.199173 39.024367 -0.540652 1.279725 0.067968 -0.014528 -105893.000000 0 0 1
-31.202424 18.248902 11.692873 37.991274 -0.529209 1.257940 0.054478 -0.015726 -60406.800000 0 0 1
-30.643034 18.538102 13.102973 38.135870 -0.544066 1.220063 0.059735 -0.008798 -93583.000000 0 0 1
-29.638914 19.502602 13.137873 37.834116 -0.581983 1.216160 0.057199 -0.001757 -267693.000000 0 0 1
-30.225084 20.809202 13.363273 39.053241 -0.602949 1.221559 0.085027 -0.003852 386696.000000 0 0 1
-29.241504 21.991602 13.539273 39.012921 -0.644823 1.216377 0.080097 -0.010441 413288.000000 0 0 1
-28.515634 21.896102 14.766573 38.866853 -0.654836 1.181079 0.075381 -0.000295 308063.000000 0 0 1
-27.242424 22.529702 14.736173 38.300025 -0.690994 1.175853 0.096265 -0.008410 -11628.700000 0 0 1
-26.460144 22.401602 16.033873 38.197592 -0.702527 1.137614 0.075676 -0.010639 -553282.000000 0 0 1
-25.908154 21.128802 16.168473 37.135942 -0.684137 1.120329 0.085042 -0.008313 138768.000000 0 0 1
-25.198324 21.094702 17.416773 37.192552 -0.696985 1.083446 0.079142 0.000349 100586.000000 0 0 1
-24.393334 19.820802 17.731173 36.087302 -0.682347 1.057168 0.072161 0.001595 -143174.000000 0 0 1
-23.829734 19.810402 19.002573 36.351148 -0.693556 1.020722 0.060497 0.007212 148317.000000 0 0 1
-23.050034 18.635402 19.191873 35.311616 -0.679888 0.996195 0.051150 0.001604 -65506.800000 0 0 1
-22.555834 18.501402 20.598473 35.712247 -0.686967 0.956002 0.035532 -0.002463 238112.000000 0 0 1
-23.582034 18.169102 21.551973 36.752089 -0.656470 0.944171 0.040885 0.005231 337987.000000 0 0 1
-23.226434 18.312602 22.905573 37.409676 -0.667651 0.911842 0.045131 0.002912 -346882.000000 0 0 1
-23.937834 17.389202 23.891773 38.029213 -0.628246 0.891497 0.076756 -0.004818 -310675.000000 0 0 1
-23.492334 16.034802 23.953673 37.185791 -0.598921 0.870869 0.076003 -0.010512 101279.000000 0 0 1
-24.149334 15.304502 24.991173 37.973369 -0.564863 0.852472 0.087861 -0.015422 128997.000000 0 0 1
20.655866 24.441902 33.646826 46.434688 0.869153 0.760335 0.074664 -0.004897 85106.600000 0 0 1
21.695266 23.549402 33.282914 46.184535 0.826355 0.766056 0.083079 -0.016128 65390.300000 0 0 1
21.449666 22.214302 33.699828 45.708224 0.802908 0.741759 0.082837 -0.023920 292382.000000 0 0 1
20.296966 21.408102 33.028219 44.284725 0.812035 0.729039 0.085222 -0.032662 278669.000000 0 0 1
20.636866 21.020702 31.739043 43.302621 0.794612 0.748135 0.098793 -0.029841 80483.300000 0 0 1
19.761666 20.022302 31.277613 42.067863 0.791949 0.732502 0.073770 -0.030812 -183856.000000 0 0 1
20.156666 19.540702 29.876603 40.996849 0.769883 0.754296 0.054847 -0.016183 66942.900000 0 0 1
21.306166 18.711002 29.772813 41.115382 0.720638 0.761027 0.074412 -0.024221 -33812.200000 0 0 1
21.454066 18.291802 28.447813 40.051779 0.706003 0.780906 0.049601 -0.016787 24130.000000 0 0 1
22.637866 17.281302 28.228493 40.099429 0.652010 0.789835 0.064522 -0.010582 881784.000000 0 0 1
23.884266 17.980102 28.377963 41.219546 0.645291 0.811434 0.069478 -0.013825 539488.000000 0 0 1
24.907166 17.020502 28.719413 41.651760 0.599469 0.809980 0.055163 -0.003647 1161270.000000 0 0 1
26.320966 17.654002 28.975333 42.942135 0.590804 0.830166 0.055766 -0.012540 579125.000000 0 0 1
26.990066 18.054002 27.782063 42.734689 0.589556 0.863073 0.040725 0.001918 1048370.000000 0 0 1
28.270366 18.637002 28.141613 44.028420 0.582845 0.877379 0.034749 0.002215 569617.000000 0 0 1
29.339966 18.523202 27.093833 44.022930 0.563138 0.907842 0.026634 0.014477 -581245.000000 0 0 1
29.269366 19.477902 26.028243 43.744187 0.587174 0.933518 0.043636 0.004686 1102050.000000 0 0 1
30.525666 19.508602 25.300043 44.187034 0.568666 0.961163 0.044380 0.002751 404632.000000 0 0 1
30.748766 20.649302 24.333443 44.317003 0.591375 0.989537 0.052760 -0.007286 -580658.000000 0 0 1
29.756666 20.787502 23.362733 43.167079 0.609774 0.998913 0.049052 -0.004623 -298510.000000 0 0 1
30.091066 21.300102 22.094773 42.980758 0.615978 1.030883 0.033844 -0.010815 -131457.000000 0 0 1
30.797466 20.289402 21.109573 42.494209 0.582537 1.050931 0.047730 -0.021306 55342.100000 0 0 1
29.969366 19.298002 20.556273 41.147735 0.572092 1.047691 0.066667 -0.021659 357517.000000 0 0 1
30.643166 18.690802 19.468073 40.833265 0.547704 1.073820 0.076752 -0.019570 215071.000000 0 0 1
31.650766 17.562302 19.794373 41.255577 0.506580 1.070371 0.101760 -0.025211 -164036.000000 0 0 1
31.000066 16.354402 20.131973 40.419882 0.485452 1.049424 0.102001 -0.027840 670642.000000 0 0 1
31.941666 15.307302 20.448873 40.899143 0.446891 1.047217 0.093834 -0.033729 -28322.200000 0 0 1
31.280266 13.915502 20.758573 40.037665 0.418576 1.025728 0.098192 -0.027205 242663.000000 0 0 1
30.656266 13.741902 22.030773 40.174637 0.421404 0.990376 0.078481 -0.027417 1850660.000000 0 0 1
29.364866 14.448902 22.157673 39.522507 0.457265 0.975645 0.077684 -0.019213 1473620.000000 0 0 1
28.465066 13.875202 23.334863 39.335697 0.453555 0.935739 0.053162 -0.010410 269210.000000 0 0 1
27.968066 12.622402 23.008873 38.352914 0.423947 0.927389 0.062242 -0.012927 234314.000000 0 0 1
27.242066 12.016002 24.123233 38.320293 0.415414 0.889866 0.042890 -0.002485 389969.000000 0 0 1
26.718466 10.619202 23.799183 37.323518 0.378304 0.879358 0.058442 -0.012072 175321.000000 0 0 1
25.634766 10.641802 22.877673 35.969113 0.393482 0.881445 0.033937 -0.003249 139744.000000 0 0 1
25.349866 9.337302 22.399873 35.093521 0.352917 0.878520 0.037464 0.002841 193373.000000 0 0 1
24.023566 9.319302 21.580073 33.610722 0.370052 0.873615 0.041893 -0.005116 816467.000000 0 0 1
22.795966 9.205402 22.330473 33.212129 0.383793 0.833405 0.025155 -0.003898 514641.000000 0 0 1
21.792966 8.973202 21.348373 31.799446 0.390592 0.834775 0.014135 0.002937 -625161.000000 0 0 1
20.449866 8.839202 22.068873 31.358630 0.407985 0.790124 0.006710 -0.000461 -712384.000000 0 0 1
20.311666 7.909002 23.066273 31.735926 0.371320 0.757117 0.023378 0.008830 186175.000000 0 0 1
19.050366 8.072602 23.689863 31.453028 0.400812 0.717910 0.024319 0.002554 75896.000000 0 0 1
18.829366 7.287002 24.957163 32.101486 0.369251 0.680202 0.032363 0.005154 -327616.000000 0 0 1
18.832566 5.915502 24.617273 31.554220 0.304351 0.675878 0.041081 -0.001188 200561.000000 0 0 1
18.748766 5.091002 25.739463 32.248325 0.265145 0.646554 0.044533 -0.014838 -26454.500000 0 0 1
19.159166 3.613402 25.440353 32.052174 0.186410 0.653901 0.050929 -0.016117 1045540.000000 0 0 1
20.587566 3.502702 25.282793 32.792322 0.168523 0.690391 0.067593 -0.012141 870200.000000 0 0 1
20.897466 2.148402 25.046853 32.690435 0.102447 0.697916 0.068669 -0.025226 268537.000000 0 0 1
22.433666 1.945202 25.022343 33.662603 0.086493 0.732765 0.065774 -0.016449 377488.000000 0 0 1
23.133766 2.319902 26.208293 35.034664 0.099948 0.725651 0.071038 -0.022388 178072.000000 0 0 1
24.520866 2.502502 26.028813 35.847378 0.101704 0.758162 0.081860 -0.021096 236664.000000 0 0 1
25.292866 2.885002 27.295153 37.323956 0.113573 0.750565 0.056465 -0.016369 -910970.000000 0 0 1
25.299766 1.829002 28.246563 37.964348 0.072168 0.731716 0.058541 -0.021274 520274.000000 0 0 1
26.159866 2.085602 29.379443 39.393400 0.079557 0.729067 0.053506 -0.006256 480926.000000 0 0 1
27.672066 2.266002 29.187893 40.284130 0.081705 0.760414 0.045761 -0.009591 -1027030.000000 0 0 1
27.909166 3.582202 28.614803 40.131791 0.127654 0.776999 0.044842 0.008154 156050.000000 0 0 1
29.255366 3.717802 28.163383 40.778360 0.126403 0.808415 0.041797 0.006316 460351.000000 0 0 1
29.747266 2.829602 26.958383 40.245011 0.094836 0.836781 0.048504 0.000184 -574801.000000 0 0 1
29.297566 3.178902 25.668103 39.080741 0.108081 0.854233 0.027755 0.012033 -26415.500000 0 0 1
29.591266 2.138802 24.786493 38.659898 0.072153 0.874811 0.038674 0.022995 -296571.000000 0 0 1
29.401966 2.317102 23.281373 37.574817 0.078645 0.902563 0.043668 0.004766 -67963.900000 0 0 1
30.135466 3.324802 22.620173 37.826880 0.109884 0.929803 0.046688 0.007661 -242467.000000 0 0 1
31.456666 2.876502 22.333973 38.685946 0.091190 0.955360 0.037356 0.009461 228593.000000 0 0 1
32.248066 4.082902 21.743873 39.107593 0.125939 0.981229 0.058925 -0.000135 -264603.000000 0 0 1
31.672566 4.445402 20.469573 37.972575 0.139444 1.001473 0.049964 -0.008790 102698.000000 0 0 1
32.036366 5.712602 19.862073 38.124330 0.176461 1.022796 0.078895 -0.008504 668372.000000 0 0 1
33.574866 5.863802 19.537373 39.285681 0.172905 1.050295 0.065130 -0.010092 205434.000000 0 0 1
34.503766 5.896702 20.538673 40.584702 0.169265 1.040175 0.078122 -0.005235 -272284.000000 0 0 1
34.482266 7.025302 21.356073 41.163860 0.200986 1.025342 0.092039 -0.015360 -695943.000000 0 0 1
35.350666 6.754102 22.603473 42.499464 0.188785 1.010009 0.093633 -0.012073 -166341.000000 0 0 1
34.718666 5.862102 23.455903 42.307557 0.167268 0.983138 0.085760 -0.002667 118490.000000 0 0 1
35.394166 5.717602 24.664813 43.517709 0.160157 0.968208 0.091385 -0.004766 151985.000000 0 0 1
34.513566 4.834902 25.599823 43.242496 0.139181 0.937251 0.079716 -0.001843 384144.000000 0 0 1
34.398166 3.490202 25.172493 42.767625 0.101119 0.941486 0.081065 -0.004072 -224440.000000 0 0 1
33.591266 2.722202 25.999563 42.564784 0.080862 0.913696 0.053311 0.004143 -271885.000000 0 0 1
33.633666 1.230502 25.698143 42.345391 0.036569 0.918680 0.045583 0.004970 78640.000000 0 0 1
32.907666 0.780002 24.560523 41.069967 0.023698 0.929772 0.058863 0.000101 88885.100000 0 0 1
33.073066 -0.631498 24.477313 41.150521 -0.019092 0.933750 0.051788 -0.000962 77466.300000 0 0 1
32.039366 -1.233398 23.456623 39.727263 -0.038477 0.939191 0.051025 0.004242 1019050.000000 0 0 1
30.711166 -1.271498 23.991693 38.992227 -0.041378 0.908037 0.046790 0.007508 -114649.000000 0 0 1
29.885666 -1.953698 23.088273 37.815848 -0.065280 0.914048 0.055848 -0.004418 -764737.000000 0 0 1
28.482366 -2.142098 23.610213 37.057738 -0.075067 0.880041 0.033543 0.007668 -993982.000000 0 0 1
27.795066 -0.930198 23.801413 36.605167 -0.033454 0.862922 0.040760 0.007122 -1450070.000000 0 0 1
26.461066 -1.264298 23.948603 35.711651 -0.047743 0.835765 0.052948 0.003134 -958556.000000 0 0 1
25.581666 -0.039398 23.597273 34.803081 -0.001540 0.825727 0.068231 -0.004241 -449498.000000 0 0 1
25.725266 0.455202 22.281173 34.035969 0.017693 0.857095 0.051207 -0.007510 -72200.000000 0 0 1
25.074366 1.689802 22.103873 33.468798 0.067290 0.849402 0.061092 -0.008765 -252594.000000 0 0 1
25.362866 2.525502 20.842673 32.925221 0.099248 0.885334 0.061056 -0.008226 -207302.000000 0 0 1
24.721066 2.195302 19.627473 31.641557 0.088571 0.901663 0.074571 -0.009632 220454.000000 0 0 1
24.003266 3.255402 19.023473 30.800113 0.134801 0.905054 0.058667 -0.005244 109677.000000 0 0 1
23.662666 2.918102 17.523373 29.588945 0.122701 0.936976 0.059182 -0.002640 -877763.000000 0 0 1
24.725766 3.065902 16.663473 29.973899 0.123367 0.981312 0.049420 -0.006225 -683640.000000 0 0 1
24.462166 3.063402 15.280673 29.004844 0.124582 1.015928 0.038981 -0.004761 -125906.000000 0 0 1
23.839666 1.776802 14.591773 28.007259 0.074394 1.022775 0.052188 0.011454 1050090.000000 0 0 1
22.417666 1.602902 14.689473 26.849612 0.071380 0.991898 0.058519 0.015290 898016.000000 0 0 1
21.968066 0.496602 13.982773 26.045354 0.022602 1.004083 0.069089 0.001739 -823458.000000 0 0 1
20.472266 0.296402 13.820373 24.702313 0.014477 0.977042 0.076964 -0.017646 -332524.000000 0 1 0
19.698766 1.048702 12.838373 23.536461 0.053187 0.993850 0.088403 -0.015455 768125.000000 0 1 0
19.981666 0.862002 11.440073 23.040948 0.043113 1.051222 0.104178 -0.011731 -862654.000000 0 1 0
19.804566 -0.573998 10.922873 22.624311 -0.028975 1.066954 0.106687 -0.011777 -130645.000000 0 1 0
20.935766 -1.408098 11.044273 23.712128 -0.067157 1.086298 0.112098 -0.024317 -28096.200000 0 1 0
21.976066 -1.153998 10.137173 24.228939 -0.052463 1.139123 0.111416 -0.025722 -865546.000000 0 1 0
23.197066 -1.998298 10.484373 25.534666 -0.085932 1.147691 0.118172 -0.028324 -324257.000000 0 0 1
23.757066 -1.680498 11.762673 26.562808 -0.070619 1.112049 0.106282 -0.027943 674632.000000 0 0 1
24.791566 -2.585798 12.170773 27.738706 -0.103926 1.116573 0.074587 -0.016977 477125.000000 0 0 1
25.141866 -2.726198 13.676073 28.750314 -0.108011 1.075055 0.063305 -0.016169 259026.000000 0 0 1
25.756266 -1.543098 14.237173 29.469705 -0.059840 1.066591 0.069755 -0.018004 217656.000000 0 0 1
25.967766 -1.718598 15.603573 30.343862 -0.066086 1.030693 0.068273 -0.018335 -753453.000000 0 0 1
27.098466 -0.844198 16.033973 31.498061 -0.031143 1.036720 0.070675 -0.016201 -1040350.000000 0 0 1
28.400166 -1.288998 15.744973 32.498233 -0.045356 1.065020 0.076335 -0.025382 88962.600000 0 0 1
29.276266 -0.183198 16.060573 33.392744 -0.006257 1.069047 0.058693 -0.026744 -17144.900000 0 0 1
30.748066 -0.585198 16.229373 34.773245 -0.019030 1.085218 0.056316 -0.024467 -213882.000000 0 0 1
31.365066 -1.035998 15.015473 34.789439 -0.033018 1.124519 0.056774 -0.023518 -157586.000000 0 0 1
32.622766 -1.577198 15.332573 36.080746 -0.048309 1.131888 0.051967 -0.019466 -216637.000000 0 0 1
33.289466 -2.196198 14.080873 36.211639 -0.065877 1.171414 0.053675 -0.027841 -57336.400000 0 0 1
33.453666 -1.327198 12.960573 35.901054 -0.039652 1.201448 0.065763 -0.029435 213808.000000 0 0 1
33.940766 -1.978098 11.786273 35.983395 -0.058215 1.237090 0.062672 -0.025974 -110342.000000 0 0 1
33.415466 -1.274198 10.520873 35.055752 -0.038114 1.265980 0.069792 -0.009914 -106023.000000 0 0 1
33.915666 0.037002 10.260673 35.433814 0.001091 1.277016 0.066890 -0.014218 158898.000000 0 0 1
32.843766 0.829502 9.828573 34.292884 0.025251 1.280113 0.059468 -0.015949 -252386.000000 0 0 1
33.193366 2.251802 9.295673 34.543881 0.067735 1.298340 0.056282 -0.022136 2969.320000 0 0 1
33.734466 2.274602 7.988473 34.741959 0.067325 1.338783 0.073037 -0.022750 86485.300000 0 0 1
34.111266 3.559402 7.576173 35.123300 0.103971 1.353385 0.065242 -0.022403 -12851.100000 0 0 1
34.736766 3.611602 6.169073 35.464688 0.103598 1.395957 0.059056 -0.024678 -63972.100000 0 0 1
35.093766 4.920302 5.768373 35.903425 0.139296 1.409433 0.052246 -0.012595 89251.200000 0 0 1
35.682466 5.003102 4.453473 36.305686 0.139304 1.447821 0.080684 -0.015527 -153953.000000 0 0 1
35.964266 6.439502 3.981173 36.752488 0.177175 1.462259 0.106091 -0.024644 -438357.000000 0 0 1
34.843066 7.270302 3.964973 35.813651 0.205707 1.459858 0.100862 -0.029446 -382747.000000 0 0 1
35.133966 8.486502 3.323873 36.296893 0.237007 1.479093 0.109629 -0.033231 662773.000000 0 0 1
33.941366 9.554702 3.466373 35.430558 0.274405 1.472804 0.127421 -0.041504 2288200.000000 0 0 1
32.809766 9.409102 2.568973 34.228812 0.279282 1.495673 0.129523 -0.041755 756257.000000 0 0 1
31.885566 8.388502 2.829373 33.091716 0.257252 1.485191 0.129025 -0.035523 124525.000000 0 0 1
30.667766 8.330902 1.851573 31.833067 0.265249 1.512598 0.137634 -0.041679 295120.000000 0 0 1
31.074666 8.057902 0.556773 32.107237 0.253720 1.553454 0.143588 -0.040882 533980.000000 0 0 1
29.989166 7.681802 -0.304627 30.958892 0.250761 1.580636 0.114956 -0.038592 348027.000000 0 0 1
30.438066 7.635002 -1.770727 31.430950 0.245767 1.627163 0.099400 -0.028442 -361834.000000 0 0 1
29.460666 6.975302 -2.514027 30.379369 0.232485 1.653646 0.097754 -0.025606 456923.000000 0 0 1
29.824466 6.942602 -3.876727 30.866285 0.228709 1.696726 0.102579 -0.022138 -210890.000000 0 0 1
28.859766 6.086002 -4.739827 29.872923 0.207837 1.730136 0.098891 -0.013871 -152843.000000 0 0 1
28.863066 4.742202 -4.501827 29.594451 0.162845 1.723506 0.103896 -0.019585 286154.000000 0 0 1
27.885566 4.146102 -5.291627 28.684426 0.147601 1.756336 0.086774 -0.014722 -519342.000000 0 0 1
27.806966 2.633302 -5.154727 28.403043 0.094418 1.753293 0.107019 -0.012875 -311177.000000 0 0 1
27.461266 2.131802 -3.895427 27.817981 0.077474 1.711291 0.110423 -0.024621 442907.000000 0 0 1
27.558666 0.740802 -3.860927 27.837666 0.026874 1.709939 0.111737 -0.028586 -96123.100000 0 0 1
27.589666 0.053202 -2.469527 27.700020 0.001928 1.660067 0.113011 -0.026150 336585.000000 0 0 1
28.800666 0.477402 -1.850027 28.863972 0.016575 1.634935 0.112893 -0.031955 530172.000000 0 0 1
28.850766 0.223502 -0.434527 28.854904 0.007747 1.585856 0.118143 -0.030574 -824383.000000 0 0 1
30.122566 0.781002 0.144373 30.133035 0.025922 1.566005 0.131661 -0.031411 -244358.000000 0 0 1
31.325266 0.128102 -0.275227 31.326737 0.004089 1.579582 0.101101 -0.024685 114111.000000 0 0 1
32.432466 0.797602 0.222573 32.443036 0.024588 1.563936 0.065299 -0.023110 -727441.000000 0 0 1
-2.786234 -21.271198 -8.567627 23.100459 1.440552 1.950759 0.039573 0.000019 187014.000000 0 1 0
-3.430934 -21.757198 -7.429327 23.245255 1.414392 1.896110 0.034135 -0.005725 -145180.000000 0 1 0
-2.762534 -22.932698 -6.967227 24.126386 1.450911 1.863749 0.035204 -0.008410 99921.000000 0 1 0
-3.343634 -23.461398 -5.621527 24.356081 1.429233 1.803702 0.030447 -0.008429 -429328.000000 0 1 0
-3.108634 -22.533398 -4.574227 23.202181 1.433705 1.769243 0.032385 -0.016307 -181837.000000 0 1 0
-3.546134 -23.148798 -3.381927 23.661770 1.418789 1.714215 0.023542 -0.022856 -438012.000000 0 1 0
-3.075534 -22.527698 -2.060227 22.829819 1.435113 1.661162 0.021373 -0.031422 -886261.000000 0 1 0
-1.743434 -22.810598 -1.810627 22.948667 1.494514 1.649777 0.036615 -0.022861 -1378210.000000 0 1 0
-1.553334 -22.361198 -0.523727 22.421203 1.501442 1.594157 0.032808 -0.027358 140615.000000 0 1 0
-0.074134 -22.313398 -0.096227 22.313729 1.567474 1.575109 0.036941 -0.029665 512458.000000 0 1 0
0.797066 -21.414398 -0.784527 21.443583 -1.533592 1.607390 0.026873 -0.025020 950036.000000 0 1 0
2.019966 -21.121398 -0.070827 21.217888 -1.475450 1.574134 0.031453 -0.024387 783390.000000 0 1 0
2.933166 -20.060498 -0.658127 20.284482 -1.425609 1.603247 0.036487 -0.021972 26022.100000 0 1 0
3.623366 -20.635698 -1.763427 21.025473 -1.396981 1.654766 0.036584 -0.014662 -227013.000000 0 1 0
4.515666 -19.689698 -2.336627 20.335567 -1.345353 1.685954 0.037825 -0.007651 32513.400000 0 1 0
5.525266 -20.301498 -3.326427 21.301280 -1.305072 1.727599 0.039003 -0.007233 246455.000000 0 1 0
6.601766 -21.107698 -2.755727 22.287043 -1.267669 1.694761 0.053453 -0.017602 1094860.000000 0 1 0
7.375366 -21.866598 -3.707627 23.372862 -1.245490 1.730099 0.046447 -0.012663 301702.000000 0 1 0
8.494666 -21.056998 -4.397727 23.127831 -1.187351 1.762110 0.053390 -0.011545 -656580.000000 0 1 0
8.083066 -19.981098 -5.191427 22.170502 -1.186386 1.807150 0.032561 -0.003369 -608867.000000 0 1 0
9.159266 -19.368898 -5.842327 22.207638 -1.129075 1.837007 0.042168 -0.002930 -690177.000000 0 1 0
8.775766 -18.186098 -6.759827 21.294213 -1.121203 1.893834 0.023731 0.002239 -130595.000000 0 1 0
9.669866 -17.886198 -7.848827 21.795103 -1.075173 1.939192 0.024343 0.007283 641642.000000 0 1 0
9.256666 -16.678798 -8.536227 20.898214 -1.064126 1.991570 0.015164 0.005134 -80101.100000 0 1 0
10.150866 -16.452798 -9.725627 21.640760 -1.017993 2.036904 0.023671 -0.007532 -284238.000000 0 1 0
9.721166 -17.317698 -10.814327 22.613125 -1.059286 2.069437 0.027598 0.002024 157068.000000 0 1 0
9.622866 -16.667198 -12.050227 22.706894 -1.047195 2.130206 0.017049 0.012287 110498.000000 0 1 0
8.943566 -17.415898 -13.224127 23.625800 -1.096384 2.164859 0.010360 0.010025 1059890.000000 0 1 0
7.612066 -17.915698 -12.973327 23.392799 -1.169025 2.158662 0.013539 0.014031 889070.000000 0 1 0
7.055666 -18.428798 -14.179027 24.299133 -1.205152 2.193853 0.012943 0.017584 153324.000000 0 1 0
5.847066 -19.331998 -13.855027 24.492369 -1.277088 2.172063 0.023514 0.021653 164448.000000 0 1 0
6.207466 -20.605598 -13.282627 25.289356 -1.278192 2.123777 0.030856 0.013628 -147551.000000 0 0 1
5.047266 -21.376298 -13.099927 25.573993 -1.338928 2.108583 0.067834 0.002372 -148871.000000 0 0 1
5.227166 -22.839498 -12.714327 26.657458 -1.345806 2.067980 0.039838 0.000883 -365762.000000 0 0 1
5.685766 -23.646798 -13.782527 27.954554 -1.334830 2.086369 0.045281 -0.003957 -118522.000000 0 0 1
5.204266 -24.963198 -13.834027 29.010791 -1.365263 2.067873 0.039498 -0.012418 174085.000000 0 0 1
3.752266 -25.123078 -14.358827 29.179179 -1.422537 2.085287 0.047817 -0.023674 220960.000000 0 0 1
2.759266 -24.647798 -13.441327 28.209871 -1.459313 2.067438 0.055349 -0.025184 27757.100000 0 0 1
1.440066 -24.800498 -13.921327 28.477041 -1.512795 2.081580 0.051604 -0.032516 182416.000000 0 0 1
0.757966 -26.070588 -13.310127 29.281557 -1.541731 2.042671 0.041318 -0.026078 -629654.000000 0 0 1
1.324566 -27.239988 -13.882427 30.602177 -1.522209 2.041644 0.042105 -0.026548 236220.000000 0 0 1
0.898066 -28.474578 -13.256927 31.422194 -1.539268 2.006333 0.031579 -0.017852 659540.000000 0 0 1
-0.533234 -29.038408 -13.532427 32.041225 1.552435 2.006826 0.025160 -0.023349 837414.000000 0 0 1
-1.657834 -28.295628 -13.098127 31.224220 1.512273 2.003675 0.018580 -0.023410 381232.000000 0 0 1
-2.867734 -28.971478 -13.466227 32.076623 1.472133 2.004037 0.022233 -0.018522 498146.000000 0 0 1
-4.131134 -28.185128 -13.020327 31.320866 1.425261 1.999517 0.026402 -0.019794 -34680.300000 0 0 1
-4.440634 -28.072808 -11.672927 30.725544 1.413913 1.960495 0.025603 -0.026682 145797.000000 0 0 1
-5.057734 -29.265968 -11.106627 31.708591 1.399667 1.928658 0.015842 -0.022103 -602712.000000 0 0 1
-5.425334 -29.093048 -9.630127 31.122003 1.386432 1.885391 0.019873 -0.020493 353769.000000 0 0 1
-6.817934 -28.875848 -9.436227 31.134245 1.338931 1.878721 0.028389 -0.019376 215265.000000 0 0 1
-7.185134 -27.513528 -9.423127 29.956898 1.315352 1.890785 0.032872 -0.019244 1079480.000000 0 0 1
-8.726834 -27.275608 -9.093127 30.046654 1.261139 1.878251 0.037581 -0.015061 2114150.000000 0 0 1
-9.802034 -27.521388 -9.997627 30.878135 1.228644 1.900515 0.048795 -0.019351 395193.000000 0 0 1
-9.945834 -28.891048 -10.386927 32.272288 1.239250 1.898482 0.058240 -0.026671 -883191.000000 0 0 1
-11.141934 -29.231558 -11.256527 33.246595 1.206635 1.916200 0.073546 -0.024785 -564635.000000 0 0 1
-11.062334 -28.489928 -12.470327 33.008488 1.200426 1.958206 0.081860 -0.025137 -281641.000000 0 0 1
-11.987434 -29.022748 -13.343227 34.118327 1.179103 1.972608 0.090935 -0.031527 -528922.000000 0 0 1
-12.223634 -28.190698 -14.637627 34.035170 1.161660 2.015371 0.094513 -0.031357 82599.400000 0 0 1
-13.189534 -27.134158 -14.578327 33.507521 1.118342 2.020919 0.089318 -0.033425 151023.000000 0 0 1
-12.947934 -26.106598 -13.680727 32.192635 1.110383 2.009719 0.083210 -0.021543 -474936.000000 0 0 1
-13.883434 -24.915398 -13.750527 31.663920 1.062425 2.020018 0.095108 -0.014703 -421010.000000 0 0 1
-13.671934 -24.216398 -15.011627 31.602289 1.056833 2.065780 0.080922 -0.012880 -375485.000000 0 0 1
-14.583334 -23.208798 -15.196727 31.341067 1.009789 2.077025 0.081390 -0.008945 -753000.000000 0 0 1
-14.436234 -22.391898 -16.495727 31.335459 0.998150 2.125185 0.072451 -0.006016 684261.000000 0 0 1
-13.300334 -21.495198 -16.420627 30.142651 1.016698 2.146904 0.055333 -0.001304 794728.000000 0 0 1
-12.956734 -20.904098 -17.681427 30.290116 1.015932 2.194119 0.027887 0.002633 -126074.000000 0 0 1
-13.150234 -19.347798 -17.910327 29.462617 0.973841 2.224210 0.025630 0.005062 -438132.000000 0 0 1
-12.269434 -18.493398 -17.262627 28.116598 0.985024 2.231871 0.022496 0.011873 56400.100000 0 0 1
-12.697834 -17.128498 -17.398827 27.519804 0.932869 2.255224 0.035326 0.010444 1080060.000000 0 0 1
-11.374234 -16.306798 -17.600627 26.553097 0.961740 2.295410 0.034632 0.002122 1002560.000000 0 0 1
-10.492734 -16.142498 -16.528227 25.374397 0.994416 2.280190 0.034797 0.003933 -541302.000000 0 0 1
-9.208834 -15.803798 -16.960027 24.944041 1.043196 2.318454 0.034621 0.005019 -513886.000000 0 1 0
-8.300834 -15.095498 -15.907527 23.448397 1.068039 2.316387 0.024614 0.013784 288550.000000 0 1 0
-7.880634 -15.809898 -14.680727 22.969132 1.108380 2.264189 0.025584 0.008687 144229.000000 0 1 0
-6.980134 -16.862498 -14.992527 23.618679 1.178327 2.258513 0.038009 0.016202 -1138190.000000 0 1 0
-6.568534 -17.492298 -13.711427 23.176052 1.211579 2.203864 0.031091 0.005036 -750687.000000 0 1 0
-5.717834 -16.646598 -12.927627 21.838645 1.239939 2.204286 0.028528 -0.000182 387778.000000 0 1 0
-5.462734 -17.187698 -11.625027 21.456927 1.263065 2.143355 0.022398 -0.008641 -169490.000000 0 1 0
-4.509134 -18.380298 -11.546727 22.169677 1.330223 2.118624 0.047592 -0.009093 739146.000000 0 1 0
-3.123034 -18.097798 -11.836627 21.849242 1.399915 2.143303 0.037178 0.001786 599351.000000 0 1 0
-2.227734 -19.173398 -11.763327 22.604377 1.455126 2.118116 0.041712 0.008068 1080560.000000 0 1 0
-0.750034 -18.846598 -12.170827 22.447402 1.531021 2.143841 0.046771 0.020759 144918.000000 0 1 0
-0.608634 -18.541698 -13.559227 22.978635 1.537983 2.201954 0.057359 0.010705 115157.000000 0 1 0
0.600366 -17.835998 -13.846327 22.587697 -1.537149 2.230652 0.056062 0.005774 22634.700000 0 1 0
1.899766 -18.615798 -13.849427 23.280114 -1.469097 2.207942 0.065014 -0.002858 -1115520.000000 0 1 0
2.039966 -19.600098 -14.842027 24.670045 -1.467090 2.216326 0.089183 -0.002922 25593.100000 0 1 0
1.515066 -20.868798 -14.499327 25.456486 -1.498324 2.176783 0.092331 -0.005635 -458048.000000 0 0 1
1.393566 -21.815098 -15.699527 26.913114 -1.507002 2.193633 0.104600 -0.019554 593440.000000 0 0 1
2.644366 -22.251898 -16.236627 27.672508 -1.452513 2.197826 0.080964 -0.020569 159242.000000 0 0 1
3.295666 -21.408998 -17.134827 27.618996 -1.418057 2.240049 0.081962 -0.003809 -838437.000000 0 0 1
4.686466 -21.950598 -17.394927 28.396747 -1.360454 2.230101 0.072717 -0.007710 -816425.000000 0 0 1
4.627766 -23.062898 -18.208827 29.746847 -1.372768 2.229543 0.064634 -0.014328 835182.000000 0 0 1
5.931166 -23.675598 -18.217727 30.456498 -1.325330 2.211994 0.063626 -0.010620 902599.000000 0 0 1
6.538766 -23.630698 -19.651627 31.422155 -1.300844 2.246449 0.061304 -0.009791 -297340.000000 0 0 1
6.797066 -22.285598 -19.969427 30.685926 -1.274760 2.279392 0.081453 -0.019582 -372.089000 0 0 1
7.110666 -22.222098 -21.356827 31.630639 -1.261110 2.312024 0.082126 -0.015360 -3459.810000 0 0 1
7.437766 -20.799398 -21.889827 31.098230 -1.227371 2.351660 0.080920 -0.023870 1081950.000000 0 0 1
6.198266 -20.060798 -22.007927 30.417150 -1.271127 2.379709 0.113601 -0.029309 797390.000000 0 0 1
6.354266 -18.747098 -22.564727 30.016617 -1.244002 2.421495 0.131369 -0.034060 -16507.500000 0 0 1
5.054066 -17.901398 -22.729327 29.370495 -1.295630 2.455746 0.138134 -0.036443 -9298.020000 0 0 1
4.307266 -18.440198 -23.812927 30.424480 -1.341330 2.469772 0.130305 -0.036010 385399.000000 0 0 1
3.161566 -17.749298 -24.292227 30.251370 -1.394522 2.503129 0.117469 -0.027795 1451940.000000 0 0 1
1.890366 -17.531998 -23.376127 29.281185 -1.463388 2.495318 0.104618 -0.024305 426625.000000 0 0 1
2.016866 -16.466698 -22.486827 27.944182 -1.448922 2.505975 0.118876 -0.033462 314039.000000 0 0 1
0.800966 -16.204298 -21.791627 27.167920 -1.521407 2.501614 0.088195 -0.019683 575329.000000 0 0 1
1.184366 -15.297398 -20.609627 25.693771 -1.493528 2.501642 0.067819 -0.020923 77717.300000 0 0 1
1.650866 -14.052498 -21.093727 25.399673 -1.453854 2.550751 0.062823 -0.012480 -124090.000000 0 0 1
1.913566 -13.244998 -19.991727 24.057450 -1.427314 2.551698 0.057464 -0.014860 -165236.000000 0 1 0
3.167166 -12.336798 -20.074527 23.774234 -1.319498 2.576206 0.042908 -0.014064 -641247.000000 0 1 0
4.327666 -13.094298 -19.802527 24.131503 -1.251598 2.533272 0.048801 -0.010864 -504122.000000 0 1 0
5.447666 -12.233398 -19.705027 23.824802 -1.151849 2.544690 0.063302 -0.017139 103810.000000 0 1 0
5.656066 -11.353198 -18.409327 22.355973 -1.108597 2.538285 0.058954 -0.009629 -1130370.000000 0 1 0
4.856066 -10.242598 -18.157427 21.405242 -1.128079 2.583506 0.020595 -0.000754 -297454.000000 0 1 0
5.145066 -9.078698 -18.933927 21.619160 -1.055208 2.637874 0.033411 -0.014605 -591492.000000 0 1 0
4.628066 -8.928898 -20.424027 22.765876 -1.092597 2.684033 0.044235 -0.020718 -576263.000000 0 1 0
3.234366 -8.979898 -20.471327 22.587053 -1.225083 2.705313 0.027313 -0.017118 -856103.000000 0 1 0
2.775766 -8.973198 -21.760027 23.700674 -1.270793 2.734103 0.032466 -0.024630 152078.000000 0 1 0
1.233366 -9.009298 -21.901327 23.714063 -1.434743 2.748056 0.014894 -0.018721 276931.000000 0 1 0
0.738366 -7.690698 -21.876427 23.200649 -1.475082 2.802098 0.011301 -0.013073 -482061.000000 0 1 0
-0.650434 -7.639798 -22.084527 23.377680 1.485864 2.807427 0.013493 -0.009778 -70021.400000 0 1 0
-1.050834 -6.572898 -23.146827 24.084909 1.412264 2.861577 0.023408 -0.002555 -81870.500000 0 1 0
-0.841834 -6.970498 -24.492127 25.478635 1.450607 2.862410 0.028406 -0.002159 -410209.000000 0 0 1
-1.377034 -6.202498 -25.547517 26.325707 1.352327 2.897843 0.037365 -0.014131 -98323.200000 0 0 1
-0.945134 -4.705198 -25.681957 26.126521 1.372564 2.956853 0.050775 -0.018751 32240.100000 0 0 1
-1.293834 -4.107398 -26.916497 27.258807 1.265635 2.982948 0.044485 -0.018638 -157329.000000 0 0 1
-0.725834 -2.827298 -27.095317 27.252095 1.319500 3.034276 0.038143 -0.017714 -648052.000000 0 0 1
-1.290234 -1.677798 -26.256867 26.342035 0.915243 3.061158 0.043239 -0.023133 13728.300000 0 0 1
-2.696334 -1.624198 -26.160097 26.348794 0.542162 3.021843 0.031885 -0.020774 203490.000000 0 0 1
-3.345634 -1.002898 -27.310257 27.532694 0.291240 3.014393 0.048040 -0.014520 51013.900000 0 0 1
-4.885434 -1.115398 -27.298127 27.754267 0.224464 2.960043 0.041766 -0.019305 156195.000000 0 0 1
-5.474934 -0.161798 -26.437197 26.998639 0.029544 2.937301 0.047285 -0.014895 877826.000000 0 0 1
-6.862234 -0.490798 -26.170067 27.059260 0.071400 2.884523 0.051711 -0.030812 922646.000000 0 0 1
-7.590134 0.699702 -25.500607 26.615422 -0.091926 2.851139 0.047290 -0.023367 -988168.000000 0 0 1
-7.912034 1.876702 -26.277717 27.507103 -0.232892 2.841492 0.062811 -0.021484 556644.000000 0 0 1
-8.844334 1.810702 -27.352977 28.804275 -0.201940 2.822802 0.070756 -0.026237 -165363.000000 0 0 1
-10.193934 1.148402 -27.073387 28.951743 -0.112182 2.779397 0.054620 -0.028010 -1074740.000000 0 0 1
-11.249134 1.587802 -27.913167 30.136507 -0.140222 2.755067 0.060179 -0.035378 368312.000000 0 0 1
-12.516134 1.241202 -27.375267 30.126391 -0.098845 2.710909 0.036135 -0.026801 556929.000000 0 0 1
-13.658834 1.947302 -28.197387 31.391852 -0.141613 2.686543 0.025986 -0.027360 -518732.000000 0 0 1
-14.918834 1.515302 -27.785657 31.573889 -0.101223 2.646701 0.028800 -0.026649 51258.100000 0 0 1
-15.980834 1.994302 -28.621887 32.841692 -0.124152 2.629071 0.031962 -0.022217 508137.000000 0 0 1
-16.633334 3.378102 -28.375327 33.064158 -0.200367 2.602529 0.028884 -0.007974 -232629.000000 0 0 1
-15.796834 4.541102 -28.524397 32.921160 -0.279921 2.618835 0.036537 -0.007376 295203.000000 0 0 1
-15.553034 5.190202 -29.780297 33.995605 -0.322089 2.638311 0.036609 -0.017376 92971.400000 0 0 1
-16.855934 5.650302 -30.501487 35.304237 -0.323440 2.613880 0.021422 -0.005909 -14231.800000 0 0 1
-17.551134 6.641802 -29.844577 35.254143 -0.361771 2.580276 0.016150 0.005095 -121273.000000 0 0 1
-18.488934 7.274702 -30.702177 36.570284 -0.374858 2.567230 0.002246 0.008479 -43621.100000 0 0 1
-19.329934 8.259202 -29.850987 36.509481 -0.403796 2.528066 0.008183 -0.003259 -75494.300000 0 0 1
-18.481134 9.319202 -29.358367 35.920935 -0.467046 2.527515 0.005551 -0.000072 643403.000000 0 0 1
-19.192334 10.287002 -28.644927 35.981939 -0.492028 2.491606 0.030893 0.001670 -191443.000000 0 0 1
-9.049834 24.821702 30.368833 40.252731 -1.221180 0.715975 0.031716 -0.011852 -661840.000000 0 0 1
-9.861834 25.988902 30.590113 41.333204 -1.208118 0.737599 0.032443 -0.009602 394644.000000 0 0 1
-9.373634 26.765202 31.670273 42.511730 -1.233928 0.730296 0.037653 -0.007627 486217.000000 0 0 1
-8.006834 27.517602 31.504533 42.589475 -1.287643 0.738134 0.032054 -0.011425 489486.000000 0 0 1
-8.006234 28.492402 30.522903 42.515460 -1.296865 0.769980 0.043145 -0.006455 635745.000000 0 0 1
-6.677034 28.639402 30.011473 42.017694 -1.341746 0.775233 0.039606 -0.005723 620079.000000 0 0 1
-6.524734 29.712102 28.938743 41.986092 -1.354629 0.810349 0.054657 -0.009939 -231340.000000 0 0 1
-6.729434 30.978802 29.462863 43.278536 -1.356892 0.821979 0.055905 -0.013147 231756.000000 0 0 1
-6.358934 32.021702 28.626363 43.419973 -1.374765 0.850922 0.062483 -0.016858 -227412.000000 0 0 1
-6.556434 33.396902 29.260253 44.883207 -1.376943 0.860683 0.064547 -0.018216 -303296.000000 0 0 1
-5.849134 33.566002 30.475653 45.712736 -1.398271 0.841054 0.061484 -0.018785 -63487.200000 0 0 1
-6.362334 -33.838915 31.392053 46.594124 1.384948 0.831546 0.061805 -0.020138 501176.000000 0 0 1
-7.476134 33.996502 32.389309 47.547050 -1.354333 0.821388 0.028841 -0.018079 505366.000000 0 0 1
-7.123634 33.096202 33.403359 47.559322 -1.358791 0.792101 0.032097 -0.014087 -179317.000000 0 0 1
-7.199034 31.758002 33.024379 46.378943 -1.347880 0.778375 0.035633 -0.008205 -250213.000000 0 0 1
-7.087734 30.776702 -34.184934 46.540854 -1.344447 2.395747 0.026991 0.001630 452386.000000 0 0 1
-5.816334 30.596502 -33.546257 45.774742 -1.382940 2.393305 0.037313 -0.001663 443201.000000 0 0 1
-5.936134 29.928802 -32.298807 44.431788 -1.374996 2.384637 0.034132 -0.002075 -919469.000000 0 0 1
-4.548834 29.912402 -31.660887 43.793327 -1.419881 2.378876 0.045790 -0.011312 -12544.800000 0 0 1
-3.827534 28.723902 -31.874607 43.077873 -1.438324 2.403763 0.054536 -0.006421 115620.000000 0 0 1
-3.267934 28.542302 -33.194337 43.899959 -1.456798 2.428185 0.054082 -0.010493 -608380.000000 0 0 1
-2.557934 27.178002 -33.327787 43.080485 -1.476955 2.455326 0.058741 -0.019707 -662971.000000 0 0 1
-1.292934 27.188102 -32.658827 42.514275 -1.523277 2.446798 0.073435 -0.019354 703201.000000 0 0 1
-0.548034 25.971102 -32.830737 41.864732 -1.549698 2.472218 0.078384 -0.021494 539754.000000 0 0 1
-0.041434 25.696502 34.091191 42.690997 -1.569184 0.645902 0.071910 -0.017725 -421646.000000 0 0 1
-1.168134 25.405102 33.256041 41.865833 -1.524848 0.652863 0.074083 -0.018234 428910.000000 0 0 1
-0.841634 25.192502 31.893323 40.651624 -1.537401 0.668823 0.080478 -0.007055 71661.600000 0 0 1
-0.622334 26.451402 30.996263 40.753310 -1.547273 0.706586 0.066050 -0.006697 -163714.000000 0 0 1
-1.797534 27.190502 30.825413 41.143172 -1.504784 0.723908 0.059671 -0.012458 -325432.000000 0 0 1
-1.515534 28.411002 30.186553 41.481439 -1.517504 0.755816 0.059275 -0.010797 193454.000000 0 0 1
-2.645534 29.489002 30.143683 42.252120 -1.481323 0.776424 0.065686 -0.013192 -15452.900000 0 0 1
-2.874934 29.934502 31.484063 43.538326 -1.475049 0.762467 0.062685 -0.018340 -7651.730000 0 0 1
-3.537934 31.181702 31.600273 44.535297 -1.457818 0.781929 0.064791 -0.013339 -144697.000000 0 0 1
-3.217734 31.901202 32.876696 45.922953 -1.470271 0.772870 0.074430 -0.012110 -126209.000000 0 0 1
-1.962834 32.526102 32.762981 46.208364 -1.510523 0.782679 0.118830 -0.026166 -314356.000000 0 0 1
-1.480634 32.910402 34.024089 47.359533 -1.525837 0.769266 0.096072 -0.027909 9699.950000 0 0 1
0.002366 33.351902 34.097105 47.696560 1.570725 0.774350 0.092059 -0.030904 257242.000000 0 0 1
0.241466 -33.807715 33.427772 47.544041 -1.563654 0.791062 0.096422 -0.025993 -438673.000000 0 0 1
1.606066 -33.530415 33.368916 47.332365 -1.522934 0.788385 0.082101 -0.028673 -549170.000000 0 0 1
1.938666 -31.982015 33.050015 46.031632 -1.510253 0.769893 0.082311 -0.029949 -220031.000000 0 0 1
1.728966 -31.063715 34.097924 46.158554 -1.515195 0.739637 0.068488 -0.013547 80631.900000 0 0 1
2.076766 -29.707315 33.835586 45.074210 -1.501002 0.721730 0.062479 -0.020066 -17248.800000 0 0 1
1.597766 -28.729615 -33.417277 44.098278 -1.515240 2.430717 0.069598 -0.015167 -148619.000000 0 0 1
0.216066 -28.502315 -33.395017 43.905078 -1.563216 2.435062 0.055762 -0.021949 -302751.000000 0 0 1
-0.151834 -27.592315 -32.341237 42.512522 1.565294 2.435258 0.053838 -0.025878 345508.000000 0 0 1
-1.675434 -27.286415 -32.400647 42.392894 1.509472 2.440743 0.077656 -0.022369 347125.000000 0 0 1
-2.157034 -26.918015 -31.130317 41.210787 1.490834 2.427049 0.083009 -0.025150 -509446.000000 0 0 1
-3.397334 -26.295415 -31.147777 40.904459 1.442309 2.436384 0.095654 -0.035404 -704552.000000 0 0 1
-3.799034 -25.759215 -29.771777 39.551594 1.424369 2.423000 0.090043 -0.034776 -181985.000000 0 0 1
-4.221134 -26.765015 -28.834947 39.568146 1.414374 2.387279 0.082718 -0.032832 77189.800000 0 0 1
-4.374334 -26.227315 -27.509707 38.259520 1.405532 2.373201 0.076769 -0.026155 -441052.000000 0 0 1
-3.085634 -25.852615 -26.785267 37.354108 1.452003 2.370376 0.077864 -0.030687 -603249.000000 0 0 1
-2.586234 -24.609215 -27.240837 36.801702 1.466089 2.404173 0.091406 -0.032149 95440.000000 0 0 1
-1.472934 -24.262815 -26.438067 35.914136 1.510163 2.398155 0.082042 -0.031997 -584489.000000 0 0 1
-0.565534 -23.178215 -27.080307 35.649580 1.546402 2.433532 0.080019 -0.030252 291163.000000 0 0 1
0.208566 -23.527315 -28.226567 36.746662 -1.561932 2.446727 0.062944 -0.034926 600501.000000 0 0 1
1.228266 -24.509215 -28.022617 37.248857 -1.520724 2.422355 0.059434 -0.026363 -197972.000000 0 0 1
2.050766 -25.069415 -29.210977 38.548183 -1.489175 2.430698 0.023339 -0.025099 8226.710000 0 0 1
2.875466 -24.043915 -29.696867 38.318169 -1.451769 2.457523 0.029412 -0.025723 -128917.000000 0 0 1
3.579366 -24.436315 -30.856317 39.522876 -1.425353 2.466614 0.023601 -0.016770 -677607.000000 0 0 1
4.544066 -23.325915 -31.322837 39.317515 -1.378398 2.492551 0.026811 -0.021500 -650078.000000 0 0 1
5.700066 -23.089915 -30.493137 38.671260 -1.328771 2.479198 0.024626 -0.017381 440402.000000 0 0 1
6.776466 -23.964315 -30.577537 39.435957 -1.295218 2.458100 0.025431 -0.009601 -615830.000000 0 0 1
7.421766 -24.005615 -31.989537 40.677791 -1.270950 2.475776 0.032156 -0.007072 -1369790.000000 0 0 1
6.806966 -24.987815 -32.879157 41.854088 -1.304838 2.474407 0.005142 -0.009089 175872.000000 0 0 1
7.063966 -24.946915 34.094698 42.833359 -1.294860 0.650164 0.017035 -0.006823 52387.900000 0 0 1
6.429766 -23.651515 33.484238 41.496147 -1.305357 0.631871 0.020288 0.000037 -507106.000000 0 0 1
5.047166 -23.620515 33.667247 41.435325 -1.360285 0.622325 0.020352 -0.007034 -822240.000000 0 0 1
4.575566 -22.458115 32.987911 40.168458 -1.369809 0.607217 0.037371 -0.007208 -320261.000000 0 0 1
3.183566 -22.062415 33.500874 40.239207 -1.427487 0.587114 0.035430 -0.016035 225687.000000 0 0 1
2.071566 -22.898715 33.212126 40.394156 -1.480575 0.605529 0.054825 -0.021313 81777.000000 0 0 1
1.891466 -23.993815 34.103941 41.741581 -1.492128 0.614563 0.046384 -0.013216 -701117.000000 0 0 1
0.556166 -24.684415 33.845034 41.894104 -1.548269 0.630266 0.062071 -0.015759 -162122.000000 0 0 1
0.524066 -25.481615 32.655236 41.424048 -1.550233 0.662729 0.067109 -0.012146 613146.000000 0 0 1
-0.822434 -25.935115 32.462135 41.558354 1.539096 0.674336 0.072558 -0.012455 874610.000000 0 0 1
-0.819334 -27.023715 31.332083 41.384199 1.540487 0.711930 0.071402 -0.014456 384338.000000 0 0 1
-2.060034 -27.001315 30.641923 40.893058 1.494650 0.723764 0.080606 -0.018763 217471.000000 0 0 1
-2.127134 -28.102115 29.803893 41.018601 1.495247 0.757444 0.083711 -0.019854 -737090.000000 0 0 1
-3.407434 -28.159915 29.001913 40.567257 1.450379 0.774302 0.097264 -0.014461 -315855.000000 0 0 1
-4.518834 -28.495415 29.837373 41.505148 1.413525 0.768601 0.104239 -0.016337 -678958.000000 0 0 1
-5.592734 -28.883715 29.085783 41.370647 1.379534 0.791114 0.107984 -0.021005 -736643.000000 0 0 1
-6.817434 -29.210015 29.996933 42.420730 1.341507 0.785367 0.089392 -0.015974 350598.000000 0 0 1
-7.992134 -29.522915 29.241523 42.314813 1.306423 0.807860 0.102433 -0.012542 130749.000000 0 0 1
-9.171534 -29.681715 29.960463 43.159594 1.271107 0.803518 0.086328 -0.012300 -491403.000000 0 0 1
-9.348034 -30.854215 30.994873 44.721924 1.276613 0.805074 0.054096 -0.007080 -667257.000000 0 0 1
-9.430334 -32.161915 30.399023 45.248432 1.285577 0.834127 0.066782 -0.009093 1062120.000000 0 0 1
-10.618434 -32.419615 29.608623 45.171375 1.254277 0.855987 0.076980 -0.015312 550894.000000 0 0 1
-10.580534 -33.834915 29.073423 45.847716 1.267720 0.883913 0.086579 -0.010263 -122380.000000 0 0 1
-10.581134 33.523902 30.028553 46.233390 -1.265063 0.863871 0.063403 -0.008425 346523.000000 0 0 1
-10.301334 32.283202 29.381283 44.850667 -1.261917 0.856493 0.056569 -0.020603 -113146.000000 0 0 1
-10.626334 31.029702 30.255293 44.622237 -1.240857 0.825715 0.041849 0.003663 681558.000000 0 0 1
-12.023934 30.863002 30.509983 45.032864 -1.199296 0.826431 0.040852 0.007704 405553.000000 0 0 1
-12.279334 29.610402 31.071583 44.643042 -1.177685 0.800984 0.035655 0.007493 67152.100000 0 0 1
-12.368234 29.495602 32.584574 45.658714 -1.173743 0.776094 0.035441 -0.005635 361842.000000 0 0 1
-13.428234 30.253402 33.218830 46.894311 -1.153061 0.783601 0.024613 0.006348 760188.000000 0 0 1
-13.559334 29.927902 -33.818987 47.151445 -1.145395 2.370632 0.024238 -0.000205 -492808.000000 0 0 1
-14.880234 30.366202 -33.191337 47.383462 -1.115160 2.346871 0.028761 0.000965 -341978.000000 0 0 1
-14.970934 29.890602 -31.849627 46.173322 -1.106463 2.331987 0.021743 -0.003401 1118370.000000 0 0 1
-16.327034 30.025502 -31.348577 46.377107 -1.072747 2.313049 0.027141 -0.003563 1314200.000000 0 0 1
-16.369234 29.761902 -29.809717 45.192276 -1.067948 2.291109 0.046812 -0.013467 3996.820000 0 0 1
-16.396634 28.370302 -29.543307 44.119504 -1.046747 2.304494 0.033045 -0.015698 -67779.300000 0 0 1
-16.225834 28.042002 -28.155657 42.922868 -1.046241 2.286249 0.032819 -0.018908 -19570.100000 0 0 1
-16.623834 26.566202 -27.867817 41.937217 -1.011657 2.297638 0.020977 -0.020241 403710.000000 0 0 1
-18.020834 26.378002 -28.024697 42.496271 -0.971451 2.290900 0.023973 -0.022369 165195.000000 0 0 1
-18.484234 25.065802 -27.683597 41.669448 -0.935390 2.297436 0.013422 -0.017981 195239.000000 0 0 1
-19.975534 24.736702 -27.888067 42.292678 -0.891483 2.290825 0.029009 -0.018619 -53177.300000 0 0 1
-20.936534 25.314102 -27.020187 42.535076 -0.879766 2.259122 0.037344 -0.030104 -114493.000000 0 0 1
-22.140534 24.673502 -27.346437 42.974557 -0.839452 2.260541 0.072879 -0.028378 -594074.000000 0 0 1
-23.370834 24.898002 -26.484457 43.214961 -0.817026 2.230464 0.095560 -0.041405 -425603.000000 0 0 1
-23.823434 26.265902 -26.365397 44.188095 -0.834122 2.210133 0.055845 -0.030194 122937.000000 0 0 1
-24.995334 26.516702 -25.612077 44.540775 -0.814924 2.183432 0.042395 -0.022791 200064.000000 0 0 1
-25.062714 26.056602 -24.139127 43.471641 -0.804838 2.159501 0.036204 -0.012455 -852856.000000 0 0 1
-25.046844 24.606202 -24.005027 42.532939 -0.776524 2.170487 0.041227 -0.006575 -15143.300000 0 0 1
-26.282304 23.903802 -23.872927 42.802662 -0.738040 2.162462 0.033308 0.007146 34477.600000 0 0 1
-26.987144 23.978002 -22.496127 42.536176 -0.726423 2.128065 0.024014 0.001613 -450213.000000 0 0 1
-26.360204 23.422902 -21.383227 41.239969 -0.726465 2.115901 0.017667 -0.004452 -152442.000000 0 0 1
-25.553374 24.402902 -20.729927 40.965918 -0.762373 2.101370 0.024504 0.001663 -278848.000000 0 0 1
-24.510534 23.839502 -19.760827 39.491498 -0.771520 2.094836 0.016269 -0.000238 -168975.000000 0 0 1
-25.080324 23.396802 -18.582827 39.009671 -0.750684 2.067312 0.012996 0.007780 157781.000000 0 0 1
-24.047934 23.344402 -17.630527 37.869509 -0.770554 2.055064 0.007417 0.003267 -128287.000000 0 0 1
-24.486934 23.504302 -16.170227 37.597053 -0.764926 2.015392 -0.000250 0.000540 -173140.000000 0 0 1
-25.094074 24.742402 -15.899927 38.661436 -0.778342 1.994633 0.004099 -0.006362 -90923.200000 0 0 1
-25.527494 24.724602 -14.577327 38.411682 -0.769422 1.960055 -0.020963 -0.000081 -116266.000000 0 0 1
-25.829014 26.162202 -14.050727 39.357613 -0.791807 1.935852 -0.015043 0.009460 846590.000000 0 0 1
-24.612534 26.840402 -13.653127 38.892054 -0.828670 1.929491 -0.006286 0.002437 885744.000000 0 0 1
-24.804734 27.481702 -12.372827 39.033391 -0.836552 1.893341 0.003169 -0.004592 79558.200000 0 0 1
-23.515734 28.099902 -11.792427 38.492279 -0.873979 1.882161 0.013734 -0.009966 -171855.000000 0 0 1
-22.670334 27.133502 -11.255727 37.106096 -0.874774 1.878991 0.020333 -0.017356 148304.000000 0 0 1
-21.491034 27.703802 -10.683627 36.653854 -0.911022 1.866563 0.032205 -0.021042 347118.000000 0 0 1
-20.611734 26.670802 -9.909927 35.133771 -0.912850 1.856740 0.072844 -0.025407 -21683.400000 0 0 1
-19.910234 25.930602 -10.885327 34.457276 -0.915983 1.892210 0.050012 -0.028975 -256388.000000 0 0 1
-19.048134 25.028602 -10.231827 33.074954 -0.920258 1.885309 0.063837 -0.018583 -199584.000000 0 0 1
-18.459834 24.030402 -11.288127 32.336473 -0.915757 1.927389 0.062867 -0.026448 -305464.000000 0 0 1
-18.066034 22.818902 -10.690327 31.005918 -0.901129 1.922804 0.045822 -0.020062 -67477.700000 0 0 1
-17.562434 22.097502 -11.733727 30.568268 -0.899252 1.964762 0.058895 -0.017295 -173458.000000 0 0 1
-16.998634 20.746302 -11.210527 29.069546 -0.884363 1.966703 0.045557 -0.002803 -411721.000000 0 0 1
-18.005434 19.855702 -10.820627 28.905545 -0.834229 1.954486 0.039866 -0.000774 -396896.000000 0 0 1
-17.609134 18.499102 -10.638727 27.667325 -0.810040 1.965488 0.069842 -0.017333 -1132910.000000 0 0 1
-18.740434 17.503202 -10.282927 27.627966 -0.751275 1.952167 0.051878 -0.005484 412190.000000 0 0 1
-19.579234 16.966002 -11.320027 28.272506 -0.714013 1.982739 0.029138 -0.001934 444751.000000 0 0 1
-20.235134 17.915602 -12.101127 29.611935 -0.724674 1.991779 0.028741 0.006468 -1424960.000000 0 0 1
-20.949234 17.278402 -13.278927 30.228190 -0.689666 2.025604 0.055086 -0.001124 -339792.000000 0 0 1
-20.115934 16.940702 -14.373027 29.970353 -0.699921 2.070966 0.060763 -0.005621 -29000.900000 0 0 1
-20.842134 16.565102 -15.534327 30.823894 -0.671556 2.098986 0.068713 0.003613 352005.000000 0 0 1
-20.019634 16.405202 -16.894927 30.908817 -0.686492 2.149101 0.087337 -0.008633 103968.000000 0 0 1
-19.591434 17.605302 -17.471927 31.607581 -0.732053 2.156489 0.061985 -0.010584 231570.000000 0 0 1
-18.869134 17.254302 -18.651627 31.648670 -0.740725 2.201030 0.060834 -0.001439 -154746.000000 0 0 1
-18.146834 18.500302 -19.334227 32.332353 -0.795043 2.211780 0.043816 0.006285 78781.000000 0 0 1
-17.279434 19.005702 -18.322127 31.551480 -0.832937 2.190392 0.037658 0.004115 380481.000000 0 0 1
-16.591734 20.138702 -18.842627 32.185362 -0.881667 2.196220 0.060627 -0.007332 -6072.750000 0 0 1
33.734498 30.534702 2.286673 45.558898 0.735652 1.520584 0.065930 -0.017673 -434265.000000 0 0 1
35.008498 30.538002 1.735873 46.488469 0.717300 1.533448 0.070867 -0.017370 -549971.000000 0 0 1
34.970658 31.259702 0.517373 46.908246 0.729426 1.559767 0.058193 -0.006201 409330.000000 0 0 1
36.333278 31.167302 -0.238427 47.870289 0.709015 1.575777 0.018925 0.002066 138690.000000 0 0 1
-35.637199 32.086802 0.296973 47.954780 -0.733022 1.564604 -0.010538 0.003847 -532753.000000 0 0 1
-34.478374 32.209102 -0.489327 47.184997 -0.751383 1.581167 0.005498 0.005556 119621.000000 0 0 1
-33.524874 33.384702 -0.093527 47.312411 -0.783303 1.572773 0.007213 0.008708 167829.000000 0 0 1
-32.838214 33.153202 1.103773 46.676561 -0.790171 1.547147 0.009388 0.013694 4600.910000 0 0 1
-32.461454 -34.013115 1.838973 47.053372 0.808736 1.531704 0.001883 0.006267 157717.000000 0 0 1
-31.745944 33.980902 3.203673 46.612982 -0.819389 1.502013 0.025757 0.012623 211241.000000 0 0 1
-31.436334 -33.253815 3.956973 45.931655 0.813486 1.484540 0.020202 0.017348 24456.700000 0 0 1
-30.851894 -33.600815 5.209173 45.912848 0.828023 1.457094 0.038346 -0.000265 -325440.000000 0 0 1
-30.670084 -32.422215 6.218073 45.061275 0.813162 1.432363 0.040467 0.000331 413788.000000 0 0 1
-31.825484 -31.870715 6.864473 45.560124 0.786108 1.419552 0.031612 0.000999 273113.000000 0 0 1
-32.443034 -32.773715 7.748173 46.762175 0.790469 1.404335 0.020241 -0.013997 221438.000000 0 0 1
-33.623964 -32.080215 8.597773 47.261325 0.761907 1.387858 0.029520 -0.007008 1350150.000000 0 0 1
-34.908422 -31.815515 8.083373 47.918324 0.739078 1.401295 0.028639 -0.008790 565081.000000 0 0 1
-35.657154 -32.967315 7.585773 49.150996 0.746222 1.415841 0.012032 -0.009786 404266.000000 0 0 1
35.661158 -32.802615 7.453473 49.023301 -0.743670 1.418165 0.015055 -0.007853 344760.000000 0 0 1
34.954558 -33.121415 8.620573 48.919971 -0.758477 1.393653 0.010241 -0.006685 411761.000000 0 0 1
33.594968 -32.720715 8.426873 47.647447 -0.772216 1.393002 0.010559 0.000585 696725.000000 0 0 1
32.646768 -33.106715 9.615373 47.479695 -0.792393 1.366870 0.013227 -0.013088 802462.000000 0 0 1
31.336248 -32.538515 9.478273 46.157914 -0.804218 1.363981 0.028488 -0.019412 698852.000000 0 0 1
30.581688 -32.540715 10.680473 45.915251 -0.816424 1.336033 0.039794 -0.014567 -139813.000000 0 0 1
30.564208 -31.285415 11.499073 45.223630 -0.797058 1.313702 0.052570 -0.013696 -540322.000000 0 0 1
29.975238 -30.128815 10.986173 43.897111 -0.787953 1.317836 0.051951 -0.014659 -1506.870000 0 0 1
30.656018 -29.506315 9.899773 43.685462 -0.766290 1.342196 0.047280 -0.019043 368583.000000 0 0 1
29.927058 -28.146815 9.420973 42.150050 -0.754753 1.345382 0.046458 -0.017224 18465.300000 0 0 1
30.529538 -27.569615 8.306173 41.965806 -0.734496 1.371554 0.046868 -0.017958 28295.800000 0 0 1
29.839528 -26.386215 7.855473 40.599732 -0.724057 1.376082 0.058003 -0.021185 255726.000000 0 0 1
30.083928 -26.041515 6.348973 40.292837 -0.713498 1.412566 0.053718 -0.016611 744496.000000 0 0 1
31.421598 -25.637715 6.049673 41.002534 -0.684377 1.422712 0.059461 -0.019228 225146.000000 0 0 1
31.507598 -24.993515 4.786773 40.500836 -0.670614 1.452330 0.047164 -0.013242 -634872.000000 0 0 1
32.916338 -24.542915 4.460673 41.300576 -0.640689 1.462580 0.055046 -0.016447 -325903.000000 0 0 1
33.756638 -25.655315 4.087773 42.595959 -0.649876 1.474682 0.039419 -0.006615 -544180.000000 0 0 1
35.061558 -25.191115 3.906873 43.349380 -0.623023 1.480549 0.037085 -0.010497 -802159.000000 0 0 1
36.043758 -26.329315 3.916073 44.807599 -0.630892 1.483287 0.031877 -0.005763 -519733.000000 0 0 1
35.999158 -26.893215 5.194073 45.234531 -0.641611 1.455717 0.021148 0.003845 -254823.000000 0 0 1
-36.243824 -28.173215 5.132573 46.191862 0.660761 1.459452 0.025651 -0.002892 -989372.000000 0 0 1
36.086018 -29.125415 6.282973 46.797075 -0.679062 1.436130 0.017824 -0.002869 679091.000000 0 0 1
34.824558 -29.758715 6.026673 46.202292 -0.707120 1.439983 0.003683 0.000890 368135.000000 0 0 1
33.776358 -28.812115 6.164573 44.821672 -0.706248 1.432823 0.017906 -0.001089 -976075.000000 0 0 1
32.381358 -29.464915 6.350873 44.238752 -0.738277 1.426740 0.035673 -0.010942 28778.600000 0 0 1
31.929338 -29.910415 5.052373 44.041367 -0.752762 1.455824 0.018129 -0.010196 -24812.500000 0 0 1
30.831298 -29.221315 4.460373 42.712400 -0.758595 1.466178 0.028461 -0.013092 -68259.100000 0 0 1
29.581128 -30.107615 4.633973 42.461575 -0.794218 1.461445 0.035646 -0.019450 -270740.000000 0 0 1
29.550618 -31.246915 3.862873 43.180210 -0.813292 1.481217 0.040004 -0.009859 234614.000000 0 0 1
28.160368 -31.574715 3.780873 42.476628 -0.842494 1.481668 0.051755 -0.010178 196405.000000 0 0 1
27.916608 -32.968215 3.142973 43.314183 -0.868178 1.498170 0.056169 -0.004862 -455402.000000 0 0 1
28.185678 -32.953815 1.731373 43.397973 -0.863228 1.530890 0.056766 0.003861 198914.000000 0 0 1
27.893458 34.104402 1.215973 44.075319 0.885245 1.543204 0.054693 0.008076 21761.200000 0 0 1
27.655888 34.080502 -0.341127 43.891287 0.889090 1.578569 0.041165 0.002843 -260690.000000 0 0 1
28.802678 -34.034215 -1.107327 44.599868 -0.868462 1.595627 0.036988 0.000276 -260529.000000 0 0 1
28.470048 -33.875415 -2.454627 44.318310 -0.871882 1.626211 0.043675 -0.000170 -144911.000000 0 0 1
29.639358 -33.481915 -3.402327 44.845357 -0.846199 1.646737 0.031992 -0.001094 189959.000000 0 0 1
29.918168 -32.113515 -3.245327 44.010303 -0.820774 1.644603 0.021065 -0.005265 138904.000000 0 0 1
30.917318 -31.697715 -4.168427 44.474729 -0.797861 1.664660 0.013278 -0.005710 -8120.120000 0 0 1
31.273648 -30.210815 -4.115527 43.676904 -0.768114 1.665163 0.016806 -0.001690 -801801.000000 0 0 1
30.262928 -29.336915 -4.567627 42.395314 -0.769862 1.678745 0.028065 -0.012557 145010.000000 0 0 1
30.670338 -27.945215 -4.582927 41.744555 -0.738940 1.680803 0.030987 -0.013215 -25982.500000 0 0 1
31.510378 -27.590315 -5.817127 42.284375 -0.719167 1.708806 0.048560 -0.012756 -86455.300000 0 0 1
32.843148 -28.034815 -5.699527 43.555801 -0.706579 1.702028 0.047387 0.000365 -114066.000000 0 0 1
33.796688 -27.393615 -6.512227 43.989037 -0.681136 1.719385 0.055309 -0.009217 107633.000000 0 0 1
34.222848 -28.142415 -7.761227 44.982613 -0.688208 1.744202 0.050981 -0.014994 -1160250.000000 0 0 1
33.165358 -28.184615 -8.662427 44.377372 -0.704390 1.767257 0.053823 -0.015489 -303912.000000 0 0 1
33.073258 -29.276615 -9.593727 45.199560 -0.724581 1.784676 0.028552 -0.002203 58989.500000 0 0 1
32.686818 -30.571815 -8.877427 45.627543 -0.751976 1.766608 0.014036 0.005898 -556037.000000 0 0 1
33.754108 -31.127815 -8.189727 46.640672 -0.744942 1.747303 0.023408 -0.000844 -751504.000000 0 0 1
33.350538 -32.286515 -7.476527 47.016762 -0.769189 1.730493 0.022104 -0.003118 27899.400000 0 0 1
34.578288 -33.076115 -7.026827 48.363868 -0.763198 1.716603 0.018420 -0.001475 -370020.000000 0 0 1
34.367168 34.002002 -6.400227 48.766805 0.780057 1.702418 0.012856 -0.006624 -100047.000000 0 0 1
33.686748 34.113702 -5.158427 48.219819 0.791695 1.677979 0.023270 -0.005553 -150944.000000 0 0 1
33.475548 32.776702 -4.503727 47.065997 0.774850 1.666633 0.008883 -0.000549 -404881.000000 0 0 1
32.601578 31.929602 -5.167927 45.924610 0.774985 1.683566 0.015543 -0.008337 -353204.000000 0 0 1
32.620008 30.580402 -4.791927 44.968750 0.753137 1.677560 0.022167 0.006206 -343323.000000 0 0 1
31.366958 29.824202 -5.234227 43.597777 0.760191 1.691144 0.032654 -0.011056 -445249.000000 0 0 1
31.248438 29.711302 -6.613627 43.623003 0.760188 1.722992 0.005268 0.001097 -58258.700000 0 0 1
30.035948 29.115002 -7.032227 42.418082 0.769830 1.737349 0.000625 0.004506 -19081.800000 0 0 1
30.027198 28.849602 -8.541527 42.507527 0.765400 1.773115 0.002158 0.010627 -435572.000000 0 0 1
30.735458 27.673802 -8.900827 42.305229 0.733029 1.782776 0.013360 0.010996 63781.200000 0 0 1
30.911858 27.599202 -10.330127 42.707967 0.728843 1.815097 0.005997 0.013347 280387.000000 0 0 1
32.023698 28.531602 -10.891327 44.251447 0.727794 1.819475 0.026492 0.013186 -1444420.000000 0 0 1
33.303248 28.055402 -10.800027 44.864824 0.700078 1.813908 0.028348 0.003529 -798168.000000 0 0 1
34.346678 28.884702 -11.258327 46.268458 0.699231 1.816590 0.035417 -0.000593 225227.000000 0 0 1
34.702578 30.246502 -10.472827 47.210167 0.716897 1.794491 0.029712 -0.009445 -684353.000000 0 0 1
35.308848 30.043702 -9.209327 47.266801 0.705007 1.766888 0.023444 -0.000783 151518.000000 0 0 1
35.325728 31.307702 -8.510427 47.963597 0.725171 1.749176 0.015482 -0.004225 -614282.000000 0 0 1
-36.399214 31.554502 -7.474527 48.748927 -0.714224 1.724731 0.019065 0.002267 1322660.000000 0 0 1
-35.067035 31.572202 -8.023927 47.863183 -0.733002 1.739235 0.038996 -0.001232 983510.000000 0 0 1
-34.429401 30.309502 -8.310327 46.616639 -0.721845 1.750024 0.048562 -0.011064 -241589.000000 0 0 1
-32.933504 30.417802 -8.664827 45.661116 -0.745709 1.761718 0.086724 -0.013620 40265.500000 0 0 1
-32.124044 30.844802 -7.557227 45.171536 -0.765085 1.738887 0.077023 -0.011335 2104260.000000 0 0 1
-30.748144 31.308102 -7.818427 44.573236 -0.794421 1.747115 0.092237 -0.021549 1655580.000000 0 0 1
-30.551234 32.560502 -8.737527 45.496247 -0.817224 1.764046 0.068430 -0.018160 -624504.000000 0 0 1
-30.788054 33.878002 -8.195427 46.505787 -0.833145 1.747945 0.051750 -0.011631 6980.180000 0 0 1
-29.804964 -33.943515 -7.321427 45.761352 0.850227 1.731478 0.075918 -0.018989 90917.400000 0 0 1
-30.052204 -32.533315 -6.756727 44.801840 0.825021 1.722188 0.052071 -0.023041 -199207.000000 0 0 1
-30.973994 -32.432415 -5.696827 45.207341 0.808395 1.697148 0.040688 -0.023969 84388.500000 0 0 1
-30.429654 -32.813015 -4.447827 44.971557 0.823066 1.669861 0.058104 -0.020600 -9572.030000 0 0 1
-31.543204 -32.899815 -3.392527 45.704275 0.806446 1.645092 0.053152 -0.012384 42588.700000 0 0 1
-32.079274 -31.639615 -2.990727 45.156279 0.778498 1.637075 0.043355 -0.010723 219586.000000 0 0 1
-32.974314 -31.808015 -1.896527 45.854684 0.767397 1.612168 0.040758 -0.003447 159743.000000 0 0 1
-33.807774 -30.506315 -1.630127 45.565976 0.734110 1.606579 0.049802 0.003787 -64685.700000 0 0 1
-34.683120 -30.760415 -0.572427 46.362157 0.725530 1.583144 0.031531 0.016631 -125087.000000 0 0 1
-35.495451 -29.564615 -0.389327 46.196808 0.694490 1.579224 0.045816 0.004315 372832.000000 0 0 1
-36.424034 -29.645715 0.836173 46.971032 0.683162 1.552994 0.041783 0.004900 401260.000000 0 0 1
35.194388 -30.327115 0.722173 46.463969 -0.711249 1.555253 0.016532 0.002690 1048080.000000 0 0 1
34.183888 -30.219515 1.737073 45.659333 -0.723920 1.532743 0.019843 0.000053 1025420.000000 0 0 1
33.389518 -28.881715 1.900473 44.188519 -0.713134 1.527775 0.008026 0.019162 -50740.100000 0 0 1
32.431328 -28.525115 0.914273 43.200800 -0.721404 1.549631 0.012587 0.006038 260599.000000 0 0 1
31.870428 -27.227515 1.058273 41.930677 -0.706996 1.545555 0.020387 0.007194 -29361.500000 0 0 1
30.631988 -26.983015 0.146573 40.821848 -0.722149 1.567206 0.022519 -0.008052 72326.300000 0 0 1
29.471418 -27.671715 0.568973 40.430335 -0.753914 1.556723 0.021734 0.001860 -35580.700000 0 0 1
29.289088 -29.068315 0.485173 41.268063 -0.781615 1.559039 0.023594 -0.001734 -639053.000000 0 0 1
28.951918 -29.690415 -0.894727 41.479330 -0.797991 1.592368 0.012294 0.000883 290815.000000 0 0 1
27.590088 -29.535815 -1.276127 40.437678 -0.819445 1.602359 0.032191 -0.002277 277822.000000 0 0 1
27.400388 -30.042315 -2.578227 40.742720 -0.831358 1.634119 0.035890 -0.002378 -22658.800000 0 0 1
25.943788 -30.488415 -2.769127 40.128440 -0.865757 1.639858 0.058668 -0.011674 163967.000000 0 0 1
24.940688 -29.495515 -2.619827 38.715460 -0.868876 1.638517 0.067963 -0.012681 511127.000000 0 0 1
23.685188 -30.054715 -3.018027 38.384665 -0.903373 1.649503 0.051511 -0.011182 833686.000000 0 0 1
22.505988 -29.046515 -3.201327 36.884523 -0.911595 1.657699 0.045941 -0.009372 448820.000000 0 0 1
22.606088 -28.173815 -4.336527 36.381376 -0.894606 1.690277 0.053424 -0.015570 227495.000000 0 0 1
21.740888 -27.063715 -4.103727 34.956422 -0.894033 1.688463 0.044100 -0.016516 185333.000000 0 0 1
21.223888 -26.342415 -5.390427 34.255408 -0.892594 1.728813 0.048596 -0.019759 -1572.890000 0 0 1
20.047688 -26.846915 -5.986927 34.036891 -0.929384 1.747611 0.056007 -0.016885 -318294.000000 0 0 1
19.735888 -26.039615 -7.059527 33.427590 -0.922247 1.783587 0.057455 -0.016545 1042520.000000 0 0 1
18.195088 -25.894115 -7.366227 32.493503 -0.958279 1.799483 0.056145 -0.015845 1002980.000000 0 0 1
17.494688 -25.120315 -6.435327 31.281109 -0.962466 1.778002 0.050245 -0.016945 1700780.000000 0 0 1
16.036688 -25.233215 -6.593527 30.616419 -1.004654 1.787856 0.043173 -0.016311 2355200.000000 0 0 1
15.268088 -24.364215 -5.491927 29.272696 -1.011004 1.759527 0.033027 -0.012658 249929.000000 0 0 1
15.420588 -24.819515 -4.175227 29.516697 -1.014856 1.712725 0.022627 -0.005830 342754.000000 0 0 1
14.626088 -24.020715 -3.286927 28.314680 -1.023862 1.687144 0.019372 -0.006586 226032.000000 0 0 1
14.516688 -24.733915 -1.892627 28.741657 -1.040054 1.636694 0.025999 -0.006706 -597672.000000 0 0 1
13.799188 -25.911315 -2.021827 29.426207 -1.081446 1.639559 0.036874 -0.011918 16824.200000 0 0 1
14.564488 -27.128515 -1.893627 30.849092 -1.078090 1.632219 0.039424 -0.016768 -248313.000000 0 0 1
13.694688 -28.383815 -2.102927 31.584929 -1.121261 1.637426 0.033105 -0.008068 -94372.700000 0 0 1
12.845388 -28.593015 -0.990227 31.361522 -1.148567 1.602376 0.046545 -0.016608 -514614.000000 0 0 1
12.203388 -29.811115 -1.065527 32.229809 -1.182250 1.603863 0.045787 -0.017755 -342939.000000 0 0 1
12.976888 -31.101815 -0.621627 33.706215 -1.175518 1.589240 0.047955 -0.018602 -364234.000000 0 0 1
14.057988 -31.360515 -1.459527 34.398244 -1.149382 1.613239 0.055736 -0.018719 -843109.000000 0 0 1
14.602188 -32.608515 -1.264927 35.751073 -1.149771 1.606185 0.056422 -0.019705 -105993.000000 0 0 1
16.023288 -32.789615 -1.882927 36.543810 -1.116254 1.622344 0.058975 -0.019538 433797.000000 0 0 1
16.914088 -32.110715 -1.022527 36.307437 -1.085984 1.598963 0.049185 -0.008681 74129.100000 0 0 1
18.245288 -31.912115 -1.477027 36.789336 -1.051419 1.610955 0.057224 -0.012326 387820.000000 0 0 1
18.913488 -30.761315 -0.712027 36.117662 -1.019532 1.590512 0.057999 -0.007968 -241266.000000 0 0 1
18.444588 -29.525915 -1.215827 34.834763 -1.012419 1.605706 0.044492 -0.011165 203669.000000 0 0 1
18.696088 -28.556315 -0.222227 34.132920 -0.991118 1.577307 0.032229 -0.004659 -176371.000000 0 0 1
18.348888 -27.169915 -0.750827 32.794050 -0.976814 1.593694 0.016311 -0.009660 35089.600000 0 0 1
19.011888 -26.779715 -1.983127 32.901943 -0.953433 1.631107 0.027601 -0.018477 901944.000000 0 0 1
18.087888 -26.307615 -2.996927 32.066242 -0.968473 1.664393 0.036939 -0.008731 138837.000000 0 0 1
32.066278 -29.458015 14.083173 45.764141 -0.743030 1.257986 0.037737 -0.019195 743224.000000 0 0 1
33.085968 -29.861415 15.026873 47.033948 -0.734217 1.245605 0.062610 -0.010506 731848.000000 0 0 1
32.482398 -30.632715 16.020073 47.435347 -0.756100 1.226298 0.059145 -0.006274 -420053.000000 0 0 1
33.422198 -30.888515 17.168373 48.640484 -0.746021 1.210058 0.051187 -0.003143 -690950.000000 0 0 1
32.880078 -31.557115 18.307973 49.113470 -0.764870 1.188805 0.040304 -0.008286 290662.000000 0 0 1
33.722348 -31.633415 19.469673 50.169093 -0.753447 1.172248 0.023838 -0.013861 -100593.000000 0 0 1
34.670938 -32.836915 19.494173 51.578675 -0.758237 1.183215 0.017832 -0.014611 -106963.000000 0 0 1
35.673038 -32.855315 18.469973 51.895831 -0.744304 1.206914 0.019805 -0.006775 171825.000000 0 0 1
36.321188 -34.081715 18.565373 53.155104 -0.753600 1.214007 0.009528 -0.014484 -1152170.000000 0 0 1
-35.377520 -34.158315 17.609573 52.234629 0.767866 1.226935 0.002769 -0.010518 -953025.000000 0 0 1
-34.301278 -33.387815 18.093873 51.173353 0.771904 1.209401 0.015460 -0.010049 24856.500000 0 0 1
-33.331894 -33.115615 17.106373 50.002871 0.782143 1.221637 0.022094 -0.002538 254759.000000 0 0 1
-32.010444 -32.400115 17.583773 48.822382 0.791448 1.202359 0.020734 -0.003287 984832.000000 0 0 1
-31.012604 -32.223315 16.587273 47.699699 0.804542 1.215633 0.015619 -0.012806 117464.000000 0 0 1
-31.360224 -31.205415 15.644873 46.925511 0.782924 1.230891 0.027001 -0.014354 -884806.000000 0 0 1
-30.333994 -31.006115 14.554673 45.753348 0.796355 1.247059 0.029912 -0.022151 -629817.000000 0 0 1
-29.115884 -30.519415 15.039473 44.781192 0.808929 1.228296 0.029414 -0.028083 -793027.000000 0 0 1
-28.180344 -30.462715 13.987773 43.792312 0.824298 1.245688 0.035662 -0.017718 87797.600000 0 0 1
-26.773464 -30.183715 14.586573 42.902717 0.845201 1.223888 0.040653 -0.017418 90457.300000 0 0 1
-25.754204 -30.260315 13.610773 42.002605 0.865671 1.240793 0.042288 -0.015305 -468691.000000 0 0 1
-24.566734 -29.914315 14.293073 41.263574 0.883240 1.217082 0.035366 -0.010619 -115036.000000 0 0 1
-23.288434 -29.897815 13.419673 40.203459 0.909033 1.230471 0.058559 -0.006157 -67152.900000 0 0 1
-22.563934 -31.088215 13.369373 40.673681 0.942962 1.235871 0.063790 -0.010251 -194996.000000 0 0 1
-21.490234 -30.878615 12.469073 39.633279 0.962788 1.250749 0.073431 -0.021016 136444.000000 0 0 1
-20.914434 -32.155115 11.910973 40.165112 0.994124 1.269718 0.070940 -0.026809 613296.000000 0 0 1
-21.929434 -32.797315 11.107073 40.986961 0.981432 1.296375 0.051460 -0.022812 761166.000000 0 0 1
-21.650834 -34.181215 11.012873 41.933250 1.006170 1.305051 0.059380 -0.020547 526703.000000 0 0 1
-22.687434 33.450802 10.086773 41.658358 -0.974829 1.326235 0.051580 -0.009708 460793.000000 0 0 1
-22.512034 33.775302 8.753473 41.523318 -0.982893 1.358394 0.049609 -0.006328 -497942.000000 0 0 1
-23.435334 33.145502 7.922173 41.359400 -0.955358 1.378061 0.057663 -0.009426 -889368.000000 0 0 1
-23.216734 33.418402 6.413173 41.193872 -0.963617 1.414478 0.056010 -0.003228 40446.000000 0 0 1
-22.355634 32.524902 5.742673 39.882601 -0.968618 1.426305 0.048761 -0.006965 607109.000000 0 0 1
-20.970634 32.430902 6.057573 39.092519 -0.996797 1.415215 0.028153 -0.006023 779414.000000 0 0 1
-19.911834 33.530602 5.649473 39.404301 -1.034918 1.426929 0.044455 -0.005929 154317.000000 0 0 1
-19.977134 -33.579915 6.369873 39.588784 1.034126 1.409193 0.064962 -0.014041 -26189.300000 0 0 1
-19.754434 -33.600115 7.773773 39.744647 1.039301 1.373934 0.056482 -0.017839 -429574.000000 0 0 1
-19.711734 -32.173215 8.340173 38.642292 1.021109 1.353254 0.068497 -0.025914 2983.220000 0 0 1
-18.557934 -31.475715 7.864073 37.375944 1.038062 1.358807 0.057254 -0.032782 145912.000000 0 0 1
-18.302434 -30.281215 8.546473 36.400182 1.027137 1.333792 0.059788 -0.033422 129029.000000 0 0 1
-17.746134 -30.393715 9.963273 36.578272 1.042318 1.294928 0.057706 -0.029674 612394.000000 0 0 1
-16.460034 -31.037215 10.063073 36.544587 1.083178 1.291828 0.057756 -0.036209 401070.000000 0 0 1
-15.872534 -30.949715 11.320273 36.578283 1.096922 1.256149 0.066085 -0.034862 -26242.700000 0 0 1
-14.521734 -31.706415 11.376673 36.682505 1.141304 1.255457 0.065218 -0.038891 136708.000000 0 0 1
-13.577734 -31.014715 10.591773 35.474682 1.158148 1.267600 0.057329 -0.028700 -517953.000000 0 0 1
-12.544134 -31.842915 10.096473 35.682843 1.195527 1.283928 0.064609 -0.020280 601814.000000 0 0 1
-11.377334 -31.055715 9.379273 34.378364 1.219629 1.294468 0.071136 -0.013534 440363.000000 0 0 1
-10.615934 -30.333315 10.319873 33.753634 1.234143 1.260080 0.073875 -0.013875 -567778.000000 0 0 1
-9.764834 -29.417115 9.701973 32.478407 1.250297 1.267444 0.072688 -0.007434 -191797.000000 0 0 1
-8.875134 -28.668115 10.740973 31.874713 1.270572 1.227094 0.077272 -0.005253 29143.400000 0 0 1
-9.533934 -27.816315 11.651673 31.629176 1.240598 1.193526 0.080496 -0.016647 -604280.000000 0 0 1
-8.702034 -27.406915 12.683373 31.428209 1.263352 1.155385 0.070169 -0.012825 -178647.000000 0 0 1
-9.223034 -26.098515 13.287873 30.704469 1.231102 1.123237 0.081618 -0.018363 244245.000000 0 0 1
-8.837734 -24.874315 12.584273 29.243820 1.229412 1.125946 0.069001 -0.020985 -20660.500000 0 0 1
-9.466834 -24.683215 11.362573 28.774817 1.204566 1.164860 0.060959 -0.020271 -110113.000000 0 0 1
-9.005634 -23.347915 10.775273 27.245790 1.202665 1.164202 0.053045 -0.013714 -1066520.000000 0 0 1
-7.756734 -23.269715 10.243173 26.581368 1.249040 1.175208 0.044107 -0.009922 -1242710.000000 0 0 1
-7.421534 -21.963815 9.697873 25.130401 1.244943 1.174611 0.046023 -0.001256 202931.000000 0 0 1
-6.179034 -21.997815 8.785373 24.479933 1.296960 1.203728 0.036260 -0.003670 137972.000000 0 1 0
-4.985534 -22.409815 9.398073 24.806836 1.351890 1.182243 0.019484 -0.012183 -903679.000000 0 1 0
-3.922834 -22.446215 8.496873 24.319088 1.397778 1.213875 0.017501 -0.017009 277132.000000 0 1 0
-2.689834 -23.124315 9.198273 25.031528 1.454996 1.194512 0.018042 -0.016518 302774.000000 0 0 1
-2.129134 -22.441615 10.302373 24.785040 1.476205 1.142118 0.019613 -0.010607 -623848.000000 0 1 0
-1.041834 -23.219215 10.710073 25.591464 1.525957 1.139001 0.017353 -0.012943 -588687.000000 0 0 1
-0.204534 -22.613615 11.806173 25.510844 1.561752 1.089656 0.020188 -0.012349 -568793.000000 0 0 1
-0.901834 -22.374615 13.011073 25.898354 1.530512 1.044436 0.024562 -0.011442 175025.000000 0 0 1
-0.027834 -22.081215 14.145673 26.223671 1.569536 1.001044 0.048434 -0.018178 524107.000000 0 0 1
0.752866 -20.743615 14.141173 25.116472 -1.534518 0.972756 0.053177 -0.022490 -133257.000000 0 0 1
1.830166 -20.715515 13.244073 24.655375 -1.482677 1.003721 0.045123 -0.022965 -860692.000000 0 1 0
2.395266 -19.468515 13.167773 23.625212 -1.448379 0.979592 0.043358 -0.018615 91402.000000 0 1 0
3.874366 -19.495915 12.706673 23.591544 -1.374625 1.002008 0.052543 -0.014361 328477.000000 0 1 0
4.040666 -19.941915 11.395573 23.320936 -1.370881 1.060265 0.054509 -0.013450 1270790.000000 0 1 0
5.461266 -19.933815 11.033473 23.429041 -1.303388 1.080450 0.074697 -0.017919 1643740.000000 0 1 0
5.672466 -20.823815 9.744773 23.680556 -1.304846 1.146687 0.072619 -0.023299 -988220.000000 0 1 0
5.780666 -20.165215 8.539673 22.649018 -1.291618 1.184194 0.058745 -0.020534 -271375.000000 0 1 0
6.065166 -21.018915 7.431273 23.104217 -1.289870 1.243334 0.058126 -0.022323 852346.000000 0 1 0
7.509566 -21.701215 7.509373 24.160443 -1.237650 1.254748 0.055823 -0.007486 101221.000000 0 1 0
8.585966 -20.876415 7.243673 23.706841 -1.180607 1.260278 0.068480 -0.012049 -751439.000000 0 1 0
8.960666 -19.843615 8.168973 23.254994 -1.146642 1.211860 0.072454 -0.003910 -455596.000000 0 1 0
9.579066 -20.361615 9.492173 24.422433 -1.131069 1.171613 0.058230 0.000443 105899.000000 0 1 0
8.678866 -20.604615 10.570373 24.730663 -1.172140 1.129160 0.064937 -0.004028 -207744.000000 0 1 0
9.262966 -19.988615 11.709173 24.948988 -1.136845 1.082271 0.060500 -0.004503 387286.000000 0 1 0
8.536266 -20.351615 13.036073 25.631919 -1.173645 1.037253 0.082850 -0.006412 -34233.200000 0 0 1
8.824066 -21.628115 13.552573 27.005772 -1.183421 1.045072 0.077972 -0.007372 -180064.000000 0 0 1
7.962166 -21.992315 14.611673 27.578234 -1.223433 1.012401 0.101384 -0.000130 -141558.000000 0 0 1
8.246066 -23.387615 15.174973 29.073320 -1.231823 1.021655 0.087688 -0.016072 -44873.000000 0 0 1
7.890266 -24.391915 14.250873 29.331028 -1.257941 1.063446 0.092465 -0.012359 -246783.000000 0 0 1
8.027966 -25.649615 14.776773 30.670899 -1.267469 1.068106 0.090838 -0.016783 160897.000000 0 0 1
8.022366 -26.777715 13.742373 31.148952 -1.279715 1.113880 0.095143 -0.026234 98078.000000 0 0 1
9.300466 -27.045315 13.216673 31.506002 -1.239580 1.137905 0.088040 -0.015682 -182788.000000 0 0 1
9.181566 -27.922115 12.140773 31.801636 -1.253106 1.179090 0.085874 -0.027638 -95554.300000 0 0 1
10.503866 -28.304315 11.447973 32.288102 -1.215445 1.208356 0.085149 -0.026399 333230.000000 0 0 1
11.394466 -29.112415 12.251373 33.577712 -1.197730 1.197307 0.063947 -0.021973 892062.000000 0 0 1
12.661466 -29.271315 11.591973 33.933707 -1.162544 1.222171 0.090633 -0.021229 393185.000000 0 0 1
13.579966 -30.042315 12.534373 35.271330 -1.146257 1.207486 0.051022 -0.018949 -731394.000000 0 0 1
14.092266 -29.353215 13.685973 35.320094 -1.123201 1.172895 0.043366 -0.012797 782721.000000 0 0 1
15.202966 -29.885215 14.413673 36.496715 -1.100203 1.164804 0.036733 -0.008275 836062.000000 0 0 1
16.571466 -30.085715 13.733273 36.991439 -1.067333 1.190436 0.046917 -0.005482 -543816.000000 0 0 1
17.192366 -28.870815 13.467673 36.200548 -1.033697 1.189602 0.043545 -0.015352 478970.000000 0 0 1
18.449266 -29.080315 12.807573 36.743354 -1.005448 1.214753 0.030553 -0.014732 835931.000000 0 0 1
19.316966 -27.772015 12.634973 36.111945 -0.963060 1.213350 0.017395 -0.012471 444192.000000 0 0 1
20.621066 -27.930015 12.099673 36.765693 -0.934818 1.235444 0.011033 -0.013321 202728.000000 0 0 1
21.316066 -26.677915 12.291073 36.292648 -0.896656 1.225298 0.002047 -0.006219 -616102.000000 0 0 1
22.751766 -26.902415 11.847473 37.171837 -0.868795 1.246416 0.012776 -0.006053 -877764.000000 0 0 1
23.508366 -27.719915 12.675973 38.493081 -0.867425 1.235229 0.025718 -0.010041 -513962.000000 0 0 1
24.671466 -28.191815 12.065773 39.357878 -0.851893 1.259214 0.017565 -0.018584 -1105700.000000 0 0 1
25.616966 -28.957015 12.991373 40.786192 -0.846524 1.246625 0.035591 -0.013449 96662.000000 0 0 1
26.636166 -28.209515 13.652973 41.129865 -0.814077 1.232429 0.026215 -0.008123 447548.000000 0 0 1
27.773066 -27.998015 12.824173 41.469163 -0.789432 1.256396 0.012905 -0.007128 -130739.000000 0 0 1
28.865866 -27.132615 13.537373 41.864991 -0.754456 1.241521 0.038192 -0.010915 183399.000000 0 0 1
28.497966 -25.761715 13.759173 40.805819 -0.735012 1.226870 0.046967 -0.009555 -30278.000000 0 0 1
27.920866 -25.455215 14.992973 40.648887 -0.739237 1.193035 0.047983 -0.003339 -582938.000000 0 0 1
28.927666 -25.387415 16.132873 41.732485 -0.720310 1.173878 0.034993 0.003432 -584028.000000 0 0 1
29.501666 -26.593415 16.644873 43.065181 -0.733600 1.173958 0.047190 0.003538 -193300.000000 0 0 1
30.323666 -26.303515 17.724873 43.881326 -0.714524 1.154990 0.066820 0.009127 -421745.000000 0 0 1
30.694066 -27.566815 18.479673 45.205678 -0.731773 1.149667 0.049207 0.011362 -542637.000000 0 0 1
29.632566 -28.318815 18.984973 45.171600 -0.762732 1.137036 0.042378 0.008362 -456035.000000 0 0 1
30.047466 -29.540115 19.532573 46.443407 -0.776884 1.136726 0.060655 -0.003799 -538090.000000 0 0 1
28.947966 -30.360215 20.164273 46.543800 -0.809206 1.122720 0.080213 -0.005880 -1532020.000000 0 0 1
28.395666 -29.702915 21.269973 46.270820 -0.807895 1.093157 0.071117 0.000571 1004820.000000 0 0 1
27.258666 -30.360715 21.895173 46.305578 -0.839183 1.078284 0.061133 -0.003413 1621180.000000 0 0 1
25.958166 -30.558415 21.037673 45.279430 -0.866616 1.087592 0.097576 -0.008649 -379396.000000 0 0 1
26.021066 -31.712215 20.210073 45.729723 -0.883657 1.113029 0.106989 -0.013038 -188890.000000 0 0 1
25.132066 -31.793715 19.130373 44.815536 -0.901892 1.129768 0.103926 -0.010641 -266077.000000 0 0 1
25.459266 -30.803615 17.968473 43.816697 -0.880103 1.148252 0.087705 -0.003342 405583.000000 0 0 1
26.629866 -31.202315 17.245773 44.498887 -0.864298 1.172818 0.084582 -0.011873 595880.000000 0 0 1
27.100466 -30.217215 16.313773 43.745338 -0.839721 1.188636 0.064397 -0.018378 38053.100000 0 0 1
28.456266 -30.552315 15.653473 44.589621 -0.820904 1.212097 0.063208 -0.021812 -201118.000000 0 0 1
28.463366 -31.513215 14.636373 44.916248 -0.836205 1.238876 0.090876 -0.020990 145164.000000 0 0 1
28.491966 -32.887215 15.057973 46.044583 -0.856884 1.237637 0.066202 -0.028285 -305977.000000 0 0 1
27.807066 -33.901415 14.140173 46.070418 -0.883839 1.258836 0.093692 -0.030183 -20496.000000 0 0 1
28.355466 -33.990715 12.828173 46.086475 -0.875540 1.288720 0.098852 -0.027755 -63515.700000 0 0 1
27.660366 33.402702 12.149373 45.038246 0.879162 1.297656 0.102460 -0.030636 -592839.000000 0 0 1
28.240666 32.907402 10.799673 44.688536 0.861569 1.326715 0.104593 -0.031121 -62103.900000 0 0 1
29.446366 32.175302 10.951973 44.969815 0.829655 1.324782 0.063878 -0.027929 237301.000000 0 0 1
29.918266 31.565502 9.759173 44.572694 0.812183 1.350059 0.059030 -0.024878 -207081.000000 0 0 1
31.415466 31.277602 9.951273 45.433993 0.783199 1.349979 0.025115 -0.019659 -363858.000000 0 0 1
31.571166 30.224402 10.841073 45.030899 0.763608 1.327660 0.016020 -0.010570 -226377.000000 0 0 1
32.910866 29.882002 11.078673 45.812620 0.737200 1.326549 0.021817 -0.011406 -289107.000000 0 0 1
33.119866 28.947302 12.217173 45.652285 0.718273 1.299881 0.010988 -0.000088 -191986.000000 0 0 1
32.811966 27.623602 11.978773 44.532904 0.699759 1.298455 0.018053 -0.002904 180218.000000 0 0 1
32.935966 26.764602 13.128473 44.423851 0.682392 1.270789 0.030844 -0.016683 -149542.000000 0 0 1
32.699066 25.261702 12.870473 43.278535 0.657778 1.268842 0.029195 -0.017895 -236839.000000 0 0 1
33.647766 24.766202 11.937073 43.451474 0.634509 1.292496 0.035905 -0.014601 138065.000000 0 0 1
33.693766 23.374702 11.766273 42.662533 0.606512 1.291376 0.048353 -0.020696 -41962.600000 0 0 1
32.509166 22.796202 10.913073 41.177759 0.611547 1.302568 0.048049 -0.018160 264334.000000 0 0 1
31.408366 22.633302 11.776773 40.465346 0.624427 1.275489 0.054888 -0.033944 -129399.000000 0 0 1
30.180466 22.795202 11.067773 39.407834 0.646882 1.286115 0.050640 -0.024537 -728461.000000 0 0 1
29.026866 22.268302 11.837973 38.452228 0.654394 1.257851 0.036412 -0.021093 -932202.000000 0 0 1
28.951366 22.939502 13.059373 39.178432 0.670056 1.230962 0.039764 -0.019350 695042.000000 0 0 1
27.619066 22.792502 13.572173 38.295102 0.689946 1.208513 0.056879 -0.025833 718259.000000 0 0 1
23.622266 9.673802 25.831633 36.316211 0.388687 0.779454 0.014455 0.007092 -100913.000000 0 0 1
23.832566 8.301302 26.183353 36.365791 0.335175 0.766995 0.023606 0.007832 -850467.000000 0 0 1
22.640866 7.640002 26.110263 35.393845 0.325445 0.741130 0.022720 0.008137 -1120020.000000 0 0 1
22.597966 6.317102 26.958673 35.739948 0.272585 0.716208 0.036261 0.010829 -46641.500000 0 0 1
22.593466 6.486702 28.378943 36.849782 0.279585 0.691759 0.040520 0.008667 922243.000000 0 0 1
23.928766 6.378902 28.899703 38.058758 0.260520 0.708491 0.036720 0.002289 655601.000000 0 0 1
23.979966 6.472802 30.404553 39.260320 0.263642 0.684975 0.030187 0.005903 -242363.000000 0 0 1
23.630266 7.657502 31.066303 39.776148 0.313377 0.674485 0.043596 0.005700 242467.000000 0 0 1
23.610166 7.479902 32.464113 40.832677 0.306805 0.651703 0.033849 0.006636 -259822.000000 0 0 1
23.771766 8.802002 33.248563 41.809557 0.354618 0.651396 0.055300 -0.004937 479036.000000 0 0 1
25.025766 9.451102 32.992042 42.474547 0.361096 0.681310 0.054816 -0.001875 520014.000000 0 0 1
25.317666 10.295102 34.102329 43.702885 0.386215 0.675616 0.073528 -0.000989 123570.000000 0 0 1
26.467866 11.283702 33.797043 44.385921 0.402986 0.705271 0.049620 -0.001043 -24071.200000 0 0 1
26.070566 12.540202 33.233346 44.061166 0.448340 0.716278 0.034083 0.000274 303004.000000 0 0 1
26.081766 13.568002 -34.167668 45.075257 0.479685 2.431059 0.052553 -0.015592 -217086.000000 0 0 1
25.803866 14.997902 33.799371 45.090731 0.526501 0.723360 0.050118 -0.012471 -417974.000000 0 0 1
26.938466 15.540002 33.172367 45.470634 0.523239 0.753156 0.039744 -0.009935 44314.900000 0 0 1
26.800266 16.930402 32.955137 45.726730 0.563421 0.765989 0.066923 -0.019509 -210740.000000 0 0 1
27.130666 17.871102 34.183249 47.158709 0.582470 0.759972 0.068177 -0.020908 -295543.000000 0 0 1
26.359966 17.670302 -33.018497 45.796382 0.590546 2.376019 0.070699 -0.030597 289632.000000 0 0 1
27.194166 17.169702 -31.996327 45.366136 0.563170 2.353630 0.072313 -0.018601 -190702.000000 0 0 1
26.467566 16.542502 -30.772337 43.830619 0.558607 2.349102 0.075853 -0.024045 -243110.000000 0 0 1
25.699866 15.400102 -31.104387 43.187141 0.539852 2.374921 0.076991 -0.019867 238707.000000 0 0 1
25.105766 14.837202 -29.930467 41.788455 0.533767 2.369192 0.090654 -0.026964 148256.000000 0 0 1
24.249166 13.605402 -30.298827 41.123570 0.511300 2.399085 0.073358 -0.022907 -136148.000000 0 0 1
23.131066 13.864202 -31.170127 41.216977 0.539960 2.428351 0.068216 -0.028853 609724.000000 0 0 1
22.362666 12.731302 -31.395247 40.593552 0.517548 2.454991 0.061512 -0.011524 -122473.000000 0 0 1
21.575266 11.930602 -30.299557 39.062700 0.505125 2.458564 0.070413 -0.012188 114794.000000 0 0 1
20.350766 12.607502 -29.975877 38.362169 0.554642 2.467689 0.073240 -0.012786 412960.000000 0 0 1
19.452366 11.721502 -29.399567 37.150003 0.542310 2.483851 0.075837 -0.011878 -530764.000000 0 0 1
18.071966 12.216902 -28.955807 36.253102 0.594446 2.495949 0.053562 -0.012408 -198777.000000 0 0 1
17.233466 12.414602 -30.084017 36.826116 0.624272 2.526848 0.043325 -0.001404 194395.000000 0 0 1
15.945166 12.771402 -29.607197 35.971422 0.675325 2.537602 0.030906 -0.005713 -132246.000000 0 0 1
14.842266 12.811502 -30.682847 36.412423 0.712094 2.572978 0.032483 -0.010094 126973.000000 0 0 1
14.139766 11.634402 -31.069217 36.063674 0.688498 2.609033 0.029967 0.004960 457569.000000 0 0 1
12.854166 11.561502 -30.447857 35.013854 0.732503 2.625177 0.015269 0.011065 815900.000000 0 0 1
11.694066 11.173602 -31.426697 35.344559 0.762642 2.666286 0.017471 0.013429 368488.000000 0 0 1
11.572066 12.097402 -32.484647 36.544660 0.807589 2.665741 0.019853 0.015654 577267.000000 0 0 1
10.486266 11.682602 -33.340597 36.851600 0.839311 2.701532 0.028783 0.018933 448550.000000 0 0 1
10.299566 12.574002 33.782427 37.489184 0.884507 0.448440 0.044491 0.012644 179971.000000 0 0 1
11.237466 12.514302 32.681314 36.755362 0.839104 0.475295 0.036423 0.014890 408775.000000 0 0 1
10.773266 13.089702 31.468453 35.744469 0.882167 0.494149 0.052741 -0.005150 -937251.000000 0 0 1
11.664266 12.924302 30.281933 34.929760 0.836598 0.521771 0.053019 -0.003445 -868032.000000 0 0 1
11.909666 11.579502 29.898613 34.203100 0.771343 0.507115 0.044974 -0.001649 -52571.700000 0 0 1
12.281366 11.532802 28.585903 33.181189 0.753975 0.532562 0.051265 -0.002795 -253793.000000 0 0 1
12.797266 10.142702 28.076743 32.479961 0.670193 0.526775 0.055862 -0.005412 1016810.000000 0 0 1
11.757566 9.134002 28.285883 31.965004 0.660472 0.484514 0.061522 -0.014525 930769.000000 0 0 1
12.277566 7.863602 28.000103 31.568665 0.569657 0.480078 0.051882 -0.013961 -576756.000000 0 0 1
11.416166 6.649302 28.349593 31.276852 0.527412 0.436095 0.048199 -0.015687 -554925.000000 0 0 1
10.257266 6.577302 27.566943 30.139820 0.570188 0.416191 0.047609 -0.016923 -823188.000000 0 0 1
9.390366 5.544202 27.872873 29.930155 0.533341 0.372930 0.041577 -0.020469 -318776.000000 0 0 1
9.790366 4.104802 27.474913 29.454567 0.397007 0.368720 0.045476 -0.016445 -562405.000000 0 0 1
10.635166 3.512202 28.408633 30.536744 0.318968 0.375540 0.043541 -0.017403 -82138.800000 0 0 1
11.274666 2.359002 27.907283 30.191048 0.206255 0.391452 0.014037 -0.010328 -198450.000000 0 0 1
11.643666 1.393902 29.044383 31.322421 0.119146 0.383739 0.014245 -0.004166 -113058.000000 0 0 1
10.583566 0.707702 29.673553 31.512417 0.066769 0.343308 0.019466 -0.010840 -91760.300000 0 0 1
11.026366 -0.412098 30.411143 32.351015 -0.037357 0.348058 0.018051 -0.013380 695473.000000 0 0 1
10.047666 -0.539198 31.635153 33.196825 -0.053613 0.307949 0.027846 -0.014130 618860.000000 0 0 1
10.179266 0.531302 32.508647 34.069221 0.052147 0.303842 0.027172 -0.012500 981540.000000 0 0 1
8.910066 0.931102 33.092815 34.283970 0.104122 0.264374 0.038985 -0.019466 908130.000000 0 0 1
9.050866 2.144402 34.032769 35.280958 0.232638 0.266793 0.042612 -0.021411 -278769.000000 0 0 1
9.099866 3.515002 33.518318 34.909031 0.368614 0.283216 0.030214 -0.013933 -112074.000000 0 0 1
10.039666 3.764502 32.509173 34.231749 0.358738 0.318587 0.032692 -0.009756 -431506.000000 0 0 1
9.761966 5.053102 31.737293 33.586985 0.477653 0.333421 0.034059 -0.010163 -14156.800000 0 0 1
10.035966 6.176902 32.570021 34.636411 0.551722 0.347167 0.030693 -0.007865 99048.500000 0 0 1
10.181466 7.384202 31.839523 34.233666 0.627478 0.376208 0.029653 -0.006156 -316471.000000 0 0 1
10.374466 8.571902 32.801704 35.455025 0.690543 0.389330 0.044068 -0.005541 363933.000000 0 0 1
9.237666 9.037302 33.540119 35.943662 0.774435 0.367773 0.039797 0.000628 221311.000000 0 0 1
8.698066 8.109602 -33.928577 35.952335 0.750401 2.804469 0.035011 -0.001749 -225709.000000 0 0 1
7.421266 8.661702 -33.247747 35.149865 0.862373 2.811109 0.027820 0.002809 168989.000000 0 0 1
6.840966 7.732802 -32.326617 33.935310 0.846516 2.832452 0.032967 0.004234 -337885.000000 0 0 1
5.498966 8.094102 -32.129717 33.586781 0.974044 2.845960 0.034624 -0.000070 -14755.800000 0 0 1
4.898866 7.279302 -30.923207 32.143925 0.978432 2.865117 0.050568 -0.002240 -149967.000000 0 0 1
5.293566 7.769702 -29.614377 31.070910 0.972725 2.834189 0.043858 -0.000159 208512.000000 0 0 1
4.649766 7.166902 -28.501957 29.754771 0.995277 2.850376 0.036225 -0.000988 -449759.000000 0 0 1
3.173266 7.376302 -28.204217 29.325029 1.164532 2.864225 0.041832 0.002002 -453872.000000 0 0 1
2.317166 6.757102 -29.121687 29.985002 1.240440 2.901048 0.039167 0.003702 -7030.820000 0 0 1
0.928166 6.824802 -28.869057 29.679318 1.435627 2.907389 0.033002 0.012112 704503.000000 0 0 1
0.054666 6.245902 -30.054567 30.696764 1.562044 2.936683 0.037674 0.005200 329417.000000 0 0 1
0.340566 6.946702 -31.244487 32.009227 1.521810 2.922563 0.054029 -0.002710 375557.000000 0 0 1
-0.298434 6.411402 -32.422117 33.051306 -1.524283 2.946158 0.074072 -0.012416 -486129.000000 0 0 1
0.212266 7.190002 -33.640367 34.400807 1.541282 2.930940 0.088863 -0.017767 756409.000000 0 0 1
1.632666 7.221202 -33.836497 34.636973 1.348441 2.926186 0.085748 -0.013365 1008920.000000 0 0 1
2.333466 6.020902 -34.181393 34.785974 1.201059 2.954881 0.080330 -0.016205 -391633.000000 0 0 1
2.148866 5.635702 32.693783 33.245484 1.206518 0.182433 0.070930 -0.021299 -220076.000000 0 0 1
0.882466 5.048802 32.392559 32.795533 1.397757 0.156925 0.083510 -0.025887 319508.000000 0 0 1
0.542266 5.179502 31.035573 31.469478 1.466482 0.166252 0.097238 -0.027399 273715.000000 0 0 1
1.386266 4.306702 30.041333 30.380110 1.259384 0.149480 0.094587 -0.034861 159519.000000 0 0 1
1.065266 4.569002 28.694963 29.075960 1.341737 0.162063 0.082624 -0.032330 29694.800000 0 0 1
1.826766 3.779102 27.816803 28.131711 1.120528 0.149767 0.065941 -0.028828 -179118.000000 0 0 1
1.689266 4.145002 26.320363 26.698242 1.183804 0.168447 0.068916 -0.027564 109325.000000 0 0 1
2.295266 5.413202 26.092153 26.746428 1.169762 0.221642 0.058457 -0.021103 6239.100000 0 0 1
2.198266 5.740302 24.705313 25.458513 1.205071 0.243854 0.058848 -0.023312 -899158.000000 0 0 1
2.746966 7.165002 24.426993 25.603926 1.204693 0.304380 0.059748 -0.024784 629958.000000 0 0 1
4.159666 7.365902 24.428403 25.851619 1.056723 0.333365 0.052002 -0.021774 275933.000000 0 0 1
4.794866 6.756902 23.342463 24.769276 0.953640 0.341074 0.047205 -0.026059 461753.000000 0 1 0
6.378366 6.639302 23.420503 25.165131 0.805440 0.374549 0.050358 -0.025289 1681180.000000 0 0 1
6.998266 5.653302 24.314103 25.925106 0.679488 0.354387 0.051858 -0.021217 359266.000000 0 0 1
6.545666 4.294102 24.351743 25.579140 0.580597 0.311040 0.051727 -0.020802 -718802.000000 0 0 1
6.772066 3.468702 23.045173 24.268761 0.473366 0.318897 0.048455 -0.019985 172097.000000 0 1 0
5.919066 3.731402 21.944073 23.032608 0.562476 0.308667 0.042863 -0.020208 -777825.000000 0 1 0
4.648766 3.188702 22.096273 22.804037 0.601217 0.249795 0.044966 -0.025187 -606824.000000 0 1 0
3.605366 3.711802 21.065773 21.692001 0.799943 0.240870 0.033385 -0.026182 110240.000000 0 1 0
3.159866 5.011102 21.301073 22.109536 1.008199 0.271261 0.034810 -0.024486 -515722.000000 0 1 0
2.019966 5.291602 20.552173 21.318375 1.206138 0.268918 0.028647 -0.019898 -435297.000000 0 1 0
1.606466 6.800802 20.528973 21.685718 1.338831 0.328093 0.032647 -0.021043 -318150.000000 0 1 0
2.551866 7.617202 19.935473 21.493181 1.247534 0.383060 0.037250 -0.019156 -659873.000000 0 1 0
2.344066 8.931702 20.381473 22.375754 1.314141 0.425402 0.048105 -0.011346 563378.000000 0 1 0
3.401666 9.935402 19.816373 22.427041 1.240927 0.487316 0.075091 -0.022421 -301590.000000 0 1 0
3.259466 10.055002 18.385273 21.207202 1.257321 0.521776 0.035191 -0.015916 -207387.000000 0 1 0
4.026866 11.068402 17.790973 21.336445 1.221866 0.584786 0.034376 -0.019984 561601.000000 0 1 0
5.585866 11.009502 17.908973 21.751835 1.101272 0.603540 0.040662 -0.018859 189225.000000 0 1 0
5.957866 9.730902 17.461773 20.859054 1.021409 0.578778 0.028891 -0.008262 328759.000000 0 1 0
7.336466 9.481002 17.773373 21.438421 0.912232 0.593402 0.037202 -0.002303 546786.000000 0 1 0
7.626566 8.018502 18.178273 21.281693 0.810445 0.546836 0.046897 -0.008924 78822.200000 0 1 0
6.973566 7.707702 19.449373 22.052605 0.835361 0.490805 0.040932 -0.013009 175334.000000 0 1 0
6.920466 6.300402 19.708573 21.817785 0.738532 0.443335 0.045401 -0.026201 -200764.000000 0 1 0
8.232866 5.576702 20.073373 22.401339 0.595376 0.459940 0.048334 -0.017918 51060.800000 0 1 0
9.145966 5.687902 18.962273 21.807538 0.556369 0.516550 0.044896 -0.018151 -1000660.000000 0 1 0
10.412466 5.180602 19.173773 22.425246 0.461676 0.545229 0.054972 -0.018202 -681731.000000 0 1 0
10.713366 3.669102 19.276073 22.356330 0.329959 0.531160 0.075612 -0.016398 -618224.000000 0 1 0
10.034766 3.027802 20.320173 22.864241 0.293044 0.476226 0.070261 -0.017552 -63112.200000 0 1 0
10.200166 1.641702 20.292973 22.771546 0.159580 0.470912 0.068880 -0.027793 353609.000000 0 1 0
9.284566 0.828602 21.305173 23.255110 0.089009 0.412428 0.071385 -0.031194 514027.000000 0 1 0
9.687366 1.024302 22.638473 24.645379 0.105344 0.406352 0.049861 -0.025497 168297.000000 0 1 0
8.949566 0.174702 23.491263 25.138908 0.019518 0.364061 0.054114 -0.035896 22763.700000 0 0 1
9.501166 0.416602 24.953453 26.704316 0.043819 0.364127 0.036224 -0.029076 -296425.000000 0 0 1
10.736666 -0.162198 25.281163 27.467062 -0.015106 0.401649 0.029589 -0.024347 -234457.000000 0 0 1
10.737566 -1.573698 25.450543 27.667706 -0.145524 0.403061 0.031206 -0.021586 -800045.000000 0 0 1
12.117566 -2.135898 25.172793 28.019046 -0.174472 0.454645 0.029071 -0.019421 -601538.000000 0 0 1
12.068766 -3.521798 25.027153 28.007437 -0.283927 0.465517 0.037353 -0.008932 -856957.000000 0 0 1
13.322266 -4.101498 25.124773 28.732547 -0.298659 0.506524 0.043101 -0.005234 -776289.000000 0 0 1
13.290466 -5.644598 25.327653 29.154553 -0.401625 0.518149 0.055752 -0.009664 -136316.000000 0 0 1
12.747066 -6.328598 24.214513 28.087034 -0.460824 0.531349 0.052774 -0.006258 137745.000000 0 0 1
12.828466 -7.733998 24.351523 28.589875 -0.542533 0.551474 0.073469 -0.013436 102039.000000 0 0 1
12.548366 -8.445898 23.011773 27.537908 -0.592421 0.581500 0.075450 -0.014322 215686.000000 0 0 1
12.204066 -9.801498 23.231673 28.012840 -0.676649 0.592903 0.076063 -0.007701 -305513.000000 0 0 1
12.303666 -10.442298 22.016073 27.297056 -0.703747 0.632526 0.078367 -0.016645 112207.000000 0 0 1
11.713066 -11.868898 22.145173 27.721388 -0.792006 0.645419 0.075467 -0.012351 587943.000000 0 0 1
10.338466 -11.794398 22.515573 27.439802 -0.851085 0.608434 0.079856 -0.008771 70745.100000 0 0 1
9.795466 -13.084498 22.760473 28.021320 -0.928172 0.622788 0.071203 -0.005342 1249140.000000 0 0 1
8.225866 -13.079298 22.974573 27.686891 -1.009381 0.592048 0.058038 -0.003150 1207520.000000 0 0 1
7.508466 -12.617798 21.864973 26.337481 -1.034010 0.591358 0.063574 -0.006355 691392.000000 0 0 1
6.080666 -12.644298 22.089573 26.168722 -1.122544 0.565872 0.042309 -0.005651 1284170.000000 0 0 1
5.327166 -11.467998 21.423173 24.876616 -1.135930 0.533215 0.032401 0.006215 -143181.000000 0 1 0
5.558866 -10.232198 22.102973 24.982800 -1.073133 0.484887 0.030609 0.013847 14514.000000 0 1 0
5.077166 -9.125798 21.277873 23.702440 -1.063089 0.456257 0.027907 0.006476 318905.000000 0 1 0
5.453466 -7.749898 21.814573 23.783961 -0.957603 0.409809 0.033780 -0.007124 -63147.400000 0 1 0
4.776966 -6.748898 21.159873 22.717994 -0.954845 0.372516 0.031203 -0.010287 -193798.000000 0 1 0
5.269566 -5.506098 21.668173 22.969439 -0.807345 0.338217 0.048296 -0.012709 374843.000000 0 1 0
-8.643434 -14.970198 -20.318327 26.676773 1.047178 2.436650 0.039586 -0.005995 -235600.000000 0 0 1
-7.844334 -14.362698 -19.366427 25.355062 1.070906 2.439991 0.039556 -0.011013 -77008.700000 0 0 1
-6.634434 -13.811298 -19.858127 25.082123 1.122982 2.484423 0.028787 -0.009670 32895.700000 0 0 1
-5.790734 -13.187498 -18.769027 23.658383 1.157037 2.487064 0.022037 -0.007961 -56324.800000 0 1 0
-5.161934 -14.123098 -17.904627 23.381256 1.220384 2.443032 0.029844 -0.014278 96887.400000 0 1 0
-4.296834 -13.679398 -16.885327 22.151817 1.266446 2.437586 0.033809 -0.010935 -53722.500000 0 1 0
-3.414134 -14.827998 -16.376227 22.354120 1.344491 2.392904 0.043545 0.003663 -1334820.000000 0 1 0
-2.299234 -14.933298 -17.144527 22.852236 1.418029 2.419212 0.036136 -0.003573 -1902210.000000 0 1 0
-1.466534 -15.845598 -16.495727 22.920356 1.478508 2.374163 0.043829 0.001802 157127.000000 0 1 0
-0.074434 -15.984498 -17.223327 23.497930 1.566140 2.393477 0.042729 -0.001501 739505.000000 0 1 0
-0.034634 -16.823198 -18.405427 24.935536 1.568738 2.401076 0.070288 -0.009721 -297786.000000 0 1 0
-0.257634 -18.204798 -18.136427 25.698464 1.556645 2.354263 0.078811 -0.005424 -249091.000000 0 0 1
-0.740834 -18.918698 -19.406027 27.111988 1.531658 2.368527 0.078505 -0.010354 428421.000000 0 0 1
-2.074034 -18.484598 -19.675427 27.075901 1.459060 2.384268 0.076172 -0.018735 354059.000000 0 0 1
-2.509534 -18.940598 -20.972127 28.370304 1.439069 2.402720 0.069858 -0.024017 609312.000000 0 0 1
-3.796334 -18.360898 -21.661627 28.648924 1.366908 2.428139 0.050067 -0.018531 676870.000000 0 0 1
-3.617234 -17.008098 -22.004927 28.045973 1.361241 2.472850 0.049841 -0.019899 -148046.000000 0 0 1
-3.883034 -16.105698 -20.944027 26.704377 1.334214 2.472350 0.018844 -0.011395 -253145.000000 0 0 1
-2.797934 -15.028698 -20.681127 25.717683 1.386731 2.505057 0.040011 -0.008170 -71330.500000 0 0 1
-2.647834 -13.967698 -21.630327 25.883946 1.383451 2.560140 0.034275 -0.011140 -20282.400000 0 0 1
-1.742334 -12.946798 -21.236727 24.932988 1.437024 2.590117 0.022894 -0.000937 -20176.500000 0 1 0
-1.569434 -11.916798 -22.352127 25.378944 1.439851 2.648208 0.021481 -0.001234 563267.000000 0 0 1
-2.786534 -11.255498 -22.735327 25.521484 1.328105 2.669967 0.021362 -0.003164 633135.000000 0 0 1
-2.673934 -10.643398 -23.978927 26.370833 1.324661 2.712389 0.020237 -0.004151 -152615.000000 0 0 1
-3.494934 -9.316098 -24.037627 26.015607 1.211894 2.749129 0.017098 -0.000874 783759.000000 0 0 1
-4.918334 -9.518698 -24.083627 26.359377 1.093876 2.723006 0.042813 -0.017202 946509.000000 0 0 1
-5.492934 -8.230198 -24.201027 26.145711 0.982278 2.753470 0.032474 -0.017782 -775265.000000 0 0 1
-6.927034 -8.136198 -23.633927 25.937310 0.865499 2.716970 0.030666 -0.031581 95032.700000 0 0 1
-8.032634 -8.470498 -24.438227 27.083196 0.811924 2.695962 0.042081 -0.021978 232971.000000 0 0 1
-8.202034 -7.645698 -25.622907 27.968973 0.750308 2.729087 0.035780 -0.034330 -730937.000000 0 0 1
-9.278634 -8.173298 -26.594857 29.328864 0.722147 2.706381 0.028782 -0.034620 127751.000000 0 0 1
-9.975934 -7.122498 -27.241607 29.872302 0.620039 2.718772 0.043169 -0.043728 312335.000000 0 0 1
-10.896834 -7.675998 -28.188157 31.180670 0.613689 2.699894 0.051263 -0.039843 -81888.200000 0 0 1
-11.615134 -6.557998 -28.926697 31.853924 0.513989 2.709532 0.051997 -0.047206 -289625.000000 0 0 1
-10.844434 -5.904398 -29.896927 32.346405 0.498583 2.749925 0.021047 -0.036695 272292.000000 0 0 1
-11.727934 -5.239098 -30.805057 33.375802 0.420123 2.746539 0.044110 -0.036513 341870.000000 0 0 1
-11.036434 -4.162098 -31.659147 33.785020 0.360631 2.784956 0.025287 -0.025965 -183646.000000 0 0 1
-10.041634 -4.621198 -32.532627 34.359303 0.431307 2.814051 0.031791 -0.021359 -208658.000000 0 0 1
-9.624934 -3.530098 -33.315447 34.857137 0.351532 2.843067 0.028981 -0.019352 -545812.000000 0 0 1
-8.496534 -3.829298 34.101205 35.351757 0.423427 0.266777 0.018879 -0.012458 -1088700.000000 0 0 1
-7.224934 -3.943398 -33.744017 34.733396 0.499616 2.902339 0.016645 -0.015890 -1076260.000000 0 0 1
-6.340434 -4.302598 33.604648 34.467170 0.596217 0.224185 0.016170 -0.016150 -852185.000000 0 0 1
-4.891634 -4.087198 33.964519 34.557514 0.696044 0.185521 0.040290 -0.025318 -858931.000000 0 0 1
-4.564534 -2.735498 34.115266 34.527804 0.539900 0.154738 0.063871 -0.031576 -1380420.000000 0 0 1
-3.251734 -2.361598 34.025317 34.261831 0.628132 0.117568 0.059969 -0.036880 -1078130.000000 0 0 1
-3.009434 -0.877198 -33.844217 33.989075 0.283625 3.049236 0.079944 -0.042080 -8139.360000 0 0 1
-3.058134 -0.719498 -32.472067 32.623688 0.231071 3.045144 0.074907 -0.040267 49042.300000 0 0 1
-3.499734 0.555102 -32.092407 32.287442 -0.157302 3.031623 0.093256 -0.040273 -577856.000000 0 0 1
-3.963634 0.528302 -30.626577 30.886514 -0.132506 3.011764 0.102110 -0.039017 397199.000000 0 0 1
-5.060234 -0.369898 -30.461577 30.881232 0.072969 2.976546 0.070583 -0.037071 673181.000000 0 0 1
-6.337934 0.282702 -30.531547 31.183725 -0.044575 2.936715 0.068524 -0.034631 151449.000000 0 0 1
-7.492534 -0.723998 -30.570187 31.483307 0.096330 2.900161 0.051091 -0.039213 -322858.000000 0 0 1
-7.857534 -1.235198 -29.293257 30.353937 0.155923 2.876454 0.038445 -0.037262 384040.000000 0 0 1
-9.064734 -1.988298 -29.394197 30.824366 0.215925 2.835780 0.021963 -0.035221 349236.000000 0 0 1
-9.365634 -2.842598 -28.118447 29.773185 0.294677 2.806628 0.027511 -0.039606 -182028.000000 0 0 1
-9.892734 -2.001898 -27.136377 28.952664 0.199664 2.785503 0.031641 -0.037784 159752.000000 0 0 1
-10.445434 -2.703298 -26.035697 28.182840 0.253246 2.748722 0.031800 -0.034664 -59349.000000 0 0 1
-11.347934 -1.833198 -25.135537 27.639310 0.160161 2.712666 0.039169 -0.032405 -23601.100000 0 0 1
-10.657034 -0.818598 -24.478027 26.709854 0.076662 2.729893 0.037634 -0.022524 319478.000000 0 0 1
-11.578334 -0.094798 -23.663227 26.344167 0.008187 2.686531 0.039520 -0.025079 354089.000000 0 0 1
-10.868034 1.036402 -22.944627 25.409530 -0.095075 2.697482 0.043205 -0.024104 5774.820000 0 0 1
-10.394434 2.032602 -23.787927 26.039224 -0.193110 2.722705 0.029106 -0.021750 20278.200000 0 0 1
-9.630834 3.051002 -23.172527 25.278995 -0.306793 2.730466 0.027452 -0.020644 -373466.000000 0 0 1
-9.487334 4.298402 -24.146927 26.297526 -0.425402 2.734360 0.043378 -0.025192 315435.000000 0 0 1
-10.735734 4.974102 -24.346927 27.069735 -0.433877 2.689226 0.055057 -0.019473 845183.000000 0 0 1
-11.439234 4.462302 -25.508127 28.309588 -0.371932 2.692962 0.047533 -0.024848 -658434.000000 0 0 1
-12.877134 4.895302 -25.649507 29.114975 -0.363282 2.648711 0.044511 -0.009288 -799429.000000 0 0 1
-13.090534 6.246202 -26.008577 29.779577 -0.445204 2.632875 0.044141 -0.004982 481372.000000 0 0 1
-14.452934 6.674002 -26.142117 30.607840 -0.432603 2.594612 0.049122 -0.017936 557079.000000 0 0 1
-14.745434 8.147002 -26.514187 31.413430 -0.504768 2.575569 0.068903 -0.010163 -658778.000000 0 0 1
-14.534334 9.074602 -25.511297 30.731442 -0.558136 2.550149 0.089512 -0.017640 51979.700000 0 0 1
-14.973534 10.371102 -25.861807 31.632255 -0.605762 2.527987 0.078410 -0.014631 -239893.000000 0 0 1
-14.616734 11.390402 -24.784527 30.946130 -0.661973 2.499581 0.072636 -0.015105 -55047.600000 0 0 1
-15.112434 11.035102 -23.492827 30.034514 -0.630708 2.468976 0.087074 -0.014219 337847.000000 0 0 1
-14.622534 11.932202 -22.472027 29.346004 -0.684430 2.443020 0.067517 -0.012546 -181944.000000 0 0 1
-15.422034 11.802202 -21.193927 28.745672 -0.653210 2.399848 0.064259 -0.010886 491594.000000 0 0 1
-16.738334 12.366802 -21.288927 29.771262 -0.636315 2.367539 0.050357 -0.014471 600435.000000 0 0 1
-17.163334 12.681402 -19.967027 29.224650 -0.636337 2.322967 0.046202 -0.005537 577623.000000 0 0 1
-18.689234 13.039802 -19.954927 30.290642 -0.609192 2.289995 0.064930 -0.014139 552330.000000 0 0 1
-19.053634 14.327002 -20.401627 31.377226 -0.644735 2.278650 0.067200 -0.015398 697889.000000 0 0 1
-20.473234 14.410902 -20.548727 32.389467 -0.613332 2.258062 0.049871 -0.018362 774891.000000 0 0 1
-21.015034 15.795502 -21.072027 33.692133 -0.644543 2.246477 0.050446 -0.018780 -133419.000000 0 0 1
-20.915434 15.958802 -22.467827 34.596849 -0.651779 2.277616 0.052636 -0.022515 214204.000000 0 0 1
-21.409034 17.176802 -23.041327 35.837020 -0.676151 2.269137 0.031806 -0.002497 -140177.000000 0 0 1
-21.263534 17.188102 -24.570527 36.759754 -0.679804 2.302863 0.038543 -0.016373 677063.000000 0 0 1
-19.970834 17.348302 -25.176207 36.519025 -0.715240 2.331456 0.048279 -0.015368 529763.000000 0 0 1
-19.940834 16.915302 -26.511667 37.237518 -0.703491 2.363083 0.044890 -0.014731 -293693.000000 0 0 1
-18.948734 17.500402 -27.554707 37.743615 -0.745683 2.389191 0.026884 -0.002384 51784.200000 0 0 1
-19.184034 18.889902 -27.869897 38.750312 -0.777673 2.373472 0.012276 -0.010388 226479.000000 0 0 1
-18.670734 19.733402 -26.896407 38.228526 -0.813062 2.351204 0.002588 -0.023788 -1504010.000000 0 0 1
-19.241434 21.171402 -27.130747 39.427636 -0.833118 2.329684 0.041925 -0.013547 925149.000000 0 0 1
-20.457834 21.450602 -26.425507 39.710939 -0.809083 2.298888 0.057291 -0.012704 706277.000000 0 0 1
-21.601934 20.709602 -26.827407 40.190060 -0.764312 2.301661 0.074300 -0.016536 -911775.000000 0 0 1
-22.819934 21.113202 -25.979777 40.515003 -0.746569 2.266907 0.064108 0.004689 -267630.000000 0 0 1
-22.746534 20.638102 -24.605627 39.354452 -0.736838 2.246224 0.037222 -0.000278 434298.000000 0 0 1
-23.840534 21.178402 -23.860427 39.827324 -0.726333 2.213169 0.030810 -0.011496 56907.600000 0 0 1
-23.844634 20.833502 -22.391927 38.781436 -0.718104 2.186322 0.035790 0.008308 61265.200000 0 0 1
-22.841834 21.546102 -21.665427 38.149372 -0.756215 2.174761 0.032701 0.005348 1044120.000000 0 0 1
-21.685234 20.727402 -21.338827 36.813314 -0.762818 2.189095 0.022298 0.009547 338482.000000 0 0 1
-21.793334 19.795702 -20.046427 35.618513 -0.737402 2.168577 0.051537 -0.005184 -1233300.000000 0 0 1
-22.701834 18.719702 -20.168627 35.673155 -0.689556 2.171681 0.085794 -0.012094 211120.000000 0 0 1
-23.219034 18.277702 -18.922427 35.089260 -0.666879 2.140361 0.059201 -0.003919 -106567.000000 0 0 1
-24.217034 19.251402 -18.282827 35.935261 -0.671656 2.104553 0.016543 0.002157 -1532530.000000 0 0 1
-25.513114 19.258302 -18.770827 37.069463 -0.646591 2.101765 0.022735 0.000565 -468878.000000 0 0 1
-26.347084 20.200602 -18.159627 37.841844 -0.654111 2.071317 0.016487 -0.002038 -431579.000000 0 0 1
-27.855034 20.170502 -18.510727 39.056358 -0.626734 2.064567 -0.011918 0.016584 253193.000000 0 0 1
-28.547314 18.948502 -18.235527 38.814035 -0.585986 2.059881 0.001169 0.007032 235727.000000 0 0 1
-28.712394 18.651402 -16.896427 38.180697 -0.576090 2.029224 -0.002936 -0.004261 -796003.000000 0 0 1
-29.618024 17.408002 -16.649127 38.176685 -0.531364 2.022065 0.008066 -0.007359 -82057.900000 0 0 1
-29.050524 16.201902 -17.087327 37.395338 -0.508747 2.045345 0.024812 -0.010967 5302.180000 0 0 1
-29.736164 15.047602 -16.593027 37.228998 -0.468466 2.032754 0.032289 -0.005335 -7620.010000 0 0 1
-29.176114 14.284602 -15.375627 35.940303 -0.455292 2.012865 0.063043 -0.018651 -291287.000000 0 0 1
-28.890764 15.025102 -14.168127 35.512895 -0.479571 1.981176 0.071390 -0.022255 713759.000000 0 0 1
-30.034384 15.477502 -13.430627 36.359304 -0.475833 1.949145 0.040532 -0.017728 563543.000000 0 0 1
-29.518534 16.141702 -12.113127 35.757883 -0.500408 1.916389 0.057316 -0.013828 69777.000000 0 0 1
-28.683744 17.233102 -12.343327 35.666436 -0.541005 1.924183 0.045446 -0.009795 111350.000000 0 0 1
-29.429394 18.452002 -12.481827 36.910183 -0.560031 1.915765 0.005443 -0.003448 -217728.000000 0 0 1
-28.487664 19.625402 -12.674927 36.842328 -0.603243 1.922004 0.025572 -0.008812 -136770.000000 0 0 1
-27.940104 20.008702 -11.416127 36.212229 -0.621469 1.891523 0.004919 -0.015618 646415.000000 0 0 1
-26.870764 20.972302 -11.617727 36.011761 -0.662729 1.899281 0.003339 -0.014485 585153.000000 0 0 1
-26.165444 21.283502 -10.312327 35.269845 -0.682871 1.867515 0.010822 -0.003328 -678730.000000 0 0 1
-26.707954 22.301602 -9.545427 36.080347 -0.695731 1.838544 0.016840 -0.005133 -281864.000000 0 0 1
-26.194314 23.581002 -9.726227 36.562347 -0.732944 1.840056 0.014980 -0.001346 -59892.400000 0 0 1
-27.032864 24.603602 -8.937827 37.629745 -0.738387 1.810609 0.034230 0.005693 56577.000000 0 0 1
-26.528634 24.732402 -7.587327 37.054387 -0.750372 1.777017 0.031228 0.001241 118999.000000 0 0 1
-27.462834 25.104402 -6.602527 37.789305 -0.740563 1.746417 0.057046 -0.012031 -218740.000000 0 0 1
-27.195274 24.334202 -5.297727 36.875496 -0.729932 1.714960 0.065907 -0.017301 -70146.800000 0 0 1
-27.536304 22.993702 -5.394227 36.277486 -0.695740 1.720043 0.062244 -0.016110 -59938.400000 0 0 1
-27.244654 22.244302 -4.210427 35.423266 -0.684700 1.689939 0.059279 -0.019137 -52796.600000 0 0 1
-27.306804 20.703602 -4.493627 34.561443 -0.648719 1.701184 0.064116 -0.016297 -120847.000000 0 0 1
-26.379084 20.083402 -5.349027 33.582900 -0.650718 1.730756 0.046519 -0.028144 -113336.000000 0 0 1
-26.451824 20.442702 -6.720827 34.099451 -0.657951 1.769190 0.036970 -0.021484 -145205.000000 0 0 1
-27.598354 19.705002 -7.507227 34.732041 -0.620055 1.788663 0.028231 -0.018934 48965.800000 0 0 1
-27.340014 18.295602 -7.621227 33.768158 -0.589746 1.798450 0.032602 -0.020488 398630.000000 0 0 1
-27.973494 17.774502 -8.810727 34.293996 -0.566047 1.830628 0.023740 -0.014026 128015.000000 0 0 1
-27.784884 16.267602 -9.104327 33.459280 -0.529678 1.846373 0.055963 -0.022069 -80774.700000 0 0 1
-28.428104 15.406502 -8.223127 33.363711 -0.496639 1.819832 0.043177 -0.012972 12939.200000 0 0 1
-27.952574 14.132002 -8.565327 32.471906 -0.468094 1.837732 0.058069 -0.015971 50145.600000 0 0 1
-28.423234 12.941102 -7.613527 32.145266 -0.427253 1.809916 0.067524 -0.014774 796817.000000 0 0 1
-29.853374 12.795202 -7.688027 33.377341 -0.404917 1.803220 0.081195 -0.008319 674781.000000 0 0 1
-30.254594 11.795502 -6.808527 33.178763 -0.371747 1.777472 0.086447 -0.017749 -138441.000000 0 0 1
-30.758074 10.474302 -7.449627 33.335672 -0.328221 1.796173 0.072473 -0.012561 -8016.960000 0 0 1
-29.761674 9.587802 -7.939927 32.260279 -0.311654 1.819472 0.080418 -0.006246 173718.000000 0 0 1
-30.340664 8.394502 -8.389927 32.579356 -0.269923 1.831254 0.070531 -0.008368 -595701.000000 0 0 1
-29.358044 7.374102 -8.923727 31.557963 -0.246087 1.857480 0.110155 -0.013234 -493018.000000 0 0 1
-28.877734 7.642802 -10.221827 31.572483 -0.258729 1.900495 0.108873 -0.022912 -284320.000000 0 0 1
-27.947674 6.704502 -10.611327 30.636956 -0.235446 1.924481 0.120868 -0.021805 -897114.000000 0 0 1
-27.375704 7.072302 -11.973027 30.705048 -0.252815 1.971359 0.094430 -0.018098 -293795.000000 0 0 1
-26.587794 8.252902 -11.983327 30.308766 -0.300972 1.977272 0.120713 -0.029269 487403.000000 0 0 1
-25.774054 8.408102 -13.111327 30.114862 -0.315338 2.021254 0.108023 -0.018393 -188307.000000 0 0 1
-30.672224 25.670102 33.390091 52.102184 -0.696849 0.875181 0.032734 0.010927 -64072.300000 0 0 1
-30.673894 27.059902 33.092197 52.613872 -0.722882 0.890577 0.019714 -0.006323 329081.000000 0 0 1
-31.754514 27.432702 32.246363 52.921925 -0.712508 0.915594 0.049097 -0.018321 137782.000000 0 0 1
-31.716104 28.935102 31.922703 53.499629 -0.739578 0.931426 0.056555 -0.026382 601133.000000 0 0 1
-33.006074 29.334102 31.440143 54.206761 -0.726564 0.952063 0.076932 -0.025760 643042.000000 0 0 1
-33.109944 30.703202 31.265243 54.922403 -0.747701 0.965188 0.086585 -0.031034 -263181.000000 0 0 1
-32.645754 31.336502 29.944223 54.262123 -0.764938 0.986223 0.086732 -0.030692 -160687.000000 0 0 1
-31.248334 31.249002 29.769223 53.283816 -0.785409 0.977989 0.065679 -0.027929 -388465.000000 0 0 1
-30.823064 31.957802 28.671493 52.852784 -0.803471 0.997412 0.055143 -0.011446 527928.000000 0 0 1
-29.335654 31.672602 28.283423 51.610912 -0.823685 0.990810 0.061311 -0.011816 337947.000000 0 0 1
-29.030054 30.351202 27.882393 50.411975 -0.807643 0.984727 0.087537 -0.013696 -170771.000000 0 0 1
-28.059874 30.194402 26.876903 49.207990 -0.822023 0.992987 0.059813 -0.004521 -417926.000000 0 0 1
-28.327694 30.881402 25.506133 49.057945 -0.828502 1.024041 0.043925 0.003278 -380556.000000 0 0 1
-28.132404 32.328102 25.512953 49.874332 -0.854683 1.033815 0.033318 0.002003 476478.000000 0 0 1
-28.949214 33.027402 24.545193 50.312351 -0.851105 1.061164 0.026363 -0.002350 309784.000000 0 0 1
-29.285474 -33.907815 24.992523 51.303071 0.858414 1.061968 0.030620 0.006616 235570.000000 0 0 1
-30.108844 -33.845515 26.177103 52.319232 0.843759 1.046812 0.039826 -0.010224 335709.000000 0 0 1
-30.268264 -32.502815 26.613973 51.777450 0.820982 1.030947 0.018177 -0.007355 -176705.000000 0 0 1
-30.604364 -32.391715 28.102823 52.684143 0.813763 1.008157 0.034856 -0.012747 1187210.000000 0 0 1
-31.965204 -32.811815 28.407473 53.901521 0.798467 1.015700 0.014696 -0.020735 1145480.000000 0 0 1
-32.119104 -33.158115 29.767343 54.928973 0.801314 0.998071 0.036775 -0.026327 518463.000000 0 0 1
-33.642324 -33.342115 30.054013 56.095867 0.780916 1.005387 0.038784 -0.034112 505318.000000 0 0 1
-33.899824 -33.614215 31.433763 57.159382 0.781168 0.988514 0.039447 -0.042546 -559235.000000 0 0 1
-35.258874 -33.620815 31.744473 58.148593 0.761621 0.993310 0.032843 -0.042449 -683423.000000 0 0 1
-35.566295 -34.116115 33.180986 59.412528 0.764590 0.978238 0.063587 -0.037069 -192765.000000 0 0 1
-35.298411 32.902502 33.350615 58.658468 -0.750282 0.966047 0.055245 -0.031685 -10212.600000 0 0 1
-36.190554 32.257702 -34.148944 59.299797 -0.728004 2.184464 0.060231 -0.024665 -107739.000000 0 0 1
-35.748338 30.819002 -33.913847 58.119735 -0.711483 2.193849 0.046772 -0.016635 53374.200000 0 0 1
-34.517588 30.756802 -33.243297 56.943494 -0.727847 2.194191 0.047959 -0.010101 -413428.000000 0 0 1
-34.170453 29.446202 -32.795137 55.769343 -0.711273 2.199442 0.036252 -0.010096 492191.000000 0 0 1
-33.183954 29.444202 -31.582797 54.457404 -0.725755 2.189469 0.033657 -0.008774 339154.000000 0 0 1
-33.766324 29.698402 -30.321097 54.235861 -0.721388 2.164048 0.046577 -0.015539 -199972.000000 0 0 1
-34.284330 31.031902 -30.116927 55.185356 -0.735644 2.148070 0.036738 -0.012110 956809.000000 0 0 1
-35.315826 31.133102 -28.882317 55.232833 -0.722535 2.121069 0.030159 -0.002149 792901.000000 0 0 1
-34.797404 30.905702 -27.582827 54.100222 -0.726236 2.105803 0.015963 -0.012392 -85741.600000 0 0 1
-35.816693 30.607802 -26.629497 54.118418 -0.707140 2.085251 0.026242 -0.009520 139177.000000 0 0 1
-35.295109 30.512602 -25.209047 53.030742 -0.712852 2.066177 0.036791 -0.016988 -152935.000000 0 0 1
-35.040055 31.821102 -24.673427 53.377579 -0.737291 2.051320 0.029999 -0.015731 11485.500000 0 0 1
-34.638323 31.846602 -23.304827 52.508422 -0.743433 2.030665 0.024822 -0.018324 664520.000000 0 0 1
-35.810353 31.512302 -22.292227 52.653109 -0.721642 2.007968 0.007611 -0.013694 446510.000000 0 0 1
35.949748 32.336802 -22.052627 53.144816 0.732539 1.998688 0.014957 -0.017698 -80831.200000 0 0 1
36.324018 33.560002 -21.392427 53.882687 0.745867 1.979062 0.019803 -0.022414 -205171.000000 0 0 1
-36.336944 33.465702 -19.871527 53.246636 -0.744288 1.953250 0.016693 -0.013898 -266429.000000 0 0 1
-35.216289 32.686202 -19.536227 51.867513 -0.748155 1.956980 0.019026 -0.013027 -173962.000000 0 0 1
-35.157881 32.395402 -18.120627 51.126273 -0.744528 1.933100 0.044571 -0.002083 26602.000000 0 0 1
-33.879604 31.599802 -17.794527 49.628824 -0.750595 1.937513 0.053452 -0.000289 35609.400000 0 0 1
-33.835474 30.980402 -16.482727 48.747357 -0.741378 1.915721 0.052261 0.002329 -289760.000000 0 0 1
-32.571784 30.403102 -16.271327 47.434437 -0.750975 1.920935 0.057081 0.000516 -255221.000000 0 0 1
-32.206684 30.309802 -14.763027 46.625117 -0.755065 1.892974 0.074113 -0.003125 -6695.220000 0 0 1
-33.211664 29.553102 -14.142827 46.652117 -0.727174 1.878798 0.065876 0.003782 317152.000000 0 0 1
-32.796834 29.264902 -12.762627 45.770639 -0.728550 1.853381 0.080326 0.002780 136687.000000 0 0 1
-33.725254 28.291302 -12.029427 45.634391 -0.698000 1.837553 0.080642 -0.003130 75721.300000 0 0 1
-33.236454 28.128902 -10.696827 44.836582 -0.702358 1.811693 0.082145 0.001970 495943.000000 0 0 1
-33.981824 27.065502 -10.151227 44.613374 -0.672585 1.800345 0.083339 -0.009021 227170.000000 0 0 1
-33.221504 26.382102 -8.980927 43.362895 -0.671150 1.779417 0.082267 -0.000136 232708.000000 0 0 1
-33.043954 27.153902 -7.822827 43.479120 -0.687864 1.751703 0.082986 -0.008046 365718.000000 0 0 1
-31.766394 26.877602 -7.263527 42.240597 -0.702227 1.743611 0.086180 -0.015497 78585.100000 0 0 1
-31.537244 27.596902 -5.948127 42.326906 -0.718863 1.711791 0.087421 -0.021508 90782.900000 0 0 1
-30.447784 27.131202 -5.167727 41.108090 -0.727861 1.696841 0.098487 -0.022055 397778.000000 0 0 1
-30.655354 27.524302 -3.858827 41.379082 -0.731633 1.664188 0.089107 -0.023435 224962.000000 0 0 1
-29.842884 26.577702 -2.920527 40.068709 -0.727590 1.643749 0.086354 -0.023349 411177.000000 0 0 1
-30.356824 25.218402 -2.871627 39.569569 -0.693201 1.643432 0.078376 -0.020054 535965.000000 0 0 1
-29.498584 24.463802 -1.981727 38.374096 -0.692366 1.622462 0.044694 -0.013017 646395.000000 0 0 1
-30.130444 23.144602 -1.534427 38.024606 -0.655014 1.611161 0.053092 -0.020179 -31777.800000 0 0 1
-30.335224 22.194202 -2.599027 37.677093 -0.631641 1.639833 0.045178 -0.015051 64096.400000 0 0 1
-31.415434 21.359502 -2.236927 38.054719 -0.597112 1.629612 0.063458 -0.014019 -246730.000000 0 0 1
-31.657904 20.462802 -3.476527 37.855453 -0.573821 1.662763 0.069522 -0.012711 -1751.930000 0 0 1
-30.677504 19.444702 -3.664527 36.505265 -0.564933 1.671349 0.050645 -0.015125 171304.000000 0 0 1
-30.965554 18.672902 -4.833927 36.481634 -0.542638 1.703690 0.058881 -0.007389 -94404.700000 0 0 1
-29.998734 17.544902 -5.291627 35.153220 -0.529209 1.721901 0.061669 -0.005461 16133.500000 0 0 1
-30.172904 16.410202 -4.496627 34.639840 -0.498126 1.700975 0.063478 -0.017174 220007.000000 0 0 1
-29.284224 15.413602 -4.922827 33.457123 -0.484501 1.718471 0.067561 -0.016473 -268980.000000 0 0 1
-29.088204 14.307202 -3.838327 32.642800 -0.457111 1.688655 0.066774 -0.019882 249202.000000 0 0 1
-30.242054 13.519702 -3.549427 33.316101 -0.420398 1.677537 0.082015 -0.017932 624348.000000 0 0 1
-29.878014 12.309802 -2.939027 32.447878 -0.390810 1.661498 0.075967 -0.019244 -152151.000000 0 0 1
-31.083154 11.412602 -2.611727 33.214922 -0.351883 1.649509 0.101962 -0.014834 -434510.000000 0 0 1
-31.824624 11.039302 -3.773427 33.895599 -0.333892 1.682353 0.095366 -0.011954 601496.000000 0 0 1
-33.011554 10.451102 -3.250627 34.778654 -0.306606 1.664399 0.097031 -0.010448 366536.000000 0 0 1
-34.147733 10.094002 -4.239127 35.859820 -0.287413 1.689287 0.077313 -0.012851 317813.000000 0 0 1
-33.711834 8.948302 -5.023327 35.239093 -0.259452 1.713833 0.070329 -0.016006 952362.000000 0 0 1
-34.654149 8.576802 -6.039927 36.207075 -0.242622 1.738396 0.071520 -0.011535 -69579.300000 0 0 1
-33.956214 7.814102 -7.086227 35.556986 -0.226185 1.771432 0.075024 -0.018120 -575620.000000 0 0 1
-33.643454 6.455502 -6.797127 34.925011 -0.189576 1.766667 0.063080 -0.013108 284057.000000 0 0 1
-33.130274 5.717302 -7.854527 34.525297 -0.170887 1.800307 0.071997 -0.015956 -368833.000000 0 0 1
-32.209164 4.586402 -7.353627 33.354777 -0.141443 1.793090 0.086628 -0.022912 -559.258000 0 0 1
-30.889944 4.937502 -6.976727 32.050620 -0.158501 1.790232 0.088651 -0.022820 239709.000000 0 0 1
-30.202014 3.797702 -6.523927 31.131106 -0.125087 1.781924 0.084592 -0.024659 441175.000000 0 0 1
-28.687564 4.095402 -6.215727 29.637542 -0.141801 1.782090 0.133263 -0.018795 748175.000000 0 0 1
-27.941464 4.405802 -7.380827 29.233766 -0.156392 1.826035 0.134279 -0.015468 17281.000000 0 0 1
-26.571874 4.417502 -7.040427 27.841451 -0.164741 1.826448 0.160485 -0.027045 -258528.000000 0 0 1
-25.608294 4.927402 -8.099527 27.306892 -0.190091 1.871938 0.158073 -0.024609 -400574.000000 0 0 1
-25.690294 4.123002 -9.239127 27.610719 -0.159132 1.911999 0.140464 -0.037273 -201937.000000 0 0 1
-24.798934 4.583702 -10.164527 27.190348 -0.182772 1.953930 0.135289 -0.034510 -781925.000000 0 0 1
-24.876734 3.770202 -11.448927 27.643159 -0.150411 1.997825 0.116234 -0.042574 167265.000000 0 0 1
-26.069624 4.019002 -12.181327 29.054473 -0.152960 2.003424 0.101233 -0.014928 447546.000000 0 0 1
-26.317364 3.237602 -13.305727 29.666953 -0.122406 2.035886 0.096911 -0.024120 -171434.000000 0 0 1
-27.177904 4.002002 -14.290527 30.965685 -0.146201 2.050477 0.084892 -0.013232 -295031.000000 0 0 1
-26.413804 5.013302 -14.976527 30.775292 -0.187568 2.079037 0.073117 -0.006045 699195.000000 0 0 1
-27.163114 5.906802 -15.806627 31.977719 -0.214123 2.087827 0.114028 -0.020990 -110995.000000 0 0 1
-27.807644 5.335202 -17.098227 33.076862 -0.189557 2.114050 0.066862 -0.011558 -388515.000000 0 0 1
-29.030114 4.756702 -16.747527 33.850456 -0.162411 2.088344 0.067695 -0.025174 -755281.000000 0 0 1
-29.650964 4.187802 -17.843127 34.858206 -0.140309 2.108165 0.068765 -0.016900 1118220.000000 0 0 1
-31.109294 3.600802 -17.568927 35.908511 -0.115234 2.082048 0.063356 -0.018975 1159970.000000 0 0 1
-31.165334 2.493702 -16.671827 35.432279 -0.079845 2.060684 0.072329 -0.027294 161698.000000 0 0 1
-31.111984 1.249702 -17.297327 35.619023 -0.040146 2.077869 0.086980 -0.028545 -147794.000000 0 0 1
-30.993664 0.098202 -16.324727 35.030181 -0.003168 2.055582 0.086442 -0.025460 -507049.000000 0 0 1
-30.660714 -1.158498 -16.859127 35.009308 0.037766 2.073232 0.100249 -0.016784 302759.000000 0 0 1
-30.740704 -2.206498 -15.907527 34.682977 0.071655 2.047278 0.101900 -0.023324 -189450.000000 0 0 1
-30.743264 -3.559198 -16.622827 35.130251 0.115259 2.063690 0.104732 -0.018336 -674819.000000 0 0 1
-31.819324 -3.787198 -17.445827 36.485190 0.118465 2.069357 0.103952 -0.019564 -491233.000000 0 0 1
-31.662014 -4.991398 -18.144027 36.832091 0.156359 2.085888 0.096350 -0.013617 -106670.000000 0 0 1
-32.553094 -5.033598 -19.375227 38.215709 0.153412 2.102493 0.096260 -0.003792 -167702.000000 0 0 1
-32.278574 -6.149298 -20.150127 38.545399 0.188251 2.120886 0.099955 -0.005107 179525.000000 0 0 1
-33.158514 -6.192698 -21.264627 39.875066 0.184633 2.133271 0.092323 -0.004830 -178209.000000 0 0 1
-33.092614 -7.394798 -22.264327 40.564817 0.219846 2.151794 0.093384 -0.004651 29319.400000 0 0 1
-31.895484 -7.366498 -23.025027 40.021732 0.226978 2.183783 0.088628 -0.009646 175227.000000 0 0 1
-31.783854 -8.398798 -24.004127 40.705667 0.258342 2.201484 0.073307 0.003330 -988394.000000 0 0 1
-30.454464 -8.345598 -24.693527 40.086078 0.267469 2.234467 0.073442 0.005195 -1084860.000000 0 0 1
-30.216074 -7.139298 -25.403187 40.116114 0.232020 2.256531 0.074679 0.002968 160426.000000 0 0 1
-30.123434 -7.180598 -26.811577 40.961481 0.234006 2.284391 0.055297 0.002422 377535.000000 0 0 1
-31.535004 -7.125398 -27.494557 42.440293 0.222220 2.275543 0.053767 0.002790 396364.000000 0 0 1
-32.202374 -8.363498 -27.350667 43.069711 0.254103 2.258847 0.050357 0.001254 109015.000000 0 0 1
-33.540114 -8.209398 -27.828587 44.348210 0.240044 2.249137 0.049377 0.004645 502665.000000 0 0 1
-34.502086 -9.309798 -27.442957 45.057543 0.263556 2.225677 0.055688 0.001116 -311128.000000 0 0 1
-33.954964 -10.539798 -28.005097 45.258285 0.300975 2.237990 0.047709 0.002821 316611.000000 0 0 1
-34.651371 -11.744998 -27.718417 45.901777 0.326795 2.219136 0.040731 0.004834 -326295.000000 0 0 1
-35.951226 -11.963298 -28.513847 47.419939 0.321239 2.215930 0.034969 0.000665 -342997.000000 0 0 1
35.873238 -11.132598 -28.070267 46.890978 -0.300908 2.212584 0.026886 -0.003310 -802225.000000 0 0 1
35.023628 -10.757398 -29.098807 46.787998 -0.298001 2.242000 0.032285 -0.013361 -160084.000000 0 0 1
34.005078 -9.697798 -28.608547 45.484520 -0.277812 2.251028 0.040732 -0.009854 144310.000000 0 0 1
32.837638 -10.123998 -27.945417 44.291671 -0.299058 2.253561 0.031115 -0.008852 56085.000000 0 0 1
31.984488 -9.025398 -27.658207 43.237041 -0.275030 2.264888 0.022683 -0.007492 106526.000000 0 0 1
30.786078 -9.417798 -26.775767 41.873849 -0.296871 2.264565 0.013194 -0.002810 -167122.000000 0 0 1
31.181348 -9.623098 -25.442457 41.378728 -0.299344 2.233015 -0.000302 0.011204 519678.000000 0 0 1
30.065618 -9.943298 -24.587227 40.091674 -0.319397 2.230997 -0.013975 0.011505 461872.000000 0 0 1
30.410608 -10.242398 -23.116627 39.548581 -0.324870 2.195075 -0.028947 0.010861 -335941.000000 0 0 1
31.163608 -11.379098 -22.874827 40.297792 -0.350099 2.174438 -0.036202 0.010351 -110021.000000 0 0 1
31.302958 -11.422098 -21.486927 39.648803 -0.349877 2.143530 -0.030012 0.012522 385913.000000 0 0 1
32.261668 -12.499698 -20.793927 40.366386 -0.369639 2.111955 -0.020344 0.009564 481879.000000 0 0 1
33.626448 -12.288498 -21.110627 41.562047 -0.350364 2.103577 -0.007459 0.010286 257763.000000 0 0 1
34.378428 -13.262598 -20.408727 42.122310 -0.368190 2.076601 0.015893 0.006119 917702.000000 0 0 1
35.871368 -13.559798 -20.865927 43.657875 -0.361408 2.069106 0.038673 -0.005376 580723.000000 0 0 1
-35.998988 -12.585698 -20.755227 43.417812 0.336330 2.069212 0.045199 -0.005797 111911.000000 0 0 1
-36.162564 -11.525798 -21.649427 43.695226 0.308543 2.089166 0.046027 0.009711 -974032.000000 0 0 1
-35.608540 -11.644498 -23.087127 44.006566 0.316053 2.123076 0.041753 0.007859 183844.000000 0 0 1
-36.360264 -12.508298 -23.960327 45.305889 0.331329 2.128049 0.039964 0.007120 529471.000000 0 0 1
35.210298 -12.038898 -24.320527 44.454338 -0.329453 2.149680 0.043858 0.003209 -150968.000000 0 0 1
34.519298 -13.057298 -25.273107 44.730358 -0.361626 2.171242 0.047610 -0.012807 -114836.000000 0 0 1
34.372248 -14.356298 -24.723827 44.708191 -0.395647 2.156762 0.054403 -0.019970 292922.000000 0 0 1
33.412058 -14.513598 -23.700927 43.459684 -0.409790 2.147608 0.042257 -0.014339 -481211.000000 0 0 1
-29.722794 8.384902 -19.117827 36.321376 -0.274958 2.125101 0.045219 -0.007008 289371.000000 0 0 1
-28.410024 7.855802 -19.201527 35.178711 -0.269774 2.148173 0.051462 -0.005674 219037.000000 0 0 1
-27.742254 8.368202 -20.345027 35.405926 -0.292962 2.182939 0.074186 -0.023785 224132.000000 0 0 1
-26.510494 7.503302 -20.710527 34.467836 -0.275817 2.215380 0.083065 -0.017477 -61232.400000 0 0 1
-25.309474 7.795802 -20.030627 33.204970 -0.298797 2.218356 0.086895 -0.018238 -619378.000000 0 0 1
-24.408834 6.799502 -20.325727 32.483220 -0.271680 2.246863 0.097672 -0.016239 193005.000000 0 0 1
-22.953734 7.251502 -19.931427 31.252519 -0.305996 2.262375 0.080872 -0.021408 585322.000000 0 0 1
-22.313634 8.255502 -20.631727 31.491582 -0.354359 2.285178 0.074232 -0.023948 -265390.000000 0 0 1
-21.121634 8.678002 -20.004627 30.358133 -0.389832 2.290224 0.057970 -0.015285 209127.000000 0 0 1
-20.308534 9.720002 -20.876727 30.704278 -0.446395 2.318462 0.057906 -0.011888 201093.000000 0 0 1
-19.736734 9.148202 -22.065427 30.985663 -0.434033 2.363306 0.063822 -0.016225 -39753.000000 0 0 1
-19.112934 10.108602 -22.848427 31.456934 -0.486490 2.383778 0.060889 -0.012038 -345425.000000 0 0 1
-18.324334 9.524602 -24.010727 31.670401 -0.479345 2.431259 0.074407 -0.013988 -106461.000000 0 0 1
-19.075034 8.734902 -24.938727 32.589807 -0.429423 2.442196 0.067961 -0.014449 -298782.000000 0 0 1
-18.227334 8.050402 -25.813197 32.609290 -0.415902 2.484203 0.056065 -0.009205 -651992.000000 0 0 1
-18.939134 6.924102 -26.597307 33.377398 -0.350502 2.492886 0.034035 -0.004279 5859.030000 0 0 1
-19.366334 5.814802 -25.843427 32.813862 -0.291689 2.477663 0.051191 -0.005283 159907.000000 0 0 1
-20.045734 4.817702 -26.556887 33.620083 -0.235862 2.481461 0.035920 -0.004357 -795498.000000 0 0 1
-20.287934 3.528902 -25.758167 32.977820 -0.172218 2.467183 0.047666 -0.000241 625085.000000 0 0 1
-19.192834 2.590502 -25.541137 32.053475 -0.134162 2.492825 0.046428 0.000433 1003510.000000 0 0 1
-18.136334 3.062102 -24.710627 30.804515 -0.167261 2.501726 0.043424 -0.006649 -330366.000000 0 0 1
-17.173834 1.910002 -24.356827 29.863752 -0.110761 2.524559 0.042611 -0.007911 -174965.000000 0 0 1
-17.569734 0.949402 -23.350527 29.237716 -0.053984 2.495835 0.038443 -0.005415 389938.000000 0 0 1
-18.864634 0.360602 -23.438527 30.089350 -0.019113 2.463809 0.031265 -0.005538 285507.000000 0 0 1
-19.259934 -0.426198 -22.182327 29.379965 0.022125 2.426474 0.052994 -0.009492 183177.000000 0 0 1
-18.382334 -1.517998 -21.955327 28.674918 0.082392 2.442868 0.047856 -0.010981 404522.000000 0 0 1
-18.897634 -2.154698 -20.830827 28.207918 0.113529 2.401601 0.057553 -0.011009 -7432.530000 0 0 1
-18.386234 -3.622398 -20.616027 27.860293 0.194526 2.403835 0.039736 -0.024330 -63518.900000 0 0 1
-19.007134 -4.459198 -21.550327 29.078724 0.230439 2.405508 0.046667 -0.030453 209329.000000 0 0 1
-19.062034 -5.842898 -21.203027 29.104449 0.297428 2.386948 0.049137 -0.025270 -466957.000000 0 0 1
-19.010734 -6.777598 -22.406127 30.155901 0.342466 2.408352 0.031336 -0.028256 -1312870.000000 0 0 1
-17.860334 -6.519598 -23.086327 29.907778 0.350003 2.452648 0.025473 -0.020451 -984671.000000 0 0 1
-17.878434 -7.332098 -24.244127 31.002835 0.389190 2.468660 0.040412 -0.027487 373017.000000 0 0 1
-16.464334 -7.622098 -24.835227 30.756449 0.433568 2.510664 0.042168 -0.037796 -256121.000000 0 0 1
-16.420534 -8.409698 -26.019267 31.896069 0.473317 2.524824 0.049030 -0.054133 -249296.000000 0 0 1
-15.177834 -8.614298 -26.637147 31.845100 0.516223 2.561588 0.058081 -0.053814 -54417.000000 0 0 1
-14.116834 -9.495998 -25.909007 30.995736 0.592149 2.560547 0.049145 -0.045768 -378758.000000 0 0 1
-13.476034 -8.790498 -24.873327 29.623618 0.577995 2.567426 0.053412 -0.042970 -90822.900000 0 0 1
-12.529134 -9.685298 -24.304327 29.008353 0.658073 2.564109 0.034261 -0.030185 226050.000000 0 0 1
-11.729334 -9.131398 -23.102027 27.471137 0.661499 2.569845 0.065143 -0.037807 563513.000000 0 0 1
-12.596234 -8.745398 -22.033127 26.844102 0.606881 2.533573 0.061375 -0.025984 310072.000000 0 0 1
-11.807234 -7.997598 -21.162627 25.519192 0.595361 2.548619 0.066363 -0.021371 -1131000.000000 0 0 1
-12.297534 -7.842698 -19.724727 24.531656 0.567712 2.504876 0.049256 -0.015265 972241.000000 0 1 0
-13.427034 -6.938598 -19.509627 24.679038 0.476968 2.482477 0.040946 -0.012660 1785740.000000 0 1 0
-14.679634 -7.375798 -20.078527 25.943040 0.465607 2.455846 0.032065 -0.017262 142247.000000 0 0 1
-15.829734 -6.370298 -19.811027 26.146472 0.382596 2.430569 0.032435 -0.007754 -313635.000000 0 0 1
-16.076734 -5.989498 -18.438427 25.185533 0.356627 2.392202 0.044040 -0.011160 -78599.400000 0 0 1
-15.257734 -4.966098 -17.994427 24.109334 0.314667 2.413384 0.043265 -0.013190 -869029.000000 0 1 0
-15.255134 -4.724198 -16.483427 22.950829 0.300313 2.372017 0.060357 -0.001197 -151052.000000 0 1 0
-16.458034 -4.285998 -15.896427 23.279456 0.254761 2.322456 0.078225 -0.009686 19263.800000 0 1 0
-16.577134 -2.876098 -15.988427 23.209979 0.171788 2.330712 0.031127 -0.013547 216993.000000 0 1 0
-17.642534 -2.357198 -14.968727 23.256788 0.132822 2.270026 0.025244 -0.017661 -9468.570000 0 1 0
-17.391334 -2.599498 -13.622827 22.244040 0.148372 2.229922 0.047555 -0.022503 398985.000000 0 1 0
-18.342534 -1.914498 -12.833727 22.468164 0.103998 2.178759 0.049480 -0.023894 -21949.700000 0 1 0
-17.725034 -0.684598 -12.147627 21.499078 0.038604 2.171266 0.033870 -0.019914 -73369.400000 0 1 0
-17.475934 0.386902 -13.033427 21.804316 -0.022135 2.211482 0.053527 -0.020209 546242.000000 0 1 0
-16.670634 1.409002 -12.485427 20.875373 -0.084320 2.211917 0.052260 -0.013578 -795249.000000 0 1 0
-16.257334 2.450902 -13.557127 21.309705 -0.149630 2.260353 0.058430 -0.012327 260854.000000 0 1 0
-15.463934 1.891002 -14.589027 21.343590 -0.121681 2.323387 0.051177 -0.018360 -58257.700000 0 1 0
-14.154234 1.501202 -14.295527 20.173201 -0.105665 2.358364 0.042075 -0.010800 -1059230.000000 0 1 0
-13.567434 0.411902 -15.216827 20.391095 -0.030350 2.413205 0.039457 -0.016211 -105202.000000 0 1 0
-13.124634 0.882202 -16.474227 21.081614 -0.067116 2.467783 0.036589 -0.018640 396217.000000 0 1 0
-12.608934 -0.204298 -17.278627 21.391071 0.016201 2.511121 0.015958 -0.013065 -11978.900000 0 1 0
-11.940834 0.267702 -18.604427 22.108367 -0.022415 2.570870 0.025533 -0.015066 633277.000000 0 1 0
-10.760334 1.039302 -18.314627 21.267123 -0.096288 2.608365 0.011251 -0.011147 134113.000000 0 1 0
-10.506634 1.960002 -19.344927 22.101067 -0.184429 2.636839 0.017190 -0.010350 636072.000000 0 1 0
-9.119234 2.683502 -19.249427 21.468630 -0.286190 2.682896 0.007062 -0.008750 87652.400000 0 1 0
-8.050734 1.807502 -19.501427 21.175152 -0.220852 2.741329 0.005152 -0.003296 598089.000000 0 1 0
-6.727934 2.335002 -19.283827 20.556832 -0.334054 2.787824 0.010222 -0.001200 1181970.000000 0 1 0
-6.231834 3.368902 -20.345727 21.543766 -0.495594 2.806532 0.008897 0.000839 -859908.000000 0 1 0
-6.194434 2.960102 -21.711427 22.771019 -0.445783 2.835332 0.007541 0.004885 278975.000000 0 1 0
-6.016034 4.031902 -22.636527 23.766810 -0.590440 2.831951 0.004965 0.007395 -777359.000000 0 1 0
-5.436334 3.416902 -23.937627 24.783844 -0.561134 2.879524 0.023111 -0.006686 62860.100000 0 1 0
-4.099834 2.961502 -23.861227 24.391337 -0.625567 2.932726 0.029368 -0.011329 -207007.000000 0 1 0
-3.817334 2.203902 -24.968227 25.354321 -0.523592 2.966854 0.045477 -0.015717 -594691.000000 0 0 1
-2.409634 1.667502 -24.760427 24.933224 -0.605347 3.023793 0.033082 -0.018660 -1233600.000000 0 1 0
-1.403234 2.642802 -24.718927 24.899374 -1.082685 3.021128 0.031335 -0.018397 160935.000000 0 1 0
-0.086834 2.108002 -24.765727 24.855431 -1.529627 3.056608 0.036951 -0.021225 588541.000000 0 1 0
0.522866 1.199802 -23.619827 23.656060 1.159819 3.086239 0.038533 -0.028101 -916848.000000 0 1 0
0.050666 -0.110298 -23.479627 23.479941 -1.140188 3.136423 0.031700 -0.030518 -401712.000000 0 1 0
0.805766 -0.950698 -22.645127 22.679393 -0.867725 3.086615 0.033631 -0.022832 -856493.000000 0 1 0
0.312166 -2.417498 -22.612627 22.743629 -1.442379 3.034210 0.039093 -0.029645 39667.500000 0 1 0
-0.903334 -2.711098 -21.946727 22.131988 1.249167 3.012113 0.030629 -0.023712 822831.000000 0 1 0
-2.126034 -2.544098 -22.689527 22.930484 0.874679 2.996495 0.038915 -0.025820 851334.000000 0 1 0
-2.830834 -1.131098 -22.664627 22.868720 0.380130 3.007893 0.042027 -0.027596 -1419470.000000 0 1 0
-3.360234 -0.771098 -21.367227 21.643571 0.225572 2.981623 0.028839 -0.025102 735475.000000 0 1 0
-4.407534 0.198102 -21.509727 21.957549 -0.044916 2.939283 0.022416 -0.019957 772432.000000 0 1 0
-5.719634 -0.203598 -22.227227 22.952240 0.035581 2.889578 0.027883 -0.012917 -1041830.000000 0 1 0
-6.393234 -1.234298 -21.579427 22.540377 0.190717 2.848544 0.029628 -0.009615 175228.000000 0 1 0
-7.790234 -1.122898 -21.831727 23.207175 0.143156 2.795578 0.020318 -0.005096 59182.800000 0 1 0
-8.475634 -2.396798 -21.507727 23.241414 0.275591 2.752900 0.024725 -0.012907 -505554.000000 0 1 0
-8.777934 -3.226998 -22.575427 24.435948 0.352290 2.748846 0.058273 -0.018182 157607.000000 0 1 0
-9.299134 -4.482398 -22.132827 24.421872 0.449163 2.705173 0.052322 -0.021717 -62997.700000 0 1 0
-9.917634 -5.314698 -23.297527 25.872384 0.491941 2.691665 0.047359 -0.027723 450356.000000 0 0 1
-11.328734 -5.135898 -23.337227 26.445110 0.425638 2.651901 0.049479 -0.030311 -158935.000000 0 0 1
-11.996134 -5.600198 -24.441927 27.797073 0.436764 2.645184 0.043119 -0.047181 -1042500.000000 0 0 1
-13.472634 -5.417398 -24.175627 28.201437 0.382319 2.600697 0.057361 -0.051032 -1060180.000000 0 0 1
-13.948334 -4.087598 -24.231227 28.256271 0.285071 2.601288 0.050712 -0.052089 -602360.000000 0 0 1
-15.338134 -4.075498 -24.078527 28.838230 0.259709 2.558841 0.038602 -0.045085 -73625.400000 0 0 1
-15.911534 -2.648798 -24.469427 29.307779 0.164958 2.558770 0.034526 -0.037959 -33219.900000 0 0 1
-15.697834 -2.405398 -25.820197 30.313207 0.152049 2.590171 0.040350 -0.038532 157854.000000 0 0 1
-16.275934 -1.219198 -26.301737 30.954383 0.074768 2.586200 0.031919 -0.027397 1038330.000000 0 0 1
-17.806134 -1.172398 -26.746647 32.153010 0.065747 2.553238 0.042466 -0.020942 1139180.000000 0 0 1
-18.073634 -1.871998 -27.903097 33.297800 0.103208 2.564379 0.047723 -0.031146 -183808.000000 0 0 1
-17.686234 -1.199598 -29.084177 34.060700 0.067723 2.594216 0.037705 -0.032093 -360277.000000 0 0 1
-17.990634 -2.005398 -30.340377 35.330200 0.111011 2.603653 0.035079 -0.027027 228305.000000 0 0 1
-19.328234 -2.000098 -30.804807 36.421383 0.103114 2.578839 0.042790 -0.030920 187943.000000 0 0 1
-19.314634 -2.674798 -32.025987 37.494980 0.137610 2.594693 0.049724 -0.036522 238081.000000 0 0 1
-20.686334 -3.332098 -32.426447 38.607017 0.159705 2.567915 0.034864 -0.030169 1533940.000000 0 0 1
-21.859534 -2.544698 -32.722387 39.434367 0.115890 2.549534 0.037830 -0.029175 1148130.000000 0 0 1
-22.371134 -1.731398 -31.673017 38.815530 0.077240 2.525233 0.032195 -0.017420 -100848.000000 0 0 1
-23.601034 -0.885998 -32.132107 39.878141 0.037523 2.507750 0.035470 -0.012107 369844.000000 0 0 1
-23.118434 0.270902 -32.753377 40.091384 -0.011717 2.526930 0.041518 -0.018493 553341.000000 0 0 1
-24.162434 1.172002 -33.056627 40.962634 -0.048467 2.509842 0.041373 -0.020965 111252.000000 0 0 1
-23.557434 2.490002 -33.622987 41.129771 -0.105308 2.527828 0.042194 -0.024029 -357968.000000 0 0 1
-22.813534 3.328202 -32.761887 40.060898 -0.144865 2.528378 0.033819 -0.021131 599969.000000 0 0 1
-23.529834 4.121302 -31.785847 39.761518 -0.173393 2.497113 0.027790 -0.018825 -18926.300000 0 0 1
-24.726534 5.031802 -32.220727 40.925490 -0.200757 2.477217 0.020976 -0.020007 -474389.000000 0 0 1
-25.850524 4.300702 -32.559337 41.795407 -0.164858 2.463893 0.044563 -0.027321 -716158.000000 0 0 1
-26.574534 4.969702 -33.551367 43.088259 -0.184874 2.463333 0.054819 -0.034422 977743.000000 0 0 1
-28.000234 4.341202 -33.896237 44.179339 -0.153817 2.445326 0.059594 -0.031152 992625.000000 0 0 1
-27.895884 3.152002 33.711418 43.869980 -0.112514 0.694398 0.070434 -0.032438 -251091.000000 0 0 1
-29.084794 2.791802 33.084442 44.139547 -0.095695 0.723427 0.069084 -0.032247 -625392.000000 0 0 1
-29.313514 1.317202 32.705763 43.939549 -0.044905 0.731257 0.066243 -0.013421 -208538.000000 0 0 1
-29.679904 0.623802 33.850715 45.023957 -0.021015 0.719951 0.057633 -0.006213 192766.000000 0 0 1
-29.703664 -0.760898 33.678797 44.912670 0.025611 0.722926 0.046439 0.003820 -552435.000000 0 0 1
-29.475514 -1.620698 -33.375447 44.557301 0.054929 2.417417 0.013609 0.011932 982458.000000 0 0 1
-28.150674 -1.714398 -32.799627 43.257544 0.060826 2.431407 0.029549 -0.000057 1178530.000000 0 0 1
-27.606224 -0.503898 -32.292857 42.487482 0.018251 2.434195 0.036275 0.000939 -463558.000000 0 0 1
-27.656474 -0.262498 -30.790107 41.388164 0.009491 2.409736 0.047737 -0.001574 -369299.000000 0 0 1
-26.870884 -1.216898 -30.133827 40.392732 0.045256 2.412863 0.040305 -0.007513 232256.000000 0 0 1
-26.803794 -0.891798 -28.739487 39.308991 0.033259 2.390755 0.049050 -0.009635 89955.700000 0 0 1
-25.641464 -1.601898 -27.973637 37.981247 0.062392 2.398695 0.047539 -0.007371 210861.000000 0 0 1
-25.851754 -2.905298 -27.500327 37.855276 0.111913 2.383952 0.031417 -0.002271 975712.000000 0 0 1
-24.759234 -3.244198 -26.592707 36.478988 0.130288 2.387637 0.050509 -0.006591 902122.000000 0 0 1
-24.940134 -4.616498 -25.946807 36.284420 0.183032 2.367556 0.053408 -0.014626 496326.000000 0 0 1
-25.952374 -4.538798 -24.931627 36.272751 0.173138 2.328614 0.064455 -0.005819 371384.000000 0 0 1
-26.348244 -5.785298 -24.403627 36.376320 0.216141 2.306172 0.070374 -0.012306 -599776.000000 0 0 1
-27.319534 -5.584698 -23.307327 36.342500 0.201643 2.267019 0.085103 -0.014890 -850421.000000 0 0 1
-27.705864 -6.726298 -22.637427 36.404822 0.238167 2.241867 0.101532 -0.021343 99348.200000 0 0 1
-28.704764 -6.353298 -21.689927 36.534652 0.217821 2.206422 0.103772 -0.017052 560.405000 0 0 1
-29.276204 -7.486098 -20.885127 36.733177 0.250342 2.175554 0.111408 -0.023734 -279377.000000 0 0 1
-28.318484 -8.202598 -20.103627 35.684380 0.281939 2.169259 0.117027 -0.031320 205012.000000 0 0 1
-28.856784 -9.136598 -19.218127 35.854258 0.306633 2.136496 0.117061 -0.027131 -137462.000000 0 0 1
-29.608184 -8.569698 -17.979927 35.684199 0.281738 2.098861 0.115666 -0.033376 170154.000000 0 0 1
-28.765594 -7.866098 -17.099627 34.376331 0.266929 2.091424 0.113830 -0.036535 109326.000000 0 0 1
-29.511444 -7.179298 -16.134027 34.391488 0.238636 2.059100 0.109552 -0.034840 228184.000000 0 0 1
-28.622584 -6.521198 -14.982827 32.958511 0.224010 2.042716 0.105099 -0.027798 416975.000000 0 0 1
-27.753644 -5.518498 -15.432727 32.231780 0.196279 2.070089 0.107404 -0.021583 566256.000000 0 0 1
-26.904874 -4.924898 -14.441827 30.930458 0.181044 2.056593 0.107799 -0.032995 180657.000000 0 0 1
-14.170434 20.921702 -4.813527 25.723313 -0.975463 1.759033 0.079877 -0.022166 -37725.100000 0 0 1
-14.230934 20.582502 -6.165627 25.771570 -0.965859 1.812381 0.103335 -0.026862 435027.000000 0 0 1
-15.089734 19.440002 -6.347427 25.414633 -0.910724 1.823223 0.072394 -0.034747 253839.000000 0 0 1
-15.220234 18.895002 -7.763127 25.474355 -0.892701 1.880465 0.091630 -0.039078 -96334.800000 0 0 1
-14.055434 18.199502 -8.204127 24.414848 -0.913177 1.913495 0.087682 -0.037637 218349.000000 0 1 0
-14.274734 17.129102 -9.097327 24.081850 -0.876041 1.958180 0.070457 -0.041841 -439003.000000 0 1 0
-14.865334 15.853202 -8.480827 23.328664 -0.817546 1.942858 0.067572 -0.044171 1005870.000000 0 1 0
-16.243834 16.111402 -8.109927 24.273655 -0.781305 1.911451 0.074750 -0.027634 923551.000000 0 1 0
-16.596634 15.147702 -7.174627 23.587632 -0.739786 1.879862 0.084714 -0.017652 -1121340.000000 0 1 0
-18.011534 15.283502 -6.680927 24.548637 -0.703646 1.846424 0.095356 -0.028113 -1448240.000000 0 1 0
-18.917734 14.875302 -7.615327 25.241800 -0.666341 1.877266 0.091755 -0.028109 89948.600000 0 0 1
-20.272634 15.199102 -7.269227 26.359705 -0.643331 1.850187 0.087935 -0.033542 1212500.000000 0 0 1
-21.358534 14.574502 -8.216327 27.131367 -0.598798 1.878462 0.093076 -0.020575 150090.000000 0 0 1
-21.506934 13.201502 -8.016727 26.478213 -0.550523 1.878391 0.110190 -0.028046 631674.000000 0 0 1
-22.369434 12.614502 -9.027927 27.221695 -0.513465 1.908843 0.122293 -0.024723 427088.000000 0 0 1
-22.743534 11.161702 -8.662427 26.774793 -0.456231 1.900253 0.109497 -0.020734 698766.000000 0 0 1
-21.633934 10.215002 -8.622027 25.430547 -0.441141 1.916695 0.111816 -0.027451 1096160.000000 0 0 1
-21.749434 9.366202 -7.455227 24.826277 -0.406639 1.875799 0.121327 -0.026804 989008.000000 0 1 0
-20.511634 8.361302 -7.254627 23.308112 -0.387073 1.887303 0.075716 -0.017694 887008.000000 0 1 0
-20.751934 7.206402 -7.983427 23.373277 -0.334235 1.919375 0.093626 -0.017868 -112487.000000 0 1 0
-19.621734 6.422302 -7.969527 22.130787 -0.316316 1.939183 0.065075 -0.005761 -811512.000000 0 1 0
-19.703934 5.257402 -9.031127 22.303509 -0.260745 1.987687 0.067662 -0.007331 -396783.000000 0 1 0
-20.379034 4.052402 -8.691727 22.522724 -0.196291 1.966990 0.071552 -0.012762 507755.000000 0 1 0
-20.492934 3.169602 -9.813727 22.941577 -0.153452 2.012821 0.080708 -0.009034 -514846.000000 0 1 0
-21.243434 1.874202 -9.565027 23.372759 -0.087997 1.992415 0.081517 -0.013896 -158808.000000 0 1 0
-20.681134 0.928702 -8.646427 22.435073 -0.044876 1.966435 0.060487 -0.015427 560530.000000 0 1 0
-21.602934 -0.139298 -8.372127 23.168916 0.006448 1.940513 0.071246 -0.016575 508017.000000 0 1 0
-21.704134 -1.227298 -9.448427 23.703343 0.056487 1.980799 0.071658 -0.031804 -235777.000000 0 1 0
-20.478334 -1.902098 -9.431727 22.626038 0.092618 2.000777 0.044973 -0.013131 224193.000000 0 1 0
-20.574134 -3.292798 -9.719727 22.991533 0.158700 2.007277 0.044920 -0.012396 274356.000000 0 1 0
-21.541134 -4.240898 -8.861827 23.675676 0.194388 1.954439 0.055407 -0.015850 615423.000000 0 1 0
-21.123134 -4.367698 -7.497927 22.835991 0.203900 1.905340 0.042797 -0.011615 915802.000000 0 1 0
-22.097934 -5.006998 -6.631227 23.608513 0.222820 1.855510 0.062507 -0.014377 55286.800000 0 1 0
-22.252334 -6.564498 -6.828727 24.184510 0.286866 1.857049 0.077285 -0.023602 -237236.000000 0 1 0
-21.167834 -7.317498 -6.337527 23.276323 0.332830 1.846551 0.064110 -0.026250 541274.000000 0 1 0
-21.447734 -8.694498 -6.441327 24.022703 0.385136 1.842253 0.071007 -0.025149 -365966.000000 0 1 0
-20.401134 -9.660098 -5.844727 23.317045 0.442230 1.824162 0.067420 -0.021039 152091.000000 0 1 0
-19.208834 -9.823198 -6.622027 22.568247 0.472718 1.868601 0.059990 -0.013426 85786.100000 0 1 0
-18.289434 -10.335698 -5.714727 21.771269 0.514376 1.836397 0.058313 -0.017100 -303083.000000 0 1 0
-17.199834 -11.309498 -6.279127 21.521303 0.581654 1.866866 0.032835 -0.020887 1125880.000000 0 1 0
-16.083234 -10.759998 -7.045627 20.593417 0.589630 1.919979 0.035593 -0.037275 893520.000000 0 1 0
-16.413234 -10.358098 -8.342827 21.125511 0.562961 1.976774 0.039727 -0.037653 -53869.100000 0 1 0
-15.393534 -10.735698 -9.501527 21.035568 0.608990 2.039454 0.040611 -0.028112 583798.000000 0 1 0
-15.281234 -12.065298 -9.589227 21.703475 0.668336 2.028433 0.038708 -0.029997 548965.000000 0 1 0
-14.400834 -12.313498 -10.715127 21.767412 0.707421 2.085475 0.045454 -0.019488 433011.000000 0 1 0
-14.515734 -13.722198 -11.325727 22.962521 0.757304 2.086591 0.042423 -0.013382 -428600.000000 0 1 0
-15.564434 -13.848998 -12.218127 24.152205 0.727143 2.101199 0.062801 -0.006670 -553954.000000 0 1 0
-15.594434 -15.076598 -12.929927 25.252192 0.768516 2.108345 0.053825 0.001359 166886.000000 0 0 1
-16.006334 -14.951598 -14.439827 26.234741 0.751341 2.153650 0.053984 0.001778 52193.200000 0 0 1
-16.161334 -16.154998 -15.180027 27.433664 0.785202 2.157160 0.041997 0.011317 47893.100000 0 0 1
-16.472134 -15.838198 -16.510527 28.191794 0.765780 2.196478 0.045463 0.010404 -151785.000000 0 0 1
-17.016534 -17.048598 -17.289227 29.650202 0.786339 2.193344 0.045640 -0.002076 -525524.000000 0 0 1
-18.256534 -17.461898 -16.812227 30.345838 0.763155 2.157983 0.031249 0.004521 -1283670.000000 0 0 1
-19.003734 -18.080598 -17.793127 31.696140 0.760510 2.166832 0.026882 0.010460 571332.000000 0 0 1
-20.556634 -17.976098 -17.532627 32.451630 0.718528 2.141554 0.025264 -0.002568 891198.000000 0 0 1
-20.993234 -16.632798 -17.403127 31.941113 0.670024 2.147007 0.051129 -0.002515 162140.000000 0 0 1
-20.836934 -16.141998 -16.044827 30.857388 0.659111 2.117609 0.041986 -0.005802 -541442.000000 0 0 1
-21.009434 -14.625598 -15.718527 30.039583 0.608134 2.121469 0.071195 -0.016821 -299045.000000 0 0 1
-22.357034 -14.253598 -15.656427 30.791650 0.567569 2.104196 0.079666 -0.013311 -177262.000000 0 0 1
-22.539534 -12.934698 -15.254827 30.133814 0.520983 2.101611 0.096415 -0.016873 -229268.000000 0 0 1
-24.021534 -12.672698 -14.937327 30.996050 0.485448 2.073630 0.102299 -0.026610 -384261.000000 0 0 1
-24.524434 -13.311798 -13.802927 31.131537 0.497297 2.030156 0.098457 -0.020478 580152.000000 0 0 1
-25.636824 -12.684098 -13.167227 31.488235 0.459448 2.002219 0.092628 -0.020729 145408.000000 0 0 1
-25.945914 -13.040698 -11.738127 31.321460 0.465734 1.954938 0.087346 -0.016878 854780.000000 0 0 1
-27.142284 -12.331398 -11.299627 31.881790 0.426444 1.933093 0.088448 -0.023546 1301320.000000 0 0 1
-27.452794 -12.691598 -9.933927 31.834187 0.433041 1.888149 0.078468 -0.018818 124753.000000 0 0 1
-28.441124 -11.676598 -9.296227 32.119469 0.389571 1.864424 0.077965 -0.017300 47425.400000 0 0 1
-27.816764 -10.459098 -8.897727 31.021519 0.359647 1.861707 0.092754 -0.018394 -53601.200000 0 0 1
-28.653334 -9.575798 -8.183127 31.299729 0.322526 1.835314 0.098885 -0.015135 -592884.000000 0 0 1
-27.931674 -8.420498 -7.581427 30.142349 0.292803 1.825048 0.104161 -0.009311 -617999.000000 0 0 1
-27.251824 -8.803098 -6.437427 29.352971 0.312447 1.791904 0.107095 -0.011875 51604.200000 0 0 1
-26.484074 -7.745198 -5.795227 28.195370 0.284513 1.777810 0.106716 -0.014126 355869.000000 0 0 1
-27.267754 -6.585398 -5.094827 28.510614 0.236971 1.750461 0.113815 -0.018435 -57799.200000 0 0 1
-28.055524 -7.018198 -3.956827 29.189450 0.245123 1.706772 0.109884 -0.017321 596038.000000 0 0 1
-27.419324 -7.287398 -2.689827 28.498432 0.259771 1.665322 0.114607 -0.016431 -309844.000000 0 0 1
-26.942494 -6.009598 -1.964527 27.674403 0.219460 1.641843 0.119708 -0.019563 352611.000000 0 0 1
-27.974444 -5.159698 -1.431827 28.482312 0.182393 1.621088 0.119877 -0.026867 617960.000000 0 0 1
-27.406054 -4.075898 -0.646727 27.715032 0.147640 1.594133 0.126678 -0.029223 61819.200000 0 0 1
-28.342654 -2.946598 -0.153627 28.495825 0.103591 1.576188 0.134306 -0.033920 35766.600000 0 0 1
-29.215644 -3.172898 0.953573 29.402898 0.108179 1.538359 0.121667 -0.031430 241362.000000 0 0 1
-28.618804 -3.411098 2.246273 28.908775 0.118631 1.493016 0.121942 -0.026153 -252818.000000 0 0 1
-29.609264 -3.694098 3.391473 30.030933 0.124120 1.457622 0.102732 -0.027031 -257942.000000 0 0 1
-30.173034 -4.958998 3.214473 30.746324 0.162896 1.466057 0.103312 -0.029827 -22265.800000 0 0 1
-31.193074 -5.138798 4.181073 31.888814 0.163275 1.439304 0.100061 -0.035629 325669.000000 0 0 1
-31.969164 -6.504098 4.006673 32.869197 0.200710 1.448595 0.095329 -0.033834 552419.000000 0 0 1
-31.111254 -7.638898 4.307873 32.323685 0.240772 1.437126 0.084315 -0.029020 608930.000000 0 0 1
-31.800414 -8.832098 4.189173 33.268926 0.270907 1.444543 0.090449 -0.025274 -758723.000000 0 0 1
-30.916244 -10.021198 4.401273 32.796490 0.313454 1.436191 0.078843 -0.021562 -510415.000000 0 0 1
-30.834364 -10.160298 5.825173 32.983667 0.318308 1.393257 0.072849 -0.022500 -75844.400000 0 0 1
-29.858384 -11.055298 6.241073 32.445241 0.354607 1.377233 0.057890 -0.016672 -639423.000000 0 0 1
-29.929694 -11.399298 7.761673 32.954121 0.363906 1.333033 0.059837 -0.018772 -81920.700000 0 0 1
-29.523254 -10.279998 8.540373 32.407389 0.335070 1.304115 0.071557 -0.011749 473071.000000 0 0 1
-29.354224 -10.654098 9.854573 32.745883 0.348164 1.265117 0.076257 -0.014120 -318675.000000 0 0 1
-29.525644 -9.471198 10.830873 32.844711 0.310409 1.234747 0.077410 -0.016822 -662278.000000 0 0 1
-28.508134 -8.518098 10.847273 31.669149 0.290351 1.221200 0.071903 -0.015826 -158676.000000 0 0 1
-28.719014 -7.410998 11.692573 31.881356 0.252543 1.195280 0.090802 -0.021926 -395702.000000 0 0 1
-27.744724 -6.277298 11.426373 30.655116 0.222506 1.188837 0.090142 -0.016481 -446741.000000 0 0 1
-28.018464 -5.545598 10.253773 30.346792 0.195401 1.226126 0.091633 -0.025674 315239.000000 0 0 1
-27.168464 -4.416498 10.078873 29.312362 0.161150 1.219789 0.096087 -0.027954 -389651.000000 0 0 1
-27.251234 -3.658098 8.753273 28.855350 0.133438 1.262590 0.114303 -0.028092 -271467.000000 0 0 1
-26.628784 -4.356798 7.730673 28.068436 0.162175 1.291767 0.096201 -0.019589 52133.600000 0 0 1
-26.776294 -3.707098 6.505373 27.803459 0.137573 1.334630 0.102603 -0.028137 -587623.000000 0 0 1
-25.890404 -4.279998 5.432873 26.798274 0.163830 1.366649 0.094402 -0.024589 703963.000000 0 0 1
-24.531434 -3.771998 5.456573 25.412465 0.152567 1.354391 0.117556 -0.031937 1251070.000000 0 0 1
-23.773034 -4.109998 4.338673 24.512717 0.171193 1.392862 0.117479 -0.030501 1282090.000000 0 1 0
-22.274134 -3.565698 4.430773 22.988758 0.158736 1.376846 0.104381 -0.024156 1431430.000000 0 1 0
-22.241634 -2.143398 4.520673 22.797388 0.096072 1.371175 0.094586 -0.023408 720884.000000 0 1 0
-20.900334 -1.687298 4.720273 21.493066 0.080556 1.349373 0.073637 -0.021695 341798.000000 0 1 0
-20.618634 -0.205598 4.900173 21.193915 0.009971 1.337479 0.062766 -0.023582 -615989.000000 0 1 0
-20.725834 0.663802 3.793473 21.080589 -0.032017 1.389860 0.064746 -0.025068 1133080.000000 0 1 0
-22.103134 1.016202 3.544573 22.408596 -0.045943 1.411950 0.076244 -0.035057 790627.000000 0 1 0
-22.208034 2.013002 2.372073 22.424889 -0.090396 1.464820 0.098923 -0.017616 44189.400000 0 1 0
-21.616834 3.254302 2.753773 22.033185 -0.149423 1.445486 0.080750 -0.022696 196547.000000 0 1 0
-21.897734 4.260002 1.768673 22.378261 -0.192141 1.491679 0.098833 -0.013166 265357.000000 0 1 0
-20.777534 4.488702 0.706273 21.268596 -0.212766 1.537583 0.082365 -0.008356 -110130.000000 0 1 0
-21.150134 5.041302 -0.598827 21.750896 -0.233992 1.598331 0.105773 0.007069 936611.000000 0 1 0
-22.108234 4.354602 -1.450627 22.579656 -0.194478 1.635085 0.136091 -0.013694 583058.000000 0 1 0
-21.587734 3.018602 -2.072027 21.896015 -0.138929 1.665568 0.122616 -0.005622 -206380.000000 0 1 0
-21.259134 2.048902 -1.106427 21.386279 -0.096081 1.622555 0.072144 -0.003064 559587.000000 0 1 0
-20.739734 0.937502 -1.840027 20.842293 -0.045172 1.659195 0.059209 0.001455 -164315.000000 0 1 0
-19.815034 0.051902 -0.958327 19.838262 -0.002619 1.619122 0.045202 -0.000422 -193181.000000 0 1 0
-20.525334 -0.709198 0.016473 20.537589 0.034539 1.569994 0.056912 -0.006063 724276.000000 0 1 0
-19.764634 -1.539698 0.893673 19.844648 0.077745 1.525748 0.046453 -0.009501 -445888.000000 0 1 0
-18.978334 -2.698098 0.330773 19.172018 0.141221 1.553543 0.017498 -0.009054 -291490.000000 0 1 0
-18.173934 -3.389198 1.265073 18.530487 0.184369 1.502473 0.016097 -0.010450 486929.000000 0 1 0
-17.678134 -4.621298 0.830573 18.291054 0.255691 1.525372 0.018513 -0.004742 -88522.600000 0 1 0
-18.772934 -5.727298 0.778573 19.642585 0.296113 1.531149 0.032168 -0.002714 -166312.000000 0 1 0
-19.453834 -5.780198 1.986173 20.391351 0.288816 1.473239 0.061259 -0.012565 51649.100000 0 1 0
-20.496334 -6.709498 1.826973 21.643819 0.316357 1.486285 0.063294 -0.011613 -356703.000000 0 1 0
-21.144434 -7.137098 3.137473 22.535949 0.325532 1.431122 0.072982 -0.011764 -405518.000000 0 1 0
-20.314534 -8.004598 3.829573 22.167984 0.375352 1.397173 0.060829 -0.010844 314923.000000 0 1 0
-20.888534 -8.442498 5.060873 23.091536 0.384095 1.349837 0.054048 -0.009219 225946.000000 0 1 0
-19.987234 -9.388398 5.931673 22.865176 0.439131 1.308375 0.046021 -0.004499 45983.400000 0 1 0
-19.646734 -10.606298 5.295773 22.946305 0.495017 1.337907 0.054457 0.004114 791103.000000 0 1 0
-18.594734 -11.162198 6.117073 22.533916 0.540631 1.295886 0.048753 -0.001920 461926.000000 0 1 0
-18.150934 -12.508698 5.554973 22.732832 0.603406 1.323938 0.040379 0.000508 -4134.510000 0 1 0
-19.106034 -13.555598 5.631573 24.093762 0.617069 1.334878 0.056206 0.002310 297867.000000 0 1 0
-18.641734 -14.684698 4.850273 24.221473 0.667216 1.369187 0.050036 0.001895 -117181.000000 0 1 0
-19.266634 -16.006398 5.196673 25.581504 0.693231 1.366231 0.052935 0.003855 -425040.000000 0 0 1
-18.638334 -17.176798 4.741973 25.785969 0.744613 1.385846 0.051167 -0.005023 -43381.600000 0 0 1
-19.350034 -18.324398 5.181173 27.148700 0.758181 1.378774 0.050757 -0.002984 32296.400000 0 0 1
-18.503534 -19.628598 5.250973 27.481545 0.814894 1.378541 0.051343 -0.012869 39781.900000 0 0 1
-18.108134 -20.101798 3.916773 27.337299 0.837528 1.427026 0.051213 -0.018602 395573.000000 0 0 1
-17.402734 -21.362698 3.845973 27.821063 0.887197 1.432113 0.042706 -0.021495 -671578.000000 0 0 1
-15.902234 -21.187198 3.828773 26.766358 0.926938 1.427260 0.047359 -0.018866 -1142770.000000 0 0 1
-15.220934 -22.402398 3.893973 27.362516 0.974007 1.428001 0.039913 -0.019825 -1307370.000000 0 0 1
-13.871334 -22.142998 4.046973 26.440580 1.011160 1.417133 0.038768 -0.015833 -625587.000000 0 0 1
-13.012234 -23.434398 4.337773 27.153370 1.063922 1.410358 0.055319 -0.009028 85570.200000 0 0 1
-13.074134 -24.390698 3.286473 27.868262 1.078742 1.452592 0.057431 -0.011670 -85017.000000 0 0 1
-12.461134 -25.579088 3.641873 28.685063 1.117473 1.443492 0.059717 -0.014572 -163655.000000 0 0 1
18.888066 19.264302 -24.646527 36.542081 0.795259 2.311043 0.058169 -0.011889 -917219.000000 0 0 1
17.950766 19.723302 -25.503717 36.900925 0.832413 2.333862 0.043912 -0.019793 -923900.000000 0 0 1
18.285666 19.460302 -26.847147 37.866057 0.816508 2.358880 0.055838 -0.017000 122398.000000 0 0 1
17.152666 19.803502 -27.848977 38.235562 0.857005 2.386711 0.045450 -0.019027 108306.000000 0 0 1
17.159966 21.224802 -28.160637 39.217065 0.890902 2.371823 0.049047 -0.013345 -172915.000000 0 0 1
16.550366 21.345902 -29.366817 39.899525 0.911273 2.397967 0.035966 -0.007372 -596508.000000 0 0 1
16.214666 22.840802 -29.735877 40.851439 0.953457 2.386055 0.065982 -0.021206 243689.000000 0 0 1
15.053966 23.316302 -29.030407 40.162624 0.997491 2.378673 0.064607 -0.015942 771721.000000 0 0 1
14.870066 24.704002 -29.259617 41.079579 1.028959 2.363519 0.070901 -0.023418 -108505.000000 0 0 1
14.128266 25.380902 -28.092647 40.410332 1.062862 2.339473 0.072484 -0.018422 504316.000000 0 0 1
12.796466 24.874002 -27.977777 39.562881 1.095655 2.356287 0.073993 -0.029736 302448.000000 0 0 1
12.125066 25.397702 -26.862597 38.905779 1.125385 2.332911 0.066981 -0.021344 -675854.000000 0 0 1
10.607866 25.184402 -26.775127 38.258180 1.172142 2.345989 0.083091 -0.033408 -39579.700000 0 0 1
9.842566 25.940002 -25.882807 37.943109 1.208142 2.321492 0.066548 -0.022810 4215.980000 0 0 1
9.689266 27.265402 -26.373357 39.151475 1.229347 2.309897 0.081196 -0.038472 -644622.000000 0 0 1
9.156566 28.210202 -25.317277 38.995163 1.256941 2.277383 0.074788 -0.033469 -336866.000000 0 0 1
10.118366 28.494802 -24.353627 38.825690 1.229590 2.248821 0.064269 -0.023644 -470068.000000 0 0 1
9.580866 29.319802 -23.368827 38.698138 1.254963 2.219150 0.057656 -0.027253 -372687.000000 0 0 1
10.536966 29.757502 -22.262827 38.628617 1.230479 2.185027 0.035832 -0.015897 -996346.000000 0 0 1
11.549066 30.581302 -22.682327 39.788000 1.209703 2.177399 0.041907 -0.022725 -628491.000000 0 0 1
12.285266 30.951502 -21.516827 39.647157 1.192948 2.144454 0.021513 -0.007507 -159146.000000 0 0 1
13.463066 31.867302 -21.848527 40.916222 1.171068 2.134100 0.020068 0.001004 -321789.000000 0 0 1
14.576566 31.291302 -22.466127 41.186754 1.134853 2.147746 0.026370 -0.000659 -806330.000000 0 0 1
15.564466 32.201502 -22.782727 42.405683 1.120560 2.137977 0.023668 -0.001239 -56217.900000 0 0 1
16.885966 31.517802 -23.243127 42.646813 1.078952 2.147203 0.012359 0.002764 483055.000000 0 0 1
17.699866 31.018202 -22.193127 42.046986 1.052254 2.126825 0.012238 0.007592 651496.000000 0 0 1
18.916066 30.482402 -22.728027 42.468313 1.015398 2.135513 0.019994 0.011341 702456.000000 0 0 1
19.889166 29.666202 -21.834627 41.861837 0.980192 2.119507 0.016478 0.013564 146373.000000 0 0 1
20.648166 30.438102 -20.942427 42.325053 0.974738 2.088401 0.018580 0.019829 -195859.000000 0 0 1
21.541566 29.667202 -20.205927 41.862411 0.942763 2.074503 0.035885 0.014240 116119.000000 0 0 1
22.290166 30.525502 -19.106027 42.352073 0.940079 2.038820 0.040183 -0.002866 583481.000000 0 0 1
23.395266 31.363302 -19.519227 43.726370 0.929896 2.033529 0.060484 -0.007215 737163.000000 0 0 1
24.005266 31.739302 -18.302927 43.802206 0.923259 2.001878 0.062024 -0.009515 -237746.000000 0 0 1
25.266366 32.591302 -18.474927 45.187445 0.911331 1.991991 0.074587 -0.009783 266464.000000 0 0 1
26.393266 31.962402 -19.060527 45.623495 0.880544 2.001795 0.082376 -0.011625 -227353.000000 0 0 1
27.586366 32.648302 -18.790627 46.690544 0.869238 1.984988 0.081415 -0.013787 62633.600000 0 0 1
28.808766 31.951602 -19.425027 47.203618 0.837077 1.994913 0.081291 -0.016113 -51872.800000 0 0 1
29.093566 30.634602 -18.843427 46.260017 0.811193 1.990333 0.071206 -0.004782 1062350.000000 0 0 1
30.451266 30.202802 -19.120027 46.958112 0.781302 1.990152 0.055200 0.006220 1250530.000000 0 0 1
30.959166 29.062402 -18.158127 46.182364 0.753807 1.974887 0.037261 0.006721 -185844.000000 0 0 1
31.286666 29.419002 -16.838327 46.128759 0.754642 1.944460 0.025178 0.016351 103993.000000 0 0 1
31.624266 28.332002 -15.981327 45.367382 0.730542 1.930786 0.035339 0.013773 -123386.000000 0 0 1
31.947366 28.854602 -14.534427 45.436459 0.734576 1.896404 0.027553 0.015896 116800.000000 0 0 1
33.175866 29.536302 -14.377227 46.687642 0.727427 1.883829 0.016258 0.015997 -66575.000000 0 0 1
33.228366 30.893002 -14.789027 47.720197 0.748993 1.885896 0.014666 0.012183 199992.000000 0 0 1
34.675166 31.454102 -14.715627 49.074203 0.736728 1.875347 0.027100 0.001943 398375.000000 0 0 1
35.305066 31.465602 -13.473427 49.173825 0.727959 1.848342 0.029537 -0.000264 247048.000000 0 0 1
-36.199455 31.869302 -13.640527 50.121023 -0.721869 1.846425 0.048988 -0.013624 433395.000000 0 0 1
-35.389055 32.145702 -12.386827 49.387902 -0.737410 1.824310 0.051149 -0.004194 -328868.000000 0 0 1
-35.862855 33.298102 -11.705227 50.318190 -0.748331 1.805571 0.047949 -0.006772 189561.000000 0 0 1
-35.086755 33.669202 -10.593327 49.768606 -0.764784 1.785289 0.038740 -0.003849 -173496.000000 0 0 1
-35.716855 -33.458115 -9.922927 49.935996 0.752757 1.770841 0.032147 0.004521 -224638.000000 0 0 1
-34.904255 -32.707515 -9.049227 48.682410 0.752919 1.757767 0.027291 0.000026 -138315.000000 0 0 1
-34.550955 -33.326315 -7.780527 48.630735 0.767358 1.731479 0.019341 -0.001926 65283.100000 0 0 1
-34.175855 -32.333415 -6.726527 47.525624 0.757703 1.712808 0.011666 -0.018089 -535049.000000 0 0 1
-35.179155 -31.389415 -6.561927 47.601757 0.728530 1.709087 0.016599 -0.002652 -598654.000000 0 0 1
-34.886455 -30.403315 -5.534027 46.605276 0.716841 1.689820 0.039305 -0.001831 131002.000000 0 0 1
-36.170455 -29.817215 -4.892027 47.130670 0.689415 1.674781 0.028067 -0.002130 -410553.000000 0 0 1
36.122666 -30.865915 -4.159227 47.695397 -0.707086 1.658111 0.014971 0.001945 -343676.000000 0 0 1
34.807366 -30.472615 -3.823627 46.419319 -0.719093 1.653261 0.017082 0.004406 -516263.000000 0 0 1
34.532366 -29.510515 -2.602027 45.498631 -0.707144 1.628017 0.018107 0.003353 -885323.000000 0 0 1
34.858666 -28.149115 -2.866027 44.896697 -0.679310 1.634676 0.044311 0.002042 198117.000000 0 0 1
33.945566 -27.272715 -2.258027 43.602766 -0.676826 1.622606 0.051800 0.004114 -252004.000000 0 0 1
34.224666 -25.810315 -2.593127 42.944435 -0.646148 1.631216 0.084581 -0.012930 -171662.000000 0 0 1
33.897866 -25.381515 -3.908627 42.527215 -0.642710 1.662835 0.068418 -0.020227 492562.000000 0 0 1
34.163866 -23.964115 -3.990227 41.921003 -0.611696 1.666125 0.062789 -0.022473 -131567.000000 0 0 1
33.913266 -23.445315 -5.405327 41.581366 -0.604885 1.701159 0.064256 -0.020068 -115986.000000 0 0 1
35.023066 -23.704315 -6.258427 42.751347 -0.594999 1.717716 0.055709 -0.019947 502686.000000 0 0 1
34.685066 -23.415015 -7.587227 42.530963 -0.593801 1.750149 0.048500 -0.022994 -178473.000000 0 0 1
35.874366 -23.092715 -8.525327 43.507756 -0.571941 1.768022 0.048407 -0.021112 14485.900000 0 0 1
36.427766 -24.296515 -9.079327 44.718419 -0.588218 1.775251 0.039925 -0.008883 142725.000000 0 0 1
-35.145955 -24.009815 -9.602027 43.633798 0.599325 1.792672 0.056700 -0.012003 140006.000000 0 0 1
-34.608355 -25.171715 -10.448727 44.051440 0.628834 1.810272 0.052101 -0.018946 -713585.000000 0 0 1
-34.009255 -26.205715 -9.712027 44.019228 0.656522 1.793258 0.058032 -0.009753 -106506.000000 0 0 1
-34.854555 -27.175315 -9.127227 45.129193 0.662226 1.774448 0.045735 -0.013623 -76366.600000 0 0 1
-33.995155 -28.338115 -8.587627 45.082887 0.694891 1.762453 0.042073 -0.007895 76280.600000 0 0 1
-33.294155 -29.075015 -9.610427 45.235137 0.717853 1.784883 0.035753 -0.010053 219775.000000 0 0 1
-32.723055 -30.268015 -9.200127 45.514760 0.746443 1.774334 0.031705 -0.008671 -256021.000000 0 0 1
-32.169355 -31.185315 -10.305727 45.973898 0.769867 1.796882 0.039034 -0.005404 -98565.100000 0 0 1
-30.982955 -30.734215 -10.920927 44.986688 0.781368 1.816005 0.027653 0.009043 -49237.300000 0 0 1
-30.714855 -31.466315 -12.090227 45.603782 0.797483 1.839119 0.016815 0.009487 -85478.900000 0 0 1
-31.008955 -30.698015 -13.413227 45.649076 0.780359 1.869031 0.008896 0.010439 -35807.700000 0 0 1
-30.105755 -29.632215 -13.629727 44.386869 0.777471 1.882906 0.012527 0.011882 -21219.600000 0 0 1
-30.425655 -28.970815 -14.829427 44.552671 0.760909 1.910122 -0.001301 0.017975 346055.000000 0 0 1
-29.361655 -27.923315 -15.323527 43.320074 0.760295 1.932350 0.007550 0.011691 -279871.000000 0 0 1
-28.213155 -28.534815 -15.792427 43.123295 0.791066 1.945735 0.013060 0.009166 -617281.000000 0 0 1
-27.287155 -27.526515 -16.260127 42.032007 0.789765 1.968011 0.026495 0.012885 307466.000000 0 0 1
-25.950455 -28.204315 -16.638427 41.782135 0.826993 1.980370 0.046661 0.002646 -425759.000000 0 0 1
-25.997555 -29.110315 -17.732727 42.868787 0.841823 1.997257 0.037112 0.005046 -124490.000000 0 0 1
-26.202855 -28.500715 -19.028127 43.138730 0.827379 2.027611 0.024739 0.008866 428950.000000 0 0 1
-24.923055 -27.814115 -19.642027 42.197072 0.840164 2.054977 0.040990 0.001461 715320.000000 0 0 1
-24.579055 -26.687015 -18.886227 40.902522 0.826493 2.050749 0.041278 0.001746 -464610.000000 0 0 1
-23.324955 -26.162315 -19.238627 39.983060 0.842671 2.072785 0.050087 -0.004249 -156343.000000 0 0 1
-22.971155 -25.056415 -18.240827 38.577528 0.828789 2.063302 0.047856 -0.002987 -254531.000000 0 0 1
-22.734855 -25.567715 -16.924127 38.170771 0.843979 2.030162 0.054808 -0.006881 24592.200000 0 0 1
-22.377355 -24.542015 -16.080327 36.900318 0.831501 2.021698 0.053148 -0.006903 -151992.000000 0 0 1
-22.862655 -24.853915 -14.636527 36.805516 0.827105 1.979775 0.038379 -0.004832 745976.000000 0 0 1
-24.252055 -24.507615 -14.492727 37.400863 0.790639 1.968711 0.018442 0.013187 788066.000000 0 0 1
-24.519755 -24.363715 -13.096127 36.963733 0.782206 1.932958 0.018895 0.012952 948095.000000 0 0 1
-26.033155 -24.248415 -12.664527 37.763753 0.749918 1.912786 0.025076 0.021528 304621.000000 0 0 1
-26.798555 -25.403315 -12.896427 39.112770 0.758677 1.906808 0.031345 0.013543 33931.100000 0 0 1
-28.014555 -25.449315 -12.184027 39.760954 0.737454 1.882239 0.027619 0.016378 42972.400000 0 0 1
-29.207655 -24.634515 -12.768627 40.286279 0.700666 1.893305 0.036410 0.012601 -1057380.000000 0 0 1
-29.317055 -23.274515 -12.409227 39.435792 0.671004 1.890904 0.042345 0.010622 472113.000000 0 0 1
-29.981855 -23.023215 -11.143927 39.410242 0.654862 1.857474 0.052660 0.006850 1522860.000000 0 0 1
-31.478055 -23.567515 -10.892227 40.803631 0.642666 1.841015 0.045729 0.002430 1575470.000000 0 0 1
-32.580655 -22.808415 -11.426927 41.379917 0.610766 1.850579 0.068095 -0.007617 591539.000000 0 0 1
-32.680255 -22.755215 -12.840327 41.841043 0.608237 1.882713 0.063795 -0.001241 -449484.000000 0 0 1
-34.064755 -22.267715 -13.373827 42.838276 0.578963 1.888297 0.040080 -0.013881 267814.000000 0 0 1
-35.012155 -23.269215 -13.136927 44.044140 0.586573 1.873673 0.043390 -0.008590 322007.000000 0 0 1
-36.321655 -22.968815 -13.646627 45.089461 0.563883 1.878275 0.066652 -0.016581 389580.000000 0 0 1
35.479166 -23.956115 -13.157527 44.786016 -0.593898 1.868982 0.061968 -0.004779 -475109.000000 0 0 1
35.403766 -25.148615 -13.879727 45.590858 -0.617630 1.880148 0.041277 -0.001243 -121421.000000 0 0 1
34.684466 -26.157715 -13.252627 45.418833 -0.646160 1.866891 0.047881 -0.005704 -63695.900000 0 0 1
34.428066 -27.442415 -14.070227 46.220658 -0.672967 1.880120 0.038156 -0.008550 -60074.400000 0 0 1
33.693066 -27.313515 -15.230027 45.969605 -0.681205 1.908484 0.039908 -0.014122 -320920.000000 0 0 1
33.619366 -28.560015 -15.935427 46.902816 -0.704210 1.917452 0.029381 0.002369 -75222.100000 0 0 1
32.835366 -28.364415 -17.263227 46.698184 -0.712473 1.949457 0.033818 -0.008434 585113.000000 0 0 1
31.431666 -28.300915 -17.015327 45.589613 -0.733033 1.953283 0.057232 -0.005001 399003.000000 0 0 1
30.731766 -28.068815 -18.222327 45.435152 -0.740141 1.983473 0.054652 -0.010963 1162880.000000 0 0 1
29.154066 -28.039915 -18.180927 44.347971 -0.765920 1.993207 0.059922 -0.009854 902787.000000 0 0 1
28.701366 -27.104115 -17.254827 43.082834 -0.756784 1.982863 0.052824 -0.010086 -739188.000000 0 0 1
27.309366 -27.123515 -17.165827 42.144421 -0.781984 1.990303 0.076680 -0.009664 -640934.000000 0 0 1
26.777066 -26.183915 -16.113127 40.770597 -0.774199 1.977098 0.065672 -0.011490 -177850.000000 0 0 1
26.887966 -24.840315 -16.511427 40.157580 -0.745834 1.994529 0.060367 -0.015481 26452.700000 0 0 1
26.361666 -24.055615 -15.450327 38.888593 -0.739691 1.979366 0.064529 -0.018739 -9551.000000 0 0 1
26.249166 -22.541215 -15.683427 37.988091 -0.709546 1.996379 0.066258 -0.021947 590696.000000 0 0 1
25.088566 -22.030015 -16.371627 37.185857 -0.720577 2.026690 0.078507 -0.031578 626855.000000 0 0 1
24.810566 -20.678515 -15.966627 36.029133 -0.694811 2.029916 0.068253 -0.028478 -810726.000000 0 0 1
23.354066 -20.281615 -15.994527 34.822137 -0.715103 2.048027 0.071427 -0.030539 -1110030.000000 0 0 1
22.582266 -20.889115 -14.988327 34.219349 -0.746469 2.024177 0.067681 -0.029854 1427210.000000 0 0 1
21.226166 -20.349015 -14.894327 32.961698 -0.764303 2.039654 0.057190 -0.031332 1521170.000000 0 0 1
21.064066 -19.077315 -14.050327 31.702532 -0.735945 2.029953 0.049586 -0.024717 -466909.000000 0 0 1
20.828566 -19.155615 -12.657327 30.999592 -0.743582 1.991394 0.043656 -0.028908 120852.000000 0 0 1
20.310666 -17.962615 -12.130227 29.703891 -0.724125 1.991466 0.043623 -0.031554 -464109.000000 0 0 1
19.405066 -18.150515 -10.909827 28.723199 -0.752005 1.960405 0.049856 -0.021058 -511326.000000 0 0 1
20.032266 -18.398915 -9.682127 28.871359 -0.742923 1.912777 0.053833 -0.031405 126301.000000 0 0 1
19.092966 -18.695815 -8.663727 28.091548 -0.774889 1.884318 0.046068 -0.034320 -18060.800000 0 0 1
19.825566 -19.299315 -7.478727 28.660914 -0.771948 1.834790 0.050699 -0.033201 161058.000000 0 0 1
20.792366 -18.480515 -6.823727 28.642891 -0.726600 1.811344 0.045918 -0.030224 265228.000000 0 0 1
21.395366 -19.100915 -5.694327 29.240931 -0.728800 1.766787 0.047325 -0.021063 -518529.000000 0 0 1
22.691466 -18.369015 -5.377327 29.685670 -0.680514 1.752944 0.050331 -0.025640 -882426.000000 0 0 1
23.744266 -18.677015 -6.249227 30.849213 -0.666511 1.774781 0.039260 -0.032278 239015.000000 0 0 1
24.610166 -17.536515 -6.282727 30.865228 -0.619114 1.775782 0.058216 -0.038846 81111.300000 0 0 1
25.688566 -17.507915 -7.406527 31.957569 -0.598232 1.804684 0.065459 -0.039505 213102.000000 0 0 1
26.694566 -18.494515 -7.345527 33.295702 -0.605891 1.793241 0.081326 -0.043700 132078.000000 0 0 1
26.440166 -19.760115 -7.935927 33.948837 -0.641804 1.806741 0.080794 -0.047865 -511318.000000 0 0 1
27.548666 -20.772615 -7.607927 35.331447 -0.646078 1.787826 0.084128 -0.050719 -334816.000000 0 0 1
28.723866 -20.474715 -8.299927 36.237595 -0.619273 1.801890 0.085184 -0.034549 -430747.000000 0 0 1
29.679866 -21.505715 -8.090527 37.534609 -0.627039 1.788050 0.086737 -0.042309 -74319.300000 0 0 1
-30.475324 30.269202 4.275073 43.165335 -0.782005 1.471594 0.053995 -0.009923 3868.890000 0 0 1
-29.670144 31.099302 3.500373 43.124663 -0.808912 1.489538 0.048887 -0.001220 -361630.000000 0 0 1
-28.370214 31.240502 4.046773 42.393565 -0.833512 1.475194 0.044303 -0.002664 84427.400000 0 0 1
-27.624434 32.364102 3.338873 42.681290 -0.864244 1.492488 0.052170 -0.007048 -693184.000000 0 0 1
-26.920544 31.924702 2.199873 41.817959 -0.870233 1.518166 0.065928 -0.012059 154118.000000 0 0 1
-26.343494 33.057702 1.490873 42.296737 -0.897952 1.535541 0.069242 -0.014903 697987.000000 0 0 1
-25.079674 33.794102 2.044073 42.133236 -0.932350 1.522263 0.079184 -0.011801 322219.000000 0 0 1
-23.830734 33.127902 1.876673 40.851972 -0.947198 1.524842 0.068305 -0.014326 37734.900000 0 0 1
-22.839134 34.064602 2.269573 41.075224 -0.980169 1.515514 0.060220 -0.008970 -654187.000000 0 0 1
-21.416634 33.594402 2.066773 39.893954 -1.003254 1.518966 0.053391 -0.012748 -723325.000000 0 0 1
-20.978834 34.026602 0.784273 39.981698 -1.018302 1.551179 0.070146 -0.012146 508955.000000 0 0 1
-19.614134 33.639002 0.578973 38.943958 -1.042913 1.555929 0.059805 -0.010026 490817.000000 0 0 1
-18.959534 -34.102815 -0.703827 39.025137 1.063395 1.588833 0.061230 -0.008722 125407.000000 0 0 1
-18.769734 -32.701415 -0.726327 37.712240 1.049734 1.590057 0.063281 -0.009904 759087.000000 0 0 1
-17.888934 -32.103715 0.263773 36.752307 1.062424 1.563619 0.065714 -0.007710 213706.000000 0 0 1
-17.929834 -30.566315 0.156273 35.437311 1.040297 1.566386 0.072047 -0.015938 -149756.000000 0 0 1
-17.057434 -30.023015 -0.824827 34.540090 1.054129 1.594679 0.081853 -0.014107 189007.000000 0 0 1
-17.034434 -28.592915 -0.714027 33.290187 1.033502 1.592247 0.063947 -0.018089 498723.000000 0 0 1
-15.921034 -27.918015 -1.605827 32.178775 1.052518 1.620720 0.062278 -0.014173 567644.000000 0 0 1
-16.243434 -28.085415 -2.965927 32.579693 1.046442 1.661959 0.066184 -0.017056 8529.750000 0 0 1
-15.335834 -27.356515 -3.746227 31.584821 1.059858 1.689685 0.055103 -0.006304 -52017.800000 0 0 1
-15.807734 -27.329315 -5.252327 32.005669 1.046398 1.735648 0.065727 -0.015426 773226.000000 0 0 1
-17.111134 -26.723215 -5.258627 32.164799 1.001263 1.735024 0.070286 -0.009627 246886.000000 0 0 1
-17.695734 -26.827315 -6.568227 32.802217 0.987691 1.772396 0.085963 -0.004316 270449.000000 0 0 1
-18.432934 -25.514115 -6.875627 32.218277 0.945155 1.785858 0.054274 -0.001392 -499188.000000 0 0 1
-17.540234 -24.485215 -7.080927 30.940671 0.949175 1.801698 0.056583 0.005303 -123722.000000 0 0 1
-18.131734 -23.177715 -7.089827 30.269323 0.906947 1.807217 0.042668 0.006989 590484.000000 0 0 1
-16.993734 -22.177015 -6.756127 28.744604 0.916959 1.808056 0.043299 0.004872 1116440.000000 0 0 1
-15.859034 -22.081515 -7.620427 28.234255 0.947957 1.844086 0.064086 0.000463 -288612.000000 0 0 1
-14.961834 -21.117615 -7.232227 26.872202 0.954388 1.843290 0.085255 -0.016056 386879.000000 0 0 1
-13.773334 -20.931115 -8.257827 26.381964 0.988796 1.889157 0.076985 -0.011258 714041.000000 0 0 1
-14.155434 -20.258915 -9.454127 26.460924 0.960926 1.936157 0.079814 -0.004055 314792.000000 0 0 1
-13.070634 -20.243715 -10.391727 26.241903 0.997475 1.977950 0.063490 0.002305 742311.000000 0 0 1
-13.462834 -19.406015 -11.657527 26.338931 0.964280 2.029289 0.063545 0.001859 422962.000000 0 0 1
-14.491134 -19.922515 -12.503827 27.626894 0.941933 2.040471 0.065600 0.013566 5107.920000 0 0 1
-14.705634 -19.018815 -13.554627 27.598893 0.912602 2.084182 0.055874 0.005146 359520.000000 0 0 1
-15.968534 -19.479115 -14.329927 28.978903 0.884112 2.088050 0.062794 0.007191 149203.000000 0 0 1
-17.167534 -19.418715 -13.599127 29.270241 0.846852 2.053986 0.070060 0.004064 618568.000000 0 0 1
-18.283534 -19.734015 -14.495327 30.558689 0.823533 2.065015 0.048364 0.010823 339501.000000 0 0 1
-19.640434 -19.496915 -13.848127 30.945872 0.781731 2.034759 0.043505 0.015280 -671929.000000 0 0 1
-20.622834 -20.068815 -14.635927 32.284191 0.771784 2.041313 0.049258 0.004273 -972381.000000 0 0 1
-21.956234 -19.876415 -14.273527 32.876765 0.735721 2.019894 0.043669 0.004516 -377897.000000 0 0 1
-22.920934 -20.707215 -15.124427 34.393404 0.734701 2.026114 0.045718 -0.003247 -382179.000000 0 0 1
-23.037234 -19.995915 -16.319727 34.596015 0.714842 2.062040 0.045795 -0.013487 194424.000000 0 0 1
-23.774034 -20.821415 -17.187727 35.974352 0.719286 2.068919 0.057988 -0.018447 -189985.000000 0 0 1
-24.101334 -20.218015 -18.603627 36.547741 0.698000 2.104845 0.061677 -0.017795 -96116.200000 0 0 1
-22.958934 -20.020715 -19.390227 36.109868 0.717141 2.137648 0.032025 -0.016108 2339.900000 0 0 1
-23.334534 -19.411915 -20.663227 36.719094 0.693890 2.168491 0.049456 -0.018987 -365512.000000 0 0 1
-22.217434 -18.664615 -21.387827 36.047488 0.698712 2.205978 0.027292 -0.010530 -352381.000000 0 0 1
-21.255734 -19.540715 -21.943927 36.265434 0.743384 2.220678 0.008230 -0.003566 115541.000000 0 0 1
-20.247634 -18.729915 -22.563327 35.635378 0.746480 2.256441 0.005214 -0.001778 -215457.000000 0 0 1
-18.941234 -19.446715 -22.872527 35.497853 0.798565 2.270950 0.014766 0.003290 -823562.000000 0 0 1
-18.899634 -20.587315 -23.749627 36.675312 0.828112 2.275180 -0.003304 0.008739 1289280.000000 0 0 1
-17.592634 -21.238715 -23.657927 36.335675 0.879019 2.279821 0.003937 0.011864 1269540.000000 0 0 1
-17.650134 -22.660215 -24.349027 37.654850 0.909052 2.273964 0.010865 0.012210 -84729.100000 0 0 1
-17.938734 -22.654315 -25.764437 38.714628 0.901047 2.298955 0.014395 0.007901 305444.000000 0 0 1
-18.163934 -23.989615 -26.250827 39.931642 0.922730 2.288152 0.026459 -0.005036 -273103.000000 0 0 1
-18.117434 -24.041415 -27.783237 40.965099 0.925000 2.316130 0.026968 0.002877 728439.000000 0 0 1
-16.807934 -23.834515 -28.352037 40.674670 0.956594 2.342063 0.024436 0.003725 838783.000000 0 0 1
-16.836034 -23.969915 -29.730037 41.735884 0.958474 2.363620 0.037979 -0.001070 98082.000000 0 0 1
-15.404634 -23.784215 -30.292197 41.480222 0.996052 2.389529 0.022456 -0.007947 221143.000000 0 0 1
-14.588134 -24.887615 -29.972467 41.599950 1.040615 2.375309 0.033938 -0.005648 454385.000000 0 0 1
-13.283734 -24.805915 -30.557167 41.539517 1.079148 2.397373 0.044552 -0.008218 752374.000000 0 0 1
-12.329434 -25.936315 -30.104377 41.605059 1.127043 2.379764 0.055929 -0.010140 -759816.000000 0 0 1
-12.600734 -27.199215 -30.724897 42.925460 1.136957 2.368527 0.039809 -0.005082 338631.000000 0 0 1
-11.558434 -28.123815 -30.469147 43.045503 1.180857 2.357226 0.035007 -0.006779 951645.000000 0 0 1
-10.269234 -27.903115 -31.358427 43.213331 1.218149 2.382798 0.040752 -0.011044 502206.000000 0 0 1
-9.525934 -26.746815 -30.978917 42.021767 1.228651 2.399730 0.060460 -0.024317 -569022.000000 0 0 1
-8.372134 -26.479015 -31.695387 42.140580 1.264562 2.422092 0.054293 -0.019212 -837501.000000 0 0 1
-7.492534 -25.397315 -31.087817 40.836431 1.283921 2.436076 0.089498 -0.027908 -160604.000000 0 0 1
-8.015334 -24.023715 -31.022257 40.047034 1.248768 2.456951 0.085546 -0.028561 527023.000000 0 0 1
-8.993234 -23.753615 -30.018517 39.322053 1.208869 2.439359 0.069161 -0.022227 151944.000000 0 0 1
-9.528834 -22.334515 -29.915217 38.529852 1.167536 2.459756 0.069245 -0.030138 84091.300000 0 0 1
-10.278934 -21.922515 -31.064387 39.385903 1.132357 2.479518 0.060798 -0.027001 145301.000000 0 0 1
-10.819534 -20.645915 -30.850177 38.665871 1.088093 2.494543 0.064828 -0.026756 163056.000000 0 0 1
-11.325434 -19.979015 -32.166257 39.523343 1.055096 2.521552 0.062733 -0.025209 46525.500000 0 0 1
-11.933934 -18.722415 -32.005757 38.952742 1.003320 2.535107 0.062811 -0.019211 67813.800000 0 0 1
-12.550934 -18.411815 -33.249697 40.025782 0.972473 2.551173 0.057368 -0.023409 -405843.000000 0 0 1
-13.487734 -17.208515 -33.144087 39.706202 0.906023 2.558445 0.066386 -0.019037 -526460.000000 0 0 1
-12.937134 -15.867315 -33.201227 39.005931 0.886776 2.589033 0.084538 -0.023613 190325.000000 0 0 1
-12.188034 -15.464115 -32.039707 37.606248 0.903323 2.590549 0.084944 -0.013263 352118.000000 0 0 1
-11.977734 -13.901015 -32.056857 36.937060 0.859581 2.621711 0.073685 -0.017940 -22387.300000 0 0 1
-11.044834 -13.289215 -32.951487 37.207420 0.877370 2.658615 0.084924 -0.021056 176671.000000 0 0 1
-11.388034 -13.267915 34.071413 38.296032 0.861495 0.474141 0.084211 -0.024078 -75351.100000 0 0 1
-12.037934 -12.018715 33.396072 37.478781 0.784599 0.471108 0.070887 -0.016240 577477.000000 0 0 1
-13.332534 -11.692815 33.874799 38.235852 0.719969 0.482272 0.057510 -0.008907 -340487.000000 0 0 1
-14.130634 -11.066315 32.903304 37.480202 0.664378 0.499369 0.043490 -0.023143 619549.000000 0 0 1
-15.281734 -10.321415 33.641379 38.364115 0.594030 0.501428 0.053468 -0.025392 342797.000000 0 0 1
-14.664834 -9.318815 -33.944487 38.133003 0.566081 2.668493 0.066789 -0.026012 418652.000000 0 0 1
-15.460134 -8.759615 -32.876577 37.371325 0.515494 2.646085 0.062564 -0.034287 197912.000000 0 0 1
-14.708934 -7.645715 -32.133147 36.157279 0.479362 2.665309 0.067913 -0.048718 -390150.000000 0 0 1
-14.575734 -6.347415 -32.722387 36.379889 0.410712 2.689337 0.058918 -0.051705 239358.000000 0 0 1
-15.728134 -5.510915 -32.674257 36.679033 0.337019 2.669934 0.065129 -0.045848 158660.000000 0 0 1
-15.975134 -4.920915 -31.312557 35.495022 0.298813 2.651242 0.067322 -0.047883 -380881.000000 0 0 1
-16.418834 -5.875015 -30.409587 35.054770 0.343626 2.620926 0.070124 -0.056203 -322452.000000 0 0 1
-16.695034 -5.511715 -29.080157 33.981741 0.318875 2.597811 0.066510 -0.059542 -312832.000000 0 0 1
-15.511034 -5.185115 -28.141577 32.548824 0.322607 2.615142 0.068646 -0.064928 36335.000000 0 0 1
-14.981734 -3.934715 -28.629887 32.551571 0.256834 2.645657 0.063161 -0.054538 -355262.000000 0 0 1
-13.752634 -3.596015 -28.057507 31.452980 0.255752 2.672649 0.052063 -0.050356 -572108.000000 0 0 1
-13.381334 -2.202515 -28.580697 31.634908 0.163133 2.698557 0.028419 -0.023481 -201114.000000 0 0 1
-13.159934 -2.260515 -29.968887 32.808962 0.170112 2.722445 0.024675 -0.030950 131405.000000 0 0 1
-13.210434 -0.959515 -30.577907 33.323335 0.072506 2.732828 0.019636 -0.032014 -66306.100000 0 0 1
-13.442634 -1.008515 -32.094157 34.810292 0.074883 2.743942 0.018939 -0.032780 245880.000000 0 0 1
-14.804134 -1.242515 -32.457297 35.695691 0.083734 2.712342 0.019390 -0.033582 615598.000000 0 0 1
-14.882834 -1.623515 -33.816857 36.982623 0.108657 2.724816 0.022172 -0.025152 1143290.000000 0 0 1
-16.355634 -1.632515 33.962864 37.731260 0.099484 0.450739 0.026267 -0.024631 1128810.000000 0 0 1
-16.346234 -1.849515 32.562455 36.481961 0.112667 0.467799 0.029917 -0.021114 -616921.000000 0 0 1
-17.565034 -1.691515 31.914443 36.468113 0.096004 0.505086 0.040081 -0.019292 -635764.000000 0 0 1
-17.561934 -1.816515 30.355393 35.116536 0.103068 0.526803 0.040852 -0.010319 -247458.000000 0 0 1
-16.935634 -0.739515 29.727483 34.221131 0.043639 0.518249 0.023546 0.003432 -177488.000000 0 0 1
-17.050334 -0.688515 28.321813 33.065284 0.040359 0.542264 0.025559 -0.002377 -117450.000000 0 0 1
-16.274934 0.558485 27.832163 32.246157 -0.034302 0.529389 0.021190 -0.001685 -45000.100000 0 0 1
-16.735034 1.870485 28.177863 32.826087 -0.111309 0.538657 0.027059 -0.003051 -718773.000000 0 0 1
-18.026734 2.251485 27.833713 33.237747 -0.124254 0.578264 0.041093 -0.008813 -631521.000000 0 0 1
-18.247434 2.961485 26.512503 32.321077 -0.160893 0.608887 0.038884 -0.016846 -394370.000000 0 0 1
-17.770634 4.283485 26.447353 32.149745 -0.236531 0.604775 0.040921 -0.014537 -77268.000000 0 0 1
-18.266334 4.894485 25.313753 31.597484 -0.261801 0.641612 0.033168 -0.006957 -612709.000000 0 0 1
-18.141834 6.430485 25.399603 31.868747 -0.340639 0.648474 0.029633 -0.004717 1075760.000000 0 0 1
-16.834134 7.041485 25.257513 31.159469 -0.396170 0.625640 0.026596 -0.001008 843937.000000 0 0 1
-16.290834 6.911485 23.960193 29.786754 -0.401240 0.636147 0.017543 -0.004795 -346703.000000 0 0 1
-15.232434 7.982485 23.714703 29.293928 -0.482698 0.627423 0.007247 -0.003050 348336.000000 0 0 1
-13.981134 7.882485 24.378673 29.187760 -0.513372 0.582234 -0.000113 0.007390 -161384.000000 0 0 1
-13.015534 8.693485 23.804303 28.489044 -0.588878 0.581645 0.003869 0.003136 467717.000000 0 0 1
-11.594534 8.490485 24.436163 28.348679 -0.632066 0.531622 0.003292 0.017437 916131.000000 0 0 1
-10.536834 9.353485 24.008463 27.837364 -0.725974 0.530697 0.001333 0.014003 54049.500000 0 0 1
-9.414934 9.182485 24.822573 28.091264 -0.772900 0.487215 0.012798 0.001585 -357456.000000 0 0 1
-9.186934 10.349485 25.846443 29.318086 -0.844835 0.491583 0.013954 -0.009807 -892666.000000 0 0 1
-10.129834 10.388485 26.883163 30.548954 -0.798003 0.494928 0.006730 -0.003233 5642.510000 0 0 1
-10.133934 11.717485 27.461153 31.529525 -0.857741 0.513631 0.004893 -0.004612 -192784.000000 0 0 1
-10.893534 12.803485 26.647033 31.506549 -0.865823 0.562805 0.003039 -0.008956 674097.000000 0 0 1
-12.313234 12.602485 26.553133 31.867024 -0.797007 0.585840 0.017305 -0.007325 1008830.000000 0 0 1
-12.743634 11.928485 25.317503 30.751665 -0.752371 0.603615 0.013119 0.001220 952667.000000 0 0 1
-14.289334 11.770485 25.035123 31.136582 -0.689041 0.636734 0.016783 -0.005722 822967.000000 0 0 1
-14.898434 13.007485 24.784903 31.708822 -0.717740 0.673505 0.028221 -0.007386 485532.000000 0 0 1
-16.143734 12.966485 24.049443 31.735241 -0.676683 0.710839 0.033923 0.005167 917391.000000 0 0 1
-16.095334 12.522485 22.576073 30.422877 -0.661194 0.734635 0.021924 0.005395 -312846.000000 0 0 1
-16.056134 11.128485 22.379673 29.706773 -0.606079 0.717651 0.018467 -0.002638 -31389.400000 0 0 1
-15.923034 10.901485 20.980173 28.505315 -0.600340 0.743640 0.008088 0.001607 -253882.000000 0 0 1
-16.230334 9.425485 20.538073 27.822220 -0.526132 0.740414 -0.002118 -0.008421 1505440.000000 0 0 1
-17.587034 9.050485 20.916273 28.787245 -0.475268 0.757463 0.007757 -0.006015 982401.000000 0 0 1
-17.931534 7.826485 20.297273 28.191719 -0.411541 0.767033 0.003604 -0.010947 601730.000000 0 0 1
-19.372134 7.313485 20.646073 29.240843 -0.360983 0.786864 0.023614 -0.008098 604337.000000 0 0 1
-19.605334 7.278485 22.039473 30.382294 -0.355479 0.759174 0.016757 -0.009817 -319594.000000 0 0 1
-20.989934 7.103485 22.227973 31.386614 -0.326325 0.783852 0.011801 -0.013837 -138420.000000 0 0 1
-21.493334 7.647485 23.585513 32.813470 -0.341839 0.768757 0.043115 -0.009067 -627967.000000 0 0 1
-21.644534 9.072485 23.707013 33.358931 -0.396912 0.780354 0.044316 -0.018277 210831.000000 0 0 1
-20.498034 9.903485 23.527483 32.738217 -0.450071 0.768930 0.031198 -0.018951 457927.000000 0 0 1
-19.349434 9.729485 24.550663 32.738334 -0.465909 0.722877 0.043310 -0.023499 -195481.000000 0 0 1
-19.644334 10.276485 25.792483 34.011147 -0.481978 0.710012 0.061235 -0.015076 226820.000000 0 0 1
-18.780434 9.658485 26.742903 34.076001 -0.475010 0.668420 0.061763 -0.016593 438128.000000 0 0 1
-31.482074 -14.086898 20.555373 40.150778 0.420738 1.033338 0.065389 -0.015203 -157402.000000 0 0 1
-30.324684 -14.850998 20.296073 39.396309 0.455400 1.029582 0.060911 -0.012637 106847.000000 0 0 1
-30.582944 -15.797498 19.260873 39.444374 0.476797 1.060650 0.045334 0.001657 39603.700000 0 0 1
-30.292894 -15.261898 17.867573 38.338428 0.466692 1.085977 0.050234 0.005681 214595.000000 0 0 1
-31.329084 -14.414798 17.339273 38.599848 0.431229 1.104920 0.059677 -0.012242 179009.000000 0 0 1
-30.973284 -13.944598 16.083073 37.582727 0.423032 1.128586 0.063448 -0.014005 -715848.000000 0 0 1
-32.046834 -13.041498 15.412173 37.876316 0.386484 1.151730 0.057952 -0.014670 -940971.000000 0 0 1
-33.232804 -13.664898 15.073473 38.966117 0.390113 1.173599 0.073259 -0.015641 391909.000000 0 0 1
-34.189341 -13.952298 16.156173 40.306321 0.387460 1.158369 0.087271 -0.022186 428.014000 0 0 1
-34.897244 -12.679398 16.653573 40.693073 0.348505 1.149166 0.091185 -0.022487 -863588.000000 0 0 1
-35.759594 -13.014398 17.731673 41.982560 0.349040 1.134751 0.070546 -0.021702 9407.100000 0 0 1
-36.427584 -11.856598 18.185573 42.405929 0.314670 1.127582 0.074205 -0.018148 308774.000000 0 0 1
35.413138 -12.075898 19.330773 42.114088 -0.328635 1.093916 0.070915 -0.014459 -223485.000000 0 0 1
36.080968 -12.369098 20.522273 43.312752 -0.330260 1.077177 0.055522 -0.006318 -52622.300000 0 0 1
35.341678 -12.131498 21.706673 43.213274 -0.330661 1.044522 0.041224 -0.007488 -1061420.000000 0 0 1
36.126758 -12.473898 22.969173 44.590623 -0.332465 1.029658 0.033627 -0.011973 341003.000000 0 0 1
-35.526815 -11.761698 23.225373 44.044410 0.319708 1.015356 0.042208 -0.013924 783710.000000 0 0 1
-34.379065 -12.304798 22.569573 42.926842 0.343709 1.017178 0.037168 -0.018564 -487036.000000 0 0 1
-33.202854 -11.356998 22.515073 41.693397 0.329574 1.000341 0.043310 -0.016000 -478483.000000 0 0 1
-33.432874 -10.297998 21.617573 41.123293 0.298798 1.017285 0.067096 -0.019178 880768.000000 0 0 1
-32.201984 -9.556898 21.503773 39.883760 0.288500 1.001356 0.088167 -0.023776 415495.000000 0 0 1
-32.448524 -8.214798 20.771473 39.393447 0.247954 1.015397 0.093860 -0.013470 39841.900000 0 0 1
-32.690334 -8.179198 19.396373 38.881570 0.245169 1.048516 0.097992 -0.014021 555607.000000 0 0 1
-34.049548 -8.521598 19.147473 39.982684 0.245233 1.071402 0.086237 -0.012756 -63401.900000 0 0 1
-34.238909 -8.579298 17.615973 39.449077 0.245517 1.107891 0.098317 -0.016404 -693945.000000 0 0 1
-35.572426 -8.696198 17.236573 40.473705 0.239762 1.130872 0.047347 -0.017505 -503122.000000 0 0 1
-35.761805 -8.679198 15.857773 40.071238 0.238091 1.163923 0.071215 -0.010476 139313.000000 0 0 1
35.609008 -8.758998 15.460473 39.796328 -0.241189 1.171804 0.070978 -0.017594 72457.700000 0 0 1
35.009498 -10.000698 15.647373 39.629776 -0.278246 1.164904 0.064350 -0.003576 396401.000000 0 0 1
33.590658 -9.911298 15.506973 38.301858 -0.286920 1.153968 0.046327 -0.010138 447995.000000 0 0 1
32.866568 -11.229698 15.627673 38.085976 -0.329240 1.147985 0.042166 -0.003905 -137016.000000 0 0 1
32.656978 -11.701198 16.946973 38.608239 -0.344055 1.116370 0.032624 -0.010902 -498746.000000 0 0 1
31.419398 -12.335998 17.005773 37.796186 -0.374131 1.104105 0.042023 -0.014470 -635837.000000 0 0 1
31.153308 -12.877398 18.406573 38.407784 -0.391967 1.071007 0.033979 -0.016650 -242184.000000 0 0 1
32.013978 -13.898098 18.837173 39.659690 -0.409575 1.075866 0.049541 -0.013375 -279347.000000 0 0 1
32.236308 -13.810898 20.223673 40.483545 -0.404770 1.047714 0.043948 -0.012037 -284052.000000 0 0 1
33.139528 -14.911598 20.812573 41.877765 -0.422824 1.050677 0.036093 -0.003431 48105.000000 0 0 1
33.278678 -14.821198 22.183173 42.652450 -0.418994 1.023838 0.039865 -0.013404 -223040.000000 0 0 1
33.815548 -16.047898 22.662773 43.756457 -0.443099 1.026367 0.038300 0.000550 377684.000000 0 0 1
34.318978 -16.126598 24.165893 44.964984 -0.439282 1.003400 0.049282 -0.004567 118387.000000 0 0 1
35.509558 -15.456798 24.456443 45.803481 -0.410550 1.007539 0.039372 0.002488 -275637.000000 0 0 1
35.839938 -15.412098 25.829023 46.788592 -0.406120 0.985991 0.031021 0.000095 -649518.000000 0 0 1
-35.955215 -14.456898 26.278053 46.822168 0.382299 0.974924 0.024402 -0.006122 -119691.000000 0 0 1
-34.648696 -14.837698 25.841523 45.699821 0.404605 0.969803 0.004414 -0.004686 475696.000000 0 0 1
-33.684844 -13.829998 26.083593 44.791644 0.389585 0.949202 0.017162 -0.014747 1159650.000000 0 0 1
-32.202754 -14.296198 25.804713 43.672438 0.417806 0.938660 0.012388 -0.008705 84696.500000 0 0 1
-31.877924 -14.550898 24.456923 42.732560 0.428211 0.961458 0.022070 -0.007604 1607900.000000 0 0 1
-30.467284 -14.914798 24.284553 41.718654 0.455241 0.949484 0.026076 -0.012267 1689330.000000 0 0 1
-30.044104 -16.290598 24.841823 42.251011 0.496853 0.942264 0.028051 -0.007985 -835777.000000 0 0 1
-30.201454 -16.395098 26.273523 43.257659 0.497343 0.918047 0.023543 -0.010784 -216940.000000 0 0 1
-30.148664 -17.738998 26.684683 43.996435 0.531835 0.919121 0.029179 -0.017343 -176184.000000 0 0 1
-29.720514 -17.811198 28.160503 44.649318 0.539897 0.888336 0.037071 -0.023442 -578189.000000 0 0 1
-28.432744 -17.323498 28.308603 43.702420 0.547215 0.866158 0.039212 -0.023720 -640721.000000 0 0 1
-27.766094 -17.809798 29.500123 44.253837 0.570322 0.841143 0.064044 -0.028482 361089.000000 0 0 1
-26.558574 -16.914498 29.820403 43.367205 0.567093 0.812583 0.055202 -0.026685 -267529.000000 0 0 1
-26.924864 -15.716798 30.480543 43.600797 0.528369 0.796683 0.069683 -0.036562 127029.000000 0 0 1
-25.991224 -14.712798 30.109983 42.410154 0.515096 0.781339 0.050927 -0.032849 -123177.000000 0 0 1
-26.075434 -13.484198 31.049213 42.729445 0.477252 0.757368 0.061931 -0.021820 198170.000000 0 0 1
-25.270574 -13.625298 32.225143 43.159129 0.494495 0.727771 0.063171 -0.020381 367639.000000 0 0 1
-25.274984 -12.391298 32.897436 43.296770 0.455825 0.707771 0.064955 -0.014818 -337713.000000 0 0 1
-24.562834 -12.397098 -34.088312 43.806779 0.467408 2.462514 0.061333 -0.012819 1214740.000000 0 0 1
-23.124834 -12.542898 -34.007317 42.995114 0.496989 2.483169 0.034051 -0.014298 1284930.000000 0 0 1
-22.693334 -13.881698 34.051055 43.210684 0.548984 0.663204 0.027129 -0.012106 -508693.000000 0 0 1
-22.620834 -14.824198 -33.115087 42.755912 0.580116 2.456744 0.027288 -0.009891 -328794.000000 0 0 1
-21.578434 -14.474298 -32.222097 41.393208 0.590842 2.462972 0.008660 -0.004515 78536.100000 0 0 1
-21.435934 -15.288998 -31.115367 40.760506 0.619558 2.439311 0.027282 -0.004410 -106973.000000 0 0 1
-20.149234 -15.097098 -30.289347 39.387289 0.643030 2.448092 0.026033 -0.000042 -30110.300000 0 0 1
-20.096634 -13.814898 -29.573927 38.332014 0.602235 2.452024 0.018829 -0.002255 239500.000000 0 0 1
-20.670234 -13.906898 -28.264537 37.676842 0.592236 2.419136 0.027605 0.000378 -96305.300000 0 0 1
-20.268234 -12.742698 -27.347607 36.346517 0.561258 2.422515 0.031680 -0.001657 199926.000000 0 0 1
-18.901434 -12.725698 -26.948227 35.290431 0.592558 2.439687 0.020364 -0.000389 356353.000000 0 0 1
-18.620334 -11.633298 -26.147597 34.143042 0.558429 2.443120 0.029966 -0.009067 186573.000000 0 0 1
-17.247834 -11.708198 -25.446597 32.895273 0.596370 2.455242 0.028443 -0.010391 -469254.000000 0 0 1
-17.265034 -12.605898 -24.354727 32.405907 0.630669 2.421208 0.035877 -0.011571 696068.000000 0 0 1
-16.053534 -12.803998 -23.581727 31.269093 0.673264 2.425162 0.026542 -0.014634 463395.000000 0 0 1
-14.917934 -13.590898 -24.221127 31.526501 0.738884 2.446943 0.016540 -0.002210 -944801.000000 0 0 1
-14.226334 -12.868098 -25.179367 31.654021 0.735310 2.490555 0.040135 -0.014033 3685.290000 0 0 1
-13.470534 -13.707398 -26.075557 32.392634 0.794113 2.506445 0.053594 -0.010302 525706.000000 0 0 1
-12.437034 -12.989198 -27.010967 32.449830 0.807111 2.554206 0.060045 -0.009978 351446.000000 0 0 1
-13.101634 -12.086998 -27.892027 33.101564 0.745138 2.572926 0.067261 -0.020113 -70864.000000 0 0 1
-12.248634 -11.340898 -28.727327 33.225056 0.746937 2.615207 0.080102 -0.037876 -167317.000000 0 0 1
-13.036934 -10.366398 -29.659417 34.016245 0.671780 2.629905 0.062882 -0.030769 -232548.000000 0 0 1
-12.323734 -9.518198 -30.506707 34.250981 0.657650 2.669638 0.060433 -0.027783 -513008.000000 0 0 1
-11.735034 -10.193598 -31.583787 35.201649 0.715220 2.684240 0.077852 -0.021392 -327340.000000 0 0 1
-10.934934 -9.206498 -32.399427 35.412643 0.699793 2.726084 0.056624 -0.019034 467025.000000 0 0 1
-9.640934 -8.871598 -31.881427 34.468511 0.743865 2.751683 0.042947 -0.016295 360710.000000 0 0 1
-9.037734 -7.746398 -32.412027 34.528638 0.708612 2.789636 0.026607 -0.018759 -675956.000000 0 0 1
-7.525534 -7.660198 -32.226217 33.968241 0.794266 2.819946 0.047159 -0.016185 -519538.000000 0 0 1
-7.009334 -7.594998 -30.898697 32.581348 0.825479 2.818807 0.030116 -0.016746 -270360.000000 0 0 1
-7.379834 -6.497998 -30.072217 31.638966 0.721941 2.825574 0.022810 -0.013334 -602445.000000 0 0 1
-7.001834 -5.077498 -30.582787 31.782284 0.627418 2.865981 0.027849 -0.022889 -132891.000000 0 0 1
-5.601734 -4.961098 -30.547177 31.450309 0.724822 2.901365 0.038618 -0.021925 -308003.000000 0 0 1
-5.144334 -3.675098 -30.912537 31.552424 0.620323 2.939855 0.046809 -0.028661 -406742.000000 0 0 1
-3.715034 -3.411198 -30.479337 30.893814 0.742788 2.977603 0.051849 -0.022303 -1722540.000000 0 0 1
-2.718234 -4.265298 -30.913597 31.324624 1.003408 2.979418 0.042584 -0.024521 -202439.000000 0 0 1
-1.425134 -3.966098 -30.423917 30.714422 1.225835 3.003947 0.056678 -0.027776 415463.000000 0 0 1
-0.738934 -2.696098 -30.974667 31.100563 1.303290 3.051584 0.063757 -0.028517 -251938.000000 0 0 1
0.512166 -2.274998 -30.390797 30.480133 -1.349360 3.065011 0.070974 -0.028325 989713.000000 0 0 1
0.881366 -0.963698 -30.964017 30.991546 -0.829991 3.099441 0.055048 -0.026385 125192.000000 0 0 1
1.186566 0.064202 -29.886037 29.909652 0.054054 3.101852 0.052998 -0.025115 -139048.000000 0 0 1
0.076966 0.536702 -29.150537 29.155579 1.428361 3.122995 0.054534 -0.017552 -526938.000000 0 0 1
0.214266 1.826602 -28.715207 28.774043 1.454027 3.077633 0.063166 -0.017648 -910609.000000 0 0 1
-1.053134 2.435802 -28.179177 28.303856 -1.162712 3.047697 0.048152 -0.007367 -664190.000000 0 0 1
-1.951634 2.798402 -29.233447 29.431860 -0.961811 3.025412 0.050578 -0.018285 -50226.500000 0 0 1
-2.967734 3.621202 -28.701347 29.080713 -0.884251 2.979891 0.074051 -0.013305 307595.000000 0 0 1
-4.144334 3.938502 -29.676307 30.222020 -0.759938 2.951270 0.088284 -0.019333 139709.000000 0 0 1
-3.730534 4.793802 -30.710357 31.305327 -0.909491 2.946319 0.096716 -0.016431 250267.000000 0 0 1
-4.729334 5.127202 -31.686597 32.445265 -0.825742 2.924914 0.108160 -0.013889 26715.100000 0 0 1
-4.161134 5.739302 -33.004507 33.757253 -0.943472 2.930017 0.111829 -0.012420 -100083.000000 0 0 1
-3.804434 4.901602 -34.072070 34.632433 -0.910761 2.961459 0.122323 -0.022300 23122.900000 0 0 1
-2.810934 3.919802 -33.930947 34.272079 -0.948678 3.000382 0.114134 -0.025068 -506297.000000 0 0 1
-2.397734 3.286602 33.134161 33.382982 -0.940514 0.122170 0.099079 -0.029868 -688457.000000 0 0 1
-3.326534 2.396602 32.621790 32.878423 -0.624319 0.125026 0.099202 -0.035013 -314324.000000 0 0 1
-2.937134 1.602802 31.437953 31.615512 -0.499538 0.106033 0.106806 -0.032085 45032.900000 0 0 1
-2.602334 2.392602 30.111593 30.318389 -0.743434 0.116864 0.105525 -0.031701 -58933.800000 0 0 1
-3.749134 3.011602 29.586913 29.975175 -0.676737 0.161126 0.089064 -0.033006 -288313.000000 0 0 1
-3.490034 4.154402 28.794863 29.301595 -0.872089 0.186246 0.089210 -0.033487 -240751.000000 0 0 1
-4.767134 4.967702 28.575363 29.393111 -0.805998 0.236436 0.082795 -0.023000 -184772.000000 0 0 1
-4.800634 5.952702 27.556393 28.597823 -0.892127 0.270701 0.072187 -0.013969 47173.200000 0 0 1
-6.043534 6.656202 27.553123 28.982820 -0.833603 0.315405 0.059569 -0.009906 104060.000000 0 0 1
-6.090534 7.425802 26.192113 27.897381 -0.883868 0.351453 0.056943 -0.010765 68975.400000 0 0 1
-5.364734 8.657202 26.244373 28.151281 -1.016029 0.370180 0.068724 -0.021462 115852.000000 0 0 1
-5.427634 9.316402 25.017033 27.241631 -1.043277 0.406935 0.058987 -0.017502 -257774.000000 0 0 1
-4.509834 10.522902 25.056633 27.548228 -1.165903 0.428584 0.049570 -0.014807 -1080560.000000 0 0 1
-4.858134 11.320402 23.992613 26.970325 -1.165417 0.474343 0.062953 -0.016858 304098.000000 0 0 1
-4.328534 12.641702 24.120623 27.574504 -1.240907 0.505890 0.058792 -0.008570 1492610.000000 0 0 1
-2.731034 12.823102 24.126983 27.459093 -1.360954 0.497765 0.070304 -0.006072 1365450.000000 0 0 1
-2.073134 12.277802 25.301953 28.199842 -1.403522 0.457324 0.085126 -0.007951 -183354.000000 0 0 1
-2.313934 12.912202 26.571213 29.632897 -1.393473 0.458586 0.079233 -0.007840 -710403.000000 0 0 1
-1.421434 12.530202 27.750023 30.480981 -1.457839 0.426536 0.075612 -0.007700 513796.000000 0 0 1
-0.048134 12.909502 27.637453 30.503874 -1.567068 0.436987 0.082800 -0.001967 148849.000000 0 0 1
0.660566 12.495102 28.783543 31.385605 1.517979 0.410068 0.075130 -0.006552 246649.000000 0 0 1
2.193466 12.576402 28.577523 31.299392 1.398122 0.420126 0.066118 -0.002094 309424.000000 0 0 1
2.736666 13.881002 28.681433 31.981184 1.376141 0.458263 0.069207 0.000594 2280770.000000 0 0 1
4.210466 13.884402 28.514963 31.993870 1.276359 0.470673 0.071915 0.001400 2469260.000000 0 0 1
4.908466 15.195902 28.888463 33.008359 1.258363 0.504976 0.075755 -0.000367 -333906.000000 0 0 1
4.738266 15.473102 30.276963 34.330198 1.273637 0.490847 0.074786 0.005686 154131.000000 0 0 1
3.734266 16.440302 30.529873 34.875513 1.347445 0.504543 0.051289 0.009185 -15292.100000 0 0 1
3.847766 17.865102 29.893653 35.037089 1.358658 0.548706 0.060397 0.012565 -147623.000000 0 0 1
4.896666 18.618702 30.480233 36.051047 1.313623 0.563344 0.068062 0.012445 105562.000000 0 0 1
5.215466 19.685302 29.585473 35.916742 1.311805 0.602849 0.051371 0.010743 863481.000000 0 0 1
6.392066 20.621302 30.089493 37.033419 1.270214 0.622376 0.061597 0.003721 746691.000000 0 0 1
5.953366 21.371502 31.213193 38.294217 1.299118 0.617914 0.044882 -0.008242 279783.000000 0 0 1
6.987166 22.190602 31.764193 39.372671 1.265753 0.632153 0.029514 -0.008680 -498158.000000 0 0 1
7.111866 23.547302 31.027973 39.595317 1.277483 0.670313 0.028724 0.003504 -265606.000000 0 0 1
7.682266 23.514702 29.748133 38.689919 1.255027 0.693699 0.010452 0.011581 166230.000000 0 0 1
7.733766 24.794202 29.157193 39.047477 1.268441 0.727692 0.011795 0.011373 -44481.500000 0 0 1
8.346166 24.779102 27.753793 38.130504 1.245909 0.755596 0.026559 0.008582 -382741.000000 0 0 1
7.539666 24.174502 26.794253 36.867127 1.268472 0.757176 0.026153 0.008965 140972.000000 0 0 1
8.103766 24.245102 25.498723 36.106521 1.248227 0.786668 0.045395 0.001500 -310879.000000 0 0 1
29.107548 2.061702 6.996973 30.007625 0.070712 1.335457 0.072069 -0.003219 11900.400000 0 0 1
29.349278 2.884302 8.097673 30.582211 0.097960 1.302817 0.063995 -0.007212 42872.100000 0 0 1
28.344448 2.825702 9.094273 29.901473 0.099363 1.261759 0.063327 -0.000760 -146144.000000 0 0 1
28.420678 3.999402 10.128373 30.435408 0.139804 1.231544 0.045663 -0.004694 -148760.000000 0 0 1
28.145608 5.265702 9.601373 30.200815 0.184950 1.247264 0.045806 -0.004640 -403960.000000 0 0 1
29.233058 5.971702 9.080373 31.187915 0.201507 1.275367 0.059576 -0.022202 -529462.000000 0 0 1
28.993728 7.477502 8.767173 31.199561 0.252401 1.285957 0.063668 -0.023789 -54920.300000 0 0 1
28.127118 7.721602 7.660873 30.157037 0.267925 1.313949 0.068171 -0.026757 -88987.500000 0 0 1
28.090288 9.061702 7.214673 30.384703 0.312052 1.331062 0.076242 -0.032270 -523052.000000 0 0 1
27.122688 9.366802 6.088373 29.333350 0.332526 1.361718 0.080029 -0.025409 -1475370.000000 0 0 1
25.897688 9.735002 6.584773 28.439756 0.359562 1.337142 0.065163 -0.018147 -1132190.000000 0 0 1
24.968988 9.638402 5.512173 27.326419 0.368392 1.367687 0.083326 -0.029700 -111308.000000 0 0 1
23.570688 10.198502 5.799473 26.329084 0.408355 1.348706 0.037372 -0.019442 -188202.000000 0 0 1
23.514688 11.589302 5.765373 26.841982 0.457914 1.354320 0.041370 -0.010900 173616.000000 0 0 1
22.167688 11.947402 5.986973 25.884177 0.494324 1.337384 0.038695 -0.010138 33038.700000 0 0 1
22.081988 13.400502 6.540473 26.645176 0.545443 1.322796 0.039652 -0.004682 -174887.000000 0 0 1
22.110988 14.317802 5.495373 26.909001 0.574646 1.365129 0.049325 -0.004985 298412.000000 0 0 1
22.015688 15.612602 6.061273 27.661939 0.616846 1.349884 0.078660 -0.019077 -124505.000000 0 0 1
21.949788 16.736202 5.011273 28.053636 0.651438 1.391201 0.083148 -0.024138 -578884.000000 0 0 1
20.721788 16.678402 4.358473 26.954737 0.677705 1.408387 0.098138 -0.019350 -186527.000000 0 0 1
20.631088 17.804202 3.498673 27.474936 0.711981 1.443109 0.096186 -0.019519 220885.000000 0 0 1
19.193888 17.881102 2.915573 26.393933 0.750004 1.460107 0.092838 -0.009157 659269.000000 0 0 1
18.187188 18.164002 3.911673 26.000114 0.784760 1.419775 0.088048 -0.017336 -110556.000000 0 0 1
16.930888 18.106002 3.321873 25.010340 0.818925 1.437583 0.079023 -0.020297 -629409.000000 0 0 1
15.971088 19.053302 4.102573 25.197918 0.873174 1.407254 0.077729 -0.028106 -195277.000000 0 0 1
14.612488 18.956202 3.748973 24.226374 0.914081 1.415424 0.076202 -0.028630 -1182.530000 0 1 0
13.903888 20.080402 4.253473 24.791786 0.965182 1.398375 0.062735 -0.024749 668833.000000 0 1 0
12.360688 20.011802 4.020973 23.862670 1.017485 1.401484 0.048428 -0.016433 922594.000000 0 1 0
11.615988 19.158902 4.930573 22.941343 1.025759 1.354186 0.033276 -0.020844 -634661.000000 0 1 0
10.284788 19.139402 4.568073 22.202721 1.077708 1.363573 0.026937 -0.008607 -758893.000000 0 1 0
9.337388 18.586002 5.651173 21.553701 1.105240 1.305505 0.014547 -0.011515 -679027.000000 0 1 0
9.165988 19.446402 6.784873 22.543566 1.130333 1.265090 0.025607 -0.014114 15524.500000 0 1 0
8.789788 18.758502 7.975873 22.198115 1.132602 1.203274 0.032439 -0.012998 287048.000000 0 1 0
7.690688 19.402802 8.916673 22.696309 1.193423 1.167047 0.027287 -0.017595 2697760.000000 0 1 0
6.385388 19.750902 8.303673 22.356705 1.258106 1.190261 0.026808 -0.018751 1713050.000000 0 1 0
6.322288 20.883602 7.489973 23.069370 1.276828 1.240132 0.024614 -0.014638 -800070.000000 0 1 0
5.019588 21.206502 6.768573 22.819412 1.338374 1.269650 0.014215 0.001677 -485076.000000 0 1 0
3.857988 21.695602 7.357173 23.231685 1.394812 1.248562 0.010758 0.007482 -168281.000000 0 1 0
3.967188 23.054802 7.906773 24.693714 1.400389 1.244862 0.023304 0.000391 -353425.000000 0 1 0
4.056988 24.298702 6.931973 25.591762 1.405359 1.296502 0.021454 -0.006712 529307.000000 0 0 1
2.868588 24.378102 6.131973 25.300627 1.453664 1.325994 0.020472 -0.006969 698192.000000 0 0 1
3.003788 25.431102 5.221973 26.134894 1.453226 1.369634 0.030693 -0.005386 658889.000000 0 0 1
1.672388 25.627802 4.408073 26.057863 1.505632 1.400814 0.028209 -0.006724 270341.000000 0 0 1
0.639788 26.240002 5.108473 26.740297 1.546419 1.378575 0.038208 -0.014606 -244935.000000 0 0 1
-0.478812 26.462502 4.258873 26.807298 -1.552704 1.411250 0.033087 -0.009693 261278.000000 0 0 1
-1.666812 27.229102 4.900173 27.716672 -1.509658 1.393067 0.039872 -0.016901 71934.300000 0 0 1
-2.712112 27.393902 3.971173 27.812796 -1.472114 1.427524 0.070161 -0.025967 -31905.600000 0 0 1
-3.828512 27.932602 4.675473 28.578800 -1.434583 1.406458 0.066394 -0.034146 84864.600000 0 0 1
-4.895812 28.560002 3.758773 29.219361 -1.401024 1.441799 0.073439 -0.042574 42043.300000 0 0 1
-4.379812 29.638202 2.985573 30.108461 -1.424082 1.471473 0.067409 -0.038423 61536.300000 0 0 1
-4.939612 29.604302 1.700773 30.061721 -1.405465 1.514190 0.073058 -0.034295 -386205.000000 0 0 1
-4.264112 30.532002 0.743173 30.837284 -1.432033 1.546694 0.062283 -0.030208 -390100.000000 0 0 1
-4.102512 31.923502 0.913073 32.198979 -1.442986 1.542435 0.062049 -0.025746 999699.000000 0 0 1
-3.163112 32.304202 1.993473 32.519850 -1.473191 1.509458 0.061717 -0.033411 563270.000000 0 0 1
-2.448712 33.649702 1.784573 33.785845 -1.498154 1.517952 0.057244 -0.027281 -239424.000000 0 0 1
-1.616812 33.781802 0.629673 33.826331 -1.522972 1.552180 0.034833 -0.020587 1097030.000000 0 0 1
-0.553112 -33.588515 0.614373 33.598687 1.554331 1.552510 0.037741 -0.014936 628924.000000 0 0 1
0.646388 -34.003215 1.441573 34.039897 -1.551789 1.528434 0.030950 -0.008265 -1410090.000000 0 0 1
0.458188 -33.881815 2.858173 34.005242 -1.557274 1.486646 0.031490 -0.015195 1533760.000000 0 0 1
1.663988 -34.127015 3.683073 34.365492 -1.522076 1.463417 0.019970 -0.010685 1580280.000000 0 0 1
1.271488 -33.977815 5.144973 34.388652 -1.533393 1.420620 0.027792 -0.021082 325497.000000 0 0 1
0.264688 33.568802 5.709973 34.051994 1.562912 1.402316 0.037619 -0.036190 91800.100000 0 0 1
-0.113612 33.951302 7.063473 34.678472 -1.567450 1.365676 0.046730 -0.039647 414994.000000 0 0 1
0.989388 33.666902 8.137473 34.650507 1.541417 1.333738 0.040067 -0.029162 376898.000000 0 0 1
1.396588 32.306702 8.273773 33.378567 1.527594 1.320308 0.041620 -0.034134 535464.000000 0 0 1
2.430288 32.180002 9.271573 33.577088 1.495418 1.291033 0.052521 -0.029345 308597.000000 0 0 1
2.811388 30.701402 9.516273 32.265142 1.479479 1.271404 0.046219 -0.029840 106425.000000 0 0 1
1.807388 29.955902 10.176673 31.688915 1.510534 1.243860 0.054000 -0.034088 428051.000000 0 0 1
2.273688 28.632302 10.166273 30.468532 1.491553 1.230608 0.068564 -0.033476 39440.000000 0 0 1
1.820188 27.712802 11.323273 29.992148 1.505210 1.183657 0.041816 -0.029558 -270596.000000 0 0 1
2.445088 28.032602 12.570473 30.819182 1.483794 1.150667 0.053452 -0.020651 -37726.100000 0 0 1
2.190088 27.101602 13.592573 30.398213 1.490161 1.107219 0.047032 -0.013525 1604780.000000 0 0 1
0.643888 26.816002 14.000573 30.257703 1.546790 1.089745 0.032792 -0.017083 1760670.000000 0 0 1
0.109988 27.896402 14.724873 31.544305 1.566854 1.085128 0.041218 -0.019535 -86637.700000 0 0 1
-0.251912 29.055602 13.928273 32.222480 -1.562127 1.123806 0.053719 -0.021223 -586923.000000 0 0 1
-0.930912 30.188702 14.715873 33.597339 -1.539970 1.117416 0.039521 -0.017525 -281336.000000 0 0 1
-2.166312 29.881902 15.280273 33.631944 -1.498427 1.099167 0.028094 -0.011257 -462830.000000 0 0 1
-2.840212 31.063802 15.726873 34.933667 -1.479618 1.103815 0.014162 -0.009997 -183204.000000 0 0 1
-4.206612 30.699902 16.321673 35.022515 -1.434621 1.085994 0.001476 0.004668 186070.000000 0 0 1
-5.080212 29.989602 15.428073 34.105867 -1.402990 1.101388 0.004611 -0.003779 -540856.000000 0 0 1
-6.364212 29.919802 15.919173 34.483587 -1.361211 1.090948 0.008064 0.007381 -1126590.000000 0 0 1
-7.357812 29.164702 15.016673 33.618710 -1.323668 1.107750 0.007292 -0.004997 -764277.000000 0 0 1
-8.528112 28.903602 15.701373 33.980582 -1.283884 1.090470 0.003609 0.000599 -1344770.000000 0 0 1
-9.456212 28.291502 14.884873 33.337493 -1.248228 1.107957 0.008856 -0.003143 173962.000000 0 0 1
-10.710312 27.811702 15.706273 33.688107 -1.203200 1.085776 0.007250 -0.000948 439340.000000 0 0 1
-11.464812 28.852802 16.369273 35.098136 -1.192572 1.085596 0.011621 -0.010359 583182.000000 0 0 1
-11.116212 29.057702 17.700173 35.794082 -1.205417 1.053537 0.022247 -0.009313 -406917.000000 0 0 1
-11.879112 30.297502 18.189273 37.281383 -1.197134 1.061124 0.033024 -0.014802 -440458.000000 0 0 1
-13.185912 29.979302 18.582073 37.655282 -1.156429 1.054712 0.030345 -0.011832 -208091.000000 0 0 1
-13.878112 31.198102 18.827273 38.992175 -1.152243 1.066893 0.048934 -0.021285 -168781.000000 0 0 1
-15.022112 30.978902 19.821973 39.727406 -1.119290 1.048410 0.049384 -0.022937 -391810.000000 0 0 1
-14.619212 30.782102 21.132873 40.098098 -1.127409 1.015695 0.041584 -0.021752 611276.000000 0 0 1
-15.720112 30.352202 21.971773 40.634183 -1.092913 0.999502 0.024983 -0.016469 497816.000000 0 0 1
-15.394612 30.219802 23.470473 41.244316 -1.099640 0.965435 0.029283 -0.011270 -423687.000000 0 0 1
-14.306812 29.342202 23.711773 40.347216 -1.117130 0.942592 0.017035 -0.011017 724573.000000 0 0 1
-13.786212 29.196702 25.064973 40.874930 -1.129648 0.910677 0.033573 -0.010228 233121.000000 0 0 1
-13.165912 30.483702 25.689073 41.982446 -1.163096 0.912335 0.032000 -0.006253 -657110.000000 0 0 1
-14.157012 31.339802 26.170173 43.214374 -1.146508 0.920290 0.035620 -0.006066 150622.000000 0 0 1
-13.602812 32.520202 26.726673 44.237032 -1.174624 0.922073 0.042075 -0.004924 422503.000000 0 0 1
-14.711512 33.538602 27.217373 45.629505 -1.157426 0.931680 0.063671 -0.010587 389615.000000 0 0 1
-15.410312 33.203202 28.397673 46.328805 -1.136261 0.910996 0.023571 -0.014524 327172.000000 0 0 1
-14.715612 33.435802 29.648073 47.047957 -1.156193 0.889028 0.048225 -0.005205 15052.600000 0 0 1
-15.299912 32.589502 30.784273 47.369129 -1.131867 0.863369 0.023011 -0.009068 -293740.000000 0 0 1
-16.624412 32.919302 31.087973 48.233946 -1.103153 0.870395 0.023261 0.000037 -572958.000000 0 0 1
-17.005712 32.373402 32.349073 48.823088 -1.087115 0.846542 0.016837 0.007328 -1574520.000000 0 0 1
-18.428312 32.645902 32.610873 49.687288 -1.056896 0.854863 0.019074 0.005108 -1775550.000000 0 0 1
-18.682912 33.954902 32.945173 50.866206 -1.067779 0.866257 0.036071 0.003844 -476363.000000 0 0 1
-20.051412 34.125702 33.191473 51.655556 -1.039563 0.872970 0.022715 0.004654 -487573.000000 0 0 1
-20.502512 -32.750515 33.355173 51.044263 1.011463 0.858655 0.030283 0.015313 -386582.000000 0 0 1
-19.942712 -32.146915 -33.925727 50.814279 1.015539 2.301833 0.031276 0.015165 10368.900000 0 0 1
-20.728012 -32.282615 -32.721027 50.423044 1.000009 2.276974 0.027554 0.010667 135151.000000 0 0 1
-20.269512 -31.514615 -31.492827 48.947138 0.999232 2.269734 0.039490 0.006418 -222355.000000 0 0 1
-20.538212 -30.128215 -31.622427 48.264950 0.972462 2.285223 0.054264 0.007325 -16226.900000 0 0 1
-20.092612 -29.429815 -30.467927 46.884131 0.971755 2.278191 0.048033 0.002766 -2659.030000 0 0 1
-20.265112 -27.884415 -30.559227 46.066059 0.942339 2.296121 0.059402 -0.011001 602132.000000 0 0 1
-21.598212 -27.489115 -30.235227 46.220160 0.904836 2.283863 0.057198 -0.011621 290589.000000 0 0 1
-21.713012 -26.102815 -30.197727 45.439131 0.876948 2.297722 0.063434 -0.011887 673033.000000 0 0 1
-23.073612 -25.756015 -29.502527 45.455066 0.840277 2.277129 0.071802 -0.015328 653382.000000 0 0 1
-23.024812 -26.044515 -28.144927 44.728019 0.846860 2.251379 0.061576 -0.015575 340174.000000 0 0 1
-22.391112 -24.985115 -27.375427 43.301639 0.840097 2.255190 0.062685 -0.017062 -85426.700000 0 0 1
-22.215312 -25.367815 -25.896127 42.516533 0.851554 2.225701 0.053590 -0.010359 119931.000000 0 0 1
-23.394312 -25.389415 -25.098627 42.683221 0.826272 2.199406 0.050862 -0.011540 103228.000000 0 0 1
-23.206412 -25.874415 -23.785127 42.115973 0.839704 2.170930 0.045800 -0.005064 -638887.000000 0 0 1
-24.470612 -25.776315 -22.914927 42.288570 0.811378 2.143457 0.039970 -0.003746 212472.000000 0 0 1
-25.609812 -26.576815 -23.174627 43.580419 0.803926 2.131482 0.038208 0.000090 37446.000000 0 0 1
-25.444912 -27.991615 -23.220027 44.386301 0.833021 2.121322 0.042816 -0.002504 -848291.000000 0 0 1
-26.787712 -28.717115 -23.506127 45.768901 0.820145 2.110152 0.019424 0.002746 566791.000000 0 0 1
-27.720512 -28.637415 -22.457627 45.747933 0.801666 2.083918 0.015327 0.011258 114007.000000 0 0 1
-28.750412 -27.657415 -22.640027 45.870357 0.766024 2.086981 0.016197 0.009109 298727.000000 0 0 1
-29.264612 -27.180515 -21.226427 45.230069 0.748492 2.059293 0.013218 0.003650 -3138.640000 0 0 1
-29.933612 -28.158815 -20.483027 45.918345 0.754856 2.033171 0.007163 0.015698 -68754.900000 0 0 1
-30.382912 -27.636715 -19.258827 45.363111 0.738101 2.009259 0.005494 0.016413 -1256480.000000 0 0 1
-31.443912 -28.523515 -18.574827 46.339343 0.736737 1.983234 0.005202 0.014628 112769.000000 0 0 1
-32.793212 -28.439615 -19.033427 47.397024 0.714419 1.984032 0.008950 0.012469 685182.000000 0 0 1
-33.407312 -27.159615 -18.978727 47.051943 0.682608 1.985979 0.006252 0.010195 -1033690.000000 0 0 1
-33.878412 -26.676915 -17.568327 46.562332 0.667030 1.957684 0.016974 0.000140 -337723.000000 0 0 1
-32.886512 -25.959715 -16.821227 45.148457 0.668227 1.952580 0.015883 0.009905 489227.000000 0 0 1
-33.324712 -25.481415 -15.554327 44.741212 0.652805 1.925861 0.023229 0.005091 -105918.000000 0 0 1
-33.352612 -26.377415 -14.289327 44.859220 0.669146 1.894982 0.024259 0.006170 -400336.000000 0 0 1
-34.128112 -27.503515 -14.361127 46.123892 0.678322 1.887420 0.029423 0.002302 -289163.000000 0 0 1
-34.146212 -28.065215 -13.082627 46.095285 0.687960 1.858569 0.016695 -0.002282 -388699.000000 0 0 1
-34.864012 -29.392315 -12.899427 47.389902 0.700449 1.846473 0.030072 -0.002161 -363378.000000 0 0 1
-34.404612 -30.463515 -13.677327 47.945515 0.724717 1.860082 0.023558 0.004620 144361.000000 0 0 1
-35.011712 -31.646015 -13.252127 49.019477 0.734949 1.844547 0.024341 0.000013 -96692.100000 0 0 1
-34.486512 -32.800515 -14.167827 49.658037 0.760347 1.860124 0.022417 0.013565 -213003.000000 0 0 1
-33.133912 -33.152715 -13.995627 48.916626 0.785682 1.860963 0.027219 0.011360 -97066.300000 0 0 1
-32.765612 -34.029915 -15.052927 49.580350 0.804324 1.879272 0.043584 -0.004552 -406978.000000 0 0 1
-31.277012 33.991302 -15.100427 48.597150 -0.826961 1.886754 0.040859 0.002482 -155075.000000 0 0 1
-30.973812 33.122602 -16.165527 48.143619 -0.818910 1.913226 0.044659 0.003038 -934223.000000 0 0 1
-29.610512 32.835702 -16.092227 47.052370 -0.837000 1.919848 0.044217 0.003746 -537227.000000 0 0 1
9.574466 20.042502 -9.419927 24.126900 1.125141 1.971898 0.052890 -0.022120 -851545.000000 0 1 0
8.179666 20.028902 -9.407627 23.591679 1.183075 1.980970 0.048846 -0.017660 -520189.000000 0 1 0
7.556466 20.076502 -10.673127 23.960003 1.210813 2.032480 0.052885 -0.021153 118021.000000 0 1 0
7.621666 18.819702 -11.571127 23.370108 1.186001 2.088775 0.046552 -0.008820 62064.900000 0 1 0
8.906366 18.405202 -12.040727 23.728757 1.120108 2.102998 0.065252 -0.016650 374562.000000 0 1 0
8.779066 17.191802 -12.707327 23.110738 1.098662 2.152975 0.059555 -0.025901 -149446.000000 0 1 0
10.078766 16.899302 -13.471327 23.846270 1.033027 2.171137 0.073956 -0.018456 155812.000000 0 1 0
9.910666 15.639202 -14.102427 23.274114 1.005961 2.221728 0.072947 -0.028738 217218.000000 0 1 0
11.008066 15.375302 -14.957627 24.110331 0.949441 2.240027 0.090683 -0.030268 -86145.100000 0 1 0
10.892366 13.942002 -15.600727 23.588255 0.907585 2.293449 0.082204 -0.033982 -187620.000000 0 1 0
11.037766 12.855902 -14.660927 22.406456 0.861345 2.284076 0.082086 -0.033124 -188813.000000 0 1 0
12.293966 12.591302 -14.118127 22.561117 0.797346 2.246918 0.105982 -0.032613 207284.000000 0 1 0
13.386666 11.790402 -14.976627 23.291968 0.722081 2.269199 0.106769 -0.030245 805097.000000 0 1 0
13.996266 12.704202 -15.927827 24.718169 0.737045 2.271005 0.087415 -0.020303 781880.000000 0 1 0
14.905366 11.993502 -16.785027 25.450956 0.677566 2.290956 0.074668 -0.022940 190718.000000 0 0 1
15.480966 12.682202 -17.994427 26.912785 0.686347 2.303148 0.046280 -0.014172 -118263.000000 0 0 1
16.479766 13.629902 -17.694127 27.756784 0.691030 2.262007 0.027307 -0.007388 -385602.000000 0 0 1
17.195966 13.928602 -18.832327 29.057938 0.680804 2.275878 0.012925 -0.001907 -264365.000000 0 0 1
18.403466 14.850402 -18.501627 30.025526 0.678955 2.234701 0.008778 0.005533 -272053.000000 0 0 1
18.074966 16.111502 -17.919927 30.123225 0.728027 2.207922 0.014865 -0.000634 33053.300000 0 0 1
17.495566 16.991802 -18.823827 30.808321 0.770792 2.228117 0.013594 0.002118 -264661.000000 0 0 1
17.353566 18.363502 -18.118327 31.090807 0.813667 2.192911 0.027187 -0.000629 685990.000000 0 0 1
18.518666 19.209802 -18.149927 32.270379 0.803715 2.168122 0.019623 0.003982 794885.000000 0 0 1
18.157366 20.463002 -17.562727 32.509595 0.845027 2.141509 0.019741 0.007724 315540.000000 0 0 1
19.183466 21.606002 -17.869627 33.972758 0.844720 2.124685 0.032483 -0.000554 223742.000000 0 0 1
20.417666 21.672102 -17.217927 34.395030 0.815193 2.095081 0.023175 0.001909 -394751.000000 0 0 1
20.250466 22.341302 -15.977527 34.124720 0.834449 2.058060 0.028027 0.002196 -520305.000000 0 0 1
21.515966 22.789902 -15.234327 34.848259 0.814143 2.023237 0.020997 -0.001366 -698926.000000 0 0 1
21.993066 21.975702 -14.185727 34.173986 0.785003 1.998852 0.028369 -0.001813 -241563.000000 0 0 1
22.912966 22.631102 -13.333627 34.856225 0.779209 1.963332 0.042163 -0.006082 309927.000000 0 0 1
24.387866 22.571002 -13.788827 35.977075 0.746727 1.964127 0.050297 -0.008610 -453100.000000 0 0 1
24.734566 23.163902 -14.989427 37.054663 0.752618 1.987252 0.054624 -0.003863 1205550.000000 0 0 1
26.169066 23.356102 -15.133527 38.201455 0.728660 1.978117 0.064828 0.001321 1268810.000000 0 0 1
26.544366 23.779102 -16.550327 39.293287 0.730504 2.005564 0.066272 0.000637 -363507.000000 0 0 1
26.865566 22.615402 -17.330727 39.160812 0.699714 2.029240 0.070936 -0.013387 285860.000000 0 0 1
26.930666 22.953202 -18.733027 40.037939 0.705832 2.057689 0.062345 -0.001061 -822177.000000 0 0 1
27.520466 21.851102 -19.690827 40.281204 0.671068 2.081549 0.064804 -0.013772 1128980.000000 0 0 1
28.952266 21.872702 -19.852627 41.361523 0.646996 2.071426 0.073189 -0.008274 600402.000000 0 0 1
29.333066 21.211302 -20.996427 41.847319 0.626074 2.096404 0.085988 -0.025773 -1270360.000000 0 0 1
30.815366 21.194302 -21.205527 42.993716 0.602480 2.086588 0.108294 -0.035615 -1309280.000000 0 0 1
31.231966 22.423102 -21.825227 44.210539 0.622674 2.087096 0.087578 -0.007958 -629829.000000 0 0 1
32.594366 22.685902 -21.768727 45.287088 0.608041 2.072230 0.103660 -0.019326 -554146.000000 0 0 1
33.029466 24.118902 -22.236727 46.552541 0.630724 2.068796 0.082552 -0.010789 -86797.400000 0 0 1
33.045166 24.381802 -23.612627 47.370998 0.635668 2.092620 0.082148 -0.017614 430168.000000 0 0 1
31.776166 24.435002 -24.244527 46.846464 0.655533 2.114760 0.089140 -0.026646 170516.000000 0 0 1
32.068166 24.723602 -25.786427 48.005871 0.656788 2.137853 0.082650 -0.025969 -163694.000000 0 0 1
31.991466 26.148402 -26.078297 48.859701 0.685234 2.133811 0.071376 -0.017334 -195715.000000 0 0 1
30.709366 26.736702 -26.256167 48.448970 0.716353 2.143534 0.063916 -0.011766 375014.000000 0 0 1
30.140866 26.411702 -27.668507 48.699036 0.719552 2.175056 0.064973 -0.008259 -270923.000000 0 0 1
29.670566 25.088602 -27.763977 47.755826 0.701918 2.191212 0.068842 -0.022764 -202625.000000 0 0 1
29.306566 24.876802 -29.100067 48.213525 0.703825 2.218763 0.070520 -0.021552 -92468.300000 0 0 1
28.462466 23.580802 -29.248857 47.134508 0.691872 2.240228 0.081680 -0.024546 -593084.000000 0 0 1
27.153166 23.738702 -28.819287 46.166782 0.718406 2.244958 0.070074 -0.021178 -954975.000000 0 0 1
26.421566 22.606802 -29.197617 45.405589 0.707747 2.269258 0.085870 -0.029574 -179919.000000 0 0 1
24.951666 22.638002 -28.753187 44.292331 0.736819 2.277287 0.070733 -0.022252 -151177.000000 0 0 1
25.012366 22.475102 -27.368657 43.356569 0.732019 2.253955 0.039297 -0.009940 808418.000000 0 0 1
23.694666 22.508802 -26.813737 42.273631 0.759738 2.257886 0.038117 -0.017481 175140.000000 0 0 1
23.747466 22.734602 -25.276047 41.469059 0.763611 2.226246 0.045449 -0.017512 -334142.000000 0 0 1
24.137066 21.546502 -24.621927 40.658197 0.728752 2.221295 0.031237 -0.015031 335479.000000 0 0 1
24.582366 21.854302 -23.279527 40.296894 0.726718 2.186705 0.034518 -0.018380 -92365.400000 0 0 1
25.037866 20.647302 -22.446327 39.459390 0.689588 2.175899 0.041268 -0.017329 661350.000000 0 0 1
26.199666 20.029202 -23.037727 40.228452 0.652706 2.180558 0.049630 -0.020438 536125.000000 0 0 1
26.568266 18.872402 -22.333827 39.507470 0.617629 2.171601 0.076320 -0.029825 253539.000000 0 0 1
27.729366 18.057302 -22.999427 40.298357 0.577217 2.178189 0.096447 -0.041503 636622.000000 0 0 1
29.018266 18.388202 -22.487127 41.059185 0.564814 2.150380 0.124967 -0.054568 -19081.900000 0 0 1
29.953466 17.810802 -23.364727 41.956469 0.536451 2.161421 0.114130 -0.050248 1295820.000000 0 0 1
31.428166 17.584102 -22.809527 42.628685 0.510109 2.135392 0.116860 -0.045527 1874120.000000 0 0 1
32.209266 18.756502 -22.482027 43.527977 0.527327 2.113550 0.111897 -0.046392 -680602.000000 0 0 1
33.513566 18.459702 -22.161427 44.215931 0.503467 2.095792 0.112221 -0.036938 -644957.000000 0 0 1
34.157966 19.409002 -21.083527 44.586894 0.516719 2.063334 0.097762 -0.041706 34183.400000 0 0 1
33.624166 19.293502 -19.777727 43.519907 0.520931 2.042554 0.107180 -0.034285 123982.000000 0 0 1
34.084666 20.385102 -18.986627 44.020551 0.539001 2.016744 0.074122 -0.016766 -402866.000000 0 0 1
33.409766 20.489802 -17.664327 42.989219 0.550133 1.994239 0.077402 -0.017935 -521114.000000 0 0 1
33.465966 19.258002 -16.890727 42.144255 0.522173 1.983168 0.082645 -0.030232 406598.000000 0 0 1
33.000966 19.448402 -15.553527 41.342670 0.532536 1.956499 0.070677 -0.022811 -279883.000000 0 0 1
33.376566 18.306402 -14.601427 40.771574 0.501676 1.937058 0.063978 -0.006550 298732.000000 0 0 1
34.790666 18.336802 -14.345427 41.861917 0.485061 1.920569 0.053622 -0.012996 799668.000000 0 0 1
35.182466 17.257702 -13.499727 41.447278 0.456035 1.902557 0.049251 0.000120 57912.500000 0 0 1
35.033766 17.557002 -12.000527 40.983237 0.464563 1.867966 0.043509 -0.009080 745956.000000 0 0 1
36.153266 18.388602 -11.550327 42.173563 0.470527 1.848217 0.045281 -0.012113 1248520.000000 0 0 1
35.922566 18.880202 -10.249927 41.856347 0.483902 1.818196 0.054731 -0.011652 476293.000000 0 0 1
34.710666 19.872702 -10.045627 41.239171 0.519972 1.816866 0.059707 -0.016248 2122230.000000 0 0 1
33.381966 19.286602 -10.169127 39.871542 0.523902 1.828693 0.059988 -0.023369 1491000.000000 0 0 1
32.349766 20.266402 -9.938227 39.446201 0.559661 1.825485 0.054114 -0.013426 811755.000000 0 0 1
30.913866 19.857802 -10.343727 38.170566 0.570985 1.845215 0.050433 -0.016478 221173.000000 0 0 1
30.788366 19.672502 -11.724627 38.371835 0.568574 1.881315 0.061948 -0.020312 25872.500000 0 0 1
29.535166 19.122402 -12.102627 37.208412 0.574577 1.902089 0.058954 -0.021900 178974.000000 0 0 1
29.476566 18.374602 -13.460027 37.251393 0.557421 1.940490 0.089353 -0.023728 -132868.000000 0 0 1
29.987266 17.063302 -13.317727 36.983162 0.517327 1.939174 0.090258 -0.023118 213986.000000 0 0 1
29.691666 16.270702 -14.472427 36.820944 0.501298 1.974741 0.081511 -0.022309 -105275.000000 0 0 1
30.963466 15.804502 -15.216227 37.948018 0.471952 1.983378 0.080194 -0.022699 259923.000000 0 0 1
31.778566 14.900202 -14.443627 37.954073 0.438440 1.961193 0.065871 -0.024370 445735.000000 0 0 1
32.830966 14.328602 -15.203427 38.914334 0.411517 1.972177 0.068012 -0.019617 193632.000000 0 0 1
33.719366 13.353302 -14.381127 39.014397 0.377064 1.948310 0.050176 -0.028450 100114.000000 0 0 1
34.677066 13.945102 -13.493527 39.737137 0.382351 1.917256 0.056252 -0.009248 42788.500000 0 0 1
35.246766 12.927402 -12.787527 39.660725 0.351535 1.899084 0.054078 -0.010782 -393028.000000 0 0 1
36.225366 13.531202 -11.758527 40.418233 0.357480 1.865986 0.074476 -0.007966 -863297.000000 0 0 1
-35.450655 13.985302 -12.290027 40.042257 -0.375756 1.882758 0.041426 -0.008809 -758119.000000 0 0 1
-34.577955 14.255202 -11.195827 39.040905 -0.391033 1.861652 0.022117 -0.008363 4059.810000 0 0 1
-33.071455 14.523202 -11.448427 37.890777 -0.413791 1.877736 0.042188 -0.014042 553873.000000 0 0 1
-32.257655 13.452902 -11.980727 36.946917 -0.395114 1.901035 0.034883 -0.019094 558163.000000 0 0 1
-31.975855 12.429202 -11.042527 36.039947 -0.370732 1.882202 0.059511 -0.014892 -370069.000000 0 0 1
-30.845355 11.432902 -11.461727 34.835590 -0.354954 1.906066 0.070255 -0.015549 54390.800000 0 0 1
-31.175255 10.544002 -12.424327 35.177214 -0.326139 1.931778 0.052435 -0.010478 -41265.200000 0 0 1
-30.234255 9.500802 -12.533027 34.080085 -0.304469 1.947387 0.080027 -0.030012 -403355.000000 0 0 1
-30.022955 8.857002 -13.893227 34.246840 -0.286870 1.988518 0.078519 -0.029905 -368166.000000 0 0 1
-31.220255 8.445602 -14.506127 35.446583 -0.264193 1.992416 0.068975 -0.029342 245468.000000 0 0 1
-30.983255 7.714102 -15.698927 35.579851 -0.244015 2.027766 0.071675 -0.034394 -325485.000000 0 0 1
-32.361455 7.437102 -16.288627 36.985046 -0.225891 2.026853 0.061816 -0.036840 416244.000000 0 0 1
-33.268655 6.702602 -15.409927 37.271895 -0.198808 1.997032 0.082751 -0.042887 1309190.000000 0 0 1
-34.297555 5.971602 -16.121227 38.365040 -0.172384 2.004469 0.060714 -0.041644 440259.000000 0 0 1
-35.405455 5.447602 -15.198927 38.913108 -0.152666 1.972065 0.058589 -0.036460 -501763.000000 0 0 1
-36.324655 4.520002 -15.699127 39.829305 -0.123797 1.975950 0.057084 -0.025343 -158832.000000 0 0 1
35.658866 4.189402 -14.642527 38.775114 0.116949 1.958028 0.058119 -0.030340 285666.000000 0 0 1
34.590866 3.114202 -14.976127 37.822093 0.089788 1.977912 0.052857 -0.024076 -172204.000000 0 0 1
35.203666 1.885602 -15.273727 38.420572 0.053512 1.979631 0.062846 -0.030588 52375.100000 0 0 1
34.365566 0.713502 -15.352327 37.645653 0.020759 1.990852 0.063718 -0.013331 -120701.000000 0 0 1
33.858466 0.340202 -13.968427 36.628247 0.010047 1.962060 0.066329 -0.023859 -1013710.000000 0 0 1
34.892566 0.015202 -13.131327 37.281674 0.000436 1.930738 0.079822 -0.028857 -738834.000000 0 0 1
34.610966 -0.040798 -11.803427 36.568314 -0.001179 1.899459 0.071231 -0.023576 -778174.000000 0 0 1
34.418666 1.304302 -11.083627 36.182767 0.037877 1.882125 0.072273 -0.031204 -728856.000000 0 0 1
33.284966 2.039502 -11.362627 35.230070 0.061197 1.899194 0.067664 -0.023855 -280040.000000 0 0 1
33.442266 3.358602 -10.807927 35.305477 0.100094 1.881917 0.068195 -0.027189 501445.000000 0 0 1
32.232166 4.297802 -11.175527 34.384242 0.132557 1.901828 0.064307 -0.024662 349629.000000 0 0 1
32.258966 4.575902 -12.526527 34.906929 0.140909 1.937837 0.061258 -0.020262 479419.000000 0 0 1
31.225166 5.418802 -12.987427 34.249784 0.171828 1.959725 0.069939 -0.021397 -13707.900000 0 0 1
31.674966 6.106302 -14.319227 35.293494 0.190444 1.988561 0.039642 -0.015584 14135.400000 0 0 1
31.919066 5.241302 -15.437327 35.841444 0.162754 2.016077 0.034924 -0.009115 263530.000000 0 0 1
32.364166 5.925902 -16.629827 36.866065 0.181095 2.038780 0.034834 -0.004496 -386672.000000 0 0 1
31.428166 6.977102 -17.337327 36.564908 0.218459 2.064797 0.042214 -0.001661 199213.000000 0 0 1
30.284766 6.628202 -18.062327 35.879629 0.215465 2.098342 0.044653 -0.002595 382794.000000 0 0 1
29.197766 6.103102 -17.296127 34.480624 0.206059 2.096265 0.053911 -0.001402 -560475.000000 0 0 1
27.937766 5.986002 -18.159827 33.854547 0.211071 2.136971 0.063145 -0.009550 -488117.000000 0 0 1
27.720466 4.909102 -19.057027 33.995497 0.175276 2.165876 0.059985 -0.000100 702907.000000 0 0 1
26.506266 5.115702 -19.798127 33.477133 0.190656 2.203581 0.069880 -0.004617 757524.000000 0 0 1
25.900666 3.838102 -20.525827 33.269883 0.147115 2.235657 0.071626 0.003068 352689.000000 0 0 1
25.235966 2.971302 -19.565627 32.070179 0.117201 2.226968 0.075673 -0.005702 503509.000000 0 0 1
24.747866 1.789902 -20.161927 31.971299 0.072200 2.253156 0.067724 -0.006379 -315911.000000 0 0 1
23.848266 0.912802 -19.250327 30.661835 0.038257 2.249555 0.059589 -0.010666 511935.000000 0 0 1
22.525266 1.437802 -19.326527 29.714804 0.063744 2.278908 0.055037 -0.017372 531053.000000 0 0 1
21.567266 0.841902 -18.459327 28.400749 0.039016 2.278327 0.057677 -0.021349 490451.000000 0 0 1
20.216766 1.595102 -18.437427 27.408041 0.078737 2.308650 0.049497 -0.026649 -1129350.000000 0 0 1
19.435966 1.441702 -19.590027 27.633394 0.074041 2.358770 0.039947 -0.023322 198275.000000 0 0 1
18.203566 2.129302 -19.570227 26.812265 0.116443 2.388970 0.031511 -0.023467 485607.000000 0 0 1
17.104866 1.827402 -18.531627 25.285116 0.106431 2.393381 0.046376 -0.030236 -1460780.000000 0 0 1
17.442166 2.258402 -17.234127 24.624067 0.128763 2.346039 0.051985 -0.031412 -550701.000000 0 1 0
16.443566 2.203202 -16.274027 23.239814 0.133192 2.346565 0.041668 -0.017085 -405090.000000 0 1 0
15.377766 3.304902 -16.365727 22.698791 0.211694 2.376034 0.044910 -0.017236 -79155.300000 0 1 0
14.699266 3.450202 -17.614327 23.199932 0.230546 2.432942 0.039961 -0.011262 383335.000000 0 1 0
13.640666 4.384402 -17.436727 22.568346 0.310992 2.453752 0.042802 -0.010224 159359.000000 0 1 0
-20.049534 -21.894998 -17.594227 34.509877 0.829368 2.105785 0.042821 -0.001617 -102499.000000 0 0 1
-19.566234 -22.397298 -18.819727 35.194582 0.852761 2.134989 0.042573 -0.006728 593284.000000 0 0 1
-20.540534 -22.196498 -19.859327 36.179980 0.824127 2.151849 0.045709 -0.005810 290853.000000 0 0 1
-20.281134 -22.995198 -21.203427 37.278531 0.848031 2.175823 0.027788 0.005701 -176115.000000 0 0 1
-20.260634 -24.371198 -20.940927 37.986458 0.877238 2.154686 0.028237 0.002627 207801.000000 0 0 1
-19.986634 -25.133708 -22.104127 38.984116 0.898982 2.173660 0.028053 -0.002915 -256912.000000 0 0 1
-19.727634 -26.606168 -21.768227 39.634877 0.932778 2.152226 0.040909 0.007917 -222195.000000 0 0 1
-20.869434 -27.426698 -21.634627 40.691696 0.920345 2.131370 0.038504 0.016220 -78560.900000 0 0 1
-20.579634 -28.802618 -21.509627 41.421929 0.950401 2.116806 0.063496 -0.009736 -213744.000000 0 0 1
-21.908634 -29.564948 -21.631627 42.684912 0.933058 2.102236 0.056948 -0.009932 124701.000000 0 0 1
-22.597934 -29.413368 -22.885227 43.583787 0.915693 2.123612 0.042780 -0.009387 120740.000000 0 0 1
-21.972534 -29.933218 -24.078627 44.255735 0.937580 2.146088 0.042202 -0.011019 -400859.000000 0 0 1
-22.460434 -29.243658 -25.389667 44.769385 0.915846 2.173803 0.035740 -0.003496 763389.000000 0 0 1
-23.777534 -29.633328 -25.823237 45.938490 0.894599 2.167751 0.037507 -0.000362 834331.000000 0 0 1
-24.244134 -28.934378 -26.920317 46.364639 0.873369 2.190288 0.035203 0.001479 -82796.200000 0 0 1
-23.607234 -29.332488 -28.310447 47.108150 0.893126 2.215507 0.040782 -0.015465 -64906.000000 0 0 1
-24.135934 -30.540118 -28.887577 48.474057 0.901996 2.209231 0.037943 -0.006582 128306.000000 0 0 1
-23.658434 -30.670938 -30.180707 49.105021 0.913762 2.232695 0.054413 -0.006461 -360015.000000 0 0 1
-24.207934 -31.900548 -30.972597 50.625792 0.921651 2.229124 0.036331 -0.002051 30903.100000 0 0 1
-23.704934 -33.162048 -30.575247 50.955776 0.950192 2.214341 0.027527 -0.013355 -119263.000000 0 0 1
-24.518334 -34.150720 -31.142277 52.318848 0.948128 2.208361 0.033966 -0.012788 -233101.000000 0 0 1
-24.095634 32.765659 -30.927837 51.095196 -0.936709 2.220937 0.040032 -0.015582 492112.000000 0 0 1
-23.008434 32.407708 -31.796417 50.898523 -0.953412 2.245546 0.041221 -0.018147 331913.000000 0 0 1
-22.769534 31.028459 -31.737807 49.884921 -0.937726 2.260386 0.056130 -0.017292 533666.000000 0 0 1
-21.505034 30.466159 -32.489307 49.459159 -0.956144 2.287485 0.045690 -0.003412 580118.000000 0 0 1
-21.631634 30.405969 -33.912627 50.423375 -0.952442 2.308456 0.033349 0.004400 -317416.000000 0 0 1
-20.559134 29.697149 33.949461 49.569794 -0.965261 0.816355 0.029752 0.005169 -547912.000000 0 0 1
-20.694834 29.327389 32.401800 48.355439 -0.956289 0.836486 0.010655 0.006367 -144570.000000 0 0 1
-20.545634 30.435489 31.537353 48.405027 -0.977009 0.861196 0.013529 0.007642 243964.000000 0 0 1
-20.560234 30.073999 30.160273 47.294932 -0.971125 0.879280 0.017828 0.003406 -593885.000000 0 0 1
-20.205134 31.259319 29.296933 47.367739 -0.996976 0.903964 0.010807 -0.014182 -240491.000000 0 0 1
-21.224634 32.240199 29.199263 48.399508 -0.988589 0.923168 -0.008232 -0.006144 210416.000000 0 0 1
-20.717634 33.479264 28.795893 48.777914 -1.016653 0.939308 0.001910 -0.020197 102848.000000 0 0 1
-21.738734 -33.735558 29.005943 49.517725 0.998378 0.944968 0.022540 -0.022371 135772.000000 0 0 1
-22.018334 -33.447308 30.346953 50.244074 0.988609 0.922297 0.011444 -0.002165 -34138.000000 0 0 1
-23.005334 -32.420878 30.472323 50.089132 0.953667 0.916801 0.023655 -0.007377 -124067.000000 0 0 1
-22.652934 -30.938188 30.114663 48.756741 0.938785 0.905044 0.039286 -0.003598 -393860.000000 0 0 1
-22.564434 -30.686718 28.724513 47.706666 0.936759 0.924659 0.022079 -0.001423 -19800.000000 0 0 1
-22.447834 -29.289388 28.475013 46.611156 0.916872 0.913592 0.036176 -0.006666 398026.000000 0 0 1
-23.782434 -28.756118 27.868953 46.574639 0.879784 0.929329 0.028166 0.001343 631220.000000 0 0 1
-24.951834 -28.659778 28.682103 47.609242 0.854451 0.924231 0.034507 0.003494 10061.100000 0 0 1
-25.803804 -29.727378 28.735163 48.736669 0.855936 0.940232 0.018871 0.004910 -878164.000000 0 0 1
-26.917034 -29.590588 27.677333 48.643235 0.832676 0.965524 0.020268 0.011863 -645886.000000 0 0 1
-26.398124 -29.648508 26.329843 47.635655 0.843328 0.985155 0.016366 0.015752 -108226.000000 0 0 1
-27.375864 -29.870628 25.344233 47.791448 0.828950 1.011831 0.022436 0.013735 -202234.000000 0 0 1
-26.793014 -30.080688 23.893353 46.835944 0.843140 1.035437 0.023957 0.011172 -380427.000000 0 0 1
-26.199354 -28.910308 23.327753 45.457630 0.834551 1.031916 0.007193 0.008895 375480.000000 0 0 1
-25.634264 -28.978628 22.021173 44.517507 0.846559 1.053349 0.027398 0.006527 819807.000000 0 0 1
-24.330934 -29.867888 21.938173 44.332477 0.887205 1.053128 0.029514 -0.004067 -87508.000000 0 0 1
-24.595334 -31.239158 22.066873 45.472655 0.903833 1.064115 0.035435 -0.016029 387941.000000 0 0 1
-23.447734 -32.043418 21.808873 45.301256 0.939079 1.068524 0.042844 -0.005046 71398.800000 0 0 1
-22.678934 -32.568028 23.015673 45.877355 0.962520 1.045259 0.038006 -0.012534 -274176.000000 0 0 1
-22.085434 -31.536688 23.800263 45.263469 0.959863 1.017122 0.060628 -0.027570 72673.200000 0 0 1
-21.586834 -32.132858 24.973103 46.066993 0.979249 0.997857 0.052767 -0.037074 -462027.000000 0 0 1
-20.457634 -31.353628 25.646873 45.379807 0.992679 0.970169 0.048821 -0.016889 -677900.000000 0 0 1
-19.307834 -31.382518 24.808823 44.419957 1.019245 0.978212 0.057460 -0.024545 -24985.300000 0 0 1
-18.106734 -30.899318 25.323543 43.862324 1.040741 0.955327 0.076976 -0.029807 96053.100000 0 0 1
-17.453434 -31.628778 26.549823 44.831853 1.066556 0.936999 0.055642 -0.030798 -806532.000000 0 0 1
-18.129134 -31.337128 27.756553 45.619155 1.046321 0.916702 0.050102 -0.022909 485075.000000 0 0 1
-17.646434 -32.192468 28.834053 46.681412 1.069371 0.905010 0.057711 -0.019458 196856.000000 0 0 1
-18.214034 -31.665268 30.154643 47.368161 1.048808 0.880713 0.057611 -0.011956 104970.000000 0 0 1
-17.905634 -30.301868 30.214923 46.387029 1.037089 0.861413 0.072425 -0.011995 401116.000000 0 0 1
-18.435334 -29.686878 31.402803 46.982000 1.015084 0.838740 0.055975 0.001194 89305.200000 0 0 1
-18.121834 -28.187178 31.450073 45.956772 0.999421 0.817098 0.061201 -0.004964 -168208.000000 0 0 1
-18.900434 -27.389528 30.584133 45.197365 0.966772 0.827553 0.072082 -0.011192 128193.000000 0 0 1
-18.824434 -27.617728 29.148893 44.348125 0.972522 0.853600 0.086071 -0.004289 40189.400000 0 0 1
-17.437834 -27.315528 28.515783 43.166723 1.002629 0.849183 0.073246 -0.008329 270403.000000 0 0 1
-17.042534 -25.954688 28.290643 42.005407 0.989777 0.831863 0.060913 -0.010935 -87185.300000 0 0 1
-15.736034 -25.922918 27.782033 41.127385 1.025222 0.829138 0.050667 -0.014716 -151968.000000 0 0 1
-15.414734 -24.642698 26.996443 39.669692 1.011816 0.822310 0.054265 -0.005423 -39172.100000 0 0 1
-16.335334 -24.588898 25.895193 39.268538 0.984408 0.850724 0.077784 -0.019462 479828.000000 0 0 1
-16.155234 -23.349798 25.233023 37.985656 0.965542 0.844269 0.054659 -0.013930 150555.000000 0 0 1
-17.070334 -22.146498 25.634203 37.933837 0.914121 0.828800 0.055619 -0.019446 -162668.000000 0 0 1
-16.727534 -21.043398 24.865703 36.618822 0.899169 0.824340 0.044998 -0.014618 92033.200000 0 0 1
-17.344834 -19.909298 25.406213 36.642858 0.854127 0.804673 0.057141 -0.016322 -317716.000000 0 0 1
-17.009034 -18.719498 24.570903 35.262673 0.833236 0.799875 0.048089 -0.017758 713998.000000 0 0 1
-15.670734 -18.247998 24.775183 34.530726 0.861236 0.770615 0.051084 -0.016281 395460.000000 0 0 1
-15.399334 -17.266198 23.780413 33.177840 0.842487 0.771657 0.048314 -0.012321 -804767.000000 0 0 1
-14.076134 -16.563098 23.913333 32.315959 0.866390 0.737748 0.056207 -0.011975 -748015.000000 0 0 1
-12.943634 -17.409498 23.685533 32.119040 0.931480 0.741539 0.017489 -0.002196 490179.000000 0 0 1
-11.726534 -16.681898 23.687183 31.255079 0.958094 0.710759 0.012655 -0.011037 -333229.000000 0 0 1
-11.340834 -16.039998 22.332873 29.743121 0.955365 0.721435 0.015770 -0.004079 -427888.000000 0 0 1
-10.867634 -16.997998 21.368973 29.388270 1.001946 0.756670 0.043618 -0.001065 18706.000000 0 0 1
-9.530434 -17.397398 21.573873 29.307518 1.069638 0.743475 0.032897 -0.006793 -789141.000000 0 0 1
-9.173634 -18.537198 20.627473 29.210887 1.111255 0.786740 0.034612 -0.009048 -197779.000000 0 0 1
-8.869234 -18.239698 19.249373 27.962265 1.118201 0.811508 0.033179 -0.010383 164953.000000 0 0 1
-8.379134 -19.482198 18.655273 28.245090 1.164621 0.849341 0.036936 -0.016927 129687.000000 0 0 1
-8.123434 -19.327598 17.152773 27.088076 1.172911 0.885087 0.035071 -0.025174 -609876.000000 0 0 1
-7.169534 -18.398298 16.832973 25.947034 1.199214 0.864864 0.049880 -0.023289 -904120.000000 0 0 1
-7.126734 -18.103198 15.464573 24.852950 1.195756 0.899192 0.067132 -0.018329 -618835.000000 0 1 0
-6.008834 -17.157898 15.180173 23.684113 1.233936 0.875070 0.042536 -0.015458 -678956.000000 0 1 0
-6.198034 -15.902198 15.751973 23.225421 1.199149 0.825457 0.037798 -0.018028 511714.000000 0 1 0
-4.993834 -15.125998 15.610373 22.302868 1.251914 0.795501 0.017833 -0.000009 443558.000000 0 1 0
-5.095934 -13.841398 16.498173 22.130128 1.218030 0.729501 -0.007451 -0.004349 -236507.000000 0 1 0
-4.874434 -13.923998 17.918973 23.210502 1.234055 0.688783 0.008393 -0.007737 69944.600000 0 1 0
-5.568034 -14.850798 18.814473 24.607592 1.212086 0.700407 0.034568 -0.016895 -5393.120000 0 1 0
-6.955234 -14.341098 19.257973 24.998238 1.119232 0.691370 0.057454 -0.019192 -216939.000000 0 1 0
-6.883534 -13.229398 20.091173 25.021096 1.091024 0.638536 0.043947 -0.027277 -377280.000000 0 0 1
-8.047234 -12.912898 20.817573 25.785117 1.013497 0.631152 0.047763 -0.013469 -69271.100000 0 0 1
-7.846034 -11.967298 21.988973 26.235308 0.990479 0.576924 0.050918 -0.008897 -281273.000000 0 0 1
-7.498634 -10.649898 21.557973 25.187219 0.957321 0.543490 0.035503 -0.008273 206669.000000 0 0 1
-7.174534 -9.767998 22.648173 25.687107 0.937293 0.491355 0.037506 -0.015517 1163500.000000 0 0 1
-5.676734 -9.911198 23.161173 25.824350 1.050647 0.458147 0.045250 -0.015407 1077160.000000 0 0 1
-5.445734 -10.987498 24.032063 26.980014 1.110651 0.471835 0.059327 -0.015886 534463.000000 0 0 1
-4.079534 -11.080298 24.481043 27.179718 1.218019 0.449395 0.047018 -0.017649 601868.000000 0 0 1
-3.914034 -12.394298 25.251363 28.400169 1.264914 0.475362 0.049652 -0.019849 -492044.000000 0 0 1
-2.617034 -12.638898 25.729483 28.785359 1.366620 0.464961 0.035941 -0.018390 -146816.000000 0 0 1
-2.513734 -13.735498 26.675993 30.109655 1.389789 0.482233 0.033037 -0.027112 -32511.800000 0 0 1
-2.681034 -15.218698 26.124433 30.352639 1.396418 0.534159 0.043506 -0.031190 -275478.000000 0 0 1
-1.530734 -15.690198 25.497663 29.977596 1.473544 0.553752 0.044643 -0.027228 -319181.000000 0 0 1
-1.850434 -16.991498 25.040113 30.317361 1.462320 0.598941 0.066705 -0.021375 94456.300000 0 0 1
-0.581434 -17.915098 24.895403 30.676862 1.538353 0.624019 0.078251 -0.023906 879421.000000 0 0 1
-0.011134 -18.254798 26.152143 31.893139 1.570186 0.609398 0.070960 -0.022242 18043.400000 0 0 1
0.695866 -17.288098 26.889203 31.974862 -1.530567 0.571763 0.075768 -0.023210 -999350.000000 0 0 1
1.441366 -17.849998 28.121213 33.339205 -1.490222 0.567053 0.067407 -0.021282 -452528.000000 0 0 1
2.701866 -18.361298 27.682633 33.328149 -1.424695 0.590597 0.074764 -0.022669 606136.000000 0 0 1
3.604266 -18.551398 28.798213 34.445350 -1.378902 0.580743 0.057235 -0.022341 492273.000000 0 0 1
4.291066 -17.317898 29.395173 34.386029 -1.327906 0.545519 0.056968 -0.023403 -982050.000000 0 0 1
3.470566 -16.343098 30.010993 34.348237 -1.361548 0.507983 0.044203 -0.025663 -214198.000000 0 0 1
4.214066 -15.279098 30.509483 34.380776 -1.301681 0.479123 0.047372 -0.027173 -127623.000000 0 0 1
3.279766 -14.290298 31.255683 34.523719 -1.345193 0.438618 0.039415 -0.027799 47604.100000 0 0 1
2.708566 -14.927698 32.331012 35.713678 -1.391303 0.438749 0.039431 -0.030443 -373267.000000 0 0 1
1.620466 -14.250898 32.906372 35.896285 -1.457573 0.411037 0.033644 -0.024031 -210074.000000 0 0 1
0.910066 -14.970398 34.067108 37.222424 -1.510080 0.414716 0.029096 -0.021839 -246253.000000 0 0 1
1.689966 -15.157498 -33.194107 36.530186 -1.459761 2.710898 0.043571 -0.017595 -816266.000000 0 0 1
1.029666 -15.772798 -32.106907 35.786798 -1.505608 2.684120 0.044415 -0.018904 -59613.200000 0 0 1
1.772766 -15.828598 -30.736457 34.618161 -1.459263 2.663493 0.044141 -0.015495 90988.900000 0 0 1
1.101666 -16.620598 -29.764987 34.108832 -1.504610 2.631394 0.048341 -0.015464 -208711.000000 0 0 1
1.693966 -16.537898 -28.489807 32.985462 -1.468723 2.613377 0.047682 -0.014394 8796.760000 0 0 1
1.406866 -17.792098 -27.616437 32.881692 -1.491888 2.567845 0.076542 -0.019681 169388.000000 0 0 1
2.206066 -18.874898 -28.099297 33.921955 -1.454446 2.546955 0.068544 -0.019244 206204.000000 0 0 1
1.901466 -19.945198 -27.220417 33.799077 -1.475749 2.507078 0.112820 -0.030822 -778272.000000 0 0 1
2.628666 -21.278598 -27.542827 34.904097 -1.447883 2.480139 0.098330 -0.029508 -1884.460000 0 0 1
3.989866 -21.261698 -27.146537 34.711862 -1.385299 2.468751 0.071334 -0.028461 24341.400000 0 0 1
4.288766 -21.248998 -25.732617 33.646412 -1.371638 2.441520 0.087223 -0.029869 -442889.000000 0 0 1
5.757166 -21.694398 -25.426447 33.916016 -1.311400 2.418388 0.077253 -0.031480 426144.000000 0 0 1
6.062966 -23.045598 -25.715197 35.058958 -1.313540 2.394230 0.066220 -0.028703 -71677.900000 0 0 1
5.993566 -23.470898 -27.091937 36.342523 -1.320778 2.412023 0.047841 -0.019075 -858198.000000 0 0 1
5.283566 -24.786898 -27.186777 37.167557 -1.360780 2.391265 0.035567 -0.005741 -192638.000000 0 0 1
5.998066 -25.753178 -26.443097 37.395727 -1.341970 2.356207 0.041524 -0.002448 117232.000000 0 0 1
5.413466 -26.992998 -26.700947 38.351899 -1.372871 2.340899 0.036429 -0.002765 130893.000000 0 0 1
5.928166 -28.090388 -25.712167 38.539961 -1.362809 2.301181 0.036850 -0.009178 43126.200000 0 0 1
7.279666 -28.441398 -25.869777 39.129938 -1.320223 2.293113 0.042762 -0.010926 -406812.000000 0 0 1
7.538966 -29.493438 -24.981027 39.379572 -1.320540 2.257983 0.040759 -0.009513 410568.000000 0 0 1
9.010266 -29.980198 -25.185957 40.178721 -1.278844 2.248298 0.060509 -0.019269 417451.000000 0 0 1
9.144866 -30.328098 -26.527977 41.317741 -1.277935 2.267963 0.059349 -0.014155 329297.000000 0 0 1
10.498566 -30.644118 -26.833127 42.063031 -1.240732 2.262599 0.090426 -0.023327 436842.000000 0 0 1
10.748166 -30.505968 -28.369207 43.022658 -1.232047 2.290819 0.097305 -0.027136 183388.000000 0 0 1
9.937766 -31.368088 -29.176707 43.977226 -1.263989 2.296217 0.091792 -0.030906 259384.000000 0 0 1
10.186666 -31.145438 -30.506967 44.771437 -1.254695 2.320461 0.096076 -0.028852 74669.800000 0 0 1
-34.618766 -4.733398 -5.331427 35.345270 0.135887 1.722213 0.105013 -0.023415 -58827.000000 0 0 1
-34.449198 -3.913398 -4.180327 34.921870 0.113114 1.690789 0.096919 -0.032844 467929.000000 0 0 1
-33.721034 -2.713798 -4.425427 34.118283 0.080305 1.700871 0.103630 -0.030604 -103677.000000 0 0 1
-34.555060 -1.573698 -5.072027 34.960751 0.045510 1.716388 0.110385 -0.027959 -343614.000000 0 0 1
-35.455601 -0.915498 -4.230727 35.718858 0.025815 1.689520 0.080296 -0.025300 243208.000000 0 0 1
-36.027096 0.220302 -4.873927 36.355953 -0.006115 1.705263 0.077829 -0.029055 120358.000000 0 0 1
36.005728 1.145202 -3.911627 36.235683 0.031795 1.678957 0.077037 -0.021723 440285.000000 0 0 1
-36.088834 1.860802 -2.950727 36.257045 -0.051516 1.652270 0.070697 -0.018765 530073.000000 0 0 1
35.886008 2.773102 -2.314727 36.067348 0.077122 1.635018 0.081317 -0.022710 53181.900000 0 0 1
-36.316894 4.110802 -2.052927 36.606420 -0.112713 1.626907 0.073409 -0.026377 -211145.000000 0 0 1
-36.129004 4.883202 -3.249227 36.602022 -0.134346 1.659685 0.084898 -0.024140 585784.000000 0 0 1
-34.797862 4.849102 -3.774927 35.336313 -0.138459 1.677829 0.067458 -0.020053 88696.000000 0 0 1
-33.852324 5.992302 -3.393927 34.545712 -0.175198 1.669200 0.054517 -0.024397 -566780.000000 0 0 1
-33.427844 5.873402 -2.078927 34.003522 -0.173929 1.631973 0.058795 -0.033501 200563.000000 0 0 1
-33.167824 7.156402 -1.562627 33.967049 -0.212506 1.616817 0.077667 -0.041204 -85657.300000 0 0 1
-32.589644 7.155502 -0.093527 33.366073 -0.216134 1.573599 0.082426 -0.033918 1146610.000000 0 0 1
-31.143504 6.995302 -0.080827 31.919564 -0.220948 1.573329 0.094048 -0.034895 1516250.000000 0 0 1
-30.530534 7.318802 1.157773 31.416855 -0.235281 1.533936 0.099183 -0.038181 105981.000000 0 0 1
-30.279814 8.818502 1.461173 31.571635 -0.283395 1.524499 0.101802 -0.034595 -1148500.000000 0 0 1
-31.452334 9.542902 1.477173 32.901342 -0.294581 1.525884 0.095966 -0.031948 -777626.000000 0 0 1
-31.300544 10.924602 1.698073 33.195698 -0.335804 1.519621 0.105937 -0.018063 -96093.100000 0 0 1
-32.583704 11.724002 1.389473 34.656610 -0.345389 1.530693 0.114693 -0.024169 -698175.000000 0 0 1
-32.861014 11.710002 0.011173 34.885104 -0.342320 1.570476 0.106393 -0.018346 603964.000000 0 0 1
-33.953164 12.570702 -0.329727 36.207024 -0.354588 1.579903 0.108404 -0.022619 297624.000000 0 0 1
-35.376666 12.039202 -0.069027 37.369180 -0.328021 1.572644 0.141810 -0.036044 -600609.000000 0 0 1
-35.730436 10.945102 -0.873627 37.379440 -0.297249 1.594170 0.133054 -0.030138 156285.000000 0 0 1
35.784758 10.572902 -0.631327 37.319348 0.287285 1.587714 0.145632 -0.035695 215290.000000 0 0 1
35.192868 9.387202 -1.376327 36.449304 0.260667 1.608565 0.131785 -0.037290 66717.800000 0 0 1
34.656348 9.776302 -2.626127 36.104502 0.274948 1.643597 0.118053 -0.034160 253739.000000 0 0 1
34.168468 8.616202 -3.353027 35.397259 0.247018 1.665664 0.102827 -0.036805 20631.100000 0 0 1
33.530108 8.942602 -4.702827 35.019349 0.260637 1.705496 0.083209 -0.022655 39038.800000 0 0 1
32.180948 9.360202 -4.623927 33.832048 0.283052 1.707898 0.090934 -0.023976 169134.000000 0 0 1
31.767448 9.757002 -5.894627 33.750799 0.297993 1.746348 0.070302 -0.014478 -393291.000000 0 0 1
30.385998 10.417402 -6.002727 32.678186 0.330278 1.755538 0.084324 -0.010976 203423.000000 0 0 1
29.322628 9.481402 -5.689927 31.338295 0.312737 1.753374 0.073856 -0.007754 1351850.000000 0 0 1
28.101468 10.072702 -6.176527 30.484444 0.344174 1.774821 0.081419 -0.000757 533214.000000 0 0 1
26.949888 9.036502 -6.332827 29.121461 0.323526 1.790010 0.091730 0.002794 73223.200000 0 0 1
27.162388 8.189502 -7.408827 29.321562 0.292834 1.826240 0.083368 -0.004890 495908.000000 0 0 1
26.069688 7.291202 -7.490727 28.087386 0.272713 1.840757 0.093683 -0.008847 146288.000000 0 0 1
26.260588 6.311502 -8.686627 28.370954 0.235868 1.881974 0.092438 -0.016815 -290411.000000 0 0 1
27.373288 5.496702 -8.424127 29.162931 0.198170 1.863837 0.082232 -0.015890 343489.000000 0 0 1
27.415588 4.456402 -9.471327 29.345869 0.161141 1.899428 0.077758 -0.013551 -225515.000000 0 0 1
28.330028 3.275802 -9.054827 29.921752 0.115119 1.878233 0.075102 -0.012428 -1041170.000000 0 0 1
29.685468 3.506902 -9.167527 31.266099 0.117590 1.868379 0.085320 -0.014308 -390702.000000 0 0 1
30.547708 2.815802 -8.256227 31.768797 0.091917 1.833699 0.067899 -0.017716 148777.000000 0 0 1
30.612168 1.258302 -8.141927 31.701406 0.041081 1.830539 0.072018 -0.019513 -619804.000000 0 0 1
29.590018 0.642502 -7.370327 30.500880 0.021710 1.814855 0.093542 -0.022600 520124.000000 0 0 1
29.991298 -0.655198 -6.879327 30.777140 -0.021843 1.796221 0.093608 -0.025666 -42677.700000 0 0 1
29.922218 -1.759498 -7.935527 31.006573 -0.058735 1.829606 0.085852 -0.016494 -366782.000000 0 0 1
30.927738 -1.626198 -8.910227 32.226722 -0.052532 1.850932 0.085133 -0.016302 133648.000000 0 0 1
30.820528 -2.671098 -9.884727 32.476877 -0.086450 1.880065 0.074224 -0.019065 564684.000000 0 0 1
32.033268 -2.607698 -10.914727 33.942033 -0.081227 1.898183 0.071085 -0.012420 246218.000000 0 0 1
33.239158 -3.110798 -10.420727 34.972993 -0.093317 1.873356 0.075641 -0.016246 -416099.000000 0 0 1
33.784968 -3.908798 -11.400427 35.870217 -0.115184 1.894230 0.064725 -0.011855 388983.000000 0 0 1
35.274118 -4.354198 -11.175727 37.257473 -0.122818 1.875446 0.073774 -0.008274 492272.000000 0 0 1
35.373768 -5.443798 -10.283927 37.238388 -0.152696 1.850598 0.068487 -0.008090 949265.000000 0 0 1
-36.179774 -5.672998 -9.732827 37.893098 0.155534 1.830557 0.065477 -0.007943 521268.000000 0 0 1
-36.045774 -6.873398 -8.766827 37.727956 0.188423 1.805310 0.064080 -0.010786 -292665.000000 0 0 1
36.379888 -6.624798 -7.468927 37.724913 -0.180127 1.770097 0.067151 -0.011467 341608.000000 0 0 1
36.036418 -7.837098 -6.809427 37.502158 -0.214143 1.753383 0.069751 -0.013679 -287693.000000 0 0 1
35.678838 -7.673698 -5.305427 36.878350 -0.211850 1.715160 0.081556 -0.019560 -447634.000000 0 0 1
-36.126954 -7.571498 -4.363127 37.168821 0.206590 1.688454 0.082683 -0.019756 163260.000000 0 0 1
-36.116844 -8.550398 -3.295427 37.261180 0.232463 1.659353 0.098015 -0.024578 -668136.000000 0 0 1
-35.519502 -9.876298 -3.724127 37.054627 0.271202 1.671470 0.100056 -0.022213 -365832.000000 0 0 1
-36.335804 -10.506398 -4.691227 38.114074 0.281471 1.694193 0.082946 -0.021786 568968.000000 0 0 1
-35.591560 -11.459398 -5.495327 37.792533 0.311489 1.716721 0.078471 -0.020030 272453.000000 0 0 1
-36.413994 -12.049498 -6.656427 38.929133 0.319562 1.742629 0.071377 -0.019018 56250.500000 0 0 1
-36.385404 -11.161098 -7.723027 38.834429 0.297635 1.771002 0.075241 -0.014554 337800.000000 0 0 1
35.725718 -11.758298 -8.761627 38.618009 -0.317960 1.799669 0.077691 -0.015508 13391.100000 0 0 1
35.833188 -11.032598 -10.130727 38.837703 -0.298677 1.834697 0.053422 -0.013661 -267489.000000 0 0 1
35.062728 -9.841298 -10.294527 37.844727 -0.273636 1.846288 0.047276 -0.002099 422585.000000 0 0 1
35.194958 -9.328698 -11.609727 38.216429 -0.259100 1.879463 0.037384 -0.002230 -380365.000000 0 0 1
34.235988 -8.201298 -11.955027 37.179118 -0.235121 1.898165 0.043548 0.003306 -426428.000000 0 0 1
34.483908 -7.824198 -13.294927 37.777150 -0.223117 1.930429 0.044141 0.004493 942778.000000 0 0 1
33.447458 -7.064498 -13.930927 36.914906 -0.208153 1.957761 0.040026 0.004846 367740.000000 0 0 1
33.956978 -6.642598 -15.326627 37.843176 -0.193179 1.987779 0.030034 0.003635 49299.600000 0 0 1
34.962138 -5.668598 -15.388427 38.617195 -0.160737 1.980662 0.044669 -0.001338 384876.000000 0 0 1
34.419358 -4.374998 -15.335327 37.934220 -0.126431 1.986967 0.056086 0.000751 961352.000000 0 0 1
35.631138 -3.342798 -15.355427 38.942797 -0.093543 1.976110 0.059039 -0.008864 221004.000000 0 0 1
36.250928 -3.351698 -16.594927 40.009440 -0.092196 1.998492 0.056665 -0.006617 731876.000000 0 0 1
-35.280320 -2.781198 -16.472527 39.035627 0.078669 2.006432 0.073642 -0.007933 1011150.000000 0 0 1
-35.033052 -1.297498 -16.160127 38.602434 0.037019 2.002732 0.069802 -0.015352 -712017.000000 0 0 1
-35.230269 -0.394998 -17.240427 39.224485 0.011211 2.025874 0.063314 -0.003725 190769.000000 0 0 1
-34.947423 0.847502 -16.733527 38.756310 -0.024246 2.017242 0.067313 -0.012338 -483563.000000 0 0 1
-35.278019 2.026202 -17.610027 39.481099 -0.057372 2.033129 0.053926 -0.015336 -351689.000000 0 0 1
-34.415014 2.211202 -18.694127 39.226942 -0.064163 2.067538 0.051948 -0.006086 8452.030000 0 0 1
-34.694592 3.372702 -19.428727 39.906957 -0.096907 2.079277 0.044986 0.001898 -340517.000000 0 0 1
-33.960044 3.562502 -20.754827 39.959215 -0.104520 2.116945 0.050167 0.003978 -428421.000000 0 0 1
-32.572004 3.741702 -20.623327 38.733156 -0.114373 2.132284 0.053691 -0.003350 10969.500000 0 0 1
-32.007264 4.068402 -21.916527 39.004500 -0.126431 2.167474 0.034025 -0.004738 -1066630.000000 0 0 1
-30.620184 4.645702 -21.820027 37.885245 -0.150572 2.184563 0.069210 -0.014237 -646464.000000 0 0 1
-29.655914 3.652302 -21.465427 36.790992 -0.122539 2.193757 0.065034 -0.003024 -105631.000000 0 0 1
-28.379424 4.218902 -21.391227 35.787923 -0.147580 2.211453 0.066360 -0.005746 -1102360.000000 0 0 1
-27.325334 3.244202 -20.986927 34.607078 -0.118172 2.222365 0.090856 -0.001481 -849074.000000 0 0 1
-26.898304 3.382802 -19.678827 33.499527 -0.125106 2.198683 0.082641 0.001036 -46278.800000 0 0 1
-26.102664 2.319802 -19.209927 32.492335 -0.088639 2.203360 0.091441 -0.002383 -305310.000000 0 0 1
-25.390324 2.583802 -17.855927 31.147692 -0.101414 2.181283 0.087213 -0.007088 347574.000000 0 0 1
-24.190434 3.349102 -18.034227 30.358309 -0.137573 2.206875 0.081023 -0.004639 181179.000000 0 0 1
-23.546434 3.420902 -16.821227 29.139163 -0.144274 2.186180 0.095438 -0.010380 -560255.000000 0 0 1
-22.301734 4.291902 -16.872727 28.292696 -0.190123 2.209759 0.096742 -0.009411 475858.000000 0 0 1
-21.171134 3.803402 -17.630927 27.812450 -0.177754 2.257410 0.110761 -0.016898 955394.000000 0 0 1
-20.036634 4.662802 -17.630727 27.093375 -0.228644 2.279354 0.091777 -0.015352 -357859.000000 0 0 1
-18.839434 3.985602 -18.249727 26.530394 -0.208482 2.329360 0.093815 -0.021214 -727750.000000 0 0 1
-18.395634 2.946702 -17.343827 25.453698 -0.158835 2.320453 0.105340 -0.020106 87944.500000 0 0 1
-17.291034 2.158702 -17.741627 24.867754 -0.124203 2.365190 0.077659 -0.020289 -298792.000000 0 1 0
-17.304534 0.667102 -17.201727 24.408837 -0.038532 2.352844 0.081524 -0.022456 620818.000000 0 1 0
-18.284734 -0.202198 -17.815027 25.529347 0.011058 2.343153 0.072114 -0.024436 1774210.000000 0 0 1
-19.653634 0.040102 -17.378627 26.235160 -0.002040 2.294837 0.084443 -0.024987 1163000.000000 0 0 1
-20.613034 -1.112398 -17.833027 27.279139 0.053913 2.283291 0.070826 -0.027178 -51206.700000 0 0 1
-20.517134 -2.236998 -16.977027 26.724079 0.108602 2.259155 0.059481 -0.021186 403692.000000 0 0 1
-21.418434 -3.189898 -17.499827 27.841852 0.147846 2.250476 0.069517 -0.012450 -3732.900000 0 0 1
-21.734234 -4.295498 -16.514227 27.632371 0.195123 2.211351 0.086966 -0.018213 -251179.000000 0 0 1
-22.424734 -3.812098 -15.387327 27.462167 0.168386 2.165556 0.090189 -0.023398 155041.000000 0 0 1
-22.880234 -4.809398 -14.558227 27.542284 0.207183 2.127720 0.107124 -0.037510 -153611.000000 0 0 1
-23.213534 -4.409598 -13.114227 27.023983 0.187721 2.077481 0.110048 -0.036178 97276.300000 0 0 1
-24.241034 -3.430798 -12.990527 27.715553 0.140595 2.058625 0.102877 -0.031966 663295.000000 0 0 1
-24.329434 -2.944898 -11.645127 27.133057 0.120457 2.014388 0.113247 -0.038472 -303575.000000 0 0 1
-25.254514 -1.719198 -11.539027 27.818973 0.067970 1.998508 0.130388 -0.040613 -259966.000000 0 0 1
-25.245094 -1.166798 -10.243127 27.268990 0.046186 1.955876 0.125992 -0.043622 507658.000000 0 0 1
-26.058194 -0.021398 -10.068927 27.935877 0.000821 1.939525 0.132016 -0.044726 -279400.000000 0 0 1
-26.323694 0.265502 -8.564927 27.683304 -0.010086 1.885347 0.146639 -0.042320 -96325.500000 0 0 1
-25.119284 0.473602 -7.858227 26.324028 -0.018852 1.873937 0.131366 -0.036158 540217.000000 0 0 1
-25.355734 0.697802 -6.452427 26.173154 -0.027514 1.819893 0.126740 -0.038600 409693.000000 0 0 1
-24.072434 1.261902 -5.764827 24.785231 -0.052373 1.805537 0.087850 -0.025003 427064.000000 0 1 0
-24.019634 2.637202 -6.020627 24.902722 -0.109356 1.814982 0.124869 -0.025146 455971.000000 0 1 0
-22.677134 3.071002 -5.888627 23.629629 -0.134604 1.822656 0.112748 -0.006909 103402.000000 0 1 0
-22.552134 4.634602 -5.881127 23.762700 -0.202684 1.820889 0.126776 -0.018589 -261378.000000 0 1 0
-22.989734 5.270502 -4.686127 24.047158 -0.225360 1.766924 0.129414 -0.018996 569218.000000 0 1 0
-22.742334 6.641702 -4.865227 24.186698 -0.284139 1.773331 0.141508 -0.022710 -629917.000000 0 1 0
-23.211834 7.613502 -3.791627 24.721065 -0.316944 1.724781 0.133732 -0.020878 -709891.000000 0 1 0
-22.549334 7.571002 -2.567127 23.924520 -0.323926 1.678304 0.118737 -0.022971 315157.000000 0 1 0
-21.191434 7.949202 -2.519227 22.773080 -0.358871 1.681646 0.125589 -0.023784 -313158.000000 0 1 0
-20.814034 9.437502 -2.692627 23.011751 -0.425694 1.688076 0.112620 -0.017706 -558500.000000 0 1 0
-20.426734 9.694302 -4.041227 22.968728 -0.443113 1.747662 0.080022 -0.019849 385256.000000 0 1 0
-20.004834 11.040502 -4.094327 23.213133 -0.504294 1.748104 0.091240 -0.017671 -364162.000000 0 1 0
-19.710834 11.582102 -5.536427 23.522629 -0.531253 1.808391 0.075248 -0.021903 -675222.000000 0 1 0
-18.517434 11.131402 -6.096827 22.449382 -0.541251 1.845832 0.047567 -0.020299 -114420.000000 0 1 0
-18.401634 11.569702 -7.447427 22.976995 -0.561279 1.900883 0.054581 -0.015711 179209.000000 0 1 0
-17.039434 11.233902 -8.116327 21.964007 -0.582877 1.949298 0.038028 -0.011411 -423716.000000 0 1 0
-16.861934 9.844302 -8.481027 21.287623 -0.528436 1.980570 0.022695 -0.009957 773370.000000 0 1 0
-17.767934 9.251502 -9.448927 22.148859 -0.480059 2.011538 0.038651 -0.006284 47744.400000 0 1 0
-17.918334 9.889702 -10.857527 23.168055 -0.504325 2.058549 0.046141 -0.004220 200213.000000 0 1 0
-16.857634 9.528102 -11.741127 22.645499 -0.514446 2.115863 0.033963 -0.004644 360097.000000 0 1 0
-16.838434 10.292002 -12.915227 23.585191 -0.548629 2.150288 0.030660 -0.005678 83004.200000 0 1 0
-15.714534 9.981702 -13.944727 23.260188 -0.565893 2.213686 0.021373 0.000504 -142446.000000 0 1 0
-15.839634 8.807302 -14.724127 23.350856 -0.507461 2.253071 0.028932 -0.005152 24516.100000 0 1 0
-15.551834 7.640602 -13.995727 22.273722 -0.456663 2.250229 0.024288 -0.000818 -308147.000000 0 1 0
-15.662734 6.255102 -14.746427 22.403228 -0.379956 2.289259 0.039482 -0.006262 260709.000000 0 1 0
-14.558834 6.019502 -15.616327 22.182509 -0.392056 2.351800 0.043145 -0.012296 611617.000000 0 1 0
-14.649634 4.752002 -16.202827 22.354528 -0.313668 2.381558 0.047924 -0.020928 57346.500000 0 1 0
32.478378 -16.102098 28.354103 46.022578 -0.460265 0.907026 0.037588 0.005283 206305.000000 0 0 1
31.466708 -15.098898 28.520063 45.072435 -0.447388 0.885683 0.046533 -0.000326 74944.500000 0 0 1
30.477088 -15.355398 29.491443 45.104172 -0.466710 0.858132 0.051993 -0.002256 250989.000000 0 0 1
30.908338 -15.365098 31.009783 46.400627 -0.461340 0.838868 0.046811 -0.010677 -278.385000 0 0 1
31.424038 -14.095798 31.464693 46.649636 -0.421662 0.830523 0.037645 -0.013820 34261.000000 0 0 1
31.515478 -13.925098 32.877576 47.624245 -0.416055 0.808818 0.030084 -0.017162 -22613.200000 0 0 1
31.984478 -12.476498 33.373217 47.879447 -0.371925 0.799555 0.041326 -0.019449 168585.000000 0 0 1
31.833868 -12.342998 -33.648557 47.937148 -0.369886 2.348901 0.028455 -0.028176 68499.900000 0 0 1
32.165368 -11.020198 -33.269087 47.569821 -0.330077 2.345317 0.036427 -0.023230 -64083.500000 0 0 1
31.806958 -10.583498 -31.819207 46.218556 -0.321218 2.330147 0.040640 -0.023768 -948468.000000 0 0 1
30.460068 -10.637598 -31.530767 45.112787 -0.335990 2.344699 0.074350 -0.031769 -967802.000000 0 0 1
30.079898 -10.012098 -30.341457 43.882188 -0.321316 2.334263 0.062071 -0.030537 -1476680.000000 0 0 1
28.710908 -10.518398 -30.033837 42.860055 -0.351170 2.347233 0.061438 -0.010098 -1355930.000000 0 0 1
28.182348 -10.145798 -28.801337 41.553568 -0.345560 2.336596 0.050275 -0.012149 -140184.000000 0 0 1
27.248188 -11.091498 -28.368517 40.868788 -0.386573 2.338016 0.058766 -0.008033 -742503.000000 0 0 1
26.783388 -10.949898 -26.876407 39.491663 -0.388097 2.319322 0.051731 -0.004251 -1169850.000000 0 0 1
25.988088 -9.825198 -26.605567 38.467798 -0.361455 2.334543 0.048320 -0.007234 653925.000000 0 0 1
24.703088 -9.575998 -27.192317 37.965305 -0.369809 2.369197 0.052528 -0.008620 461813.000000 0 0 1
23.723888 -10.749998 -27.006167 37.519574 -0.425454 2.374294 0.047662 0.004141 -1504030.000000 0 0 1
23.983888 -11.796098 -27.899997 38.636572 -0.457094 2.377649 0.042349 -0.001696 -163781.000000 0 0 1
23.336288 -12.955898 -27.448917 38.286821 -0.506813 2.370183 0.031902 -0.012223 -19721.300000 0 0 1
24.026088 -14.183898 -28.051307 39.564020 -0.533297 2.358890 0.040649 0.000179 125069.000000 0 0 1
24.089288 -14.192798 -29.481417 40.631063 -0.532422 2.382685 0.045963 -0.013364 -242708.000000 0 0 1
25.121888 -14.949798 -30.035717 41.913602 -0.536802 2.369726 0.037195 -0.006257 -325887.000000 0 0 1
25.169388 -15.038798 -31.547477 43.068630 -0.538582 2.392773 0.057531 -0.021760 152348.000000 0 0 1
24.152188 -15.890398 -32.138757 43.228841 -0.581928 2.409020 0.072644 -0.023736 529844.000000 0 0 1
24.340988 -16.225598 -33.501637 44.475987 -0.587953 2.423789 0.086312 -0.027350 -83644.200000 0 0 1
24.418288 -15.059098 33.852777 44.373863 -0.552619 0.703011 0.060528 -0.026913 -3488.950000 0 0 1
23.170988 -14.413598 33.823611 43.458982 -0.556478 0.678861 0.070695 -0.027587 -5491.820000 0 0 1
23.293588 -13.416298 32.843493 42.441528 -0.522559 0.685895 0.060937 -0.024254 -849248.000000 0 0 1
22.380988 -12.236398 33.090695 41.780763 -0.500331 0.656705 0.080236 -0.032477 13284.000000 0 0 1
20.980888 -12.435898 33.114695 41.127025 -0.535053 0.634816 0.066570 -0.028285 268606.000000 0 0 1
20.463088 -12.614898 31.821613 39.880931 -0.552443 0.646967 0.061641 -0.012471 -2661800.000000 0 0 1
18.998188 -12.848098 31.705523 39.131125 -0.594629 0.626238 0.059684 -0.002747 -1477410.000000 0 0 1
18.394188 -11.588798 31.739963 38.471699 -0.562205 0.600557 0.058245 -0.006372 -1031170.000000 0 0 1
17.244588 -11.511598 32.480348 38.533955 -0.588613 0.568142 0.046244 -0.009146 -849889.000000 0 0 1
16.492788 -10.175398 32.590362 37.916783 -0.552797 0.536460 0.057580 -0.014401 -832000.000000 0 0 1
15.598488 -9.846198 31.566413 36.560892 -0.563065 0.528840 0.076549 -0.024667 528087.000000 0 0 1
14.740988 -8.717098 31.892353 36.199540 -0.534036 0.492792 0.088539 -0.019196 567490.000000 0 0 1
13.653888 -8.847898 32.965926 36.762293 -0.574977 0.458467 0.090760 -0.028600 -1274860.000000 0 0 1
12.895488 -10.021298 32.706176 36.556996 -0.660631 0.463121 0.087929 -0.030222 472700.000000 0 0 1
11.641188 -10.078698 33.371981 36.753048 -0.713584 0.432297 0.088864 -0.036160 992819.000000 0 0 1
10.450688 -9.234198 32.776650 35.620164 -0.723679 0.402279 0.091460 -0.032312 -72951.900000 0 0 1
10.675288 -7.809298 32.941113 35.497377 -0.631575 0.381822 0.093681 -0.026832 757888.000000 0 0 1
9.586988 -7.040398 32.390535 34.505424 -0.633423 0.351932 0.083500 -0.011986 520941.000000 0 0 1
9.908688 -5.587698 32.319553 34.263070 -0.513467 0.338431 0.072737 -0.009754 8896.950000 0 0 1
10.102188 -4.971798 33.585787 35.422846 -0.457348 0.323467 0.068715 -0.017425 233158.000000 0 0 1
10.647688 -3.693498 33.443097 35.291017 -0.333895 0.325041 0.059433 -0.014250 -156945.000000 0 0 1
10.600488 -2.794098 -33.690437 35.429125 -0.257720 2.827008 0.059961 -0.022915 300879.000000 0 0 1
9.280388 -2.342998 -33.397037 34.741580 -0.247300 2.862474 0.049846 -0.010151 312815.000000 0 0 1
9.143288 -1.836298 -32.040857 33.370470 -0.198199 2.858356 0.051297 -0.010363 246046.000000 0 0 1
7.659388 -1.478198 -31.771597 32.715221 -0.190648 2.900830 0.050385 -0.011378 237975.000000 0 0 1
7.089388 -0.477598 -32.626217 33.390981 -0.067266 2.927157 0.055100 -0.014666 448703.000000 0 0 1
5.701388 -0.327598 -32.331227 32.831714 -0.057396 2.966762 0.062732 -0.018712 642498.000000 0 0 1
4.898488 0.578702 -33.293517 33.656922 0.117594 2.994509 0.063835 -0.015824 109191.000000 0 0 1
5.452488 1.886502 -33.375117 33.870149 0.333097 2.970413 0.049011 -0.019175 69507.400000 0 0 1
4.949388 2.605002 33.872950 34.331606 0.484488 0.163643 0.060754 -0.021746 494473.000000 0 0 1
5.817288 3.920902 33.703020 34.425395 0.593068 0.205220 0.043249 -0.016735 141765.000000 0 0 1
5.500388 4.772102 32.682198 33.483627 0.714620 0.219231 0.059592 -0.027032 -342868.000000 0 0 1
6.163188 5.995402 32.802518 33.910690 0.771599 0.256354 0.042860 -0.023167 -510199.000000 0 0 1
5.698688 7.029002 31.755823 33.019906 0.889541 0.277594 0.058764 -0.020060 -186673.000000 0 0 1
4.465088 7.586502 32.193683 33.375518 1.038833 0.266913 0.061111 -0.018356 -53987.100000 0 0 1
4.168888 8.883702 31.641473 33.128274 1.132030 0.300732 0.067831 -0.021627 -62212.400000 0 0 1
3.779888 8.891302 30.187473 31.695840 1.168822 0.309746 0.071747 -0.025268 343947.000000 0 0 1
2.447988 8.376602 30.010433 31.253578 1.286473 0.282993 0.075010 -0.024612 557464.000000 0 0 1
2.268288 8.177502 28.602763 29.835125 1.300217 0.288421 0.068313 -0.011006 718840.000000 0 0 1
0.800088 7.790602 28.181093 29.249061 1.468456 0.271062 0.067502 -0.022755 793881.000000 0 0 1
-0.127212 8.872702 28.239433 29.600787 -1.556460 0.304458 0.073445 -0.021146 136792.000000 0 0 1
-1.233512 8.506102 27.404343 28.720608 -1.426785 0.303922 0.073062 -0.018046 1033130.000000 0 0 1
-2.616412 8.437202 28.135533 29.489662 -1.270096 0.304219 0.073841 -0.015727 378574.000000 0 0 1
-2.980512 9.731602 28.542653 30.302979 -1.273596 0.342526 0.070236 -0.017742 -297828.000000 0 0 1
-4.236312 9.773102 29.186593 31.069552 -1.161776 0.349934 0.053372 -0.008135 -390565.000000 0 0 1
-4.524812 11.105802 29.864073 32.181914 -1.183903 0.381850 0.032218 -0.000213 -154412.000000 0 0 1
-4.869712 12.250002 29.077633 31.926249 -1.192423 0.425639 0.031082 -0.007477 -769820.000000 0 0 1
-6.100512 12.248402 28.463683 31.581970 -1.108697 0.448119 0.032902 -0.014065 -1104120.000000 0 0 1
-6.464412 13.646402 28.026673 31.835629 -1.128403 0.494185 0.028450 -0.009716 -349762.000000 0 0 1
-5.564712 14.228602 27.097313 31.107611 -1.197992 0.513393 0.031596 -0.004150 57997.900000 0 0 1
-5.872812 15.548102 26.763253 31.504049 -1.209644 0.555726 0.011945 -0.001013 -40065.700000 0 0 1
-4.610412 16.173402 26.151033 31.091982 -1.293100 0.571508 0.067810 -0.010001 11278.700000 0 0 1
-4.414612 15.642902 24.848573 29.692436 -1.295738 0.579265 0.054629 0.005203 -276144.000000 0 0 1
-3.493712 16.469502 24.201933 29.481927 -1.361763 0.607798 0.078109 0.007635 -288183.000000 0 0 1
-3.490612 16.302402 22.660473 28.132716 -1.359865 0.634303 0.075461 0.005557 78158.200000 0 0 1
-2.699212 15.212602 22.169173 27.021865 -1.395191 0.608658 0.068077 -0.003840 219970.000000 0 0 1
-2.695112 15.194202 20.771973 25.876674 -1.395245 0.638938 0.061499 -0.002188 447128.000000 0 0 1
-1.718112 14.186502 20.065673 24.634122 -1.450274 0.618847 0.051242 -0.004887 341364.000000 0 1 0
-2.235612 12.844202 20.182373 24.027061 -1.398467 0.573541 0.056650 -0.006266 689284.000000 0 1 0
-1.376012 11.882902 19.522673 22.896102 -1.455512 0.549734 0.051093 -0.004346 210181.000000 0 1 0
-2.118312 10.519302 19.278973 22.064037 -1.372080 0.507888 0.039885 -0.009374 -583672.000000 0 1 0
-2.328212 9.691502 20.370773 22.678495 -1.335032 0.455044 0.067580 -0.023685 250447.000000 0 1 0
-3.268612 10.092602 21.402373 23.887360 -1.257594 0.460184 0.071823 -0.017475 1348020.000000 0 1 0
-4.757312 10.091802 20.846473 23.644278 -1.130286 0.491405 0.059161 -0.012528 466222.000000 0 1 0
-5.365612 8.803502 20.830873 23.242562 -1.023431 0.459581 0.045574 -0.018992 582476.000000 0 1 0
-6.790312 8.811802 20.830273 23.614750 -0.914245 0.490521 0.030614 -0.009632 827199.000000 0 1 0
-7.552012 7.472202 20.861373 23.410757 -0.780086 0.471029 0.036562 -0.010640 -123838.000000 0 1 0
-7.229912 6.752702 21.976573 24.100630 -0.751283 0.422986 0.032672 -0.013040 223946.000000 0 1 0
-8.027412 5.569902 22.124773 24.186126 -0.606593 0.415855 0.031143 -0.007717 307286.000000 0 1 0
-7.999312 4.899302 23.482563 25.286813 -0.549535 0.380043 0.028503 -0.009257 -355512.000000 0 0 1
-8.750112 5.617602 24.397023 26.520494 -0.570733 0.402892 0.019468 -0.004698 -171611.000000 0 0 1
-8.944612 4.800302 25.586953 27.527098 -0.492551 0.377691 0.019584 0.007489 -585701.000000 0 0 1
-9.776512 5.372702 26.663643 28.903217 -0.502499 0.396250 0.026795 0.008257 -596922.000000 0 0 1
-9.174312 6.524902 27.197993 29.435916 -0.618213 0.392455 0.019329 0.007456 -117001.000000 0 0 1
-10.061512 7.148902 28.118863 30.708488 -0.617751 0.413623 0.025704 0.016209 204642.000000 0 0 1
-9.381512 8.060802 29.142873 31.659064 -0.709824 0.401381 0.039097 0.002154 425542.000000 0 0 1
-8.369512 7.465202 29.969963 31.999635 -0.728351 0.358078 0.052106 -0.004569 511199.000000 0 0 1
-7.812812 8.517002 30.802973 32.899886 -0.828494 0.358957 0.049060 -0.006903 -118629.000000 0 0 1
-6.743012 8.010902 31.775113 33.455949 -0.871123 0.318329 0.074961 -0.004416 -273443.000000 0 0 1
-5.545012 7.709402 31.105393 32.522722 -0.947265 0.296310 0.078456 -0.014570 -320161.000000 0 0 1
-4.696412 6.906002 31.923623 32.997982 -0.973587 0.255877 0.092783 -0.010131 331242.000000 0 0 1
-3.168012 7.059802 31.799813 32.727743 -1.148991 0.238697 0.076112 -0.012008 215220.000000 0 0 1
-2.751212 8.414902 32.024563 33.225778 -1.254806 0.269715 0.072083 -0.008813 -253082.000000 0 0 1
-1.388912 8.593002 31.714603 32.887456 -1.410549 0.267868 0.069823 -0.014124 154671.000000 0 0 1
-1.001612 10.057402 31.372613 32.960512 -1.471534 0.311665 0.073091 -0.008756 -140298.000000 0 0 1
-1.295712 10.949602 32.418457 34.242210 -1.453010 0.327841 0.073934 -0.018237 90648.800000 0 0 1
-1.452512 12.296402 32.003793 34.315507 -1.453216 0.369152 0.068332 -0.009805 73871.300000 0 0 1
-1.730612 13.276302 33.193762 35.792192 -1.441174 0.383389 0.060582 -0.013252 710699.000000 0 0 1
-0.477212 13.648602 33.791262 36.446693 -1.535846 0.384084 0.103908 -0.016735 469932.000000 0 0 1
-0.592212 14.595002 -33.565707 36.606304 -1.530242 2.731134 0.099627 -0.019747 1110660.000000 0 0 1
0.863888 15.038202 -33.136697 36.399650 1.513413 2.714944 0.085383 -0.016261 898017.000000 0 0 1
1.539688 15.913202 -33.991727 37.563788 1.474341 2.701957 0.079630 -0.019739 190316.000000 0 0 1
2.775888 16.267402 -33.404657 37.258624 1.401783 2.682741 0.079706 -0.020768 80127.300000 0 0 1
3.737088 17.220502 -34.141159 38.420441 1.357096 2.665123 0.073698 -0.015801 -122465.000000 0 0 1
3.329388 18.546302 34.037972 38.905445 1.393171 0.505588 0.062798 -0.009729 -587761.000000 0 0 1
4.300688 19.357702 33.485080 38.916154 1.352178 0.534661 0.048876 0.003585 -722958.000000 0 0 1
3.832088 20.820202 33.478166 39.610015 1.388777 0.563867 0.054107 -0.010676 -213166.000000 0 0 1
3.869588 21.468302 -33.659067 40.109781 1.392465 2.566558 0.064166 -0.031518 25212.500000 0 0 1
3.420588 22.769802 -33.696267 40.811796 1.421687 2.542150 0.063021 -0.028402 -178826.000000 0 0 1
3.521688 23.427602 -32.270837 40.033258 1.421591 2.508329 0.070179 -0.033923 -312304.000000 0 0 1
3.036688 24.747902 -32.152517 40.687400 1.448702 2.481985 0.078112 -0.040340 249526.000000 0 0 1
2.941788 25.159202 -30.820177 39.893895 1.454398 2.453650 0.094975 -0.046493 -59559.100000 0 0 1
2.533288 26.632702 -30.415607 40.507129 1.475962 2.420175 0.103094 -0.055300 -105101.000000 0 0 1
3.521588 27.557202 -30.729157 41.425621 1.443693 2.406534 0.101722 -0.053210 -241688.000000 0 0 1
3.155088 28.781602 -30.118897 41.778980 1.461611 2.375911 0.091826 -0.050492 -114490.000000 0 0 1
4.234788 29.910402 -29.997047 42.572155 1.430149 2.352679 0.101847 -0.055404 159507.000000 0 0 1
5.181588 29.559702 -28.999057 41.732124 1.397267 2.339057 0.100622 -0.062817 -441842.000000 0 0 1
5.927188 30.665002 -28.623507 42.364833 1.379863 2.312633 0.089638 -0.056720 -754341.000000 0 0 1
7.177588 30.253102 -27.811897 41.716538 1.337852 2.300552 0.093458 -0.058115 -457344.000000 0 0 1
8.197488 29.676502 -28.631847 42.043742 1.301289 2.319926 0.102174 -0.057286 956049.000000 0 0 1
9.437288 30.425702 -28.603967 42.813230 1.270031 2.302463 0.119339 -0.051746 686531.000000 0 0 1
9.394188 31.777802 -29.271247 44.214086 1.283362 2.294326 0.126692 -0.054817 -1847590.000000 0 0 1
8.646788 32.736402 -28.640727 44.347832 1.312560 2.272893 0.106295 -0.045959 -316680.000000 0 0 1
8.470088 33.912502 -29.372527 45.656823 1.326041 2.269640 0.083231 -0.037194 765519.000000 0 0 1
7.141288 33.831602 -30.238267 45.933953 1.362767 2.289353 0.067771 -0.029511 614036.000000 0 0 1
7.358288 32.965302 -31.340897 46.077189 1.351183 2.318808 0.057873 -0.027932 612639.000000 0 0 1
6.121688 32.569002 -31.948257 46.031577 1.385003 2.337897 0.059217 -0.032622 429299.000000 0 0 1
6.232288 31.925002 -33.333687 46.574476 1.378004 2.368432 0.070142 -0.043682 -9571.750000 0 0 1
6.412988 32.863602 34.024489 47.736868 1.378079 0.777384 0.072048 -0.040943 230918.000000 0 0 1
5.866588 32.365302 32.814566 46.462085 1.391482 0.786587 0.092048 -0.040013 -338861.000000 0 0 1
5.575488 33.440602 31.747573 46.446402 1.405588 0.818207 0.074079 -0.037342 -199300.000000 0 0 1
6.655288 33.935202 30.989693 46.435459 1.377137 0.840123 0.074730 -0.032099 14520.400000 0 0 1
6.226888 -33.578715 29.939523 45.416729 -1.387438 0.851018 0.050421 -0.031964 -180704.000000 0 0 1
17.650166 -22.018098 29.651383 40.933232 -0.895068 0.760656 0.103088 -0.011412 44764.200000 0 0 1
16.603766 -21.061498 29.791643 40.085081 -0.903201 0.732941 0.097463 -0.007990 1346630.000000 0 0 1
15.263266 -21.557998 30.003593 39.974119 -0.954715 0.721864 0.109364 -0.005569 1034570.000000 0 0 1
14.888966 -22.134898 31.383623 41.189402 -0.978665 0.704502 0.102522 -0.011433 -1037670.000000 0 0 1
15.489666 -23.321898 31.659353 42.262931 -0.984525 0.724087 0.124646 -0.018380 -245907.000000 0 0 1
15.195466 -23.728198 33.011906 43.401791 -1.001202 0.706542 0.093026 -0.021044 -634717.000000 0 0 1
16.088466 -24.706398 33.691646 44.770212 -0.993588 0.718877 0.106620 -0.027220 -889125.000000 0 0 1
15.968266 -26.047918 33.354280 45.232594 -1.020848 0.741591 0.109487 -0.038896 -236957.000000 0 0 1
16.852666 -26.800958 34.142350 46.561827 -1.009463 0.747679 0.109149 -0.036532 -184551.000000 0 0 1
16.649266 -28.342858 33.984314 47.280538 -1.039675 0.768750 0.107299 -0.034530 139076.000000 0 0 1
17.263066 -28.790028 32.789409 46.925734 -1.030657 0.797146 0.103478 -0.044010 206716.000000 0 0 1
16.813266 -30.056608 32.428047 47.303952 -1.060775 0.815472 0.112498 -0.051297 299957.000000 0 0 1
17.591266 -30.589688 31.144353 47.065405 -1.048908 0.847679 0.113253 -0.045562 600541.000000 0 0 1
18.869766 -31.131008 31.404003 48.077221 -1.025874 0.858994 0.109555 -0.051001 208677.000000 0 0 1
19.509566 -31.766578 30.317023 48.050604 -1.020035 0.888033 0.079503 -0.035487 -614192.000000 0 0 1
20.823066 -32.445638 30.738333 49.306842 -1.000219 0.897701 0.063300 -0.028052 -168894.000000 0 0 1
21.894166 -31.562568 30.937983 49.322500 -0.964328 0.892768 0.054451 -0.028355 324587.000000 0 0 1
23.061266 -32.133878 31.554153 50.597161 -0.948315 0.897412 0.032645 -0.021041 420159.000000 0 0 1
24.128366 -31.024428 31.616823 50.441220 -0.909788 0.893350 0.026791 -0.017869 -326597.000000 0 0 1
24.687566 -30.759198 30.380763 49.785489 -0.894467 0.914441 0.023489 -0.013267 -321497.000000 0 0 1
25.536466 -29.622058 30.298123 49.472757 -0.859333 0.911678 0.020880 -0.008989 299670.000000 0 0 1
26.519166 -29.784378 29.094573 49.364659 -0.843326 0.940504 0.038930 -0.008159 221992.000000 0 0 1
27.500666 -30.749908 29.441673 50.681906 -0.841121 0.950949 0.048460 -0.004528 170911.000000 0 0 1
28.562566 -30.838198 28.482903 50.774899 -0.823689 0.975246 0.045007 -0.012478 542982.000000 0 0 1
29.808166 -31.530168 29.065703 52.225409 -0.813465 0.980577 0.057259 -0.014662 -60215.100000 0 0 1
29.629566 -32.903488 29.048033 52.956010 -0.837705 0.990190 0.051054 -0.013256 329226.000000 0 0 1
30.634766 -33.595178 29.802903 54.363020 -0.831456 0.990562 0.060507 -0.014233 -500599.000000 0 0 1
30.164966 33.369995 30.178803 54.168643 0.835801 0.979874 0.045706 -0.006206 790816.000000 0 0 1
29.174566 33.295118 31.296013 54.214026 0.851264 0.955418 0.041796 -0.009981 1099010.000000 0 0 1
27.915466 33.879692 31.250963 53.886264 0.881616 0.952138 0.026546 -0.006464 -1042730.000000 0 0 1
27.010066 33.517604 30.060273 52.503271 0.892500 0.961195 0.036585 -0.003911 -878534.000000 0 0 1
26.529166 32.199179 30.067733 51.426183 0.881646 0.946314 0.026386 0.004613 -355514.000000 0 0 1
25.224566 32.133799 30.586673 51.033365 0.905278 0.928112 0.025097 0.001144 -466856.000000 0 0 1
24.575966 30.781619 30.458233 49.791466 0.897033 0.912568 0.051856 -0.004680 -245279.000000 0 0 1
24.417066 30.399159 29.103083 48.654819 0.894098 0.929601 0.064914 -0.017754 32636.700000 0 0 1
23.901266 29.108529 29.054093 47.568028 0.883316 0.913738 0.103232 -0.032236 -291766.000000 0 0 1
23.254566 28.826829 27.669673 46.231717 0.891984 0.929169 0.108835 -0.033751 366681.000000 0 0 1
22.058266 29.569019 27.476243 45.998238 0.929865 0.930625 0.130280 -0.031755 325013.000000 0 0 1
21.133866 28.998899 26.548453 44.636272 0.941014 0.933813 0.138064 -0.027739 -191095.000000 0 0 1
19.938866 29.914919 26.417723 44.613415 0.982896 0.937075 0.111757 -0.021318 -605865.000000 0 0 1
20.226866 31.164469 25.823803 45.246204 0.995099 0.963390 0.123356 -0.034299 -584824.000000 0 0 1
19.024766 31.802439 25.522843 44.997248 1.031689 0.967683 0.085577 -0.029039 -713625.000000 0 0 1
18.984166 33.220788 24.985423 45.697819 1.051631 0.992315 0.098634 -0.027223 -392132.000000 0 0 1
19.563866 33.450698 23.723863 45.436942 1.041586 1.021453 0.107570 -0.030281 445746.000000 0 0 1
20.961266 33.722872 23.696133 46.239739 1.014664 1.032746 0.126128 -0.030208 125097.000000 0 0 1
21.395466 33.996916 22.264773 45.926859 1.009085 1.064676 0.128567 -0.034884 -328067.000000 0 0 1
20.972666 -33.194468 21.655473 44.840662 -1.007313 1.066784 0.107611 -0.023054 111147.000000 0 0 1
21.339066 -33.120268 20.284873 44.314602 -0.998445 1.095337 0.117610 -0.023515 45860.200000 0 0 1
20.902666 -31.712098 19.669973 42.772497 -0.988024 1.092943 0.111329 -0.018493 96264.600000 0 0 1
21.630966 -30.587048 20.150273 42.538215 -0.955259 1.077311 0.105772 -0.009558 207691.000000 0 0 1
21.248466 -29.438968 19.480573 41.202462 -0.945602 1.078329 0.095611 -0.012620 -175320.000000 0 0 1
22.068666 -29.092278 18.193373 40.796881 -0.921830 1.108561 0.075815 -0.015059 -315218.000000 0 0 1
21.817966 -29.879038 17.086373 40.751990 -0.940082 1.138148 0.067742 -0.011321 5942.810000 0 0 1
22.370166 -29.338398 15.929073 40.185835 -0.919351 1.163220 0.059487 -0.002839 -492953.000000 0 0 1
22.025666 -29.978488 14.611873 39.966818 -0.937149 1.196519 0.042369 -0.019735 -290266.000000 0 0 1
22.622166 -31.245438 14.409173 41.178442 -0.944134 1.213310 0.066948 -0.015158 -42260.300000 0 0 1
22.667966 -31.713828 13.038973 41.104968 -0.950229 1.248009 0.056035 -0.017805 20665.000000 0 0 1
21.353366 -31.885538 12.207873 40.270162 -0.980705 1.262801 0.048565 -0.015175 -112454.000000 0 0 1
20.513166 -32.858808 12.736573 40.776360 -1.012713 1.253129 0.055397 -0.017157 -635303.000000 0 0 1
19.347566 -33.095978 11.995073 40.169066 -1.041785 1.267556 0.057806 -0.006913 -227599.000000 0 0 1
18.303166 -33.805998 12.870773 40.540205 -1.074566 1.247724 0.053329 -0.006592 -261576.000000 0 0 1
18.011866 -32.937228 13.961873 40.052743 -1.070371 1.214733 0.055299 -0.006033 73088.000000 0 0 1
18.606366 -33.404938 15.167773 41.135728 -1.062599 1.193159 0.048383 -0.009243 -971684.000000 0 0 1
18.530066 -32.551858 16.460773 40.913859 -1.053296 1.156739 0.060084 -0.008667 -876001.000000 0 0 1
17.329966 -32.094758 16.987873 40.236663 -1.075692 1.134927 0.057300 -0.008062 -484188.000000 0 0 1
16.370266 -33.116288 17.289973 40.787465 -1.111698 1.133045 0.052466 -0.012695 -380682.000000 0 0 1
16.538866 -34.015748 18.527773 42.117497 -1.118240 1.115301 0.039035 -0.022136 -610290.000000 0 0 1
17.624066 33.475328 18.376673 42.058380 1.086190 1.118611 0.034995 -0.018685 -129440.000000 0 0 1
18.112466 33.065176 19.654673 42.516743 1.069659 1.090231 0.041838 -0.019227 93875.800000 0 0 1
18.820766 31.699799 19.513573 41.711845 1.035008 1.083975 0.065508 -0.021223 462457.000000 0 0 1
17.912866 30.603639 19.307173 40.375988 1.041242 1.072210 0.043026 -0.022051 311190.000000 0 0 1
18.650666 29.521309 18.746273 39.633039 1.007344 1.078108 0.048060 -0.026972 578780.000000 0 0 1
17.831466 28.185779 18.552573 38.165393 1.006722 1.063164 0.050922 -0.020606 163899.000000 0 0 1
17.489466 27.553839 19.751273 38.147192 1.005225 1.026560 0.051489 -0.026326 -118932.000000 0 0 1
17.296066 26.181429 19.566773 36.979450 0.986989 1.013227 0.043756 -0.025123 -405971.000000 0 0 1
17.137766 25.339619 20.832073 37.010465 0.976138 0.972943 0.044680 -0.013711 -653071.000000 0 0 1
15.907166 25.510159 21.440173 36.925427 1.013232 0.951289 0.041330 -0.010165 -1024920.000000 0 0 1
14.969466 24.523859 21.135873 35.668329 1.022762 0.936555 0.040555 -0.013240 -1165080.000000 0 0 1
13.663366 24.896809 21.786973 35.794005 1.068875 0.916405 0.044047 -0.022931 -711429.000000 0 0 1
12.855466 25.880749 21.127873 35.797530 1.109777 0.939484 0.044495 -0.028164 -568597.000000 0 0 1
11.693066 26.105129 21.845573 35.992146 1.149672 0.918574 0.034514 -0.031010 -1017500.000000 0 0 1
10.905166 27.165609 21.122573 36.097867 1.189055 0.945735 0.030933 -0.033758 -621646.000000 0 0 1
11.329566 28.494639 21.417573 37.403421 1.192358 0.961110 0.020598 -0.030890 -33152.000000 0 0 1
11.050866 29.338689 20.316573 37.358311 1.210566 0.995802 0.035338 -0.033447 -96522.500000 0 0 1
11.570366 30.779199 20.568273 38.785130 1.211224 1.011826 0.034352 -0.038454 -1652.690000 0 0 1
10.811566 31.518049 21.515573 39.663550 1.240346 0.997443 0.028720 -0.034689 182257.000000 0 0 1
11.499966 31.545409 22.764073 40.565565 1.221216 0.975001 0.017062 -0.028880 229400.000000 0 0 1
10.781366 32.572392 23.663463 41.679228 1.251150 0.967024 0.007290 -0.025989 260376.000000 0 0 1
9.506966 32.177269 24.116163 41.320072 1.283514 0.947589 0.019632 -0.033653 -372027.000000 0 0 1
9.234366 32.829457 25.288393 42.456443 1.296598 0.932745 0.020335 -0.024724 2843.480000 0 0 1
7.950266 32.390020 26.081553 42.338723 1.330101 0.907115 0.093192 -0.042933 2075440.000000 0 0 1
6.649966 32.997316 25.718163 42.361171 1.371930 0.918370 0.089447 -0.043037 2019800.000000 0 0 1
6.136066 32.618930 24.426083 41.210185 1.384856 0.936365 0.088343 -0.047141 -555558.000000 0 0 1
5.363766 31.282659 24.479043 40.082393 1.400986 0.913829 0.083036 -0.039551 -276624.000000 0 0 1
6.165166 30.114099 24.738893 39.457332 1.368860 0.893128 0.067105 -0.029689 -460808.000000 0 0 1
5.438266 28.934799 24.735563 38.453158 1.385015 0.872042 0.055605 -0.021918 -149028.000000 0 0 1
6.455066 27.727139 24.758193 37.728374 1.342064 0.854995 0.041409 -0.019440 151306.000000 0 0 1
7.353766 27.620609 23.654863 37.101596 1.310590 0.879456 0.030009 -0.021331 944211.000000 0 0 1
8.439466 28.573949 23.642583 38.035074 1.283606 0.900013 0.045870 -0.024842 382115.000000 0 0 1
9.636066 28.240579 24.598453 38.671280 1.241970 0.881375 0.038782 -0.029591 -191756.000000 0 0 1
9.188466 28.402719 25.950023 39.554342 1.257916 0.855210 0.034882 -0.018130 638141.000000 0 0 1
10.263466 28.055139 26.827853 40.151752 1.220088 0.839061 0.028938 -0.003745 646966.000000 0 0 1
11.371966 29.106849 27.067513 41.342236 1.198335 0.856987 0.023650 -0.008750 -383404.000000 0 0 1
10.983766 30.271149 27.812023 42.549902 1.222724 0.858421 0.031871 -0.019242 -389331.000000 0 0 1
12.050366 31.145979 27.938023 43.540974 1.201634 0.874150 0.027618 -0.010328 -779102.000000 0 0 1
11.729866 32.374161 28.805783 44.893754 1.223187 0.874157 0.018746 -0.021844 -250813.000000 0 0 1
11.471766 31.928269 30.147703 45.386118 1.225862 0.844307 0.033928 -0.042250 -174298.000000 0 0 1
10.136766 31.609889 30.426603 45.030181 1.260474 0.828891 0.055604 -0.036729 -611553.000000 0 0 1
9.870966 31.606499 31.982443 46.035675 1.268086 0.802750 0.096035 -0.044750 130439.000000 0 0 1
10.394766 30.390639 32.503056 45.695631 1.241232 0.779458 0.077058 -0.047703 102759.000000 0 0 1
10.694066 30.566339 33.863294 46.854954 1.234243 0.763058 0.114479 -0.044801 -132320.000000 0 0 1
10.800666 29.198139 -33.866477 46.001348 1.216496 2.398244 0.109869 -0.040825 451275.000000 0 0 1
11.832266 28.339249 33.975332 45.797802 1.175276 0.734964 0.114040 -0.037750 399355.000000 0 0 1
11.747866 27.025269 -33.919667 44.932409 1.160739 2.426304 0.116195 -0.037876 -132040.000000 0 0 1
12.763566 26.072029 33.792953 44.549107 1.115543 0.709704 0.097753 -0.033652 84884.600000 0 0 1
12.816966 24.735349 -34.167787 44.085710 1.092723 2.457560 0.083911 -0.033036 -256395.000000 0 0 1
13.218766 24.455929 -32.829697 43.018801 1.075265 2.438966 0.093445 -0.039501 -297822.000000 0 0 1
13.269166 22.962419 -32.433907 41.896322 1.046812 2.456163 0.072234 -0.050579 71051.500000 0 0 1
14.252566 22.205119 -33.130887 42.353968 1.000165 2.469047 0.067703 -0.034365 225634.000000 0 0 1
14.212366 20.836019 -32.707847 41.302958 0.972181 2.484712 0.057377 -0.030328 467442.000000 0 0 1
15.502966 20.080219 -33.190737 41.775378 0.913331 2.488988 0.061124 -0.039711 1088200.000000 0 0 1
16.673066 20.461119 -32.476147 41.849118 0.887056 2.459142 0.060218 -0.040114 -48945.500000 0 0 1
17.777966 19.665919 -32.800497 42.174365 0.835776 2.461851 0.060455 -0.038301 -609352.000000 0 0 1
19.001166 19.819519 -31.907387 42.094406 0.806475 2.431031 0.047112 -0.038294 -721594.000000 0 0 1
19.600766 21.035419 -32.152917 43.133386 0.820688 2.411976 0.048793 -0.023355 -98992.100000 0 0 1
20.710366 21.308519 -31.298017 43.157133 0.799633 2.382137 0.041360 -0.013719 201686.000000 0 0 1
20.367466 21.897319 -29.899577 42.288426 0.821579 2.356099 0.031695 -0.017929 -286235.000000 0 0 1
19.782266 23.166919 -29.910377 42.692796 0.864042 2.347028 0.024823 -0.005064 -294309.000000 0 0 1
19.519966 23.719119 -28.601457 41.972241 0.882209 2.320521 0.036390 -0.003542 -603313.000000 0 0 1
20.645866 24.152479 -27.638527 42.112732 0.863514 2.286699 0.015801 0.001116 -19474.700000 0 0 1
21.523366 25.161359 -28.129927 43.447003 0.863168 2.275035 0.016726 0.001564 600268.000000 0 0 1
20.851766 26.471389 -28.079827 43.863507 0.903595 2.265508 0.012508 0.007656 28559.400000 0 0 1
21.692466 27.536679 -28.784347 45.358245 0.903560 2.258287 0.010637 0.010853 -680195.000000 0 0 1
21.665766 27.614609 -30.205927 46.307344 0.905531 2.281401 0.019874 0.010121 96605.900000 0 0 1
22.202066 26.502459 -30.975077 46.419473 0.873465 2.301356 0.019195 0.008421 791050.000000 0 0 1
23.652866 25.979539 -30.640767 46.618142 0.832242 2.287989 0.036467 -0.000224 392003.000000 0 0 1
24.617066 26.983779 -30.866477 47.821164 0.831232 2.272417 0.031283 0.001915 262444.000000 0 0 1
25.944166 26.481069 -30.661847 48.109205 0.795639 2.261836 0.053329 -0.005283 754435.000000 0 0 1
26.987766 27.591789 -31.036977 49.527167 0.796465 2.248064 0.038743 0.003318 71876.800000 0 0 1
27.149466 28.655689 -30.158847 49.676937 0.812382 2.223202 0.019356 0.004724 242077.000000 0 0 1
28.350166 29.382599 -30.380047 50.892203 0.803279 2.210489 0.020184 0.001797 258349.000000 0 0 1
28.498866 30.547179 -29.429317 51.101861 0.820074 2.184495 0.013768 0.004486 -631543.000000 0 0 1
28.851966 30.166479 -28.175047 50.361550 0.807667 2.164525 0.034965 -0.000475 -181664.000000 0 0 1
28.025266 30.708719 -27.159577 49.659678 0.831055 2.149470 0.031207 0.005372 -202608.000000 0 0 1
28.524766 30.538799 -25.678847 49.047770 0.819484 2.121806 0.054697 -0.005198 -687069.000000 0 0 1
28.469466 29.220429 -25.133557 47.917008 0.798415 2.122951 0.050023 0.001125 958659.000000 0 0 1
27.176466 28.761689 -24.670327 46.630678 0.813729 2.128286 0.052914 -0.003982 788495.000000 0 0 1
26.623666 29.331399 -23.396127 46.005753 0.833752 2.104294 0.064262 0.008933 -371744.000000 0 0 1
26.365466 30.750699 -23.426627 46.792629 0.862025 2.095143 0.094269 -0.001261 252541.000000 0 0 1
26.046266 31.293299 -22.129227 46.339845 0.876652 2.068651 0.081582 0.005933 41875.900000 0 0 1
3.491166 -26.147158 -20.012027 33.111076 -1.438061 2.219797 0.050979 -0.016568 -376044.000000 0 0 1
3.187566 -27.213618 -19.076927 33.386685 -1.454196 2.178999 0.046685 -0.015224 280494.000000 0 0 1
3.177366 -26.726378 -17.753027 32.242285 -1.452467 2.153895 0.058525 -0.022614 -288776.000000 0 0 1
3.056666 -27.796588 -16.627727 32.534211 -1.461271 2.107242 0.052975 -0.028146 -35885.300000 0 0 1
4.264466 -28.476948 -16.345827 33.110547 -1.422149 2.087106 0.049421 -0.028560 -122412.000000 0 0 1
4.169266 -29.363008 -15.265527 33.355740 -1.429749 2.046156 0.050879 -0.036472 -483766.000000 0 0 1
5.462266 -29.981858 -14.770227 33.866027 -1.390587 2.022098 0.095529 -0.031891 -267463.000000 0 0 1
6.366966 -29.152968 -14.060727 32.986935 -1.355774 2.011141 0.069459 -0.015305 719530.000000 0 0 1
7.749866 -29.535978 -14.051727 33.613769 -1.314193 2.002077 0.078755 -0.006343 1055700.000000 0 0 1
8.199766 -30.533468 -12.971627 34.172971 -1.308436 1.960147 0.079022 -0.016771 -610747.000000 0 0 1
8.319066 -30.001298 -11.620427 33.231297 -1.300302 1.928029 0.070579 -0.016751 81812.300000 0 0 1
8.699066 -30.967358 -10.589327 33.864213 -1.296943 1.888830 0.078195 -0.016220 1991910.000000 0 0 1
10.211566 -31.507728 -10.576827 34.768985 -1.257381 1.879898 0.067309 -0.017276 1926280.000000 0 0 1
11.185766 -30.746008 -9.838027 34.164677 -1.221870 1.862891 0.071772 -0.015956 851193.000000 0 0 1
12.277866 -31.661758 -9.601827 35.290339 -1.200867 1.846351 0.061058 -0.013390 410739.000000 0 0 1
13.429266 -31.189158 -8.689027 35.051505 -1.164213 1.821301 0.058836 -0.011574 59498.100000 0 0 1
14.330966 -30.335788 -9.374127 34.835484 -1.129462 1.843252 0.045231 -0.012331 196959.000000 0 0 1
15.402366 -29.986838 -8.511127 34.768990 -1.096298 1.818100 0.039197 -0.010006 305307.000000 0 0 1
16.446866 -29.091778 -9.248627 34.675180 -1.056249 1.840786 0.046800 -0.009462 165409.000000 0 0 1
16.092866 -27.734188 -9.285927 33.382540 -1.045023 1.852682 0.045989 -0.013345 445969.000000 0 0 1
15.520466 -27.215078 -10.527527 33.051085 -1.052510 1.894967 0.036833 -0.009293 -62257.000000 0 0 1
15.299966 -25.695868 -10.402927 31.663663 -1.033747 1.905559 0.045165 -0.014671 -1027420.000000 0 0 1
14.122966 -25.338188 -9.755927 30.604903 -1.062306 1.895228 0.034189 -0.010887 -210645.000000 0 0 1
13.604166 -24.020398 -10.019627 29.367428 -1.055480 1.918970 0.033546 -0.004687 76299.100000 0 0 1
13.074066 -23.765398 -11.486927 29.456321 -1.067853 1.971390 0.008473 0.007666 91461.800000 0 0 1
14.078266 -23.486598 -12.458627 30.083804 -1.030806 1.997784 0.013584 -0.000644 257780.000000 0 0 1
13.442866 -23.491498 -13.723927 30.346455 -1.051036 2.040073 0.014847 -0.004799 137947.000000 0 0 1
14.289266 -22.821898 -14.818727 30.734620 -1.011391 2.073905 0.020803 -0.009194 391918.000000 0 0 1
15.452166 -23.590698 -15.131027 32.003726 -0.990907 2.063250 0.034770 -0.016328 297027.000000 0 0 1
15.737866 -23.343398 -16.484627 32.624188 -0.977604 2.100513 0.043052 -0.017719 -771028.000000 0 0 1
16.552266 -24.464698 -17.200927 34.181441 -0.975964 2.098122 0.049061 -0.019486 1079340.000000 0 0 1
17.883866 -24.667798 -16.707127 34.748540 -0.943496 2.072364 0.076284 -0.029573 630871.000000 0 0 1
18.835966 -23.715698 -17.118927 34.789160 -0.899577 2.085270 0.084309 -0.036813 -687719.000000 0 0 1
20.274366 -23.944698 -16.634827 35.512195 -0.868212 2.058304 0.074122 -0.031864 13895.900000 0 0 1
20.906366 -25.035698 -17.245027 36.895167 -0.875039 2.057151 0.091543 -0.030548 9046.560000 0 0 1
22.282666 -25.106988 -16.905927 37.585748 -0.844926 2.037333 0.101466 -0.017410 300971.000000 0 0 1
23.063166 -26.200218 -17.653027 39.115093 -0.848991 2.039029 0.097365 -0.018098 -521265.000000 0 0 1
23.565066 -25.689758 -18.844327 39.628080 -0.828508 2.066362 0.101592 -0.018238 6716.480000 0 0 1
24.349866 -26.671698 -19.515827 41.050737 -0.830874 2.066223 0.091379 -0.022260 1090660.000000 0 0 1
25.617666 -25.987338 -20.247127 41.731915 -0.792562 2.077355 0.070067 -0.024426 1121110.000000 0 0 1
25.341466 -25.061158 -21.283727 41.512030 -0.779837 2.109137 0.070491 -0.027100 -89317.200000 0 0 1
25.730466 -23.750398 -20.874927 40.766419 -0.745403 2.108380 0.071392 -0.027931 -513157.000000 0 0 1
24.628866 -22.697198 -21.026327 39.545547 -0.744605 2.131402 0.080965 -0.031486 -356434.000000 0 0 1
24.419366 -22.076198 -22.335727 39.781261 -0.735045 2.166950 0.068829 -0.018850 203161.000000 0 0 1
23.764866 -22.972498 -23.239127 40.404970 -0.768446 2.183590 0.045672 -0.015007 -162247.000000 0 0 1
22.906966 -22.301298 -24.324927 40.171870 -0.772002 2.221217 0.024650 -0.007098 72043.400000 0 0 1
23.750266 -21.561698 -25.190687 40.786673 -0.737136 2.236510 0.005055 0.000032 453618.000000 0 0 1
23.057666 -20.519998 -25.908557 40.298631 -0.727231 2.269093 -0.000473 0.009906 380796.000000 0 0 1
23.732666 -20.264198 -27.305417 41.466408 -0.706726 2.289613 0.005998 0.008164 256050.000000 0 0 1
22.963066 -19.330798 -28.037717 41.074272 -0.699727 2.322125 0.010992 0.007515 405462.000000 0 0 1
23.547866 -18.992198 -29.303057 42.117393 -0.678714 2.340256 0.032096 -0.006273 240827.000000 0 0 1
22.608066 -17.983998 -29.998717 41.646992 -0.671972 2.375045 0.047220 -0.008214 315385.000000 0 0 1
21.314466 -18.439798 -30.360267 41.425578 -0.713213 2.393352 0.047903 -0.007516 338295.000000 0 0 1
20.644566 -17.408998 -31.095307 41.184821 -0.700576 2.426479 0.052964 -0.009972 -1043180.000000 0 0 1
19.306966 -17.872398 -31.566587 41.092956 -0.746832 2.446782 0.047188 -0.008819 -1257390.000000 0 0 1
19.338266 -18.599698 -32.779587 42.360579 -0.765933 2.455651 0.059905 -0.011746 -236546.000000 0 0 1
18.065566 -19.076998 -33.067247 42.234339 -0.812623 2.470185 0.066534 -0.019192 -574036.000000 0 0 1
18.102166 -19.957498 34.031576 43.406662 -0.834108 0.669685 0.101899 -0.012719 8572.310000 0 0 1
18.755966 -21.167598 -34.045787 44.260243 -0.845731 2.448413 0.107814 -0.010768 271628.000000 0 0 1
19.217766 -21.889898 33.174110 44.147613 -0.850310 0.720560 0.087988 -0.015768 -14190.200000 0 0 1
19.945366 -23.200198 33.512342 45.377791 -0.860694 0.739926 0.081090 -0.011307 1824.580000 0 0 1
19.200566 -24.138898 -34.097401 45.978049 -0.898854 2.406251 0.089412 -0.012842 157824.000000 0 0 1
19.431866 -23.912098 -32.732907 44.953633 -0.888397 2.386413 0.099032 -0.015211 -310994.000000 0 0 1
18.734166 -24.952798 -31.852317 44.589026 -0.926794 2.366496 0.097453 -0.022516 -502933.000000 0 0 1
19.135066 -26.299528 -31.957217 45.596927 -0.941798 2.347404 0.101329 -0.034591 86590.700000 0 0 1
20.442866 -26.555918 -31.484017 45.982289 -0.914740 2.324987 0.087822 -0.030635 25290.800000 0 0 1
20.637466 -28.004388 -31.146757 46.693375 -0.935708 2.301037 0.082602 -0.035341 -832853.000000 0 0 1
19.695466 -28.559048 -30.335757 46.084583 -0.967057 2.289305 0.089042 -0.038898 -878658.000000 0 0 1
19.686666 -29.950198 -30.380897 46.984871 -0.989297 2.273929 0.089158 -0.031168 -1261460.000000 0 0 1
18.369666 -30.521248 -29.978717 46.558724 -1.029007 2.270369 0.119031 -0.035341 -712584.000000 0 0 1
17.218466 -30.319608 -30.778327 46.508705 -1.054315 2.293981 0.133977 -0.047462 109999.000000 0 0 1
17.142366 -31.230458 -31.849737 47.787112 -1.068799 2.300290 0.137429 -0.055144 -160846.000000 0 0 1
15.706366 -31.736348 -32.162007 47.835975 -1.111236 2.308161 0.148110 -0.061606 105600.000000 0 0 1
14.810466 -30.877978 -32.797227 47.417904 -1.123565 2.334586 0.149416 -0.057374 -322123.000000 0 0 1
13.730366 -31.596478 -33.365167 47.959304 -1.160862 2.340187 0.097446 -0.041358 112637.000000 0 0 1
12.740166 -30.662158 -34.106779 47.599918 -1.176999 2.369612 0.091136 -0.028748 -201020.000000 0 0 1
11.939966 -29.990608 -33.182997 46.293744 -1.191909 2.369987 0.102744 -0.030994 -783829.000000 0 0 1
11.023266 -29.230098 -33.898357 46.097827 -1.210168 2.396990 0.069440 -0.025455 -301665.000000 0 0 1
10.193166 -28.277978 -32.971557 44.616906 -1.224831 2.402370 0.072591 -0.029199 695835.000000 0 0 1
8.938366 -28.872408 -32.638307 44.483362 -1.270572 2.394576 0.071903 -0.012114 -305771.000000 0 0 1
8.012766 -27.949308 -32.138537 43.338826 -1.291596 2.406196 0.025261 -0.008092 -54421.200000 0 0 1
6.846666 -28.814938 -31.599267 43.309251 -1.337514 2.388561 0.016043 -0.002464 -243577.000000 0 0 1
5.986966 -29.520768 -32.432657 44.262815 -1.370705 2.393120 0.017201 -0.002565 -163131.000000 0 0 1
6.418666 -30.847518 -32.659227 45.380544 -1.365646 2.374130 0.023463 -0.000629 381599.000000 0 0 1
5.248566 -31.868868 -32.911137 46.111985 -1.407569 2.365594 0.047208 -0.008528 847322.000000 0 0 1
4.411366 -31.970108 -31.746357 45.270070 -1.433678 2.347968 0.052239 -0.026648 -78701.400000 0 0 1
3.404466 -32.928218 -31.938497 45.999191 -1.467772 2.338281 0.073600 -0.053854 -624785.000000 0 0 1
2.515266 -33.013658 -30.622557 45.099548 -1.494755 2.317195 0.065623 -0.058723 306103.000000 0 0 1
1.557366 -31.997678 -30.374377 44.146117 -1.522163 2.329584 0.054728 -0.044380 -607785.000000 0 0 1
0.409966 -32.177808 -31.126117 44.770689 -1.558056 2.339542 0.040636 -0.013125 -1142340.000000 0 0 1
-0.638034 -31.059828 -30.883427 43.805321 1.550257 2.353241 0.024329 -0.006499 -120200.000000 0 0 1
-1.231934 -31.150218 -29.605607 42.992392 1.531269 2.330387 0.017320 -0.015377 -40711.200000 0 0 1
-1.820534 -29.890818 -29.281927 41.883250 1.509965 2.344979 0.042576 -0.007992 -18321.100000 0 0 1
-2.565834 -29.830308 -27.971147 40.973356 1.484993 2.322202 0.046195 -0.007449 -352650.000000 0 0 1
-1.658734 -30.132568 -26.948807 40.459378 1.515804 2.299725 0.029802 -0.002264 115585.000000 0 0 1
-2.276334 -29.971988 -25.680547 39.534697 1.494993 2.277815 0.044420 -0.009233 362244.000000 0 0 1
-1.401834 -30.660788 -24.565527 39.313029 1.525107 2.245761 0.028834 -0.006854 363294.000000 0 0 1
-1.831934 -30.445228 -23.222927 38.335001 1.510697 2.221554 0.042378 -0.015743 -9639.560000 0 0 1
-0.855134 -30.965308 -22.344527 38.195019 1.543187 2.195691 0.023623 -0.010297 94350.900000 0 0 1
-1.282834 -30.732948 -20.876827 37.175283 1.529079 2.167088 0.005644 -0.000166 -200107.000000 0 0 1
-1.310534 -29.462088 -20.271727 35.786521 1.526344 2.173003 0.008006 -0.014495 -70613.400000 0 0 1
-0.061434 -28.945588 -19.871327 35.110120 1.568674 2.172408 0.030851 -0.026783 -230294.000000 0 0 1
-0.175834 -27.637568 -19.096527 33.593801 1.564434 2.175422 0.027538 -0.027234 -218568.000000 0 0 1
-0.762234 -27.833868 -17.806227 33.050975 1.543418 2.139750 0.031591 -0.027835 148289.000000 0 0 1
-0.694134 -26.594728 -17.046827 31.596768 1.544702 2.140653 0.047859 -0.028408 208376.000000 0 0 1
-1.913634 -26.370878 -16.094127 30.953290 1.498357 2.117587 0.038341 -0.024694 -51441.100000 0 0 1
-1.878834 -25.062008 -15.610527 29.585856 1.495969 2.126610 0.040007 -0.019223 235994.000000 0 0 1
-2.882234 -24.813298 -14.640227 28.954159 1.455158 2.100914 0.040074 -0.017466 -54227.600000 0 0 1
-2.611534 -23.574298 -13.778627 27.430243 1.460467 2.097071 0.045906 -0.015513 -344413.000000 0 0 1
-1.415434 -23.679098 -13.066127 27.081854 1.511092 2.074266 0.048794 -0.016359 -486824.000000 0 0 1
-1.093834 -22.556698 -12.257927 25.695484 1.522342 2.068087 0.057000 -0.013274 -192808.000000 0 0 1
0.038366 -22.824398 -11.268727 25.454643 -1.569115 2.029402 0.053129 -0.011719 -24007.800000 0 0 1
0.481466 -21.574198 -10.757827 24.112418 -1.548483 2.033258 0.049415 -0.001451 -590851.000000 0 1 0
1.691466 -21.643298 -10.075027 23.933232 -1.492803 2.005304 0.041629 -0.001953 -71101.200000 0 1 0
2.229366 -20.186098 -9.623627 22.473603 -1.460801 2.013318 0.040230 0.004605 -539122.000000 0 1 0
2.707666 -19.465898 -10.806527 22.428413 -1.432585 2.073530 0.037521 0.017862 433405.000000 0 1 0
3.602366 -18.392798 -10.521627 21.493644 -1.377387 2.082339 0.020705 0.020028 1016750.000000 0 1 0
4.974566 -18.647898 -9.820827 21.655001 -1.310104 2.041500 0.027235 0.002200 -20542.000000 0 1 0
4.799066 -19.173698 -8.519027 21.522908 -1.325541 1.977748 0.027052 -0.001456 -655731.000000 0 1 0
5.913866 -19.914398 -8.113927 22.302307 -1.282127 1.943157 0.035872 -0.005032 -690570.000000 0 1 0
5.646866 -21.021698 -7.106427 22.897603 -1.308370 1.886365 0.043931 -0.005051 -112598.000000 0 1 0
4.972466 -22.115898 -7.745827 23.954879 -1.349637 1.900065 0.047971 -0.009686 -46756.000000 0 1 0
4.855166 -23.198198 -6.906727 24.686675 -1.364484 1.854357 0.058532 -0.017464 -623471.000000 0 1 0
3.715566 -24.077498 -7.323027 25.439302 -1.417687 1.862791 0.057960 -0.018279 -682025.000000 0 0 1
4.056666 -24.691098 -8.547927 26.441898 -1.407954 1.899982 0.051303 -0.018872 -599309.000000 0 0 1
2.999666 -25.181888 -9.283627 27.005763 -1.452235 1.921719 0.044632 -0.016040 -647530.000000 0 0 1
3.465866 -25.876468 -10.586527 28.172299 -1.437650 1.956032 0.036683 -0.015040 -140382.000000 0 0 1
3.988166 -27.145568 -10.279127 29.299280 -1.424922 1.929256 0.046321 -0.015953 107393.000000 0 0 1
4.651866 -27.738818 -11.391627 30.345528 -1.404640 1.955622 0.057427 -0.013487 273152.000000 0 0 1
4.685166 -29.286198 -11.139527 31.681560 -1.412162 1.930086 0.069575 -0.020586 135955.000000 0 0 1
3.410466 -29.843788 -11.370127 32.117951 -1.457013 1.932653 0.080770 -0.019773 2421.180000 0 0 1
3.403466 -31.201658 -11.020327 33.265217 -1.462146 1.908463 0.073653 -0.022247 797842.000000 0 0 1
2.104366 -31.890638 -11.606727 34.002313 -1.504905 1.919150 0.056248 -0.029428 735414.000000 0 0 1
1.947466 -31.820718 -12.992727 34.426178 -1.509671 1.957792 0.064218 -0.039000 129953.000000 0 0 1
1.307066 -32.967708 -13.483927 35.642594 -1.531170 1.958766 0.054568 -0.032140 -191572.000000 0 0 1
0.859966 -32.815008 -14.964027 36.076120 -1.544596 1.998509 0.065240 -0.026043 324617.000000 0 0 1
-0.212034 -31.876598 -15.113127 35.278451 1.564145 2.013513 0.050523 -0.025525 382912.000000 0 0 1
-0.724734 -31.881248 -16.455627 35.884912 1.548068 2.047178 0.014646 -0.025497 13488.600000 0 0 1
-1.843734 -30.795338 -16.600527 35.033266 1.510997 2.064454 0.016075 -0.014092 -187514.000000 0 0 1
-3.026234 -31.216698 -15.981627 35.200181 1.474156 2.042070 0.018610 -0.018559 -402950.000000 0 0 1
-4.113134 -30.946008 -16.888227 35.493458 1.438658 2.066684 0.024574 -0.013759 575730.000000 0 0 1
-5.492034 -30.961928 -16.191527 35.369040 1.395242 2.046302 0.039511 -0.021963 -404157.000000 0 0 1
-5.645134 -29.942098 -15.211127 34.055472 1.384449 2.033822 0.022233 -0.012698 180057.000000 0 0 1
-6.923934 -29.920198 -14.579527 33.995908 1.343386 2.014028 0.038528 -0.013834 401314.000000 0 0 1
-7.322834 -31.127418 -13.683227 34.781759 1.339744 1.975126 0.031644 -0.022165 -277001.000000 0 0 1
-7.607334 -32.283188 -14.410027 36.162476 1.339374 1.980655 0.045617 -0.021461 -344308.000000 0 0 1
-8.473834 -33.115518 -13.685627 36.820372 1.320285 1.951621 0.062249 -0.015515 41732.700000 0 0 1
-8.801934 33.902149 -14.438527 37.885364 -1.316777 1.961794 0.092439 -0.017509 -638590.000000 0 0 1
-7.739134 33.002258 -14.517127 36.875333 -1.340455 1.975429 0.084853 -0.020883 -576444.000000 0 0 1
-7.987334 31.689509 -14.975127 35.948253 -1.323889 2.000470 0.107587 -0.034425 -643065.000000 0 0 1
-7.498734 -22.129798 -3.244827 23.589995 1.244087 1.708785 0.047675 -0.015780 347470.000000 0 1 0
-7.156634 -21.016498 -4.102327 22.577416 1.242588 1.753512 0.034178 -0.014047 211594.000000 0 1 0
-6.049534 -21.223898 -4.969227 22.621758 1.293126 1.792268 0.031472 -0.005849 -28864.600000 0 1 0
-5.810434 -20.136298 -6.032527 21.808784 1.289872 1.851061 0.019930 -0.008375 405884.000000 0 1 0
-6.903234 -20.146698 -6.949727 22.401848 1.240686 1.886231 0.032196 -0.014909 180480.000000 0 1 0
-6.827134 -19.078798 -7.936927 21.762470 1.227155 1.944115 0.015509 -0.013603 -882550.000000 0 1 0
-7.742234 -19.294498 -9.088927 22.689831 1.189199 1.982938 0.016531 -0.017408 -334889.000000 0 1 0
-7.305334 -20.259398 -10.037627 23.760578 1.224719 2.006942 0.026689 -0.005503 78529.000000 0 1 0
-8.372334 -20.568298 -10.912427 24.743321 1.184227 2.027537 0.039574 0.002052 472242.000000 0 1 0
-7.834134 -21.460298 -12.110227 25.856830 1.220775 2.058227 0.037942 0.001001 -505655.000000 0 0 1
-6.939034 -20.770598 -12.895827 25.413979 1.248374 2.102997 0.044608 0.001257 -508805.000000 0 0 1
-6.494834 -21.564498 -14.036027 26.537154 1.278256 2.128124 0.036746 0.000443 445585.000000 0 0 1
-5.513034 -20.906298 -15.067827 26.353487 1.312964 2.179444 0.035884 0.005812 128572.000000 0 0 1
-4.190634 -20.716798 -14.640427 25.711656 1.371208 2.176582 0.031048 -0.003595 -449604.000000 0 0 1
-3.340334 -20.008398 -15.488127 25.522067 1.405375 2.222891 0.039311 -0.005844 -94111.900000 0 0 1
-3.507634 -18.469198 -15.646427 24.458648 1.383114 2.264916 0.053322 0.004168 -707631.000000 0 1 0
-4.659734 -18.127498 -16.399027 24.884682 1.319190 2.290286 0.055862 0.004655 -275505.000000 0 1 0
-4.607634 -18.266698 -17.817227 25.929831 1.323708 2.328331 0.043001 -0.003790 -836913.000000 0 0 1
-5.950734 -17.843998 -18.437627 26.339431 1.248908 2.346195 0.037402 0.002167 -379395.000000 0 0 1
-6.908034 -18.740298 -17.927127 26.838435 1.217631 2.302267 0.030939 0.000778 -125407.000000 0 0 1
-8.004134 -18.881398 -18.832627 27.843154 1.169844 2.313637 0.012123 0.002315 235483.000000 0 0 1
-9.025834 -19.941198 -18.390227 28.588766 1.145764 2.269555 0.024077 0.004508 -266393.000000 0 0 1
-8.439134 -21.259798 -18.359927 29.330614 1.192920 2.247164 0.030130 0.002402 227812.000000 0 0 1
-9.185334 -22.261698 -17.739027 29.910310 1.179469 2.205668 0.050129 0.000766 -383151.000000 0 0 1
-8.747434 -23.704298 -18.180827 31.128023 1.217276 2.194526 0.061831 -0.008103 -874815.000000 0 0 1
-8.886834 -23.933098 -19.524527 32.139947 1.215256 2.223687 0.047943 -0.013080 632648.000000 0 0 1
-7.992234 -24.894398 -20.115427 32.988442 1.260145 2.226569 0.059681 -0.028903 716690.000000 0 0 1
-6.444834 -24.755398 -19.972827 32.454267 1.316109 2.233708 0.046326 -0.022185 -237769.000000 0 0 1
-5.879034 -23.698098 -20.686127 32.001231 1.327625 2.273675 0.043637 -0.024113 -128443.000000 0 0 1
-5.925034 -22.398998 -20.148727 30.704924 1.312197 2.286575 0.043411 -0.024080 -475792.000000 0 0 1
-4.976934 -22.124198 -18.909627 29.526666 1.349525 2.265848 0.069014 -0.014850 215767.000000 0 0 1
-3.638434 -22.329398 -19.307827 29.742771 1.409272 2.277276 0.073750 -0.031566 -357676.000000 0 0 1
-2.784534 -22.284998 -18.209727 28.913128 1.446490 2.252103 0.051856 -0.035016 -911201.000000 0 0 1
-1.405134 -22.858398 -18.426427 29.394115 1.509402 2.248332 0.091977 -0.037773 -812465.000000 0 0 1
-0.610734 -22.167098 -19.366127 29.441470 1.543252 2.288669 0.114729 -0.035536 -485854.000000 0 0 1
0.521666 -22.979098 -19.569527 30.187373 -1.548098 2.276105 0.082736 -0.033175 -45017.100000 0 0 1
1.594166 -22.392598 -20.523027 30.416517 -1.499725 2.311399 0.105561 -0.031741 239722.000000 0 0 1
1.320966 -22.514598 -21.923727 31.453170 -1.512192 2.342040 0.095423 -0.041859 -181596.000000 0 0 1
0.925666 -21.332998 -22.528027 31.039744 -1.527432 2.382964 0.117234 -0.037984 -348204.000000 0 0 1
0.604666 -21.487198 -23.991827 32.212934 -1.542663 2.411014 0.114617 -0.038397 149417.000000 0 0 1
0.096766 -20.341098 -24.717327 32.011184 -1.566039 2.453009 0.099148 -0.038639 1847190.000000 0 0 1
-1.345934 -20.181698 -24.447627 31.730096 1.504204 2.450401 0.088725 -0.037132 1441940.000000 0 0 1
-1.847434 -19.003398 -25.223457 31.634869 1.473885 2.493656 0.072824 -0.027194 -302123.000000 0 0 1
-1.245234 -17.777598 -24.918427 30.635301 1.500865 2.520751 0.072390 -0.024487 -93329.200000 0 0 1
-1.697834 -16.741798 -25.771037 30.778512 1.469729 2.563134 0.070344 -0.021787 -86524.500000 0 0 1
-1.191834 -15.378698 -25.230347 29.571866 1.493452 2.592862 0.058191 -0.019368 496342.000000 0 0 1
0.207866 -15.164298 -25.386307 29.571333 -1.557090 2.603089 0.058752 -0.028269 19909.900000 0 0 1
0.577066 -13.911298 -24.803627 28.444282 -1.529338 2.630085 0.053701 -0.026734 218256.000000 0 0 1
0.301466 -12.617998 -25.610407 28.551668 -1.546909 2.683697 0.040001 -0.014859 -311194.000000 0 0 1
0.888366 -11.431198 -25.141547 27.632570 -1.493238 2.713723 0.039297 -0.013364 -129609.000000 0 0 1
0.650566 -10.285798 -25.989267 27.958235 -1.507631 2.764054 0.029840 -0.010370 -360834.000000 0 0 1
1.620066 -9.093898 -25.817617 27.420302 -1.394497 2.798002 0.042625 -0.011579 505809.000000 0 0 1
2.980966 -9.194998 -26.211877 27.937371 -1.257293 2.788296 0.051683 -0.018746 278337.000000 0 0 1
3.214166 -9.295798 -27.648877 29.346263 -1.237899 2.799814 0.051152 -0.012919 -806354.000000 0 0 1
4.671666 -9.004398 -27.984367 29.766231 -1.092206 2.793832 0.048766 -0.014507 -768130.000000 0 0 1
4.879466 -7.604498 -27.855087 29.283843 -1.000310 2.827931 0.044876 -0.018168 1036410.000000 0 0 1
6.183166 -7.104698 -28.220157 29.750388 -0.854639 2.819466 0.059271 -0.017530 672219.000000 0 0 1
7.408966 -7.349798 -27.301937 29.228550 -0.781389 2.776483 0.074200 -0.016433 -82118.900000 0 0 1
8.014866 -8.627598 -27.237077 29.673758 -0.822199 2.733512 0.064562 -0.019579 511416.000000 0 0 1
8.619566 -9.132198 -28.455297 31.103021 -0.814268 2.725988 0.068282 -0.027799 -68692.200000 0 0 1
9.149166 -10.645898 -28.317047 31.605341 -0.860866 2.681379 0.077304 -0.029125 445100.000000 0 0 1
8.048566 -11.504698 -28.060087 31.376839 -0.960346 2.677645 0.080534 -0.035521 332875.000000 0 0 1
8.365866 -12.702898 -27.279217 31.233108 -0.988414 2.632952 0.082400 -0.033085 382455.000000 0 0 1
9.353566 -13.733698 -27.896837 32.470559 -0.972891 2.604388 0.096095 -0.041717 103422.000000 0 0 1
8.637066 -14.261898 -28.936387 33.396335 -1.026266 2.618852 0.099049 -0.050489 23815.800000 0 0 1
9.195266 -15.461898 -29.497937 34.550710 -1.034279 2.593957 0.097993 -0.045756 -26066.400000 0 0 1
8.169966 -16.085798 -30.443747 35.388176 -1.100849 2.606615 0.079635 -0.043033 -267799.000000 0 0 1
7.868366 -15.150198 -31.445927 35.781085 -1.091783 2.644226 0.082261 -0.042074 241443.000000 0 0 1
7.043966 -15.753198 -32.459197 36.761124 -1.150319 2.652961 0.071957 -0.035750 -329783.000000 0 0 1
6.216966 -14.597198 -33.083717 36.691433 -1.168162 2.694422 0.067124 -0.024931 63108.200000 0 0 1
6.900766 -13.676298 -33.964557 37.259266 -1.103493 2.717891 0.073970 -0.029591 -415021.000000 0 0 1
5.995966 -12.798398 33.821542 36.655795 -1.132670 0.395824 0.046591 -0.020871 -388358.000000 0 0 1
6.553466 -11.689398 32.899481 35.524158 -1.059826 0.386814 0.067988 -0.028263 -180660.000000 0 0 1
6.706166 -12.184798 31.564563 34.492950 -1.067668 0.415036 0.070864 -0.037042 215060.000000 0 0 1
7.295166 -11.248198 30.670633 33.472812 -0.995432 0.412092 0.070538 -0.029497 -99725.100000 0 0 1
7.756366 -11.861998 29.347783 32.590805 -0.991696 0.449895 0.058544 -0.018491 218889.000000 0 0 1
6.709266 -12.419698 28.548703 31.847945 -1.075499 0.459202 0.048835 -0.021064 358624.000000 0 0 1
7.130866 -12.598098 27.228673 30.837671 -1.055731 0.488649 0.048050 -0.002408 -67260.100000 0 0 1
6.090466 -13.315598 26.319843 30.118650 -1.141811 0.507686 0.040938 -0.024737 9470.090000 0 0 1
6.094666 -14.734998 26.591293 31.005838 -1.178605 0.540168 0.045714 -0.019735 196918.000000 0 0 1
5.300866 -15.530498 25.704953 30.496560 -1.241875 0.568182 0.031390 -0.019642 598662.000000 0 0 1
3.747866 -15.598198 25.774383 30.359003 -1.334991 0.556732 0.052518 -0.029566 56960.300000 0 0 1
3.253066 -14.357998 25.372863 29.334565 -1.347990 0.525750 0.042588 -0.031459 -134435.000000 0 0 1
1.867866 -14.466798 25.067643 29.002825 -1.442393 0.527005 0.041840 -0.030928 260193.000000 0 0 1
1.235766 -13.124998 24.749573 28.041648 -1.476919 0.489431 0.030960 -0.029027 -566890.000000 0 0 1
1.522166 -12.587598 23.474783 26.680143 -1.450455 0.495229 0.022020 -0.017978 -344237.000000 0 0 1
0.849666 -11.399298 23.130073 25.800508 -1.496397 0.458998 0.015500 -0.008588 -379677.000000 0 0 1
-0.615434 -11.612698 22.770073 25.567748 1.517849 0.472182 0.021244 -0.013635 -1016270.000000 0 0 1
-0.801434 -12.318398 21.604973 24.882927 1.505828 0.519102 0.021324 -0.017352 227727.000000 0 1 0
-2.072634 -12.970998 21.565273 25.250814 1.412346 0.547089 0.036308 -0.020525 485813.000000 0 0 1
-2.246434 -13.787898 20.277273 24.623574 1.409288 0.603260 0.058180 -0.022889 -136380.000000 0 1 0
-1.303134 -14.797998 19.990773 24.906021 1.482961 0.639074 0.068218 -0.034298 -308540.000000 0 1 0
-1.538134 -15.445298 18.763873 24.351715 1.471538 0.691115 0.069424 -0.035595 13636.400000 0 1 0
-2.408034 -16.701698 18.920873 25.352412 1.427604 0.728289 0.058877 -0.032999 -74156.100000 0 0 1
-2.759734 -17.238798 17.669873 24.839821 1.412055 0.779375 0.053981 -0.038100 -3613.640000 0 1 0
-3.644434 -18.341798 17.786773 25.808385 1.374655 0.810432 0.057911 -0.026792 406010.000000 0 0 1
-2.995034 -19.492698 16.975273 26.021057 1.418340 0.860093 0.050237 -0.030054 991277.000000 0 0 1
-1.856334 -20.120398 17.588173 26.788434 1.478796 0.854549 0.054927 -0.029846 291940.000000 0 0 1
-2.141934 -21.465398 17.834373 27.989570 1.471340 0.879964 0.066272 -0.033748 252127.000000 0 0 1
-0.933034 -22.245298 18.462473 28.923809 1.528878 0.878490 0.081395 -0.026791 1456050.000000 0 0 1
0.140966 -22.472798 17.517273 28.493883 -1.564524 0.908698 0.066445 -0.029859 -5145.690000 0 0 1
1.137566 -23.308698 18.056573 29.506428 -1.522031 0.912268 0.084146 -0.017829 -46232.200000 0 0 1
2.371066 -23.389998 17.140373 29.094782 -1.469770 0.940825 0.071680 -0.028195 33716.100000 0 0 1
3.096766 -22.178998 17.207673 28.241847 -1.432067 0.915623 0.081986 -0.026973 208278.000000 0 0 1
4.353966 -22.153498 16.535573 27.984990 -1.376733 0.938656 0.065394 -0.022844 720570.000000 0 0 1
5.235466 -20.913598 16.876373 27.378836 -1.325500 0.906631 0.074770 -0.018450 -645808.000000 0 0 1
5.740366 -20.908398 18.195973 28.305589 -1.302850 0.872596 0.073142 -0.014563 125674.000000 0 0 1
6.501766 -19.794998 18.705173 27.999972 -1.253443 0.839221 0.072125 -0.013948 -97485.000000 0 0 1
7.637466 -19.240398 17.886073 27.357548 -1.192922 0.858215 0.071000 -0.007433 -1160220.000000 0 0 1
7.199966 -18.566798 16.776273 26.038603 -1.200862 0.870709 0.070117 -0.007311 218722.000000 0 0 1
8.272166 -17.819498 16.223773 25.478894 -1.136180 0.880516 0.072639 -0.012789 655303.000000 0 0 1
7.610266 -16.907798 15.143173 23.939621 -1.147856 0.885946 0.067743 -0.002121 322602.000000 0 1 0
7.093566 -17.520398 13.964973 23.501138 -1.186095 0.934494 0.065986 -0.004502 68933.100000 0 1 0
6.346066 -16.528098 13.301873 22.144760 -1.204197 0.926447 0.052943 0.000324 -14855.200000 0 1 0
6.506266 -16.590298 11.759473 21.350754 -1.197056 0.987503 0.052054 -0.006473 805892.000000 0 1 0
7.849966 -16.252098 11.382573 21.338126 -1.120831 1.008136 0.050713 -0.006583 467282.000000 0 1 0
8.195966 -16.386598 10.019473 20.882632 -1.107019 1.070370 0.048046 -0.012916 184577.000000 0 1 0
9.739166 -16.275298 9.972473 21.428647 -1.031553 1.086732 0.045236 -0.003220 -5478.200000 0 1 0
10.210066 -16.262298 8.675173 21.070511 -1.010160 1.146455 0.043479 -0.015602 -1500600.000000 0 1 0
11.540866 -15.915898 8.812473 21.544537 -0.943412 1.149400 0.035440 -0.011197 -973980.000000 0 1 0
12.516766 -16.783998 7.994573 22.411721 -0.930017 1.206048 0.044899 -0.021390 -126466.000000 0 1 0
12.858566 -17.993298 8.693273 23.762881 -0.950318 1.196267 0.058109 -0.026605 -107883.000000 0 1 0
13.357066 -18.867598 7.770773 24.388161 -0.954764 1.246514 0.049090 -0.022022 -262960.000000 0 1 0
13.991766 -20.137598 8.388473 25.916382 -0.963563 1.241186 0.059755 -0.023145 78506.400000 0 0 1
13.119466 -21.085698 9.033473 26.425947 -1.014215 1.221921 0.064062 -0.019310 -110435.000000 0 0 1
13.756066 -22.225398 9.514373 27.815840 -1.016571 1.221700 0.052408 -0.012008 -230075.000000 0 0 1
12.844166 -23.141798 10.342073 28.416085 -1.064107 1.198290 0.075754 -0.011894 -27229.800000 0 0 1
12.529866 -22.584098 11.601173 28.313005 -1.064268 1.148619 0.076833 -0.014236 168017.000000 0 0 1
11.440766 -23.137698 12.343473 28.611283 -1.111587 1.124730 0.091799 -0.017558 263697.000000 0 0 1
11.590766 -24.627498 12.792173 30.074894 -1.130909 1.131454 0.086779 -0.012006 579593.000000 0 0 1
12.810766 -24.833298 13.531973 31.047105 -1.094533 1.119811 0.060415 -0.016216 639829.000000 0 0 1
12.978966 -26.116208 14.131773 32.407050 -1.109576 1.119568 0.051151 -0.023629 364090.000000 0 0 1
14.229166 -26.240118 15.056673 33.432266 -1.073909 1.103624 0.042164 -0.014522 286705.000000 0 0 1
14.116566 -25.473378 16.197473 33.324594 -1.064758 1.063230 0.036387 -0.005268 124859.000000 0 0 1
14.904666 -25.950808 17.265473 34.549820 -1.049456 1.047513 0.036673 -0.006862 -392729.000000 0 0 1
14.538866 -25.338248 18.698473 34.684843 -1.049871 1.001432 0.029623 -0.004017 -51709.500000 0 0 1
15.029266 -24.025598 18.944473 34.088140 -1.011800 0.981532 0.026485 -0.006258 448354.000000 0 0 1
16.425366 -24.078098 19.244873 34.927247 -0.972137 0.987236 0.030174 -0.007942 286105.000000 0 0 1
16.934766 -22.718798 19.807373 34.572563 -0.930241 0.960730 0.025368 -0.012944 -235701.000000 0 0 1
17.001966 -21.736798 18.741173 33.358459 -0.907020 0.974222 0.015245 -0.015044 -106469.000000 0 0 1
15.782466 -21.146798 18.358073 32.144862 -0.929649 0.962946 0.025100 -0.010564 -690260.000000 0 0 1
15.849266 -20.105898 17.148973 30.814504 -0.903237 0.980602 0.020161 -0.014109 -331280.000000 0 0 1
16.462866 -18.892498 17.456873 30.540053 -0.854011 0.962335 0.021498 -0.018317 -401238.000000 0 0 1
17.847766 -18.999798 17.208373 31.235608 -0.816653 0.987328 0.012708 -0.015291 -685601.000000 0 0 1
18.580266 -17.705098 17.424473 31.021107 -0.761284 0.974360 0.019375 -0.016014 -547587.000000 0 0 1
18.895866 -17.405798 18.773273 31.819041 -0.744374 0.939736 0.020315 -0.014801 75739.500000 0 0 1
19.604166 -16.202798 18.896673 31.684985 -0.690691 0.931798 0.029744 -0.014742 -427034.000000 0 0 1
20.114966 -16.007898 20.335473 32.777982 -0.672187 0.901543 0.039070 -0.013132 -303551.000000 0 0 1
21.166166 -16.909098 20.571273 34.016194 -0.674054 0.921345 0.029458 -0.013998 -383223.000000 0 0 1
21.579566 -16.834598 21.896273 35.050366 -0.662499 0.896038 0.031929 -0.006667 154598.000000 0 0 1
33.903788 -0.606798 -7.939227 34.826231 -0.017896 1.800785 0.087451 -0.027572 502999.000000 0 0 1
35.210658 -0.573598 -8.556627 36.239968 -0.016289 1.809157 0.079842 -0.030161 848850.000000 0 0 1
36.018208 -1.622698 -8.064527 36.945650 -0.045022 1.790849 0.080430 -0.027867 -705723.000000 0 0 1
-35.430522 -1.538998 -8.602627 36.492404 0.043410 1.808774 0.073783 -0.030530 -305976.000000 0 0 1
-34.556099 -2.636698 -8.215327 35.616958 0.076154 1.803550 0.089281 -0.016438 537193.000000 0 0 1
-33.426364 -2.612998 -9.066627 34.732597 0.078013 1.834897 0.138120 -0.021446 -17659.100000 0 0 1
-32.375824 -3.738498 -8.813127 33.761539 0.114963 1.834896 0.125896 -0.014361 48185.700000 0 0 1
-31.787604 -3.456698 -7.542427 32.852530 0.108318 1.802447 0.124517 -0.015043 -881649.000000 0 0 1
-30.675644 -4.217098 -7.360527 31.826976 0.136617 1.804176 0.120761 -0.020934 -1096120.000000 0 0 1
-30.281154 -4.112598 -5.856727 31.115317 0.134988 1.760152 0.123006 -0.036206 -148050.000000 0 0 1
-29.719934 -2.851698 -5.494327 30.357771 0.095660 1.752785 0.128565 -0.032280 550654.000000 0 0 1
-29.888644 -2.618398 -4.133227 30.286475 0.087382 1.707695 0.127136 -0.031612 -314958.000000 0 0 1
-29.306854 -1.283398 -3.643127 29.560297 0.043764 1.694354 0.138573 -0.029248 -848861.000000 0 0 1
-27.931634 -1.097298 -3.642127 28.189454 0.039265 1.700360 0.136876 -0.025132 -323693.000000 0 0 1
-27.580714 0.147702 -3.026327 27.746644 -0.005355 1.680084 0.143359 -0.029911 -26518.600000 0 0 1
-26.114834 0.214702 -2.549427 26.239859 -0.008221 1.668108 0.142471 -0.022002 -108773.000000 0 0 1
-25.832174 -0.601298 -1.430627 25.878745 0.023273 1.626106 0.144331 -0.026097 1148430.000000 0 0 1
-24.512434 -0.349398 -0.908827 24.531764 0.014253 1.607852 0.117399 -0.022805 800311.000000 0 1 0
-24.122034 -1.219998 0.312673 24.154889 0.050533 1.557851 0.098274 -0.021622 84466.800000 0 1 0
-24.293734 -2.607598 -0.025127 24.433291 0.106927 1.571825 0.107293 -0.017249 713847.000000 0 1 0
-23.313734 -3.340698 0.705073 23.562419 0.142324 1.540868 0.088782 -0.017706 146619.000000 0 1 0
-23.606234 -4.848198 0.793473 24.112007 0.202561 1.537883 0.093937 -0.013270 -604007.000000 0 1 0
-24.757634 -5.256398 1.463173 25.351746 0.209208 1.513049 0.100214 -0.018049 -214639.000000 0 0 1
-24.899934 -6.651098 1.399573 25.810901 0.261019 1.516546 0.089880 -0.021128 36944.900000 0 0 1
-26.268174 -7.148298 1.931873 27.291890 0.265694 1.499951 0.093790 -0.022312 -211227.000000 0 0 1
-26.469324 -6.954498 3.319673 27.568285 0.256931 1.450087 0.100149 -0.020992 389595.000000 0 0 1
-27.636504 -7.627198 3.790073 28.919114 0.269280 1.439361 0.081957 -0.017118 254905.000000 0 0 1
-27.695944 -7.676198 5.333473 29.230724 0.270373 1.387307 0.089042 -0.023025 241508.000000 0 0 1
-26.639744 -8.532198 5.774973 28.562644 0.309958 1.367207 0.079521 -0.005480 403379.000000 0 0 1
-26.708594 -8.726098 7.163973 28.996832 0.315782 1.321151 0.056691 -0.011973 177567.000000 0 0 1
-25.913624 -7.683298 8.007873 28.189980 0.288239 1.282762 0.073680 -0.009403 -783028.000000 0 0 1
-24.530434 -7.727098 7.966873 26.924362 0.305161 1.270401 0.086482 -0.013234 -725755.000000 0 0 1
-24.098134 -6.577998 8.713873 26.456033 0.266475 1.235158 0.085739 -0.015875 1196990.000000 0 0 1
-22.660034 -6.054798 8.270573 24.870466 0.261102 1.231794 0.086491 -0.014784 877719.000000 0 1 0
-21.580434 -6.864398 8.666173 24.247425 0.307964 1.205307 0.084451 -0.013540 -121832.000000 0 1 0
-20.445734 -6.243598 8.087873 22.856601 0.296380 1.209109 0.085666 -0.014279 -497857.000000 0 1 0
-19.134034 -6.374198 8.836773 22.018860 0.321571 1.157831 0.083752 -0.016065 -647608.000000 0 1 0
-18.979634 -5.385198 9.831373 22.042748 0.276469 1.108490 0.081169 -0.011061 707631.000000 0 1 0
-17.896034 -5.619698 10.745973 21.617700 0.304268 1.050553 0.072774 -0.015183 133940.000000 0 1 0
-17.834034 -4.388098 11.661273 21.755308 0.241259 1.005081 0.080248 -0.010323 -399679.000000 0 1 0
-18.967234 -4.141498 12.434973 23.055075 0.214976 1.001120 0.094488 -0.006769 -370800.000000 0 1 0
-19.002934 -2.892098 13.121973 23.273631 0.151033 0.971801 0.098801 -0.009389 4961.130000 0 1 0
-20.161634 -2.765298 14.111773 24.764500 0.136306 0.964487 0.088893 -0.010838 48470.500000 0 1 0
-19.897234 -3.548798 15.272473 25.332633 0.176500 0.923694 0.082990 0.002346 -226792.000000 0 0 1
-21.029334 -3.641998 16.072373 26.717376 0.171486 0.925331 0.062373 0.001372 -501964.000000 0 0 1
-20.967634 -4.740598 17.172173 27.513605 0.222353 0.896774 0.066883 0.013561 -521576.000000 0 0 1
-22.048234 -4.740998 18.045273 28.883101 0.211803 0.895960 0.048600 0.003562 141534.000000 0 0 1
-21.818934 -5.675898 19.071373 29.529628 0.254496 0.868675 0.068417 -0.000569 204786.000000 0 0 1
-22.729034 -5.370198 20.323773 30.959711 0.232016 0.854682 0.049244 -0.005270 -105690.000000 0 0 1
-22.362434 -4.127598 20.916173 30.896631 0.182523 0.827155 0.043822 -0.001015 327303.000000 0 0 1
-23.057834 -3.882298 22.115673 32.184451 0.166808 0.813232 0.041242 -0.013631 -170636.000000 0 0 1
-23.087434 -2.411898 22.733273 32.490745 0.104090 0.795840 0.027448 -0.000834 87012.800000 0 0 1
-23.974034 -1.566598 22.022673 32.591512 0.065253 0.828858 0.029360 -0.004015 -124433.000000 0 0 1
-23.686534 -0.189498 22.313273 32.541818 0.008000 0.815259 0.032226 -0.011380 -252761.000000 0 0 1
-24.771034 0.781702 21.837873 33.031922 -0.031547 0.848493 0.037562 -0.012436 112440.000000 0 0 1
-25.929944 0.719402 22.637873 34.428953 -0.027737 0.853268 0.047035 -0.013545 244026.000000 0 0 1
-27.086294 1.400602 22.156773 35.022158 -0.051663 0.885826 0.067833 -0.010323 988402.000000 0 0 1
-28.297844 1.337502 23.131673 36.573640 -0.047230 0.886060 0.071799 -0.018243 56792.500000 0 0 1
-28.023304 2.028602 24.339773 37.173180 -0.072264 0.856922 0.057778 -0.019247 91573.200000 0 0 1
-29.007734 1.855402 25.338873 38.560985 -0.063875 0.853816 0.058609 -0.025060 -216128.000000 0 0 1
-28.746134 2.689002 26.649673 39.290915 -0.093272 0.825397 0.072152 -0.029140 -436029.000000 0 0 1
-27.650574 2.141902 27.300773 38.916245 -0.077309 0.793259 0.052886 -0.032432 -347744.000000 0 0 1
-27.036364 3.039902 28.181873 39.171723 -0.111967 0.767794 0.050668 -0.037479 245174.000000 0 0 1
-25.798464 2.464102 28.932773 38.842475 -0.095225 0.730449 0.057642 -0.038950 491716.000000 0 0 1
-26.238534 1.683602 30.060473 39.936539 -0.064077 0.718634 0.057306 -0.036627 894924.000000 0 0 1
-25.187924 1.612102 31.028273 39.997301 -0.063916 0.682879 0.058533 -0.038600 447335.000000 0 0 1
-25.530574 0.432902 31.980373 40.923610 -0.016955 0.673786 0.055556 -0.033114 127246.000000 0 0 1
-25.751494 -0.737198 31.244973 40.496064 0.028620 0.689513 0.043470 -0.028924 -194751.000000 0 0 1
-26.368464 -1.686998 32.077273 41.558311 0.063891 0.689032 0.034614 -0.021891 -435028.000000 0 0 1
-27.171864 -2.710398 31.272173 41.516325 0.099421 0.717807 0.049446 -0.007533 803128.000000 0 0 1
-28.384784 -2.255598 30.621973 41.814936 0.079298 0.749072 0.039414 -0.007265 683245.000000 0 0 1
-28.203044 -1.278098 29.538573 40.860402 0.045287 0.762785 0.043859 -0.006664 -941999.000000 0 0 1
-29.541874 -0.937398 28.889773 41.330618 0.031721 0.796809 0.056073 -0.020836 2006.290000 0 0 1
-30.413174 -0.412398 29.883473 42.639807 0.013559 0.794229 0.072251 -0.027881 -1415350.000000 0 0 1
-31.706174 -0.376298 29.389473 43.233831 0.011868 0.823334 0.061781 -0.029100 -871444.000000 0 0 1
-32.687714 -0.231498 30.553373 44.744260 0.007082 0.819147 0.048231 -0.023348 -281907.000000 0 0 1
-32.968584 -1.426998 31.351873 45.518169 0.043257 0.810995 0.041122 -0.020517 -798.929000 0 0 1
-33.595874 -1.047598 32.569373 46.803250 0.031172 0.801154 0.052440 -0.017917 8120.500000 0 0 1
-33.744164 -2.184398 33.579073 47.654950 0.064644 0.788896 0.049051 -0.013783 45726.300000 0 0 1
-34.626367 -3.173098 33.076973 47.991040 0.091383 0.810367 0.036090 -0.010495 -15318.600000 0 0 1
-34.727546 -4.277498 33.926673 48.737240 0.122556 0.800826 0.024752 0.002740 -66297.600000 0 0 1
-35.854016 -5.273098 33.495073 49.348109 0.146025 0.824736 0.024268 -0.007929 -744762.000000 0 0 1
35.847938 -4.751898 34.001273 49.636093 -0.131789 0.816177 0.030988 -0.020408 -1713130.000000 0 0 1
34.725408 -5.410798 33.488973 48.545257 -0.154574 0.809514 0.032593 -0.022768 -200886.000000 0 0 1
33.392238 -5.103598 -34.161327 48.042529 -0.151664 2.361807 0.055281 -0.029090 -296519.000000 0 0 1
33.041498 -5.875898 -33.011527 47.074703 -0.175994 2.347957 0.068160 -0.032237 102890.000000 0 0 1
32.591618 -7.190298 -33.277927 47.131034 -0.217140 2.354733 0.068237 -0.029804 -759409.000000 0 0 1
31.176878 -7.288498 -33.861227 46.601530 -0.229655 2.384174 0.064580 -0.037218 -1554900.000000 0 0 1
30.274448 -7.039398 -32.870727 45.239143 -0.228460 2.384156 0.069021 -0.035020 -1016220.000000 0 0 1
29.008358 -7.406298 -33.385027 44.843039 -0.249976 2.410561 0.070159 -0.029624 147473.000000 0 0 1
27.772288 -7.161598 -32.472727 43.325125 -0.252370 2.418122 0.080207 -0.032832 631604.000000 0 0 1
26.570188 -7.808198 -32.883927 42.991808 -0.285824 2.441664 0.073844 -0.030401 58825.500000 0 0 1
25.472988 -7.233898 -32.237227 41.718596 -0.276698 2.453928 0.081323 -0.030745 -405365.000000 0 0 1
24.091488 -7.721298 -32.724527 41.363183 -0.310156 2.483485 0.078516 -0.032981 43606.000000 0 0 1
23.950188 -9.142798 -32.626627 41.493362 -0.364669 2.475609 0.075866 -0.041135 84512.000000 0 0 1
23.851988 -9.694498 -31.286427 40.518405 -0.386049 2.453020 0.081699 -0.036212 -339445.000000 0 0 1
23.492688 -11.178998 -31.273927 40.680891 -0.444142 2.447700 0.089694 -0.033317 33856.300000 0 0 1
22.170288 -11.513298 -31.637327 40.311266 -0.478978 2.473212 0.099360 -0.039551 151108.000000 0 0 1
21.977488 -12.929498 -31.576727 40.586594 -0.531777 2.462286 0.078132 -0.029882 402701.000000 0 0 1
20.688888 -13.509898 -32.300927 40.668137 -0.578483 2.488579 0.065360 -0.022287 1722950.000000 0 0 1
19.385588 -13.084798 -31.888627 39.546144 -0.593733 2.508776 0.060698 -0.019160 693538.000000 0 0 1
19.026288 -11.735298 -32.268127 39.254922 -0.552677 2.535736 0.059398 -0.027848 487699.000000 0 0 1
17.565488 -11.254998 -31.889927 38.107595 -0.569842 2.562280 0.054082 -0.028506 1257790.000000 0 0 1
16.524988 -11.944998 -32.573327 38.428894 -0.625894 2.582291 0.046468 -0.021169 258528.000000 0 0 1
15.261988 -11.510398 -32.090727 37.352809 -0.646176 2.604354 0.073003 -0.031451 592343.000000 0 0 1
14.028588 -12.029798 -32.879127 37.716765 -0.708844 2.629534 0.070157 -0.034543 -532669.000000 0 0 1
13.886988 -13.446698 -32.783627 38.058223 -0.769292 2.608830 0.073851 -0.030480 -810440.000000 0 0 1
12.730688 -13.875398 -33.370327 38.316783 -0.828396 2.627840 0.063255 -0.033807 -489277.000000 0 0 1
11.410988 -13.720098 -32.556027 37.126091 -0.877024 2.640180 0.054511 -0.029121 -123564.000000 0 0 1
10.873088 -12.416898 -32.492627 36.444125 -0.851588 2.671605 0.089980 -0.026477 -66473.100000 0 0 1
9.708088 -12.420198 -31.673927 35.380022 -0.907353 2.679786 0.091434 -0.031282 -107949.000000 0 0 1
8.574388 -11.568498 -32.195227 35.268725 -0.932961 2.721019 0.087146 -0.028706 -872718.000000 0 0 1
8.823888 -10.188698 -32.193127 34.900831 -0.857060 2.745090 0.083273 -0.024101 -682774.000000 0 0 1
7.725888 -9.448298 -32.558127 34.770553 -0.885355 2.782940 0.079992 -0.020024 -824729.000000 0 0 1
7.958688 -7.892298 -32.752727 34.617485 -0.781210 2.811871 0.090508 -0.017681 -183061.000000 0 0 1
8.191888 -7.284898 -31.500927 33.353938 -0.726862 2.806695 0.067848 -0.020237 -187035.000000 0 0 1
8.937488 -6.153698 -31.734527 33.538439 -0.602984 2.812122 0.068637 -0.010757 -334147.000000 0 0 1
9.266688 -5.337798 -30.413627 32.238988 -0.522601 2.803474 0.063697 -0.013248 -106554.000000 0 0 1
8.123988 -4.643598 -29.967227 31.394218 -0.519269 2.838929 0.069725 -0.017791 -108186.000000 0 0 1
8.317488 -3.797798 -28.842527 30.257152 -0.428332 2.834600 0.066927 -0.017138 -45243.400000 0 0 1
6.947788 -3.331298 -28.315027 29.344677 -0.447094 2.875904 0.064557 -0.022271 -861538.000000 0 0 1
6.413988 -2.275498 -29.129727 29.914180 -0.340919 2.912076 0.060789 -0.015820 28803.400000 0 0 1
5.121788 -1.805798 -28.831427 29.338453 -0.338964 2.955410 0.078637 -0.028145 249682.000000 0 0 1
3.939188 -2.792698 -28.960427 29.360223 -0.616709 2.976378 0.066664 -0.030394 -740351.000000 0 0 1
3.947388 -3.717898 -27.900427 28.422500 -0.755468 2.949630 0.069344 -0.035442 -1219660.000000 0 0 1
2.885988 -4.570598 -27.847827 28.367601 -1.007590 2.949869 0.076318 -0.028646 -849266.000000 0 0 1
2.867688 -5.491698 -26.608127 27.319861 -1.089558 2.912832 0.051589 -0.027156 -104672.000000 0 0 1
2.603588 -4.815598 -25.406927 25.990010 -1.075154 2.929370 0.048106 -0.034079 75511.200000 0 0 1
2.784088 -5.705598 -24.308827 25.124173 -1.116829 2.886133 0.044155 -0.038351 -53407.200000 0 0 1
2.759688 -5.000998 -22.915327 23.616479 -1.066551 2.897309 0.047388 -0.041047 404539.000000 0 1 0
3.942588 -4.234398 -22.649927 23.377197 -0.821070 2.891501 0.053541 -0.039428 462681.000000 0 1 0
3.822188 -3.577798 -21.381827 22.013457 -0.752385 2.901463 0.052710 -0.035857 -4561.520000 0 1 0
4.873888 -2.455998 -21.083527 21.778472 -0.466770 2.888291 0.065941 -0.037908 134092.000000 0 1 0
6.116488 -3.032498 -20.745127 21.839592 -0.460275 2.823668 0.059889 -0.039231 -538545.000000 0 1 0
7.067688 -2.089298 -20.340527 21.634566 -0.287427 2.793974 0.080748 -0.029894 233563.000000 0 1 0
8.461888 -2.735198 -20.111127 21.989595 -0.312637 2.725251 0.069595 -0.028140 -573613.000000 0 1 0
9.160288 -3.051898 -21.310327 23.395619 -0.321600 2.716179 0.078579 -0.037502 717990.000000 0 1 0
10.396988 -3.741898 -21.104427 23.822175 -0.345469 2.659260 0.064880 -0.039802 1151960.000000 0 1 0
11.604788 -2.932298 -20.528327 23.763032 -0.247499 2.613712 0.047675 -0.028154 -412640.000000 0 1 0
11.490288 -2.740098 -19.140727 22.492272 -0.234099 2.588666 0.054573 -0.013401 -98381.500000 0 1 0
12.699088 -2.271098 -18.620427 22.652705 -0.176969 2.535703 0.047604 -0.019198 -481098.000000 0 1 0
12.996988 -0.760898 -18.727427 22.808270 -0.058477 2.534098 0.048656 -0.011522 -194316.000000 0 1 0
13.257888 -0.116998 -19.970527 23.970967 -0.008825 2.555509 0.035773 -0.017321 254016.000000 0 1 0
13.241588 1.293202 -19.866827 23.910308 0.097353 2.551501 0.052722 -0.021895 -157298.000000 0 1 0
13.784188 2.105202 -21.023427 25.227370 0.151555 2.555951 0.049367 -0.026223 582188.000000 0 0 1
15.196888 2.133402 -21.278927 26.235273 0.139473 2.516794 0.042268 -0.023495 775869.000000 0 0 1
15.445888 3.171202 -22.194327 27.225358 0.202496 2.523884 0.043278 -0.026553 -22644.400000 0 0 1
16.766388 3.243302 -23.002627 28.648763 0.191081 2.502972 0.032051 -0.022078 205202.000000 0 0 1
16.852988 2.317902 -24.065627 29.471177 0.136679 2.526261 0.032211 -0.017782 90630.000000 0 0 1
17.662988 1.232302 -23.656427 29.548710 0.069655 2.499077 0.031510 -0.016976 -306357.000000 0 0 1
9.813866 26.753102 2.900773 28.643584 1.219207 1.469351 0.030216 0.000790 125071.000000 0 0 1
9.621766 27.014602 4.288973 28.995903 1.228636 1.422335 0.034144 -0.000284 -483772.000000 0 0 1
10.720366 27.621202 4.885173 30.028685 1.200572 1.407387 0.032917 -0.007120 -667413.000000 0 0 1
10.466866 28.334002 6.230573 30.841384 1.216935 1.367376 0.033590 -0.009280 -182764.000000 0 0 1
10.456466 27.388402 7.275573 30.205897 1.206091 1.327538 0.032231 -0.013673 118481.000000 0 0 1
10.206466 27.961102 8.584473 30.978837 1.220801 1.290014 0.033543 -0.011428 -577803.000000 0 0 1
10.350866 26.991602 9.767473 30.513776 1.204608 1.244961 0.047546 -0.012746 495993.000000 0 0 1
11.667166 26.567002 10.120773 30.730415 1.156993 1.235191 0.044243 -0.009890 257343.000000 0 0 1
12.201566 25.655402 9.233473 29.871975 1.126863 1.256548 0.044074 -0.007133 -234961.000000 0 0 1
13.505366 25.008102 9.794373 30.062099 1.075632 1.238934 0.048673 -0.013315 832422.000000 0 0 1
14.621366 25.893102 9.929173 31.350048 1.056751 1.248527 0.044963 -0.009978 198127.000000 0 0 1
15.679366 25.372302 10.669173 31.676923 1.017267 1.227267 0.065679 -0.016488 -705467.000000 0 0 1
16.730066 26.392502 11.026473 33.136722 1.005826 1.231571 0.058357 -0.013866 -920396.000000 0 0 1
17.544466 26.792902 9.934173 33.531413 0.991042 1.270017 0.051202 -0.015650 2155390.000000 0 0 1
18.996766 26.704402 10.115773 34.297683 0.952479 1.271403 0.065437 -0.029009 1899160.000000 0 0 1
19.717766 27.545102 11.211473 35.682209 0.949521 1.251179 0.059575 -0.023032 -684885.000000 0 0 1
19.752466 28.956102 11.015673 36.741813 0.972149 1.266300 0.058057 -0.031144 -578628.000000 0 0 1
18.628066 29.684502 11.377473 36.845914 1.010376 1.256881 0.046592 -0.018032 -680484.000000 0 0 1
18.773066 31.243502 11.313273 38.165096 1.029742 1.269844 0.039128 -0.008285 -685124.000000 0 0 1
18.868466 31.873802 10.006373 38.367770 1.036299 1.306944 0.056197 -0.028996 398900.000000 0 0 1
17.732266 31.789302 9.148573 37.532511 1.061980 1.324565 0.052456 -0.032322 -99064.100000 0 0 1
16.423266 32.412302 9.579373 37.577192 1.101804 1.313026 0.041033 -0.023788 -1111510.000000 0 0 1
16.562766 33.823002 9.703273 38.890541 1.115431 1.318630 0.038429 -0.023606 547223.000000 0 0 1
15.359266 -33.778415 9.503373 38.304079 -1.144035 1.320074 0.049263 -0.013727 618875.000000 0 0 1
15.527566 -32.310315 9.909973 37.192329 -1.122808 1.301086 0.046742 -0.011221 330160.000000 0 0 1
16.333366 -31.545315 8.990473 36.643067 -1.093030 1.322913 0.049244 -0.013495 303092.000000 0 0 1
16.271466 -30.186515 9.135473 35.488635 -1.076414 1.310445 0.039961 -0.017984 278863.000000 0 0 1
16.952966 -29.395015 7.945073 34.851028 -1.047663 1.340802 0.034377 -0.018606 320683.000000 0 0 1
16.321566 -29.787915 6.685573 34.618063 -1.069547 1.376451 0.034733 -0.013684 83276.600000 0 0 1
17.072766 -29.394015 5.561273 34.444379 -1.044596 1.408630 0.019087 -0.008890 -327549.000000 0 0 1
16.497666 -29.707215 4.201773 34.239546 -1.063861 1.447769 0.031193 -0.015196 -296752.000000 0 0 1
16.648866 -31.065915 3.785873 35.448677 -1.078827 1.463794 0.045310 -0.021110 12879.800000 0 0 1
16.298066 -31.315515 2.444873 35.387369 -1.090925 1.501652 0.051591 -0.020998 -151681.000000 0 0 1
16.869166 -32.685115 2.042873 36.838280 -1.094343 1.515313 0.055519 -0.020389 889698.000000 0 0 1
18.309266 -32.771515 2.083773 37.597122 -1.061302 1.515344 0.059300 -0.013134 953203.000000 0 0 1
18.661966 -34.049015 1.562073 38.859291 -1.069420 1.530587 0.093500 -0.014037 746129.000000 0 0 1
20.138266 33.885402 1.884873 39.462932 1.034575 1.523015 0.100334 -0.015984 785429.000000 0 0 1
20.337166 33.479002 3.235473 39.305371 1.024909 1.488387 0.087279 -0.034126 142429.000000 0 0 1
21.683066 33.112402 3.468673 39.731829 0.991032 1.483383 0.061070 -0.014065 115850.000000 0 0 1
21.954766 32.911002 4.998273 39.876416 0.982497 1.445122 0.069455 -0.008324 -74835.600000 0 0 1
21.230466 31.827502 5.533273 38.656690 0.982530 1.427164 0.061460 -0.021492 367148.000000 0 0 1
22.065666 30.757802 6.015473 38.329126 0.948487 1.413202 0.063685 -0.023752 785134.000000 0 0 1
21.183166 29.706002 6.764173 37.106968 0.951337 1.387483 0.064961 -0.036437 131698.000000 0 0 1
20.237566 29.080402 5.965173 35.927874 0.962815 1.403992 0.061823 -0.030728 -137313.000000 0 0 1
19.149866 28.640202 6.780873 35.113513 0.981432 1.376463 0.062109 -0.038552 670788.000000 0 0 1
17.745966 28.673102 6.086973 34.265395 1.016591 1.392207 0.065403 -0.034202 66543.900000 0 0 1
17.217866 29.981102 5.980173 35.086804 1.049495 1.399521 0.060145 -0.042647 -21609.000000 0 0 1
17.749666 30.691802 4.892573 35.790706 1.046471 1.433667 0.077710 -0.040930 -631461.000000 0 0 1
17.738266 32.213402 5.032373 37.117033 1.067455 1.434796 0.085918 -0.037568 706091.000000 0 0 1
16.416966 32.770002 5.092673 37.004393 1.106369 1.432735 0.069979 -0.031775 478526.000000 0 0 1
16.422266 34.110702 5.460373 38.249790 1.122106 1.427551 0.065707 -0.037895 -530870.000000 0 0 1
15.008866 -33.699315 5.604473 37.313805 -1.151794 1.420027 0.052406 -0.034191 -257950.000000 0 0 1
14.239466 -33.635515 4.440573 36.794415 -1.170327 1.449815 0.057955 -0.027336 -974374.000000 0 0 1
13.104766 -32.867115 4.521773 35.671117 -1.191394 1.443692 0.047131 -0.021459 -475968.000000 0 0 1
12.233266 -32.804615 3.233673 35.160379 -1.213857 1.478697 0.052655 -0.017738 557517.000000 0 0 1
11.171466 -31.844315 3.335173 33.911435 -1.233396 1.472288 0.051488 -0.015355 205588.000000 0 0 1
10.572366 -31.623415 2.084873 33.409011 -1.248157 1.508351 0.051367 -0.011855 -1011640.000000 0 0 1
9.646466 -30.421215 2.157673 31.986876 -1.263729 1.503290 0.059543 -0.013415 87137.100000 0 0 1
9.011266 -30.003715 0.879673 31.340065 -1.279029 1.542724 0.065174 -0.006551 281085.000000 0 0 1
8.084566 -30.905015 0.326073 31.946620 -1.314936 1.560589 0.058225 -0.011595 -800748.000000 0 0 1
8.503766 -31.454815 -1.119227 32.603253 -1.306760 1.605132 0.061564 -0.018581 -276574.000000 0 0 1
9.677866 -32.207315 -1.016727 33.645297 -1.278893 1.601020 0.051059 -0.017926 -500894.000000 0 0 1
9.825666 -33.019215 -2.144527 34.516826 -1.281567 1.632966 0.051599 -0.008558 -165353.000000 0 0 1
10.971466 -34.033215 -2.129127 35.821307 -1.258940 1.630269 0.051908 -0.009861 -158191.000000 0 0 1
10.897966 33.485102 -0.969627 35.227232 1.256151 1.598325 0.051891 -0.001024 123744.000000 0 0 1
11.958466 32.547202 -1.100227 34.692013 1.218688 1.602516 0.077502 -0.011658 -29847.400000 0 0 1
12.214666 31.803402 0.196873 34.068948 1.204099 1.565018 0.060426 -0.015009 -527352.000000 0 0 1
12.656266 32.503102 1.300673 34.904505 1.199473 1.533524 0.060186 -0.018497 1541830.000000 0 0 1
13.997366 33.110702 1.348773 35.973101 1.170838 1.533294 0.070346 -0.019161 1976790.000000 0 0 1
15.177466 32.080402 1.420973 35.517979 1.128894 1.530779 0.077799 -0.026621 -190347.000000 0 0 1
15.787166 31.694902 0.206273 35.409659 1.108671 1.564971 0.090620 -0.028011 33930.800000 0 0 1
16.581466 30.541002 0.330873 34.753522 1.073401 1.561276 0.099489 -0.023694 -39876.400000 0 0 1
17.379466 30.169402 -0.962727 34.830525 1.048164 1.598440 0.090666 -0.021282 889039.000000 0 0 1
18.556266 30.909202 -1.297627 36.074889 1.030121 1.606774 0.082289 -0.011698 413594.000000 0 0 1
18.217366 32.227702 -1.785127 37.063242 1.056305 1.618979 0.081943 -0.015273 -38808.400000 0 0 1
19.396266 33.031502 -2.386427 38.379556 1.039838 1.633016 0.084645 -0.006857 -18031.100000 0 0 1
20.298366 33.559702 -1.448227 39.247606 1.026823 1.607704 0.068580 -0.008339 -212392.000000 0 0 1
21.314166 -34.167615 -2.187627 40.329956 -1.013052 1.625066 0.050047 -0.004364 -228674.000000 0 0 1
22.540166 -33.513915 -1.433827 40.414075 -0.978724 1.606282 0.048166 0.001097 671726.000000 0 0 1
23.573466 33.999002 -0.942527 41.382711 0.964542 1.593574 0.049474 0.000597 727678.000000 0 0 1
24.317466 33.179302 -1.827727 41.177006 0.938322 1.615198 0.054178 0.008535 -476866.000000 0 0 1
24.964066 33.831202 -3.107527 42.159359 0.935084 1.644572 0.032852 0.004596 -1315720.000000 0 0 1
24.126666 -34.082715 -4.164827 41.965144 -0.954798 1.670205 0.036031 -0.012513 -290821.000000 0 0 1
24.753166 -33.370515 -5.181927 41.870788 -0.932585 1.694874 0.037669 -0.013092 56957.000000 0 0 1
23.724366 -32.964315 -6.305427 41.100487 -0.946972 1.724819 0.032944 -0.020888 -254425.000000 0 0 1
22.820566 -32.030015 -5.898527 39.767987 -0.951747 1.719669 0.049444 -0.016580 86592.000000 0 0 1
21.959566 -31.525415 -6.957727 39.044645 -0.962378 1.749952 0.054181 -0.017654 479713.000000 0 0 1
20.973666 -30.405515 -6.556527 37.515038 -0.966950 1.746469 0.068936 -0.022485 575261.000000 0 0 1
19.731966 -30.796415 -5.968527 37.059317 -1.000971 1.732554 0.061311 -0.017382 203162.000000 0 0 1
19.040466 -29.627115 -5.594427 35.659542 -0.999591 1.728332 0.070996 -0.026673 288001.000000 0 0 1
17.746166 -29.803015 -4.751627 35.010343 -1.033730 1.706937 0.062511 -0.018409 -36892.400000 0 0 1
16.673766 -30.332115 -5.447827 35.038986 -1.068178 1.726909 0.057111 -0.020970 -368470.000000 0 0 1
15.498166 -30.228815 -4.644227 34.286197 -1.097044 1.706669 0.044741 -0.017347 422545.000000 0 0 1
14.306966 -31.113215 -5.061427 34.617041 -1.139793 1.717534 0.037760 -0.012306 -123950.000000 0 0 1
14.567166 -32.518515 -4.984627 35.979198 -1.149636 1.709785 0.044210 -0.006756 -73737.900000 0 0 1
13.473366 -33.239115 -5.514627 36.287484 -1.185689 1.723358 0.045596 -0.004884 -4674.430000 0 0 1
13.625766 33.594002 -5.472627 36.662898 1.185471 1.720625 0.051200 -0.006683 -190199.000000 0 0 1
13.666166 33.035202 -4.130927 35.988237 1.178549 1.685835 0.067685 -0.013851 60644.600000 0 0 1
14.112766 31.654702 -4.167627 34.907871 1.151412 1.690471 0.073247 -0.017996 390354.000000 0 0 1
13.056966 30.617902 -4.694627 33.615172 1.167699 1.710912 0.067602 -0.022162 389699.000000 0 0 1
12.123866 30.114102 -3.752727 32.679202 1.188053 1.685886 0.067285 -0.017313 -1647.680000 0 0 1
12.678166 29.108902 -2.919227 31.883945 1.160030 1.662483 0.077150 -0.018501 557352.000000 0 0 1
11.561166 28.353702 -2.080727 30.690754 1.183628 1.638645 0.063366 -0.014023 581953.000000 0 0 1
10.843066 29.214902 -1.262627 31.187767 1.215407 1.611292 0.050705 -0.007617 7651.900000 0 0 1
9.888066 28.443202 -0.493527 30.116991 1.236223 1.587184 0.032431 0.003667 695116.000000 0 0 1
8.612466 29.234202 -0.079527 30.476539 1.284299 1.573406 0.023745 0.014821 506261.000000 0 0 1
7.691766 28.459202 0.659973 29.487709 1.306830 1.548413 0.027280 0.008125 293968.000000 0 0 1
6.565166 29.186302 1.165373 29.938265 1.349539 1.531861 0.027140 0.009998 430276.000000 0 0 1
5.536166 28.295702 1.872773 28.892960 1.377583 1.505933 0.014398 0.000455 71889.900000 0 0 1
4.810466 27.489202 0.947073 27.922997 1.397556 1.536873 0.015335 -0.006237 182927.000000 0 0 1
3.634366 26.986802 1.581073 27.276288 1.436930 1.512799 0.019423 -0.007169 136003.000000 0 0 1
3.020766 26.036402 0.569873 26.217246 1.455292 1.549058 0.014896 -0.005941 -512010.000000 0 0 1
1.875766 25.376902 1.039973 25.467375 1.497014 1.529949 0.019288 -0.006676 -382606.000000 0 0 1
1.363366 24.601102 0.001573 24.638851 1.515434 1.570733 0.008847 0.000303 179499.000000 0 1 0
0.010866 23.897302 0.339073 23.899709 1.570342 1.556609 0.007107 0.001012 258891.000000 0 1 0
-0.991134 24.862802 0.497373 24.887520 -1.530953 1.550810 0.013584 -0.005676 -532997.000000 0 1 0
-2.252734 24.226202 0.607373 24.338294 -1.478075 1.545838 0.010807 -0.000329 -575430.000000 0 1 0
-3.339234 25.111602 1.175873 25.359923 -1.438596 1.524412 0.032486 -0.015585 -379012.000000 0 0 1
-4.581234 24.416202 1.150773 24.868914 -1.385322 1.524506 0.032455 -0.014382 -413336.000000 0 1 0
-5.539934 25.027002 1.921673 25.704756 -1.352951 1.495967 0.032733 -0.020647 -478183.000000 0 0 1
-6.783134 25.508902 1.164373 26.421028 -1.310898 1.526712 0.051311 -0.024206 -211430.000000 0 0 1
-6.427834 26.664602 0.471373 27.432466 -1.334247 1.553612 0.053112 -0.025183 348293.000000 0 0 1
-7.463034 26.961202 -0.448927 27.978649 -1.300751 1.586842 0.051694 -0.020501 -6330.140000 0 0 1
-7.044134 28.130502 -1.397827 29.032721 -1.325433 1.618962 0.043380 -0.015989 69798.100000 0 0 1
-7.215834 29.358002 -0.801027 30.242390 -1.329786 1.597286 0.060482 -0.029634 -209413.000000 0 0 1
-7.190034 30.322802 -1.822627 31.216836 -1.337980 1.629216 0.060462 -0.026983 1073.630000 0 0 1
-7.388834 31.840702 -1.388927 32.716269 -1.342776 1.613263 0.059944 -0.021016 -832416.000000 0 0 1
-7.560834 32.805702 -2.455627 33.755153 -1.344279 1.643609 0.046314 -0.005125 -378166.000000 0 0 1
-6.543734 32.847202 -3.415427 33.666367 -1.374153 1.672420 0.045942 -0.010271 -251968.000000 0 0 1
-5.197634 33.313902 -2.816127 33.834332 -1.416024 1.654126 0.051256 -0.018061 -1098790.000000 0 0 1
-4.935734 -33.640115 -2.689927 34.106517 1.425114 1.649747 0.052687 -0.014569 -613636.000000 0 0 1
-3.899434 -33.354415 -1.826627 33.631223 1.454416 1.625137 0.043540 -0.014871 -421750.000000 0 0 1
-3.661234 -31.815415 -1.847927 32.078655 1.456223 1.628434 0.039963 -0.018852 614255.000000 0 0 1
-4.863434 -31.196815 -1.380427 31.603795 1.416146 1.614489 0.049178 -0.020786 375387.000000 0 0 1
-5.144834 -30.001615 -2.102527 30.512077 1.400963 1.639759 0.050936 -0.014295 235891.000000 0 0 1
-6.577734 -29.454415 -1.883027 30.238633 1.351082 1.633109 0.065211 -0.016495 259753.000000 0 0 1
-6.846334 -29.057415 -0.556827 29.858261 1.339403 1.589446 0.059424 -0.012422 -17760.700000 0 0 1
-8.147334 -28.510515 -0.381527 29.654242 1.292449 1.583663 0.061922 -0.014420 479620.000000 0 0 1
-8.352834 -27.865615 0.981773 29.107151 1.279565 1.537060 0.066837 -0.007132 342975.000000 0 0 1
-7.421534 -26.782215 1.057873 27.811604 1.300473 1.532750 0.078105 -0.020934 -133210.000000 0 0 1
-7.158234 -26.315615 2.389973 27.376338 1.305208 1.483384 0.079917 -0.011118 -162540.000000 0 0 1
-8.257034 -25.564215 3.148273 27.048463 1.258382 1.454138 0.074418 -0.010022 -111850.000000 0 0 1
-8.123034 -24.172215 2.832973 25.657463 1.246604 1.460156 0.069483 -0.020791 -15995.800000 0 0 1
-9.028634 -23.342815 3.547273 25.278180 1.201734 1.430002 0.073951 -0.017722 275212.000000 0 0 1
-8.355134 -21.955815 3.816173 23.799774 1.207175 1.409756 0.051909 -0.000101 400129.000000 0 1 0
-7.290334 -21.907115 4.733373 23.568527 1.249540 1.368587 0.048455 -0.002747 -160467.000000 0 1 0
-6.837634 -20.539415 5.033073 22.225045 1.249433 1.342355 0.027778 -0.006962 355581.000000 0 1 0
-7.886634 -19.645115 5.768373 21.940913 1.189036 1.304765 0.034480 -0.005564 339360.000000 0 1 0
-8.343634 -20.083115 7.038873 22.858116 1.177038 1.257772 0.043185 -0.005563 110254.000000 0 1 0
-9.176334 -19.068215 7.576773 22.476864 1.122271 1.226970 0.032614 -0.005484 -218468.000000 0 1 0
-27.019424 28.877102 -5.343027 39.905942 -0.818620 1.705090 0.111980 -0.015192 -77708.100000 0 0 1
-26.236674 29.822302 -4.698227 39.997576 -0.849273 1.688531 0.109526 -0.030911 -1110060.000000 0 0 1
-25.198794 29.207602 -4.052527 38.787706 -0.858948 1.675467 0.093469 -0.024752 -829414.000000 0 0 1
-24.272034 30.138602 -3.283327 38.836158 -0.892803 1.655440 0.079311 -0.029701 -358566.000000 0 0 1
-24.821434 30.482202 -2.009727 39.361240 -0.887401 1.621877 0.073326 -0.033480 499457.000000 0 0 1
-24.027934 31.397202 -1.225227 39.555367 -0.917582 1.601776 0.072931 -0.032178 444457.000000 0 0 1
-22.800434 30.812702 -0.494427 38.334408 -0.933746 1.583694 0.063319 -0.029014 -193789.000000 0 0 1
-21.806434 30.274202 -1.280627 37.332129 -0.946577 1.605107 0.059119 -0.027793 -566760.000000 0 0 1
-20.549834 30.293702 -0.641927 36.611693 -0.974747 1.588331 0.041769 -0.023215 -148786.000000 0 0 1
-19.399034 29.721702 -1.469827 35.522703 -0.992533 1.612185 0.054304 -0.020705 -219345.000000 0 0 1
-18.182434 29.631302 -0.772227 34.773715 -1.020420 1.593005 0.052915 -0.014163 148525.000000 0 0 1
-17.137934 29.079502 -1.584727 33.791087 -1.038246 1.617711 0.058138 -0.017296 277159.000000 0 0 1
-15.704434 29.356302 -1.135027 33.312310 -1.079574 1.604875 0.066851 -0.010456 -323633.000000 0 0 1
-15.415534 28.713102 0.071373 32.589661 -1.078081 1.568606 0.068042 -0.025821 1538800.000000 0 0 1
-14.122634 29.180602 0.605173 32.424104 -1.120052 1.552131 0.061291 -0.024829 1759140.000000 0 0 1
-13.718934 28.377202 1.885073 31.575753 -1.120477 1.511061 0.046404 -0.029596 309734.000000 0 0 1
-14.713434 28.587402 2.911173 32.283116 -1.095472 1.480497 0.042478 -0.022821 448674.000000 0 0 1
-14.484134 27.861102 4.094773 31.666990 -1.091380 1.441126 0.031338 -0.028470 -188212.000000 0 0 1
-13.388934 28.472902 4.963873 31.852939 -1.131244 1.414321 0.041246 -0.035787 -162267.000000 0 0 1
-13.788934 29.654302 5.706173 33.197480 -1.135547 1.398053 0.034218 -0.024639 -153637.000000 0 0 1
-13.811634 30.886802 4.954873 34.195124 -1.150299 1.425384 0.037697 -0.018048 -25990.100000 0 0 1
-13.458734 32.081402 5.825273 35.274462 -1.173578 1.404895 0.045614 -0.027136 230600.000000 0 0 1
-14.569934 32.468502 6.617673 36.197792 -1.148990 1.386943 0.045459 -0.030256 310776.000000 0 0 1
-14.229834 33.646702 7.368373 37.267702 -1.170690 1.371770 0.063171 -0.029791 177350.000000 0 0 1
-15.405834 34.022502 8.285573 38.255993 -1.145606 1.352484 0.057138 -0.033857 10455.200000 0 0 1
-15.589134 33.367902 9.542473 38.045982 -1.133740 1.317275 0.036893 -0.033406 -67414.700000 0 0 1
-16.764434 33.842702 10.173773 39.113685 -1.110865 1.307663 0.058756 -0.036596 -693382.000000 0 0 1
-16.960434 33.276602 11.633373 39.119354 -1.099434 1.268847 0.054839 -0.031661 266402.000000 0 0 1
-16.023934 33.804402 12.567773 39.464578 -1.128149 1.246695 0.058826 -0.037894 1055390.000000 0 0 1
-14.705434 33.229002 12.346773 38.377847 -1.154157 1.243255 0.057323 -0.031968 701762.000000 0 0 1
-13.752434 33.431602 13.572273 38.613573 -1.180535 1.211634 0.069152 -0.031026 -16673.400000 0 0 1
-14.236634 32.745702 14.697473 38.613190 -1.160685 1.180315 0.049682 -0.026315 502635.000000 0 0 1
-13.492834 31.538102 15.009873 37.443353 -1.166534 1.158331 0.031517 -0.021833 133250.000000 0 0 1
-14.235634 30.317502 14.456873 36.480205 -1.131803 1.163320 0.028301 -0.027779 11963.200000 0 0 1
-14.078534 30.108602 13.071273 35.715419 -1.133410 1.196106 0.025778 -0.029155 -570057.000000 0 0 1
-15.218534 29.599002 12.496773 35.551005 -1.095887 1.211606 0.007262 -0.025114 -854501.000000 0 0 1
-15.316934 29.632402 10.939173 35.104888 -1.093722 1.253905 0.009631 -0.016048 -241020.000000 0 0 1
-14.372134 28.821602 10.301573 33.813686 -1.108223 1.261218 -0.003140 -0.011203 -172440.000000 0 0 1
-14.598134 28.635902 8.924073 33.358049 -1.099352 1.299974 0.006701 -0.013359 -723024.000000 0 0 1
-14.111634 27.276902 8.415073 31.843068 -1.093367 1.303352 0.012219 -0.015455 -218045.000000 0 0 1
-12.739234 27.212902 8.134673 31.128813 -1.132966 1.306404 0.026469 -0.021281 -329827.000000 0 0 1
-12.238734 25.915902 7.853973 29.717090 -1.129596 1.303327 0.026581 -0.024377 -521170.000000 0 0 1
-10.882734 25.929802 7.189273 29.025405 -1.173424 1.320502 0.054995 -0.032921 -731037.000000 0 0 1
-11.014634 26.366502 5.840073 29.165408 -1.175082 1.369194 0.061476 -0.035824 973938.000000 0 0 1
-9.780834 26.141802 5.127573 28.378698 -1.212775 1.389115 0.073040 -0.034919 503321.000000 0 0 1
-9.885734 26.430002 3.599973 28.447012 -1.212872 1.443906 0.070013 -0.030342 -695.793000 0 0 1
-9.720034 27.833202 3.362073 29.672710 -1.234813 1.457247 0.068354 -0.030791 -3412.010000 0 0 1
-9.959934 28.048702 2.028073 29.833589 -1.229590 1.502764 0.072076 -0.031828 -178849.000000 0 0 1
-9.661234 29.436602 1.504673 31.018011 -1.253669 1.522268 0.073482 -0.029264 401438.000000 0 0 1
-10.684534 30.375402 1.791773 32.249569 -1.232564 1.515208 0.059757 -0.030061 101345.000000 0 0 1
-10.193634 31.653702 1.469773 33.287043 -1.259248 1.526627 0.060676 -0.022164 -284624.000000 0 0 1
-10.778434 32.746502 2.350273 34.554765 -1.252818 1.502728 0.056865 -0.018519 541709.000000 0 0 1
-12.150234 32.967102 2.005073 35.192020 -1.217687 1.513790 0.067008 -0.013905 319769.000000 0 0 1
-12.249434 34.004602 1.010273 36.157741 -1.225038 1.542852 0.063602 -0.007881 -139181.000000 0 0 1
-13.700134 -33.982715 0.620073 36.645642 1.187577 1.553875 0.060601 -0.005626 298376.000000 0 0 1
-14.445134 33.415702 -0.085327 36.404372 -1.162771 1.573140 0.048103 -0.000031 32224.600000 0 0 1
-14.618734 33.634402 -1.509627 36.705031 -1.160792 1.611937 0.050500 0.001645 -114315.000000 0 0 1
-13.375634 33.364302 -2.379427 36.024240 -1.189517 1.636895 0.057907 0.000559 -59869.700000 0 0 1
-13.045334 32.001302 -2.363027 34.638821 -1.183712 1.639068 0.054935 0.000116 -302076.000000 0 0 1
-11.683534 31.685702 -2.471327 33.861425 -1.217532 1.643845 0.051112 -0.000603 -157263.000000 0 0 1
-11.319434 30.141202 -2.533927 32.296167 -1.211546 1.649336 0.038330 -0.007306 129344.000000 0 0 1
-11.478534 29.550002 -3.786627 31.926445 -1.200291 1.689681 0.049664 -0.011779 185579.000000 0 0 1
-10.280034 29.640102 -4.566427 31.702791 -1.236950 1.715338 0.035350 -0.002224 503270.000000 0 0 1
-10.401134 29.084302 -5.998727 31.465297 -1.227349 1.762616 0.044252 -0.004837 -77139.200000 0 0 1
-10.516934 27.701902 -6.071527 30.246730 -1.207958 1.772903 0.055388 -0.006792 64252.400000 0 0 1
-9.930934 27.243102 -7.250527 29.889466 -1.221236 1.815819 0.068037 -0.006749 -16768.900000 0 0 1
-10.466834 25.782102 -7.423327 28.798909 -1.185152 1.831504 0.073690 -0.017794 474611.000000 0 0 1
-10.101834 24.896002 -6.394527 27.617891 -1.185333 1.804452 0.038008 -0.007280 602757.000000 0 0 1
-10.941834 23.732102 -6.577527 26.948103 -1.138786 1.817369 0.079868 -0.021460 711411.000000 0 0 1
-10.383634 22.585902 -5.678427 25.498771 -1.139873 1.795373 0.061699 -0.021651 129091.000000 0 0 1
-9.040434 22.197302 -5.901227 24.683479 -1.184033 1.812210 0.050987 -0.024458 218491.000000 0 1 0
-8.614534 20.968202 -5.289527 23.277774 -1.180982 1.800034 0.049432 -0.019416 -196367.000000 0 1 0
-8.558934 20.838402 -3.716427 22.832130 -1.181075 1.734296 0.041763 -0.025568 703650.000000 0 1 0
-9.841234 20.780302 -3.063327 23.196008 -1.128503 1.703246 0.065813 -0.023221 696387.000000 0 1 0
-10.510734 19.542302 -3.154027 22.412607 -1.077333 1.711991 0.070825 -0.024183 -64975.400000 0 1 0
-11.826834 19.430802 -2.353227 22.868488 -1.024030 1.673881 0.073446 -0.026436 -181327.000000 0 1 0
-11.680734 19.352302 -0.934527 22.623538 -1.027746 1.612116 0.076799 -0.028711 219845.000000 0 1 0
-11.285034 18.029602 -0.508527 21.276210 -1.011538 1.594700 0.069149 -0.030371 -157817.000000 0 1 0
-11.058134 18.069202 1.008873 21.208399 -1.021609 1.523209 0.064700 -0.028348 -304250.000000 0 1 0
-12.248034 17.923402 1.728573 21.777296 -0.971330 1.491338 0.091216 -0.034485 -123557.000000 0 1 0
-12.041734 18.363602 3.064073 22.172365 -0.990397 1.432159 0.089243 -0.026354 280187.000000 0 1 0
-13.285634 18.258702 3.988573 22.930263 -0.941764 1.395963 0.081475 -0.031509 218885.000000 0 1 0
-13.641634 16.931302 4.335473 22.171140 -0.892586 1.373982 0.065012 -0.030436 434816.000000 0 1 0
-14.907734 16.968602 4.988473 23.131338 -0.849960 1.353430 0.074521 -0.033898 287871.000000 0 1 0
-15.263234 15.631102 5.602273 22.554004 -0.797305 1.319775 0.046707 -0.030477 -556923.000000 0 1 0
-14.536334 15.270002 6.743073 22.134746 -0.810008 1.261239 0.049335 -0.021348 -100366.000000 0 1 0
-15.069534 15.797502 7.922373 23.225329 -0.808978 1.222700 0.047280 -0.015572 -629719.000000 0 1 0
-14.027934 15.579702 9.034573 22.828349 -0.837761 1.163900 0.039316 -0.017096 924740.000000 0 1 0
-12.832834 16.353602 8.973173 22.641549 -0.905448 1.163297 0.042692 -0.014858 108018.000000 0 1 0
-11.895034 16.054502 8.001673 21.523606 -0.933135 1.189889 0.040143 -0.016934 -1075540.000000 0 1 0
-10.811934 17.111702 7.728073 21.666364 -1.007290 1.206079 0.059427 -0.021753 -42388.400000 0 1 0
-9.795234 17.222102 8.662873 21.623893 -1.053665 1.158608 0.051857 -0.019824 -584805.000000 0 1 0
-8.911234 18.252602 8.430373 21.991788 -1.116619 1.177384 0.038180 -0.025596 162710.000000 0 1 0
-7.769234 18.480402 9.494173 22.181649 -1.172825 1.128496 0.034350 -0.014498 -735330.000000 0 1 0
-6.778834 17.509502 9.309173 20.957002 -1.201415 1.110511 0.028056 -0.012199 -314555.000000 0 1 0
-5.536534 17.908402 9.874773 21.186675 -1.270959 1.085937 0.021530 -0.010164 763267.000000 0 1 0
-4.733134 18.985402 9.039773 21.553782 -1.326473 1.138006 0.021461 -0.014549 -1261170.000000 0 1 0
-5.236134 20.282002 9.077073 22.829147 -1.318146 1.161887 0.035928 -0.020709 472729.000000 0 1 0
-4.449034 21.236502 8.261573 23.217159 -1.364284 1.206985 0.031290 -0.021428 1718740.000000 0 1 0
-2.988134 21.663402 8.698773 23.535092 -1.433727 1.192209 0.039329 -0.019790 1451740.000000 0 1 0
-1.936334 20.780802 8.242273 22.439389 -1.477886 1.194678 0.020386 -0.003414 356106.000000 0 1 0
-0.737934 21.540702 8.183273 23.054551 -1.536552 1.207933 0.015555 -0.000569 33069.700000 0 1 0
0.514566 20.662802 8.039573 22.177711 1.545898 1.199840 0.010375 0.006457 191456.000000 0 1 0
0.897666 20.004502 9.244073 22.055357 1.525953 1.138309 0.015470 -0.002484 539506.000000 0 1 0
2.293266 19.640902 9.210473 21.814144 1.454563 1.134898 0.014508 -0.001765 943328.000000 0 1 0
2.691266 19.094702 10.603673 22.006554 1.430776 1.068041 -0.001559 -0.014253 700393.000000 0 1 0
4.086866 18.747702 10.616573 21.929214 1.356161 1.065429 0.025305 -0.000590 786286.000000 0 1 0
4.327166 18.035202 11.846973 22.007808 1.335319 1.002369 0.018155 -0.010034 384369.000000 0 1 0
5.791966 17.907902 12.362973 22.518501 1.257984 0.989612 0.027773 -0.010663 632250.000000 0 1 0
6.616066 17.066802 11.539073 21.637889 1.200975 1.008322 0.013673 -0.009331 -58272.800000 0 1 0
7.542766 16.381902 12.321073 21.841906 1.139300 0.971450 0.019817 -0.004170 -554897.000000 0 1 0
8.754266 15.778202 11.567473 21.433508 1.064250 1.000726 0.023315 -0.012922 540339.000000 0 1 0
9.780366 16.736002 11.292473 22.433663 1.041933 1.043300 0.031721 -0.016284 1503420.000000 0 1 0
10.939366 16.162402 10.591273 22.205135 0.975783 1.073588 0.027530 -0.019261 1343060.000000 0 1 0
11.841366 17.238002 9.969673 23.168104 0.968894 1.125950 0.032402 -0.015193 -947685.000000 0 1 0
12.917066 16.833602 9.241673 23.143666 0.916291 1.160024 0.043792 -0.014005 -1215300.000000 0 1 0
13.524566 17.966602 8.707573 24.115026 0.925530 1.201365 0.058092 -0.014964 26943.400000 0 1 0
14.576266 17.616102 7.618373 24.100502 0.879546 1.249172 0.066389 -0.018645 173357.000000 0 1 0
15.746266 16.989802 8.109373 24.543027 0.823367 1.234054 0.072354 -0.022423 -322710.000000 0 1 0
16.641666 16.877502 7.057773 24.730695 0.792434 1.281388 0.070326 -0.016367 -44925.100000 0 1 0
18.154166 16.846002 7.412673 25.851678 0.748040 1.279976 0.082283 -0.017951 223714.000000 0 0 1
18.503666 15.729802 8.179973 25.626632 0.704547 1.245913 0.089579 -0.023493 264592.000000 0 0 1
19.601266 16.022802 9.029173 26.878723 0.685283 1.228212 0.098352 -0.028767 103611.000000 0 0 1
19.937566 14.850602 10.011173 26.800569 0.640200 1.187970 0.093134 -0.028601 89134.800000 0 0 1
20.354566 13.642402 9.355073 26.228627 0.590471 1.206091 0.085041 -0.032679 262547.000000 0 0 1
20.594266 12.606602 10.295473 26.249704 0.549299 1.167760 0.088360 -0.034990 -51411.400000 0 0 1
21.568266 11.578902 9.648673 26.312696 0.492690 1.195345 0.080218 -0.029910 -121435.000000 0 0 1
22.902966 11.717102 10.134373 27.650350 0.472883 1.195532 0.067392 -0.028232 941161.000000 0 0 1
23.800866 10.876102 9.390873 27.802146 0.428629 1.226244 0.070911 -0.017889 8300.650000 0 0 1
23.774866 9.345702 9.766073 27.348905 0.374537 1.205644 0.075422 -0.020894 -1414780.000000 0 0 1
22.776266 8.642602 9.150973 26.022936 0.362672 1.211463 0.084017 -0.023344 -232183.000000 0 0 1
22.621966 7.273902 9.633273 25.641040 0.311101 1.185647 0.075100 -0.018020 815522.000000 0 0 1
23.816166 6.308502 9.142773 26.279217 0.258937 1.215457 0.075631 -0.016733 1109790.000000 0 0 1
23.765066 5.938902 7.782173 25.702357 0.244885 1.263188 0.079311 -0.009672 -373604.000000 0 0 1
24.855866 5.194202 7.389973 26.446276 0.206008 1.287592 0.075124 -0.015228 -678341.000000 0 0 1
24.675966 4.726502 5.904673 25.809074 0.189250 1.339969 0.096826 -0.021249 -49173.800000 0 0 1
23.634466 3.800102 5.658073 24.597613 0.159422 1.338693 0.091758 -0.018351 429861.000000 0 1 0
23.474866 3.595102 4.304073 24.135434 0.151966 1.391507 0.103162 -0.015321 -541786.000000 0 1 0
22.336866 2.650202 3.959673 22.839400 0.118095 1.396546 0.095101 -0.012054 -923989.000000 0 1 0
22.630966 1.293502 4.077173 23.031655 0.057094 1.392834 0.091761 -0.017413 263227.000000 0 1 0
21.710966 0.391002 3.501773 21.995030 0.018007 1.410909 0.086459 -0.015910 -640597.000000 0 1 0
22.245466 -0.996398 3.518473 22.544029 -0.044761 1.414085 0.102808 -0.025196 -329840.000000 0 1 0
22.316666 -1.424598 4.885173 22.889473 -0.063749 1.355718 0.101264 -0.028926 658373.000000 0 1 0
22.528666 -2.795198 4.898973 23.223994 -0.123442 1.358255 0.096473 -0.034685 -1081850.000000 0 1 0
22.673366 -3.251298 6.337973 23.765992 -0.142426 1.300847 0.137828 -0.032566 -284220.000000 0 1 0
22.448166 -4.633098 6.525273 23.832015 -0.203533 1.293452 0.116460 -0.032503 548348.000000 0 1 0
22.691566 -5.005798 7.882273 24.537633 -0.217124 1.243766 0.154077 -0.028968 -140042.000000 0 1 0
22.481966 -6.440398 8.172273 24.773041 -0.278998 1.234614 0.176071 -0.043924 846761.000000 0 1 0
21.100166 -6.779698 8.373073 23.691553 -0.310891 1.209572 0.168588 -0.047867 1005890.000000 0 1 0
21.090166 -8.042798 8.911073 24.267034 -0.364329 1.194790 0.166894 -0.044855 -39410.200000 0 1 0
-26.444844 -32.671615 5.523173 42.394217 0.890342 1.440144 0.056786 -0.007810 67017.000000 0 0 1
-27.093724 -33.874015 5.849773 43.769151 0.896154 1.436745 0.059071 -0.011883 66271.000000 0 0 1
-27.244704 -33.934315 7.260773 44.119502 0.894310 1.405474 0.051038 -0.009107 -203071.000000 0 0 1
-27.924724 33.141102 7.715373 44.018743 -0.870614 1.394612 0.064637 -0.014518 930510.000000 0 0 1
-29.339884 33.027302 7.497773 44.809017 -0.844454 1.402678 0.051058 -0.014909 575810.000000 0 0 1
-29.927184 31.815502 7.868073 44.382080 -0.815972 1.392574 0.070644 -0.020708 564181.000000 0 0 1
-31.464234 31.844202 8.091673 45.492047 -0.791400 1.391975 0.050378 -0.016270 525408.000000 0 0 1
-32.206124 32.088202 6.928973 45.988017 -0.783564 1.419551 0.047639 -0.009532 -655319.000000 0 0 1
-33.589784 32.088002 7.116173 46.995248 -0.762536 1.418788 0.035786 -0.008837 -343043.000000 0 0 1
-34.336334 32.194202 5.777173 47.421790 -0.753212 1.448668 0.011586 -0.000704 -264542.000000 0 0 1
-34.084139 31.011802 5.007073 46.352250 -0.738236 1.462563 0.019009 -0.008932 171027.000000 0 0 1
-34.769356 30.922402 3.792673 46.684980 -0.726904 1.489467 0.025471 0.001755 -213017.000000 0 0 1
-34.160079 29.769902 3.010873 45.411710 -0.716834 1.504446 0.026068 -0.003387 -243220.000000 0 0 1
-34.457556 28.557202 3.562673 44.894649 -0.692036 1.491357 0.039007 -0.012410 130911.000000 0 0 1
-33.969844 27.450302 2.838373 43.766719 -0.679648 1.505898 0.028570 -0.008906 -223450.000000 0 0 1
-34.553717 26.127102 3.396573 43.452520 -0.647413 1.492549 0.044106 -0.013794 -958936.000000 0 0 1
-35.887970 25.905102 3.101473 44.369356 -0.625229 1.500838 0.063671 -0.018653 -1010800.000000 0 0 1
-36.334684 24.932802 4.064373 44.253508 -0.601403 1.478824 0.074718 -0.018068 -100185.000000 0 0 1
35.030388 24.586502 3.946473 42.979050 0.611975 1.478844 0.090337 -0.024607 -443293.000000 0 0 1
34.622268 23.665402 2.932073 42.039859 0.599587 1.500995 0.091264 -0.029988 192900.000000 0 0 1
35.054328 22.331302 3.216573 41.687399 0.567216 1.493560 0.091585 -0.025863 -695599.000000 0 0 1
34.507278 21.248902 2.230673 40.586253 0.551942 1.515807 0.098492 -0.028647 618369.000000 0 0 1
33.077238 21.165502 2.148073 39.328060 0.569229 1.516150 0.098277 -0.036856 1005610.000000 0 0 1
32.457108 20.386202 3.175573 38.459658 0.560823 1.488133 0.078856 -0.034160 -200336.000000 0 0 1
32.742778 18.803402 3.258473 37.898220 0.521290 1.484710 0.094556 -0.035276 -420351.000000 0 0 1
32.182728 18.214102 2.089673 37.038469 0.515013 1.514347 0.091367 -0.039000 454503.000000 0 0 1
32.435218 16.810802 2.011273 36.588135 0.478171 1.515798 0.086682 -0.033424 -43421.000000 0 0 1
31.645718 15.884002 3.045473 35.539103 0.465192 1.484998 0.102944 -0.032888 429455.000000 0 0 1
30.239148 16.109802 3.057273 34.398818 0.489500 1.481802 0.074759 -0.029256 204669.000000 0 0 1
29.658328 15.202902 3.934073 33.559225 0.473678 1.453298 0.067551 -0.026243 -24394.000000 0 0 1
28.123408 15.306202 4.065273 32.275878 0.498419 1.444507 0.051683 -0.015291 -160659.000000 0 0 1
27.345888 14.735102 3.065473 31.214066 0.494236 1.472430 0.045888 -0.022586 -45108.100000 0 0 1
26.000688 15.164902 3.226473 30.272432 0.528012 1.464012 0.021557 -0.006347 13916.700000 0 0 1
25.133888 14.564202 2.123373 29.126225 0.525183 1.497829 0.040292 -0.013337 -780298.000000 0 0 1
25.404188 15.081702 0.786573 29.554174 0.535752 1.544179 0.056621 -0.016628 -89290.600000 0 0 1
26.465888 14.516902 0.079973 30.185925 0.501701 1.568147 0.058891 -0.015763 -1103530.000000 0 0 1
26.878788 15.425202 -1.106727 31.010175 0.520992 1.606493 0.080751 -0.021551 205469.000000 0 0 1
27.597888 16.635902 -0.884127 32.236289 0.542473 1.598226 0.064884 -0.022595 416061.000000 0 0 1
28.810168 16.566502 -0.168027 33.234064 0.521851 1.575852 0.084831 -0.028664 -483723.000000 0 0 1
29.515648 17.924602 -0.020827 34.532090 0.545764 1.571399 0.104319 -0.019697 -171128.000000 0 0 1
29.968448 18.405502 -1.289427 35.192797 0.550768 1.607443 0.084665 -0.015657 328775.000000 0 0 1
30.667578 19.631902 -1.088227 36.429331 0.569421 1.600673 0.084371 -0.006469 214790.000000 0 0 1
30.735098 20.441102 -2.350227 36.986598 0.586899 1.634382 0.092039 -0.007425 -144385.000000 0 0 1
31.686608 21.452502 -2.210127 38.329305 0.595137 1.628490 0.066411 -0.001541 -167418.000000 0 0 1
31.669418 22.321502 -3.303427 38.885911 0.613959 1.655851 0.065784 -0.007331 -356012.000000 0 0 1
32.739068 23.419802 -3.210727 40.381214 0.620952 1.650391 0.061988 -0.004402 -178909.000000 0 0 1
32.653718 24.274502 -2.078827 40.741112 0.639258 1.621844 0.078342 -0.004876 326844.000000 0 0 1
33.433018 23.679802 -1.034627 40.982559 0.616259 1.596045 0.082257 0.001304 -110145.000000 0 0 1
33.519498 24.582502 0.240373 41.568184 0.632779 1.565014 0.088288 -0.022402 41106.000000 0 0 1
34.032018 25.875702 -0.103027 42.752085 0.650082 1.573206 0.092788 -0.019467 74436.800000 0 0 1
35.291108 26.069302 0.505173 43.878537 0.636225 1.559283 0.084720 -0.019970 220723.000000 0 0 1
36.016308 27.430702 0.266773 45.273491 0.650896 1.564904 0.047574 -0.014138 -272395.000000 0 0 1
-36.367074 27.755702 -1.013327 45.759915 -0.651902 1.592943 0.033568 -0.010387 -412031.000000 0 0 1
35.614288 27.853902 -2.100627 45.261794 0.663730 1.617224 0.033308 -0.011146 -533144.000000 0 0 1
36.126008 27.316002 -3.500727 45.425846 0.647414 1.647937 0.030267 -0.002346 708810.000000 0 0 1
-35.671358 27.996402 -4.212527 45.541076 -0.665430 1.663428 0.026988 0.000915 708219.000000 0 0 1
-35.561745 27.592002 -5.577027 45.354817 -0.659866 1.694073 0.034320 0.002455 801870.000000 0 0 1
36.051048 27.778602 -6.560627 45.982286 0.656515 1.713962 0.019420 0.010746 1218220.000000 0 0 1
34.994968 26.866702 -6.359627 44.574794 0.654752 1.713958 0.029515 0.013924 -502270.000000 0 0 1
33.897168 27.033502 -7.211127 43.952572 0.673224 1.735608 0.022492 0.008674 237980.000000 0 0 1
32.826688 25.928202 -6.866427 42.391165 0.668522 1.733491 0.042820 0.004768 21003.800000 0 0 1
33.093088 24.598602 -7.245727 41.865788 0.639209 1.744743 0.039788 0.012018 -225707.000000 0 0 1
34.183808 23.956602 -6.625827 42.265270 0.611274 1.728213 0.050428 0.008851 -62051.200000 0 0 1
34.166568 22.456102 -6.893327 41.462620 0.581458 1.737826 0.061006 0.009172 -217166.000000 0 0 1
33.241198 21.722602 -6.157027 40.184047 0.578821 1.724623 0.059806 0.008150 -330664.000000 0 0 1
33.346848 20.335702 -6.348627 39.570925 0.547612 1.731929 0.060502 -0.000689 67993.300000 0 0 1
32.216978 19.422602 -5.795927 38.062631 0.542526 1.723664 0.073712 -0.004385 909930.000000 0 0 1
30.947098 19.508202 -6.453127 37.147485 0.562453 1.745399 0.068516 -0.008419 940981.000000 0 0 1
29.941878 18.705702 -5.851427 35.786290 0.558408 1.735044 0.101348 -0.015206 768962.000000 0 0 1
28.599988 18.441602 -6.597227 34.663747 0.572719 1.762285 0.077321 -0.022437 423743.000000 0 0 1
28.800968 17.677702 -7.727827 34.665778 0.550496 1.795609 0.062601 -0.022432 -200167.000000 0 0 1
27.645388 17.597202 -8.503927 33.856251 0.566850 1.824693 0.073969 -0.027938 -513397.000000 0 0 1
27.826968 16.541602 -9.611527 33.769012 0.536325 1.859412 0.059783 -0.026150 170807.000000 0 0 1
26.845688 16.547302 -10.649427 33.285349 0.552381 1.896466 0.061604 -0.021555 470575.000000 0 0 1
27.177588 15.574702 -11.616227 33.408522 0.520384 1.925916 0.054600 -0.016335 58536.900000 0 0 1
26.245188 15.647902 -12.846527 33.146643 0.537635 1.968787 0.060244 -0.008890 70307.300000 0 0 1
24.881688 15.336002 -12.590227 31.824600 0.552360 1.977532 0.048968 -0.010785 489502.000000 0 0 1
24.107288 15.298602 -13.782227 31.704232 0.565476 2.020515 0.045267 -0.010462 -242142.000000 0 0 1
24.044088 13.925002 -14.497927 31.340289 0.524943 2.051719 0.041705 -0.015044 -376199.000000 0 0 1
25.247788 13.387102 -15.032427 32.289923 0.487537 2.055047 0.061787 -0.021803 631490.000000 0 0 1
25.735588 13.908902 -16.310027 33.493209 0.495485 2.079408 0.074885 -0.026456 581727.000000 0 0 1
27.120088 13.305902 -16.741427 34.537249 0.456123 2.076857 0.104012 -0.028235 683989.000000 0 0 1
27.087688 12.000602 -17.250027 34.282951 0.417041 2.098055 0.109094 -0.027880 -480493.000000 0 0 1
28.412248 11.631702 -17.479127 35.328065 0.388575 2.088362 0.110863 -0.017144 -384523.000000 0 0 1
28.547048 10.303402 -18.288827 35.434097 0.346376 2.113130 0.092190 -0.009815 -158962.000000 0 0 1
28.041528 10.335602 -19.622827 35.752025 0.353132 2.151795 0.101111 -0.011484 16374.600000 0 0 1
28.182408 9.146402 -20.324827 35.930536 0.313818 2.172042 0.074483 0.003582 1123760.000000 0 0 1
29.601808 8.958302 -21.034027 37.402520 0.293865 2.168045 0.076382 -0.004101 640613.000000 0 0 1
29.931758 9.948002 -21.940327 38.422010 0.320871 2.178563 0.078858 -0.013201 17577.500000 0 0 1
30.363188 9.364602 -23.151827 39.314451 0.299163 2.200479 0.066070 -0.012064 345051.000000 0 0 1
31.814168 8.811402 -23.273427 40.391020 0.270192 2.184872 0.055999 -0.006669 -306481.000000 0 0 1
32.865328 9.702302 -23.084027 41.317511 0.287060 2.163612 0.050214 -0.007831 -510019.000000 0 0 1
34.077238 9.012602 -23.046027 42.114184 0.258556 2.149844 0.016963 0.000796 791123.000000 0 0 1
35.398038 9.874302 -22.812327 43.254193 0.272035 2.126336 0.037547 -0.013366 989874.000000 0 0 1
35.445488 10.411702 -21.515227 42.751505 0.285702 2.098166 0.032609 -0.014229 -103616.000000 0 0 1
36.416238 11.403802 -21.382527 43.742446 0.303478 2.081542 0.013504 -0.008260 -451317.000000 0 0 1
36.339908 12.290402 -20.074227 43.296853 0.326130 2.052897 0.017458 -0.009307 -354081.000000 0 0 1
-36.326234 11.587102 -18.939127 42.574015 -0.308771 2.031805 0.019833 -0.011191 286719.000000 0 0 1
36.088588 12.314402 -17.812227 42.086888 0.328838 2.007798 0.031793 -0.005162 -300189.000000 0 0 1
-36.378484 11.662802 -16.459027 41.597050 -0.310244 1.977602 0.014148 -0.006469 -275929.000000 0 0 1
35.990468 10.367902 -16.349227 40.866911 0.280479 1.982379 0.024921 -0.007369 226416.000000 0 0 1
-36.356144 9.832602 -15.126927 40.586613 -0.264133 1.952721 0.028976 -0.028132 -133158.000000 0 0 1
35.982498 8.499602 -14.651827 39.770082 0.231963 1.948098 0.069624 -0.029184 -766049.000000 0 0 1
34.708768 8.528502 -14.081127 38.414998 0.240943 1.946098 0.073016 -0.021564 -23683.800000 0 0 1
34.695198 8.334802 -12.649727 37.858173 0.235762 1.911483 0.066696 -0.025930 -863630.000000 0 0 1
33.430988 8.838102 -11.994027 36.600542 0.258456 1.904665 0.067913 -0.023402 -706006.000000 0 0 1
33.509298 10.223202 -11.728527 36.945165 0.296116 1.893844 0.074773 -0.027112 145632.000000 0 0 1
32.506418 10.706402 -10.865827 35.907665 0.318173 1.878221 0.049552 -0.013982 -253753.000000 0 0 1
32.866308 10.510902 -9.308327 35.739589 0.309529 1.834283 0.061597 -0.009437 821801.000000 0 0 1
34.098328 11.163202 -8.956427 36.980138 0.316385 1.815425 0.067747 -0.009358 744665.000000 0 0 1
33.876048 12.503602 -8.663427 37.134642 0.353587 1.806264 0.068275 -0.011255 -625246.000000 0 0 1
33.507018 12.906802 -7.198827 36.621427 0.367680 1.768659 0.064995 -0.015822 -329912.000000 0 0 1
34.525028 12.668202 -6.260627 37.304910 0.351675 1.739417 0.089004 -0.016324 238180.000000 0 0 1
34.175208 13.199002 -4.980127 36.972424 0.368567 1.705905 0.094470 -0.015807 -231260.000000 0 0 1
35.336178 13.086302 -3.988427 37.892008 0.354676 1.676249 0.111313 -0.021749 7036.930000 0 0 1
36.326938 14.092402 -4.164827 39.186579 0.370060 1.677279 0.107751 -0.016903 -306370.000000 0 0 1
-35.383124 13.677702 -3.472527 38.093351 -0.368867 1.662081 0.090214 -0.016444 -121181.000000 0 0 1
-34.328178 14.826302 -3.535627 37.559868 -0.407700 1.665069 0.085325 -0.022676 154374.000000 0 0 1
-34.668053 15.960302 -2.789227 38.267282 -0.431448 1.643749 0.110309 -0.017897 829199.000000 0 0 1
-33.616054 16.952202 -2.944527 37.763560 -0.467073 1.648848 0.120026 -0.023960 804468.000000 0 0 1
-33.747004 17.917302 -1.767227 38.249353 -0.488084 1.617016 0.121653 -0.019184 813659.000000 0 0 1
-34.978224 18.665002 -1.787327 39.686937 -0.490179 1.615847 0.098653 -0.016025 725744.000000 0 0 1
-35.077306 19.471202 -0.598827 40.123605 -0.506746 1.585721 0.087278 -0.021991 7353.130000 0 0 1
-36.175394 20.573302 -0.623727 41.621015 -0.517094 1.585783 0.075137 -0.017579 -21633.100000 0 0 1
-36.091804 21.735202 -1.454727 42.156299 -0.542050 1.605311 0.081962 -0.005953 -140940.000000 0 0 1
-36.145984 21.451402 -2.854427 42.128880 -0.535601 1.638603 0.043411 0.004148 -131451.000000 0 0 1
-35.665314 22.647802 -3.728727 42.412745 -0.565765 1.658825 0.060263 -0.015181 964224.000000 0 0 1
-34.235524 22.775502 -3.736227 41.288666 -0.587028 1.661411 0.061534 -0.005232 588712.000000 0 0 1
-33.765814 23.991702 -4.339927 41.648132 -0.617760 1.675190 0.066836 -0.012732 832826.000000 0 0 1
-32.310424 23.968802 -4.908127 40.528467 -0.638251 1.692198 0.070461 -0.020461 469032.000000 0 0 1
-32.076894 23.047002 -5.912727 39.938099 -0.623029 1.719390 0.063633 -0.008213 -447797.000000 0 0 1
-30.738554 23.188602 -6.314827 39.018546 -0.646299 1.733353 0.060190 0.001544 -240401.000000 0 0 1
-30.298634 22.267102 -7.452827 38.332436 -0.633780 1.766469 0.057990 -0.011656 -70304.000000 0 0 1
-31.061204 22.573902 -8.597627 39.348426 -0.628458 1.791073 0.053141 -0.018694 268987.000000 0 0 1
-30.392334 22.096902 -9.760627 38.823148 -0.628654 1.824936 0.015699 -0.014211 -137173.000000 0 0 1
-31.312854 22.003302 -10.957027 39.808247 -0.612531 1.849641 0.031300 -0.007659 -244130.000000 0 0 1
-31.736554 23.310202 -11.455727 41.009853 -0.633501 1.853904 0.040925 -0.002088 32677.800000 0 0 1
-32.462594 23.217602 -12.650427 41.867772 -0.620862 1.877746 0.024004 -0.001958 -429042.000000 0 0 1
-32.899394 24.674102 -13.139127 43.171959 -0.643492 1.880046 0.057838 -0.005089 256837.000000 0 0 1
-31.916284 25.717502 -13.190927 43.058560 -0.678255 1.882151 0.054282 -0.005313 -157647.000000 0 0 1
-30.961094 25.598202 -14.248527 42.624849 -0.690862 1.911635 0.049582 -0.003741 -589800.000000 0 0 1
-29.719204 26.390402 -13.875527 42.097680 -0.726141 1.906680 0.038550 0.001841 -339910.000000 0 0 1
-28.877054 25.783402 -12.862327 40.793474 -0.728861 1.891573 0.026849 -0.003389 555170.000000 0 0 1
-29.456514 25.792602 -11.555427 40.822450 -0.719179 1.857785 0.042760 -0.005490 -673350.000000 0 0 1
-29.652044 27.148102 -10.892027 41.652123 -0.741343 1.835372 0.053044 0.010305 95841.500000 0 0 1
-28.461664 27.665302 -10.338027 41.015973 -0.771211 1.825593 0.047140 0.013833 -271375.000000 0 0 1
-28.724264 28.791702 -9.542427 41.774434 -0.786571 1.801258 0.044142 0.006949 -470620.000000 0 0 1
-27.530684 29.674902 -9.227227 41.517226 -0.822863 1.794919 0.056188 0.005067 -550487.000000 0 0 1
-27.791944 30.767802 -8.371027 42.298036 -0.836172 1.770017 0.060359 -0.005130 119755.000000 0 0 1
-26.636144 31.609702 -8.173927 42.136332 -0.870581 1.766022 0.076636 -0.007777 580825.000000 0 0 1
34.351588 -25.595898 33.913513 54.637971 -0.640368 0.901168 0.013257 0.000699 -3690.900000 0 0 1
34.156818 -24.185198 34.076781 53.970723 -0.616117 0.887447 0.007104 -0.005384 -424915.000000 0 0 1
33.227328 -24.020298 -33.288917 52.812707 -0.625936 2.252762 0.012260 0.000032 -332456.000000 0 0 1
32.991998 -22.533598 -32.928167 51.773537 -0.599227 2.260105 0.005185 -0.003584 -1437.500000 0 0 1
32.378788 -21.799298 -33.951517 51.732976 -0.592552 2.286679 0.001736 -0.000462 17445.700000 0 0 1
32.000938 -20.514798 -33.529127 50.686481 -0.570071 2.293614 -0.001454 -0.000409 5888.240000 0 0 1
31.623008 -19.647498 33.689959 50.210080 -0.555937 0.835267 0.003882 0.003920 -139464.000000 0 0 1
32.747668 -19.387698 32.886699 50.297391 -0.534541 0.858141 0.017097 -0.007776 -112664.000000 0 0 1
32.439818 -18.784798 31.646633 49.058330 -0.524885 0.869666 0.023097 0.002487 33493.900000 0 0 1
33.642678 -18.800398 30.658533 49.246628 -0.509594 0.898798 0.017212 0.004656 481908.000000 0 0 1
34.640768 -17.801898 30.908293 49.721353 -0.474706 0.899974 0.012985 -0.007120 198924.000000 0 0 1
35.596768 -17.853198 29.881693 49.787369 -0.464879 0.927062 0.025196 -0.008754 -81021.100000 0 0 1
-36.171204 -16.779898 30.144243 49.985961 0.434355 0.923472 0.025996 -0.018504 -643419.000000 0 0 1
-35.095072 -16.708698 29.271203 48.658483 0.444344 0.925339 0.037660 -0.018128 132392.000000 0 0 1
-34.118430 -15.717698 29.555663 47.798017 0.431700 0.904161 0.040068 -0.029033 643455.000000 0 0 1
-32.996024 -16.116398 30.547603 47.766431 0.454353 0.876922 0.053211 -0.031665 163562.000000 0 0 1
-31.752854 -15.433998 30.399643 46.589594 0.452439 0.859919 0.052023 -0.031683 907980.000000 0 0 1
-30.819804 -15.905698 31.384693 46.774464 0.476434 0.835268 0.056216 -0.036955 311514.000000 0 0 1
-29.742314 -14.932598 31.877813 46.084516 0.465299 0.806921 0.054716 -0.036658 -220055.000000 0 0 1
-30.081114 -14.166898 33.013549 46.855830 0.440144 0.788969 0.061836 -0.033090 32195.500000 0 0 1
-29.059344 -13.275798 33.343193 46.178575 0.428537 0.764037 0.054594 -0.026539 -455710.000000 0 0 1
-29.236834 -12.666698 -33.636557 46.332016 0.408833 2.383268 0.051519 -0.011357 -90408.900000 0 0 1
-29.089514 -13.566698 -32.555747 45.717959 0.436390 2.363281 0.054820 -0.011793 4822.860000 0 0 1
-29.473844 -12.982998 -31.359907 44.952302 0.414919 2.342875 0.063374 0.003998 -346877.000000 0 0 1
-29.659944 -13.930898 -30.159417 44.535072 0.439105 2.314755 0.070279 -0.000173 426676.000000 0 0 1
-30.817884 -14.774298 -30.199737 45.607521 0.447038 2.294502 0.071637 -0.003673 372540.000000 0 0 1
-31.049144 -15.339398 -28.936417 45.129400 0.458865 2.266841 0.080280 -0.004245 59735.300000 0 0 1
-32.389504 -16.070798 -28.875557 46.272544 0.460581 2.244689 0.074486 -0.016440 -68998.600000 0 0 1
-32.190824 -17.358998 -29.363337 46.901914 0.494555 2.247284 0.080687 -0.014970 671658.000000 0 0 1
-33.443514 -18.051998 -29.378207 48.035636 0.494960 2.228867 0.067732 -0.017904 238195.000000 0 0 1
-33.405834 -19.460698 -30.022337 48.949047 0.527493 2.231077 0.062017 -0.019823 414857.000000 0 0 1
-34.635507 -20.167698 -30.203087 50.185465 0.527291 2.216586 0.026178 -0.018723 196920.000000 0 0 1
-34.338617 -21.361198 -30.883577 50.884543 0.556493 2.222994 0.017317 -0.015069 -477210.000000 0 0 1
-35.548302 -22.211998 -31.234567 52.274782 0.558484 2.211185 0.009905 -0.013479 -448187.000000 0 0 1
-36.222084 -22.804898 -30.123857 52.340706 0.561890 2.184053 0.007999 -0.005581 4965.400000 0 0 1
35.812808 -23.873498 -30.593547 52.805930 -0.587970 2.188737 0.014246 -0.005694 259818.000000 0 0 1
-36.368274 -25.304808 -30.839197 53.981856 0.607897 2.178871 0.012641 0.003701 450297.000000 0 0 1
-35.977316 -25.572038 -32.230997 54.654676 0.617926 2.201509 0.015440 -0.000648 -235320.000000 0 0 1
-35.219621 -26.762558 -32.298337 54.770784 0.649792 2.201484 0.006641 0.003964 -349801.000000 0 0 1
-35.481585 -27.725678 -33.509587 56.129747 0.663303 2.210556 0.015758 -0.007463 77083.000000 0 0 1
36.144398 -28.395068 -33.356977 56.792476 -0.665899 2.198575 0.021804 -0.002894 -406758.000000 0 0 1
36.000228 -29.675488 -33.899997 57.670277 -0.689392 2.199163 0.021531 -0.007435 62346.000000 0 0 1
-36.183334 -30.823848 -33.145697 57.948085 0.705584 2.179726 0.026781 -0.016342 229341.000000 0 0 1
36.091108 -31.085708 -31.885457 57.319907 -0.711025 2.160689 0.043242 -0.022722 -131576.000000 0 0 1
-35.957722 -32.012038 -31.206587 57.372288 0.727413 2.145911 0.038633 -0.026712 -225821.000000 0 0 1
-36.404514 -32.501688 -29.828667 57.196134 0.728819 2.119422 0.040848 -0.022738 -270529.000000 0 0 1
35.403678 -33.401788 -30.080337 57.218236 -0.756311 2.124349 0.059732 -0.019610 70833.500000 0 0 1
34.769788 -33.767278 -28.836397 56.397740 -0.770772 2.107498 0.049359 -0.021550 44096.500000 0 0 1
33.547898 33.705819 -29.051987 55.727566 0.787746 2.119195 0.044792 -0.021440 -429254.000000 0 0 1
32.348338 -34.071655 -29.482077 55.466076 -0.811338 2.131206 0.053268 -0.020437 -926252.000000 0 0 1
31.340058 33.350505 -29.301607 54.341877 0.816466 2.140293 0.043072 -0.022660 -415471.000000 0 0 1
30.036068 33.875614 -29.933147 54.274450 0.845402 2.154975 0.016817 -0.014196 -268968.000000 0 0 1
29.906158 33.481175 -31.297917 54.725926 0.841738 2.179620 0.019491 -0.001141 -588862.000000 0 0 1
28.602928 33.693697 -31.727367 54.406052 0.866935 2.193408 0.022616 0.005379 -872146.000000 0 0 1
28.430898 33.174956 -33.131827 54.832578 0.862253 2.219603 0.012056 -0.006536 2150.890000 0 0 1
28.218838 31.806879 -33.133097 53.905310 0.845102 2.232743 0.001363 -0.002748 53413.200000 0 0 1
28.196918 31.302759 33.939352 54.099986 0.837550 0.892657 0.017155 -0.004144 -666.902000 0 0 1
28.180058 29.764989 34.006423 53.258868 0.812744 0.878233 0.025674 -0.013204 131455.000000 0 0 1
29.471368 29.203929 34.173078 53.751560 0.780840 0.881804 0.025375 -0.006102 117480.000000 0 0 1
29.365578 27.829799 -33.958797 52.820780 0.758553 2.269083 0.031932 -0.010140 790120.000000 0 0 1
30.787848 27.181159 -33.784197 53.179685 0.723261 2.259172 0.044912 -0.010333 802581.000000 0 0 1
31.262688 27.479809 -32.494207 52.805010 0.721089 2.233642 0.048156 -0.009484 -577179.000000 0 0 1
32.547568 26.963369 -32.303867 53.196873 0.691837 2.223393 0.051936 -0.015049 126574.000000 0 0 1
33.191948 27.129749 -30.827177 52.801927 0.685237 2.194231 0.079834 -0.020552 100174.000000 0 0 1
33.769578 28.482019 -30.614867 53.748301 0.700663 2.176812 0.060887 -0.018960 708394.000000 0 0 1
32.852408 29.587369 -30.556327 53.743671 0.733155 2.175547 0.078197 -0.012131 56851.500000 0 0 1
31.995898 29.749219 -29.320997 52.616294 0.749028 2.161880 0.050532 0.002136 -399010.000000 0 0 1
32.779618 29.980019 -28.139497 52.584562 0.740819 2.135456 0.034833 0.000106 638378.000000 0 0 1
31.944878 30.162109 -26.981297 51.557913 0.756701 2.121539 0.043916 -0.000775 405999.000000 0 0 1
32.847238 30.479619 -25.725477 51.669608 0.748028 2.091954 0.056119 -0.004455 389170.000000 0 0 1
33.367158 31.773459 -25.914037 52.862626 0.760938 2.083132 0.041094 -0.010184 -26668.300000 0 0 1
34.099858 32.259849 -24.789727 53.085108 0.757677 2.056670 0.031757 -0.020386 198603.000000 0 0 1
34.469018 33.769342 -24.860027 54.281697 0.775145 2.046520 0.039537 -0.019361 803409.000000 0 0 1
33.263908 -33.835888 -24.633227 53.461676 -0.793922 2.049652 0.056146 -0.018220 921678.000000 0 0 1
33.482858 -32.459478 -24.519327 52.686971 -0.769880 2.054857 0.049026 -0.024790 -701239.000000 0 0 1
33.836358 -31.620848 -25.779667 53.003475 -0.751564 2.078735 0.043393 -0.026634 -170173.000000 0 0 1
35.075888 -31.830118 -26.404017 54.227728 -0.736924 2.079345 0.054738 -0.026401 -912150.000000 0 0 1
36.072018 -31.073498 -25.804377 54.153658 -0.711092 2.067469 0.049492 -0.020765 -661011.000000 0 0 1
-35.367517 -31.506278 -26.276257 54.165935 0.727723 2.077281 0.027735 -0.014677 -163322.000000 0 0 1
-34.960549 -32.826538 -26.072187 54.585535 0.753927 2.068762 0.025904 -0.016317 -351230.000000 0 0 1
-34.660318 -33.140638 -24.719027 53.950624 0.762988 2.046741 0.031751 -0.011432 15788.100000 0 0 1
-33.333174 -32.621238 -24.092927 52.494903 0.774604 2.047618 0.019616 -0.014382 192217.000000 0 0 1
-33.389704 -31.209448 -23.890227 51.571746 0.751660 2.052447 0.007047 -0.011136 -214298.000000 0 0 1
-33.269714 -30.891138 -22.511527 50.674502 0.748343 2.031120 0.012216 -0.011177 -21829.300000 0 0 1
-33.079224 -29.377578 -22.236927 49.515231 0.726200 2.036546 0.014739 -0.002403 332344.000000 0 0 1
-34.230629 -28.593468 -22.512227 49.961212 0.695909 2.038227 0.002417 -0.006846 -192244.000000 0 0 1
-34.294678 -28.106038 -23.846827 50.346256 0.686546 2.064234 0.003624 -0.002988 -276377.000000 0 0 1
-35.503669 -27.248448 -24.186327 50.872064 0.654596 2.066254 0.012320 -0.008430 -429316.000000 0 0 1
-35.397428 -26.024668 -23.501427 49.825479 0.633970 2.061986 0.012482 -0.011492 -215220.000000 0 0 1
-36.366174 -25.092148 -23.938327 50.250950 0.603973 2.067324 0.026308 -0.010564 47860.400000 0 0 1
-36.135684 -24.436098 -25.327767 50.442109 0.594595 2.096840 0.023251 0.004540 825543.000000 0 0 1
-35.033259 -23.486498 -25.352827 49.210880 0.590587 2.112023 0.023521 -0.007469 444493.000000 0 0 1
-34.923916 -23.006698 -26.674697 49.603705 0.582513 2.138570 0.035759 -0.011476 681115.000000 0 0 1
-33.751764 -21.954298 -26.719197 48.322751 0.576701 2.156675 0.032519 -0.019646 417342.000000 0 0 1
-33.824484 -20.959298 -25.723657 47.382427 0.554742 2.144676 0.050092 -0.028234 -297565.000000 0 0 1
-34.676332 -19.899198 -26.146907 47.771193 0.520974 2.149974 0.057007 -0.023893 322022.000000 0 0 1
-35.954805 -19.841198 -25.268167 48.217231 0.504253 2.122394 0.059537 -0.028719 93727.200000 0 0 1
-35.685970 -19.459998 -23.940227 47.173239 0.499237 2.103073 0.060837 -0.037922 -344614.000000 0 0 1
-34.923916 -20.263098 -23.081327 46.508286 0.525739 2.090110 0.037781 -0.034243 -709907.000000 0 0 1
-35.573936 -21.526898 -22.671927 47.359567 0.544184 2.069991 0.053557 -0.034864 328826.000000 0 0 1
36.240928 -21.270498 -21.714327 47.300644 -0.530746 2.047745 0.049552 -0.033235 403252.000000 0 0 1
35.664118 -22.499698 -21.251627 47.220731 -0.562815 2.037616 0.049435 -0.024424 -582433.000000 0 0 1
34.650628 -22.336398 -20.134027 45.879840 -0.572582 2.025107 0.055246 -0.029873 -357607.000000 0 0 1
33.477918 -21.766998 -20.698927 44.977981 -0.576509 2.049018 0.055651 -0.024653 -208908.000000 0 0 1
32.384228 -21.852098 -19.788327 43.793040 -0.593596 2.039646 0.047218 -0.023118 -96498.200000 0 0 1
31.161328 -21.174398 -20.404327 42.845304 -0.596841 2.067162 0.043383 -0.019811 -915250.000000 0 0 1
30.571228 -21.944598 -21.463327 43.322509 -0.622585 2.089128 0.038089 -0.016774 177187.000000 0 0 1
29.271598 -21.527998 -21.835427 42.391828 -0.634128 2.111904 0.050630 -0.016822 167789.000000 0 0 1
29.092748 -20.130098 -22.544627 41.950793 -0.605288 2.138155 0.048064 -0.017989 -708961.000000 0 0 1
29.309438 -18.984898 -21.795627 41.164534 -0.574785 2.128779 0.043663 -0.015934 24563.900000 0 0 1
29.135118 -17.775998 -22.517927 40.888853 -0.547829 2.154012 0.035061 -0.014624 -470599.000000 0 0 1
29.846448 -16.631898 -21.797927 40.528757 -0.508391 2.138667 0.033730 -0.018416 -425520.000000 0 0 1
29.316078 -16.222598 -20.521227 39.290277 -0.505426 2.120340 0.006684 -0.013118 1036530.000000 0 0 1
30.307898 -15.616498 -19.608327 39.331033 -0.475782 2.092717 -0.004987 -0.013482 1156620.000000 0 0 1
31.363238 -16.619198 -19.041027 40.279165 -0.487276 2.063179 0.022138 -0.019605 -98034.400000 0 0 1
32.415428 -16.995098 -19.879727 41.650893 -0.482891 2.068369 0.030554 -0.028225 -297908.000000 0 0 1
33.244138 -17.960698 -19.266227 42.413994 -0.495340 2.042318 0.037283 -0.024126 -1831.280000 0 0 1
34.424538 -18.403798 -20.154727 43.931329 -0.490953 2.047416 0.052281 -0.032553 -142925.000000 0 0 1
35.323998 -17.357298 -20.418227 44.339200 -0.456723 2.049355 0.051049 -0.037306 -375992.000000 0 0 1
36.306618 -17.870798 -21.275727 45.718623 -0.457403 2.054840 0.059767 -0.036506 -103453.000000 0 0 1
-35.517072 -16.808798 -21.766327 44.919607 0.442027 2.076659 0.058077 -0.030006 121847.000000 0 0 1
-34.607101 -16.371298 -20.790627 43.565135 0.441866 2.068297 0.067186 -0.038286 -208556.000000 0 0 1
-33.950614 -15.207698 -21.246127 42.840590 0.421136 2.089707 0.079988 -0.034834 -774265.000000 0 0 1
-32.788064 -14.694598 -20.338927 41.287532 0.421330 2.085890 0.085551 -0.035850 -28934.200000 0 0 1
-31.617054 -15.430798 -20.525927 40.731576 0.454044 2.098941 0.095063 -0.041687 -290435.000000 0 0 1
-31.562194 -16.615498 -19.792827 40.792191 0.484573 2.077401 0.091477 -0.046143 -379275.000000 0 0 1
-30.406814 -17.549898 -20.240027 40.524461 0.523464 2.093763 0.085221 -0.052445 188837.000000 0 0 1
-30.589444 -18.813398 -19.693527 40.957210 0.551397 2.072399 0.072771 -0.050439 -64296.700000 0 0 1
-29.499844 -19.668098 -19.921927 40.668883 0.588039 2.082722 0.066986 -0.047907 -266292.000000 0 0 1
-29.783744 -21.081998 -19.326727 41.292184 0.615966 2.057877 0.055952 -0.023287 -386062.000000 0 0 1
-30.512434 -21.888798 -20.179227 42.630146 0.622291 2.063893 0.057015 -0.029391 -193150.000000 0 0 1
-30.700784 -23.156498 -19.558627 43.142803 0.646225 2.041312 0.039798 -0.008983 -300022.000000 0 0 1
-31.721614 -23.975498 -20.335627 44.661203 0.647209 2.043540 0.020301 -0.013312 -365402.000000 0 0 1
-31.296024 -24.396198 -21.623127 45.190433 0.662134 2.069730 0.016850 -0.013181 -491965.000000 0 0 1
-32.352914 -24.903798 -22.354327 46.547032 0.656025 2.071739 0.016464 -0.011905 -484757.000000 0 0 1
-32.061924 -24.841498 -23.853527 47.053775 0.659184 2.102430 0.019170 -0.002611 -501931.000000 0 0 1
-30.909774 -25.526628 -24.212027 46.832095 0.690302 2.114135 0.025300 -0.006490 -745829.000000 0 0 1
-30.968694 -25.954018 -25.536247 47.799278 0.697529 2.134404 0.029037 -0.000484 143160.000000 0 0 1
-29.630064 -26.550828 -26.068217 47.565104 0.730644 2.150832 0.033834 -0.007711 123796.000000 0 0 1
-28.682854 -25.529468 -26.139757 46.451553 0.727296 2.168483 0.043771 -0.010413 -115754.000000 0 0 1
-27.352564 -25.948578 -26.455057 46.058240 0.759064 2.182646 0.046193 -0.010170 716297.000000 0 0 1
-26.393274 -24.767898 -26.303047 44.742642 0.753639 2.199225 0.051847 -0.012488 -320595.000000 0 0 1
-26.464094 -24.009898 -27.466817 45.069386 0.736813 2.226143 0.068347 -0.018280 178194.000000 0 0 1
-25.483394 -22.972598 -27.533857 43.991555 0.733628 2.247068 0.076484 -0.018487 228437.000000 0 0 1
-25.400534 -22.142298 -28.852917 44.361688 0.716973 2.278909 0.076852 -0.025035 -60761.800000 0 0 1
-24.914034 -22.864898 -29.944677 45.168533 0.742537 2.295554 0.072440 -0.013867 63214.900000 0 0 1
-24.979634 -22.095498 -31.118397 45.613022 0.724208 2.321599 0.065907 -0.014026 -349466.000000 0 0 1
-24.383034 -22.878998 -32.286577 46.480146 0.753586 2.338704 0.055287 -0.034893 -91789.200000 0 0 1
-25.180634 -23.972798 -32.758197 47.768806 0.760830 2.326451 0.045169 -0.028855 76163.100000 0 0 1
-24.698834 -24.660098 -33.917797 48.667955 0.784613 2.341894 0.056618 -0.004819 -80211.600000 0 0 1
-20.045134 -15.296298 -11.779827 27.830711 0.651828 2.007845 0.064281 0.007479 -168607.000000 0 0 1
-20.266334 -14.475798 -10.627227 27.077869 0.620244 1.974111 0.072452 -0.002216 516952.000000 0 0 1
-19.313234 -14.855298 -9.627327 26.198594 0.655662 1.947089 0.055140 -0.004209 289921.000000 0 0 1
-19.513534 -14.124098 -8.283827 25.473318 0.626528 1.902016 0.069493 -0.015338 -649792.000000 0 0 1
-20.659734 -14.570198 -7.616427 26.403129 0.614238 1.863422 0.083749 -0.012924 -31882.600000 0 0 1
-20.733834 -14.097198 -6.299527 25.851632 0.597117 1.816955 0.065795 -0.028901 23538.100000 0 0 1
-22.068834 -14.483598 -5.602427 26.985093 0.580786 1.779929 0.090613 -0.025402 3885.220000 0 0 1
-22.193834 -15.834598 -5.084227 27.733556 0.619708 1.755163 0.074059 -0.023102 617152.000000 0 0 1
-21.342134 -16.080598 -3.966327 27.014886 0.645716 1.718149 0.075339 -0.023075 -65061.100000 0 0 1
-21.253334 -17.601198 -3.528627 27.820093 0.691678 1.697976 0.057249 -0.019422 620144.000000 0 0 1
-22.510734 -18.087198 -3.045227 29.037102 0.676867 1.675863 0.065088 -0.016675 818723.000000 0 0 1
-22.204634 -19.135698 -2.165027 29.392313 0.711298 1.644523 0.050909 -0.014703 1052310.000000 0 0 1
-23.375034 -20.196798 -1.867927 30.948215 0.712585 1.631190 0.070464 -0.028064 952719.000000 0 0 1
-23.666034 -21.029998 -3.009327 31.802485 0.726489 1.665564 0.049878 -0.024273 41949.100000 0 0 1
-24.666934 -21.979698 -2.717527 33.150410 0.727853 1.652864 0.061538 -0.016498 -31921.600000 0 0 1
-24.922334 -23.044998 -3.794127 34.155381 0.746280 1.682110 0.059272 -0.012474 137411.000000 0 0 1
-23.812434 -23.942598 -3.771727 33.978021 0.788124 1.682030 0.050465 -0.014675 129663.000000 0 0 1
-23.793134 -24.624898 -4.989127 34.603327 0.802575 1.715481 0.037834 -0.011318 188506.000000 0 0 1
-22.352834 -24.595198 -5.577227 33.699828 0.833125 1.737058 0.037897 -0.003989 607431.000000 0 0 1
-21.884134 -23.369898 -6.235527 32.618235 0.818218 1.763147 0.020145 0.005992 377677.000000 0 0 1
-21.645934 -22.311998 -5.301927 31.535411 0.800549 1.739725 0.020388 -0.000253 -885326.000000 0 0 1
-21.556034 -20.852898 -5.882227 30.563157 0.768820 1.764466 0.033882 0.007659 57514.400000 0 0 1
-20.348834 -20.593798 -6.571927 29.687873 0.791381 1.794013 0.012724 0.014210 -57586.500000 0 0 1
-20.389634 -19.336698 -7.289027 29.030587 0.758900 1.824593 0.011354 0.011864 116991.000000 0 0 1
-19.056334 -18.917898 -7.938727 28.000966 0.781753 1.858255 0.030197 0.009350 -193032.000000 0 0 1
-18.870034 -19.632498 -9.127027 28.719606 0.805199 1.894202 0.023236 0.014894 129363.000000 0 0 1
-17.605934 -19.589098 -9.782527 28.096254 0.838666 1.926424 0.050865 0.016456 139861.000000 0 0 1
-17.240034 -18.286498 -10.512627 27.242065 0.814846 1.966976 0.049514 0.016724 -219225.000000 0 0 1
-16.872034 -17.155398 -9.770727 25.969989 0.793726 1.956522 0.062628 0.002682 -516709.000000 0 0 1
-15.571734 -17.179198 -9.277127 24.973363 0.834440 1.951400 0.056776 -0.001397 -826126.000000 0 1 0
-15.263934 -15.986398 -8.336027 23.622912 0.808513 1.931443 0.048717 -0.005052 47132.200000 0 1 0
-15.909934 -16.161498 -7.074127 23.756332 0.793242 1.873161 0.027309 -0.009791 336006.000000 0 1 0
-16.411834 -14.930998 -6.595327 23.146951 0.738187 1.859733 0.054192 -0.013013 -203388.000000 0 1 0
-16.917334 -15.027798 -5.134727 23.203369 0.726318 1.793936 0.047982 -0.027708 -103116.000000 0 1 0
-17.277534 -13.787098 -4.505527 22.558746 0.673507 1.771873 0.045939 -0.025495 236977.000000 0 1 0
-17.719134 -14.113398 -3.220827 22.880766 0.672607 1.712031 0.034162 -0.024467 -574625.000000 0 1 0
-18.514734 -13.108198 -2.415427 22.813472 0.616067 1.676872 0.037121 -0.018978 59204.800000 0 1 0
-19.855534 -12.973198 -2.884927 23.892863 0.578747 1.691836 0.062436 -0.025041 622016.000000 0 1 0
-20.605034 -12.047798 -2.161527 23.966415 0.529095 1.661109 0.065821 -0.014696 -1175450.000000 0 1 0
-22.074734 -12.174798 -2.477327 25.330944 0.504014 1.668751 0.069596 -0.012858 -1010270.000000 0 0 1
-22.571434 -11.573798 -3.650327 25.627082 0.473806 1.713723 0.087843 -0.027226 1024100.000000 0 0 1
-23.995234 -11.730498 -3.731427 26.968489 0.454702 1.709604 0.094840 -0.020662 562634.000000 0 0 1
-24.669034 -11.063198 -4.938727 27.483570 0.421577 1.751475 0.109890 -0.026593 -200877.000000 0 0 1
-24.346834 -11.593898 -6.199327 27.669811 0.444425 1.796761 0.107831 -0.031721 316491.000000 0 0 1
-24.931234 -10.876198 -7.279427 28.157560 0.411359 1.832291 0.116816 -0.025851 -78487.900000 0 0 1
-24.185034 -11.220498 -8.617127 28.019106 0.434389 1.883408 0.118143 -0.026858 1509290.000000 0 0 1
-22.830134 -10.694698 -8.724027 26.677710 0.438088 1.903940 0.112728 -0.032335 1529340.000000 0 0 1
-22.083434 -11.306498 -9.782027 26.668390 0.473194 1.946366 0.095895 -0.025233 -476272.000000 0 0 1
-20.687134 -10.695198 -9.762127 25.251612 0.477153 1.967732 0.096968 -0.032623 -684571.000000 0 0 1
-20.718534 -9.358698 -10.210227 24.921710 0.424272 1.992913 0.096029 -0.029883 992632.000000 0 1 0
-19.495134 -8.738998 -9.791127 23.500989 0.421411 2.000527 0.093222 -0.026347 421501.000000 0 1 0
-19.343034 -7.320898 -10.424927 23.160907 0.361816 2.037683 0.074266 -0.031958 -156976.000000 0 1 0
-19.261134 -7.309798 -11.847327 23.765176 0.362719 2.092683 0.107902 -0.031709 521658.000000 0 1 0
-19.359334 -6.008598 -12.410127 23.767590 0.300945 2.120160 0.105390 -0.043089 -728124.000000 0 1 0
-18.811934 -6.003598 -13.797127 24.089267 0.308921 2.180653 0.131665 -0.033810 -435515.000000 0 1 0
-19.475534 -6.734398 -14.821327 25.383465 0.332917 2.194317 0.116186 -0.038439 240160.000000 0 0 1
-18.923034 -6.509798 -16.121127 25.697265 0.331333 2.248939 0.099450 -0.040046 -472721.000000 0 0 1
-19.366434 -7.483398 -17.278927 27.011504 0.368737 2.264888 0.080265 -0.034346 -248675.000000 0 0 1
-20.674234 -7.159698 -17.701227 28.142826 0.333384 2.251035 0.088571 -0.036506 191761.000000 0 0 1
-21.028134 -7.910598 -18.846727 29.325059 0.359815 2.268792 0.093292 -0.042405 -189096.000000 0 0 1
-22.444234 -7.672598 -19.407927 30.647676 0.329397 2.256554 0.092266 -0.038818 -737414.000000 0 0 1
-22.554334 -6.425298 -20.116927 30.897786 0.277529 2.279803 0.088270 -0.038934 121804.000000 0 0 1
-23.782334 -6.251598 -20.770027 32.188133 0.257052 2.272173 0.084079 -0.036441 -544180.000000 0 0 1
-25.035774 -6.007998 -19.959527 32.577120 0.235523 2.230250 0.111960 -0.034705 -1070570.000000 0 0 1
-25.094554 -4.722498 -19.374127 32.053010 0.186013 2.219859 0.091838 -0.025200 -532599.000000 0 0 1
-26.216704 -4.540998 -18.599427 32.463440 0.171508 2.180878 0.110008 -0.018340 -953742.000000 0 0 1
-26.307274 -3.166198 -17.916327 31.985813 0.119778 2.165343 0.092616 -0.014809 11641.000000 0 0 1
-26.468694 -2.073598 -18.786927 32.524455 0.078182 2.186612 0.095934 -0.012092 1208770.000000 0 0 1
-27.851974 -1.899898 -19.180227 33.870683 0.068109 2.172779 0.117135 -0.005493 1048450.000000 0 0 1
-28.160174 -0.662598 -20.080127 34.592570 0.023525 2.190108 0.109057 -0.001644 -48548.900000 0 0 1
-27.541164 -0.679898 -21.380927 34.872941 0.024682 2.230787 0.102958 -0.007191 120264.000000 0 0 1
-28.039804 -1.576098 -22.354627 35.894903 0.056150 2.243087 0.097782 0.000514 -165111.000000 0 0 1
-27.231164 -1.484298 -23.655227 36.101374 0.054453 2.285303 0.100811 -0.005157 -369352.000000 0 0 1
-27.302044 -0.260498 -24.332127 36.572146 0.009541 2.298717 0.090875 -0.003291 303416.000000 0 0 1
-26.564704 0.915402 -23.919627 35.758496 -0.034446 2.303553 0.073362 -0.004068 1037460.000000 0 0 1
-24.990534 0.876102 -23.906527 34.595034 -0.035043 2.333722 0.074376 -0.002106 588216.000000 0 0 1
-24.352634 0.553902 -25.101247 34.977567 -0.022741 2.371202 0.061794 -0.000773 -36335.200000 0 0 1
-22.970934 0.440102 -24.783827 33.794905 -0.019157 2.394047 0.057025 -0.000697 164537.000000 0 0 1
-22.096834 0.001002 -25.969537 34.098195 -0.000045 2.436591 0.048307 -0.001947 -186051.000000 0 0 1
-22.093434 0.917402 -27.065347 34.949885 -0.041500 2.456570 0.034812 -0.000581 301997.000000 0 0 1
-21.252234 0.390802 -28.100467 35.234166 -0.018387 2.493994 0.022826 -0.004899 234900.000000 0 0 1
-21.162334 1.290102 -29.323497 36.185304 -0.060887 2.515580 0.018453 0.002247 -102325.000000 0 0 1
-20.357034 2.444502 -29.115827 35.610614 -0.119509 2.528055 0.028131 0.004168 286554.000000 0 0 1
-20.206434 3.376002 -30.169987 36.468143 -0.165547 2.545075 0.017919 -0.001526 13875.300000 0 0 1
-19.647234 2.858302 -31.577407 37.300353 -0.144468 2.580307 0.019891 -0.009461 -541413.000000 0 0 1
-18.301034 2.512402 -31.518037 36.532543 -0.136429 2.611457 0.022082 -0.006819 -684288.000000 0 0 1
-17.851234 2.115302 -32.798317 37.401479 -0.117946 2.640224 0.021339 -0.007794 1211300.000000 0 0 1
-16.301434 1.789302 -32.811167 36.681208 -0.109326 2.678097 0.025993 -0.014923 1276530.000000 0 0 1
-15.475134 2.918702 -32.600437 36.204794 -0.186416 2.691589 0.031613 -0.011304 651120.000000 0 0 1
-14.079734 2.641902 -32.775367 35.769306 -0.185482 2.729535 0.020340 -0.007863 333125.000000 0 0 1
-13.324934 3.877102 -33.179997 35.965233 -0.283148 2.745453 0.036277 -0.002143 -657883.000000 0 0 1
-13.272734 4.817302 -32.191777 35.152274 -0.348162 2.728244 0.051979 -0.012935 354547.000000 0 0 1
-12.730734 6.068402 -32.664177 35.578723 -0.444813 2.734010 0.065129 -0.001501 -72739.400000 0 0 1
-12.508034 7.228102 -31.627017 34.770168 -0.523994 2.713122 0.066940 -0.009120 115389.000000 0 0 1
-11.399434 7.021402 -30.748577 33.536878 -0.552060 2.730935 0.080293 -0.018522 438074.000000 0 0 1
-11.629834 6.134802 -29.670097 32.453097 -0.485409 2.724438 0.083108 -0.022043 -623006.000000 0 0 1
-10.401634 5.345602 -29.246517 31.498067 -0.474721 2.761197 0.092109 -0.026286 -533584.000000 0 0 1
-9.828634 4.385902 -30.143587 32.007406 -0.419720 2.798650 0.068732 -0.030761 422975.000000 0 0 1
-10.607034 3.220002 -30.386417 32.345200 -0.294731 2.791793 0.071599 -0.030543 -256870.000000 0 0 1
-9.899534 2.333902 -31.424347 33.029343 -0.231531 2.828570 0.063534 -0.023693 72199.300000 0 0 1
-10.592634 1.104102 -31.702647 33.443696 -0.103858 2.817503 0.059285 -0.025800 426207.000000 0 0 1
-10.148534 0.513002 -32.901057 34.434510 -0.050506 2.842037 0.046341 -0.021277 -690347.000000 0 0 1
-10.634634 1.154502 34.156559 35.792440 -0.108137 0.303503 0.050044 -0.018611 496382.000000 0 0 1
-12.029734 0.950502 33.879496 35.964401 -0.078849 0.342170 0.008953 -0.009057 606125.000000 0 0 1
-12.259934 1.232902 32.468114 34.727574 -0.100227 0.362713 0.008816 0.003728 -152167.000000 0 0 1
-13.631334 0.852402 31.877343 34.680035 -0.062451 0.404792 0.007656 0.008930 469129.000000 0 0 1
-14.618134 1.847102 32.214853 35.424544 -0.125691 0.428973 0.015836 0.015805 680764.000000 0 0 1
-15.888434 1.560002 31.642843 35.442142 -0.097871 0.467267 0.014832 0.013642 267868.000000 0 0 1
-16.684934 2.819102 31.257973 35.544271 -0.167380 0.496176 0.031440 0.007674 -78071.100000 0 0 1
-17.334334 3.577902 32.272143 36.807223 -0.203547 0.501654 0.038065 -0.007605 355372.000000 0 0 1
-16.647434 4.750702 32.653221 36.958612 -0.277983 0.487498 0.032518 0.003051 -220056.000000 0 0 1
-17.271934 5.428702 33.902687 38.434134 -0.304531 0.490498 0.025893 -0.002495 826483.000000 0 0 1
-18.588034 5.954302 33.699063 38.943491 -0.310002 0.524983 0.020778 -0.006565 338544.000000 0 0 1
-19.510034 5.460702 -33.751397 39.365181 -0.272909 2.600977 0.017041 -0.007080 -696545.000000 0 0 1
-20.949534 5.930102 -33.816977 40.219859 -0.275850 2.569561 0.010394 -0.002731 -753917.000000 0 0 1
-21.239434 7.283702 -33.521547 40.346747 -0.330365 2.551405 0.015684 -0.006051 153042.000000 0 0 1
-20.768634 8.252202 33.927873 40.626783 -0.378211 0.582462 0.000925 -0.005395 -378987.000000 0 0 1
-20.730734 9.686102 -33.931177 40.925648 -0.437093 2.548280 -0.007567 0.008379 -97837.800000 0 0 1
-19.667734 9.879902 -32.982457 39.651919 -0.465518 2.553139 -0.001576 0.004026 579471.000000 0 0 1
-19.513034 11.278002 -32.642547 39.667212 -0.524066 2.537310 0.003826 0.007759 210942.000000 0 0 1
-18.624834 12.087402 -33.649117 40.314424 -0.575668 2.558324 -0.004290 -0.008774 -147929.000000 0 0 1
-19.196734 12.161002 33.428710 40.421321 -0.564684 0.597034 0.008923 -0.014259 175541.000000 0 0 1
-18.282234 12.604002 32.424330 39.299339 -0.603585 0.600487 0.017921 -0.011337 7798.790000 0 0 1
-18.775934 12.289702 30.981323 38.254605 -0.579564 0.626863 0.044779 -0.014538 -231121.000000 0 0 1
-19.042734 10.873302 30.892253 37.883844 -0.518819 0.617296 0.032394 -0.008036 -339927.000000 0 0 1
-17.912734 10.099202 30.646423 36.906139 -0.513377 0.590992 0.038524 -0.014253 -397739.000000 0 0 1
-18.112634 8.589202 30.920193 36.849697 -0.442804 0.575189 0.049083 -0.004142 -70920.000000 0 0 1
-18.934634 7.967102 29.967183 36.332177 -0.398281 0.600928 0.050152 -0.012709 86454.500000 0 0 1
-19.127634 6.628102 30.252633 36.400822 -0.333571 0.589718 0.051183 -0.015995 -184908.000000 0 0 1
-19.558634 5.782302 29.063063 35.505447 -0.287451 0.611910 0.050558 -0.017741 9906.050000 0 0 1
-20.924934 6.025802 28.790503 36.097869 -0.280386 0.647544 0.076896 -0.029962 -121557.000000 0 0 1
-21.352234 5.024302 27.848363 35.449863 -0.231102 0.667179 0.062468 -0.029601 998939.000000 0 0 1
-22.925534 5.012702 27.681543 36.290151 -0.215264 0.703189 0.054658 -0.022977 1083390.000000 0 0 1
-23.389334 5.981702 26.753343 36.035857 -0.250378 0.734137 0.059421 -0.025658 -387834.000000 0 0 1
-24.785934 6.010702 26.784013 36.984515 -0.237912 0.760930 0.059964 -0.026192 -676618.000000 0 0 1
-25.310514 6.952802 25.617493 36.677234 -0.268087 0.797556 0.062654 -0.024057 -104290.000000 0 0 1
-25.433914 6.427302 24.282063 35.746506 -0.247524 0.824009 0.053729 -0.019570 779776.000000 0 0 1
-26.350074 5.326002 24.075933 36.087992 -0.199438 0.840426 0.045655 -0.010985 60917.400000 0 0 1
-26.176164 4.683402 22.695873 34.960384 -0.177045 0.864280 0.047605 -0.011460 -173007.000000 0 0 1
-26.807134 5.354202 21.596973 34.838472 -0.197136 0.902159 0.057794 -0.010724 114290.000000 0 0 1
-26.456134 4.766702 20.369973 33.728093 -0.178261 0.922353 0.044834 -0.007328 292463.000000 0 0 1
-27.378774 5.207802 19.179673 33.831617 -0.187968 0.968039 0.107714 -0.016207 448232.000000 0 0 1
-28.749104 4.882702 19.272273 34.953858 -0.168233 0.986799 0.122447 -0.015852 -183562.000000 0 0 1
-29.445464 5.309302 18.150273 34.995091 -0.178393 1.025523 0.128291 -0.019174 656305.000000 0 0 1
-30.991844 5.356002 18.445673 36.461267 -0.171129 1.040374 0.122993 -0.019472 697801.000000 0 0 1
-31.354124 6.415102 19.276873 37.360841 -0.201816 1.028663 0.126004 -0.013652 246144.000000 0 0 1
-32.730814 6.316602 19.634673 38.687543 -0.190643 1.038493 0.127091 -0.013170 639030.000000 0 0 1
-33.259964 7.516402 20.484573 39.778627 -0.222256 1.029830 0.137876 -0.009974 70988.500000 0 0 1
-32.714144 7.485802 21.770673 40.002682 -0.224952 0.995325 0.102490 -0.011825 386156.000000 0 0 1
-33.643554 7.990402 22.738873 41.385886 -0.233181 0.989108 0.111430 -0.018293 451200.000000 0 0 1
-0.767134 32.005702 11.612673 34.055948 -1.546832 1.222829 0.044448 -0.006162 -216921.000000 0 0 1
-1.194334 32.468702 12.877173 34.949458 -1.534029 1.193454 0.029867 -0.008241 22676.600000 0 0 1
-0.770234 33.797202 13.125173 36.264504 -1.548010 1.200460 0.025597 -0.014125 -630491.000000 0 0 1
-0.429334 34.138502 14.586673 37.126711 -1.558221 1.167025 0.011099 -0.010417 1190060.000000 0 0 1
-1.603734 34.140402 15.465573 37.514303 -1.523856 1.145865 0.009420 0.004998 1067170.000000 0 0 1
-1.233234 -34.049015 16.799973 37.988095 1.534593 1.112698 0.004567 -0.010023 15234.200000 0 0 1
-2.391434 -33.670515 17.744273 38.135046 1.499891 1.086822 0.008992 0.000307 -280716.000000 0 0 1
-3.309434 33.684402 18.062273 38.364527 -1.472862 1.080592 0.007553 0.003437 -10087.900000 0 0 1
-4.160734 34.120402 19.106673 39.326562 -1.449453 1.063465 0.010809 0.001950 -40001.900000 0 0 1
-5.224434 33.097402 19.579473 38.808355 -1.414238 1.041974 0.008670 0.001199 -368686.000000 0 0 1
-6.286434 33.064102 18.702073 38.503527 -1.382910 1.063606 0.012436 -0.003354 23626.000000 0 0 1
-7.402134 32.258902 19.171773 38.248989 -1.345241 1.045770 0.025663 -0.015103 682961.000000 0 0 1
-8.442934 32.128702 18.052973 37.808020 -1.313822 1.073000 0.017574 -0.022076 -231215.000000 0 0 1
-9.133234 33.354702 17.768273 38.880118 -1.303526 1.096175 0.040253 -0.024053 42854.000000 0 0 1
-9.907534 33.241702 16.594173 38.451743 -1.281134 1.124577 0.048074 -0.022789 -4791.660000 0 0 1
-10.886934 -33.949615 16.331473 39.215032 1.260477 1.141249 0.090734 -0.029892 -66541.200000 0 0 1
-12.040734 -34.132715 17.111073 40.035114 1.231663 1.129180 0.081757 -0.031799 -455086.000000 0 0 1
-13.092134 -33.261315 16.755773 39.477525 1.195807 1.132455 0.069705 -0.034015 1245070.000000 0 0 1
-14.450434 -33.685215 17.471873 40.605112 1.165556 1.125985 0.086355 -0.030626 1044860.000000 0 0 1
-14.303434 -33.443415 18.855373 40.970420 1.166649 1.092554 0.082143 -0.025309 346073.000000 0 0 1
-15.553734 -33.604915 19.512773 41.856388 1.137315 1.085824 0.072888 -0.032503 444696.000000 0 0 1
-15.470234 -33.144515 20.989173 42.171464 1.134100 1.049839 0.065828 -0.041168 -245094.000000 0 0 1
-15.305934 -31.745715 21.136473 41.095164 1.121537 1.030570 0.073443 -0.034172 164258.000000 0 0 1
-15.240334 -31.523015 22.509673 41.625156 1.120462 0.999443 0.056261 -0.027296 74026.500000 0 0 1
-15.034434 -30.021315 22.864873 40.621619 1.106515 0.972937 0.073185 -0.037491 6873.000000 0 0 1
-15.180334 -29.724915 24.228773 41.243745 1.098630 0.942888 0.068886 -0.040829 -175555.000000 0 0 1
-14.932134 -28.305115 24.497173 40.302104 1.085359 0.917461 0.073399 -0.010890 -379710.000000 0 0 1
-15.961034 -27.249915 24.108973 39.731034 1.040937 0.918762 0.073784 -0.015856 -812279.000000 0 0 1
-17.186534 -27.442815 24.752373 40.757392 1.011286 0.918126 0.083115 -0.015066 -573275.000000 0 0 1
-18.139334 -26.616715 24.117273 40.238387 0.972594 0.928095 0.073965 -0.009366 -360278.000000 0 0 1
-19.235234 -26.134515 25.142373 41.050530 0.936310 0.911610 0.077234 -0.011939 1269970.000000 0 0 1
-20.179234 -27.127115 25.704673 42.471308 0.931226 0.920749 0.089052 -0.012794 1088960.000000 0 0 1
-20.997934 -27.808215 24.769973 42.752328 0.924040 0.952825 0.063418 -0.009146 18563.200000 0 0 1
-22.380434 -27.168215 24.434373 42.848971 0.881727 0.963993 0.034478 -0.000126 132443.000000 0 0 1
-22.351134 -25.895815 23.806973 41.676593 0.858736 0.962791 0.049778 -0.003745 75993.800000 0 0 1
-23.605134 -25.641315 23.219173 41.878507 0.826721 0.983105 0.042720 -0.001851 169347.000000 0 0 1
-24.223134 -24.181915 23.096773 41.291478 0.784547 0.977184 0.057552 -0.000630 252269.000000 0 0 1
-24.646634 -23.632315 24.330573 41.927552 0.764392 0.951699 0.056323 -0.003711 99042.700000 0 0 1
-25.400714 -22.456515 24.144673 41.622789 0.723955 0.951966 0.043716 0.000600 133691.000000 0 0 1
-25.966344 -21.762515 25.401073 42.344687 0.697548 0.927465 0.050132 0.000023 146674.000000 0 0 1
-27.173714 -22.317915 25.880773 43.661361 0.687598 0.936313 0.040785 0.004324 177255.000000 0 0 1
-27.588074 -21.614715 27.025373 44.256847 0.664587 0.913917 0.028469 -0.002586 78982.900000 0 0 1
-28.803444 -22.234515 27.846573 45.819686 0.657395 0.917582 0.019828 0.002852 1485540.000000 0 0 1
-30.153444 -22.093815 27.405273 46.351006 0.632345 0.938182 0.020644 0.003074 730813.000000 0 0 1
-30.462844 -22.533315 26.120273 46.021775 0.636875 0.967253 0.022503 0.007143 -735747.000000 0 0 1
-31.972724 -22.918415 26.111073 47.215431 0.621920 0.984812 0.004015 0.007277 403704.000000 0 0 1
-32.566734 -23.188015 24.839273 47.066609 0.618745 1.014850 -0.000162 0.006267 38520.500000 0 0 1
-31.988524 -24.284415 24.189573 46.884261 0.649338 1.028689 -0.001539 0.006246 -595975.000000 0 0 1
-32.655124 -24.717215 22.881573 46.913369 0.647913 1.061296 0.000826 -0.001179 38671.300000 0 0 1
-33.955044 -25.258815 23.033073 48.181689 0.639579 1.072367 0.002557 0.001874 123228.000000 0 0 1
-34.356555 -25.907815 21.844873 48.257499 0.646111 1.101035 0.013449 0.002251 187121.000000 0 0 1
-35.541498 -26.892215 22.066473 49.732469 0.647739 1.111069 0.020009 -0.001803 -259908.000000 0 0 1
-35.351119 -27.980515 22.940173 50.585199 0.669538 1.100113 0.008879 0.000990 676446.000000 0 0 1
-34.312988 -28.953915 22.617073 50.271685 0.700894 1.104146 -0.002302 0.004629 -2646.360000 0 0 1
-34.550770 -29.919715 21.486873 50.503769 0.713689 1.131336 0.007237 0.005039 -459584.000000 0 0 1
-34.624100 -29.408915 20.184473 49.710416 0.704132 1.152679 0.006619 0.008003 477582.000000 0 0 1
-34.954876 -30.484215 19.297373 50.234643 0.717186 1.176515 0.017237 0.004854 -194546.000000 0 0 1
-35.536615 -30.097415 17.865173 49.878550 0.702715 1.204486 0.020821 0.006415 -723085.000000 0 0 1
-34.686078 -29.401915 17.014973 48.550035 0.703133 1.212731 0.057863 -0.009388 -96326.400000 0 0 1
-35.196643 -29.155415 15.705073 48.326920 0.691795 1.239810 0.071728 -0.001597 73695.700000 0 0 1
-35.633919 -30.394015 14.841773 49.130953 0.706205 1.263916 0.057339 -0.004964 -412856.000000 0 0 1
-34.521679 -31.132915 14.457573 48.682914 0.733829 1.269274 0.043496 -0.013601 -322166.000000 0 0 1
-34.570292 -31.788215 13.181073 48.778442 0.743498 1.297171 0.044966 -0.015379 -44640.400000 0 0 1
-34.724179 -30.831615 11.937573 47.946457 0.726090 1.319172 0.048773 -0.019339 -349010.000000 0 0 1
-36.033412 -30.365115 11.750773 48.564675 0.700237 1.326410 0.047755 -0.015775 -169763.000000 0 0 1
-36.180204 -29.620115 10.516473 47.926554 0.686030 1.349567 0.042524 -0.015959 659426.000000 0 0 1
35.444858 -28.641215 10.546173 46.774768 -0.679630 1.343374 0.069229 -0.006796 594918.000000 0 0 1
35.390448 -27.709115 9.508073 45.942163 -0.664261 1.362332 0.089743 -0.037163 -42339.800000 0 0 1
34.175278 -27.007115 9.455673 44.572902 -0.668769 1.357033 0.081834 -0.030670 -88194.800000 0 0 1
34.184648 -25.992515 8.296173 43.738170 -0.650096 1.379962 0.075654 -0.024522 212287.000000 0 0 1
34.906748 -24.804915 8.615073 43.680480 -0.617808 1.372265 0.088054 -0.031876 171661.000000 0 0 1
35.148008 -24.087815 7.429273 43.252738 -0.600809 1.398176 0.077776 -0.034291 -95403.100000 0 0 1
35.869938 -22.777915 7.602673 43.165802 -0.565768 1.393746 0.079194 -0.039753 -53926.500000 0 0 1
35.010428 -21.892015 8.335373 42.124444 -0.558815 1.371607 0.079724 -0.039009 488454.000000 0 0 1
35.374968 -20.547615 8.158973 41.715245 -0.526221 1.373940 0.084831 -0.033382 -11789.900000 0 0 1
34.539808 -19.626015 9.110573 40.757592 -0.516720 1.345361 0.095300 -0.025613 210460.000000 0 0 1
35.009898 -19.579415 10.451873 41.452239 -0.509920 1.315903 0.083523 -0.037217 458003.000000 0 0 1
34.119378 -18.747115 11.252273 40.524066 -0.502426 1.289430 0.086607 -0.025503 790647.000000 0 0 1
34.683238 -18.595815 12.704473 41.353778 -0.492157 1.258532 0.080141 -0.035209 106421.000000 0 0 1
35.900738 -17.903815 12.853773 42.126346 -0.462610 1.260727 0.037613 -0.021669 44134.100000 0 0 1
36.264118 -17.977715 14.221273 42.901388 -0.460237 1.232917 0.044113 -0.015306 15872.000000 0 0 1
-35.237515 -17.290215 14.441073 41.823182 0.456161 1.218250 0.060377 -0.023117 390288.000000 0 0 1
-34.006224 -17.837515 13.993673 40.870809 0.483084 1.221339 0.052041 -0.022879 -125463.000000 0 0 1
-32.917954 -17.110215 14.445573 39.812381 0.479349 1.199481 0.044069 -0.021551 -843495.000000 0 0 1
-31.751294 -17.296415 13.484873 38.589538 0.498801 1.213819 0.067540 -0.021313 -553022.000000 0 0 1
-31.026434 -18.524115 13.662473 38.632183 0.538242 1.209320 0.064216 -0.021509 -51566.300000 0 0 1
-29.961494 -18.455515 12.744673 37.426245 0.552083 1.223318 0.034391 -0.009110 -434472.000000 0 0 1
-29.354324 -19.814215 12.385473 37.519053 0.593751 1.234375 0.036229 -0.014507 300199.000000 0 0 1
-30.156904 -20.703415 11.629673 38.383845 0.601624 1.262975 0.046752 -0.019953 -96632.900000 0 0 1
-29.244004 -21.611415 11.092073 38.017089 0.636426 1.274724 0.041812 -0.018084 -230153.000000 0 0 1
-29.808224 -22.325415 9.820673 38.514932 0.642841 1.312966 0.048292 -0.019219 234165.000000 0 0 1
-30.534664 -23.468215 10.217873 39.843792 0.655284 1.311451 0.052373 -0.021014 115191.000000 0 0 1
-31.914174 -23.237815 10.454873 40.838889 0.629360 1.311911 0.071980 -0.026616 -272564.000000 0 0 1
-32.745054 -24.533915 10.576173 42.261176 0.643015 1.317850 0.079072 -0.031717 -293825.000000 0 0 1
-32.862894 -25.233515 9.343373 42.473506 0.654823 1.349001 0.066750 -0.025121 -156759.000000 0 0 1
-33.729314 -26.336115 9.406173 43.814765 0.662928 1.354432 0.070565 -0.022119 59540.900000 0 0 1
-33.872404 -27.154215 8.126773 44.167132 0.675753 1.385741 0.052661 -0.018850 -253649.000000 0 0 1
-32.697514 -27.780915 7.713373 43.593609 0.704281 1.392922 0.042134 -0.019081 -537117.000000 0 0 1
-32.890634 -28.519215 6.567573 44.025815 0.714334 1.421062 0.043624 -0.011020 -486229.000000 0 0 1
-31.600664 -28.640115 5.742973 43.033009 0.736292 1.436942 0.039642 -0.004706 -258384.000000 0 0 1
-31.023374 -27.443315 5.330673 41.761242 0.724242 1.442801 0.047355 -0.000068 -349665.000000 0 0 1
-29.909204 -27.815415 4.536473 41.095467 0.749142 1.460182 0.043173 -0.006180 6593.080000 0 0 1
-29.106504 -26.611615 4.049073 39.645449 0.740651 1.468486 0.049401 -0.005724 -145654.000000 0 0 1
-29.643164 -26.094915 2.853573 39.595513 0.721825 1.498666 0.055404 -0.002844 -1699.620000 0 0 1
-28.845944 -25.050715 2.279973 38.273033 0.715097 1.511190 0.062324 -0.015105 -452861.000000 0 0 1
-29.307294 -24.418815 0.965073 38.159237 0.694659 1.545503 0.066614 -0.010833 -270836.000000 0 0 1
-29.045214 -25.293315 -0.145027 38.514897 0.716461 1.574562 0.058116 -0.011774 -132544.000000 0 0 1
-29.003994 -24.673915 -1.396527 38.104908 0.704905 1.607454 0.066180 -0.014405 -123898.000000 0 0 1
-30.314114 -24.431215 -2.185627 38.994958 0.678350 1.626875 0.086511 -0.007800 -75911.700000 0 0 1
-31.020374 -23.341315 -1.660927 38.856650 0.645068 1.613554 0.071960 -0.001602 947033.000000 0 0 1
-32.388244 -23.410515 -2.150027 40.020909 0.625871 1.624545 0.082555 -0.006945 1401680.000000 0 0 1
-33.295444 -22.145915 -1.968827 40.036289 0.586940 1.619992 0.077356 -0.007511 121575.000000 0 0 1
-33.585454 -21.911315 -0.589927 40.105317 0.578064 1.585506 0.079749 -0.018248 252536.000000 0 0 1
-34.220381 -20.635415 -0.466027 39.963383 0.542634 1.582458 0.077359 -0.014879 -276864.000000 0 0 1
-34.466000 -20.253215 1.023773 39.989323 0.531273 1.545192 0.073389 -0.019575 -400222.000000 0 0 1
-35.365047 -21.141815 1.630973 41.234972 0.538813 1.531233 0.063597 -0.023780 71734.000000 0 0 1
-35.357429 -20.960915 3.035273 41.215538 0.535130 1.497086 0.062458 -0.025026 -1721300.000000 0 0 1
-36.396584 -21.768415 3.832673 42.582444 0.539014 1.480668 0.074355 -0.015441 -460624.000000 0 0 1
35.171418 -21.543115 3.383973 41.383399 -0.549573 1.488934 0.057769 -0.014616 -664717.000000 0 0 1
34.647118 -20.207215 3.611273 40.271524 -0.527997 1.481003 0.059699 -0.022073 -631380.000000 0 0 1
33.314238 -19.954015 2.815873 38.934950 -0.539657 1.498411 0.045792 -0.009263 1199250.000000 0 0 1
32.279268 -20.862215 3.200873 38.567198 -0.573772 1.487706 0.044041 -0.007360 961280.000000 0 0 1
30.973608 -20.486215 2.715173 37.234682 -0.584354 1.497811 0.041730 -0.015837 1217070.000000 0 0 1
29.771488 -21.336215 3.156473 36.763282 -0.621824 1.484831 0.035227 -0.001225 88010.600000 0 0 1
29.783368 -22.528815 2.389973 37.420696 -0.647599 1.506885 0.028826 -0.001153 -443640.000000 0 0 1
28.667458 -23.285415 2.721373 37.032952 -0.682172 1.497245 0.035271 -0.000126 -408147.000000 0 0 1
28.273498 -24.506415 1.909873 37.464686 -0.714146 1.519796 0.031987 0.001625 -160064.000000 0 0 1
27.888608 -24.133715 0.626873 36.886361 -0.713345 1.553801 0.028964 -0.000174 170591.000000 0 0 1
27.231088 -25.225815 -0.057127 37.119768 -0.747190 1.572335 0.023812 -0.003140 48104.100000 0 0 1
26.292088 -24.868315 -1.220127 36.210436 -0.757576 1.604498 0.043103 -0.012838 -34237.600000 0 0 1
26.929688 -24.534915 -2.466527 36.513750 -0.738899 1.638398 0.025329 -0.020037 217310.000000 0 0 1
27.129788 -25.612015 -3.382627 37.462553 -0.756629 1.661213 0.035874 -0.019296 -780169.000000 0 0 1
25.932688 -26.122115 -4.184627 37.045652 -0.789037 1.683997 0.048515 -0.027090 -133132.000000 0 0 1
25.430888 -25.222315 -5.204127 36.193621 -0.781281 1.715082 0.044993 -0.032976 283086.000000 0 0 1
24.462788 -24.325715 -4.743027 34.823336 -0.782589 1.707424 0.048720 -0.033827 -706737.000000 0 0 1
24.077888 -23.199415 -5.823827 33.939277 -0.766819 1.743245 0.040705 -0.034212 154759.000000 0 0 1
23.385788 -23.673615 -6.989327 34.002733 -0.791514 1.777824 0.036240 -0.028209 1438060.000000 0 0 1
22.240588 -22.870715 -7.413927 32.751789 -0.799366 1.799143 0.040625 -0.027100 854396.000000 0 0 1
22.497688 -21.532615 -8.130827 32.185553 -0.763483 1.826187 0.035078 -0.024300 -692150.000000 0 0 1
23.114188 -21.546115 -9.389827 32.964672 -0.750301 1.859641 0.048069 -0.026841 153275.000000 0 0 1
23.095988 -20.304715 -10.037027 32.348849 -0.721173 1.886278 0.046151 -0.023270 -168398.000000 0 0 1
23.740888 -20.071315 -11.422327 33.120341 -0.701836 1.922900 0.043574 -0.017773 1486130.000000 0 0 1
25.199688 -20.002615 -11.405427 34.135211 -0.670927 1.911473 0.064302 -0.016984 1500670.000000 0 0 1
25.698388 -19.550515 -12.651127 34.679689 -0.650357 1.944214 0.062579 -0.020095 -39562.200000 0 0 1
27.225788 -19.758115 -12.769327 35.981695 -0.627776 1.933586 0.051923 -0.012504 5734.110000 0 0 1
27.561688 -21.133115 -12.886227 37.044703 -0.654140 1.926080 0.036446 -0.011888 305980.000000 0 0 1
28.061138 -21.765515 -11.691727 37.387987 -0.659714 1.888845 0.065152 -0.013256 -259926.000000 0 0 1
28.617848 -23.143515 -11.891927 38.678436 -0.680029 1.883315 0.057698 -0.000603 316550.000000 0 0 1
29.759238 -23.116115 -12.771027 39.787764 -0.660416 1.897559 0.049681 -0.012050 766126.000000 0 0 1
30.038988 -24.388415 -13.354027 40.932452 -0.681950 1.903125 0.053828 -0.009948 12072.100000 0 0 1
-3.730734 -9.124198 -27.689407 29.391711 1.182655 2.799582 0.025457 -0.007180 143328.000000 0 0 1
-3.923934 -7.936198 -27.038557 28.451082 1.111611 2.825163 0.022737 -0.005372 268334.000000 0 0 1
-4.734034 -7.024098 -27.780537 29.043197 0.977754 2.845640 0.026944 -0.008138 -75536.500000 0 0 1
-4.675934 -5.580598 -27.170517 28.129068 0.873374 2.879783 0.020880 -0.011626 -154836.000000 0 0 1
-5.205034 -5.560898 -25.843807 26.942872 0.818441 2.854982 0.016189 -0.013148 375586.000000 0 0 1
-4.989934 -4.257398 -25.342717 26.177819 0.706347 2.888325 0.024010 -0.018971 56268.000000 0 0 1
-5.465534 -4.210698 -23.873427 24.850404 0.656436 2.860258 0.025313 -0.017276 85395.100000 0 1 0
-4.749634 -5.112298 -23.035927 24.069661 0.822156 2.847455 0.013415 -0.021065 487019.000000 0 1 0
-5.105434 -4.920798 -21.701727 22.830784 0.766985 2.825788 0.015858 -0.015762 -52525.400000 0 1 0
-4.484534 -6.043598 -20.851227 22.167765 0.932415 2.795220 0.017047 -0.009244 -709114.000000 0 1 0
-5.066334 -7.268498 -21.120127 22.903244 0.962069 2.744387 0.016917 -0.004728 328075.000000 0 1 0
-4.467434 -8.329998 -20.376927 22.462547 1.078527 2.707260 0.023547 -0.009655 -1007080.000000 0 1 0
-5.266134 -9.620598 -20.458027 23.212474 1.069966 2.649482 0.037853 -0.006554 190509.000000 0 1 0
-6.367834 -9.770998 -19.584827 22.794455 0.993222 2.604486 0.046481 -0.005429 166405.000000 0 1 0
-7.533234 -9.037798 -19.853327 23.077825 0.875945 2.606610 0.042945 -0.012233 -474417.000000 0 1 0
-8.676934 -9.177598 -18.810327 22.657138 0.813432 2.550292 0.038885 -0.002830 -94900.200000 0 1 0
-9.450534 -10.336598 -18.897427 23.521705 0.830148 2.503786 0.071038 -0.000683 79756.400000 0 1 0
-9.990334 -10.719298 -17.629527 22.924013 0.820583 2.448137 0.054161 -0.002789 80633.900000 0 1 0
-10.737734 -12.070598 -17.689627 23.956652 0.843769 2.401493 0.023768 0.008895 -214581.000000 0 1 0
-11.920434 -12.129198 -18.430527 25.077849 0.794079 2.396364 0.041062 -0.004487 -280074.000000 0 0 1
-11.766134 -12.315598 -19.827527 26.138988 0.808211 2.431869 0.045447 -0.008703 -428099.000000 0 0 1
-12.997234 -11.789998 -20.644327 27.094656 0.736733 2.437090 0.031817 -0.003223 368527.000000 0 0 1
-14.060034 -12.702898 -20.764127 28.110446 0.734732 2.401880 0.020713 0.003350 226987.000000 0 0 1
-14.909334 -12.940298 -19.625027 27.836689 0.714813 2.353228 0.018383 0.003998 61963.000000 0 0 1
-15.999634 -14.017298 -19.921827 29.143647 0.719453 2.323444 0.018343 0.013283 303191.000000 0 0 1
-15.523634 -15.344898 -19.926027 29.554960 0.779608 2.310681 0.012645 0.013477 -74947.100000 0 0 1
-16.320834 -16.055598 -20.846827 30.963560 0.777206 2.309418 0.012404 0.010797 -97306.500000 0 0 1
-15.794434 -17.486898 -21.140327 31.657056 0.836208 2.302035 0.003127 0.013968 159050.000000 0 0 1
-16.394934 -18.576298 -20.419527 32.106538 0.847693 2.260091 0.016813 0.017340 588021.000000 0 0 1
-15.768134 -19.824898 -20.846527 32.806072 0.898885 2.259384 0.014749 0.014702 -67648.300000 0 0 1
-16.435434 -21.040398 -20.232627 33.498971 0.907664 2.219279 0.017966 0.011181 -322910.000000 0 0 1
-16.145134 -22.252798 -20.846427 34.502549 0.943139 2.219557 0.031187 0.007178 -34552.400000 0 0 1
-16.685634 -23.348798 -20.169227 35.076694 0.950322 2.183405 0.045240 0.003594 -429770.000000 0 0 1
-16.097734 -24.665598 -20.663727 35.979416 0.992568 2.182571 0.057767 0.000329 -151781.000000 0 0 1
-16.432934 -25.080968 -21.963227 37.168261 0.990778 2.202987 0.043451 -0.000562 253690.000000 0 0 1
-15.765534 -26.312358 -22.241627 37.889078 1.030989 2.198169 0.050081 0.000435 28645.500000 0 0 1
-15.981134 -26.844438 -23.723327 39.227755 1.033822 2.220259 0.049909 -0.000105 760230.000000 0 0 1
-17.245234 -27.461718 -24.026827 40.358797 1.010062 2.208473 0.060887 -0.003530 632069.000000 0 0 1
-17.118634 -28.868718 -23.915127 41.211453 1.035553 2.189897 0.064304 -0.000316 359788.000000 0 0 1
-18.165634 -29.716548 -24.739227 42.721106 1.022112 2.188404 0.070743 -0.009013 258140.000000 0 0 1
-18.084334 -29.598588 -26.166087 43.448633 1.022338 2.217088 0.059662 -0.002703 26600.100000 0 0 1
-18.398934 -28.350788 -26.783047 43.123307 0.995142 2.240917 0.070738 -0.008371 -115574.000000 0 0 1
-17.238934 -27.793328 -27.626037 42.811773 1.015617 2.272200 0.072091 -0.013967 -16754.700000 0 0 1
-17.166434 -28.349728 -28.921557 43.986930 1.026325 2.288297 0.074144 -0.005434 18891.600000 0 0 1
-16.065134 -27.853128 -29.652977 43.739963 1.047625 2.315750 0.046164 -0.000717 -86549.700000 0 0 1
-16.066134 -28.130418 -31.175577 44.959512 1.051875 2.337013 0.061596 -0.000210 -8297.870000 0 0 1
-16.155834 -29.484178 -31.439567 46.030144 1.069529 2.322687 0.043028 -0.002863 151443.000000 0 0 1
-16.618634 -29.721398 -32.734547 47.234427 1.060958 2.336470 0.049980 0.000965 -163169.000000 0 0 1
-16.634234 -31.178738 -33.263337 48.531032 1.080700 2.325954 0.049546 -0.001593 -383631.000000 0 0 1
-15.409334 -31.596198 -33.769607 48.745807 1.117040 2.336119 0.050309 -0.004649 -635010.000000 0 0 1
-15.592634 -32.735958 33.801671 49.571424 1.126275 0.820469 0.052722 -0.004985 109464.000000 0 0 1
-14.272334 -33.178368 33.162758 49.033378 1.164555 0.828027 0.043425 -0.008217 8332.120000 0 0 1
-13.408934 -33.985048 33.916249 49.850726 1.194994 0.822548 0.041117 -0.007908 175794.000000 0 0 1
-12.391234 33.742541 33.139102 48.890712 -1.218856 0.826003 0.044964 -0.004553 473958.000000 0 0 1
-11.411234 32.886899 34.009070 48.666016 -1.236811 0.797042 0.033396 -0.000920 214434.000000 0 0 1
-10.670534 33.756242 -33.519207 48.753271 -1.264630 2.328875 0.031466 -0.002346 -299914.000000 0 0 1
-9.882934 33.032709 -32.629827 47.471442 -1.280086 2.328640 0.031393 -0.005810 -80939.400000 0 0 1
-9.141134 33.995074 -31.656477 47.342982 -1.308114 2.303205 0.014821 -0.007022 455060.000000 0 0 1
-10.030434 -33.867028 -30.670737 46.779048 1.282856 2.285841 0.025996 -0.013860 242762.000000 0 0 1
-9.280834 -33.025698 -29.816037 45.451366 1.296843 2.286301 0.028341 -0.013485 356100.000000 0 0 1
-10.175534 -32.030778 -28.982707 44.379157 1.263199 2.282428 0.038944 -0.007459 665032.000000 0 0 1
-10.585634 -32.344918 -27.646927 43.847485 1.254510 2.253026 0.076398 -0.013005 336125.000000 0 0 1
-11.226234 -33.619388 -27.413767 44.808551 1.248517 2.229128 0.074819 -0.015971 7139.650000 0 0 1
-11.318934 -33.724048 -25.889207 43.996372 1.246977 2.199924 0.090451 -0.017691 510371.000000 0 0 1
-10.073534 -34.025898 -25.261547 43.558967 1.282963 2.189450 0.096281 -0.027324 177131.000000 0 0 1
-10.292834 -34.117181 -23.880927 42.897823 1.277789 2.161196 0.103255 -0.039580 524251.000000 0 0 1
-9.019934 -34.109944 -22.963527 42.097163 1.312277 2.147768 0.112582 -0.041346 530396.000000 0 0 1
-8.471434 32.941041 -22.899227 41.003073 -1.319081 2.163344 0.093033 -0.035272 -50222.400000 0 0 1
-7.602034 32.920690 -21.766327 40.191239 -1.343855 2.143099 0.103247 -0.031160 -255927.000000 0 0 1
-6.683934 31.717449 -21.576127 38.938423 -1.363102 2.158088 0.092811 -0.034414 -887924.000000 0 0 1
-5.564034 31.840279 -22.384127 39.316803 -1.397795 2.176484 0.060886 -0.040337 -354531.000000 0 0 1
-4.643434 30.774499 -22.160627 38.206343 -1.421040 2.189555 0.044833 -0.024390 357874.000000 0 0 1
-3.275934 30.945349 -22.879427 38.624015 -1.465327 2.204785 0.051025 -0.035919 102656.000000 0 0 1
-3.354834 31.029319 -24.254327 39.526522 -1.463096 2.231435 0.058213 -0.032741 1148810.000000 0 0 1
-2.222934 31.808319 -24.777727 40.381262 -1.501024 2.231401 0.037690 -0.034444 1064480.000000 0 0 1
-2.352734 31.875649 -26.296897 41.389843 -1.497120 2.259254 0.053031 -0.019487 -378693.000000 0 0 1
-1.513534 32.769813 -26.992127 42.482071 -1.524642 2.259293 0.058320 -0.026751 -467701.000000 0 0 1
-1.818434 34.140191 -26.925687 43.518409 -1.517583 2.237908 0.049645 -0.017192 -423204.000000 0 0 1
-0.640034 -33.270928 -27.180457 42.966750 1.551562 2.255693 0.009998 -0.007177 -306259.000000 0 0 1
0.251466 -33.199618 -26.088057 42.223982 -1.563222 2.236801 0.037088 -0.009039 424244.000000 0 0 1
1.287166 -32.255958 -26.464997 41.743260 -1.530913 2.257504 0.021524 -0.001558 556713.000000 0 0 1
2.386966 -31.931108 -25.419667 40.883405 -1.496181 2.241784 0.024654 -0.003094 -189571.000000 0 0 1
2.030666 -31.274748 -24.253727 39.629242 -1.505957 2.229404 0.016298 -0.003718 125380.000000 0 0 1
3.173166 -30.633548 -23.707827 38.865722 -1.467580 2.226848 0.010934 -0.002830 -14139.800000 0 0 1
3.085366 -30.121538 -22.234527 37.565952 -1.468722 2.204185 0.023159 -0.014141 -250922.000000 0 0 1
3.392166 -31.015618 -21.128827 37.681597 -1.461860 2.166052 0.028949 -0.011336 500647.000000 0 0 1
3.505566 -30.224898 -19.929927 36.373555 -1.455329 2.150676 0.039761 -0.019063 -731512.000000 0 0 1
3.477766 -30.954418 -18.556627 36.257679 -1.458914 2.108073 0.035971 -0.011514 -174192.000000 0 0 1
2.221766 -31.505538 -18.183827 36.444297 -1.500393 2.093181 0.040288 -0.017233 287063.000000 0 0 1
1.882366 -32.785968 -18.652127 37.767246 -1.513446 2.087332 0.044033 -0.005264 -264119.000000 0 0 1
2.668566 -34.007058 -18.034427 38.585513 -1.492486 2.057131 0.034883 -0.022627 1259060.000000 0 0 1
3.973766 34.141745 -18.631127 39.096911 1.454927 2.067508 0.040101 -0.022345 757479.000000 0 0 1
4.716866 33.256637 -17.840727 38.033463 1.429904 2.059045 0.043974 -0.039247 27927.000000 0 0 1
5.845966 32.544014 -18.605327 37.940036 1.393059 2.083331 0.047709 -0.031844 48877.600000 0 0 1
6.988766 33.319885 -18.851627 38.915825 1.364046 2.076497 0.076302 -0.032276 -7048.100000 0 0 1
8.028866 32.562127 -19.483427 38.786064 1.329048 2.097088 0.044342 -0.029254 200006.000000 0 0 1
9.398466 33.245000 -19.498327 39.670467 1.295283 2.084616 0.024251 -0.034066 -370334.000000 0 0 1
10.017466 33.253778 -18.254327 39.234982 1.278200 2.054721 0.026484 -0.028692 -770196.000000 0 0 1
11.280866 33.836790 -18.307127 40.091610 1.248994 2.045003 0.033655 -0.016822 -316443.000000 0 0 1
12.006966 33.683085 -16.928327 39.563692 1.228370 2.012937 0.021391 -0.010142 300274.000000 0 0 1
12.834766 32.487021 -16.857927 38.785660 1.194544 2.020438 0.016894 -0.019538 72071.400000 0 0 1
13.543066 32.566839 -15.673127 38.596121 1.176697 1.988957 0.016253 -0.023736 -667338.000000 0 0 1
14.715066 31.634149 -15.498927 38.176816 1.135404 1.988844 0.025031 -0.017925 -299206.000000 0 0 1
14.418566 30.429259 -14.889927 36.817724 1.128296 1.987144 0.051759 -0.023579 -46519.500000 0 0 1
15.610766 29.676689 -14.730727 36.625076 1.086544 1.984718 0.042194 -0.011815 20996.900000 0 0 1
15.380766 28.409029 -13.851227 35.149643 1.074577 1.975846 0.061039 -0.024609 -328583.000000 0 0 1
15.215966 28.736039 -12.425727 34.809255 1.083822 1.935814 0.061441 -0.032771 616256.000000 0 0 1
13.853166 28.833069 -11.980827 34.158400 1.122902 1.929161 0.082877 -0.036511 741649.000000 0 0 1
13.111366 27.528199 -11.693827 32.656626 1.126297 1.937012 0.079810 -0.036795 -1230140.000000 0 0 1
12.652266 26.748699 -12.772027 32.228829 1.128977 1.978271 0.063869 -0.033089 48205.700000 0 0 1
12.094666 25.503369 -12.430827 30.841988 1.127970 1.985642 0.085376 -0.033321 132057.000000 0 0 1
10.974966 25.509459 -11.376727 30.010203 1.164503 1.959615 0.079473 -0.027624 -454261.000000 0 0 1
9.792466 26.288259 -11.614527 30.362183 1.214216 1.963332 0.068368 -0.030447 568450.000000 0 0 1
9.082166 26.429709 -10.421927 29.826696 1.239803 1.927744 0.045768 -0.017395 -389337.000000 0 0 1
8.072666 27.579479 -10.437827 30.573580 1.286045 1.919203 0.056312 -0.017052 -374594.000000 0 0 1
8.612566 28.877569 -10.498127 31.910828 1.280951 1.906023 0.061418 -0.022403 -347843.000000 0 0 1
7.669766 29.939199 -10.475127 32.632947 1.320012 1.897580 0.049530 -0.017018 -145855.000000 0 0 1
8.236666 31.313139 -10.804227 34.133366 1.313581 1.892865 0.073476 -0.030883 -546375.000000 0 0 1
9.070066 31.781219 -9.776927 34.465929 1.292796 1.858415 0.068379 -0.028998 -90548.200000 0 0 1
9.788766 32.983067 -10.099527 35.856702 1.282295 1.856324 0.074981 -0.029822 906335.000000 0 0 1
10.924166 32.954541 -11.183327 36.474731 1.250704 1.882420 0.075752 -0.031680 326497.000000 0 0 1
12.247066 32.688221 -10.757427 36.527149 1.212321 1.869734 0.062868 -0.022450 212889.000000 0 0 1
13.212966 33.023778 -11.744927 37.457919 1.190200 1.889726 0.075994 -0.021930 26157.200000 0 0 1
14.674166 32.822991 -11.353027 37.703728 1.150382 1.876654 0.065059 -0.025856 -249767.000000 0 0 1
15.016266 33.524933 -10.160227 38.113509 1.149679 1.840637 0.072418 -0.014088 419621.000000 0 0 1
16.432866 33.697594 -10.173527 38.846719 1.117072 1.835775 0.047534 -0.015549 704996.000000 0 0 1
16.971366 -33.597538 -9.140727 38.734671 -1.103047 1.809026 0.057863 -0.014576 123402.000000 0 0 1
16.736566 -33.985068 -7.815427 38.680466 -1.113192 1.774248 0.060003 -0.021572 139795.000000 0 0 1
17.288966 -33.106148 -6.868427 37.975001 -1.089525 1.752664 0.058521 -0.019097 -1182930.000000 0 0 1
17.720766 -33.795168 -5.591427 38.566864 -1.087853 1.716289 0.071447 -0.016089 684694.000000 0 0 1
18.725566 33.534884 -5.667227 38.824641 1.061534 1.717290 0.064426 -0.025378 286182.000000 0 0 1
19.989366 34.014548 -6.070327 39.917579 1.039492 1.723460 0.068779 -0.021214 -1152420.000000 0 0 1
20.813666 32.952333 -6.792127 39.562582 1.007444 1.743332 0.052957 -0.017752 -70015.000000 0 0 1
21.055266 31.722579 -6.098127 38.559479 0.984829 1.729612 0.053614 -0.008478 -95613.400000 0 0 1
22.245966 31.767769 -5.327827 39.146646 0.959890 1.707319 0.048085 -0.001696 -31952.100000 0 0 1
22.703466 30.366599 -4.769227 38.214176 0.928803 1.695925 0.024020 0.004322 -447039.000000 0 0 1
23.382266 29.552599 -5.618627 38.100596 0.901439 1.718804 0.009580 0.004864 -406877.000000 0 0 1
23.752066 28.327949 -4.981527 37.302131 0.873036 1.704742 0.007933 0.015741 -457758.000000 0 0 1
24.538766 27.504529 -5.940127 37.335442 0.842323 1.730577 0.005859 0.015365 -985601.000000 0 0 1
25.763766 28.081879 -6.321727 38.630659 0.828423 1.735181 0.022006 0.010135 61068.400000 0 0 1
26.737066 27.141529 -6.759727 38.694020 0.792905 1.746394 0.011562 0.012209 270659.000000 0 0 1
27.443666 26.260719 -5.718327 38.411970 0.763375 1.720220 0.018401 0.014178 -1154800.000000 0 0 1
28.328966 27.001069 -4.951627 39.447518 0.761403 1.696653 0.024188 0.008103 -347960.000000 0 0 1
28.962966 26.193769 -3.994227 39.254564 0.735234 1.672725 0.041311 0.007877 82677.200000 0 0 1
30.378466 26.537759 -3.484727 40.487618 0.718020 1.656972 0.053052 0.001028 131620.000000 0 0 1
30.404666 27.597649 -2.575927 41.142549 0.737041 1.633447 0.064926 -0.006825 -194300.000000 0 0 1
31.707066 27.666599 -2.052927 42.130669 0.717451 1.619543 0.100594 -0.024832 -193988.000000 0 0 1
31.787866 28.744959 -0.955227 42.867862 0.735172 1.593081 0.087421 -0.016601 93280.300000 0 0 1
31.861366 30.069789 -1.400627 43.832643 0.756478 1.602756 0.050271 0.000588 -275864.000000 0 0 1
30.609766 30.647919 -1.674627 43.348092 0.786021 1.609438 0.069509 -0.011550 -341125.000000 0 0 1
33.124328 22.789902 19.552673 44.709146 0.602634 1.118168 0.104818 -0.046752 97640.600000 0 0 1
33.636148 22.429902 20.811773 45.471099 0.588122 1.095398 0.085934 -0.051580 408148.000000 0 0 1
34.584008 23.391202 21.279673 46.861779 0.594683 1.099441 0.088845 -0.037910 102382.000000 0 0 1
34.452648 23.631002 22.814873 47.601760 0.601199 1.070955 0.058313 -0.024207 163516.000000 0 0 1
33.273318 24.363502 23.102973 47.269877 0.632027 1.060144 0.031680 -0.014954 277285.000000 0 0 1
33.051938 24.489602 24.501713 47.880112 0.637679 1.033599 0.014983 -0.012902 215117.000000 0 0 1
31.649368 25.043802 24.891013 47.417686 0.669407 1.018162 0.021949 -0.020645 307113.000000 0 0 1
31.620598 26.481102 24.729123 48.089920 0.697171 1.030691 0.020199 -0.022161 1198470.000000 0 0 1
30.411168 27.018502 25.316913 47.914347 0.726392 1.014107 0.025251 -0.026331 772229.000000 0 0 1
30.436148 28.526802 25.312613 48.794117 0.753027 1.025392 0.019806 -0.019191 -146113.000000 0 0 1
30.462418 29.138602 24.043233 48.529311 0.763191 1.052458 0.035615 -0.034006 246059.000000 0 0 1
30.197688 30.512302 24.196573 49.278545 0.790580 1.057540 0.049644 -0.031824 -449781.000000 0 0 1
30.533468 31.305502 22.988473 49.404422 0.797882 1.086809 0.054758 -0.029028 -317153.000000 0 0 1
31.929658 31.263802 22.849673 50.189998 0.774862 1.098128 0.025667 -0.024703 -419329.000000 0 0 1
32.370048 32.044402 21.716273 50.460481 0.780343 1.125903 0.027377 -0.023559 -354538.000000 0 0 1
33.845508 32.400902 21.651373 51.615102 0.763595 1.137927 0.003296 -0.036345 -427040.000000 0 0 1
34.195968 33.459702 22.550773 52.890956 0.774516 1.130328 0.019554 -0.016444 -399256.000000 0 0 1
35.577428 33.670902 22.516473 53.911729 0.757873 1.139934 0.010406 -0.016087 -302369.000000 0 0 1
36.015648 -33.437615 23.270673 54.375778 -0.748296 1.128562 0.004173 -0.005153 -318834.000000 0 0 1
35.362708 -32.300815 22.708273 53.004994 -0.740177 1.128056 0.000576 -0.005858 483065.000000 0 0 1
35.634478 -31.177515 23.571553 52.891129 -0.718788 1.108883 0.013496 -0.006265 -1163080.000000 0 0 1
34.610588 -30.073215 23.422403 51.486892 -0.715366 1.098514 0.011845 -0.011175 -706227.000000 0 0 1
33.335538 -30.435915 23.876453 51.065527 -0.739960 1.084262 0.019512 -0.009671 -183515.000000 0 0 1
32.455858 -30.624415 22.760673 50.092771 -0.756373 1.099131 0.036139 -0.008272 -157848.000000 0 0 1
31.730698 -32.011515 22.856173 50.536906 -0.789804 1.101491 0.034155 -0.009956 -257.168000 0 0 1
30.811998 -32.103315 23.917273 50.517700 -0.805920 1.077600 0.057023 -0.017526 -20903.700000 0 0 1
30.241318 -33.385415 24.011153 51.045653 -0.834773 1.081068 0.054697 -0.021046 -88600.300000 0 0 1
29.510718 -33.576815 25.333703 51.381723 -0.849761 1.055206 0.050745 -0.017927 117376.000000 0 0 1
28.909398 33.483902 25.393763 51.007530 0.858584 1.049686 0.063597 -0.028617 334414.000000 0 0 1
28.132518 33.293702 26.580113 51.053026 0.869224 1.023199 0.064734 -0.017918 -630882.000000 0 0 1
27.565888 31.834502 26.632253 49.825601 0.857137 1.006869 0.063009 -0.016914 744540.000000 0 0 1
26.686288 31.478302 25.530923 48.526997 0.867600 1.016767 0.072130 -0.024973 10720.700000 0 0 1
25.449388 32.135202 25.573313 48.314975 0.900985 1.013016 0.062906 -0.026494 -1385280.000000 0 0 1
24.802188 32.019602 24.193783 47.177776 0.911740 1.032328 0.115711 -0.031448 -464150.000000 0 0 1
25.298988 32.698902 23.069273 47.343936 0.912302 1.061836 0.136271 -0.042768 -256650.000000 0 0 1
26.531888 32.166302 22.645373 47.449183 0.881095 1.073268 0.108318 -0.034484 -313355.000000 0 0 1
26.997688 33.044502 21.473173 47.769356 0.885769 1.104571 0.128014 -0.035047 146751.000000 0 0 1
28.370668 33.081302 21.116973 48.427201 0.861904 1.119585 0.118247 -0.036267 210166.000000 0 0 1
28.443468 33.840502 19.938473 48.494877 0.871834 1.147085 0.102590 -0.031858 371992.000000 0 0 1
29.868548 -34.101115 19.475273 49.338651 -0.851467 1.165026 0.098875 -0.037218 589732.000000 0 0 1
30.636828 33.145602 18.999573 48.971725 0.824711 1.172368 0.092248 -0.040937 -307418.000000 0 0 1
31.726798 33.622002 18.268473 49.706798 0.814391 1.194450 0.078949 -0.029523 -392320.000000 0 0 1
32.559168 32.464402 17.644273 49.247915 0.783941 1.204377 0.055761 -0.026622 -120255.000000 0 0 1
33.446708 31.812602 18.498073 49.728287 0.760363 1.189652 0.025269 -0.027872 -165475.000000 0 0 1
34.161118 30.749602 17.881973 49.318201 0.732889 1.199758 0.027894 -0.031298 246927.000000 0 0 1
35.066068 30.056102 18.926173 49.911906 0.708618 1.181874 0.028231 -0.039234 -313892.000000 0 0 1
36.105658 30.850002 19.401973 51.300854 0.707064 1.182945 0.040437 -0.034397 -154297.000000 0 0 1
-35.881752 30.170402 20.297373 51.085581 -0.699145 1.162201 0.051015 -0.028390 285653.000000 0 0 1
-34.704190 31.043402 20.759973 50.980879 -0.729776 1.151398 0.045640 -0.022472 288646.000000 0 0 1
-33.877364 31.548202 19.679973 50.301751 -0.749813 1.168820 0.047448 -0.021616 770722.000000 0 0 1
-32.839374 32.485402 20.058673 50.359469 -0.779980 1.161123 0.047300 -0.006538 636426.000000 0 0 1
-33.210634 33.863002 20.724873 51.760694 -0.795124 1.158845 0.018989 0.002201 -418231.000000 0 0 1
-33.521724 33.662202 22.098073 52.394414 -0.787489 1.135406 0.018479 0.002602 211865.000000 0 0 1
-33.156504 -33.539915 22.825673 52.395524 0.791147 1.120045 0.013684 0.004165 -166498.000000 0 0 1
-33.008494 -33.719215 24.381933 53.113320 0.796049 1.093865 0.019709 -0.006077 -546833.000000 0 0 1
-34.195586 -34.168215 24.977533 54.412151 0.784998 1.093878 0.015699 -0.006817 -313356.000000 0 0 1
-34.080522 34.106102 26.389623 54.964719 -0.785773 1.070006 0.028749 -0.000803 999901.000000 0 0 1
-35.520285 33.869702 26.981553 56.007602 -0.761616 1.068148 0.018199 -0.012723 802777.000000 0 0 1
-35.482386 32.901602 28.055283 55.934014 -0.747676 1.045374 0.040117 -0.024391 784833.000000 0 0 1
36.112418 32.802002 28.765293 56.634972 0.737398 1.038043 0.045342 -0.029760 1020480.000000 0 0 1
36.167478 31.796802 29.916783 56.693359 0.721178 1.014912 0.049706 -0.024550 -293570.000000 0 0 1
35.966548 30.443202 29.636173 55.665823 0.702418 1.009370 0.037208 -0.022047 449441.000000 0 0 1
-35.814320 29.751802 29.026203 54.866708 -0.693196 1.013338 0.040546 -0.018911 -301911.000000 0 0 1
-36.301184 28.353702 28.596663 54.216948 -0.663090 1.015201 0.048805 -0.016436 -337554.000000 0 0 1
35.672828 28.317302 27.493073 53.200463 0.670953 1.027708 0.027006 -0.010631 301147.000000 0 0 1
35.509768 27.083602 26.793073 52.080071 0.651585 1.030419 0.030347 -0.015885 73503.300000 0 0 1
34.853898 25.879902 27.608623 51.447056 0.638700 1.004344 0.013121 -0.015103 -254362.000000 0 0 1
35.773468 25.271402 28.493193 52.251763 0.615027 0.994042 0.026793 -0.011512 -42422.600000 0 0 1
35.456638 23.970502 28.883473 51.633449 0.594471 0.977141 0.035084 -0.012838 -275518.000000 0 0 1
35.836048 22.899202 27.911083 50.868696 0.568603 0.990001 0.001846 -0.002310 -703639.000000 0 0 1
35.025188 22.906502 26.791903 49.691827 0.579183 1.001356 0.010411 -0.007667 -224779.000000 0 0 1
35.400508 21.933602 25.864023 49.022714 0.554695 1.015032 0.019361 -0.020306 -516049.000000 0 0 1
35.126038 20.442502 26.147263 48.326119 0.527061 0.999101 0.007976 -0.014536 384578.000000 0 0 1
33.722538 20.137002 26.208973 47.218838 0.538312 0.982369 0.012647 -0.005098 971294.000000 0 0 1
33.465428 18.925502 26.911533 46.929096 0.514684 0.960084 0.020352 -0.000285 -687253.000000 0 0 1
33.562228 18.978602 28.445493 47.914053 0.514647 0.935175 -0.000293 0.004467 -285645.000000 0 0 1
32.558108 19.743202 29.085143 47.914193 0.545111 0.918484 0.003809 0.001113 314869.000000 0 0 1
32.758078 21.147302 28.965773 48.572791 0.573248 0.931866 -0.001482 0.001239 -786346.000000 0 0 1
31.686888 22.024702 29.623053 48.648449 0.607412 0.916097 0.014468 -0.010622 838152.000000 0 0 1
30.297198 21.916302 29.221033 47.456435 0.626244 0.907466 0.031681 -0.022308 1367780.000000 0 0 1
29.916518 22.555802 28.027933 46.790247 0.646029 0.928529 0.036314 -0.019900 -240028.000000 0 0 1
29.870788 24.051702 28.174593 47.587351 0.677898 0.937183 0.045428 -0.012989 819808.000000 0 0 1
31.189208 24.665902 28.368193 48.845959 0.669135 0.951124 0.033691 -0.020184 1289880.000000 0 0 1
31.180768 25.946402 29.031923 49.882949 0.694027 0.949609 0.031170 -0.012911 -88505.700000 0 0 1
31.516778 25.755802 30.553623 50.893933 0.685147 0.926871 0.024337 -0.013896 497520.000000 0 0 1
32.823258 25.216602 30.776063 51.579155 0.655082 0.931443 -0.014860 0.001655 399354.000000 0 0 1
33.238658 25.032902 32.153123 52.585909 0.645499 0.912917 0.009594 0.000389 -157796.000000 0 0 1
32.508748 23.988702 33.012845 52.173982 0.635722 0.885703 0.013557 0.000593 -302347.000000 0 0 1
32.871918 23.991302 -33.995497 53.026780 0.630475 2.266728 0.026853 -0.014163 65127.700000 0 0 1
32.375408 22.896802 -33.286087 51.772523 0.615561 2.269113 0.035144 -0.020460 -528352.000000 0 0 1
33.002338 22.608902 -31.932727 51.186090 0.600635 2.244463 0.034531 -0.025748 -842819.000000 0 0 1
32.513378 23.359002 -30.908487 50.577636 0.622997 2.228258 0.027953 -0.026234 -50138.900000 0 0 1
33.004868 23.119702 -29.576017 49.985825 0.611057 2.203948 0.073698 -0.036927 861527.000000 0 0 1
34.464368 23.549702 -29.141067 50.907592 0.599434 2.180264 0.068058 -0.010954 811305.000000 0 0 1
34.932968 22.822802 -28.066707 50.288494 0.578714 2.162907 0.068768 -0.020801 -374604.000000 0 0 1
36.027968 23.386102 -27.396327 50.945883 0.575749 2.138567 0.083240 -0.017328 -374280.000000 0 0 1
-36.157874 22.500202 -26.384967 50.098078 -0.556639 2.125470 0.063917 -0.017448 -886408.000000 0 0 1
-35.242157 21.673502 -26.995337 49.401402 -0.551367 2.148914 0.042255 -0.013054 -464609.000000 0 0 1
-35.260111 20.439102 -26.321187 48.516360 -0.525334 2.144233 0.016984 -0.004740 -681928.000000 0 0 1
-34.108981 19.492602 -26.684397 47.491485 -0.519185 2.167450 0.018280 0.009983 -1142840.000000 0 0 1
-33.006474 19.998902 -26.005397 46.536696 -0.544753 2.163752 0.029286 0.007768 -1323130.000000 0 0 1
-32.001044 19.021602 -26.192787 45.518680 -0.536296 2.183925 -0.016378 0.013993 -196377.000000 0 0 1
-30.767094 19.329102 -25.323107 44.288689 -0.560925 2.179463 -0.022680 0.020950 -520959.000000 0 0 1
-31.049734 19.308102 -23.945527 43.706716 -0.556327 2.150610 -0.019129 0.018298 -78352.100000 0 0 1
-29.873964 19.438202 -23.180227 42.516118 -0.576849 2.147436 -0.022023 0.027293 -137693.000000 0 0 1
-30.079894 19.926002 -21.732127 42.120433 -0.585068 2.112915 -0.030381 0.016067 69072.200000 0 0 1
-30.741384 18.909402 -20.959827 41.736225 -0.551457 2.096934 -0.024514 0.013206 215549.000000 0 0 1
-31.291974 19.509502 -19.813827 41.861629 -0.557496 2.063849 -0.015375 0.018079 -1547040.000000 0 0 1
-32.195694 18.571602 -19.007627 41.746341 -0.523212 2.043519 -0.007320 0.004228 497946.000000 0 0 1
-33.143044 19.102302 -18.064227 42.304557 -0.522855 2.011974 0.004245 -0.004024 504010.000000 0 0 1
-34.009064 20.092102 -18.587627 43.655571 -0.533617 2.010619 0.000978 -0.002442 -2171770.000000 0 0 1
-35.180670 20.343602 -17.705727 44.328709 -0.524281 1.981679 0.021285 -0.014631 -1366670.000000 0 0 1
-34.946184 20.799002 -16.403327 43.850922 -0.536862 1.954190 0.021380 -0.015469 -556879.000000 0 0 1
-36.093434 20.596902 -15.648227 44.405352 -0.518563 1.930925 0.034084 -0.006944 -916078.000000 0 0 1
-36.037284 21.349502 -14.330927 44.270334 -0.534833 1.900449 0.039479 -0.004086 -50983.900000 0 0 1
-36.107654 22.775002 -14.361527 45.041279 -0.562725 1.895315 0.043936 -0.009750 1939520.000000 0 0 1
35.368598 23.154602 -14.661627 44.744124 0.579648 1.904640 0.057972 0.000080 1603030.000000 0 0 1
35.036308 24.686802 -14.764827 45.331900 0.613811 1.902554 0.050657 -0.003753 -143196.000000 0 0 1
35.354808 25.407602 -13.621827 45.618668 0.623131 1.874024 0.053493 0.000343 61640.200000 0 0 1
35.203928 26.792102 -13.823327 46.348869 0.650538 1.873650 0.041769 0.010592 266724.000000 0 0 1
36.406878 27.527302 -14.510627 47.893333 0.647395 1.878612 0.052685 0.011592 149466.000000 0 0 1
-36.128034 27.123602 -15.808927 47.862791 -0.643989 1.907414 0.048559 0.014494 345090.000000 0 0 1
-35.001869 27.878502 -16.255627 47.608688 -0.672595 1.919247 0.066574 0.001425 -380440.000000 0 0 1
-34.780882 27.617202 -17.778427 47.838186 -0.671093 1.951568 0.057448 0.000532 -99301.200000 0 0 1
-34.339937 26.321702 -18.165427 46.925963 -0.653980 1.968290 0.056039 -0.005250 1089160.000000 0 0 1
-33.030164 25.898502 -17.726227 45.562520 -0.664962 1.970400 0.051986 -0.002338 591291.000000 0 0 1
-32.579154 24.648102 -18.461027 44.830120 -0.647687 1.995224 0.042196 -0.001400 -398964.000000 0 0 1
-32.430364 24.869002 -19.815727 45.418705 -0.654194 2.022268 0.027403 0.006729 206729.000000 0 0 1
-31.800284 23.686402 -20.293127 44.543402 -0.640196 2.043821 0.008714 0.010775 -316447.000000 0 0 1
-31.375604 23.809402 -21.795727 45.015218 -0.649142 2.076229 0.007313 0.019525 369579.000000 0 0 1
-32.509294 23.889502 -22.654427 46.268624 -0.633735 2.082460 0.025214 0.011723 381301.000000 0 0 1
-32.160594 23.413702 -23.950227 46.434024 -0.629288 2.112726 0.019189 0.015081 321475.000000 0 0 1
-32.976374 24.023402 -25.159807 47.933088 -0.629601 2.123387 0.007253 0.020713 219846.000000 0 0 1
-32.765484 25.385002 -25.264227 48.541286 -0.659153 2.118196 0.006458 0.026277 247444.000000 0 0 1
-33.567374 25.904502 -26.354037 49.923412 -0.657256 2.126910 0.023314 0.016053 555769.000000 0 0 1
-33.182614 27.427402 -26.621607 50.616778 -0.690727 2.124621 0.017694 0.013721 937265.000000 0 0 1
-31.923974 27.498002 -27.307387 50.209298 -0.711052 2.145840 0.010534 0.015578 181332.000000 0 0 1
-31.591804 28.837002 -27.631437 50.922599 -0.739842 2.144345 0.025609 0.001475 883823.000000 0 0 1
-30.192034 28.840702 -28.333157 50.459021 -0.762511 2.167004 0.028924 -0.007195 1253410.000000 0 0 1
-29.068094 28.451702 -27.523257 49.111944 -0.774682 2.165688 0.014377 -0.008674 -21888.000000 0 0 1
-27.864554 28.447402 -28.226107 48.809847 -0.795748 2.187424 0.029573 -0.016144 41485.000000 0 0 1
-26.850704 29.552302 -27.833927 48.672645 -0.833260 2.179567 0.040530 -0.032185 -292853.000000 0 0 1
-26.350434 29.574502 -26.533547 47.676259 -0.842984 2.161007 0.033086 -0.032034 -541545.000000 0 0 1
-27.232974 29.978902 -25.517247 47.869607 -0.833357 2.133006 0.023349 -0.015852 -433946.000000 0 0 1
-26.572964 30.450002 -24.193327 47.102464 -0.853285 2.110209 -0.008754 -0.011729 256753.000000 0 0 1
-25.754904 31.625702 -24.336527 47.494912 -0.887357 2.108777 -0.015937 -0.001809 336353.000000 0 0 1
-25.581704 32.291902 -23.112027 47.237234 -0.900828 2.082055 0.017576 -0.000507 -231004.000000 0 0 1
-24.926634 33.690802 -23.166127 47.886080 -0.933813 2.075760 0.004018 0.012256 -277962.000000 0 0 1
-25.706504 -33.598015 -23.685827 48.483702 0.917689 2.081203 -0.018188 0.003695 44781.300000 0 0 1
-25.024934 -32.345715 -23.851127 47.343097 0.912317 2.098781 0.003931 -0.005244 23149.100000 0 0 1
16.425766 8.388402 -25.510347 31.479341 0.472159 2.515603 0.035495 -0.021365 -265545.000000 0 0 1
15.136266 7.850402 -25.396847 30.589790 0.478455 2.550333 0.032235 -0.020754 -236049.000000 0 0 1
15.244366 6.447402 -25.568987 30.458707 0.400122 2.567092 0.033438 -0.022010 -615230.000000 0 0 1
13.921366 5.796102 -25.286707 29.441753 0.394518 2.603860 0.035210 -0.022867 -745256.000000 0 0 1
13.349366 5.842802 -23.994827 28.073042 0.412565 2.595824 0.068691 -0.046189 493758.000000 0 0 1
12.053266 5.234702 -24.111127 27.459603 0.409719 2.642585 0.073943 -0.043886 16912.600000 0 0 1
11.333066 5.500802 -22.781427 26.032492 0.451880 2.636470 0.078700 -0.043764 -543056.000000 0 0 1
11.746666 4.711902 -21.684927 25.108211 0.381477 2.613280 0.075215 -0.033238 183029.000000 0 0 1
11.157466 4.989602 -20.404627 23.785164 0.420522 2.601911 0.079390 -0.026100 -261572.000000 0 1 0
11.503966 6.405402 -19.826827 23.800704 0.508048 2.555368 0.064514 -0.027514 -52349.900000 0 1 0
11.116666 6.485902 -18.484727 22.524039 0.528154 2.533373 0.057966 -0.015331 -273912.000000 0 1 0
11.342066 7.796102 -18.044627 22.694278 0.602193 2.489998 0.048071 -0.015643 297121.000000 0 1 0
12.762366 8.283002 -17.641927 23.296431 0.575684 2.429935 0.028737 -0.011658 260745.000000 0 1 0
13.327866 7.690102 -16.474527 22.542842 0.523332 2.390304 0.041155 -0.014327 -82497.400000 0 1 0
14.661866 8.063902 -16.330227 23.381043 0.502837 2.344010 0.031496 -0.008234 -620257.000000 0 1 0
15.221366 7.742402 -14.937227 22.688225 0.470546 2.289446 0.047413 -0.016185 209073.000000 0 1 0
16.600866 8.071102 -14.782727 23.648689 0.452535 2.246052 0.042940 -0.022106 770821.000000 0 1 0
17.044266 8.021202 -13.449627 23.146040 0.439860 2.190848 0.042961 -0.023676 -83014.500000 0 1 0
17.492366 9.430402 -13.008327 23.751462 0.494448 2.150392 0.060795 -0.025175 423124.000000 0 1 0
16.417566 10.388002 -12.901627 23.321644 0.564144 2.157002 0.062708 -0.025874 1087450.000000 0 1 0
17.011166 11.644302 -12.612027 24.166770 0.600254 2.119844 0.095212 -0.040246 7998.400000 0 1 0
16.003866 12.802902 -12.616527 24.066882 0.674734 2.122604 0.105488 -0.028746 -290628.000000 0 1 0
14.951366 12.692702 -11.691427 22.832816 0.703874 2.108360 0.097413 -0.018702 135277.000000 0 1 0
15.090366 13.579402 -10.590227 22.896992 0.732745 2.051627 0.071450 -0.023811 -315356.000000 0 1 0
14.782766 15.085602 -10.766027 23.706811 0.795537 2.042194 0.076120 -0.021109 -985236.000000 0 1 0
13.417666 15.300102 -10.871927 23.072184 0.850854 2.061463 0.084402 -0.024687 -619991.000000 0 1 0
13.214166 16.681902 -10.850927 23.888128 0.900875 2.042315 0.091121 -0.019509 205292.000000 0 1 0
12.081266 17.191902 -9.931927 23.241378 0.958240 2.012343 0.087662 -0.019758 95763.100000 0 1 0
12.483366 17.055302 -8.570727 22.807348 0.938958 1.956043 0.077836 -0.017199 534978.000000 0 1 0
11.502766 17.543802 -7.672827 22.337656 0.990453 1.921430 0.062997 -0.005443 49143.400000 0 1 0
11.927566 17.297002 -6.240927 21.918081 0.967102 1.859530 0.050520 -0.011614 730584.000000 0 1 0
13.049166 18.062802 -5.772627 23.018879 0.945173 1.824280 0.070013 -0.009242 652171.000000 0 1 0
13.482666 17.702402 -4.476327 22.697904 0.919894 1.769311 0.067625 -0.019916 -253944.000000 0 1 0
14.524266 18.725202 -3.988427 24.031127 0.911078 1.737537 0.067975 -0.023763 -481416.000000 0 1 0
15.712266 18.612602 -4.752727 24.817185 0.869695 1.763496 0.080952 -0.032900 -241537.000000 0 1 0
16.507766 19.723202 -4.435527 26.099520 0.873915 1.741572 0.067933 -0.025423 -222002.000000 0 0 1
17.876066 19.663302 -5.179527 27.074466 0.832972 1.763290 0.069607 -0.020063 -97899.700000 0 0 1
18.725166 18.734302 -4.531627 26.872692 0.785642 1.740239 0.079413 -0.036853 -328499.000000 0 0 1
19.141266 17.788902 -5.487327 26.701009 0.748795 1.777781 0.087604 -0.039486 -650406.000000 0 0 1
20.216866 16.896302 -4.878927 26.795720 0.696164 1.753896 0.088293 -0.040575 -1187310.000000 0 0 1
21.414266 17.588002 -4.755427 28.116235 0.687607 1.740748 0.084759 -0.038885 -603665.000000 0 0 1
22.394966 16.643702 -4.328027 28.236132 0.639128 1.724683 0.090321 -0.039254 -155719.000000 0 0 1
23.815466 17.061902 -4.742827 29.677927 0.621662 1.731294 0.087580 -0.033968 -362995.000000 0 0 1
24.340366 18.079802 -3.969027 30.579173 0.638871 1.700959 0.094245 -0.033213 1539050.000000 0 0 1
25.796866 17.974702 -3.924827 31.685525 0.608561 1.694983 0.081268 -0.022317 1770170.000000 0 0 1
26.641666 19.125302 -3.322927 32.963577 0.622620 1.671774 0.101304 -0.025867 41352.900000 0 0 1
26.578166 20.248502 -4.174527 33.672354 0.651040 1.695091 0.096217 -0.026190 91518.400000 0 0 1
26.646866 21.424202 -3.411127 34.361136 0.677178 1.670233 0.099283 -0.009703 -230466.000000 0 0 1
26.660766 22.737902 -4.280327 35.300564 0.706152 1.692349 0.069150 -0.003458 797494.000000 0 0 1
27.790366 23.087402 -5.150027 36.494594 0.693224 1.712386 0.068259 0.001523 1062430.000000 0 0 1
28.007366 22.158902 -6.176327 36.243296 0.669340 1.742045 0.065375 -0.000893 4815.900000 0 0 1
29.057766 22.625402 -7.237727 37.531950 0.661577 1.764854 0.049702 0.005081 -127971.000000 0 0 1
28.660966 23.646502 -8.136127 38.036885 0.689825 1.786363 0.023465 0.009997 121232.000000 0 0 1
29.672266 24.572102 -8.542427 39.461432 0.691652 1.788999 0.008425 0.009998 -58888.200000 0 0 1
30.685366 23.965902 -9.538527 40.086652 0.663060 1.811049 0.021624 0.004313 -317433.000000 0 0 1
30.270166 23.682502 -10.861227 39.938830 0.663899 1.846212 0.027053 0.009727 -59066.900000 0 0 1
31.410366 23.386802 -11.636127 40.852822 0.640008 1.859626 0.033503 0.004507 109744.000000 0 0 1
31.120466 22.523102 -12.882027 40.518146 0.626481 1.894344 0.021721 0.002845 -150695.000000 0 0 1
30.613466 23.204502 -13.965027 40.873649 0.648591 1.919482 0.046347 0.011658 -19046.500000 0 0 1
30.260766 22.333402 -15.008027 40.493650 0.635797 1.950480 0.058285 0.006630 -80241.500000 0 0 1
30.422466 23.012702 -16.434527 41.535582 0.647609 1.977597 0.059483 0.002833 808300.000000 0 0 1
31.708766 23.591102 -16.748627 42.924381 0.639646 1.971633 0.059574 0.010768 882216.000000 0 0 1
31.636766 24.259902 -18.005427 43.744980 0.654183 1.995005 0.069333 0.003429 -702977.000000 0 0 1
32.963166 24.895002 -18.329127 45.191685 0.646844 1.988416 0.051384 0.001603 -732426.000000 0 0 1
33.967566 23.929902 -18.605727 45.525914 0.613735 1.991808 0.053657 0.005200 1199170.000000 0 0 1
35.229566 24.679402 -18.731027 46.915313 0.611082 1.981497 0.048037 -0.004650 1166230.000000 0 0 1
-36.366655 23.844902 -18.956227 47.438924 -0.580358 1.981868 0.049001 -0.014774 -288184.000000 0 0 1
36.405366 22.999902 -20.059627 47.505103 0.563454 2.006736 0.040634 -0.003985 -266115.000000 0 0 1
-35.300455 23.134002 -20.816127 47.059699 -0.580124 2.028996 0.048394 -0.003191 -907258.000000 0 0 1
-35.240555 22.094902 -21.988627 47.048710 -0.560017 2.057097 0.059277 -0.011455 -71771.700000 0 0 1
-35.110955 20.754302 -21.598027 46.151869 -0.533854 2.057797 0.036846 -0.014847 429046.000000 0 0 1
-34.476055 19.985702 -22.644527 45.834499 -0.525358 2.087538 0.025889 -0.002614 371524.000000 0 0 1
-34.378255 18.456602 -22.356527 44.970267 -0.492706 2.091096 0.009323 0.007476 -387284.000000 0 0 1
-35.618655 17.851702 -22.416027 45.714878 -0.464599 2.083281 0.032749 -0.015569 -460439.000000 0 0 1
-35.337955 16.517602 -22.766827 45.165591 -0.437244 2.099106 0.015296 -0.011999 545641.000000 0 0 1
36.368466 15.479902 -22.509127 45.485751 0.402413 2.088471 0.027715 -0.016890 389815.000000 0 0 1
35.156866 15.749602 -23.195027 44.967372 0.421174 2.112760 0.084920 -0.024724 970980.000000 0 0 1
34.161666 14.703802 -22.973327 43.714929 0.406451 2.124129 0.098550 -0.025080 108698.000000 0 0 1
34.410966 13.336902 -23.768627 43.896870 0.369751 2.142975 0.060075 -0.027459 -897373.000000 0 0 1
34.273766 13.434702 -25.187617 44.604914 0.373575 2.170845 0.076892 -0.019965 339906.000000 0 0 1
34.762966 12.223702 -25.698237 44.925295 0.338126 2.179765 0.050946 -0.015771 -197248.000000 0 0 1
34.678166 12.071702 -27.219797 45.707971 0.334987 2.208703 0.070604 -0.012665 265868.000000 0 0 1
33.352566 12.093902 -27.741577 45.036111 0.347862 2.234432 0.089916 -0.012063 446074.000000 0 0 1
32.974866 13.270802 -28.461147 45.535622 0.382618 2.245967 0.092850 -0.009010 -107033.000000 0 0 1
33.523066 13.440602 -29.891467 46.882252 0.381313 2.262157 0.077786 -0.007723 -716566.000000 0 0 1
34.908966 13.493802 -30.013557 47.974287 0.368852 2.246719 0.077852 -0.008412 -847442.000000 0 0 1
35.261966 13.543702 -31.393327 49.115976 0.366714 2.264211 0.064116 -0.009791 368138.000000 0 0 1
-36.132855 14.104502 -31.504887 49.970772 -0.372161 2.252950 0.058946 -0.011686 1121240.000000 0 0 1
-35.029555 13.289402 -31.137297 48.715595 -0.362602 2.264208 0.046513 -0.007393 368771.000000 0 0 1
-34.972955 13.023302 -29.727137 47.711808 -0.356474 2.243440 0.033418 -0.008520 -498061.000000 0 0 1
-33.824555 12.060702 -29.291507 46.341703 -0.342513 2.255026 0.023490 -0.006431 703888.000000 0 0 1
-34.255355 10.715102 -29.638497 46.547645 -0.303159 2.261052 0.024460 -0.015754 850362.000000 0 0 1
-33.172055 9.827702 -29.476547 45.451466 -0.288026 2.276445 0.024050 -0.017647 326925.000000 0 0 1
-33.738155 8.432102 -29.907107 45.867183 -0.244911 2.281065 0.024082 -0.010841 -273566.000000 0 0 1
-33.806555 8.349502 -31.310987 46.829214 -0.242133 2.303149 0.020152 -0.013397 318064.000000 0 0 1
-34.235755 7.108602 -31.892127 47.325753 -0.204728 2.310251 0.022866 -0.011729 -201228.000000 0 0 1
-35.446855 6.299202 -31.390467 47.765269 -0.175872 2.287870 0.023817 0.001493 -169597.000000 0 0 1
-35.179955 5.610002 -30.161047 46.677512 -0.158134 2.273336 0.027619 -0.007284 212647.000000 0 0 1
-36.400455 5.119402 -29.682577 47.246765 -0.139725 2.250093 0.032125 0.000577 -180606.000000 0 0 1
-36.193655 4.230502 -28.402737 46.201659 -0.116357 2.232873 0.022191 0.004300 310946.000000 0 0 1
-35.482955 3.013302 -28.751757 45.768806 -0.084719 2.250028 0.020574 0.008363 779215.000000 0 0 1
-35.875055 2.029202 -27.797337 45.429387 -0.056503 2.229232 0.036585 0.012989 655205.000000 0 0 1
-34.807955 0.821202 -27.840827 44.580038 -0.023588 2.245305 0.062193 0.009524 978477.000000 0 0 1
-33.657155 1.220102 -27.119367 43.240638 -0.036235 2.248715 0.064897 0.000749 189870.000000 0 0 1
-32.670055 0.191702 -26.994157 42.379875 -0.005868 2.261341 0.067747 -0.002444 28205.100000 0 0 1
-31.723555 0.508102 -25.871567 40.938736 -0.016015 2.254874 0.064468 -0.002887 -444616.000000 0 0 1
-32.280955 0.188002 -24.623227 40.600477 -0.005824 2.222418 0.069106 0.000873 731132.000000 0 0 1
-31.353655 0.579702 -23.572127 39.230510 -0.018487 2.215376 0.086050 0.004071 537449.000000 0 0 1
-31.774955 0.375902 -22.101727 38.707563 -0.011830 2.178511 0.084356 0.010857 -467266.000000 0 0 1
-31.849955 -0.995098 -21.778827 38.596984 0.031233 2.170336 0.098199 0.003147 343844.000000 0 0 1
-32.311755 -1.218998 -20.431827 38.249118 0.037708 2.134331 0.089040 -0.004660 793785.000000 0 0 1
-33.864355 -1.209198 -20.236627 39.468694 0.035692 2.109153 0.077276 0.002403 595565.000000 0 0 1
-34.632355 -2.368298 -20.525427 40.327435 0.068278 2.104783 0.082056 0.004875 445036.000000 0 0 1
-35.987455 -2.192798 -20.145727 41.300794 0.060857 2.080342 0.069195 0.009527 740813.000000 0 0 1
35.986766 -3.497898 -19.975427 41.307389 -0.096895 2.075536 0.064847 0.009345 207307.000000 0 0 1
35.468866 -3.975498 -21.200827 41.512891 -0.111618 2.106801 0.061535 0.014929 84356.400000 0 0 1
36.378766 -4.653798 -22.061527 42.799340 -0.127235 2.112346 0.058299 0.011969 -241718.000000 0 0 1
35.694866 -5.548698 -23.130627 42.894492 -0.154214 2.140336 0.056480 0.008812 -536513.000000 0 0 1
35.035666 -6.640698 -22.574427 42.204284 -0.187319 2.135168 0.055403 0.008877 34671.000000 0 0 1
34.666566 -7.607698 -23.547827 42.592817 -0.216029 2.156588 0.057713 0.005594 160283.000000 0 0 1
33.329966 -7.393798 -24.302127 41.906423 -0.218301 2.189420 0.041092 0.009064 -282924.000000 0 0 1
33.287866 -6.339798 -25.240097 42.253256 -0.188200 2.210992 0.055331 0.003816 -446755.000000 0 0 1
31.949266 -6.043298 -25.502367 41.323696 -0.186944 2.235895 0.036969 0.006660 -284226.000000 0 0 1
31.757366 -4.901998 -26.519807 41.663654 -0.153149 2.260776 0.073490 -0.019052 53644.300000 0 0 1
32.066566 -5.244098 -27.861017 42.801887 -0.162103 2.279605 0.074368 -0.026634 314903.000000 0 0 1
31.705066 -4.148898 -28.671577 42.947456 -0.130120 2.301772 0.079023 -0.028951 96178.100000 0 0 1
31.302466 -4.549698 -30.105627 43.667986 -0.144336 2.331486 0.087500 -0.026872 239043.000000 0 0 1
30.734366 -3.473698 -30.848787 43.684271 -0.112546 2.354879 0.075359 -0.039720 -161383.000000 0 0 1
30.134566 -3.909898 -32.013927 44.139222 -0.129027 2.382258 0.080447 -0.041853 -469123.000000 0 0 1
29.465166 -2.734198 -32.809277 44.182808 -0.092529 2.407711 0.081777 -0.036266 -152066.000000 0 0 1
28.362266 -2.085198 -32.207357 42.966034 -0.073388 2.418255 0.069342 -0.034562 1576360.000000 0 0 1
27.079066 -2.770098 -32.047987 42.047863 -0.101942 2.437468 0.085774 -0.031694 1537940.000000 0 0 1
26.328466 -3.269998 -33.335447 42.604379 -0.123567 2.469374 0.078092 -0.039688 -666356.000000 0 0 1
26.972266 -4.384298 -33.871197 43.519918 -0.161139 2.462737 0.082925 -0.042792 -145799.000000 0 0 1
26.439166 -4.673898 33.245996 42.733723 -0.174972 0.679351 0.069111 -0.030510 -9730.020000 0 0 1
27.324166 -5.623698 32.351548 42.718365 -0.202980 0.711594 0.046078 -0.044485 -80730.700000 0 0 1
28.603466 -5.161298 32.046693 43.264163 -0.178522 0.736653 0.055121 -0.036504 -554631.000000 0 0 1
28.693366 -4.308998 30.918433 42.400781 -0.149060 0.753652 0.073509 -0.039150 -383298.000000 0 0 1
29.413266 -2.951298 31.146463 42.941268 -0.100004 0.759287 0.057484 -0.039310 -1206370.000000 0 0 1
30.712666 -3.103398 31.536333 44.129800 -0.100704 0.774706 0.054279 -0.039342 -1559920.000000 0 0 1
31.232066 -1.845598 31.932003 44.704597 -0.059024 0.775189 0.043167 -0.035680 -1143140.000000 0 0 1
32.661666 -2.013998 32.348979 46.014096 -0.061584 0.791157 0.034455 -0.035666 -1159670.000000 0 0 1
33.566866 -2.191298 31.290793 45.941811 -0.065189 0.821538 0.043124 -0.026815 426903.000000 0 0 1
34.926366 -2.258398 31.749613 47.254517 -0.064572 0.834045 0.046076 -0.024327 969227.000000 0 0 1
35.972366 -2.767098 30.749803 47.404835 -0.076772 0.864969 0.035342 -0.015304 131896.000000 0 0 1
36.061666 -1.915698 29.568563 46.673478 -0.053073 0.884703 0.029714 -0.008628 304599.000000 0 0 1
-35.671455 -2.315498 28.781363 45.893148 0.064821 0.892922 0.026352 -0.003995 687228.000000 0 0 1
-35.559355 -1.577598 27.452693 44.951161 0.044336 0.913823 0.039003 -0.002858 -81159.900000 0 0 1
36.236666 -1.943998 26.629233 45.011011 -0.053596 0.937735 0.040241 -0.016962 -409219.000000 0 0 1
-36.387955 -1.494398 25.359923 44.378397 0.041045 0.962528 0.068715 -0.019667 -30915.500000 0 0 1
-26.549004 15.156702 12.329173 32.963369 -0.518744 1.187449 0.054282 -0.011588 -375689.000000 0 0 1
-27.817874 14.596702 12.507773 33.813343 -0.483230 1.191888 0.047962 -0.003086 30693.900000 0 0 1
-28.622484 15.322302 13.425473 35.132077 -0.491506 1.178682 0.047574 -0.006129 458031.000000 0 0 1
-30.031514 14.690402 13.646773 36.110028 -0.454943 1.183246 0.046481 -0.005456 -45471.500000 0 0 1
-30.919194 15.548202 14.242173 37.424358 -0.465938 1.180396 0.060268 -0.007351 -1463290.000000 0 0 1
-32.081784 14.896402 14.602673 38.267240 -0.434703 1.179273 0.079546 -0.013788 -277420.000000 0 0 1
-33.080044 15.785302 15.442973 39.773740 -0.445230 1.172042 0.074796 -0.011280 278591.000000 0 0 1
-32.533854 16.174002 16.704373 39.988574 -0.461360 1.139852 0.060175 -0.004012 83580.800000 0 0 1
-33.480424 16.129802 17.761473 41.189552 -0.448956 1.124960 0.079982 -0.024124 32122.100000 0 0 1
-32.880814 16.347102 19.162873 41.419697 -0.461375 1.089813 0.091072 -0.018665 157810.000000 0 0 1
-32.297994 15.188202 19.782073 40.806522 -0.439567 1.064688 0.078363 -0.013602 146451.000000 0 0 1
-31.203134 15.435902 20.645673 40.474021 -0.459391 1.035499 0.073371 -0.013441 326401.000000 0 0 1
-31.517064 15.896702 22.125573 41.660189 -0.467149 1.010902 0.092477 -0.023353 -393897.000000 0 0 1
-32.238524 17.112102 22.207473 42.723744 -0.487980 1.024189 0.101638 -0.033114 226837.000000 0 0 1
-32.729114 17.487702 23.475473 43.910277 -0.490722 1.006734 0.117512 -0.039270 -808492.000000 0 0 1
-33.885894 16.673202 24.074473 44.786490 -0.457259 1.003281 0.095461 -0.037456 -375025.000000 0 0 1
-35.102034 16.560502 23.369073 45.304708 -0.440819 1.028832 0.081515 -0.026920 -130968.000000 0 0 1
-35.905267 17.709302 23.432373 46.388400 -0.458211 1.041259 0.069590 -0.027602 -1114100.000000 0 0 1
35.506228 17.384602 23.072073 45.773760 0.455310 1.042520 0.040906 -0.027439 -214269.000000 0 0 1
34.864068 16.595102 24.059573 45.494655 0.444259 1.013558 0.048807 -0.023103 31191.000000 0 0 1
33.564588 16.128202 23.769373 44.177862 0.447936 1.002688 0.066178 -0.022237 300721.000000 0 0 1
32.942098 15.179402 24.845873 43.964911 0.431791 0.970206 0.037820 -0.005881 -84140.700000 0 0 1
32.640448 15.758102 26.119773 44.676158 0.449776 0.946352 0.048056 -0.008638 194923.000000 0 0 1
32.579808 14.883402 27.225673 44.991074 0.428518 0.920861 0.046112 -0.004013 -143017.000000 0 0 1
31.536618 13.747402 27.226373 43.872824 0.411082 0.901321 0.050654 -0.001409 -143748.000000 0 0 1
32.059878 12.589702 26.627173 43.535533 0.374192 0.912691 0.054623 -0.000447 -63223.200000 0 0 1
31.359958 11.485302 27.096873 43.006972 0.351070 0.889169 0.061591 -0.001817 -133168.000000 0 0 1
32.006788 10.115702 26.704473 42.893948 0.306115 0.898774 0.072590 -0.011681 1085950.000000 0 0 1
33.223828 9.841702 27.449373 44.205767 0.287989 0.900848 0.060520 -0.009148 718011.000000 0 0 1
33.562768 8.542902 27.450773 44.192595 0.249242 0.900571 0.074426 -0.007421 -461713.000000 0 0 1
34.640468 8.282302 28.496773 45.613864 0.234687 0.895999 0.061179 -0.005766 -508322.000000 0 0 1
35.934538 8.665802 28.101573 46.433668 0.236637 0.920782 0.067448 -0.006727 -636955.000000 0 0 1
-36.021086 7.803202 28.713973 46.721524 -0.213332 0.908947 0.066138 -0.009337 15738.300000 0 0 1
-34.584586 8.375802 28.871773 45.823868 -0.237608 0.889166 0.077324 -0.009857 392847.000000 0 0 1
-33.885714 8.648102 27.681173 44.601329 -0.249880 0.901243 0.072911 -0.005323 -75388.700000 0 0 1
-32.689114 9.347302 27.924273 43.996763 -0.278513 0.883190 0.073478 -0.004302 -33209.000000 0 0 1
-32.017294 9.964802 26.669573 42.844725 -0.301729 0.898901 0.072106 -0.010452 181470.000000 0 0 1
-31.306404 8.954402 25.942973 41.633040 -0.278587 0.898053 0.064448 -0.011680 417193.000000 0 0 1
-30.528874 9.497002 24.881373 40.512811 -0.301593 0.909474 0.068096 -0.009558 -158866.000000 0 0 1
-29.607884 8.517602 24.167073 39.156401 -0.280116 0.905626 0.067973 -0.010309 -334992.000000 0 0 1
-28.791344 9.208202 23.256573 38.139227 -0.309545 0.915012 0.067723 -0.013543 -27940.400000 0 0 1
-28.004294 8.260902 22.526073 36.876916 -0.286851 0.913669 0.047433 -0.007599 1070690.000000 0 0 1
-26.815964 8.893802 21.666073 35.603572 -0.320244 0.916581 0.046133 -0.006296 396148.000000 0 0 1
-25.836044 9.535602 22.460773 35.537517 -0.353572 0.886627 0.054123 -0.009938 1526460.000000 0 0 1
-24.647234 10.105702 21.817773 34.432928 -0.389109 0.884559 0.054261 -0.003434 2305150.000000 0 0 1
-23.810034 9.242502 20.745573 32.904716 -0.370273 0.888632 0.055395 -0.008274 -396772.000000 0 0 1
-24.485734 9.180502 19.532173 32.639524 -0.358712 0.929268 0.053796 -0.012876 156012.000000 0 0 1
-23.760934 8.565702 18.461973 31.285742 -0.345994 0.939603 0.065831 -0.022162 -170439.000000 0 0 1
-23.782634 7.040002 18.500873 30.942811 -0.287796 0.929911 0.052782 -0.013707 247531.000000 0 0 1
-22.469934 6.581802 18.855073 30.062132 -0.284945 0.892839 0.025030 -0.014327 1039800.000000 0 0 1
-22.358934 5.202902 19.257073 29.963760 -0.228630 0.872807 0.010406 -0.011250 -772643.000000 0 0 1
-22.711534 4.048202 18.267173 29.426031 -0.176392 0.901056 0.028736 -0.009674 -2655980.000000 0 0 1
-24.031234 4.051502 17.949573 30.267177 -0.167023 0.935970 0.062584 -0.009159 -1220660.000000 0 0 1
-24.451534 2.984002 17.105073 29.989419 -0.121437 0.963840 0.052376 -0.013102 -138769.000000 0 0 1
-24.488734 1.551802 17.756273 30.288469 -0.063283 0.944388 0.045383 -0.006056 -660791.000000 0 0 1
-23.237134 0.933502 17.953473 29.379635 -0.040151 0.913365 0.020536 -0.003940 367553.000000 0 0 1
-23.424134 -0.249298 18.691373 29.968643 0.010642 0.897332 0.032302 -0.010032 -5749.620000 0 0 1
-22.091234 -1.027598 18.820573 29.039499 0.046483 0.865706 0.033869 0.002161 -296064.000000 0 0 1
-21.212134 -0.426998 19.714873 28.962271 0.020127 0.822067 0.019508 0.005662 -230595.000000 0 0 1
-20.091834 -1.301898 19.847473 28.271874 0.064707 0.792564 0.031359 0.003222 232263.000000 0 0 1
-19.105334 -0.811398 20.940873 28.358284 0.042444 0.740043 0.035097 0.002037 307164.000000 0 0 1
-19.532034 -0.915198 22.327673 29.679334 0.046822 0.719255 0.024724 -0.000013 208072.000000 0 0 1
-18.425934 -0.668398 23.200073 29.634526 0.036259 0.671526 0.021530 -0.002501 -4476.510000 0 0 1
-18.763234 -0.839698 24.687673 31.020077 0.044722 0.650368 0.026757 -0.000471 571434.000000 0 0 1
-19.500434 0.259702 25.317673 31.958080 -0.013317 0.656366 0.023279 -0.011008 900861.000000 0 0 1
-20.907134 0.172202 25.045273 32.625198 -0.008236 0.695604 0.058258 -0.016280 354583.000000 0 0 1
-21.751334 1.255702 25.744373 33.726399 -0.057666 0.702344 0.049073 -0.025334 -431328.000000 0 0 1
-21.604834 2.504602 25.086373 33.201927 -0.115413 0.714273 0.043348 -0.019698 182036.000000 0 0 1
-22.831334 3.055602 24.642873 33.732442 -0.133043 0.751685 0.040174 -0.021982 -531262.000000 0 0 1
-22.671534 4.190902 23.620173 33.007191 -0.182790 0.773304 0.034461 -0.012261 -242147.000000 0 0 1
-22.070734 3.807702 22.361473 31.648876 -0.170841 0.786187 0.021360 -0.011224 1560660.000000 0 0 1
-20.646534 3.581002 22.434273 30.698526 -0.171735 0.751313 0.018004 -0.003854 438073.000000 0 0 1
-19.954934 2.926802 21.249273 29.296708 -0.145632 0.759308 0.014786 -0.001969 -384820.000000 0 0 1
-19.891334 3.665302 19.992373 28.439313 -0.182222 0.791212 0.013652 -0.006460 -29331.300000 0 0 1
-19.506034 2.768802 18.909273 27.307731 -0.141004 0.805915 0.029208 -0.005294 -311412.000000 0 0 1
-18.875134 3.491202 17.664073 26.085985 -0.182896 0.826916 0.019772 -0.004097 -1250580.000000 0 0 1
-17.567634 3.870402 17.771673 25.287034 -0.216850 0.791474 0.020151 -0.012563 -1202610.000000 0 0 1
-17.192434 4.591002 16.589073 24.328058 -0.260947 0.820452 0.030722 -0.008960 -136193.000000 0 1 0
-15.708734 5.011802 16.526473 23.345380 -0.308837 0.784259 0.028963 -0.007986 33683.800000 0 1 0
-15.262734 5.984602 17.539473 24.008323 -0.373682 0.751658 0.021171 -0.006993 16567.500000 0 1 0
-15.686734 7.310002 17.510173 24.619421 -0.436079 0.779544 0.008326 -0.018448 -564957.000000 0 1 0
-15.107334 8.266702 16.405973 23.784991 -0.500689 0.809637 0.006461 -0.007609 68221.100000 0 1 0
-15.514134 7.951502 15.057173 23.035476 -0.473623 0.858397 0.014266 -0.008400 1174640.000000 0 1 0
-16.886434 8.215302 14.697273 23.846439 -0.452792 0.906723 0.013241 -0.008689 786178.000000 0 1 0
-17.358934 7.450402 13.459573 23.194852 -0.405420 0.951720 0.022197 -0.009786 -174867.000000 0 1 0
-17.300934 6.062202 13.596073 22.823799 -0.337029 0.932663 0.029852 -0.008462 135211.000000 0 1 0
-17.878734 5.437802 12.505573 22.485732 -0.295259 0.981043 0.039615 -0.012770 -337558.000000 0 1 0
-17.564234 3.930102 12.519173 21.924363 -0.220130 0.963053 0.043595 -0.011653 237909.000000 0 1 0
-18.257234 3.275102 13.590973 22.994943 -0.177499 0.938447 0.047446 -0.016039 434444.000000 0 1 0
-17.890734 1.904402 13.635173 22.574832 -0.106047 0.922287 0.046393 -0.016808 399319.000000 0 1 0
-18.861634 1.064102 14.563573 23.853536 -0.056356 0.914052 0.057945 -0.019769 889351.000000 0 1 0
-20.196934 0.981002 14.089373 24.645261 -0.048534 0.962236 0.069279 -0.018071 1473160.000000 0 1 0
-21.230334 0.857302 15.152373 26.097058 -0.040359 0.951311 0.059068 -0.017130 -213120.000000 0 0 1
-22.574734 0.670202 14.569573 26.876388 -0.029679 0.997867 0.065311 -0.025415 -1746210.000000 0 0 1
-22.751134 -0.352098 13.597173 26.507002 0.015475 1.032161 0.092394 -0.024052 1402180.000000 0 0 1
-24.154834 -0.592198 13.337873 27.599013 0.024512 1.066406 0.090295 -0.031392 1049480.000000 0 0 1
-24.139834 -1.658598 12.253073 27.122321 0.068600 1.102047 0.087984 -0.029631 56152.300000 0 0 1
-23.886634 -2.998898 12.763473 27.248319 0.124894 1.083302 0.091020 -0.015842 138138.000000 0 0 1
-24.054134 -4.001398 11.805873 27.092271 0.164840 1.119908 0.110871 -0.008159 -310129.000000 0 0 1
-23.627534 -5.388498 12.289873 27.172361 0.224225 1.101462 0.101468 -0.008412 -156349.000000 0 0 1
-24.494134 -5.879798 13.268773 28.470949 0.235592 1.085980 0.081861 -0.011911 -22241.400000 0 0 1
-24.386534 -7.276798 13.504173 28.810024 0.289983 1.082942 0.089527 -0.016938 -399434.000000 0 0 1
-25.140864 -7.700598 14.757373 30.151986 0.297225 1.059357 0.083208 -0.010423 -765914.000000 0 0 1
-26.508704 -7.499598 14.671973 31.212531 0.275706 1.081430 0.094163 -0.023037 -579274.000000 0 0 1
-27.156364 -7.630398 15.916673 32.388756 0.273917 1.057070 0.104050 -0.018414 375459.000000 0 0 1
-28.578574 -6.966998 16.058373 33.513359 0.239120 1.071095 0.105738 -0.020461 1186070.000000 0 0 1
-29.605184 -7.365198 15.138373 34.057060 0.243831 1.110180 0.095441 -0.022706 979670.000000 0 0 1
-30.124144 -8.706498 15.006473 34.762931 0.281354 1.124442 0.115164 -0.040752 -256774.000000 0 0 1
-30.407964 -9.569998 16.293273 35.800836 0.304906 1.098302 0.105398 -0.043874 -401386.000000 0 0 1
-29.291064 -10.105998 16.990473 35.337993 0.332231 1.069231 0.113836 -0.022456 133939.000000 0 0 1
-29.645614 -10.852898 18.167173 36.423810 0.350934 1.048615 0.094522 -0.017692 488631.000000 0 0 1
-28.415444 -11.247698 19.058573 36.016348 0.376907 1.013181 0.107696 -0.014884 628203.000000 0 0 1
-27.473974 -12.075298 18.416473 35.210773 0.414103 1.020388 0.101644 -0.021729 81032.900000 0 0 1
-26.248104 -12.068298 19.126773 34.647369 0.430955 0.985986 0.103872 -0.022346 -25734.500000 0 0 1
-25.123494 -12.961198 18.592473 33.835819 0.476286 0.989042 0.079692 -0.014508 -360056.000000 0 0 1
-24.700034 -12.423198 17.365673 32.649565 0.466015 1.009976 0.079180 -0.019179 -54252.800000 0 0 1
-23.732734 -13.273798 16.801373 31.964394 0.509958 1.017343 0.078494 -0.021406 -279359.000000 0 0 1
-23.420334 -13.085498 15.274973 30.871785 0.509516 1.053206 0.067209 -0.013790 -126478.000000 0 0 1
-22.539034 -12.004898 15.102373 29.668287 0.489407 1.036726 0.062808 -0.019048 -348035.000000 0 0 1
-22.277534 -11.863398 13.693973 28.715041 0.489330 1.073681 0.065669 -0.015775 96096.600000 0 0 1
-20.985134 -11.053198 13.492673 27.287382 0.484791 1.053576 0.070497 -0.017643 -398173.000000 0 0 1
-21.222734 -9.640098 13.524173 26.948825 0.426370 1.045064 0.068981 -0.011770 88076.300000 0 0 1
-20.099634 -8.809398 13.283073 25.652306 0.413070 1.026505 0.075789 -0.014641 255587.000000 0 0 1
-19.485634 -8.896598 11.816073 24.463421 0.428306 1.066707 0.084124 -0.009047 -456494.000000 0 1 0
-18.788034 -10.043198 11.549873 24.233357 0.490906 1.074001 0.061393 -0.016969 -197173.000000 0 1 0
-18.525534 -10.152498 10.172273 23.446615 0.501327 1.122037 0.068510 -0.016105 -651513.000000 0 1 0
-17.953934 -11.490098 9.706473 23.421821 0.569297 1.143491 0.044487 -0.013553 332787.000000 0 1 0
-16.593834 -11.780798 9.976173 22.664213 0.617373 1.115005 0.048836 -0.014483 416263.000000 0 1 0
-15.991434 -11.734198 11.232173 22.794277 0.633039 1.055534 0.057515 -0.012886 -592691.000000 0 1 0
-14.473234 -11.993398 11.091373 21.825092 0.691974 1.037710 0.058373 -0.017559 -4780.970000 0 1 0
-14.165834 -13.306798 10.783073 22.226479 0.754140 1.064267 0.054602 -0.023298 165829.000000 0 1 0
-12.774934 -13.555398 10.637573 21.450075 0.815031 1.051900 0.062864 -0.030358 303617.000000 0 1 0
-12.456634 -15.083998 10.675373 22.285832 0.880510 1.071258 0.069809 -0.025687 -395867.000000 0 1 0
-12.856534 -15.808398 9.546873 22.501971 0.888015 1.132643 0.060018 -0.022769 187837.000000 0 1 0
-12.661434 -17.166398 9.676273 23.422796 0.935298 1.144926 0.053577 -0.016911 243219.000000 0 1 0
-13.169134 -17.916698 8.383473 23.763770 0.936951 1.210252 0.047195 -0.011546 201592.000000 0 1 0
-12.294734 -17.622498 7.272873 22.684964 0.961634 1.244430 0.060529 -0.022285 363668.000000 0 1 0
-12.511134 -18.509898 6.193973 23.184264 0.976418 1.300349 0.044708 -0.012133 -19702.700000 0 1 0
-11.848634 -18.041498 4.844573 22.121385 0.989695 1.350007 0.050716 -0.018525 -85851.100000 0 1 0
-12.112834 -18.886598 3.769173 22.751505 1.000529 1.404362 0.062090 -0.020541 98902.100000 0 1 0
-11.205834 -18.790798 2.693173 22.043548 1.033067 1.448315 0.067026 -0.028459 108920.000000 0 1 0
-11.505034 -19.880598 1.640473 23.028138 1.046181 1.499498 0.071133 -0.024909 -40606.300000 0 1 0
-11.068034 -21.175898 1.983973 23.976159 1.089177 1.487954 0.058654 -0.029669 -176750.000000 0 1 0
-11.507134 -22.173198 1.082973 25.004753 1.092091 1.527472 0.060358 -0.028729 -30009.400000 0 0 1
-10.607434 -22.309698 -0.181127 24.703706 1.126970 1.578128 0.065636 -0.026412 183349.000000 0 1 0
-10.800034 -21.321198 -1.146227 23.927977 1.101931 1.618718 0.068689 -0.035821 -482209.000000 0 1 0
-12.002434 -21.360998 -1.842327 24.571220 1.058874 1.645846 0.086101 -0.033092 -514110.000000 0 1 0
-12.761834 -20.001198 -2.063327 23.815324 1.002865 1.657544 0.078734 -0.032468 57346.700000 0 1 0
-13.419734 -19.675198 -0.877127 23.832164 0.972210 1.607609 0.073384 -0.040512 -224855.000000 0 1 0
-14.391034 -18.688298 -1.129727 23.614204 0.914583 1.618656 0.076145 -0.037313 -178591.000000 0 1 0
26.594466 -20.038298 -3.985927 33.536348 -0.645722 1.689932 0.053250 -0.023102 -366523.000000 0 0 1
25.382266 -20.299698 -3.347527 32.673279 -0.674594 1.673431 0.054957 -0.023239 -85985.000000 0 0 1
25.528666 -21.433398 -2.520027 33.428340 -0.698414 1.646254 0.048948 -0.019480 280551.000000 0 0 1
24.186966 -21.619798 -1.724327 32.486895 -0.729413 1.623899 0.040098 -0.019920 550311.000000 0 0 1
23.161966 -21.915798 -2.663927 31.998053 -0.757760 1.654146 0.038996 -0.025822 -388253.000000 0 0 1
21.994266 -22.304798 -1.983427 31.387669 -0.792408 1.634030 0.043083 -0.022941 -176400.000000 0 0 1
21.089366 -23.121198 -2.935227 31.431938 -0.831324 1.664316 0.043262 -0.020923 -306010.000000 0 0 1
20.481366 -22.368098 -3.931027 30.582204 -0.829401 1.699693 0.041902 -0.020417 -755594.000000 0 0 1
19.532366 -23.124998 -4.642127 30.623981 -0.869421 1.722968 0.048713 -0.022071 268130.000000 0 0 1
18.421466 -22.165198 -5.248427 29.294922 -0.877378 1.750927 0.048980 -0.010188 1025000.000000 0 0 1
17.385366 -21.771398 -4.323727 28.194669 -0.896945 1.724757 0.056320 -0.007235 1027580.000000 0 0 1
17.913766 -20.882198 -3.315327 27.712103 -0.861763 1.690718 0.044204 -0.013501 -336412.000000 0 0 1
16.769466 -20.285698 -2.458627 26.434247 -0.880007 1.663940 0.074390 -0.001280 123125.000000 0 0 1
16.013466 -21.250098 -1.743927 26.665316 -0.925013 1.636244 0.054039 -0.007079 177681.000000 0 0 1
15.156966 -20.537698 -0.888827 25.540570 -0.935015 1.605604 0.056635 0.001516 -578371.000000 0 0 1
14.737666 -21.274998 0.421973 25.884405 -0.964971 1.554493 0.042018 -0.000919 -263813.000000 0 0 1
14.001466 -22.445898 0.390873 26.457744 -1.013070 1.556022 0.055925 -0.006366 -448185.000000 0 0 1
13.600866 -22.711198 1.683473 26.525764 -1.031214 1.507288 0.050471 -0.002883 318133.000000 0 0 1
12.702566 -23.964898 1.849873 27.186276 -1.083400 1.502699 0.058288 -0.006651 780991.000000 0 0 1
13.526566 -25.108098 1.622073 28.565989 -1.076644 1.513982 0.031953 -0.006062 315910.000000 0 0 1
12.671966 -26.127748 1.186073 29.062772 -1.119220 1.529974 0.030444 -0.014331 139126.000000 0 0 1
13.017766 -27.479938 1.860873 30.464276 -1.128394 1.509675 0.033455 -0.006792 95583.100000 0 0 1
12.692766 -27.425398 3.225073 30.391773 -1.137340 1.464480 0.055935 -0.012808 22585.300000 0 0 1
12.750166 -28.657818 3.863073 31.603174 -1.152183 1.448253 0.059178 -0.017669 -40189.800000 0 0 1
12.395166 -28.568958 5.351473 31.598478 -1.161438 1.400618 0.071262 -0.018433 35620.900000 0 0 1
12.538466 -29.854018 5.849873 32.904355 -1.173175 1.392062 0.054826 -0.024659 -205801.000000 0 0 1
12.435466 -29.920628 7.252273 33.203619 -1.176902 1.350603 0.059544 -0.018915 255098.000000 0 0 1
12.236966 -31.326338 7.854973 34.536697 -1.198395 1.341350 0.036222 -0.016083 71200.000000 0 0 1
12.058766 -31.356928 9.237973 34.842660 -1.203667 1.302453 0.037613 -0.010600 28409.700000 0 0 1
11.332266 -32.543518 9.535973 35.755218 -1.235709 1.300827 0.040713 -0.013016 214312.000000 0 0 1
11.054066 -32.738738 11.020073 36.269262 -1.245170 1.262075 0.038125 -0.008542 130959.000000 0 0 1
12.273166 -33.054498 11.687673 37.146092 -1.215273 1.250718 0.033922 -0.006443 272497.000000 0 0 1
12.221466 -33.356798 13.088073 37.859449 -1.219599 1.217810 0.037914 -0.003928 168054.000000 0 0 1
11.258366 33.898517 13.648273 38.237881 1.250138 1.205816 0.036480 -0.010570 316027.000000 0 0 1
11.538966 32.630570 13.170873 37.032063 1.230896 1.207175 0.041097 -0.011587 -295872.000000 0 0 1
10.448666 31.760089 13.297973 35.982133 1.252962 1.192248 0.038749 -0.005397 -184060.000000 0 0 1
10.490666 30.572819 12.314773 34.589087 1.240249 1.206780 0.044780 -0.007268 -273166.000000 0 0 1
10.187366 30.892239 10.941373 34.319477 1.252255 1.246323 0.054846 -0.007007 489992.000000 0 0 1
11.191166 31.561609 10.161773 34.994842 1.230046 1.276173 0.034075 -0.006487 134020.000000 0 0 1
10.647066 31.835499 8.772373 34.696016 1.248050 1.315187 0.029397 -0.010785 302422.000000 0 0 1
9.469266 32.627519 8.862173 35.110683 1.288333 1.315630 0.036921 -0.012698 228758.000000 0 0 1
8.682166 32.627440 7.676873 34.624618 1.310723 1.347221 0.036853 -0.012822 -127379.000000 0 0 1
8.879366 33.779023 6.676173 35.558920 1.313745 1.381926 0.041313 -0.008453 -391276.000000 0 0 1
8.346066 -33.418208 7.136873 35.176248 -1.326057 1.366489 0.042288 -0.011033 -307096.000000 0 0 1
8.833666 -32.388248 6.357273 34.167927 -1.304530 1.383646 0.059449 -0.017237 -180847.000000 0 0 1
8.280966 -30.979198 6.652273 32.749624 -1.309596 1.366248 0.054419 -0.012683 93939.400000 0 0 1
8.694866 -30.380308 7.879273 32.567572 -1.292047 1.326436 0.058646 -0.017066 -176668.000000 0 0 1
8.026966 -29.172078 8.034873 31.304976 -1.302282 1.311227 0.077242 -0.012157 -215197.000000 0 0 1
8.802066 -27.944488 7.566073 30.259152 -1.265650 1.318072 0.083369 -0.015303 -10777.900000 0 0 1
9.493666 -27.285998 8.623073 30.149839 -1.235965 1.280739 0.083631 -0.012506 315717.000000 0 0 1
10.242066 -26.094188 8.311673 29.238510 -1.196769 1.282550 0.077729 -0.020248 563433.000000 0 0 1
9.491366 -24.970598 7.489773 27.743711 -1.207560 1.297442 0.070788 -0.019589 27275.800000 0 0 1
9.194166 -25.358598 6.198973 27.677039 -1.222971 1.344905 0.066020 -0.018011 -470533.000000 0 0 1
8.332666 -24.484898 5.521873 26.446827 -1.242772 1.360457 0.072399 -0.014847 105772.000000 0 0 1
8.194866 -24.833198 4.034073 26.459730 -1.252052 1.417739 0.078087 -0.013825 214501.000000 0 0 1
7.469466 -26.029558 3.728473 27.335551 -1.291344 1.433973 0.075346 -0.016492 -123516.000000 0 0 1
8.017066 -27.300498 4.108873 28.748450 -1.285166 1.427380 0.076616 -0.010140 -142720.000000 0 0 1
7.172366 -28.461818 3.574273 29.568452 -1.323937 1.449619 0.075913 -0.009562 606234.000000 0 0 1
5.867066 -28.539278 4.183573 29.434931 -1.368042 1.428184 0.061714 -0.001162 137120.000000 0 0 1
4.985266 -29.496548 3.682273 30.140643 -1.403367 1.448321 0.052360 0.001036 21138.900000 0 0 1
5.073566 -31.003008 4.027073 31.672463 -1.408587 1.443304 0.048790 -0.000412 347159.000000 0 0 1
6.196066 -31.624918 3.379973 32.402946 -1.377323 1.466296 0.053296 -0.000871 420151.000000 0 0 1
6.234766 -32.985738 3.686573 33.771616 -1.383986 1.461416 0.045643 -0.004774 331379.000000 0 0 1
7.384966 -33.800608 3.013973 34.728992 -1.355690 1.483902 0.048823 -0.005854 251332.000000 0 0 1
7.131066 -34.066355 1.637473 34.843220 -1.364447 1.523784 0.048391 -0.005298 -335279.000000 0 0 1
8.082366 33.437696 1.072073 34.417343 1.333631 1.539642 0.038333 -0.005731 -575738.000000 0 0 1
7.578466 32.846492 -0.284727 33.710625 1.344041 1.579243 0.041398 -0.002013 829316.000000 0 0 1
6.365966 32.084619 -0.252627 32.711039 1.374928 1.578519 0.034634 -0.000370 -254506.000000 0 0 1
5.219866 32.891275 -0.237327 33.303743 1.413408 1.577923 0.039476 -0.008705 -797605.000000 0 0 1
3.999666 32.022079 0.147073 32.271233 1.446536 1.566239 0.034783 -0.008379 -57805.600000 0 0 1
3.753166 31.098859 -0.891927 31.337211 1.450692 1.599262 0.043263 -0.006377 -63635.400000 0 0 1
2.615566 30.301889 -0.615427 30.420789 1.484693 1.591028 0.030220 -0.011393 281143.000000 0 0 1
2.496766 29.126689 -1.653727 29.280243 1.485284 1.627306 0.028242 -0.010778 -284925.000000 0 0 1
2.318166 29.594519 -2.995227 29.835898 1.492625 1.671356 0.040296 -0.021656 -52728.700000 0 0 1
2.136566 28.587439 -3.940027 28.936661 1.496197 1.707381 0.043039 -0.023260 -165345.000000 0 0 1
1.861966 29.010409 -5.400027 29.567398 1.506702 1.754462 0.043011 -0.029665 137680.000000 0 0 1
0.636466 29.716559 -5.545727 30.236303 1.549382 1.755253 0.046562 -0.031953 151548.000000 0 0 1
0.559766 30.649269 -6.671427 31.371945 1.552535 1.785088 0.046244 -0.025526 -60520.900000 0 0 1
0.496166 30.137589 -8.144127 31.222544 1.554334 1.834690 0.050869 -0.024192 -193899.000000 0 0 1
-0.706634 29.413419 -8.404027 30.598631 -1.546777 1.849026 0.072231 -0.029791 487632.000000 0 0 1
-0.912434 28.923619 -9.721527 30.527305 -1.539260 1.894894 0.075490 -0.030499 -143018.000000 0 0 1
-1.193634 29.936999 -10.829127 31.857788 -1.530946 1.917629 0.068442 -0.028225 -179085.000000 0 0 1
-0.097134 30.814519 -11.014627 32.724089 -1.567644 1.914090 0.059357 -0.026987 26506.600000 0 0 1
-0.449934 32.043959 -11.652227 34.099738 -1.556756 1.919532 0.054271 -0.024057 88752.700000 0 0 1
-0.641634 33.131155 -10.659227 34.809542 -1.551432 1.882012 0.045149 -0.021520 984030.000000 0 0 1
0.569866 33.372289 -9.904427 34.815688 1.553722 1.859262 0.044276 -0.031360 829047.000000 0 0 1
0.208066 34.143453 -8.742127 35.245474 1.564703 1.821448 0.043551 -0.022503 763741.000000 0 0 1
1.327466 -33.964648 -7.619027 34.834022 -1.531732 1.791303 0.047949 -0.026365 160809.000000 0 0 1
2.323766 -33.118128 -8.028827 34.156586 -1.500745 1.808076 0.052882 -0.024715 -745957.000000 0 0 1
3.011966 -32.519668 -6.933027 33.386639 -1.478440 1.779977 0.057316 -0.031069 33702.800000 0 0 1
4.159966 -31.556448 -7.425427 32.684120 -1.439726 1.799985 0.047764 -0.030067 1481160.000000 0 0 1
5.209966 -32.139068 -8.259127 33.589830 -1.410087 1.819226 0.058865 -0.020911 1118050.000000 0 0 1
6.095466 -32.999288 -7.567327 34.400177 -1.388140 1.792590 0.067561 -0.008263 -916781.000000 0 0 1
6.633866 34.046537 -8.274527 35.660099 1.378360 1.804970 0.063051 -0.010702 393063.000000 0 0 1
5.720466 32.943554 -8.363127 34.466554 1.398866 1.815887 0.053585 -0.017680 15317.200000 0 0 1
4.628566 33.125605 -9.242127 34.700810 1.431967 1.840388 0.061352 -0.025295 -160960.000000 0 0 1
3.813966 31.832699 -9.375527 33.403107 1.451552 1.855297 0.052184 -0.034197 -317740.000000 0 0 1
4.283266 30.803449 -10.209027 32.732599 1.432631 1.887980 0.033354 -0.018485 38305.800000 0 0 1
3.297366 29.774569 -10.387327 31.706374 1.460501 1.904569 0.031220 -0.021759 172125.000000 0 0 1
3.669566 28.637039 -11.321227 31.011544 1.443350 1.944499 0.029540 -0.021482 -47457.300000 0 0 1
3.957866 29.031039 -12.649927 31.913736 1.435299 1.978365 0.036713 -0.014545 390416.000000 0 0 1
5.261766 28.662659 -13.096427 31.949188 1.389242 1.993156 0.025992 -0.010036 199699.000000 0 0 1
5.485966 29.163719 -14.529727 33.041357 1.384860 2.026110 0.034645 -0.009924 -447626.000000 0 0 1
4.706866 28.607189 -15.568927 32.907709 1.407723 2.063612 0.056901 -0.012626 -44792.900000 0 0 1
5.060566 29.071729 -16.798227 33.955194 1.398451 2.088306 0.066669 -0.011800 34138.700000 0 0 1
4.037566 28.562399 -17.840527 33.917502 1.430367 2.124684 0.062809 -0.020183 218089.000000 0 0 1
4.364366 27.242809 -18.210727 33.058265 1.411944 2.154200 0.066250 -0.011468 326040.000000 0 0 1
3.450066 26.840249 -19.240827 33.204086 1.442957 2.188877 0.107359 -0.026913 408606.000000 0 0 1
3.816866 25.570469 -20.049827 32.717165 1.422622 2.230424 0.114395 -0.032431 99767.000000 0 0 1
3.774066 24.361849 -19.313127 31.316771 1.417101 2.235343 0.119057 -0.040231 33045.400000 0 0 1
4.439766 23.323889 -20.017327 31.054930 1.382694 2.271268 0.108116 -0.023806 94069.000000 0 0 1
4.825566 22.095119 -19.154927 29.637672 1.355773 2.273526 0.101981 -0.024122 -639066.000000 0 0 1
3.866166 21.148719 -18.904227 28.628401 1.389984 2.292056 0.134898 -0.019627 -560187.000000 0 0 1
4.502866 20.127019 -18.138727 27.466090 1.350698 2.292154 0.106251 -0.013605 147282.000000 0 0 1
3.586766 18.935219 -17.956027 26.340583 1.383591 2.320862 0.099968 -0.021363 344194.000000 0 0 1
2.444666 19.239919 -17.126927 25.874360 1.444411 2.294182 0.102630 -0.017581 513768.000000 0 0 1
1.638566 18.065919 -16.840927 24.752356 1.480345 2.319073 0.070036 -0.010937 50284.800000 0 1 0
2.165566 16.931219 -15.946527 23.359101 1.443583 2.322205 0.056923 -0.002786 183196.000000 0 1 0
3.269066 16.074919 -16.267627 23.102500 1.370168 2.352022 0.065064 -0.017687 198767.000000 0 1 0
2.965266 15.037319 -17.161427 23.009310 1.376100 2.412602 0.068976 -0.017829 -234448.000000 0 1 0
3.060166 15.429419 -18.631827 24.383941 1.375004 2.440445 0.075512 -0.019517 378988.000000 0 1 0
4.393466 15.749019 -19.047427 25.102562 1.298745 2.432241 0.079111 -0.022537 494848.000000 0 0 1
4.447866 15.914419 -20.458827 26.298590 1.298264 2.462183 0.084281 -0.019555 -199136.000000 0 0 1
4.623366 14.637119 -21.359827 26.303288 1.264848 2.518468 0.077505 -0.041258 339370.000000 0 0 1
3.485066 13.818419 -21.553127 25.838570 1.323744 2.557378 0.073731 -0.036219 98623.600000 0 0 1
2.384866 14.233619 -22.308127 26.569457 1.404787 2.567371 0.068608 -0.029951 38250.000000 0 0 1
1.478666 13.143419 -22.885727 26.432791 1.458765 2.617560 0.066933 -0.025612 145757.000000 0 0 1
0.957766 12.229719 -21.874027 25.079003 1.492641 2.630488 0.067035 -0.022738 809701.000000 0 0 1
-0.102234 11.446419 -22.435727 25.187156 -1.561865 2.669812 0.046067 -0.009181 375132.000000 0 0 1
-0.795734 10.419919 -21.446927 23.857464 -1.494578 2.688188 0.035414 -0.011230 -351216.000000 0 1 0
-1.836834 11.018419 -20.673827 23.498652 -1.405610 2.646212 0.035735 -0.008281 118135.000000 0 1 0
-2.279934 10.148919 -19.670227 22.251213 -1.349817 2.655162 0.024536 -0.003349 129630.000000 0 1 0
-3.285234 9.069319 -20.128927 22.320820 -1.223263 2.694714 0.022902 -0.002027 -444084.000000 0 1 0
-2.691334 8.041319 -20.894527 22.549664 -1.247827 2.756066 0.018542 -0.000083 -119253.000000 0 1 0
-3.677034 7.053519 -21.127827 22.575602 -1.090250 2.781516 0.013967 0.002803 -42987.800000 0 1 0
-3.147034 5.785319 -21.798327 22.771491 -1.072595 2.848185 0.014820 -0.015697 -419826.000000 0 1 0
-2.253034 5.093319 -20.934227 21.662408 -1.154322 2.881573 0.019664 -0.012994 -36990.800000 0 1 0
-1.967334 3.853219 -21.523827 21.954335 -1.098729 2.943231 0.025692 -0.020834 -952015.000000 0 1 0
-1.015734 3.037819 -20.720827 20.966944 -1.248120 2.988221 0.027859 -0.021612 -1148170.000000 0 1 0
0.328966 3.294519 -21.005927 21.265255 1.471274 2.985261 0.020001 -0.008313 -568886.000000 0 1 0
1.107966 2.362819 -20.259027 20.426421 1.132323 3.013482 0.025431 -0.004421 -158593.000000 0 1 0
2.623766 2.498319 -20.431027 20.749762 0.760911 2.966091 0.024699 -0.003329 63709.800000 0 1 0
3.177366 1.887719 -21.638327 21.951682 0.536080 2.972425 0.045917 -0.000154 -549187.000000 0 1 0
4.551266 1.768119 -21.438727 21.987708 0.370544 2.917663 0.069810 -0.003401 -807463.000000 0 1 0
5.164966 1.013919 -22.674527 23.277438 0.193842 2.913498 0.070056 -0.005900 -723038.000000 0 1 0
6.513166 0.730919 -22.483427 23.419225 0.111754 2.857947 0.063777 -0.012604 -701254.000000 0 1 0
7.140466 0.385919 -23.672427 24.728911 0.053994 2.848232 0.066557 -0.017871 -202326.000000 0 1 0
8.680566 0.298719 -23.523627 25.075935 0.034399 2.787887 0.067123 -0.025472 120871.000000 0 0 1
9.126666 1.645519 -23.403427 25.173879 0.178381 2.764315 0.060828 -0.032660 -1166680.000000 0 0 1
10.494966 1.743919 -23.484527 25.781943 0.164663 2.716233 0.056295 -0.028854 -1374290.000000 0 0 1
14.487166 -21.319998 22.468373 34.194270 -0.973954 0.853858 0.037962 -0.000158 610084.000000 0 0 1
13.221766 -21.940298 22.808773 34.299153 -1.028449 0.843309 0.032352 0.010099 1862530.000000 0 0 1
12.007466 -21.199998 22.568573 33.210836 -1.055457 0.823641 0.019570 0.001463 1109490.000000 0 0 1
11.625966 -21.098798 21.089073 32.016736 -1.067166 0.851721 0.018403 -0.010648 -621402.000000 0 0 1
11.962666 -19.855998 20.423773 30.894927 -1.028562 0.848550 0.014190 -0.011785 -149517.000000 0 0 1
11.400866 -19.699198 19.178973 29.763588 -1.046150 0.870588 0.040768 -0.015845 -199355.000000 0 0 1
11.662566 -18.258398 18.624473 28.570186 -1.002370 0.860729 0.055413 -0.027098 -199301.000000 0 0 1
10.943366 -17.220998 19.238373 28.043449 -1.004706 0.814791 0.057837 -0.030730 -284212.000000 0 0 1
11.093266 -15.988898 18.599973 26.919592 -0.964236 0.808000 0.065394 -0.028466 342902.000000 0 0 1
9.950666 -14.981298 18.998773 26.161201 -0.984499 0.757990 0.081684 -0.024728 519153.000000 0 0 1
8.708366 -15.295998 18.433073 25.486886 -1.053239 0.762317 0.069040 -0.023628 -516481.000000 0 0 1
7.711466 -14.355698 18.780473 24.864813 -1.077856 0.714680 0.052529 -0.020567 677916.000000 0 1 0
6.275366 -14.736998 18.290073 24.312262 -1.168228 0.719253 0.039086 -0.017290 472680.000000 0 1 0
5.989266 -14.914198 16.915173 23.332974 -1.188927 0.759839 0.029208 -0.014497 206128.000000 0 1 0
4.608066 -15.187498 16.712673 23.047946 -1.276212 0.759578 0.016944 -0.010139 302192.000000 0 1 0
3.986366 -16.594998 16.848273 23.982272 -1.335048 0.791850 0.014930 -0.003338 715646.000000 0 1 0
2.591166 -16.573798 16.518773 23.543041 -1.415711 0.793098 0.017337 -0.002521 600512.000000 0 1 0
1.871966 -17.786998 16.666273 24.446804 -1.465939 0.820663 0.033499 -0.012542 -93598.400000 0 1 0
0.404666 -17.607298 16.306973 24.002043 -1.547817 0.823853 0.038674 -0.008759 -500037.000000 0 1 0
0.238966 -17.426298 14.916173 22.939599 -1.557084 0.862900 0.032532 -0.011783 663356.000000 0 1 0
-1.169334 -17.254698 14.661873 22.672946 1.503131 0.867588 0.024930 -0.015516 889070.000000 0 1 0
-1.585634 -18.113198 13.390673 22.581238 1.483479 0.936017 0.014641 -0.010727 292725.000000 0 1 0
-2.939334 -18.555098 13.421273 23.088134 1.413691 0.950463 0.007072 -0.002489 186651.000000 0 1 0
-3.218234 -19.699798 12.601373 23.605797 1.408863 1.007678 0.018571 -0.011843 370257.000000 0 1 0
-4.722934 -19.905798 12.289473 23.865834 1.337840 1.029859 0.020589 -0.015406 304028.000000 0 1 0
-5.485534 -20.296898 13.391273 24.927522 1.306838 1.003673 0.025197 -0.018298 -292665.000000 0 1 0
-6.052734 -21.598298 13.305673 26.079935 1.297564 1.035393 0.013781 -0.008861 140479.000000 0 0 1
-6.859734 -22.049798 14.543073 27.290117 1.269186 1.008765 0.031208 -0.016271 1193500.000000 0 0 1
-8.176934 -21.494198 14.785773 27.340115 1.207278 0.999398 0.039082 -0.017593 901180.000000 0 0 1
-8.936534 -22.469098 15.495673 28.719991 1.192252 1.000902 0.049066 -0.023925 -724172.000000 0 0 1
-10.419734 -22.184098 15.412673 28.952643 1.131686 1.009433 0.061748 -0.018327 -836548.000000 0 0 1
-10.661734 -20.994398 16.136973 28.545389 1.100899 0.969988 0.038906 -0.014151 -636193.000000 0 0 1
-11.980834 -20.551998 15.975173 28.655386 1.043006 0.979434 0.029668 -0.009567 -505708.000000 0 0 1
-12.247334 -19.346498 16.888473 28.451796 1.006428 0.935294 0.042800 -0.008870 -363104.000000 0 0 1
-12.307434 -19.686798 18.260473 29.537905 1.012081 0.904340 0.043571 -0.008296 -21404.300000 0 0 1
-12.744334 -18.626498 19.073573 29.549376 0.970750 0.869143 0.039940 -0.008521 -161298.000000 0 0 1
-13.080434 -19.110798 20.492673 30.923615 0.970581 0.846396 0.040270 -0.008410 -66999.400000 0 0 1
-14.204534 -19.976198 20.432273 31.910735 0.952677 0.875915 0.050676 -0.006516 72830.300000 0 0 1
-14.637934 -20.445998 21.698773 33.213622 0.949458 0.858849 0.042386 0.003550 325280.000000 0 0 1
-16.101634 -20.958898 21.566573 34.112389 0.915718 0.886380 0.046506 -0.009171 -221097.000000 0 0 1
-16.265434 -22.054698 20.644773 34.310067 0.935341 0.925154 0.053338 -0.010212 787224.000000 0 0 1
-17.635734 -22.155398 20.233073 34.803132 0.898498 0.950400 0.044844 -0.012420 971220.000000 0 0 1
-18.639134 -22.839598 21.212173 36.318326 0.886322 0.947072 0.055603 -0.018163 -672640.000000 0 0 1
-19.272834 -21.933698 22.053373 36.590716 0.849882 0.923911 0.066108 -0.015164 -118473.000000 0 0 1
-20.019734 -22.593598 23.052973 37.982890 0.845725 0.918604 0.053660 -0.023515 -36819.300000 0 0 1
-20.557034 -21.568398 24.078573 38.308812 0.809402 0.891123 0.053388 -0.016638 -432602.000000 0 0 1
-21.485634 -20.696198 23.514913 37.985737 0.766685 0.903269 0.061320 -0.005556 -169367.000000 0 0 1
-21.738834 -19.590698 24.358293 38.074910 0.733469 0.876628 0.069703 -0.012289 53676.700000 0 0 1
-22.813334 -18.682098 23.751803 37.863137 0.686166 0.892706 0.066402 -0.013723 -15196.400000 0 0 1
-22.300134 -18.170398 22.546573 36.548697 0.683707 0.906010 0.079749 -0.012439 167032.000000 0 0 1
-23.179234 -17.178898 22.050173 36.312553 0.637802 0.918223 0.065603 -0.011496 102946.000000 0 0 1
-22.710234 -16.542598 20.726773 34.914343 0.629547 0.935214 0.063822 -0.010923 39464.100000 0 0 1
-21.710734 -15.546398 20.720473 33.799178 0.621430 0.910885 0.090011 -0.014372 -107269.000000 0 0 1
-21.303434 -15.221798 19.430673 32.605068 0.620407 0.932360 0.082018 -0.008992 297791.000000 0 0 1
-20.438334 -13.944298 19.151173 31.287958 0.598722 0.912090 0.078957 -0.017267 569885.000000 0 0 1
-19.884834 -13.986598 17.833573 30.150752 0.612991 0.937903 0.078516 -0.018508 105034.000000 0 0 1
-19.047634 -12.898498 17.495573 28.901188 0.595239 0.920580 0.076798 -0.023071 -318109.000000 0 0 1
-18.382134 -13.080998 16.116273 27.726334 0.618479 0.950517 0.057874 -0.029635 -125048.000000 0 0 1
-17.887834 -11.895398 15.585873 26.540432 0.586847 0.943139 0.059195 -0.014459 396658.000000 0 0 1
-16.525134 -11.652698 15.938473 25.746851 0.614174 0.903270 0.045261 -0.018283 -4787.150000 0 0 1
-15.957634 -10.441798 15.255973 24.421751 0.579424 0.896065 0.049680 -0.006967 -129856.000000 0 1 0
-16.579434 -9.283298 15.763973 24.689270 0.510434 0.878255 0.044885 0.000342 179362.000000 0 1 0
-16.249934 -8.143198 14.976473 23.551364 0.464545 0.881613 0.035291 0.008085 -648909.000000 0 1 0
-16.501134 -6.777798 15.602173 23.699235 0.389737 0.852184 0.057038 0.011025 350848.000000 0 1 0
-15.716334 -6.322298 16.720073 23.802005 0.382467 0.791941 0.035535 0.004944 -616401.000000 0 1 0
-14.359234 -6.245598 16.470973 22.726373 0.410271 0.760123 0.031581 -0.002539 -1138910.000000 0 1 0
-13.461934 -6.222698 17.758273 23.136592 0.432989 0.695801 0.024689 0.003803 98554.600000 0 1 0
-13.580434 -7.381298 18.609473 24.191408 0.497858 0.693115 0.021050 -0.010137 -186489.000000 0 1 0
-13.282734 -8.628898 18.006073 23.981400 0.576117 0.721471 0.030441 -0.009378 -525072.000000 0 1 0
-13.531034 -9.884398 18.908373 25.264931 0.630903 0.725144 0.032801 -0.008800 300259.000000 0 0 1
-14.862034 -10.211698 19.247973 26.375050 0.602015 0.752797 0.045458 -0.015698 -242253.000000 0 0 1
-15.528534 -9.452698 20.170673 27.154095 0.546815 0.733520 0.041820 -0.014592 65701.100000 0 0 1
-16.991534 -10.021498 20.521273 28.465159 0.532881 0.765659 0.047325 -0.014147 1988010.000000 0 0 1
-17.919834 -10.080798 19.421873 28.283424 0.512427 0.813874 0.061736 -0.010271 480375.000000 0 0 1
-18.248334 -8.758798 18.947873 27.726163 0.447502 0.818396 0.058838 -0.007196 -967959.000000 0 0 1
-19.361734 -8.839498 17.875873 27.794969 0.428283 0.872213 0.079326 -0.002283 723661.000000 0 0 1
-20.665834 -8.926998 18.453573 29.108458 0.407759 0.884134 0.081012 -0.014966 71049.800000 0 0 1
-21.686534 -9.107598 17.508773 29.322537 0.397599 0.930903 0.082331 -0.010444 -325760.000000 0 0 1
-22.998334 -9.392498 18.235973 30.817090 0.387726 0.937570 0.088038 -0.013168 -474663.000000 0 0 1
-23.607834 -8.326998 18.937873 31.389675 0.339098 0.923145 0.089380 -0.007044 970686.000000 0 0 1
-25.029234 -8.496198 19.007573 32.556654 0.327246 0.947357 0.086790 -0.007706 818199.000000 0 0 1
-25.858574 -7.374298 19.685573 33.325184 0.277804 0.938856 0.091445 -0.012033 -18193.600000 0 0 1
-25.674614 -7.407698 21.094073 34.044378 0.280894 0.902557 0.100768 -0.019924 405450.000000 0 0 1
-26.584024 -6.541098 21.771273 34.978344 0.241261 0.898964 0.095192 -0.024508 -292048.000000 0 0 1
-26.350394 -6.628098 23.359363 35.832035 0.246425 0.860692 0.092000 -0.019407 1334730.000000 0 0 1
-25.055964 -6.359798 23.958313 35.245554 0.248574 0.823369 0.079919 -0.020751 1024360.000000 0 0 1
-23.950534 -7.142598 23.556143 34.344383 0.289826 0.814983 0.090658 -0.020595 -457910.000000 0 0 1
-22.727234 -6.927898 24.459023 34.099365 0.295880 0.770896 0.082528 -0.020307 -150477.000000 0 0 1
-22.257934 -5.624198 24.490593 33.568383 0.247502 0.753099 0.061275 -0.018643 125051.000000 0 0 1
-21.408734 -5.339698 25.597603 33.794726 0.244430 0.711407 0.075133 -0.015492 168776.000000 0 0 1
-21.086234 -3.843498 25.675653 33.446089 0.180296 0.695595 0.060175 -0.012098 858256.000000 0 0 1
-19.940834 -3.447198 26.475693 33.323900 0.171180 0.652620 0.051604 -0.010315 581659.000000 0 0 1
-20.153234 -3.486498 27.910833 34.602356 0.171304 0.632391 0.059773 -0.016016 447797.000000 0 0 1
-21.009634 -2.321998 28.581213 35.548306 0.110074 0.636787 0.063371 -0.020216 697479.000000 0 0 1
-22.335834 -2.258898 28.118673 35.981270 0.100791 0.673761 0.061537 -0.021357 -450577.000000 0 0 1
-23.140334 -1.232598 28.652563 36.850559 0.053216 0.680062 0.067533 -0.024144 1080210.000000 0 0 1
-24.454434 -0.946998 27.849203 37.074172 0.038706 0.720956 0.070014 -0.029753 5287.930000 0 0 1
-24.180934 -0.384898 26.573213 35.930507 0.015916 0.738361 0.045670 -0.034023 42014.700000 0 0 1
-25.334774 -0.020498 25.815793 36.170517 0.000809 0.775995 0.064262 -0.031793 542681.000000 0 0 1
-26.301804 -1.174098 25.322403 36.529268 0.044610 0.804865 0.058944 -0.024643 -124973.000000 0 0 1
-27.011474 -1.641698 26.416333 37.817159 0.060703 0.797458 0.060270 -0.022287 -99635.000000 0 0 1
-27.845714 -2.803898 26.193753 38.332209 0.100356 0.818475 0.056010 -0.027100 817182.000000 0 0 1
-27.044624 -4.185998 26.162423 37.860357 0.153563 0.807891 0.069792 -0.028322 404613.000000 0 0 1
-26.732104 -4.600698 27.418263 38.568548 0.170434 0.780024 0.064113 -0.019425 -318651.000000 0 0 1
-25.815524 -5.673098 27.363243 38.044347 0.216317 0.768080 0.074814 -0.021532 -21998.400000 0 0 1
-25.539564 -6.208398 28.820993 39.005937 0.238464 0.739379 0.066830 -0.012931 -323786.000000 0 0 1
-26.639984 -6.710798 29.526473 40.330337 0.246773 0.749374 0.074291 -0.006451 -384267.000000 0 0 1
-26.285794 -7.414298 30.710423 41.097990 0.274922 0.726884 0.085266 -0.002179 301954.000000 0 0 1
-27.558784 -8.016998 31.396193 42.537980 0.283092 0.740584 0.040955 -0.005556 616961.000000 0 0 1
-28.130254 -9.061898 30.584943 42.530787 0.311644 0.768254 0.026090 -0.009074 252881.000000 0 0 1
-29.445654 -9.330998 31.057153 43.802520 0.306878 0.782679 0.033802 -0.004465 283572.000000 0 0 1
-30.188684 -10.252898 30.053553 43.814319 0.327404 0.814915 0.017693 -0.025626 -91400.300000 0 0 1
-29.963124 -11.610598 30.328033 44.185793 0.369681 0.814303 0.029454 -0.028278 149369.000000 0 0 1
-30.839684 -12.378898 29.557113 44.474106 0.381708 0.843849 0.005257 -0.019020 -141736.000000 0 0 1
-30.057244 -13.310798 28.604253 43.575435 0.416891 0.854719 0.020300 -0.026182 220900.000000 0 0 1
-29.180804 -12.684798 27.673863 42.169492 0.410055 0.854954 0.036943 -0.024908 58883.200000 0 0 1
-28.224084 -13.659798 27.252763 41.543977 0.450747 0.855292 0.044850 -0.028051 634810.000000 0 0 1
-26.906534 -12.982198 26.714613 40.077045 0.449544 0.841183 0.075665 -0.033003 602305.000000 0 0 1
-26.103614 -12.325998 27.712443 40.016351 0.441157 0.805809 0.077814 -0.035003 102802.000000 0 0 1
-26.515814 -11.027498 28.180553 40.234781 0.394124 0.794835 0.076500 -0.035948 -570002.000000 0 0 1
-26.656424 -9.885698 27.125383 39.294762 0.355133 0.808885 0.086573 -0.034953 123772.000000 0 0 1
-25.540954 -9.348798 26.422073 37.919207 0.350885 0.799871 0.096174 -0.033952 -102943.000000 0 0 1
-24.967434 -10.149298 25.428323 37.053753 0.386098 0.814469 0.084801 -0.036617 25867.000000 0 0 1
-25.717834 -10.155398 24.047033 36.644220 0.376083 0.854985 0.088675 -0.029826 134038.000000 0 0 1
-26.991894 -10.763698 24.020833 37.701723 0.379450 0.880030 0.081836 -0.027363 -495761.000000 0 0 1
-27.664804 -10.559898 22.837073 37.394982 0.364639 0.913853 0.103314 -0.017521 356072.000000 0 0 1
-29.087344 -11.205598 22.829173 38.636901 0.367718 0.938666 0.093155 -0.024804 992431.000000 0 0 1
-30.166694 -10.712398 23.632283 39.790321 0.341217 0.934873 0.077545 -0.023726 309316.000000 0 0 1
-29.995744 -10.822798 25.019243 40.531964 0.346273 0.905526 0.076591 -0.028294 -485359.000000 0 0 1
-31.394454 -10.677898 25.670693 41.935828 0.327847 0.912029 0.016788 -0.023169 -144845.000000 0 0 1
-31.908434 -9.359298 25.385343 41.834916 0.285315 0.918770 0.030266 -0.026486 -25661.700000 0 0 1
-33.280224 -9.191298 25.708173 43.046061 0.269462 0.930760 0.021196 -0.017811 373906.000000 0 0 1
-33.717824 -9.206398 27.172533 44.271841 0.266545 0.909975 0.003909 -0.009959 -742636.000000 0 0 1
-33.805194 -10.563798 27.547663 44.869351 0.302876 0.909738 0.007497 -0.021875 -233468.000000 0 0 1
-34.201256 -10.631398 28.900883 46.021881 0.301379 0.891840 0.015879 -0.016830 -773313.000000 0 0 1
-34.649797 -12.073498 29.389883 47.012158 0.335288 0.895466 0.029022 -0.022097 963870.000000 0 0 1
-35.895733 -12.583798 28.881523 47.759794 0.337178 0.921376 0.023024 -0.019561 1606580.000000 0 0 1
35.756378 -11.857198 29.163853 47.640760 -0.320199 0.912005 0.029172 -0.019112 -189843.000000 0 0 1
34.553128 -12.379498 28.408963 46.413789 -0.344027 0.912108 0.036190 -0.017899 -419809.000000 0 0 1
34.483618 -12.014198 27.031873 45.433281 -0.335251 0.933556 0.033793 -0.015950 -361313.000000 0 0 1
33.348598 -12.646298 26.493743 44.429452 -0.362461 0.931899 0.047445 -0.012991 -72722.400000 0 0 1
33.054548 -12.209398 25.026433 43.220306 -0.353827 0.953241 0.046944 -0.021510 28798.600000 0 0 1
32.713688 -10.823798 24.947773 42.540937 -0.319527 0.944138 0.045720 -0.029571 -99987.200000 0 0 1
32.568968 -10.538698 23.639053 41.600560 -0.312948 0.966432 0.042926 -0.024258 -495371.000000 0 0 1
32.155458 -9.074298 23.519083 40.859070 -0.275048 0.957441 0.042614 -0.000461 -561195.000000 0 0 1
30.783688 -8.989398 23.779563 39.923831 -0.284118 0.932755 0.049743 -0.014523 -581973.000000 0 0 1
30.345878 -7.627898 23.441883 39.097046 -0.246263 0.927818 0.051309 -0.006592 -180394.000000 0 0 1
28.842408 -7.352898 23.426113 37.877861 -0.249617 0.904009 0.038468 0.003032 -522474.000000 0 0 1
28.273918 -8.051798 22.356573 36.933213 -0.277434 0.920623 0.029134 0.012333 -389623.000000 0 0 1
26.877988 -7.834798 22.291373 35.787087 -0.283636 0.898366 0.028412 -0.009657 151542.000000 0 0 1
14.816866 -17.866598 25.690613 34.623149 -0.878440 0.734737 0.038381 0.007293 -301284.000000 0 0 1
14.234066 -19.147398 25.731923 35.090787 -0.931536 0.747640 0.032214 0.008330 409490.000000 0 0 1
15.129266 -20.130298 26.245353 36.372272 -0.926293 0.764721 0.035461 -0.001809 -1015810.000000 0 0 1
14.421566 -21.472398 26.362293 36.932586 -0.979364 0.775894 0.029117 -0.009870 158838.000000 0 0 1
13.526566 -21.558898 27.477533 37.453556 -1.010456 0.747129 0.024948 -0.010331 -194800.000000 0 0 1
12.289866 -20.985998 27.183723 36.474754 -1.041016 0.729849 0.025905 -0.005084 -1620960.000000 0 0 1
11.365866 -20.797598 28.367973 36.965726 -1.070645 0.696000 0.016770 -0.001672 -281642.000000 0 0 1
11.998366 -20.124798 29.426873 37.615278 -1.033177 0.672428 0.016914 -0.007020 -261464.000000 0 0 1
11.048066 -19.557598 30.285803 37.706621 -1.056586 0.638156 0.016551 -0.003473 -75807.900000 0 0 1
10.877966 -18.016298 30.166183 36.782003 -1.027599 0.609151 0.023009 -0.006246 784652.000000 0 0 1
12.031066 -17.253498 30.622693 37.150761 -0.961877 0.601864 0.017242 0.000228 354926.000000 0 0 1
11.740166 -15.904698 30.408583 36.269448 -0.934918 0.576441 0.036587 -0.009266 -445249.000000 0 0 1
12.814566 -14.823898 30.671653 36.396584 -0.857971 0.568505 0.038560 -0.001585 -259050.000000 0 0 1
12.468466 -13.614098 30.176713 35.375702 -0.829293 0.549023 0.071751 -0.004349 -176741.000000 0 0 1
13.409466 -12.575498 30.367213 35.498233 -0.753315 0.544364 0.067925 -0.001423 -234657.000000 0 0 1
12.897666 -11.191198 29.844343 34.384262 -0.714676 0.519706 0.077405 -0.014840 108684.000000 0 0 1
13.317766 -10.842498 28.504623 33.278164 -0.683302 0.542237 0.092386 -0.013028 -931199.000000 0 0 1
14.656466 -10.817798 28.197943 33.570236 -0.635835 0.573571 0.083030 -0.006490 -1375030.000000 0 0 1
15.010666 -9.906498 26.980123 32.425080 -0.583348 0.587957 0.080992 -0.003182 113468.000000 0 0 1
15.166366 -8.503098 27.141363 32.233134 -0.510987 0.569755 0.089736 -0.008288 -1177200.000000 0 0 1
16.335366 -8.158398 27.730653 33.202300 -0.463193 0.582295 0.089353 -0.010812 -1562570.000000 0 0 1
16.846766 -6.735698 27.413823 32.874015 -0.380352 0.584650 0.085162 -0.011908 -299762.000000 0 0 1
18.192866 -6.480398 27.698033 33.766210 -0.342192 0.608881 0.078029 -0.015169 -308858.000000 0 0 1
18.558466 -5.235698 27.130073 33.284682 -0.274973 0.617909 0.079683 -0.015590 999635.000000 0 0 1
20.117766 -5.000298 27.020783 34.056573 -0.243615 0.654407 0.077763 -0.015329 894252.000000 0 0 1
20.735666 -5.984198 26.183633 33.931712 -0.280960 0.689355 0.077977 -0.007377 1229240.000000 0 0 1
22.146066 -5.803098 25.937903 34.596228 -0.256276 0.723139 0.066207 -0.004130 1702420.000000 0 0 1
23.199666 -6.126598 27.072633 36.175781 -0.258187 0.725205 0.063176 -0.016329 173301.000000 0 0 1
23.624066 -4.917298 27.733703 36.761863 -0.205218 0.716034 0.080272 -0.025312 233375.000000 0 0 1
24.478966 -5.208598 28.835693 38.181756 -0.209652 0.714804 0.082959 -0.036389 25618.100000 0 0 1
25.149166 -3.951798 29.406753 38.895429 -0.155860 0.713545 0.093521 -0.034574 -388870.000000 0 0 1
26.131166 -3.466098 28.535313 38.847339 -0.131873 0.745793 0.069545 -0.029020 -334514.000000 0 0 1
26.300266 -2.102698 28.783503 39.046323 -0.079780 0.741934 0.054244 -0.033582 -244427.000000 0 0 1
27.375166 -1.477898 27.867733 39.092128 -0.053934 0.777210 0.048985 -0.030272 592961.000000 0 0 1
28.699566 -1.946698 28.144313 40.243721 -0.067726 0.796313 0.062682 -0.030214 222739.000000 0 0 1
29.569066 -1.420998 27.157663 40.173219 -0.048020 0.828456 0.050014 -0.014558 -945553.000000 0 0 1
31.003266 -1.235298 27.543143 41.489194 -0.039823 0.844824 0.039441 -0.013231 -1099990.000000 0 0 1
31.210466 -0.204198 28.533953 42.288549 -0.006543 0.830178 0.025384 -0.001824 515761.000000 0 0 1
32.565666 -0.089198 28.985973 43.597215 -0.002739 0.843492 0.037654 -0.009040 726720.000000 0 0 1
32.754466 1.098902 29.934843 44.386456 0.033537 0.830626 0.031420 -0.021941 -311146.000000 0 0 1
32.698466 2.314602 29.236703 43.924160 0.070668 0.842475 0.024206 -0.010511 125516.000000 0 0 1
32.848266 3.455202 30.087603 44.678975 0.104801 0.831974 0.022166 -0.014358 -97954.800000 0 0 1
33.144466 4.855002 29.486963 44.627432 0.145446 0.848997 0.030012 -0.004610 17202.500000 0 0 1
33.125766 5.967402 30.344013 45.317606 0.178232 0.837146 0.036328 -0.003122 1387850.000000 0 0 1
31.806966 6.323702 30.868953 44.772364 0.196256 0.810047 0.040053 0.001141 1140600.000000 0 0 1
31.906066 7.185602 32.159143 45.867640 0.221515 0.793816 0.042741 0.000134 -338066.000000 0 0 1
32.571966 6.438402 33.149345 46.917641 0.195151 0.786195 0.032626 0.011370 -37594.000000 0 0 1
32.762866 7.086702 -34.012737 47.754508 0.213021 2.363483 0.031479 0.003466 -469257.000000 0 0 1
33.481966 6.292102 -32.871207 47.340774 0.185759 2.338317 0.052607 0.002981 -130593.000000 0 0 1
32.855766 5.168902 -32.283797 46.351510 0.156042 2.341304 0.036283 0.009193 118562.000000 0 0 1
32.583466 4.036602 -33.107747 46.627239 0.123257 2.360368 0.054826 -0.003603 -212598.000000 0 0 1
32.382466 2.765902 -32.186567 45.741114 0.085207 2.351343 0.047400 -0.014491 -145121.000000 0 0 1
32.491966 1.556502 -32.860427 46.238061 0.047868 2.361259 0.049254 -0.016416 -80581.400000 0 0 1
32.543066 0.527602 -31.869897 45.552386 0.016211 2.345678 0.047905 -0.023765 -125109.000000 0 0 1
32.760166 -0.880498 -32.491307 46.148552 -0.026871 2.351894 0.059395 -0.044052 -1090100.000000 0 0 1
33.932666 -0.958698 -33.249567 47.517141 -0.028245 2.345828 0.055766 -0.030739 -546619.000000 0 0 1
34.812766 -1.983498 -32.843927 47.901843 -0.056915 2.326293 0.070121 -0.024933 122803.000000 0 0 1
35.572766 -1.840898 -31.499207 47.550086 -0.051704 2.294871 0.066692 -0.023995 -499615.000000 0 0 1
34.741466 -1.975498 -30.335207 46.163805 -0.056802 2.287789 0.070007 -0.023834 41065.100000 0 0 1
35.524566 -1.913998 -29.178737 46.011487 -0.053826 2.257721 0.082206 -0.021944 -9782.110000 0 0 1
34.763066 -1.505798 -27.873227 44.583125 -0.043289 2.246180 0.088116 -0.018249 6953.500000 0 0 1
34.402466 -0.144498 -27.781837 44.219691 -0.004200 2.250122 0.074102 -0.009184 372001.000000 0 0 1
33.632466 0.134202 -26.618797 42.891971 0.003990 2.240305 0.081066 -0.005346 -67500.100000 0 0 1
33.250266 1.616302 -26.548587 42.579574 0.048572 2.244014 0.063787 -0.000527 574290.000000 0 0 1
32.153966 1.802702 -27.474397 42.331664 0.056006 2.277101 0.076060 -0.015815 644619.000000 0 0 1
31.531166 3.049202 -27.349847 41.851239 0.096405 2.282998 0.059531 0.003015 -174484.000000 0 0 1
30.450066 3.168402 -28.443257 41.788326 0.103679 2.319447 0.068735 0.001105 -442641.000000 0 0 1
29.597066 4.244802 -28.197937 41.099007 0.142448 2.326908 0.070699 0.001848 141678.000000 0 0 1
28.822166 4.516402 -29.377127 41.402062 0.155435 2.359666 0.067114 -0.000041 641695.000000 0 0 1
27.663966 5.569402 -29.213317 40.616883 0.198668 2.373505 0.064640 -0.003615 759578.000000 0 0 1
26.519266 5.099902 -28.504557 39.265637 0.189990 2.383199 0.072650 -0.007690 358240.000000 0 0 1
25.742366 6.111302 -27.946867 38.484345 0.233087 2.383557 0.077979 -0.005377 158865.000000 0 0 1
24.298466 5.681002 -27.568237 37.184633 0.229675 2.405933 0.072842 -0.005603 542757.000000 0 0 1
23.376566 5.397702 -28.611907 37.339527 0.226925 2.443801 0.072262 -0.010652 753339.000000 0 0 1
22.214266 4.694502 -28.189647 36.196246 0.208264 2.463547 0.075278 -0.012830 389974.000000 0 0 1
21.286566 4.257002 -29.313537 36.476341 0.197381 2.504169 0.068490 -0.013434 91070.700000 0 0 1
21.890066 3.111302 -29.907197 37.192683 0.141187 2.504982 0.056134 -0.013941 495997.000000 0 0 1
21.047566 2.539302 -30.903477 37.476299 0.120066 2.540316 0.037606 -0.011994 3091.920000 0 0 1
21.169766 3.033002 -32.399277 38.821016 0.142302 2.558168 0.049383 -0.002326 -396573.000000 0 0 1
22.360466 2.658302 -33.015937 39.963848 0.118329 2.543028 0.039508 -0.000741 -665770.000000 0 0 1
22.466566 3.340702 34.163042 41.024630 0.147615 0.586750 0.042577 -0.006041 -61198.000000 0 0 1
23.775666 3.131702 33.375269 41.097426 0.130965 0.623052 0.038642 0.001535 31089.500000 0 0 1
23.939866 1.733602 33.040869 40.838971 0.072289 0.628258 0.058635 -0.009125 239897.000000 0 0 1
25.282466 1.393502 32.722218 41.374974 0.055062 0.658567 0.063826 -0.019195 -262332.000000 0 0 1
25.656166 -0.101498 32.526994 41.427702 -0.003956 0.667857 0.063828 -0.030514 -823594.000000 0 0 1
25.192166 -0.786898 31.405403 40.268645 -0.031226 0.676295 0.072387 -0.028213 610747.000000 0 0 1
23.771666 -0.803998 31.236803 39.261640 -0.033809 0.650789 0.074062 -0.028846 672416.000000 0 0 1
22.920266 -1.738598 32.181313 39.547417 -0.075709 0.620238 0.067045 -0.029743 -211672.000000 0 0 1
23.194066 -3.137698 32.007673 39.652250 -0.134464 0.631387 0.080191 -0.040967 398270.000000 0 0 1
22.398166 -3.920398 32.920958 40.010459 -0.173277 0.604461 0.082901 -0.029859 267943.000000 0 0 1
22.248966 -5.373198 32.415508 39.681896 -0.236966 0.614808 0.084488 -0.028277 -701524.000000 0 0 1
23.482666 -5.971798 32.247933 40.336425 -0.249028 0.644377 0.086038 -0.030352 -901819.000000 0 0 1
23.399766 -7.394998 32.047563 40.364357 -0.306096 0.653506 0.086028 -0.030146 -453798.000000 0 0 1
24.694966 -8.207998 31.863953 41.140297 -0.320888 0.684842 0.072159 -0.030249 -114503.000000 0 0 1
25.370566 -7.887398 30.663493 40.572484 -0.301415 0.713966 0.076591 -0.031856 -205925.000000 0 0 1
26.523366 -8.689498 30.457833 41.311934 -0.316597 0.741784 0.063306 -0.028279 536201.000000 0 0 1
27.147766 -8.405598 29.057053 40.644404 -0.300263 0.774302 0.057839 -0.027596 212904.000000 0 0 1
26.234666 -8.807998 28.072823 39.419816 -0.323914 0.778240 0.051503 -0.019865 -135588.000000 0 0 1
26.671966 -8.381998 26.783983 38.717353 -0.304490 0.806842 0.059272 -0.016180 193250.000000 0 0 1
25.924566 -9.152398 25.658033 37.605640 -0.339380 0.819903 0.031553 -0.011917 -467306.000000 0 0 1
24.568466 -8.868998 25.532203 36.526183 -0.346433 0.796783 0.031793 -0.011391 -1008110.000000 0 0 1
24.072866 -9.709198 24.555423 35.731502 -0.383370 0.813140 0.032901 -0.013387 -575296.000000 0 0 1
22.626366 -9.383598 24.187263 34.424236 -0.393131 0.791719 0.031857 -0.003159 -1049630.000000 0 0 1
21.726066 -9.688598 25.185053 34.643582 -0.419475 0.756889 0.028071 0.002281 -609998.000000 0 0 1
20.470766 -9.262898 24.669313 33.368077 -0.424926 0.738753 0.045633 0.009207 631961.000000 0 0 1
19.387366 -9.038598 25.806363 33.519167 -0.436253 0.692114 0.064207 -0.003057 565751.000000 0 0 1
18.645866 -10.134198 26.420713 33.888410 -0.497846 0.676708 0.069209 -0.000682 451163.000000 0 0 1
19.408866 -11.201098 27.013893 35.098705 -0.523420 0.692496 0.049706 0.000974 -109424.000000 0 0 1
18.631166 -12.218598 27.911373 35.713572 -0.580452 0.673675 0.054605 -0.000465 140059.000000 0 0 1
17.733366 -12.993698 27.128613 34.918048 -0.632354 0.681034 0.059017 0.001364 48128.600000 0 0 1
16.970666 -13.893498 27.877523 35.470961 -0.686026 0.666605 0.055039 0.003227 -309244.000000 0 0 1
17.724666 -15.112298 28.416293 36.742769 -0.706010 0.686633 0.058098 0.009298 -378982.000000 0 0 1
16.854566 -16.090098 28.961103 37.171402 -0.762198 0.677530 0.059564 0.005567 130551.000000 0 0 1
17.459466 -17.314298 29.342993 38.283536 -0.781224 0.697477 0.065078 0.005792 63862.600000 0 0 1
18.065766 -18.268098 28.240283 38.178644 -0.790967 0.738190 0.057647 0.001105 202711.000000 0 0 1
19.190666 -17.834898 27.513843 37.991799 -0.748797 0.760916 0.069528 -0.004330 70762.000000 0 0 1
19.465266 -18.696498 26.466533 37.801230 -0.765256 0.795189 0.066723 0.005438 268746.000000 0 0 1
20.716966 -18.181298 25.697633 37.684488 -0.720303 0.820418 0.047422 -0.014336 351947.000000 0 0 1
21.944466 -18.202498 26.389823 38.849881 -0.692460 0.824020 0.054655 -0.009652 296231.000000 0 0 1
22.974466 -17.564698 25.621053 38.636551 -0.652736 0.845804 0.052315 -0.008821 229315.000000 0 0 1
24.316366 -17.440198 26.362943 39.880458 -0.622190 0.848580 0.064373 -0.012336 -118458.000000 0 0 1
25.073966 -18.604898 26.493083 40.947887 -0.638362 0.867159 0.070784 -0.016304 -818372.000000 0 0 1
26.354466 -18.370498 26.960813 41.939463 -0.608746 0.872582 0.056900 -0.014755 -344964.000000 0 0 1
27.177466 -19.695598 27.201263 43.202314 -0.627114 0.889726 0.037836 -0.014930 252666.000000 0 0 1
26.665466 -20.483998 28.258733 43.922628 -0.655038 0.871897 0.040184 -0.008136 118703.000000 0 0 1
27.462666 -21.660898 28.422673 45.069290 -0.667837 0.888414 0.043718 -0.011880 289991.000000 0 0 1
26.884766 -22.762398 29.368413 45.863069 -0.702555 0.875843 0.046631 -0.004496 19988.300000 0 0 1
26.782366 -22.453098 30.749033 46.550400 -0.697694 0.849240 0.059612 -0.011192 -189733.000000 0 0 1
26.074066 -23.504098 31.341823 47.059637 -0.733608 0.841960 0.076105 -0.008639 -455355.000000 0 0 1
25.614266 -23.374198 32.821632 47.746238 -0.739704 0.812868 0.072449 -0.010336 10944.100000 0 0 1
25.231766 -24.588098 33.401583 48.547733 -0.772479 0.812046 0.065057 -0.007253 -63709.500000 0 0 1
24.956166 -24.545998 -33.650227 48.555680 -0.777112 2.336471 0.072889 -0.005703 -224947.000000 0 0 1
24.819966 -25.972468 -33.101567 48.849909 -0.808085 2.315315 0.064795 -0.009108 503485.000000 0 0 1
23.636566 -26.743918 -33.351777 48.849417 -0.846998 2.322312 0.082661 -0.016588 293946.000000 0 0 1
23.506766 -27.230828 33.735345 49.316930 -0.858665 0.817493 0.075772 -0.011691 47030.500000 0 0 1
22.098366 -27.839948 33.542970 48.872603 -0.899869 0.814359 0.100198 -0.019380 238303.000000 0 0 1
22.046466 -29.178208 34.003040 49.936171 -0.923734 0.821764 0.090576 -0.029858 624139.000000 0 0 1
20.730566 -29.723278 33.879807 49.609182 -0.961782 0.819024 0.114476 -0.043309 298678.000000 0 0 1
20.677566 -31.184718 -34.011987 50.565440 -0.985290 2.308558 0.085793 -0.037505 -314461.000000 0 0 1
21.125066 -31.462518 -32.742667 50.082340 -0.979499 2.283361 0.056597 -0.036687 231619.000000 0 0 1
22.426466 -32.007928 -32.858097 51.059852 -0.959632 2.269886 0.025078 -0.015146 -291995.000000 0 0 1
23.104866 -32.586618 -31.584687 50.924601 -0.954036 2.239825 0.012090 -0.011117 -492272.000000 0 0 1
24.248766 -33.365888 -31.899787 52.142896 -0.942340 2.229101 0.003164 -0.003711 395054.000000 0 0 1
24.793866 -34.012808 -30.747007 52.124710 -0.940899 2.201699 -0.000693 0.005780 729115.000000 0 0 1
25.828866 -33.194708 -29.860407 51.581614 -0.909551 2.188171 0.001329 0.002213 72540.100000 0 0 1
26.401266 -33.941628 -28.783807 51.745228 -0.909712 2.160675 0.016457 0.001852 -288889.000000 0 0 1
27.157866 -33.046738 -28.048787 51.150475 -0.882902 2.151196 0.017002 -0.004715 -413671.000000 0 0 1
27.738366 -33.522308 -26.708867 51.054145 -0.879534 2.121337 0.026267 -0.012908 -195973.000000 0 0 1
28.878966 34.060103 -26.814927 52.087672 0.867533 2.111575 0.026550 0.005115 -770011.000000 0 0 1
29.874166 -34.014918 -25.873357 52.143179 -0.850119 2.090011 0.036667 -0.005642 246019.000000 0 0 1
-27.655964 -30.378415 8.863773 42.026978 0.832275 1.358294 0.047012 -0.005413 23353.400000 0 0 1
-27.597854 -31.611515 9.514373 43.028510 0.853082 1.347836 0.049597 -0.009872 149791.000000 0 0 1
-26.686104 -31.535915 10.619373 42.654814 0.868505 1.319189 0.046392 -0.012660 327673.000000 0 0 1
-26.687374 -32.812115 11.569573 43.848670 0.887975 1.303782 0.045493 -0.015294 3003.120000 0 0 1
-26.263584 -34.041215 11.029473 44.387266 0.913662 1.319683 0.050734 -0.011787 -65218.000000 0 0 1
-27.092844 33.276002 11.489873 44.422197 -0.887465 1.309170 0.034162 -0.017168 -182756.000000 0 0 1
-26.511364 31.872502 11.360273 42.985632 -0.876967 1.303338 0.059348 -0.014446 -3893.260000 0 0 1
-26.271594 31.576302 10.005273 42.277239 -0.876843 1.331871 0.073719 -0.026918 -71543.000000 0 0 1
-26.283164 30.196702 9.755273 41.204500 -0.854578 1.331774 0.082488 -0.026471 50385.900000 0 0 1
-25.859034 29.735002 8.300273 40.271013 -0.855005 1.363198 0.073097 -0.019491 -242174.000000 0 0 1
-24.471634 29.595802 8.166073 39.261394 -0.879890 1.361274 0.059699 -0.014233 -237492.000000 0 0 1
-23.980334 29.607902 6.827973 38.707951 -0.890030 1.393471 0.050500 -0.012263 -653634.000000 0 0 1
-22.581334 29.040902 6.723573 37.396484 -0.909883 1.390022 0.071739 -0.013090 -668512.000000 0 0 1
-22.556634 27.622002 6.822673 36.308753 -0.886004 1.381765 0.074894 -0.014421 86845.400000 0 0 1
-23.067334 26.843502 5.733673 35.854574 -0.860913 1.410192 0.055646 -0.016648 -275150.000000 0 0 1
-23.399934 25.343902 6.087473 35.027526 -0.825258 1.396118 0.060213 -0.015388 149080.000000 0 0 1
-24.572034 25.324502 6.916773 35.957711 -0.800478 1.377231 0.066637 -0.020349 672552.000000 0 0 1
-24.906634 23.976802 7.367373 35.348346 -0.766379 1.360835 0.064208 -0.028488 56510.500000 0 0 1
-25.467714 22.958102 6.289473 34.860240 -0.733621 1.389383 0.037358 -0.035187 -677367.000000 0 0 1
-26.851904 22.992702 6.042973 35.863722 -0.708128 1.401490 0.038273 -0.033756 -147757.000000 0 0 1
-27.167534 22.594602 4.705073 35.647281 -0.693760 1.438420 0.030073 -0.033795 -11638.000000 0 0 1
-26.861064 23.571802 3.579973 35.916052 -0.720270 1.470954 0.017730 -0.032970 -15735.200000 0 0 1
-25.455044 23.710302 3.400773 34.952867 -0.749926 1.473346 0.021349 -0.034199 543392.000000 0 0 1
-25.191274 24.442902 2.231473 35.171511 -0.770322 1.507308 0.029517 -0.033584 -352488.000000 0 0 1
-23.770334 25.002302 2.311673 34.575825 -0.810652 1.503888 0.045195 -0.034796 -377125.000000 0 0 1
-23.453534 25.766602 1.168673 34.861896 -0.832358 1.537267 0.035855 -0.039987 -579840.000000 0 0 1
-22.153534 26.284002 1.191573 34.395460 -0.870466 1.536146 0.051304 -0.041470 -976643.000000 0 0 1
-21.737934 26.836002 -0.181927 34.536095 -0.889970 1.576064 0.058768 -0.035369 -198500.000000 0 0 1
-21.281534 25.971702 -1.184127 33.598142 -0.884330 1.606047 0.046721 -0.034737 -167945.000000 0 0 1
-20.058334 25.323502 -0.921027 32.318180 -0.900901 1.599299 0.050251 -0.044137 -748329.000000 0 0 1
-19.741034 24.397802 -2.083127 31.453148 -0.890512 1.637074 0.052717 -0.043078 -591209.000000 0 0 1
-20.715134 23.433602 -2.342027 31.364559 -0.846896 1.645537 0.036648 -0.037810 -329522.000000 0 0 1
-20.348834 22.591202 -3.421627 30.596486 -0.837572 1.682861 0.036925 -0.034232 -997662.000000 0 0 1
-21.522234 22.078702 -4.171227 31.113899 -0.798160 1.705264 0.035586 -0.031448 -879058.000000 0 0 1
-22.137934 22.989502 -5.081427 32.317583 -0.804266 1.728686 0.023664 -0.020202 285356.000000 0 0 1
-23.362034 22.509702 -5.603927 32.922261 -0.766820 1.741846 0.030179 -0.018402 195574.000000 0 0 1
-23.449234 22.898502 -7.057427 33.526336 -0.773516 1.782887 0.023161 -0.003182 51932.200000 0 0 1
-22.760134 22.048202 -7.982427 32.678219 -0.769511 1.817567 0.019859 -0.003407 264887.000000 0 0 1
-22.333034 22.845302 -9.056727 33.206874 -0.796736 1.847033 0.015669 -0.009037 -42042.100000 0 0 1
-21.708834 22.020202 -10.243427 32.574385 -0.792518 1.890687 0.017583 -0.011523 -111705.000000 0 0 1
-22.644534 21.508402 -11.128027 33.154475 -0.759672 1.913083 0.010116 -0.005634 -250240.000000 0 0 1
-22.009334 21.283102 -12.356727 33.016207 -0.768625 1.954398 0.005600 0.002003 333506.000000 0 0 1
-22.967534 20.877502 -13.535527 33.861308 -0.737766 1.982023 -0.006523 -0.003721 458386.000000 0 0 1
-23.701534 19.654802 -13.421727 33.588937 -0.692331 1.981863 0.011185 0.002838 448675.000000 0 0 1
-24.626634 19.595302 -14.496127 34.649454 -0.672111 2.002441 0.020913 -0.002904 65621.400000 0 0 1
-25.450484 18.313202 -14.594427 34.584647 -0.623735 2.006437 0.061345 -0.014999 -60888.700000 0 0 1
-24.687734 17.295502 -15.220527 33.768077 -0.611109 2.038387 0.052221 -0.012729 185455.000000 0 0 1
-25.474454 16.150402 -15.456227 33.892156 -0.565034 2.044338 0.084101 -0.033884 86408.000000 0 0 1
-24.920734 15.174802 -16.557727 33.548113 -0.546955 2.086965 0.086425 -0.020392 -200006.000000 0 0 1
-23.789334 14.484802 -16.140727 32.191069 -0.546922 2.096017 0.093705 -0.017652 -255808.000000 0 0 1
-23.226634 13.715202 -17.203527 31.992884 -0.533401 2.138539 0.112473 -0.034408 252813.000000 0 0 1
-22.094734 12.741902 -16.834027 30.560069 -0.523106 2.154179 0.126097 -0.031751 6440.600000 0 0 1
-20.909934 13.218302 -16.249927 29.597449 -0.563727 2.152001 0.099967 -0.029175 -256772.000000 0 0 1
-20.029734 12.172602 -16.037727 28.400196 -0.546081 2.170872 0.091780 -0.038659 -128565.000000 0 0 1
-18.604134 12.617002 -15.586527 27.354019 -0.595933 2.177068 0.077421 -0.025178 390988.000000 0 0 1
-17.903034 13.425802 -16.526127 27.818764 -0.643448 2.206898 0.061903 -0.014898 -388704.000000 0 0 1
-16.890334 14.068202 -15.846927 27.098391 -0.694491 2.195420 0.059012 0.004435 -661449.000000 0 0 1
-16.228534 15.311902 -16.489427 27.743843 -0.756344 2.207248 0.026773 0.014304 83037.300000 0 0 1
-15.440634 14.823202 -17.562627 27.687296 -0.764999 2.257926 0.050436 0.004335 -385910.000000 0 0 1
-14.650434 15.769102 -18.176327 28.172303 -0.822156 2.272061 0.032568 0.007953 -315945.000000 0 0 1
-13.742534 15.112902 -19.224827 28.050865 -0.832853 2.325889 0.027350 0.005056 167785.000000 0 0 1
-12.739334 14.260202 -18.663527 26.720240 -0.841668 2.344066 0.027803 0.005803 -150184.000000 0 0 1
-11.635034 14.251102 -19.523827 26.826251 -0.886117 2.385888 0.039122 -0.001920 78158.300000 0 0 1
-10.923734 12.869402 -19.782327 26.005575 -0.866991 2.435180 0.034022 -0.006481 -103580.000000 0 0 1
-11.801134 11.906902 -20.239627 26.280860 -0.789859 2.449838 0.040331 0.002323 -232023.000000 0 0 1
-11.253734 10.617502 -20.072227 25.343089 -0.756316 2.484907 0.022319 0.012023 -188946.000000 0 0 1
-11.859034 9.624602 -21.093627 26.042480 -0.681765 2.514897 0.037765 0.002918 -31476.900000 0 0 1
-11.453334 9.815802 -22.425627 27.026609 -0.708559 2.549476 0.043651 -0.005018 18645.400000 0 0 1
-11.957634 8.788702 -23.274927 27.603415 -0.633823 2.573986 0.044279 0.008461 37904.400000 0 0 1
-11.510134 8.933302 -24.764827 28.732973 -0.660012 2.609793 0.047261 -0.010331 -621359.000000 0 0 1
-10.110534 8.856902 -24.936327 28.328220 -0.719400 2.647216 0.049344 -0.016514 -66113.100000 0 0 1
-9.904334 8.596702 -26.332187 29.417396 -0.714837 2.679503 0.036766 -0.018097 -370461.000000 0 0 1
-9.773734 9.828202 -27.235057 30.559250 -0.788177 2.670827 0.067415 -0.023076 -828312.000000 0 0 1
-8.508534 10.337802 -27.508027 30.593412 -0.882157 2.688617 0.047798 -0.027669 -288269.000000 0 0 1
-7.855734 11.053902 -26.475417 29.746412 -0.952942 2.668223 0.031366 -0.016118 -1106620.000000 0 0 1
-6.378934 11.223302 -26.736257 29.689742 -1.053963 2.691764 0.027472 -0.013516 -1063390.000000 0 0 1
-6.072534 11.963602 -27.909197 30.966542 -1.101100 2.693487 0.030211 -0.027824 -1305410.000000 0 0 1
-4.731634 12.213702 -27.925197 30.844441 -1.201196 2.703013 0.043725 -0.025633 -1862830.000000 0 0 1
-4.171434 12.595502 -29.310397 32.173699 -1.250981 2.716511 0.051496 -0.023343 511754.000000 0 0 1
-2.758234 12.781202 -29.115637 31.916881 -1.358252 2.719499 0.063179 -0.026174 375522.000000 0 0 1
-2.178634 12.916002 -30.365167 33.069819 -1.403692 2.734344 0.068921 -0.018971 48530.400000 0 0 1
-0.633534 12.793302 -30.333137 32.926724 -1.521316 2.742031 0.076932 -0.018441 -205942.000000 0 0 1
-0.243134 11.636902 -29.681737 31.882317 -1.549906 2.767879 0.060954 -0.003966 -472313.000000 0 0 1
1.126366 11.352502 -29.761077 31.872711 1.471903 2.775541 0.066360 -0.002605 -260215.000000 0 0 1
1.704066 10.701702 -31.013577 32.852279 1.412889 2.805442 0.075159 -0.001619 -460884.000000 0 0 1
1.705166 11.509102 -32.171227 34.210450 1.423708 2.794577 0.094532 -0.017131 186708.000000 0 0 1
1.949666 10.629102 -33.269567 34.980611 1.389386 2.827529 0.088655 -0.010455 -1997.040000 0 0 1
2.089166 11.354402 33.741750 35.662203 1.388835 0.329671 0.092193 -0.017374 -113107.000000 0 0 1
3.299766 12.067402 33.680608 35.929013 1.303877 0.355648 0.080529 -0.016994 -291147.000000 0 0 1
3.508866 12.596702 32.374686 34.915746 1.299129 0.383868 0.083012 -0.011603 1336780.000000 0 0 1
5.061266 12.891802 32.186923 35.040162 1.196689 0.406343 0.087236 -0.014065 1272650.000000 0 0 1
5.784266 11.717102 31.892513 34.465643 1.112233 0.388859 0.087112 -0.018915 1176510.000000 0 0 1
7.102466 12.030502 31.347603 34.319822 1.037487 0.419245 0.076978 -0.008766 1140080.000000 0 0 1
7.821166 10.864702 30.661923 33.456926 0.946859 0.411656 0.047663 -0.004220 -207768.000000 0 0 1
7.215866 10.402802 29.470123 32.074525 0.964347 0.405763 0.052546 -0.015408 134023.000000 0 0 1
7.956066 9.387302 28.785613 31.305461 0.867735 0.403970 0.054758 -0.011740 355631.000000 0 0 1
7.057266 8.680102 27.731273 29.902720 0.888155 0.383441 0.039459 -0.012046 501333.000000 0 0 1
6.213366 7.705902 28.346203 30.024890 0.892218 0.335973 0.035766 -0.010846 -143047.000000 0 0 1
5.598566 6.929002 27.377123 28.789961 0.891202 0.314581 0.051445 -0.014020 -168945.000000 0 0 1
5.029366 5.585702 27.951403 28.944352 0.837760 0.262692 0.055578 -0.029425 -30223.600000 0 0 1
6.048466 4.658302 28.303223 29.314777 0.656281 0.263465 0.041059 -0.023592 259856.000000 0 0 1
5.789466 3.985602 29.494223 30.320160 0.602914 0.233945 0.032136 -0.024442 -157647.000000 0 0 1
6.711166 2.774402 29.627713 30.504728 0.392005 0.240370 0.058078 -0.015332 224242.000000 0 0 1
6.234166 1.678602 28.905093 29.617341 0.263020 0.219752 0.051556 -0.022843 -105207.000000 0 0 1
7.320766 1.172502 28.180273 29.139254 0.158812 0.257264 0.052068 -0.016855 -50603.800000 0 0 1
7.137066 -0.286398 27.744303 28.649015 -0.040107 0.251979 0.041965 -0.009989 -176468.000000 0 0 1
7.446566 -1.104998 28.837253 29.803683 -0.147315 0.255356 0.032063 -0.023713 -62604.700000 0 0 1
7.548666 -2.418598 28.339953 29.427621 -0.310066 0.272730 0.037232 -0.022572 -451928.000000 0 0 1
8.231766 -3.434498 29.308563 30.635757 -0.395267 0.295426 0.022759 -0.008616 895660.000000 0 0 1
9.640566 -3.195198 29.437233 31.140014 -0.320039 0.332226 0.031563 -0.011735 764623.000000 0 0 1
10.421266 -4.191798 28.784723 30.898774 -0.382432 0.372057 0.044624 -0.006510 -50683.000000 0 0 1
11.940766 -4.174098 29.070783 31.703555 -0.336289 0.410412 0.041581 -0.011276 278121.000000 0 0 1
12.647866 -5.263398 28.520273 31.639814 -0.394350 0.447794 0.057884 -0.011664 19108.400000 0 0 1
12.735966 -6.427998 29.308173 32.595904 -0.467410 0.453003 0.070828 -0.011347 30943.400000 0 0 1
11.645166 -7.487898 28.989203 32.125572 -0.571442 0.445555 0.075594 -0.007564 580036.000000 0 0 1
10.276666 -7.135498 29.070023 31.647929 -0.606917 0.406414 0.060171 -0.010330 -298915.000000 0 0 1
9.487766 -8.251098 28.901403 31.518081 -0.715796 0.410357 0.051850 -0.003956 4341.160000 0 0 1
7.979666 -8.004298 28.605193 30.757128 -0.786939 0.376289 0.054400 -0.006432 382391.000000 0 0 1
7.402466 -7.449398 29.795063 31.591705 -0.788558 0.338875 0.059611 -0.010608 -146894.000000 0 0 1
6.020366 -7.261798 29.588793 31.056001 -0.878593 0.308612 0.039483 -0.010263 -130773.000000 0 0 1
5.320266 -6.644998 30.801153 31.955786 -0.895664 0.269636 0.039174 -0.008746 -112197.000000 0 0 1
5.246166 -7.492498 31.952953 33.236290 -0.959943 0.278796 0.042940 -0.005295 -136137.000000 0 0 1
4.739666 -6.882998 33.075913 34.115335 -0.967759 0.247483 0.049838 -0.005109 -171238.000000 0 0 1
5.626066 -5.815698 33.772673 34.728495 -0.801970 0.235159 0.052735 -0.008057 -29448.300000 0 0 1
5.687366 -4.650198 32.980295 33.788612 -0.685403 0.219175 0.055905 -0.003227 -413265.000000 0 0 1
6.353666 -3.664698 33.677594 34.467077 -0.523175 0.214445 0.060120 -0.004713 -308393.000000 0 0 1
6.476466 -2.387998 32.769248 33.488367 -0.353253 0.207610 0.045381 -0.007925 -155273.000000 0 0 1
5.221166 -1.888498 32.389600 32.862032 -0.347060 0.169769 0.053981 -0.015789 -618130.000000 0 0 1
5.364966 -0.763298 31.623623 32.084560 -0.141326 0.169711 0.047970 -0.015772 10966.100000 0 0 1
4.025366 -0.136498 31.203183 31.462053 -0.033897 0.128369 0.063138 -0.020463 140693.000000 0 0 1
3.183366 0.236002 32.273453 32.430931 0.074000 0.098587 0.067819 -0.028609 -482913.000000 0 0 1
1.912266 0.616502 31.818903 31.882274 0.311872 0.063061 0.085373 -0.027872 -45805.300000 0 0 1
0.887166 0.738502 32.965546 32.985749 0.694203 0.035002 0.085944 -0.033611 -2309.510000 0 0 1
1.211366 1.898902 33.751252 33.826324 1.002953 0.066636 0.075808 -0.024923 388849.000000 0 0 1
0.472866 1.945802 -33.411547 33.471499 1.332399 3.081732 0.064222 -0.024884 -186884.000000 0 0 1
1.117966 2.847002 -32.364447 32.508656 1.196614 3.047366 0.055999 -0.017431 -1064340.000000 0 0 1
2.296866 2.391602 -31.855867 32.027982 0.805601 3.037875 0.044451 -0.017004 -1408300.000000 0 0 1
3.067666 3.418702 -31.344787 31.679549 0.839464 2.996088 0.034510 -0.008724 286718.000000 0 0 1
4.257166 2.950002 -30.442317 30.879778 0.605978 2.973069 0.041616 -0.005027 130084.000000 0 0 1
3.693266 2.317502 -29.329487 29.651810 0.560391 2.994012 0.044960 -0.013228 419917.000000 0 0 1
4.477366 2.383102 -28.098647 28.552758 0.489118 2.963006 0.054739 -0.022890 28929.500000 0 0 1
3.840766 1.845902 -26.797347 27.134050 0.448014 2.983893 0.050331 -0.026209 -229084.000000 0 0 1
3.883966 0.410102 -26.763187 27.046656 0.105199 2.996685 0.066522 -0.030857 110788.000000 0 0 1
3.443066 -0.172498 -25.548337 25.779876 -0.050058 3.007467 0.069014 -0.031012 -329321.000000 0 0 1
3.949466 -1.623798 -25.368397 25.725291 -0.390076 2.974827 0.069486 -0.037356 -539901.000000 0 0 1
5.329266 -1.630298 -25.168097 25.777744 -0.296874 2.923676 0.062479 -0.036640 -788242.000000 0 0 1
5.628266 -2.946398 -24.863227 25.662009 -0.482271 2.891433 0.066307 -0.037251 402079.000000 0 0 1
7.065266 -3.211698 -24.288127 25.497963 -0.426653 2.832308 0.066680 -0.041253 1212680.000000 0 0 1
8.104866 -2.992998 -25.250337 26.687571 -0.353750 2.811913 0.055709 -0.030829 1035290.000000 0 0 1
9.410366 -3.210798 -24.660227 26.589303 -0.328812 2.758329 0.055429 -0.032111 1173710.000000 0 0 1
-29.746264 -3.421298 17.740773 34.803455 0.114513 1.035912 0.116875 -0.025366 296730.000000 0 0 1
-31.158254 -3.513398 17.825873 36.068580 0.112286 1.053857 0.132459 -0.011115 18496.100000 0 0 1
-31.507174 -4.733898 18.405173 36.794866 0.149133 1.046955 0.134286 -0.018883 1032930.000000 0 0 1
-33.039914 -4.800198 18.751373 38.292189 0.144275 1.059060 0.120766 -0.018041 994888.000000 0 0 1
-33.962554 -5.077698 17.719773 38.642314 0.148409 1.094424 0.107953 -0.013608 -1333770.000000 0 0 1
-35.229453 -4.838698 18.146473 39.922698 0.136494 1.098940 0.091683 -0.006899 -1169330.000000 0 0 1
-36.284794 -5.152798 17.012373 40.404930 0.141067 1.136197 0.066504 -0.013634 1222190.000000 0 0 1
35.254678 -4.826798 17.492673 39.650774 -0.136066 1.113896 0.048076 -0.002488 99358.300000 0 0 1
34.289328 -4.871898 16.521173 38.372419 -0.141137 1.125696 0.024445 -0.009448 -786981.000000 0 0 1
33.002298 -5.599698 16.896773 37.496789 -0.168075 1.103338 0.014626 -0.006540 -412347.000000 0 0 1
32.310728 -4.923898 17.905773 37.267205 -0.151229 1.069606 0.028158 -0.004765 -394927.000000 0 0 1
31.015998 -5.450398 18.027573 36.286255 -0.173953 1.050871 0.045150 -0.017696 -45380.300000 0 0 1
30.199448 -5.015398 19.296973 36.187484 -0.164574 1.008359 0.047408 -0.004914 530064.000000 0 0 1
29.357548 -3.839698 19.259373 35.320424 -0.130053 0.994078 0.049692 -0.006678 911581.000000 0 0 1
30.063918 -2.569098 19.203573 35.766138 -0.085247 1.004014 0.054462 -0.014922 76413.300000 0 0 1
29.083988 -1.434298 19.515973 35.054368 -0.049276 0.980347 0.063154 -0.002679 45211.800000 0 0 1
29.706858 -0.157398 19.518773 35.545811 -0.005298 0.989490 0.056423 -0.008891 379165.000000 0 0 1
28.828978 0.896202 20.016773 35.108180 0.031077 0.964113 0.061530 -0.010651 550906.000000 0 0 1
29.033898 2.270102 19.385273 34.984416 0.078029 0.983501 0.045026 -0.011115 -174938.000000 0 0 1
28.747258 2.276302 18.008873 33.998616 0.079018 1.012556 0.044363 -0.011038 -42802.800000 0 0 1
28.745978 3.569502 17.475873 33.830145 0.123542 1.027948 0.035533 -0.002671 106695.000000 0 0 1
28.275938 3.541302 16.019273 32.690772 0.124592 1.058679 0.036662 -0.008542 -39740.700000 0 0 1
28.306048 4.798302 15.361373 32.561139 0.167919 1.079499 0.031763 0.002362 -10406.900000 0 0 1
27.941118 4.521702 14.026973 31.589679 0.160439 1.110698 0.037050 -0.000981 -221662.000000 0 0 1
27.518088 5.783602 13.269673 31.093077 0.207159 1.129875 0.035163 0.006458 258275.000000 0 0 1
26.296288 6.308102 13.782973 30.352219 0.235437 1.099433 0.043161 0.004559 458703.000000 0 0 1
25.852988 7.403202 12.944473 29.845330 0.278894 1.122181 0.052077 -0.013728 -529595.000000 0 0 1
24.566888 8.122102 13.411073 29.143736 0.319299 1.092610 0.065389 -0.020320 126929.000000 0 0 1
23.331488 7.476602 13.224073 27.841228 0.310112 1.075853 0.062451 -0.008953 443031.000000 0 0 1
23.137488 6.465402 14.185073 27.899123 0.272484 1.037422 0.075276 -0.003374 585978.000000 0 0 1
21.705488 5.767502 13.964573 26.446201 0.259715 1.014509 0.083945 -0.000545 1298180.000000 0 0 1
21.569988 5.198702 12.675573 25.553102 0.236505 1.051755 0.104180 -0.012716 47777.800000 0 0 1
20.311888 4.641102 12.426073 24.259429 0.224636 1.033033 0.104243 -0.007916 -425234.000000 0 1 0
19.989088 4.560002 10.939573 23.238578 0.224286 1.080655 0.110680 -0.011711 -85111.100000 0 1 0
20.946788 3.799402 10.237773 23.622349 0.179433 1.122541 0.113240 -0.015393 432518.000000 0 1 0
20.510188 3.596302 8.920673 22.653467 0.173578 1.166047 0.117699 -0.020320 545823.000000 0 1 0
21.586188 2.967502 7.932873 23.188360 0.136616 1.221639 0.113183 -0.019143 -484683.000000 0 1 0
21.777688 1.612202 8.286673 23.356708 0.073895 1.208109 0.106076 -0.021326 691944.000000 0 1 0
22.555088 0.856902 7.316473 23.727559 0.037973 1.257335 0.090455 -0.015193 1021260.000000 0 1 0
24.105488 1.136402 7.416473 25.246188 0.047108 1.272632 0.081371 -0.010224 405203.000000 0 0 1
24.713088 0.854602 8.685673 26.208929 0.034567 1.233008 0.063697 0.002797 494810.000000 0 0 1
24.625088 1.900002 9.660973 26.520546 0.077005 1.197934 0.057703 0.002169 -558535.000000 0 0 1
25.162088 1.438802 11.053873 27.520700 0.057119 1.157471 0.057778 0.005967 489666.000000 0 0 1
26.577088 1.381502 11.185673 28.868138 0.051934 1.172906 0.044642 0.003519 273214.000000 0 0 1
27.001088 0.693602 12.334473 29.693081 0.025682 1.142415 0.047622 -0.008037 1112340.000000 0 0 1
28.570278 0.554802 12.498073 31.189267 0.019416 1.158497 0.065905 -0.014496 1074710.000000 0 0 1
29.186738 1.763602 12.778873 31.910430 0.060351 1.158777 0.057019 -0.011613 41831.900000 0 0 1
30.594798 1.555002 12.817173 33.207523 0.050782 1.174535 0.039602 -0.012477 300981.000000 0 0 1
31.435598 2.787002 13.127573 34.180365 0.088426 1.176599 0.041469 -0.014748 -376623.000000 0 0 1
31.482428 3.708602 12.072273 33.921037 0.117259 1.206926 0.050952 -0.019847 404572.000000 0 0 1
32.204388 4.906402 12.415573 34.861753 0.151189 1.206665 0.041016 -0.018253 -242308.000000 0 0 1
33.618478 4.957502 11.865873 35.994136 0.146408 1.234852 0.055040 -0.015877 -646273.000000 0 0 1
34.541538 4.036602 12.428773 36.930832 0.116335 1.227554 0.050542 -0.023031 102460.000000 0 0 1
35.798168 4.268302 11.836873 37.945207 0.118672 1.253555 0.065046 -0.013991 216436.000000 0 0 1
-35.902671 3.421602 12.480673 38.163809 -0.095015 1.237638 0.100466 -0.006568 -120552.000000 0 0 1
-35.806708 2.007402 12.178773 37.874430 -0.056004 1.243423 0.078516 -0.003006 845564.000000 0 0 1
35.944778 1.131402 12.510773 38.076588 0.031466 1.236009 0.070080 -0.004592 503291.000000 0 0 1
35.624198 1.078702 14.040073 38.306275 0.030271 1.195529 0.056149 -0.000449 -134492.000000 0 0 1
-36.349544 0.262202 14.771173 39.237044 -0.007213 1.184824 0.076087 -0.007814 119287.000000 0 0 1
36.016578 0.129602 16.053773 39.432655 0.003598 1.151499 0.081542 -0.018570 -480515.000000 0 0 1
-36.031822 -0.722498 17.029673 39.860054 0.020049 1.129362 0.093534 -0.011712 -601027.000000 0 0 1
-34.725472 -0.255398 17.165973 38.737504 0.007355 1.111703 0.122222 -0.015589 -597544.000000 0 0 1
-33.797604 -0.928698 17.955773 38.282506 0.027471 1.082600 0.115445 -0.012969 -1748.690000 0 0 1
-33.964814 -0.903998 19.493173 39.171540 0.026609 1.049925 0.129427 -0.017859 -692501.000000 0 0 1
-34.986982 -1.728998 19.960373 40.317425 0.049378 1.052869 0.103378 -0.016334 -230848.000000 0 0 1
-35.062392 -1.707798 21.382573 41.103556 0.048669 1.023697 0.105266 -0.017858 70089.900000 0 0 1
-35.456429 -3.094798 21.971073 41.826596 0.087064 1.017741 0.073761 -0.012995 -282114.000000 0 0 1
-34.465879 -4.071998 21.933673 41.055620 0.117601 1.007184 0.088099 -0.013843 -374366.000000 0 0 1
-34.800174 -5.222898 22.695873 41.874018 0.148971 0.997977 0.067448 -0.011884 -61351.400000 0 0 1
-34.745967 -5.142098 24.254803 42.685112 0.146925 0.966448 0.065317 -0.020793 1090820.000000 0 0 1
-33.477544 -4.710198 24.800813 41.928656 0.139780 0.937878 0.072110 -0.026379 640554.000000 0 0 1
-33.651214 -4.694898 26.209093 42.911103 0.138622 0.913755 0.061337 -0.027852 237238.000000 0 0 1
-32.479414 -4.019898 26.981603 42.415549 0.123141 0.881330 0.051559 -0.025915 -185026.000000 0 0 1
-32.236904 -2.614898 26.836023 42.026512 0.080938 0.878184 0.055589 -0.024105 -57109.600000 0 0 1
-31.817024 -2.253398 25.544313 40.864565 0.070706 0.895541 0.082294 -0.028148 -494366.000000 0 0 1
-31.832304 -0.707998 25.327563 40.685160 0.022238 0.898830 0.086183 -0.031830 -727973.000000 0 0 1
-33.100714 -0.160498 25.304063 41.665076 0.004849 0.918113 0.089121 -0.037773 -722126.000000 0 0 1
-33.080684 1.137602 24.781393 41.349041 -0.034375 0.928142 0.107365 -0.028816 141233.000000 0 0 1
-34.503268 1.737602 24.616713 42.420246 -0.050318 0.951692 0.102332 -0.020700 470305.000000 0 0 1
-35.196888 1.110002 23.518923 42.346106 -0.031526 0.981955 0.103290 -0.012016 730434.000000 0 0 1
-36.369964 1.780202 22.997773 43.067864 -0.048908 1.007485 0.092287 -0.001705 877170.000000 0 0 1
-36.141994 3.056402 22.212773 42.532253 -0.084366 1.021301 0.099432 -0.005116 -37398.600000 0 0 1
-35.469490 2.836102 20.970473 41.302408 -0.079789 1.038248 0.126927 -0.023875 51758.500000 0 0 1
-36.207324 3.400402 19.908273 41.459285 -0.093640 1.069927 0.103470 -0.018452 40361.400000 0 0 1
-35.777482 2.984002 18.472973 40.375527 -0.083212 1.095582 0.120720 -0.013176 187721.000000 0 0 1
-34.565959 3.489402 17.933673 39.097289 -0.100608 1.094272 0.135322 -0.020716 272677.000000 0 0 1
-34.261383 2.874002 16.712473 38.228379 -0.083689 1.118342 0.153692 -0.012986 129061.000000 0 0 1
-33.221654 3.739602 15.916373 37.026933 -0.112093 1.126459 0.138719 -0.014707 190703.000000 0 0 1
-33.747444 4.990702 15.478373 37.461675 -0.146820 1.144854 0.142069 -0.023724 73080.500000 0 0 1
-32.958714 5.656102 14.491873 36.445612 -0.169956 1.161864 0.140690 -0.016337 20998.100000 0 0 1
-33.572754 6.995802 13.914473 37.009236 -0.205438 1.185350 0.146269 -0.030868 159230.000000 0 0 1
-32.776954 7.422202 12.840973 35.976497 -0.222690 1.205821 0.147788 -0.022524 93180.300000 0 0 1
-33.096814 8.765202 12.466173 36.436702 -0.258892 1.221611 0.119667 -0.026568 -410422.000000 0 0 1
-32.047524 9.327202 11.529173 35.312353 -0.283219 1.238207 0.136197 -0.027015 -234349.000000 0 0 1
-32.267574 10.700702 11.366373 35.845442 -0.320211 1.248133 0.122305 -0.019580 123181.000000 0 0 1
-31.372104 11.295902 10.438873 34.939610 -0.345610 1.267394 0.108850 -0.025312 -211438.000000 0 0 1
-31.442634 12.840002 10.449273 35.534380 -0.387695 1.272323 0.113699 -0.025680 -179593.000000 0 0 1
-30.940164 13.416402 9.273073 34.975469 -0.409153 1.302457 0.098239 -0.026454 -78640.200000 0 0 1
-30.930644 14.834102 9.387973 35.565282 -0.447189 1.303666 0.074724 -0.018665 -697527.000000 0 0 1
-30.083754 15.636402 8.464873 34.945434 -0.479332 1.326132 0.073412 -0.022811 -1368920.000000 0 0 1
-28.732534 15.547902 8.798073 33.833442 -0.496004 1.307732 0.080756 -0.014467 -584623.000000 0 0 1
-27.976014 16.443902 7.983773 33.418556 -0.531390 1.329561 0.057210 -0.024912 452519.000000 0 0 1
-26.507884 16.512002 8.529973 32.373979 -0.557094 1.304166 0.059349 -0.014420 180366.000000 0 0 1
-26.376904 17.098502 9.821873 32.932795 -0.575135 1.267948 0.045901 -0.012186 146430.000000 0 0 1
-26.696024 18.458002 9.940273 33.943844 -0.604940 1.273596 0.047888 -0.020952 -209900.000000 0 0 1
-26.850174 18.856602 11.411073 34.737815 -0.612261 1.236090 0.066749 -0.008415 1104880.000000 0 0 1
-25.538624 19.051602 12.003773 34.048133 -0.640931 1.210498 0.063674 -0.002441 1225660.000000 0 0 1
-25.637214 19.446402 13.331273 34.830333 -0.648933 1.178026 0.064071 -0.004918 -38302.800000 0 0 1
-26.109454 18.477002 14.424973 35.088217 -0.615858 1.147129 0.055528 -0.002833 466990.000000 0 0 1
-25.121634 17.486702 14.801473 33.999482 -0.608091 1.120376 0.060190 -0.004303 672298.000000 0 0 1
-25.522244 16.712502 15.931773 34.416769 -0.579757 1.089524 0.060584 0.001492 -361248.000000 0 0 1
-24.537534 15.597302 16.300373 33.332694 -0.566222 1.059830 0.054219 -0.004652 49848.900000 0 0 1
-23.311734 16.060202 16.858573 32.948118 -0.603259 1.033669 0.050637 -0.005002 282199.000000 0 0 1
-22.327334 15.057302 17.026573 31.861204 -0.593330 1.007001 0.036231 -0.015129 -494.157000 0 0 1
-22.675534 13.821202 17.939273 32.047199 -0.547390 0.976680 0.051453 -0.013367 -686419.000000 0 0 1
-22.587334 14.172102 19.311473 32.923686 -0.560349 0.944001 0.057980 -0.007485 349683.000000 0 0 1
-23.016234 13.124402 20.237673 33.340071 -0.518237 0.918507 0.057027 -0.011600 -301704.000000 0 0 1
-22.868334 13.552102 21.724873 34.330602 -0.534971 0.885615 0.048200 -0.006873 765352.000000 0 0 1
-21.487634 13.674502 22.108973 33.727097 -0.566748 0.855918 0.047998 -0.006910 709690.000000 0 0 1
-21.118134 15.046302 22.081973 34.058483 -0.619054 0.865375 0.049802 0.003558 16183.400000 0 0 1
-19.614934 15.291802 22.406373 33.475817 -0.662178 0.837490 0.073801 -0.001820 879513.000000 0 0 1
-18.664134 14.654702 21.556073 32.058921 -0.665639 0.833364 0.050880 -0.004351 347834.000000 0 0 1
-18.221634 15.447402 20.433873 31.435542 -0.703187 0.863180 0.055784 -0.006169 -418087.000000 0 0 1
-17.072434 14.700002 19.635073 29.884680 -0.710867 0.853927 0.044713 -0.005858 1285080.000000 0 0 1
-15.806934 14.549802 20.269473 29.536543 -0.744010 0.814475 0.040923 -0.001692 457686.000000 0 0 1
-15.123234 15.787402 20.486873 29.961078 -0.806882 0.817862 0.030767 -0.000009 -684341.000000 0 0 1
-13.941234 15.664502 21.502273 30.034685 -0.843540 0.772863 0.014135 0.003775 97214.300000 0 0 1
-12.879934 14.911202 20.956973 28.765106 -0.858359 0.754586 0.010096 -0.000479 -488199.000000 0 0 1
-11.949934 14.708702 21.993873 29.032348 -0.888516 0.711223 0.012684 0.009964 -536527.000000 0 0 1
-10.845634 13.749702 21.654073 27.849253 -0.902928 0.680043 0.005448 0.013122 -1564960.000000 0 0 1
-10.625734 12.730802 22.597473 28.029008 -0.875283 0.633066 0.014275 0.007047 376388.000000 0 0 1
-9.423134 11.978902 22.486073 27.164554 -0.904252 0.595670 0.019228 0.016750 1881490.000000 0 0 1
-8.041434 12.757202 22.782673 27.321439 -1.008363 0.584704 0.012707 0.019852 1018310.000000 0 0 1
-7.705734 13.616702 21.690473 26.744523 -1.055825 0.624894 0.002109 0.018733 -70778.700000 0 0 1
-6.857434 14.718102 22.001573 27.344398 -1.134784 0.635778 0.010085 0.019042 248001.000000 0 0 1
-7.610934 15.919402 22.711873 28.760786 -1.124828 0.660506 0.015174 0.007441 884234.000000 0 0 1
-8.492634 16.671902 21.824873 28.747212 -1.099659 0.708714 -0.025903 0.015209 421028.000000 0 0 1
-7.807634 17.610802 20.984773 28.486140 -1.153492 0.742669 0.000814 0.015834 -843070.000000 0 0 1
-8.714934 18.313002 19.927773 28.432942 -1.126624 0.794181 0.001850 0.024845 1102320.000000 0 0 1
-9.862434 19.081002 20.302873 29.556029 -1.093742 0.813543 -0.003772 0.022950 612413.000000 0 0 1
-10.935134 18.333502 20.856673 29.844517 -1.032987 0.797016 -0.002310 0.019660 424641.000000 0 0 1
-12.347734 19.029902 20.884273 30.834340 -0.995223 0.826702 -0.001897 0.006567 982584.000000 0 0 1
-13.055734 18.971102 19.642773 30.268687 -0.968040 0.864597 0.006759 0.007527 380985.000000 0 0 1
-14.328234 19.577502 19.818973 31.326802 -0.938998 0.885823 0.001781 -0.000576 295784.000000 0 0 1
-15.268334 19.590202 18.600473 31.030237 -0.908752 0.928007 0.024756 -0.000575 -194368.000000 0 0 1
-16.056734 18.452202 18.372173 30.591488 -0.854703 0.926589 0.032593 -0.001987 266355.000000 0 0 1
-16.685034 18.446002 17.074273 30.169125 -0.835482 0.969209 0.039576 -0.011565 -951945.000000 0 0 1
-17.558734 17.170102 16.827373 29.770488 -0.774208 0.970076 0.041947 -0.017247 -106719.000000 0 0 1
-18.643734 16.975402 17.657773 30.782300 -0.738594 0.959861 0.040396 -0.007324 -886157.000000 0 0 1
-19.667934 17.892702 17.397973 31.775239 -0.738170 0.991384 0.050995 -0.009656 -1483410.000000 0 0 1
34.072668 -9.618298 11.956973 37.368804 -0.275129 1.245096 0.065223 -0.016593 259069.000000 0 0 1
32.681448 -9.849598 11.796573 36.114412 -0.292724 1.238045 0.043551 -0.006641 248922.000000 0 0 1
32.390368 -11.154698 12.294873 36.396801 -0.331662 1.226217 0.065512 -0.009850 845980.000000 0 0 1
30.857378 -11.405998 12.012473 35.022479 -0.354060 1.220695 0.045830 -0.006065 629736.000000 0 0 1
30.013278 -10.554198 12.730873 34.267522 -0.338145 1.190157 0.036927 -0.000434 -707861.000000 0 0 1
28.668488 -10.886298 12.780273 33.222418 -0.362911 1.175926 0.032728 -0.000636 -372811.000000 0 0 1
28.197658 -11.869798 13.917273 33.610869 -0.398435 1.143875 0.016142 -0.009042 -672873.000000 0 0 1
28.338348 -11.248098 15.194573 34.065477 -0.377850 1.108460 0.019776 -0.009527 -37704.300000 0 0 1
27.811188 -11.885398 16.365173 34.388134 -0.403868 1.074814 0.027096 -0.019746 71262.600000 0 0 1
26.256788 -11.998898 16.490573 33.246525 -0.428646 1.051800 0.009815 -0.024031 422660.000000 0 0 1
25.686788 -10.722998 16.569473 32.393536 -0.395460 1.033860 0.012531 -0.030430 -206243.000000 0 0 1
25.314088 -10.087498 15.354473 31.278115 -0.379207 1.057672 0.031778 -0.030278 -566416.000000 0 0 1
25.114388 -8.551398 15.488573 30.720592 -0.328185 1.042369 0.070880 -0.029699 561322.000000 0 0 1
26.248988 -7.762098 15.870473 31.640661 -0.287517 1.045367 0.043897 -0.025275 16629.600000 0 0 1
25.852888 -6.470598 16.216473 31.196385 -0.245247 1.024157 0.065122 -0.027672 -204854.000000 0 0 1
27.043088 -5.518698 16.433373 32.122272 -0.201306 1.033764 0.063399 -0.022509 269278.000000 0 0 1
27.710488 -5.332298 15.143873 32.025637 -0.190105 1.078254 0.079640 -0.020914 347685.000000 0 0 1
28.828758 -4.475598 15.272273 32.929782 -0.154018 1.088536 0.060175 -0.022452 -99515.400000 0 0 1
29.166988 -3.703098 13.991373 32.560476 -0.126286 1.126631 0.072320 -0.021236 -137567.000000 0 0 1
29.588078 -4.403398 12.818473 32.544700 -0.147739 1.165955 0.041982 -0.014168 440432.000000 0 0 1
30.087098 -3.416398 11.910773 32.538773 -0.113066 1.196037 0.044551 -0.008199 -99838.800000 0 0 1
30.496338 -4.090598 10.575473 32.536137 -0.133338 1.239745 0.060784 -0.008335 101057.000000 0 0 1
31.782408 -4.694998 10.571073 33.821769 -0.146662 1.252918 0.053168 -0.010684 400592.000000 0 0 1
31.913908 -5.481298 9.399773 33.717916 -0.170093 1.288276 0.049867 -0.004810 393158.000000 0 0 1
33.326658 -6.125998 9.267673 35.129528 -0.181787 1.303822 0.060339 -0.014784 666233.000000 0 0 1
34.409428 -5.252798 8.912573 35.930969 -0.151486 1.320133 0.064357 -0.014932 263144.000000 0 0 1
35.478938 -6.116898 8.536673 37.000625 -0.170731 1.337982 0.076187 -0.025221 60026.900000 0 0 1
-36.148014 -5.294498 8.119273 37.425034 0.145433 1.352110 0.073321 -0.027983 -5815.290000 0 0 1
-36.340354 -4.650398 6.904173 37.281565 0.127276 1.384531 0.064991 -0.024983 17301.300000 0 0 1
-35.277159 -3.739198 6.718873 36.105440 0.105601 1.383615 0.088801 -0.020031 -91231.500000 0 0 1
-35.345355 -2.972198 5.403973 35.879395 0.083893 1.419606 0.079447 -0.027077 -314503.000000 0 0 1
-35.088901 -3.774498 4.308073 35.553302 0.107158 1.449326 0.078008 -0.032642 -35924.800000 0 0 1
-34.924139 -2.997398 3.089973 35.188461 0.085616 1.482871 0.078599 -0.023801 -81191.600000 0 0 1
-34.009014 -3.572798 1.979073 34.253388 0.104671 1.512987 0.105202 -0.025059 -60977.700000 0 0 1
-34.326806 -4.839198 1.383773 34.693836 0.140051 1.530900 0.090496 -0.020423 33764.200000 0 0 1
-35.478831 -4.809698 0.555173 35.807664 0.134744 1.555291 0.069003 -0.020980 -220598.000000 0 0 1
-35.137331 -4.993298 -0.883327 35.501342 0.141163 1.595680 0.092066 -0.018862 -1103650.000000 0 0 1
-34.720851 -6.314698 -1.177627 35.310051 0.179904 1.604154 0.089012 -0.028107 134883.000000 0 0 1
-33.770634 -6.449898 -2.210727 34.452056 0.188719 1.635009 0.081254 -0.025422 -1000520.000000 0 0 1
-32.361874 -6.123898 -1.729227 32.981559 0.187020 1.623251 0.089288 -0.029314 -1320890.000000 0 0 1
-31.807864 -7.113698 -0.876927 32.605427 0.220025 1.597695 0.083551 -0.028349 371271.000000 0 0 1
-30.703934 -6.495498 -0.188027 31.384047 0.208479 1.576788 0.103700 -0.032203 320271.000000 0 0 1
-30.053414 -7.495798 0.830073 30.985217 0.244429 1.544004 0.098660 -0.027443 -120639.000000 0 0 1
-29.307544 -8.453098 0.077373 30.502344 0.280806 1.568260 0.100155 -0.015445 388267.000000 0 0 1
-28.891634 -9.461898 0.985973 30.417530 0.316488 1.538376 0.098145 -0.018828 -319331.000000 0 0 1
-28.505174 -10.726998 0.252773 30.457796 0.359925 1.562497 0.087965 -0.018783 412067.000000 0 0 1
-27.415904 -10.633198 -0.696327 29.413969 0.369987 1.594472 0.096439 -0.019107 876664.000000 0 0 1
-26.848994 -11.864498 -1.108427 29.374536 0.416095 1.608540 0.089468 -0.009041 -463401.000000 0 0 1
-27.604534 -12.792298 -2.071127 30.494963 0.433952 1.638766 0.087010 -0.009685 -568466.000000 0 0 1
-28.570244 -13.569698 -1.397127 31.659872 0.443415 1.614940 0.098041 -0.014083 277938.000000 0 0 1
-29.014724 -14.610398 -2.312927 32.567892 0.466485 1.641875 0.085432 -0.007400 -180684.000000 0 0 1
-29.988704 -15.590998 -1.582927 33.836478 0.479437 1.617595 0.090095 -0.008777 -59516.300000 0 0 1
-29.394214 -16.218898 -0.497327 33.575583 0.504203 1.585609 0.076840 -0.003208 163350.000000 0 0 1
-30.299944 -16.921198 0.342473 34.706351 0.509312 1.560928 0.079419 -0.005165 219886.000000 0 0 1
-30.735714 -18.356598 -0.115127 35.800308 0.538388 1.574012 0.081623 -0.007909 197143.000000 0 0 1
-29.728594 -19.320998 0.175473 35.455903 0.576314 1.565847 0.105078 -0.015998 609329.000000 0 0 1
-30.173914 -20.718298 0.036373 36.602107 0.601696 1.569803 0.080331 -0.015515 173658.000000 0 0 1
-31.018454 -21.301498 1.201373 37.647597 0.601769 1.538880 0.072944 -0.015481 -326831.000000 0 0 1
-30.238664 -21.619098 2.330873 37.245069 0.620688 1.508173 0.073295 -0.016808 489591.000000 0 0 1
-31.134184 -21.817898 3.422573 38.171614 0.611242 1.481013 0.058159 -0.015834 509791.000000 0 0 1
-30.371394 -21.906098 4.769573 37.749802 0.624862 1.444111 0.055416 -0.018118 -21756.400000 0 0 1
-30.127904 -20.655598 5.377073 36.922313 0.600994 1.424645 0.043610 -0.019032 -162312.000000 0 0 1
-29.217724 -20.812598 6.420373 36.442569 0.618952 1.393694 0.051217 -0.023504 -79065.100000 0 0 1
-28.811804 -19.421198 7.059973 35.456257 0.593111 1.370339 0.051883 -0.015136 -137706.000000 0 0 1
-27.649994 -19.518898 7.830173 34.739331 0.614693 1.343445 0.048616 -0.021241 -454222.000000 0 0 1
-27.267074 -18.262398 8.320773 33.856222 0.590141 1.322485 0.057088 -0.020635 -183033.000000 0 0 1
-26.046894 -18.397098 9.226173 33.196629 0.614946 1.289163 0.060271 -0.013195 -226205.000000 0 0 1
-26.423784 -19.091198 10.401173 34.218045 0.625668 1.261942 0.060517 -0.022477 1567170.000000 0 0 1
-25.297244 -19.383898 11.322273 33.821294 0.653817 1.229438 0.050688 -0.001907 1358490.000000 0 0 1
-24.831834 -18.354598 12.359273 33.260530 0.636525 1.190076 0.045068 -0.008820 -637400.000000 0 0 1
-24.115834 -17.280098 11.812973 31.933079 0.621744 1.191864 0.044076 -0.014393 -31216.900000 0 0 1
-23.823934 -16.201698 12.729973 31.498048 0.597218 1.154746 0.049991 -0.013294 392617.000000 0 0 1
-22.957034 -16.569298 13.991673 31.580594 0.625176 1.111802 0.049792 -0.014386 -409961.000000 0 0 1
-23.713034 -17.052998 15.058373 32.861334 0.623457 1.094782 0.046211 -0.019468 -224621.000000 0 0 1
-22.957034 -17.258098 16.230673 32.989424 0.644624 1.056415 0.058368 -0.020620 -347000.000000 0 0 1
-23.781234 -17.817598 17.404373 34.437277 0.643008 1.040959 0.038600 0.000609 412797.000000 0 0 1
-24.662634 -16.874398 18.048473 34.910431 0.600049 1.027461 0.062893 -0.010857 79900.700000 0 0 1
-25.693174 -17.534098 18.693973 36.291161 0.598845 1.029659 0.051492 0.005482 -531871.000000 0 0 1
-26.722594 -16.646598 19.457873 37.011013 0.557117 1.017221 0.057944 -0.000154 161209.000000 0 0 1
-26.209804 -16.104098 20.677873 37.065755 0.550963 0.978979 0.058009 -0.008956 411248.000000 0 0 1
-27.138644 -15.160398 21.168773 37.609315 0.509443 0.972955 0.064243 -0.012134 17606.700000 0 0 1
-26.549364 -14.466598 22.411773 37.635604 0.498915 0.932916 0.071062 -0.016621 28539.100000 0 0 1
-25.517434 -13.581098 22.038873 36.349657 0.489097 0.919394 0.077196 -0.017277 -497188.000000 0 0 1
-24.501734 -13.594298 22.986073 36.242233 0.506544 0.883778 0.081199 -0.023966 -26091.100000 0 0 1
-23.182734 -12.980398 22.402273 34.753298 0.510425 0.870285 0.090037 -0.023674 235063.000000 0 0 1
-23.277534 -11.641598 22.040773 34.105220 0.463745 0.868126 0.099223 -0.022961 -575849.000000 0 0 1
-22.173434 -11.211598 21.339273 32.752491 0.468143 0.861195 0.094190 -0.021496 -859379.000000 0 0 1
-21.691534 -9.759898 21.668773 32.176295 0.422804 0.831945 0.091946 -0.024391 293258.000000 0 0 1
-21.151334 -9.604298 23.001973 32.691164 0.426238 0.790325 0.099392 -0.029348 839440.000000 0 0 1
-19.765134 -9.912098 23.157173 32.018195 0.464842 0.762299 0.084332 -0.022547 418960.000000 0 0 1
-19.137434 -10.026098 24.539673 32.694947 0.482584 0.721880 0.069983 -0.026712 263980.000000 0 0 1
-19.512934 -11.292698 25.092073 33.732651 0.524632 0.731982 0.068607 -0.019709 -105032.000000 0 0 1
-18.744634 -11.568998 26.210673 34.237441 0.552963 0.698892 0.068637 -0.016587 -641739.000000 0 0 1
-19.304634 -12.779198 26.990573 35.559356 0.584748 0.708976 0.065828 -0.032392 1554770.000000 0 0 1
-20.580634 -12.780398 27.711073 36.807670 0.555712 0.718398 0.076836 -0.025374 463989.000000 0 0 1
-21.664934 -13.045598 26.864373 36.895142 0.542001 0.755210 0.074023 -0.021676 -295510.000000 0 0 1
-22.909534 -13.274798 27.770073 38.369831 0.525168 0.761579 0.066717 -0.025205 -101518.000000 0 0 1
-22.947634 -14.391698 28.572973 39.371686 0.560147 0.758710 0.056970 -0.021414 -161262.000000 0 0 1
-22.102634 -14.396698 29.720173 39.737639 0.577328 0.725889 0.048850 -0.015484 -37774.000000 0 0 1
-22.409834 -15.490098 30.698173 41.042924 0.604808 0.725824 0.031062 -0.019179 -528463.000000 0 0 1
-22.388934 -16.808298 30.125973 41.126117 0.643975 0.748770 0.032758 -0.017303 -148062.000000 0 0 1
-22.393134 -17.805398 31.161773 42.302963 0.671763 0.742718 0.038120 -0.021533 -234759.000000 0 0 1
-23.722134 -18.190698 31.845873 43.678378 0.654182 0.753791 0.053182 -0.021368 -165898.000000 0 0 1
-24.212034 -17.224698 32.751973 44.222217 0.618343 0.736800 0.053896 -0.014643 469109.000000 0 0 1
-25.502124 -17.636998 33.234473 45.452747 0.605059 0.750735 0.069886 -0.028057 395409.000000 0 0 1
-26.243394 -16.574998 34.070273 46.089367 0.563322 0.738882 0.071158 -0.029492 -155309.000000 0 0 1
-25.722304 -16.226698 -33.048927 44.912963 0.562789 2.397708 0.065894 -0.020819 -262681.000000 0 0 1
-26.479214 -15.208998 -32.452627 44.560469 0.521364 2.386609 0.076770 -0.016412 -299746.000000 0 0 1
-25.897304 -14.700498 -31.088627 43.049712 0.516290 2.377711 0.070663 -0.002515 -9383.830000 0 0 1
-26.263724 -15.540098 -30.030627 42.814909 0.534290 2.348164 0.077259 0.002790 245657.000000 0 0 1
-25.618414 -15.201198 -28.798027 41.433150 0.535530 2.339283 0.080560 0.015709 -168362.000000 0 0 1
-25.914564 -16.243298 -27.725427 41.280851 0.559894 2.307202 0.077528 0.015106 -514059.000000 0 0 1
-27.151284 -16.111098 -27.093727 41.603242 0.535540 2.280015 0.085562 0.008415 -263839.000000 0 0 1
-27.477304 -14.961498 -26.222927 40.822672 0.498614 2.268372 0.094483 0.011361 -234177.000000 0 0 1
-26.529054 -14.774098 -24.992927 39.328248 0.508127 2.259447 0.098994 -0.008698 -124532.000000 0 0 1
-25.238434 -14.317898 -25.381227 38.551102 0.516032 2.289459 0.086856 -0.009437 777930.000000 0 0 1
-24.327534 -14.434698 -24.252127 37.260637 0.535514 2.279537 0.089302 -0.009282 474901.000000 0 0 1
-23.559634 -15.797998 -24.208527 37.291901 0.590689 2.277280 0.078285 0.002156 -458767.000000 0 0 1
-22.646434 -15.903198 -25.297227 37.492964 0.612227 2.311381 0.038245 0.005993 77142.300000 0 0 1
-22.158734 -17.216798 -25.376427 37.833724 0.660543 2.305997 0.036568 0.003185 -3420.530000 0 0 1
-21.285634 -17.429798 -26.671927 38.317982 0.686131 2.340703 0.023821 0.003286 404019.000000 0 0 1
-21.890834 -17.446798 -28.008227 39.598739 0.672904 2.356469 0.033054 -0.001673 362363.000000 0 0 1
-22.866934 -18.458998 -28.215727 40.740134 0.679137 2.335853 0.050521 -0.005512 94904.500000 0 0 1
-23.641334 -18.466498 -29.555427 42.112320 0.663116 2.348751 0.060048 -0.012764 112425.000000 0 0 1
-22.830734 -18.889498 -30.657227 42.637086 0.691209 2.373198 0.058311 -0.014339 470962.000000 0 0 1
-23.432734 -18.631098 -31.909127 43.753894 0.671739 2.388075 0.056965 -0.015715 -80837.700000 0 0 1
-22.457434 -19.008398 -33.069227 44.263183 0.702411 2.414492 0.054526 -0.019909 -313595.000000 0 0 1
-21.321334 -18.135998 -33.233427 43.450827 0.704844 2.441607 0.041188 -0.009106 1458280.000000 0 0 1
-20.105534 -18.837398 -32.844127 42.869765 0.752846 2.443605 0.032634 -0.015073 638318.000000 0 0 1
-19.645034 -19.908698 -33.840827 43.903134 0.792064 2.450903 0.034069 -0.020451 -1741580.000000 0 0 1
-19.292434 -19.406598 33.265773 43.074652 0.788348 0.688371 0.040408 -0.023045 191305.000000 0 0 1
-19.114134 -20.418698 32.294273 42.722282 0.818386 0.713751 0.049530 -0.030581 -345720.000000 0 0 1
-20.383834 -21.173198 31.856373 43.343206 0.804391 0.745160 0.048165 -0.023836 169958.000000 0 0 1
-21.162734 -21.905198 32.829873 44.782804 0.802636 0.747941 0.046655 -0.023788 734300.000000 0 0 1
-22.544034 -22.058898 32.516773 45.300871 0.774522 0.770165 0.054136 -0.015668 559472.000000 0 0 1
-22.778034 -23.287198 31.581873 45.371214 0.796451 0.800877 0.059199 -0.004129 -696754.000000 0 0 1
-22.650834 -24.565398 32.210973 46.411915 0.825925 0.803733 0.061700 -0.005238 -9823.820000 0 0 1
-22.631234 -25.625488 31.271673 46.333097 0.847367 0.829924 0.062835 0.007250 -5990.290000 0 0 1
-22.091034 -26.993758 31.807173 47.205646 0.884951 0.831457 0.089689 0.006874 -22243.200000 0 0 1
-22.857734 -27.435328 32.883973 48.544092 0.876166 0.826568 0.049496 0.001675 -207157.000000 0 0 1
-22.214334 -28.520138 33.560773 49.327481 0.909054 0.822534 0.042832 0.001766 -1224210.000000 0 0 1
-23.038234 -29.232038 -33.733827 50.231896 0.903344 2.307111 0.045111 -0.002402 -309898.000000 0 0 1
-24.095234 -29.977988 34.113773 51.410209 0.893764 0.845229 0.021809 0.003305 470578.000000 0 0 1
-25.238604 -29.266568 33.618773 51.222466 0.859165 0.854854 0.015488 0.009687 -332378.000000 0 0 1
-26.413354 -28.910608 -33.832527 51.750637 0.830506 2.283340 0.019059 0.009651 -114592.000000 0 0 1
-27.423954 -28.169008 33.922673 51.926043 0.798799 0.858877 0.022159 0.003021 -197392.000000 0 0 1
-28.477104 -27.798508 -33.619127 52.095568 0.773340 2.272259 0.024686 0.006446 676447.000000 0 0 1
-29.655794 -26.941548 34.150173 52.645488 0.737478 0.864945 0.015242 0.004427 645179.000000 0 0 1
-30.609804 -27.661148 33.433773 53.102885 0.734839 0.889753 0.004667 0.000979 -849706.000000 0 0 1
-31.693004 -26.860838 33.082873 53.107698 0.703060 0.898302 0.011013 -0.003132 -502680.000000 0 0 1
