# x y z rho theta phi s1 s2 stress_xx np intf bulk
-0.739064 -10.791103 -14.261040 17.898921 1.502415 2.492701 -0.008136 0.007513 893831.000000 1 0 0
2.101536 -13.481403 -13.039140 18.872833 -1.416157 2.333522 -0.007567 0.011635 762900.000000 1 0 0
2.107636 -11.127003 -14.646240 18.513904 -1.383598 2.483392 -0.005006 0.010070 -187998.000000 1 0 0
-5.552264 -6.358803 -16.400940 18.445943 0.853008 2.666249 0.008444 0.000446 -496384.000000 1 0 0
4.512036 -14.184303 -11.501040 18.810285 -1.262817 2.228654 -0.007794 0.010599 564306.000000 1 0 0
13.942636 -10.615003 -8.052240 19.285070 -0.650715 2.001530 0.021931 -0.000759 -3049.790000 1 0 0
7.126936 10.739797 -10.743440 16.779689 0.984919 2.265639 0.018214 -0.015070 -712758.000000 1 0 0
5.764636 -4.240603 -12.644140 14.528868 -0.634237 2.626561 -0.002504 0.001388 2179060.000000 1 0 0
13.654936 0.461697 -10.112040 16.997758 0.033799 2.207943 0.019884 0.003054 1762020.000000 1 0 0
14.185936 5.072597 -10.368840 18.288927 0.343411 2.173590 0.021521 -0.002679 -574858.000000 1 0 0
4.158736 4.357797 -13.580540 14.856532 0.808767 2.724110 0.000145 -0.001634 1683780.000000 1 0 0
10.347136 -4.951103 -13.717740 17.881639 -0.446300 2.445169 0.022374 -0.001064 -778956.000000 1 0 0
2.546536 -7.595603 -12.019040 14.444215 -1.247309 2.553681 0.000212 0.004972 870557.000000 1 0 0
-5.625264 -1.977803 -15.235240 16.360557 0.338093 2.768536 0.004624 -0.001967 713535.000000 1 0 0
10.657036 0.072997 -9.678840 14.396447 0.006850 2.308118 0.009529 -0.001864 1825690.000000 1 0 0
-1.723064 -9.524803 -16.764840 19.358478 1.391829 2.617984 -0.001772 0.004508 489641.000000 1 0 0
8.533736 1.769997 -17.859840 19.872881 0.204512 2.687602 0.020628 -0.009348 423518.000000 1 0 0
16.466936 -5.850503 -8.934540 19.626878 -0.341378 2.043415 0.029335 -0.007241 -290938.000000 1 0 0
10.129436 7.628797 -9.869840 16.069155 0.645502 2.232181 0.019053 -0.005598 614483.000000 1 0 0
13.829136 -2.288203 -10.639340 17.597625 -0.163977 2.220047 0.029846 -0.001764 -441381.000000 1 0 0
7.211536 -1.823103 -13.702040 15.590890 -0.247616 2.644241 0.003294 -0.002570 120193.000000 1 0 0
-2.791064 6.643997 -13.793140 15.562244 -1.173093 2.660135 0.006574 0.000251 113066.000000 1 0 0
11.173736 1.872097 -13.848440 17.892356 0.166003 2.455909 0.018374 -0.004238 -31822.200000 1 0 0
-2.216764 10.779697 -12.821440 16.896900 -1.367981 2.432272 0.005506 0.000864 -343268.000000 1 0 0
2.765536 -1.068403 -15.169940 15.456932 -0.368664 2.948590 0.001144 -0.003802 -228219.000000 1 0 0
-9.069964 0.490397 -15.359740 17.844505 -0.054016 2.607547 -0.002746 0.008605 -1339970.000000 1 0 0
2.480636 -1.643103 -17.998640 18.242926 -0.585023 2.977759 0.006758 -0.007945 1053390.000000 1 0 0
1.099336 7.871997 -13.097440 15.320568 1.432042 2.596140 0.004709 -0.001387 -308845.000000 1 0 0
9.313636 -9.137803 -9.910940 16.385053 -0.775869 2.220408 0.011607 0.006469 726331.000000 1 0 0
4.014336 7.377997 -13.550340 15.942441 1.072498 2.586694 -0.000169 0.000420 1626400.000000 1 0 0
-2.695864 9.144997 -15.387840 18.102052 -1.284125 2.586897 0.006136 -0.000712 742203.000000 1 0 0
5.521736 -7.703603 -15.294040 17.992851 -0.948902 2.586794 0.008456 0.003795 -296235.000000 1 0 0
4.235836 7.278197 -16.415840 18.449776 1.043725 2.667611 0.006162 0.001090 1463970.000000 1 0 0
-0.217164 5.090497 -13.435440 14.369111 -1.528161 2.779118 0.006520 -0.003563 1606050.000000 1 0 0
8.927136 4.302697 -16.577640 19.313858 0.449128 2.602800 0.026800 -0.003286 491078.000000 1 0 0
5.290136 0.240697 -14.354240 15.299924 0.045468 2.788160 0.000087 -0.000894 1004110.000000 1 0 0
6.331136 7.937597 -11.591840 15.409720 0.897512 2.422255 0.006087 -0.003149 -461584.000000 1 0 0
2.732236 -8.321103 -14.987340 17.358750 -1.253537 2.612743 0.003563 0.000306 888544.000000 1 0 0
4.090536 11.466897 -13.772940 18.382494 1.228143 2.417713 0.006129 -0.006467 -217234.000000 1 0 0
0.595536 -4.554003 -13.716740 14.465219 -1.440762 2.818496 0.005170 -0.000181 2053480.000000 1 0 0
8.514136 -0.102003 -11.635040 14.417873 -0.011980 2.509829 0.001448 -0.002758 -421724.000000 1 0 0
-1.032764 -5.009703 -16.242940 17.029293 1.367492 2.836515 -0.000452 -0.003464 689258.000000 1 0 0
4.459736 0.917197 -11.700340 12.555017 0.202834 2.770483 0.000003 -0.005591 1053060.000000 1 0 0
-2.859264 -7.146803 -15.482640 17.290584 1.190224 2.680210 -0.011175 0.002512 2048260.000000 1 0 0
11.372636 -3.694003 -11.395840 16.518101 -0.314065 2.332147 0.021411 -0.002305 296574.000000 1 0 0
6.480036 -7.128903 -12.510240 15.789813 -0.833042 2.485363 0.003331 0.006276 106429.000000 1 0 0
3.441436 -3.958303 -14.568440 15.483897 -0.855134 2.796006 0.003597 -0.001065 1870410.000000 1 0 0
-0.507964 -1.400403 -18.367740 18.428050 1.222828 3.060667 0.005223 -0.007535 545726.000000 1 0 0
14.804336 2.867097 -8.513540 17.316725 0.191298 2.084765 0.013609 -0.000551 -542156.000000 1 0 0
7.040536 4.327197 -14.298040 16.514470 0.551094 2.617520 0.006220 -0.003666 2050520.000000 1 0 0
10.094536 -9.690703 -14.128040 19.884941 -0.764990 2.360990 0.025836 0.001992 -2264090.000000 1 0 0
9.008336 -3.202703 -15.594340 18.291824 -0.341590 2.591604 0.018060 -0.008861 -161294.000000 1 0 0
-5.335764 -2.126603 -18.142240 19.029810 0.379261 2.834972 -0.000198 0.008391 36560.300000 1 0 0
5.019036 -9.178203 -11.194240 15.321264 -1.070380 2.390047 -0.004742 0.007401 2011210.000000 1 0 0
-2.454664 4.051597 -17.307440 17.944032 -1.026086 2.874429 0.007156 0.006968 1650780.000000 1 0 0
9.384036 9.458697 -14.473940 19.672875 0.789361 2.397541 0.038872 -0.010102 545416.000000 1 0 0
9.865636 10.042297 -11.618140 18.252662 0.794272 2.260771 0.029175 -0.012971 -137243.000000 1 0 0
11.925236 -5.903603 -9.636640 16.429504 -0.459681 2.197582 0.022285 -0.000232 -1323250.000000 1 0 0
8.170636 6.945497 -13.707840 17.404140 0.704527 2.477732 0.013819 -0.000086 -88607.100000 1 0 0
3.891836 -4.101603 -17.559440 18.447315 -0.811635 2.830075 0.011520 -0.005924 329841.000000 1 0 0
9.383136 -7.490203 -12.379740 17.245415 -0.673680 2.371515 0.014183 0.002266 519858.000000 1 0 0
11.940836 -8.593303 -8.843340 17.164879 -0.623797 2.112037 0.020529 0.001141 840997.000000 1 0 0
-3.038564 -2.466703 -13.909040 14.449183 0.681894 2.867303 0.005095 -0.002997 -1845580.000000 1 0 0
-0.424264 6.198197 -17.724240 18.781542 -1.502453 2.804455 0.011878 0.006659 761666.000000 1 0 0
1.002536 -8.435503 -17.469040 19.424987 -1.452504 2.688980 -0.004052 0.004494 1231570.000000 1 0 0
0.059036 8.589997 -15.929140 18.097763 1.563924 2.647020 0.005077 0.002908 -486567.000000 1 0 0
1.746436 3.405997 -14.952740 15.434872 1.096998 2.890991 0.011129 -0.002668 1224900.000000 1 0 0
-1.892964 -0.404903 -15.811740 15.929795 0.210723 3.019772 0.007737 -0.003344 2075240.000000 1 0 0
14.088336 -4.318803 -8.484040 17.003299 -0.297457 2.093200 0.025449 -0.003303 999053.000000 1 0 0
0.563736 0.717297 -14.543540 14.572126 0.904702 3.078945 0.007118 -0.003622 -459978.000000 1 0 0
8.796936 2.780097 -12.457040 15.501382 0.306098 2.504130 0.007584 -0.002474 442867.000000 1 0 0
5.810336 1.048097 -17.112840 18.102701 0.178466 2.809370 0.011884 0.001515 114432.000000 1 0 0
15.356936 1.413197 -12.393740 19.784777 0.091765 2.247759 0.029781 -0.000186 -767437.000000 1 0 0
8.795536 -11.287903 -11.985140 18.666059 -0.908868 2.268007 0.017530 0.005537 2422160.000000 1 0 0
-4.681064 0.747697 -15.169840 15.893252 -0.158390 2.838718 0.006286 -0.001451 1018620.000000 1 0 0
2.399036 5.119797 -17.282140 18.183510 1.132599 2.825410 0.007294 -0.000493 3110210.000000 1 0 0
5.902936 -11.798903 -12.493940 18.170231 -1.106912 2.328982 0.003107 0.009647 1363850.000000 1 0 0
12.882736 7.327097 -8.698240 17.184604 0.517127 2.101528 0.019094 -0.003887 -13917.700000 1 0 0
-5.008564 3.639597 -15.810040 16.979097 -0.628405 2.768343 0.002366 0.004582 1510470.000000 1 0 0
-0.569664 -4.310603 -19.040940 19.531083 1.439403 2.917088 0.004535 -0.006778 -790442.000000 1 0 0
9.855936 4.481897 -10.161440 14.848627 0.426789 2.324488 0.005891 0.003430 187708.000000 1 0 0
13.410036 3.568297 -12.838540 18.904759 0.260065 2.317355 0.027020 -0.008024 -395607.000000 1 0 0
-6.202764 5.947897 -17.127240 19.162310 -0.764426 2.676541 0.002940 0.004879 -1457290.000000 1 0 0
-10.175964 3.278897 -15.470540 18.805292 -0.311715 2.536887 0.002898 0.006994 709627.000000 1 0 0
10.686836 13.358497 -8.255840 18.995178 0.896054 2.020422 0.022311 -0.015140 1266290.000000 1 0 0
7.430936 13.354297 -12.158740 19.529235 1.063018 2.242847 0.032429 -0.015933 1164890.000000 1 0 0
5.295236 15.106497 -11.110940 19.485861 1.233652 2.177552 0.015057 -0.015346 217368.000000 1 0 0
14.232536 9.623997 -9.939940 19.849151 0.594572 2.095289 0.042767 -0.013879 93870.000000 1 0 0
8.327936 -17.284803 -2.038640 19.294428 -1.121809 1.676653 0.019382 0.007153 394566.000000 1 0 0
0.673136 -16.004303 0.061560 16.018571 -1.528761 1.566953 0.009147 -0.003427 2911300.000000 1 0 0
-9.118564 -11.580903 7.542960 16.557831 0.903798 1.097804 0.005728 -0.005184 -1831530.000000 1 0 0
1.956636 -15.946703 -2.537540 16.265450 -1.448708 1.727444 0.008148 -0.000143 1485280.000000 1 0 0
-1.342264 -11.046203 -9.428740 14.584972 1.449876 2.273744 -0.002771 0.003070 1615790.000000 1 0 0
-4.838264 -12.653103 -13.004140 18.778111 1.205573 2.335767 0.006272 -0.001747 302968.000000 1 0 0
-8.297464 -17.999003 -1.608240 19.884628 1.138836 1.651763 0.019851 -0.008593 -536521.000000 1 0 0
-11.326464 -7.047403 -8.836040 16.000946 0.556588 2.155821 0.010764 -0.004407 2129420.000000 1 0 0
-13.503464 -11.428603 -4.689540 18.301592 0.702369 1.829923 -0.001445 -0.002578 -750652.000000 1 0 0
-5.879764 -13.371003 9.834760 17.609027 1.156507 0.978212 0.000241 -0.006813 181916.000000 1 0 0
0.048436 -14.070603 -3.594040 14.522442 -1.567354 1.820877 0.007678 -0.000602 492583.000000 1 0 0
-14.795664 -11.706103 2.087160 18.981590 0.669343 1.460616 0.000278 0.004133 1120170.000000 1 0 0
-3.917364 -16.575903 -7.500840 18.610988 1.338725 1.985625 -0.001459 -0.005685 1490350.000000 1 0 0
0.501736 -15.367503 -9.192040 17.913834 -1.538159 2.109618 -0.004479 0.007635 1876330.000000 1 0 0
4.440836 -14.228003 -2.614540 15.132511 -1.268258 1.744444 -0.001755 0.007644 1247980.000000 1 0 0
-3.496164 -18.093703 -2.343240 18.576760 1.379923 1.697271 0.004591 -0.009339 2206170.000000 1 0 0
-1.054464 -13.570403 0.717160 13.630189 1.493249 1.518156 0.005514 -0.003453 3448650.000000 1 0 0
-8.408764 -11.471903 -10.423940 17.634352 0.938272 2.203237 0.004097 -0.007922 1209090.000000 1 0 0
-3.820264 -14.177503 -0.382740 14.688175 1.307588 1.596857 -0.001257 -0.002231 4929520.000000 1 0 0
-1.601664 -14.927103 -7.225740 16.661183 1.463906 2.019377 -0.004200 0.001950 349459.000000 1 0 0
-14.165764 -7.968203 -1.844140 16.357322 0.512387 1.683777 0.003504 -0.002044 488175.000000 1 0 0
-10.651864 -7.296703 -11.640340 17.383946 0.600599 2.304470 0.008163 -0.000505 -570575.000000 1 0 0
-9.439064 -14.635503 6.828060 18.706049 0.997984 1.197143 -0.004038 0.000861 310927.000000 1 0 0
-2.502564 -14.453103 -12.411140 19.214354 1.399346 2.273038 0.011479 0.002486 1624680.000000 1 0 0
2.382136 -17.787403 -4.705940 18.552955 -1.437666 1.827247 0.007455 0.001903 2882320.000000 1 0 0
-6.530264 -9.767603 -9.190740 14.917108 0.981482 2.234604 -0.001359 -0.005531 303388.000000 1 0 0
-11.012564 -15.454303 0.414860 18.981152 0.951671 1.548938 0.007598 -0.001318 1105090.000000 1 0 0
-12.578764 -11.127503 4.119860 17.292191 0.724256 1.330233 0.010844 0.002622 2616680.000000 1 0 0
-16.901564 -8.902803 -1.549740 19.165711 0.484813 1.651745 -0.004299 -0.001004 195228.000000 1 0 0
-1.394064 -19.226103 -3.824140 19.652238 1.498414 1.766636 0.004249 -0.007404 -781098.000000 1 0 0
3.238536 -14.345203 -8.730640 17.102544 -1.348761 2.106548 -0.009376 0.009429 1513140.000000 1 0 0
-4.286364 -8.013003 -13.011140 15.870441 1.079600 2.531919 -0.005656 0.002570 1336210.000000 1 0 0
5.521536 -16.616403 1.304960 17.558335 -1.249981 1.496406 0.019368 0.001760 4128590.000000 1 0 0
-2.857164 -13.812703 -3.188140 14.460926 1.366823 1.793088 0.000166 -0.003264 -233433.000000 1 0 0
-0.502664 -14.022303 3.697860 14.510404 1.534964 1.313112 0.003617 -0.001618 -3898100.000000 1 0 0
1.199236 -16.068903 7.084860 17.602359 -1.496304 1.156556 0.029353 -0.015307 1311330.000000 1 0 0
-5.476564 -10.358803 -14.497040 18.640325 1.084463 2.461834 0.002983 -0.003777 -1130700.000000 1 0 0
-0.326064 -17.335103 -5.832540 18.292912 1.551989 1.895303 0.007939 -0.000544 893648.000000 1 0 0
-6.696564 -13.478203 -1.292440 15.105506 1.109677 1.656462 0.005679 -0.005631 1875080.000000 1 0 0
-1.723264 -17.809503 -0.043540 17.892734 1.474336 1.573230 0.007599 -0.002203 1590350.000000 1 0 0
-9.485564 -9.848103 -4.833540 14.502557 0.804148 1.910586 0.009527 -0.005620 560262.000000 1 0 0
-0.854864 -16.626903 4.991760 17.381092 1.519427 1.279499 0.017806 -0.011089 1753180.000000 1 0 0
-6.825864 -9.993203 -6.314440 13.650226 0.971537 2.051709 0.003457 -0.004236 3093060.000000 1 0 0
-6.057964 -14.572203 -8.548140 17.947666 1.176812 2.067217 0.003356 -0.008885 284944.000000 1 0 0
-5.676864 -12.274403 -10.250540 16.969423 1.137599 2.219381 0.001746 -0.004328 494862.000000 1 0 0
-10.531064 -12.237503 -8.674840 18.327919 0.860205 2.063844 0.013024 -0.018369 -1313620.000000 1 0 0
3.949636 -16.951903 6.548660 18.597085 -1.341889 1.210946 0.043345 -0.017350 1021580.000000 1 0 0
-6.720464 -14.520003 -4.104440 16.517916 1.137315 1.821911 0.003798 -0.007623 -1223490.000000 1 0 0
-2.918264 -12.187303 -7.117440 14.411959 1.335770 2.087316 0.000347 0.000611 2805510.000000 1 0 0
-6.985864 -12.757603 4.421960 15.202383 1.069810 1.275657 -0.006108 0.000981 1840460.000000 1 0 0
2.559336 -16.378603 2.476660 16.761344 -1.415789 1.422493 0.014343 -0.006332 4365480.000000 1 0 0
-6.224164 -11.892803 7.210060 15.236927 1.088639 1.077881 -0.007459 -0.001261 1344850.000000 1 0 0
-11.310664 -12.931103 -0.957540 17.206435 0.852144 1.626475 0.003107 0.004786 50786.500000 1 0 0
-14.264764 -8.728703 4.628760 17.352209 0.549128 1.300774 0.011293 -0.001843 -595739.000000 1 0 0
-7.896164 -15.414203 4.396360 17.868269 1.097385 1.322201 -0.003390 -0.000513 672937.000000 1 0 0
-16.363864 -9.229103 1.221060 18.826667 0.513523 1.505893 -0.009979 0.003785 1100170.000000 1 0 0
-6.698064 -17.082203 2.365160 18.500262 1.197112 1.442601 0.000449 0.000491 1903660.000000 1 0 0
-11.697864 -14.962603 -4.670440 19.558438 0.907248 1.811920 0.020883 -0.006587 646777.000000 1 0 0
-10.006964 -10.058903 -12.537540 18.934380 0.787987 2.294490 0.004257 -0.001622 -69478.300000 1 0 0
-4.326364 -16.079603 -4.515140 17.252754 1.307962 1.835585 0.000131 -0.007164 -826425.000000 1 0 0
-11.759564 -8.292103 -0.002440 14.389104 0.614165 1.570966 -0.003540 0.001505 2214290.000000 1 0 0
-9.586964 -11.091403 3.500260 15.072522 0.858024 1.336429 -0.000733 0.003935 2074550.000000 1 0 0
-14.269164 -13.091303 -0.462640 19.370217 0.742375 1.594683 0.002501 0.009814 1662130.000000 1 0 0
5.631536 -14.952003 -7.155040 17.506318 -1.210588 1.991839 0.003350 0.005297 79845.000000 1 0 0
-7.433764 -10.678503 -1.342940 13.080319 0.962664 1.673646 0.003064 -0.004029 2014930.000000 1 0 0
-11.597464 -8.195103 -5.996640 15.414946 0.615161 1.970358 0.009059 -0.006351 413412.000000 1 0 0
-14.416564 -6.786603 -9.266040 18.432439 0.439975 2.097519 0.020335 -0.004327 3841740.000000 1 0 0
-3.930764 -16.518003 1.449860 17.041051 1.337173 1.485613 -0.000035 -0.005034 1847460.000000 1 0 0
-8.006364 -15.657103 0.155860 17.586103 1.098105 1.561934 0.015367 -0.004172 821833.000000 1 0 0
0.902636 -18.560303 3.859460 18.978804 -1.522202 1.366012 0.020033 -0.014516 907795.000000 1 0 0
-14.066164 -8.587403 -4.626340 17.117344 0.548105 1.844472 0.006130 -0.004836 489184.000000 1 0 0
-3.458164 -14.537303 11.090460 18.608879 1.337255 0.932315 -0.000254 -0.009835 473951.000000 1 0 0
-10.892764 -12.167403 -3.797840 16.766681 0.840616 1.799291 0.008773 -0.007259 1405840.000000 1 0 0
-9.946564 -10.794503 0.540960 14.688365 0.826258 1.533959 0.001474 0.002453 1883610.000000 1 0 0
-0.193064 -13.297303 -11.134040 17.344232 1.556278 2.267828 -0.005517 0.003482 1252030.000000 1 0 0
-5.910764 -12.735103 -6.295340 15.386724 1.136253 1.992309 -0.004162 -0.008382 1553470.000000 1 0 0
1.704336 -15.728203 9.970360 18.699979 -1.462856 1.008447 0.041163 -0.016588 196208.000000 1 0 0
-9.026864 -15.686803 -5.420540 18.892917 1.048629 1.861794 0.019056 -0.012654 -823386.000000 1 0 0
-3.459364 -15.397503 5.876960 16.840099 1.349796 1.214307 -0.000780 -0.003709 -735379.000000 1 0 0
-17.522364 -5.420103 -6.524440 19.467385 0.299990 1.912558 0.019598 -0.001885 236369.000000 1 0 0
18.772936 5.575897 -2.929040 19.801339 0.288719 1.719262 0.000664 0.010200 -1991310.000000 1 0 0
12.781436 -12.449603 -6.007840 18.826891 -0.772247 1.895586 0.023669 0.005751 -468549.000000 1 0 0
10.960136 -13.517303 -1.729440 17.488082 -0.889491 1.669851 0.021863 0.006302 1717600.000000 1 0 0
18.679336 -2.994203 4.430860 19.429754 -0.158943 1.340727 0.028504 -0.007948 -795744.000000 1 0 0
8.631536 -16.933903 4.875060 19.622097 -1.099404 1.319719 0.021827 -0.013202 223290.000000 1 0 0
18.087536 -1.144403 6.622160 19.295637 -0.063186 1.220480 0.044376 -0.009640 -957737.000000 1 0 0
17.990136 -4.358103 -5.095840 19.199105 -0.237671 1.839437 0.032543 -0.011782 76217.300000 1 0 0
5.313136 -11.870203 14.815060 19.713374 -1.149938 0.720428 0.002339 0.006767 1528050.000000 1 0 0
15.971136 -8.935503 -0.895440 18.322723 -0.510091 1.619686 0.020052 -0.001287 808806.000000 1 0 0
13.884536 -12.705203 -1.597340 18.887933 -0.741074 1.655467 0.026994 0.004239 -503604.000000 1 0 0
11.153036 -2.043103 13.904360 17.941452 -0.181179 0.684105 0.015676 -0.001115 -516145.000000 1 0 0
16.961836 -6.207703 -1.532740 18.127017 -0.350840 1.655453 0.021068 -0.003616 -1710440.000000 1 0 0
17.762536 3.674697 -1.089840 18.171374 0.204001 1.630808 0.011424 0.008801 1766730.000000 1 0 0
9.717236 -11.090503 9.516860 17.549773 -0.851300 0.997650 0.021316 -0.001131 201679.000000 1 0 0
9.066236 -11.103203 4.161460 14.926335 -0.886050 1.288252 0.010318 -0.000228 -314806.000000 1 0 0
13.974236 -10.210703 6.803460 18.596365 -0.631022 1.196252 0.013430 -0.001605 -1120690.000000 1 0 0
16.233036 -0.623803 -4.773940 16.931954 -0.038409 1.856621 0.021730 -0.001905 -1953980.000000 1 0 0
15.731336 -0.523303 -1.787840 15.841248 -0.033253 1.683897 0.017561 -0.001360 567529.000000 1 0 0
12.892036 -5.241403 -0.287640 13.919757 -0.386150 1.591462 0.014847 -0.002392 1259520.000000 1 0 0
14.298236 -7.594803 1.057960 16.224668 -0.488272 1.505543 0.023631 -0.000768 2856610.000000 1 0 0
15.448236 2.380997 3.629360 16.046476 0.152924 1.342644 0.015592 -0.003205 1647540.000000 1 0 0
15.904636 -7.202903 4.907360 18.136191 -0.425247 1.296797 0.027269 -0.006128 -735385.000000 1 0 0
13.675736 -12.233603 3.210760 18.627822 -0.729795 1.397568 0.018514 0.002143 -718409.000000 1 0 0
13.887036 -1.080703 9.155860 16.668757 -0.077664 0.989291 0.026793 -0.008095 172471.000000 1 0 0
14.248936 -2.872603 -1.604440 14.623893 -0.198935 1.680731 0.013847 -0.002915 293701.000000 1 0 0
14.939636 1.694497 9.088860 17.569047 0.112940 1.027077 0.029045 -0.007811 -1726830.000000 1 0 0
14.339536 -10.180603 -3.168340 17.869117 -0.617384 1.749047 0.022824 0.000711 704859.000000 1 0 0
7.371536 -12.594903 6.068660 15.805054 -1.041271 1.176705 0.010911 -0.004667 727345.000000 1 0 0
12.450436 -4.674403 7.015760 15.036099 -0.359157 1.085360 0.014855 -0.005084 2186050.000000 1 0 0
14.922336 -9.066403 -5.795640 18.397424 -0.545969 1.891279 0.027129 -0.002391 545572.000000 1 0 0
14.280236 -4.619003 4.615460 15.702318 -0.312833 1.272455 0.018210 -0.007936 824093.000000 1 0 0
17.138436 -4.391803 0.849360 17.712575 -0.250857 1.522826 0.015421 -0.006637 -1105780.000000 1 0 0
10.198036 -14.520403 0.980860 17.770878 -0.958512 1.515573 0.022336 -0.001989 1310140.000000 1 0 0
16.338336 -2.635103 8.417160 18.567002 -0.159906 1.100288 0.040162 -0.011691 837813.000000 1 0 0
15.974236 -2.748803 3.156560 16.513509 -0.170408 1.378463 0.014390 -0.005000 1415220.000000 1 0 0
7.777636 -15.206203 2.663160 17.286198 -1.098009 1.416117 0.012659 -0.002341 2696140.000000 1 0 0
16.668836 -7.105903 7.775960 19.718253 -0.402970 1.165432 0.040482 -0.004120 -1097120.000000 1 0 0
10.211436 -8.593903 5.135060 14.300260 -0.699595 1.203505 0.015174 -0.002914 2359000.000000 1 0 0
10.996536 -11.884103 2.120360 16.329471 -0.824170 1.440580 0.021722 -0.000399 1297660.000000 1 0 0
12.292936 -7.400403 12.002860 18.706974 -0.541892 0.874181 0.013869 -0.008020 625424.000000 1 0 0
15.195936 -10.000103 4.256960 18.682618 -0.582033 1.340920 0.017949 0.000202 -278441.000000 1 0 0
7.324236 -10.262303 7.805060 14.828292 -0.950933 1.016479 0.008406 -0.000669 1470220.000000 1 0 0
15.221136 -3.369903 -4.421340 16.204551 -0.217882 1.847146 0.029378 -0.004462 357016.000000 1 0 0
11.848936 -9.126703 9.762960 17.860833 -0.656339 0.992482 0.006352 -0.004349 -1014190.000000 1 0 0
17.047536 -6.845903 2.315660 18.516132 -0.381865 1.445406 0.033101 -0.002955 2822360.000000 1 0 0
17.520136 3.901197 1.991460 18.059358 0.219095 1.460299 0.014390 0.005723 122061.000000 1 0 0
14.835836 -5.033003 8.661460 17.901230 -0.327063 1.065751 0.034652 -0.012137 -1256100.000000 1 0 0
12.742436 -12.713803 5.996160 18.972727 -0.784273 1.249243 0.004894 0.000066 -1234500.000000 1 0 0
18.234436 0.789597 -1.114440 18.285516 0.043276 1.631781 0.021801 0.000029 109460.000000 1 0 0
11.702136 -2.164903 11.009460 16.212187 -0.182932 0.824280 0.018815 -0.003794 967110.000000 1 0 0
5.873136 -12.530803 10.638060 17.455173 -1.132504 0.915429 0.013941 0.000520 -1258080.000000 1 0 0
10.676536 -5.054403 11.100860 16.210012 -0.442152 0.816446 0.014089 -0.002232 1036020.000000 1 0 0
17.805136 1.213597 4.968960 18.525287 0.068055 1.299245 0.035981 -0.005657 -649169.000000 1 0 0
12.303636 -7.770903 7.134360 16.206958 -0.563327 1.114971 0.013553 -0.008057 -1994530.000000 1 0 0
10.515336 -7.980903 14.291460 19.455409 -0.649222 0.745756 0.011305 -0.007981 -1074370.000000 1 0 0
14.131336 -0.354203 3.692860 14.610179 -0.025060 1.315265 0.007058 -0.001179 -29481.200000 1 0 0
11.670136 -7.746103 2.533360 14.234187 -0.585984 1.391866 0.015593 -0.000847 2358650.000000 1 0 0
9.360236 6.066297 3.535160 11.700912 0.575033 1.263873 0.004939 -0.002279 2229340.000000 1 0 0
-3.975364 14.882297 -9.913240 18.318259 -1.309770 2.142621 0.000453 0.000420 -237502.000000 1 0 0
8.796636 -6.434203 9.232260 14.283361 -0.631516 0.867986 0.008497 -0.001033 34470.900000 1 0 0
5.687236 -10.655103 -8.579040 14.814715 -1.080509 2.188407 -0.004895 0.005027 633863.000000 1 0 0
5.465436 1.114197 0.573960 5.607304 0.201107 1.468257 0.002321 -0.000734 3762100.000000 1 0 0
-0.559164 9.904097 11.024860 14.830757 -1.514398 0.732690 -0.007712 0.001385 1066120.000000 1 0 0
-6.418564 -5.194603 1.045160 8.323114 0.680392 1.444891 0.000491 -0.002255 1597120.000000 1 0 0
-1.077764 3.840297 -10.807640 11.520179 -1.297189 2.788040 0.006488 -0.004575 849478.000000 1 0 0
10.938436 5.810497 1.188760 12.442846 0.488295 1.475113 0.003995 0.000754 1460500.000000 1 0 0
-10.189664 -1.692903 -13.610140 17.085991 0.164635 2.492392 -0.000483 0.002136 559357.000000 1 0 0
7.502736 10.883397 -5.928240 14.487353 0.967237 1.992375 0.003388 -0.007964 -233532.000000 1 0 0
-12.420064 -2.909603 -9.515540 15.914436 0.230117 2.211698 0.004680 -0.003526 940414.000000 1 0 0
-3.930164 -8.586703 2.350660 9.731560 1.141555 1.326833 0.001998 0.000810 -957775.000000 1 0 0
7.966536 -6.695803 -5.945340 11.985263 -0.698948 2.089845 0.000030 -0.000394 1685750.000000 1 0 0
14.358536 3.084297 -4.208140 15.277070 0.211591 1.849859 0.018491 0.003803 701622.000000 1 0 0
-2.512364 -4.881703 9.878460 11.301636 1.095498 0.507271 -0.001570 -0.000055 1114640.000000 1 0 0
3.440536 -1.887703 -4.589340 6.038439 -0.501818 2.434142 -0.000999 -0.000216 -3851230.000000 1 0 0
-4.007964 8.442397 -3.404140 9.946156 -1.127558 1.920114 -0.005929 0.001389 315464.000000 1 0 0
5.776336 0.109297 11.709360 13.057072 0.018919 0.458352 0.001708 -0.004528 1634370.000000 1 0 0
7.123136 4.678197 12.360760 15.013760 0.581113 0.603604 0.009334 -0.001281 947113.000000 1 0 0
0.979836 -14.458903 12.522360 19.152792 -1.503133 0.858182 0.018501 -0.006186 287589.000000 1 0 0
2.998136 8.645097 -9.079440 12.890413 1.236973 2.352312 0.003866 -0.003524 600527.000000 1 0 0
-4.444964 -8.877003 -4.580140 10.933278 1.106566 2.003049 0.004955 -0.002340 2074180.000000 1 0 0
5.669836 -6.550403 -4.084640 9.578053 -0.857332 2.011370 -0.002511 -0.001529 1459610.000000 1 0 0
-3.096564 3.511697 8.716660 9.894488 -0.848136 0.492907 0.000796 -0.001011 3208920.000000 1 0 0
-3.793464 3.063997 -11.189840 12.206185 -0.679421 2.730626 0.002383 -0.006062 -880867.000000 1 0 0
2.979036 -6.129003 8.468760 10.870107 -1.118366 0.677588 -0.003509 0.003481 -342363.000000 1 0 0
-5.209964 -8.625403 10.460160 14.524333 1.027422 0.766732 0.001625 -0.002324 122073.000000 1 0 0
-13.213264 -2.401103 6.442460 14.894997 0.179758 1.123505 0.004269 -0.002454 380804.000000 1 0 0
4.000236 -5.969903 -8.336540 11.006340 -0.980443 2.430165 -0.000852 0.001310 3329130.000000 1 0 0
2.878436 -0.507403 12.390260 12.730334 -0.174485 0.231661 -0.001482 -0.002881 535661.000000 1 0 0
1.441036 -1.406003 -7.533240 7.797636 -0.773094 2.880439 0.003466 -0.003807 154426.000000 1 0 0
3.594236 -3.521503 3.412260 6.079723 -0.775177 0.974898 -0.000226 0.000667 2748070.000000 1 0 0
1.521536 0.415897 -11.796540 11.901529 0.266823 3.008668 0.007192 -0.007215 536736.000000 1 0 0
4.079936 3.654797 -10.694340 12.015503 0.730489 2.668240 0.001921 -0.002644 1121190.000000 1 0 0
2.789836 3.264597 3.375960 5.462407 0.863654 0.904555 -0.004379 0.001929 365936.000000 1 0 0
-5.295364 0.971497 2.531860 5.949370 -0.181444 1.131207 0.000346 -0.002142 1223410.000000 1 0 0
-9.472064 -9.199203 5.656060 14.364413 0.770785 1.166083 0.003323 -0.003148 -2021280.000000 1 0 0
-2.951364 3.875297 -0.615740 4.909951 -0.919923 1.696534 -0.002800 -0.004597 -220506.000000 1 0 0
-15.953464 -6.484803 5.027160 17.939845 0.386082 1.286770 0.011532 -0.004592 907587.000000 1 0 0
0.989836 6.647697 -8.089840 10.517469 1.422983 2.448355 0.003493 -0.002537 -583070.000000 1 0 0
-1.584764 6.453697 -9.509440 11.601342 -1.330002 2.531656 0.001602 -0.000722 1082150.000000 1 0 0
2.088036 -0.343303 5.229060 5.640995 -0.162956 0.384530 -0.001874 0.001730 2225060.000000 1 0 0
-3.400864 -0.559503 -6.283240 7.166451 0.163057 2.639874 0.005800 -0.008627 504724.000000 1 0 0
1.906036 -1.079803 -2.431740 3.272965 -0.515436 2.408304 0.002929 -0.001514 140568.000000 1 0 0
2.459736 -8.632303 -7.643340 11.789300 -1.293208 2.276183 -0.003439 0.002774 2535860.000000 1 0 0
-2.499364 14.078897 -5.592440 15.353747 -1.395101 1.943612 -0.002118 0.003112 1570180.000000 1 0 0
6.934236 -5.074203 -8.215840 11.888279 -0.631726 2.333789 -0.001399 -0.000053 2013730.000000 1 0 0
-14.175464 -5.021003 -2.095940 15.183781 0.340415 1.709277 0.007698 -0.004583 1021910.000000 1 0 0
-2.681364 6.922997 -6.790240 10.061062 -1.201275 2.311629 -0.000458 -0.001604 -2081480.000000 1 0 0
-5.601464 -1.057003 -8.136640 9.934715 0.186508 2.530481 0.011543 -0.010265 506354.000000 1 0 0
-5.680964 -10.460503 3.452360 12.394122 1.073276 1.288514 -0.003114 0.000590 -3787880.000000 1 0 0
8.057636 -7.507603 6.662560 12.871647 -0.750076 1.026735 0.005682 0.000272 1189400.000000 1 0 0
8.736336 -5.975403 13.183460 16.906585 -0.599887 0.676478 0.011644 0.000865 -355231.000000 1 0 0
-4.658764 9.594397 -0.713740 10.689526 -1.118758 1.637616 -0.008701 0.002156 1070490.000000 1 0 0
2.776936 6.675597 12.162260 14.149048 1.176588 0.536346 0.004750 -0.004285 869643.000000 1 0 0
5.935336 -2.788703 10.996160 12.803149 -0.439236 0.537749 0.000472 -0.003197 -149183.000000 1 0 0
-9.601464 -6.465603 -1.111040 11.628695 0.592648 1.666485 0.003347 -0.002204 1646730.000000 1 0 0
0.757536 -13.312803 6.311760 14.752725 -1.513955 1.128698 0.011989 -0.007490 581607.000000 1 0 0
-0.536464 -3.072003 8.796660 9.333072 1.397910 0.340686 -0.002244 0.000243 313512.000000 1 0 0
4.293336 0.698897 3.344760 5.487131 0.161371 0.915285 -0.002784 0.000772 1369810.000000 1 0 0
-10.270364 5.581497 8.257560 14.311562 -0.497806 0.955764 0.002232 -0.003269 1673110.000000 1 0 0
9.330236 7.929097 0.022160 12.244361 0.704394 1.568986 0.008313 -0.000641 685153.000000 1 0 0
4.301836 2.920797 8.175960 9.689333 0.596469 0.566452 -0.004573 -0.001417 2769590.000000 1 0 0
1.394236 2.663297 -9.823140 10.272834 1.088526 2.844614 0.007556 -0.005551 2173820.000000 1 0 0
-1.437364 -10.137303 3.014460 10.673232 1.429946 1.284468 0.005181 -0.001336 -1277970.000000 1 0 0
-9.933864 9.584197 9.064560 16.513775 -0.767485 0.989738 0.004199 -0.004039 964082.000000 1 0 0
9.818236 -1.920403 -7.604840 12.566594 -0.193157 2.220767 0.007469 0.001654 1717700.000000 1 0 0
-5.206964 -1.836103 6.711060 8.690344 0.339011 0.688432 0.002189 -0.002204 -1018360.000000 1 0 0
3.153036 -7.846803 -4.931340 9.789385 -1.188718 2.098723 -0.005428 0.000558 1313070.000000 1 0 0
-5.032664 4.873997 -13.113540 14.867699 -0.769383 2.650919 0.000322 -0.005552 3017180.000000 1 0 0
-5.626264 9.625197 5.476360 12.421345 -1.041826 1.114214 -0.003336 0.000942 1532800.000000 1 0 0
-0.506164 -1.778903 -9.383540 9.564074 1.293585 2.946985 0.005975 -0.006133 225451.000000 1 0 0
-16.779164 0.178797 6.401460 17.959705 -0.010656 1.206347 0.005195 -0.003813 -304221.000000 1 0 0
-5.889764 -2.826803 4.060160 7.691881 0.447481 1.014729 -0.002018 0.000428 2865190.000000 1 0 0
1.009136 -5.718603 -5.137540 7.753392 -1.396129 2.295106 0.000852 -0.001387 741702.000000 1 0 0
-7.035464 1.406597 -8.463940 11.095700 -0.197328 2.438448 0.000638 -0.003882 1180820.000000 1 0 0
8.083336 1.948397 4.682360 9.542592 0.236527 1.057926 -0.002924 -0.001146 827766.000000 1 0 0
0.521636 -8.054003 -0.484540 8.085409 -1.506119 1.630760 0.002092 0.000155 714234.000000 1 0 0
5.473136 5.561997 -3.330340 8.484232 0.793451 1.974180 0.000763 -0.000487 -809712.000000 1 0 0
-0.793464 -0.353103 -1.295040 1.559293 0.418700 2.550855 0.003788 -0.002536 1039830.000000 1 0 0
9.127436 6.365697 -6.295440 12.785333 0.608995 2.085636 0.004741 -0.000498 1853860.000000 1 0 0
-14.905064 -7.089603 2.451560 16.686328 0.443979 1.423342 -0.005095 -0.001975 911460.000000 1 0 0
-6.387264 6.772397 8.881460 12.866346 -0.814656 0.808912 0.001475 0.001822 -659516.000000 1 0 0
-9.408064 -3.194703 -9.598440 13.814769 0.327354 2.338932 0.000643 -0.000965 2343040.000000 1 0 0
14.929436 3.404797 -1.272640 15.365556 0.224224 1.653715 0.006136 0.008077 1429150.000000 1 0 0
12.019136 1.691397 -5.691740 13.405833 0.139807 2.009285 0.009030 0.001314 4516.800000 1 0 0
1.609836 -9.464603 12.719360 15.935884 -1.402319 0.646564 -0.002740 -0.000469 -157120.000000 1 0 0
-3.581764 6.348497 7.912860 10.758523 -1.057123 0.744397 0.000059 0.001451 387346.000000 1 0 0
-4.031064 13.189997 -12.395140 18.543597 -1.274196 2.302895 0.003721 0.001645 1747120.000000 1 0 0
-10.243564 7.852397 6.501260 14.451891 -0.654021 1.104193 0.000995 -0.003242 1149400.000000 1 0 0
7.927136 -9.379703 -7.240140 14.256154 -0.869132 2.103496 0.000036 0.004655 776144.000000 1 0 0
5.805836 -3.811903 -0.333040 6.953362 -0.580976 1.618711 0.000439 -0.000964 1144460.000000 1 0 0
-1.664864 -4.393403 4.139660 6.261833 1.208570 0.848520 0.001249 0.001038 2019470.000000 1 0 0
9.873936 -2.094003 -2.495140 10.397364 -0.208978 1.813140 0.002647 -0.001994 -1508440.000000 1 0 0
13.588836 7.093897 1.369260 15.390085 0.481123 1.481708 0.004383 0.005216 -646520.000000 1 0 0
5.399236 -3.696303 -3.235640 7.299573 -0.600314 2.030033 0.000225 -0.002878 -2054470.000000 1 0 0
-12.225864 -5.934303 1.882360 13.719730 0.451891 1.433161 0.001932 -0.001215 2812220.000000 1 0 0
3.688336 -5.728303 -0.342940 6.821648 -0.998736 1.621090 0.002339 -0.000783 -1252980.000000 1 0 0
-5.153764 3.671797 -8.720340 10.774400 -0.619033 2.513853 0.002687 -0.004897 956563.000000 1 0 0
-1.777764 -9.171603 7.280860 11.844394 1.379337 0.908779 0.000965 -0.000096 1642600.000000 1 0 0
-7.499264 -7.460503 2.479760 10.864956 0.782807 1.340532 0.001322 0.000609 -3902680.000000 1 0 0
-5.708864 13.072297 -8.560040 16.635816 -1.159045 2.111285 0.005579 -0.003349 1158080.000000 1 0 0
9.216136 -13.882403 -4.300740 17.209143 -0.984731 1.823384 0.018201 0.009275 1043290.000000 1 0 0
-6.506964 -5.117103 -6.696840 10.647675 0.666396 2.250996 0.005334 -0.004156 956698.000000 1 0 0
3.409136 0.387797 -6.285740 7.161223 0.113266 2.641935 0.001182 -0.003453 1255490.000000 1 0 0
-3.596564 5.836897 4.983760 8.475996 -1.018567 0.942231 -0.001175 0.000805 -192851.000000 1 0 0
-2.631764 -10.741603 -2.900540 11.433343 1.330523 1.827291 0.004932 0.000463 1384230.000000 1 0 0
-12.508464 -0.415703 1.652160 12.623950 0.033221 1.439545 0.007976 -0.003643 546997.000000 1 0 0
8.312836 -12.040403 -6.143540 15.868762 -0.966534 1.968331 0.005868 0.006548 1019370.000000 1 0 0
6.092636 4.016497 1.001960 7.365893 0.582842 1.434346 0.000958 -0.000722 -55935.800000 1 0 0
3.398136 -4.848503 -10.957740 12.455013 -0.959491 2.646207 0.000032 0.000294 610529.000000 1 0 0
-7.674564 4.228597 8.571760 12.257857 -0.503602 0.796397 -0.000512 0.001778 2790450.000000 1 0 0
8.250736 8.743497 4.117560 12.707387 0.814386 1.240811 0.010707 -0.002665 1058450.000000 1 0 0
0.190436 10.525797 -6.287640 12.262263 1.552706 2.109197 -0.003668 0.000853 2516780.000000 1 0 0
5.432936 8.155197 3.282160 10.334245 0.983122 1.247599 0.004554 -0.001798 2551970.000000 1 0 0
8.111336 6.664397 -3.650940 11.114734 0.687783 1.905487 0.001911 -0.001540 -282838.000000 1 0 0
10.541836 2.557397 -8.185640 13.589528 0.237997 2.217237 0.004656 0.002507 287199.000000 1 0 0
3.265036 -12.502303 -0.303840 12.925183 -1.315347 1.594306 0.001898 -0.000953 -1551800.000000 1 0 0
0.547436 2.134997 5.259160 5.702339 1.319793 0.396855 -0.000071 0.000246 1895730.000000 1 0 0
-4.849264 13.512597 1.474260 14.431878 -1.226242 1.468465 -0.010541 0.005216 1631170.000000 1 0 0
8.211336 4.092197 -7.960740 12.146830 0.462334 2.285476 -0.000914 0.003312 241574.000000 1 0 0
-13.895064 -0.604203 -3.547740 14.353548 0.043456 1.820553 0.001885 -0.005304 365130.000000 1 0 0
-8.592664 0.096497 -0.551340 8.610875 -0.011230 1.634868 0.000965 -0.005080 131340.000000 1 0 0
1.757336 -3.762803 -1.102140 4.296699 -1.133872 1.830204 0.005204 -0.002416 -1860440.000000 1 0 0
8.025036 -5.675903 -0.306440 9.834174 -0.615591 1.601962 0.003551 -0.001209 2497220.000000 1 0 0
-2.300264 -1.099803 7.419560 7.845423 0.445991 0.330998 -0.001447 0.000210 2034740.000000 1 0 0
-5.725964 8.866397 -11.691840 15.751152 -0.997376 2.407270 0.001140 -0.003168 -883305.000000 1 0 0
-6.043164 9.199697 -8.876240 14.140081 -0.989595 2.249438 -0.004538 0.001375 -1381660.000000 1 0 0
-1.526764 13.996497 -8.427440 16.408982 -1.462144 2.110156 0.010040 -0.003525 40198.500000 1 0 0
-1.467964 7.212897 9.778560 12.239324 -1.370019 0.645256 -0.000651 -0.000004 926242.000000 1 0 0
10.019236 2.401697 -3.974040 11.042926 0.235269 1.938927 0.002450 0.000791 -1324540.000000 1 0 0
-3.053364 -7.423103 -6.916440 10.595406 1.180559 2.282041 0.004720 -0.001332 723915.000000 1 0 0
-5.620564 -4.961903 -1.629940 7.672543 0.723237 1.784866 0.002630 -0.002387 479356.000000 1 0 0
5.711336 7.386997 -8.799140 12.830119 0.912636 2.326525 0.000434 -0.001732 969395.000000 1 0 0
-9.516364 5.246597 -7.422040 13.159584 -0.503859 2.170021 -0.003857 0.002813 -821633.000000 1 0 0
-0.435664 6.144297 -5.303040 8.128002 -1.500009 2.281597 -0.000388 -0.001424 -976010.000000 1 0 0
-8.233264 2.748597 -6.288340 10.718425 -0.322207 2.197756 0.001497 -0.000848 3107010.000000 1 0 0
3.733936 1.385597 -2.022340 4.466768 0.355332 2.040646 -0.002229 -0.001455 2712660.000000 1 0 0
-6.752264 12.505997 -3.494740 14.635787 -1.075723 1.811906 -0.000336 0.002013 1198930.000000 1 0 0
-6.505564 3.131097 -2.393940 7.606385 -0.448572 1.890966 0.000885 -0.003008 -850688.000000 1 0 0
12.147436 3.962797 -0.773740 12.800884 0.315339 1.631277 0.003348 0.002270 -16842.400000 1 0 0
2.261536 12.309797 -5.441640 13.647604 1.389104 1.980922 0.002842 -0.002198 576915.000000 1 0 0
-9.108564 -1.372803 -4.294840 10.163473 0.149590 2.007082 0.005647 -0.005145 -660314.000000 1 0 0
-1.114964 5.832297 3.425860 6.855316 -1.381905 1.047500 -0.007178 0.001131 1105460.000000 1 0 0
11.606436 2.576897 11.988060 16.883819 0.218479 0.781252 0.023683 0.001286 338103.000000 1 0 0
-6.970164 -2.339903 -5.736140 9.325322 0.323881 2.233327 0.009500 -0.005665 -133853.000000 1 0 0
7.408236 -7.409503 10.840960 15.076774 -0.785484 0.768361 0.007385 -0.000183 129617.000000 1 0 0
-5.523464 -1.947503 -10.972240 12.437502 0.338978 2.651289 0.006690 -0.004259 -1028990.000000 1 0 0
0.747736 -6.189603 4.427060 7.646512 -1.450574 0.953338 -0.001949 0.002206 842106.000000 1 0 0
-4.867364 -9.219203 7.334160 12.746562 1.085032 0.957723 -0.006591 0.000156 2479400.000000 1 0 0
-8.742264 9.385397 1.623460 12.928592 -0.820861 1.444893 -0.002665 0.000387 702649.000000 1 0 0
-8.009864 7.174097 -9.095540 14.083836 -0.730411 2.272885 -0.003867 0.000247 169163.000000 1 0 0
-1.278464 -10.659803 -0.071640 10.736433 1.451433 1.577469 0.004579 -0.000098 -42263.000000 1 0 0
-3.973764 10.351097 7.767360 13.537648 -1.204248 0.959707 -0.000534 0.001334 1739220.000000 1 0 0
-7.459464 12.149397 1.957960 14.390451 -1.020162 1.434313 -0.007434 -0.000580 -172855.000000 1 0 0
-8.084264 -8.315503 -2.856840 11.944222 0.799497 1.812319 0.007725 -0.005508 68888.700000 1 0 0
5.386836 4.496897 -8.062540 10.688528 0.695600 2.425410 0.003518 0.000984 1401370.000000 1 0 0
-8.960564 -0.152203 -10.171140 13.556067 0.016984 2.419315 -0.003579 -0.002294 -1518800.000000 1 0 0
-15.198264 -2.260803 -1.442940 15.433099 0.147671 1.664430 0.001171 -0.002446 -858924.000000 1 0 0
-7.188764 -5.671503 8.784360 12.688942 0.667960 0.806146 0.001964 -0.000628 -988460.000000 1 0 0
8.151036 3.430797 -0.824540 8.881983 0.398396 1.663763 0.002780 0.000909 936376.000000 1 0 0
11.957136 7.240597 -5.857840 15.156307 0.544488 1.967625 0.004528 -0.002262 1007780.000000 1 0 0
3.768836 13.237197 -9.445440 16.692629 1.293420 2.172254 0.001999 -0.008626 654442.000000 1 0 0
-9.648764 5.488297 -0.422340 11.108485 -0.517169 1.608825 0.000406 -0.001680 1335970.000000 1 0 0
11.254836 -1.352703 -5.102440 12.431252 -0.119615 1.993747 0.013776 -0.002523 -399519.000000 1 0 0
10.586836 1.715597 -1.156540 10.787120 0.160654 1.678218 0.003003 -0.000221 -364150.000000 1 0 0
14.661436 5.020397 4.847960 16.237759 0.329908 1.267612 0.013303 -0.001395 2038950.000000 1 0 0
0.875136 -0.717003 10.312960 10.374830 -0.686402 0.109265 0.000203 -0.000020 1289160.000000 1 0 0
-7.958964 1.400497 -12.650140 15.011081 -0.174182 2.573112 -0.004983 -0.000161 -60573.000000 1 0 0
3.012136 -11.619103 -7.865040 14.350448 -1.317140 2.150851 -0.006404 0.005041 812809.000000 1 0 0
2.887336 4.995297 -6.702340 8.843702 1.046702 2.430832 0.002825 -0.000326 -1446500.000000 1 0 0
6.419036 8.092697 0.576960 10.345465 0.900222 1.514998 0.006559 -0.004334 77714.800000 1 0 0
-9.112464 -5.375903 6.731960 12.540200 0.532997 1.004121 -0.001541 -0.000697 -759194.000000 1 0 0
-0.264564 -6.824803 -11.799940 13.634020 1.532051 2.616899 -0.001078 0.004553 2054680.000000 1 0 0
6.417836 -13.463903 -4.683540 15.633324 -1.125986 1.875056 0.003320 0.007752 3119020.000000 1 0 0
-3.271464 -0.224903 10.002860 10.526646 0.068639 0.316785 0.001617 -0.001112 -240803.000000 1 0 0
8.586636 8.430797 7.023560 13.933379 0.776241 1.042478 0.002353 -0.000759 -975184.000000 1 0 0
-7.898164 5.677497 -2.673940 10.087861 -0.623257 1.839068 0.001103 -0.002627 38712.500000 1 0 0
-5.359464 5.852697 -6.484940 10.248530 -0.829361 2.255919 -0.000951 -0.000414 -1561930.000000 1 0 0
3.274436 -13.603003 2.511160 14.215116 -1.334576 1.393210 0.011659 -0.006775 -344511.000000 1 0 0
-11.318564 -6.995503 6.500360 14.808837 0.553590 1.116365 0.011689 -0.003453 -1089010.000000 1 0 0
-12.895764 -3.740803 -6.734540 15.021597 0.282331 2.035686 0.009759 -0.005467 408785.000000 1 0 0
6.040836 0.405197 -7.283940 9.471624 0.066976 2.448115 -0.001435 0.002404 -165993.000000 1 0 0
-1.426464 2.222497 -2.460540 3.609508 -1.000186 2.320856 -0.000069 -0.004972 3433530.000000 1 0 0
7.582136 0.988097 -4.940740 9.103627 0.129589 2.144471 0.000397 0.001788 -398273.000000 1 0 0
3.621136 -4.476303 10.900860 12.327963 -0.890618 0.485935 -0.005365 0.001573 507678.000000 1 0 0
6.018636 -2.581703 2.061360 6.865739 -0.405213 1.265853 0.003342 -0.001188 -1101310.000000 1 0 0
-6.310164 7.766997 1.103360 10.067861 -0.888520 1.460983 -0.006091 0.001110 1014140.000000 1 0 0
5.971736 -3.485703 8.033960 10.599824 -0.528348 0.710657 0.003704 -0.002067 54926.500000 1 0 0
6.776936 -2.209903 -7.801940 10.567913 -0.315219 2.401294 -0.001783 0.000774 315852.000000 1 0 0
12.066436 -8.179903 -5.902340 15.727278 -0.595743 1.955509 0.020523 -0.000934 1130480.000000 1 0 0
5.550836 -9.704403 10.021560 15.013956 -1.051226 0.839973 0.001582 0.001675 2086170.000000 1 0 0
-6.607664 7.556897 -4.514940 11.006934 -0.852313 1.993459 -0.002945 0.000259 -229603.000000 1 0 0
-1.341664 -7.528003 9.735060 12.379107 1.394425 0.665820 -0.002270 -0.000899 -208489.000000 1 0 0
10.007036 -9.337503 0.659460 13.702723 -0.750801 1.522651 0.012306 -0.001551 925108.000000 1 0 0
11.130236 6.005697 9.752860 15.970875 0.494811 0.913896 0.011564 -0.003697 1529360.000000 1 0 0
-15.279264 -4.233703 -4.924840 16.602235 0.270306 1.871966 0.004384 -0.002724 1743410.000000 1 0 0
-4.708064 -4.584303 7.848560 10.236288 0.772080 0.697051 0.001796 -0.001590 -67038.300000 1 0 0
3.073436 10.878297 -11.061440 15.815777 1.295444 2.345344 0.003561 -0.002274 -474000.000000 1 0 0
9.856236 -1.424903 1.567960 10.081380 -0.143574 1.414632 -0.001025 -0.001488 -1385380.000000 1 0 0
-1.629264 -2.726603 0.522860 3.219044 1.032185 1.407646 0.002330 -0.001449 319859.000000 1 0 0
1.607436 2.992597 0.889360 3.511474 1.077882 1.314735 -0.005899 -0.000285 -894165.000000 1 0 0
-8.899064 -2.353803 4.257260 10.141893 0.258578 1.137605 0.002547 -0.001780 3710280.000000 1 0 0
9.912536 4.879397 -2.610440 11.352589 0.457424 1.802815 0.002197 0.002734 -157850.000000 1 0 0
2.596736 8.506297 2.528560 9.246283 1.274510 1.293800 -0.004028 -0.000954 810658.000000 1 0 0
-8.067464 -0.019203 2.459860 8.434172 0.002380 1.274841 -0.001358 -0.002909 1340900.000000 1 0 0
6.936236 2.018297 13.764660 15.545120 0.283160 0.483303 0.012097 -0.003407 -845803.000000 1 0 0
6.840336 4.301697 3.780860 8.921306 0.561379 1.133158 -0.001742 -0.000954 1022220.000000 1 0 0
-0.274364 3.359997 7.819360 8.515119 -1.489321 0.407053 -0.000667 0.000368 -384391.000000 1 0 0
2.654236 -10.287503 9.253460 14.089152 -1.318297 0.854257 0.005249 -0.002961 2147450.000000 1 0 0
1.250236 -4.481403 6.889160 8.313037 -1.298731 0.593984 -0.004992 0.002700 -415333.000000 1 0 0
-0.123664 10.835297 -1.970140 11.013647 -1.559384 1.750646 -0.004165 -0.001211 2215100.000000 1 0 0
8.784536 5.502997 7.984060 13.084199 0.559635 0.914475 -0.000157 -0.000258 -1506720.000000 1 0 0
2.667536 11.484797 -2.804140 12.119386 1.342576 1.804289 0.003460 -0.006457 64489.100000 1 0 0
1.497936 2.504997 -6.765140 7.367899 1.031864 2.734286 0.001611 -0.004158 -548002.000000 1 0 0
-13.609064 -2.102803 3.532060 14.216324 0.153302 1.319716 0.006202 -0.003620 1690270.000000 1 0 0
-0.977564 -10.675303 -5.338140 11.975536 1.479478 2.032812 0.001186 0.001132 1589110.000000 1 0 0
-5.509764 2.838597 0.335460 6.207066 -0.475729 1.516725 0.002679 -0.004218 -85549.900000 1 0 0
3.791036 7.295197 -4.979440 9.611799 1.091543 2.115372 0.001139 -0.002254 -1180000.000000 1 0 0
2.985136 9.702597 -6.368140 11.983515 1.272324 2.131059 0.004049 -0.003042 2366460.000000 1 0 0
-12.233464 1.680297 -2.537040 12.606253 -0.136498 1.773433 0.003900 -0.004448 -17477.000000 1 0 0
-2.524364 9.645597 -5.765540 11.517439 -1.314826 2.095079 -0.006632 0.000384 393007.000000 1 0 0
-1.285564 3.349997 1.722860 3.980378 -1.204376 1.123157 -0.006140 -0.000125 -268009.000000 1 0 0
12.897536 3.650897 9.546560 16.456375 0.275853 0.951929 0.024468 -0.004264 -64448.400000 1 0 0
-2.655764 -9.621003 11.537760 15.255710 1.301465 0.713171 -0.005877 -0.006855 1356300.000000 1 0 0
-0.469964 -8.925103 -7.565740 11.709771 1.518188 2.273266 0.002003 0.001152 3702050.000000 1 0 0
2.301136 7.710497 -0.468440 8.060176 1.280770 1.628947 -0.002003 -0.001938 676704.000000 1 0 0
-11.797364 -1.333103 -5.546740 13.104247 0.112523 2.007857 0.003487 -0.002790 -798377.000000 1 0 0
-6.237364 -7.215903 -10.974340 14.539948 0.858006 2.426102 -0.002956 0.000244 920806.000000 1 0 0
-4.717864 -2.275403 -1.421240 5.427303 0.449384 1.835754 0.002196 -0.005316 -1513260.000000 1 0 0
-10.441564 3.696497 4.518860 11.962878 -0.340249 1.183442 0.004768 -0.005297 3342130.000000 1 0 0
6.786636 9.364197 -3.552940 12.098347 0.943657 1.868862 0.006528 -0.002751 610572.000000 1 0 0
1.311636 -2.716403 -11.514040 11.902619 -1.120956 2.885367 0.005084 -0.003651 -723281.000000 1 0 0
1.295136 8.756797 7.652060 11.700979 1.423960 0.857979 -0.005055 0.002776 509214.000000 1 0 0
10.370436 0.353897 10.441060 14.720289 0.034112 0.782296 0.013338 -0.001062 2087930.000000 1 0 0
-5.253064 -0.790203 -3.881640 6.579227 0.149307 2.201836 0.005516 -0.007119 -869920.000000 1 0 0
11.748836 5.691497 5.420060 14.135252 0.451115 1.177275 0.002714 -0.000808 2874850.000000 1 0 0
9.917436 -3.520703 3.676960 11.147687 -0.341123 1.234662 0.008353 -0.006185 -1213940.000000 1 0 0
7.305236 -1.690803 -3.426240 8.244052 -0.227446 1.999400 0.001872 -0.000356 -3731930.000000 1 0 0
2.342836 9.239897 10.469960 14.159260 1.322473 0.738554 -0.002772 0.001661 2451230.000000 1 0 0
2.342436 -10.851103 6.340060 12.783966 -1.358188 1.051881 0.001692 -0.003986 2706230.000000 1 0 0
5.853036 -7.566503 -1.341640 9.659709 -0.912395 1.710137 -0.000357 -0.002241 1122120.000000 1 0 0
-0.262764 -5.583803 -2.337140 6.058887 1.523773 1.966803 0.003384 -0.000391 2618830.000000 1 0 0
7.730636 -5.115203 2.628060 9.635078 -0.584542 1.294536 0.006068 -0.002982 1642280.000000 1 0 0
-2.728764 -12.408503 4.606860 13.514446 1.354331 1.222939 0.000857 -0.001637 -256394.000000 1 0 0
4.845236 -10.345503 -1.133940 11.480050 -1.132794 1.669732 0.001595 -0.001903 579192.000000 1 0 0
0.938536 0.256297 1.056760 1.436412 0.266582 0.744105 -0.003780 0.001482 -950405.000000 1 0 0
-1.613564 8.556397 2.414660 9.035824 -1.384405 1.300277 -0.009379 0.002802 110526.000000 1 0 0
-7.518964 0.652497 -3.077940 8.150723 -0.086563 1.958029 0.003342 -0.004225 -1807520.000000 1 0 0
4.371236 -6.386903 12.929760 15.069138 -0.970613 0.539376 -0.000373 -0.001300 -1338170.000000 1 0 0
-5.091464 13.029997 8.498160 16.368341 -1.198290 1.024902 -0.003419 -0.000296 607986.000000 1 0 0
0.699136 6.052797 8.268260 10.270797 1.455800 0.635077 -0.002622 0.003356 -535862.000000 1 0 0
7.934636 -0.564003 -0.749940 7.989928 -0.070962 1.664795 0.002592 -0.002178 2685770.000000 1 0 0
2.402736 -9.234403 -2.400240 9.839130 -1.316247 1.817231 -0.003558 -0.000250 1159050.000000 1 0 0
-7.070964 12.191997 4.875860 14.913663 -1.045237 1.237733 -0.007179 0.000208 277001.000000 1 0 0
-14.940964 0.338697 0.156360 14.945621 -0.022665 1.560334 0.006447 -0.005158 1517880.000000 1 0 0
6.862936 -0.456703 3.915860 7.914697 -0.066448 1.053240 0.000619 -0.001713 -1080500.000000 1 0 0
-4.185864 -5.024503 5.138960 8.317211 0.876201 0.904765 0.002529 -0.001366 -438987.000000 1 0 0
2.967236 5.163397 6.874160 9.095012 1.049212 0.713896 -0.004916 0.001227 -936474.000000 1 0 0
2.142536 -7.166403 1.797160 7.692696 -1.280285 1.334998 -0.000847 -0.000788 1551460.000000 1 0 0
-2.397864 6.471897 -1.721940 7.113388 -1.215973 1.815295 -0.006216 -0.000440 1375370.000000 1 0 0
2.680136 -3.825703 -6.520440 8.020926 -0.959694 2.519960 -0.002010 -0.001141 24441.500000 1 0 0
-5.193164 0.901697 -12.289040 13.371706 -0.171918 2.736417 0.004815 -0.001622 -2074050.000000 1 0 0
-7.449464 6.432097 -11.959340 15.488454 -0.712240 2.453007 0.002561 -0.004548 2191270.000000 1 0 0
-1.036964 11.214397 -9.019840 14.428982 -1.478591 2.246081 0.004223 0.000378 1499560.000000 1 0 0
4.559836 5.927097 -0.620340 7.503826 0.915045 1.653561 0.001111 -0.002212 255551.000000 1 0 0
-2.711764 13.444397 3.634260 14.188493 -1.371765 1.311768 -0.011393 0.005523 727886.000000 1 0 0
1.466736 -7.929403 10.266560 13.054846 -1.387889 0.665809 -0.004955 0.000035 -194672.000000 1 0 0
12.993436 -0.344703 -0.999640 13.036390 -0.026523 1.647552 0.006754 -0.002500 1305120.000000 1 0 0
-1.023064 3.138097 -5.373040 6.305860 -1.255647 2.590725 0.001230 -0.006695 568051.000000 1 0 0
6.520636 1.091297 7.219660 9.789439 0.165824 0.741443 -0.001278 -0.000479 1768430.000000 1 0 0
5.392236 -6.180203 6.836760 10.677659 -0.853383 0.875925 0.002091 0.001907 2031940.000000 1 0 0
12.174336 -4.967103 2.626660 13.408427 -0.387382 1.373625 0.010665 -0.003443 -522330.000000 1 0 0
4.340436 -9.253003 13.824960 17.192643 -1.132186 0.636601 -0.002542 0.003228 238834.000000 1 0 0
-2.794064 -4.411003 -1.502040 5.433218 1.006157 1.850900 0.004958 -0.003854 1475100.000000 1 0 0
-9.317464 -5.189803 -7.498440 13.037476 0.508200 2.183578 0.007235 -0.002898 282024.000000 1 0 0
-10.576664 -3.125403 7.882360 13.556016 0.287323 0.950267 0.004282 -0.002068 -930145.000000 1 0 0
12.065136 -0.704003 1.624360 12.194329 -0.058284 1.437193 0.002564 -0.001321 192676.000000 1 0 0
-7.500464 4.739697 4.439060 9.921036 -0.563560 1.106896 0.001182 -0.002862 2635940.000000 1 0 0
-1.066364 10.580597 6.959860 12.709281 -1.470351 0.991279 -0.006555 0.004945 2033880.000000 1 0 0
7.329336 -10.034603 1.794760 12.555221 -0.939954 1.427356 0.005747 -0.004000 3488920.000000 1 0 0
-4.297564 -1.638203 1.583860 4.864296 0.364189 1.239140 -0.001179 -0.000275 1605650.000000 1 0 0
6.643436 -15.011503 -0.987840 16.445555 -1.154150 1.630900 0.014666 0.005027 -1100020.000000 1 0 0
-10.393064 1.722097 2.387860 10.802004 -0.164205 1.347898 0.002278 -0.003299 1152910.000000 1 0 0
-2.937964 8.330797 -11.356140 14.387346 -1.231751 2.480488 -0.000116 0.001121 -1263490.000000 1 0 0
-1.293264 -5.092503 -6.826340 8.614234 1.322099 2.485610 -0.000014 -0.002571 202708.000000 1 0 0
12.804436 -0.581103 6.387960 14.321218 -0.045352 1.108451 0.008987 -0.005290 2099720.000000 1 0 0
5.880436 -13.213903 3.745860 14.940489 -1.152092 1.317374 0.010710 -0.003313 1273460.000000 1 0 0
-5.552164 3.479897 -5.018840 8.253785 -0.559867 2.224418 0.002461 -0.004467 477745.000000 1 0 0
-4.357964 8.126797 3.323860 9.802282 -1.078574 1.224846 -0.005419 0.002815 185744.000000 1 0 0
14.057836 6.136497 -3.963340 15.842582 0.411586 1.823652 0.014163 0.002671 -542166.000000 1 0 0
-6.811764 -8.377003 5.296360 12.026044 0.888088 1.114744 -0.001462 -0.000130 876745.000000 1 0 0
1.589236 11.367597 2.674260 11.785568 1.431893 1.341893 -0.006629 -0.000754 793440.000000 1 0 0
-7.353964 7.340597 6.003960 12.000529 -0.784489 1.046842 -0.002243 -0.001039 1385500.000000 1 0 0
-17.485864 -4.075703 5.044960 18.649891 0.228997 1.296875 0.010564 -0.007672 -142376.000000 1 0 0
7.417636 -13.127403 -8.627040 17.371696 -1.056472 2.090490 0.004466 0.008379 -1890500.000000 1 0 0
-2.240964 12.855597 -2.796040 13.345641 -1.398212 1.781870 -0.011167 0.005062 2200980.000000 1 0 0
-5.525764 13.884397 -5.843040 16.045301 -1.192029 1.943526 0.006301 -0.000586 2226000.000000 1 0 0
-5.597664 2.465897 7.372960 9.579929 -0.414945 0.692541 0.003567 -0.001728 1650590.000000 1 0 0
-7.297664 5.068397 1.421960 8.998140 -0.607041 1.412103 0.002758 -0.000311 1500640.000000 1 0 0
10.736636 -5.692503 -5.073840 13.169046 -0.487510 1.966313 0.013015 -0.003372 2525080.000000 1 0 0
-9.446664 -0.793203 6.858760 11.700907 0.083770 0.944469 0.001849 -0.001852 433965.000000 1 0 0
-11.268164 -4.547103 -2.531440 12.411924 0.383550 1.776190 0.001153 -0.004915 841354.000000 1 0 0
6.504636 -4.356303 13.541360 15.641486 -0.590115 0.524182 0.008059 -0.005560 186901.000000 1 0 0
0.330436 10.242797 -11.597840 15.476885 1.538547 2.417899 0.002363 0.001971 -2261180.000000 1 0 0
-11.809664 -3.196803 1.381960 12.312495 0.264358 1.458319 0.001913 -0.002539 2390640.000000 1 0 0
5.304236 5.954797 5.328660 9.591097 0.843115 0.981731 -0.002185 0.000179 -2698230.000000 1 0 0
-7.112764 -0.010903 8.053760 10.744980 0.001533 0.723434 0.000862 -0.000883 -534050.000000 1 0 0
1.804036 2.127197 9.658060 10.052743 0.867417 0.281143 0.000247 -0.002677 856631.000000 1 0 0
10.462536 -5.003503 -2.091740 11.784527 -0.446081 1.749241 0.008229 -0.001376 1837990.000000 1 0 0
-9.640264 -2.350103 -1.672240 10.062508 0.239116 1.737756 0.003054 -0.004357 -1296300.000000 1 0 0
-2.012664 -5.168603 -9.904840 11.352142 1.199459 2.631109 0.006882 -0.003516 1036470.000000 1 0 0
7.613136 -1.581103 6.574660 10.182626 -0.204770 0.868890 0.001627 -0.002306 2249400.000000 1 0 0
1.416336 -11.842703 -2.559040 12.198537 -1.451766 1.782149 0.001414 0.002576 -3370640.000000 1 0 0
-0.769264 -1.495203 4.872860 5.154820 1.095625 0.332278 -0.000136 0.002733 3518840.000000 1 0 0
7.591436 1.461897 9.823960 12.501089 0.190243 0.666730 0.001426 -0.000853 1051780.000000 1 0 0
-3.806464 10.743897 -8.037440 13.947076 -1.230304 2.184967 -0.000418 0.002736 1724160.000000 1 0 0
-9.602764 12.679597 6.301560 17.108329 -0.922614 1.193581 -0.003050 -0.002541 3266630.000000 1 0 0
-2.576564 -2.406403 -11.093140 11.639897 0.751263 2.833875 0.009520 -0.006453 -128052.000000 1 0 0
1.058636 -11.915303 11.085060 16.308700 -1.482182 0.823440 0.003674 0.001172 1454080.000000 1 0 0
1.398936 3.496497 -1.965440 4.247996 1.190207 2.051806 -0.002939 -0.001894 3028430.000000 1 0 0
-1.941464 -9.385303 -11.961440 15.327401 1.366811 2.466095 -0.003065 0.004373 -716083.000000 1 0 0
1.254936 -2.641503 1.561860 3.315389 -1.127279 1.080266 0.005098 -0.000064 3959870.000000 1 0 0
-1.060464 -2.204903 -6.613740 7.051789 1.122498 2.787268 0.004891 -0.006944 -144582.000000 1 0 0
1.817336 5.837697 4.083960 7.352561 1.268996 0.981896 -0.008489 0.002355 -318127.000000 1 0 0
-10.998564 8.586297 3.585960 14.406666 -0.662845 1.319242 -0.004896 -0.003859 2385550.000000 1 0 0
-16.436764 -1.480503 3.980060 16.976454 0.089830 1.334148 0.006466 -0.002970 -15970.000000 1 0 0
-12.180964 0.246097 6.861860 13.982903 -0.020201 1.057866 0.002687 -0.002676 118858.000000 1 0 0
-5.009664 3.042997 4.675260 7.497642 -0.545861 0.897503 -0.000907 -0.000530 1091180.000000 1 0 0
5.225236 -6.016203 3.925860 8.883139 -0.855644 1.113030 -0.000883 0.000503 1185710.000000 1 0 0
9.965936 3.426697 6.216860 12.235664 0.331177 1.037827 -0.003304 0.000025 1423460.000000 1 0 0
-12.086864 5.789097 3.148060 13.766489 -0.446673 1.340079 0.004181 -0.003623 -95583.000000 1 0 0
-4.831064 12.388997 -1.251240 13.356348 -1.198985 1.664615 -0.013851 0.005766 2359280.000000 1 0 0
-1.841964 -12.265403 10.362460 16.162101 1.421735 0.874790 0.009171 -0.006413 1555180.000000 1 0 0
5.209236 6.316097 13.849260 16.088233 0.881142 0.533895 0.009101 -0.000827 506306.000000 1 0 0
12.869336 -3.689703 -5.937940 14.645574 -0.279215 1.988259 0.013376 -0.003117 1646240.000000 1 0 0
3.523536 -2.551803 6.444160 7.775230 -0.626794 0.593825 -0.001570 0.003448 18225.600000 1 0 0
7.157536 -11.900103 -0.664940 13.902694 -1.029298 1.618643 0.007161 0.000829 -1341190.000000 1 0 0
-6.106364 -6.608803 -4.100340 9.888212 0.824892 1.998376 0.005235 -0.003754 -1055810.000000 1 0 0
0.178036 -8.961203 5.023760 10.274873 -1.550932 1.059926 0.001774 -0.002094 1840880.000000 1 0 0
-10.322764 2.539997 -0.397840 10.638107 -0.241265 1.608203 0.002582 -0.001618 -1373350.000000 1 0 0
-1.793564 9.013597 -0.372240 9.197846 -1.374378 1.611278 -0.006115 0.000758 -308909.000000 1 0 0
-3.450564 2.273197 -6.682040 7.856429 -0.582530 2.587767 0.005684 -0.008386 1195960.000000 1 0 0
-12.710364 2.982697 6.375860 14.529330 -0.230496 1.116504 0.003954 -0.005486 245050.000000 1 0 0
11.310236 1.558097 7.952960 13.913974 0.136898 0.962365 0.010363 -0.005646 -2401740.000000 1 0 0
6.046236 2.723197 -3.145740 7.339513 0.423183 2.013743 -0.000356 -0.000378 1731920.000000 1 0 0
10.471636 -2.459103 6.419260 12.526342 -0.230655 1.032748 0.009405 -0.007039 4686480.000000 1 0 0
-1.025064 11.038697 4.103560 11.821286 -1.478201 1.216284 -0.006139 0.003308 593731.000000 1 0 0
-1.731464 -12.135003 7.403960 14.320436 1.429069 1.027430 -0.002220 -0.001415 224192.000000 1 0 0
8.105436 8.692697 -7.743340 14.185217 0.820344 2.148228 0.004850 -0.005418 1801550.000000 1 0 0
-4.741964 -5.945003 -8.739840 11.585080 0.897497 2.425543 0.005099 -0.003687 1564810.000000 1 0 0
-8.484064 -5.272503 -11.705640 15.388328 0.556049 2.435161 0.000117 0.003113 1791230.000000 1 0 0
6.078636 -0.590503 -9.933240 11.660521 -0.096840 2.590340 -0.002106 -0.000407 -225063.000000 1 0 0
-11.162164 -5.511903 -5.330740 13.542222 0.458677 1.975383 0.003948 -0.006715 -2217080.000000 1 0 0
3.901236 8.942497 -2.672540 10.115847 1.159429 1.838164 0.004907 -0.004817 624180.000000 1 0 0
11.600236 -10.396603 -4.089140 16.105151 -0.730734 1.827509 0.018353 0.001231 1655550.000000 1 0 0
3.909536 -11.270103 4.022060 12.588751 -1.236891 1.245598 0.004352 -0.001739 648630.000000 1 0 0
-0.949264 0.869597 3.147560 3.400653 -0.741626 0.388244 -0.001517 0.000761 -1118230.000000 1 0 0
-10.608864 -5.000103 4.484860 12.556393 0.440436 1.205552 0.006242 -0.002544 3226020.000000 1 0 0
4.562036 -8.697903 2.741960 10.197256 -1.087743 1.298554 0.001240 -0.000754 4341140.000000 1 0 0
-3.754064 -5.761203 2.569160 7.340643 0.993289 1.213235 0.001737 0.000419 2205100.000000 1 0 0
10.013136 5.007097 12.322260 16.648484 0.463690 0.737513 0.019260 0.000629 741656.000000 1 0 0
1.565336 -12.417403 -5.292740 13.588791 -1.445398 1.970877 -0.001167 0.002293 1687490.000000 1 0 0
9.741336 -10.807203 -1.830040 14.664184 -0.837222 1.695919 0.012713 -0.001784 1508000.000000 1 0 0
9.593636 -4.373203 -9.231840 14.013908 -0.427703 2.289969 0.007106 0.002086 922130.000000 1 0 0
-7.460964 -3.025203 -13.080740 15.359804 0.385214 2.589867 -0.000010 0.000995 1971780.000000 1 0 0
0.444836 6.316697 -2.521240 6.815805 1.500490 1.949709 -0.003757 -0.002840 649755.000000 1 0 0
-5.963264 -9.501303 0.890460 11.252919 1.010311 1.491582 0.001291 0.000433 1837560.000000 1 0 0
-9.013964 -4.000603 0.590660 9.879537 0.417705 1.510974 -0.002845 -0.001151 3311500.000000 1 0 0
1.889836 3.793497 12.125060 12.844423 1.108608 0.336263 0.000953 -0.004966 358002.000000 1 0 0
6.720436 4.286997 9.573760 12.457909 0.567825 0.694321 -0.000111 -0.000095 2010850.000000 1 0 0
-8.168664 9.885497 -3.660740 13.336085 -0.880207 1.848865 -0.004393 0.000411 1612060.000000 1 0 0
16.421536 2.088297 -6.004240 17.609052 0.126489 1.918750 0.026065 -0.000574 577950.000000 1 0 0
-11.012964 2.645397 -5.125840 12.432125 -0.235741 1.995780 -0.001631 -0.001238 1136190.000000 1 0 0
-13.752564 4.085097 1.432160 14.417771 -0.288741 1.471299 0.003594 -0.001264 -807125.000000 1 0 0
-17.354464 10.549497 3.407060 20.593139 -0.546196 1.404586 0.040156 -0.007281 -242786.000000 1 0 0
-14.354364 2.929297 -1.175340 14.697278 -0.201306 1.650852 0.004740 -0.003005 528659.000000 1 0 0
-14.314264 5.088397 5.077960 16.017978 -0.341546 1.248214 0.000559 -0.005063 1073150.000000 1 0 0
-17.484964 7.620297 3.037760 19.313749 -0.410999 1.412856 0.029999 -0.002709 -2279270.000000 1 0 0
-14.827164 12.676097 -3.506540 19.819790 -0.707346 1.748654 0.046583 -0.012863 -282883.000000 1 0 0
-8.475064 12.471497 -9.617040 17.884418 -0.973924 2.138542 -0.000405 -0.010203 -106538.000000 1 0 0
-12.405764 8.919597 -9.860640 18.185005 -0.623356 2.143897 0.002697 0.001462 451939.000000 1 0 0
-13.714864 -3.458503 -12.191340 18.673176 0.247022 2.282176 -0.004417 0.005487 -1407990.000000 1 0 0
-14.743464 5.653397 -7.610440 17.528532 -0.366159 2.019918 0.015727 0.005899 -45696.100000 1 0 0
-10.806564 13.555497 -8.421040 19.272967 -0.897760 2.022985 0.008872 -0.014181 -798258.000000 1 0 0
-10.875164 13.567797 3.834860 17.806192 -0.895116 1.353729 0.000932 -0.004593 -535887.000000 1 0 0
-15.292264 3.428697 2.953060 15.947723 -0.220564 1.384550 0.004725 0.000971 1010540.000000 1 0 0
-11.157164 9.524597 -12.530840 19.293061 -0.706624 2.277723 0.004824 0.000784 271215.000000 1 0 0
-12.984764 11.706497 -8.940540 19.636177 -0.733674 2.043516 0.015953 -0.014134 -1003270.000000 1 0 0
-8.775464 14.701697 -3.564140 17.488618 -1.032658 1.776032 0.007032 -0.008584 1175460.000000 1 0 0
-16.732964 8.288197 -4.133940 19.125265 -0.459898 1.788667 0.045825 -0.001764 643577.000000 1 0 0
-16.836064 6.906997 0.259260 18.199640 -0.389311 1.556550 0.026629 -0.000553 -304488.000000 1 0 0
-10.467864 2.806697 -12.534040 16.569728 -0.261964 2.428652 0.000533 -0.001949 598630.000000 1 0 0
-16.917364 0.974897 2.331460 17.105068 -0.057563 1.434068 0.004453 -0.005170 732628.000000 1 0 0
-12.701364 1.175797 -6.917340 14.510573 -0.092309 2.067705 0.002024 -0.004454 484146.000000 1 0 0
-12.217364 9.037797 -5.367840 16.117055 -0.636909 1.910336 0.012004 -0.001560 -716835.000000 1 0 0
-9.567964 13.972997 1.166760 16.975038 -0.970381 1.502008 0.006775 -0.006383 -126523.000000 1 0 0
-12.153464 11.166097 2.683060 16.720862 -0.743083 1.409638 0.001914 -0.001687 98954.400000 1 0 0
-12.539264 6.885597 -3.614740 14.755031 -0.502170 1.818299 0.002634 0.002302 -273270.000000 1 0 0
-15.594764 3.498897 -9.320640 18.501710 -0.220709 2.098756 -0.000829 -0.002066 -371784.000000 1 0 0
-15.066964 5.874497 -4.705240 16.842281 -0.371763 1.853935 0.016869 0.002637 1470220.000000 1 0 0
-17.819164 5.193797 7.441560 19.996874 -0.283615 1.189487 0.007556 -0.006030 -1846320.000000 1 0 0
-15.653364 10.186797 -2.141440 18.798522 -0.576919 1.684959 0.041220 -0.001608 220543.000000 1 0 0
-8.643164 9.926097 -8.399140 15.613368 -0.854378 2.138794 -0.003557 -0.005385 931460.000000 1 0 0
-16.987564 4.339197 -1.232840 17.576287 -0.250086 1.640996 0.013904 0.000521 -176879.000000 1 0 0
-10.196364 5.360597 -4.560540 12.389527 -0.484024 1.947757 -0.000764 0.001208 -662469.000000 1 0 0
-18.232264 2.720897 5.953460 19.371692 -0.148142 1.258413 0.011576 -0.007464 679588.000000 1 0 0
-10.240964 10.102797 -5.784740 15.505066 -0.778607 1.953130 -0.000567 -0.003979 1040660.000000 1 0 0
-15.366764 0.381997 -5.839740 16.443416 -0.024854 1.933862 0.001406 -0.000581 -215153.000000 1 0 0
-16.321364 -4.259203 -8.860240 19.053388 0.255266 2.054455 0.008458 -0.003739 -869096.000000 1 0 0
-9.838864 9.817197 -1.217240 13.952143 -0.784296 1.658151 -0.004646 0.002488 1043090.000000 1 0 0
-17.352664 -3.028203 -3.206540 17.904381 0.172770 1.750860 0.005709 -0.000202 -745291.000000 1 0 0
-11.939464 5.122697 -11.523340 17.366064 -0.405301 2.296357 0.004226 -0.000030 676048.000000 1 0 0
-16.274364 7.122497 5.830960 18.697192 -0.412537 1.253643 0.008086 -0.001108 1353960.000000 1 0 0
-12.078264 6.086197 -8.782640 16.126408 -0.466760 2.146723 0.004520 0.000435 2166990.000000 1 0 0
-14.384064 8.498097 -0.077040 16.707032 -0.533627 1.575408 0.024449 -0.001450 1882600.000000 1 0 0
-14.777164 11.902997 3.884260 19.368361 -0.678085 1.368880 0.011898 -0.007212 1562170.000000 1 0 0
-17.212564 4.030597 -4.115040 18.150803 -0.230021 1.799499 0.008050 0.000653 420448.000000 1 0 0
-13.829364 13.502097 -0.940740 19.350528 -0.773425 1.619431 0.036911 -0.005374 -418354.000000 1 0 0
-10.034964 6.896297 -13.115440 17.896206 -0.602102 2.393315 -0.002046 -0.002023 1827500.000000 1 0 0
-15.846964 -1.286703 -8.292040 17.931531 0.081018 2.051528 0.004387 -0.005335 -328129.000000 1 0 0
-11.438464 12.036397 -0.143240 16.605236 -0.810864 1.579423 0.013560 -0.001512 -526725.000000 1 0 0
-11.821364 7.489597 -0.919340 14.024404 -0.564734 1.636396 0.004096 0.001946 3017860.000000 1 0 0
-11.468364 0.186397 -11.621940 16.328736 -0.016252 2.362779 -0.005799 -0.003789 512077.000000 1 0 0
-19.172864 -1.283403 -4.646440 19.769554 0.066839 1.808046 0.007357 0.001787 -669517.000000 1 0 0
-17.902764 1.398797 -5.072540 18.660018 -0.077975 1.846101 -0.003359 0.001562 -1626440.000000 1 0 0
-13.327464 -0.183603 -9.434740 16.330013 0.013775 2.186771 0.004619 -0.005413 -954049.000000 1 0 0
-6.056764 11.293897 -13.220440 18.412402 -1.078543 2.371747 -0.005966 -0.002133 -1214520.000000 1 0 0
16.356836 5.789897 7.154860 18.768618 0.340211 1.179687 0.038881 -0.008037 407550.000000 1 0 0
14.798736 10.232797 -5.495240 18.812506 0.604974 1.867224 0.019709 -0.005564 409024.000000 1 0 0
2.368836 16.813797 4.405860 17.542143 1.430831 1.316919 0.011693 -0.006877 2781330.000000 1 0 0
-3.725164 18.300097 -5.904940 19.586698 -1.369980 1.877038 0.008018 -0.005721 -711285.000000 1 0 0
5.387636 14.473297 5.729960 16.472262 1.214442 1.215514 0.006319 -0.006257 -464352.000000 1 0 0
9.998836 5.966297 15.128360 19.090330 0.537989 0.655961 0.028764 -0.002685 -239106.000000 1 0 0
4.618836 12.780897 -1.042040 13.629777 1.224014 1.647324 0.002998 -0.009512 639761.000000 1 0 0
3.501436 13.487697 13.101960 19.126929 1.316801 0.816192 0.000475 -0.004984 -171740.000000 1 0 0
-0.735064 12.375697 9.318660 15.509211 -1.511470 0.926236 -0.007289 0.003514 290944.000000 1 0 0
-7.806264 13.885097 8.393260 18.005014 -1.058631 1.085848 0.005226 -0.008504 1387210.000000 1 0 0
11.451436 12.926097 -4.181640 17.768103 0.845817 1.808370 0.021515 -0.006502 -127581.000000 1 0 0
-5.678964 16.252797 0.732960 17.231985 -1.234643 1.528249 -0.006235 0.001099 2577380.000000 1 0 0
3.240936 10.609197 6.783460 13.002849 1.274316 1.021965 -0.003979 0.003932 1594390.000000 1 0 0
-1.236664 15.649097 2.503660 15.896286 -1.491936 1.412638 -0.008996 0.003753 -1262200.000000 1 0 0
9.857236 8.732597 9.582460 16.286402 0.724974 0.941753 0.016430 -0.007039 3656860.000000 1 0 0
7.198436 12.156397 6.278660 15.460176 1.036167 1.152594 0.008513 -0.005018 1788550.000000 1 0 0
11.888136 14.047197 -1.551240 18.467752 0.868455 1.654893 0.014287 -0.007903 -1138540.000000 1 0 0
9.657736 15.851497 -1.251840 18.604003 1.023593 1.638136 0.007640 -0.012468 -200652.000000 1 0 0
10.075436 13.740697 2.970260 17.295769 0.938098 1.398207 0.020198 -0.008467 1967650.000000 1 0 0
-6.042064 14.545397 6.268060 16.951805 -1.177090 1.192048 -0.009145 -0.000914 630761.000000 1 0 0
-0.802964 18.314197 -6.256640 19.370083 -1.526981 1.899700 0.022031 -0.001338 302127.000000 1 0 0
-3.569264 15.844897 5.485160 17.143145 -1.349232 1.245107 -0.011051 0.003172 2127260.000000 1 0 0
7.078836 12.289197 10.712060 17.773084 1.048195 0.923900 0.004937 0.002380 1963580.000000 1 0 0
1.437036 14.539497 6.262860 15.896084 1.472280 1.165830 -0.001064 0.000572 134797.000000 1 0 0
17.503536 7.767097 -1.520840 19.209751 0.417640 1.650049 0.012227 0.011710 311659.000000 1 0 0
2.123336 16.224897 -3.434440 16.719786 1.440667 1.777681 -0.007584 -0.002743 173108.000000 1 0 0
6.704736 11.227797 0.665660 13.094274 1.032471 1.519938 0.012538 -0.006645 2088210.000000 1 0 0
12.732136 9.256597 3.214260 16.066218 0.628635 1.369374 0.011689 0.002180 -1331060.000000 1 0 0
6.043236 14.291197 -3.365240 15.877149 1.170736 1.784371 -0.003650 -0.009195 936943.000000 1 0 0
3.055936 16.499197 1.517460 16.848292 1.387655 1.480608 0.003802 -0.010753 -1317020.000000 1 0 0
2.821236 18.965597 -2.550040 19.343111 1.423124 1.703013 -0.002819 -0.004201 -890267.000000 1 0 0
3.961836 11.896597 10.636960 16.442935 1.249325 0.867282 0.000119 -0.000722 2567360.000000 1 0 0
8.050436 11.512997 3.448360 14.465470 0.960576 1.330093 0.009837 -0.002721 1057510.000000 1 0 0
0.714836 12.569497 0.182560 12.591131 1.513987 1.556297 -0.001285 -0.004087 -2261350.000000 1 0 0
12.010336 9.934497 -4.592540 16.249118 0.691085 1.857334 0.015916 -0.002709 690506.000000 1 0 0
-1.242164 16.464697 9.981460 19.294009 -1.495495 1.027063 -0.002424 -0.000607 -374279.000000 1 0 0
8.190136 14.714097 -7.917140 18.608173 1.062886 2.010273 0.015997 -0.010529 947774.000000 1 0 0
14.540136 7.599597 -1.413040 16.467122 0.481614 1.656712 0.008849 0.006279 526827.000000 1 0 0
12.568336 8.266397 6.019260 16.202712 0.581780 1.190175 0.013057 -0.004708 -482844.000000 1 0 0
-3.039964 14.188097 10.211560 17.743152 -1.359726 0.957555 -0.002738 -0.005058 1023510.000000 1 0 0
-4.445064 17.154697 -3.189240 18.005929 -1.317256 1.748857 0.002836 -0.005689 -5732.560000 1 0 0
-7.013464 16.534597 -1.855940 18.056193 -1.169630 1.673765 0.008269 -0.002726 601561.000000 1 0 0
8.331336 11.213997 -1.770340 14.081868 0.931828 1.696848 0.010783 -0.007098 383074.000000 1 0 0
8.562636 12.863597 -4.035240 15.971037 0.983499 1.826225 0.011033 -0.011428 2983580.000000 1 0 0
2.563936 14.743397 -7.328440 16.662760 1.398614 2.026183 0.000499 -0.005343 -370445.000000 1 0 0
11.361436 11.285197 9.738860 18.742553 0.782032 1.024399 0.032329 -0.010877 826475.000000 1 0 0
8.558836 15.651697 1.319760 17.887735 1.070389 1.496949 0.011260 -0.010248 919475.000000 1 0 0
6.010836 9.859997 7.791160 13.930250 1.023334 0.977258 0.003229 0.002614 2582110.000000 1 0 0
14.527236 11.372097 2.656460 18.639259 0.664172 1.427790 0.031104 -0.002888 2399150.000000 1 0 0
12.147236 12.612397 1.139460 17.547828 0.804183 1.505816 0.020356 -0.004429 4580020.000000 1 0 0
5.188636 15.900897 8.214160 18.634187 1.255379 1.114294 0.014211 -0.000998 -400275.000000 1 0 0
11.509636 15.063897 5.078260 19.626040 0.918361 1.309067 0.031015 -0.007771 1682350.000000 1 0 0
5.965136 16.734897 1.765060 17.853713 1.228388 1.471772 -0.002145 -0.017001 1198500.000000 1 0 0
-0.610164 16.162297 -4.300740 16.735845 -1.533062 1.830690 -0.000429 -0.002117 1527530.000000 1 0 0
16.115636 6.384797 2.529560 17.517934 0.377215 1.425891 0.006774 0.003437 625163.000000 1 0 0
7.679936 16.694997 -3.186040 18.650877 1.139646 1.742463 -0.002971 -0.013337 120847.000000 1 0 0
14.895136 8.127997 7.482860 18.545151 0.499521 1.155464 0.035613 -0.011474 -208226.000000 1 0 0
2.068136 12.885197 8.660460 15.662346 1.411649 0.984898 0.002296 0.001991 771124.000000 1 0 0
16.009136 7.576897 -5.729640 18.615332 0.442049 1.883667 0.017786 0.000293 231061.000000 1 0 0
-2.883064 17.222797 0.625960 17.473656 -1.404936 1.534966 -0.012114 0.006014 226573.000000 1 0 0
-2.924764 18.608097 4.697160 19.413368 -1.414895 1.326416 -0.012254 0.001102 812044.000000 1 0 0
-0.763064 19.195897 0.898660 19.232065 -1.531066 1.524052 -0.008859 0.001382 -577355.000000 1 0 0
7.037436 16.823597 -6.057240 19.215855 1.174608 1.891486 0.002977 -0.008967 557036.000000 1 0 0
10.984636 10.041397 0.873560 14.908219 0.740568 1.512167 0.011016 0.001818 -1284700.000000 1 0 0
9.145836 8.605897 14.282760 19.018544 0.754991 0.721234 0.023723 -0.008753 75236.300000 1 0 0
6.407836 12.315497 -8.297740 16.173569 1.091036 2.109523 0.014651 -0.010223 542814.000000 1 0 0
6.345636 8.971897 13.373760 17.309521 0.955202 0.687831 0.010935 -0.006944 1445230.000000 1 0 0
16.693336 9.411397 2.904460 19.382408 0.513363 1.420379 0.018227 0.003315 -2550770.000000 1 0 0
2.497736 14.806997 -0.841140 15.039726 1.403683 1.626753 -0.002627 -0.006159 887586.000000 1 0 0
9.093436 12.836597 8.404060 17.835275 0.954456 1.080141 0.018962 -0.006467 469733.000000 1 0 0
7.139536 9.382897 10.594260 15.850870 0.920350 0.838780 0.004076 -0.001309 1362330.000000 1 0 0
4.390236 15.762397 -5.363240 17.218934 1.299155 1.887539 -0.000456 -0.007850 2145730.000000 1 0 0
0.323936 16.384297 -8.194240 18.322000 1.551028 2.034468 0.005796 -0.002008 907612.000000 1 0 0
-2.269164 15.706497 -1.958840 15.990004 -1.427316 1.693609 -0.013559 0.004909 -1158360.000000 1 0 0
13.330336 10.518897 7.634560 18.618044 0.668056 1.148274 0.031208 -0.013967 2924750.000000 1 0 0
-1.029264 15.949497 7.075860 17.478949 -1.506353 1.154012 -0.002970 0.000806 2594290.000000 1 0 0
13.198936 13.287097 6.600260 19.857550 0.788727 1.231970 0.030136 -0.013865 -1251330.000000 1 0 0
5.349836 17.229097 4.530460 18.600742 1.269724 1.324758 0.008002 -0.013437 -795756.000000 1 0 0
10.830336 9.510097 -1.810040 14.526334 0.720582 1.695725 0.007145 0.000478 750488.000000 1 0 0
3.069136 12.712397 4.714660 13.901535 1.333901 1.224787 -0.000836 0.001290 1087190.000000 1 0 0
-0.196964 18.130297 3.704560 18.505952 -1.559933 1.369253 -0.004323 0.000855 2777700.000000 1 0 0
-7.660364 15.933497 -5.877440 18.630669 -1.122650 1.891750 0.025049 -0.014597 818426.000000 1 0 0
-12.375464 -9.090603 8.259160 17.435736 0.633550 1.077319 0.009151 -0.006228 -1426650.000000 1 0 0
-13.217664 -11.664803 6.948460 18.948756 0.723071 1.195340 0.017763 -0.000324 -1207620.000000 1 0 0
-6.630764 -12.251503 12.366260 18.627688 1.074719 0.844822 0.009143 -0.005831 -1018550.000000 1 0 0
-1.900464 -10.690803 14.295560 17.951826 1.394868 0.649595 0.005122 -0.007128 1951450.000000 1 0 0
-8.880864 2.882497 10.951860 14.391726 -0.313847 0.705969 0.003488 -0.000533 989996.000000 1 0 0
0.518036 10.050297 15.208260 18.236448 1.519298 0.584572 -0.000956 -0.005400 -492240.000000 1 0 0
0.971636 -6.844603 16.638160 18.017243 -1.429782 0.393800 0.002013 -0.011836 1105570.000000 1 0 0
6.211136 2.143097 17.769060 18.944935 0.332250 0.354178 0.036228 -0.009514 2500980.000000 1 0 0
-5.154864 -2.904603 17.597560 18.565653 0.513125 0.324357 0.020997 -0.017161 446492.000000 1 0 0
-4.309764 8.134697 13.044660 15.965918 -1.083594 0.614552 -0.001214 0.000400 1695370.000000 1 0 0
-0.089864 -4.976703 18.561060 19.216883 1.552741 0.262005 0.013769 -0.018383 1068590.000000 1 0 0
-11.704164 2.243997 11.201460 16.355296 -0.189428 0.816354 0.002054 -0.004420 1247310.000000 1 0 0
-3.418764 -6.132203 14.397260 16.017895 1.062206 0.453718 0.008572 -0.009412 2099890.000000 1 0 0
-7.480464 -2.178303 14.520860 16.479009 0.283363 0.492458 0.005607 -0.004862 1039980.000000 1 0 0
-6.087364 -1.099703 10.535960 12.217684 0.178726 0.530897 0.005116 -0.002929 400205.000000 1 0 0
-4.050864 2.474797 11.189760 12.155034 -0.548418 0.401217 0.003684 0.000196 2309810.000000 1 0 0
-6.469464 6.221697 13.668060 16.351739 -0.765878 0.581066 0.001174 -0.001228 1669230.000000 1 0 0
-9.018664 5.468097 12.573660 16.411378 -0.545046 0.697960 0.005879 -0.005729 -1896830.000000 1 0 0
-12.156664 -2.135703 15.832460 20.075172 0.173907 0.662172 -0.003468 0.004378 -645022.000000 1 0 0
-3.560364 -7.621103 16.954460 18.926466 1.133754 0.460553 0.012680 -0.009736 -1110500.000000 1 0 0
-0.531964 -5.408103 14.424260 15.413950 1.472747 0.360296 0.004080 -0.005297 1697270.000000 1 0 0
-14.124564 -2.262403 13.673960 19.788860 0.158826 0.807935 0.003927 0.001643 -544326.000000 1 0 0
-6.567364 1.403097 12.186560 13.914425 -0.210483 0.503660 0.007193 -0.003400 2171040.000000 1 0 0
2.186736 -2.229303 14.605260 14.935369 -0.795037 0.210639 0.000086 -0.001109 1122220.000000 1 0 0
-12.637264 4.010897 9.080660 16.070039 -0.307330 0.970281 -0.001441 -0.001608 -1036300.000000 1 0 0
-9.123664 -2.957403 12.537160 15.785052 0.313460 0.653036 -0.000824 0.003410 1014470.000000 1 0 0
-7.103264 -7.164803 15.245060 18.281210 0.789711 0.584624 0.014382 -0.010261 -2729880.000000 1 0 0
-3.080264 6.019997 19.509960 20.648655 -1.097855 0.333648 0.015597 -0.004292 949398.000000 1 0 0
0.571536 5.376897 16.157860 17.038607 1.464899 0.322933 0.010872 -0.006188 1621480.000000 1 0 0
3.535536 1.452097 16.766260 17.196398 0.389709 0.224135 0.020214 -0.005711 867829.000000 1 0 0
-11.757164 11.421397 7.817860 18.160346 -0.770913 1.125760 0.003101 -0.008334 525148.000000 1 0 0
0.613136 -9.535503 15.406660 18.129173 -1.506584 0.555139 -0.002819 -0.001102 -1185200.000000 1 0 0
-2.640364 -3.713503 18.881560 19.423567 0.952714 0.236792 0.023936 -0.022202 668141.000000 1 0 0
-12.864564 2.507097 13.817260 19.044664 -0.192472 0.759009 0.000847 -0.011690 -692178.000000 1 0 0
-5.408664 -0.494603 15.751260 16.661347 0.091193 0.332046 0.018386 -0.003739 915541.000000 1 0 0
-4.516364 -5.941203 11.700460 13.877904 0.920814 0.567774 0.001126 -0.002841 928727.000000 1 0 0
2.509736 1.820397 14.051060 14.389056 0.627527 0.217174 0.000497 -0.004124 -220929.000000 1 0 0
0.077336 3.210897 14.282260 14.638948 1.546716 0.221202 0.010914 -0.004716 1765320.000000 1 0 0
-13.084164 7.164297 12.207560 19.275556 -0.500964 0.884963 0.011616 -0.004493 1053620.000000 1 0 0
1.009336 1.437297 18.249660 18.333976 0.958565 0.095942 0.014601 -0.004336 1511250.000000 1 0 0
-2.054364 6.374597 12.503860 14.184584 -1.259032 0.491744 -0.000528 0.001001 2144130.000000 1 0 0
-13.502264 -2.641103 10.809260 17.496476 0.193165 0.904859 0.010988 -0.002626 -751514.000000 1 0 0
-2.580764 3.587397 13.536260 14.239386 -0.947170 0.315565 0.004920 0.001123 603837.000000 1 0 0
3.510636 5.950597 16.239060 17.647698 1.037789 0.402256 0.011352 -0.009307 556972.000000 1 0 0
-3.774564 12.310497 12.297160 17.804939 -1.273283 0.808395 0.002852 -0.006887 -890532.000000 1 0 0
3.760236 -1.523103 17.110960 17.585340 -0.384857 0.232800 0.015103 -0.005480 -638424.000000 1 0 0
-15.801364 0.446697 9.126760 18.253230 -0.028262 1.047188 0.000341 -0.001157 765922.000000 1 0 0
-4.714464 4.563097 15.358960 16.701667 -0.769084 0.403719 0.010474 0.000261 2597710.000000 1 0 0
-8.062564 -8.098503 10.500760 15.519557 0.787622 0.827641 0.007425 -0.005671 4486370.000000 1 0 0
-2.625864 -0.440603 14.749760 14.988153 0.166245 0.178593 0.013558 -0.004549 3306760.000000 1 0 0
-1.738964 0.917997 17.279860 17.391386 -0.485717 0.113310 0.014485 -0.007230 -122078.000000 1 0 0
-0.726064 -2.475303 14.337960 14.568164 1.285476 0.178009 0.007073 -0.004000 760912.000000 1 0 0
5.015636 -8.362803 16.453960 19.126575 -1.030557 0.535003 0.000457 0.001284 1109310.000000 1 0 0
-4.535464 9.954997 10.645560 15.264350 -1.143298 0.799015 -0.000654 -0.003709 -861171.000000 1 0 0
-6.338064 2.131497 15.275160 16.674677 -0.324419 0.412630 0.017240 -0.001828 -1057520.000000 1 0 0
-4.937164 6.859197 17.407560 19.350642 -0.946913 0.451976 0.015309 0.003312 -213072.000000 1 0 0
-4.111264 9.109697 15.747160 18.651063 -1.146857 0.565532 0.003911 -0.001587 132606.000000 1 0 0
-4.581464 -9.904803 18.376660 21.372800 1.137555 0.535888 0.024881 -0.012832 -503167.000000 1 0 0
-6.875964 -4.071103 11.096560 13.674298 0.534574 0.624098 0.001705 -0.000954 1839510.000000 1 0 0
-2.294764 -0.873003 19.602060 19.755223 0.363525 0.124604 0.024524 -0.009355 -122273.000000 1 0 0
-5.744164 -4.494003 15.214160 16.871934 0.663892 0.447010 0.012215 -0.010068 815109.000000 1 0 0
-12.882064 0.081997 9.785060 16.177197 -0.006365 0.921197 0.000037 0.001494 1962260.000000 1 0 0
-14.492564 8.710397 10.252860 19.774392 -0.541173 1.025710 0.000305 -0.007730 -1241610.000000 1 0 0
-8.279364 10.428497 12.862160 18.513147 -0.899775 0.802713 0.012683 -0.013075 197994.000000 1 0 0
-10.487464 7.141297 10.735360 16.620259 -0.597817 0.868568 0.008425 -0.004180 1397490.000000 1 0 0
-9.822464 -6.489003 14.833060 18.936939 0.583811 0.670860 0.007052 -0.004531 407113.000000 1 0 0
-0.936964 -13.427003 14.511360 19.792470 1.501127 0.747816 0.008606 -0.009129 1326860.000000 1 0 0
3.715036 -5.746003 17.006860 18.331703 -0.996855 0.382513 0.007437 -0.005630 1330380.000000 1 0 0
-7.288964 9.234197 10.358160 15.674530 -0.902586 0.848876 0.001549 -0.004533 773414.000000 1 0 0
-10.381564 -6.712203 11.864960 17.134988 0.573946 0.805930 0.010292 -0.006641 1627560.000000 1 0 0
-11.008464 -3.955003 10.682960 15.841527 0.344909 0.830693 0.008780 0.002147 -869275.000000 1 0 0
-10.043864 -10.185903 9.863760 17.376006 0.792419 0.967129 0.009915 -0.007222 1707710.000000 1 0 0
-9.776964 -3.601103 15.274660 18.489787 0.352906 0.598621 0.008520 -0.005540 522991.000000 1 0 0
5.539036 -3.466403 16.052860 17.331797 -0.559184 0.386567 0.011513 -0.005304 -128451.000000 1 0 0
-11.286964 0.641897 15.307660 19.029768 -0.056809 0.636121 0.008224 -0.007542 -1596820.000000 1 0 0
-3.050164 3.175597 18.815760 19.324098 -0.805543 0.229878 0.016737 -0.007182 -950480.000000 1 0 0
0.491536 7.323797 13.979660 15.789570 1.503782 0.483500 0.007010 -0.007924 658226.000000 1 0 0
-13.209364 -7.362503 12.182160 19.419031 0.508484 0.892675 0.015696 -0.007925 258978.000000 1 0 0
-1.490464 -1.027103 12.125960 12.260316 0.603384 0.148180 0.004107 -0.001526 712284.000000 1 0 0
1.971236 -4.861103 13.149360 14.157039 -1.185547 0.379577 -0.001046 -0.002668 2149370.000000 1 0 0
-14.678164 -3.973703 8.489260 17.415693 0.264385 1.061631 0.008028 -0.008367 -831982.000000 1 0 0
8.088336 0.628097 16.026560 17.962915 0.077499 0.468597 0.020910 -0.009694 1218660.000000 1 0 0
-1.342064 11.295697 13.444160 17.610774 -1.452539 0.702227 -0.009631 -0.002732 1502810.000000 1 0 0
2.801536 -12.268403 -13.738040 18.630514 -1.346292 2.400001 -0.004262 0.012217 -286882.000000 1 0 0
0.835836 -10.550803 -13.941040 17.503447 -1.491741 2.492238 -0.007802 0.009892 -1468720.000000 1 0 0
3.270436 -14.371203 -12.433240 19.282444 -1.347038 2.271552 -0.007768 0.010561 -1404270.000000 1 0 0
-5.163864 -10.264903 -16.072340 19.757374 1.104704 2.520917 0.002000 -0.002369 -107839.000000 1 0 0
-0.975664 -12.270203 -14.886140 19.315976 1.491448 2.450680 -0.003118 0.006778 -577367.000000 1 0 0
5.680536 -15.176203 -12.028340 20.180846 -1.212635 2.209341 -0.002258 0.010829 644279.000000 1 0 0
1.886336 -11.843103 -16.075640 20.056010 -1.412846 2.500658 -0.001925 0.010735 -791626.000000 1 0 0
1.269236 -14.375103 -14.039240 20.133424 -1.482731 2.342434 0.003212 0.017111 -631137.000000 1 0 0
-1.151264 -10.667803 -15.822040 19.117122 1.463293 2.545681 -0.003620 0.005758 -228978.000000 1 0 0
-5.979464 -5.595103 -15.074040 17.154761 0.752203 2.643947 0.008453 0.002111 -49792.600000 1 0 0
-6.297364 -7.746303 -16.556440 19.333331 0.888208 2.598990 0.006571 0.005934 108620.000000 1 0 0
5.121336 -12.707403 -11.426740 17.840307 -1.187689 2.265947 -0.000258 0.012460 -55366.500000 1 0 0
-1.789464 -15.560803 -13.275140 20.532172 1.456301 2.273854 0.007721 0.005875 -304324.000000 1 0 0
15.751336 -7.295203 -8.956740 19.533247 -0.433734 2.047146 0.013133 0.001219 788642.000000 1 0 0
19.316736 -3.793103 -4.387940 20.168736 -0.193897 1.790112 0.026761 -0.015035 724247.000000 1 0 0
14.741036 -11.672603 -9.007240 20.848936 -0.669748 2.017532 0.017842 -0.002079 596550.000000 1 0 0
17.939736 -3.594203 -6.491840 19.413820 -0.197731 1.911757 0.051155 -0.009241 636583.000000 1 0 0
9.488336 -9.364603 -15.542040 20.476310 -0.778835 2.432611 0.034907 0.001949 280.081000 1 0 0
1.302536 1.904397 -15.309740 15.482618 0.970915 2.992015 0.011763 -0.004546 -13641.100000 1 0 0
4.870836 -4.355803 -13.968640 15.421444 -0.729636 2.704044 0.001126 0.002521 141985.000000 1 0 0
13.041636 -5.517903 -8.642140 16.589698 -0.400259 2.118741 0.023493 -0.000365 -1468180.000000 1 0 0
2.941436 0.939597 -12.235240 12.618874 0.309190 2.894381 0.005256 -0.005790 -1985440.000000 1 0 0
0.670936 6.316497 -12.861040 14.344150 1.464974 2.682839 0.009385 -0.002768 722692.000000 1 0 0
3.148236 -1.141703 -16.670540 17.003581 -0.347898 2.943346 0.003849 -0.007228 -374687.000000 1 0 0
13.284136 4.443497 -11.506240 18.127506 0.322797 2.258467 0.021958 -0.001654 449709.000000 1 0 0
-3.865364 9.450297 -16.474040 19.381516 -1.182538 2.586757 0.010447 -0.001858 580107.000000 1 0 0
-0.204864 -5.057103 -17.642940 18.354552 1.530308 2.862224 0.002396 -0.003286 838442.000000 1 0 0
-0.571764 -8.723303 -17.505340 19.566804 1.505345 2.678432 -0.003222 0.007357 -1238280.000000 1 0 0
5.493736 -10.237903 -12.294040 16.915649 -1.078293 2.384426 0.000049 0.007422 462120.000000 1 0 0
1.614236 -9.711203 -18.165740 20.661735 -1.406078 2.644971 0.001944 0.005571 -495633.000000 1 0 0
10.919136 8.989697 -14.738640 20.427180 0.688786 2.376793 0.043264 -0.012671 332731.000000 1 0 0
11.034036 -3.708403 -13.001140 17.450840 -0.324227 2.411354 0.022386 -0.002530 486220.000000 1 0 0
4.984636 7.517597 -12.301640 15.254219 0.985293 2.508906 -0.001596 0.000133 -1121520.000000 1 0 0
9.627736 -5.926803 -12.700340 17.003497 -0.551809 2.414222 0.015161 0.001650 -740312.000000 1 0 0
-3.312064 0.325097 -15.916040 16.260251 -0.097842 2.935466 0.009173 -0.001320 -579317.000000 1 0 0
-0.627164 10.792197 -12.741640 16.709705 -1.512749 2.438010 0.001333 0.002289 -1087170.000000 1 0 0
6.673836 -5.532803 -12.417340 15.144052 -0.692193 2.532117 0.000169 0.001761 231133.000000 1 0 0
17.905436 -5.955703 -8.235640 20.588851 -0.321108 1.982318 0.025701 -0.010885 190438.000000 1 0 0
13.343036 4.631697 -14.019740 19.900812 0.334111 2.352488 0.035026 -0.008683 345798.000000 1 0 0
14.153836 0.739497 -11.619240 18.327156 0.052200 2.257499 0.026610 0.002059 -145208.000000 1 0 0
15.275136 6.090897 -11.022840 19.797267 0.379425 2.161308 0.035270 -0.010053 407183.000000 1 0 0
8.383136 1.463597 -11.617840 14.401155 0.172846 2.509393 0.001076 0.000062 335817.000000 1 0 0
9.903636 1.287597 -8.938140 13.402621 0.129287 2.300830 0.000576 0.001364 427726.000000 1 0 0
-0.171164 -5.755203 -12.963840 14.184949 1.541064 2.723623 -0.000288 0.001251 301369.000000 1 0 0
10.522136 -5.590403 -8.997040 14.930327 -0.488372 2.217553 0.013727 -0.000315 -2119120.000000 1 0 0
10.209336 8.549797 -11.166340 17.378628 0.697162 2.268596 0.024930 -0.012732 551145.000000 1 0 0
8.389536 8.205097 -14.619640 18.746781 0.774284 2.465219 0.025828 -0.005717 724661.000000 1 0 0
8.691536 10.545697 -10.664940 17.334805 0.881485 2.233477 0.029535 -0.013686 -1997710.000000 1 0 0
6.939936 1.978897 -17.761440 19.171528 0.277775 2.755663 0.012855 -0.008328 -516777.000000 1 0 0
12.155636 2.601397 -12.806040 17.847168 0.210827 2.371059 0.020039 -0.004751 -818324.000000 1 0 0
2.899936 -0.707703 -19.179540 19.410441 -0.239362 2.987195 0.008704 -0.011840 -491154.000000 1 0 0
10.214236 -2.155603 -15.616640 18.784479 -0.207987 2.552344 0.026463 -0.003112 -174488.000000 1 0 0
8.258836 -0.764803 -13.084440 15.491799 -0.092341 2.576622 0.005426 -0.002472 702028.000000 1 0 0
0.550836 4.380297 -14.641540 15.292649 1.445700 2.848737 0.009164 -0.001285 -589252.000000 1 0 0
3.994636 -7.519103 -15.589040 17.762662 -1.082451 2.641691 0.008606 -0.003184 -1602500.000000 1 0 0
11.399136 -5.852303 -14.520840 19.366066 -0.474309 2.418569 0.031945 -0.000426 -977836.000000 1 0 0
-5.888564 4.402297 -16.881040 18.412629 -0.641964 2.730835 0.003884 0.004096 -20700.200000 1 0 0
11.473736 7.959697 -9.087640 16.660990 0.606507 2.147715 0.024906 -0.007853 -1192150.000000 1 0 0
9.637136 6.291597 -13.515240 17.751628 0.578376 2.436192 0.023106 -0.001329 140894.000000 1 0 0
12.056436 0.691997 -10.172540 15.789777 0.057334 2.270837 0.016179 0.002153 -305570.000000 1 0 0
5.538736 -7.367203 -13.787640 16.584700 -0.926138 2.552323 0.004195 0.005850 -456233.000000 1 0 0
8.617436 -10.291303 -10.784340 17.218394 -0.873691 2.247629 0.010572 0.007211 185248.000000 1 0 0
10.233836 4.863697 -15.827040 19.464895 0.443658 2.520266 0.035465 -0.003820 -343578.000000 1 0 0
9.948136 -0.416003 -11.024940 14.855563 -0.041793 2.407057 0.005611 -0.001292 -657880.000000 1 0 0
-1.625364 5.600997 -13.987740 15.154862 -1.288362 2.746568 0.004373 -0.001487 -433572.000000 1 0 0
1.263736 -0.670403 -14.873740 14.942376 -0.487743 3.045708 0.007859 -0.004189 -1305740.000000 1 0 0
11.431536 -10.436403 -14.432840 21.163775 -0.739923 2.321235 0.038682 0.000077 -1385110.000000 1 0 0
9.428936 -7.812503 -10.827540 16.345508 -0.691919 2.294837 0.011168 0.003917 -535230.000000 1 0 0
13.998136 -0.974603 -9.742840 17.082757 -0.069512 2.177706 0.019611 0.001607 809945.000000 1 0 0
4.117036 11.246197 -12.226540 17.114766 1.219867 2.366542 0.006793 -0.004612 -840528.000000 1 0 0
-1.232464 3.005597 -17.002340 17.309886 -1.181651 2.952807 0.006850 0.000518 834614.000000 1 0 0
5.896336 -0.438603 -17.724140 18.684332 -0.074249 2.819610 0.002420 0.004059 -219936.000000 1 0 0
6.472736 -6.723803 -16.160940 18.662310 -0.804421 2.617877 0.017145 0.004448 238449.000000 1 0 0
-1.766064 -5.088903 -19.809440 20.528756 1.236759 2.876089 0.003786 -0.009860 -412066.000000 1 0 0
-0.010564 -4.299203 -15.179540 15.776618 1.568339 2.865597 0.000644 -0.002739 769287.000000 1 0 0
0.430036 0.843897 -12.910340 12.945036 1.099512 3.068360 0.006715 -0.007265 1145260.000000 1 0 0
15.826336 0.522797 -13.597240 20.871779 0.033021 2.280311 0.036095 -0.005734 381930.000000 1 0 0
-0.147864 7.067597 -16.394640 17.853767 -1.549878 2.734494 0.010568 0.004058 -80918.100000 1 0 0
-4.969364 -0.594803 -18.357440 19.027453 0.119127 2.875429 0.003084 0.003887 -236756.000000 1 0 0
10.397536 -8.431403 -13.215340 18.810702 -0.681354 2.349762 0.017333 -0.001347 711396.000000 1 0 0
4.201636 8.534197 -17.370040 19.804155 1.113304 2.640568 0.014037 -0.008082 -250260.000000 1 0 0
9.079136 0.707797 -16.791140 19.101677 0.077801 2.644641 0.021824 -0.009366 -277432.000000 1 0 0
3.276536 4.970097 -18.659440 19.586022 0.987946 2.832769 0.006356 0.002918 -21892.900000 1 0 0
1.463036 -8.132603 -15.971840 17.982752 -1.392803 2.664156 -0.002944 0.005552 517878.000000 1 0 0
4.491436 7.908497 -14.977940 17.523013 1.054295 2.595881 0.003181 0.004930 518980.000000 1 0 0
-5.761464 -0.405603 -15.314440 16.367377 0.070283 2.780945 0.005532 0.000182 -781551.000000 1 0 0
2.958136 3.430297 -13.916940 14.635529 0.859173 2.826931 0.005790 -0.002531 -1051880.000000 1 0 0
-2.543864 -10.252903 -17.938640 20.817974 1.327596 2.609387 0.001711 0.000917 -443692.000000 1 0 0
5.916536 -9.226703 -15.481740 18.968967 -1.000604 2.525533 -0.001955 0.002823 -535837.000000 1 0 0
-1.844164 5.560297 -17.482240 18.437640 -1.250547 2.818261 0.008231 0.005311 -277806.000000 1 0 0
10.081336 -12.273203 -11.712540 19.734447 -0.883136 2.206206 0.026536 0.007136 1137250.000000 1 0 0
10.919336 3.644197 -9.290740 14.792901 0.322115 2.249846 0.006063 0.001614 -1099340.000000 1 0 0
4.853436 -0.435003 -10.927040 11.964333 -0.089389 2.722114 0.000774 -0.004748 157078.000000 1 0 0
6.381436 9.514897 -11.464140 16.207483 0.980022 2.356519 0.010503 -0.010172 93975.000000 1 0 0
10.790336 -9.577503 -9.433340 17.237975 -0.725922 2.149861 0.018691 0.004832 211764.000000 1 0 0
3.183536 -2.385503 -14.376840 14.917072 -0.643069 2.871643 0.004089 -0.004371 -268366.000000 1 0 0
9.213436 -4.528403 -14.735140 17.958791 -0.456824 2.533077 0.017608 -0.002999 -3742.430000 1 0 0
-3.979364 -6.605503 -16.516740 18.228294 1.028591 2.704780 -0.014970 0.002198 -582779.000000 1 0 0
5.946436 -7.842603 -11.247140 14.945389 -0.922054 2.422721 0.000422 0.005443 314046.000000 1 0 0
5.559636 6.376697 -16.745440 18.761172 0.853743 2.673783 0.007875 -0.011708 -45952.800000 1 0 0
8.856236 1.255697 -19.359140 21.325712 0.140848 2.708767 0.026123 -0.013190 443489.000000 1 0 0
13.209936 5.930897 -9.417640 17.273386 0.421999 2.147437 0.015146 -0.001655 813593.000000 1 0 0
-1.522564 -0.679503 -17.382040 17.461822 0.419763 3.045964 0.003787 -0.002401 440437.000000 1 0 0
-0.570964 -0.442303 -19.602540 19.615840 0.659097 3.104765 0.003098 -0.008055 77786.600000 1 0 0
2.859336 6.456097 -16.530340 17.975236 1.153871 2.737902 0.006410 0.001099 -162492.000000 1 0 0
7.814936 3.773097 -15.521840 17.783053 0.449798 2.631797 0.014561 -0.003697 -219716.000000 1 0 0
3.082036 -9.882103 -14.830240 18.085655 -1.268476 2.532208 0.002774 0.006397 -431702.000000 1 0 0
9.032836 -10.631603 -13.397440 19.342039 -0.866522 2.335966 0.028722 0.002724 207908.000000 1 0 0
3.711036 0.124097 -14.682640 15.144870 0.033428 2.893895 0.001443 -0.003304 -828014.000000 1 0 0
-1.074064 -2.808503 -18.808340 19.047177 1.205525 2.983065 0.003941 -0.004914 292129.000000 1 0 0
9.264336 10.208897 -13.101340 19.018270 0.833866 2.330742 0.040110 -0.014270 107104.000000 1 0 0
4.613236 2.136097 -10.704540 11.850402 0.433642 2.698211 -0.000001 -0.001510 116478.000000 1 0 0
-0.418164 7.129997 -19.029740 20.325912 -1.512215 2.782541 0.014819 0.003345 19527.400000 1 0 0
0.914236 -1.532203 -17.694540 17.784268 -1.032821 3.041097 0.014186 -0.004239 -1991030.000000 1 0 0
-4.555364 -2.140403 -14.117040 14.987444 0.439250 2.799112 0.008377 -0.005464 -3998040.000000 1 0 0
10.116636 6.084997 -10.325340 15.683946 0.541510 2.289405 0.013065 0.001349 61429.000000 1 0 0
8.264336 5.479597 -17.442340 20.063909 0.585489 2.624660 0.029367 -0.011181 -607174.000000 1 0 0
11.369636 0.291597 -13.733740 17.831692 0.025641 2.449931 0.018172 0.008570 664851.000000 1 0 0
6.849936 11.963797 -11.679040 18.068039 1.050801 2.273643 0.020464 -0.012304 -753607.000000 1 0 0
-0.885864 0.611397 -15.083740 15.122095 -0.604099 3.070354 0.005986 -0.002606 -1598390.000000 1 0 0
-4.310964 -2.987403 -19.059240 19.767741 0.605998 2.873050 -0.000513 0.004621 239607.000000 1 0 0
5.731036 -12.158903 -14.005640 19.412409 -1.130335 2.376732 0.003494 0.008079 -168840.000000 1 0 0
2.183936 -4.759303 -14.021840 14.967716 -1.140585 2.784181 0.003230 0.001423 306088.000000 1 0 0
11.645336 2.176097 -15.389740 19.421466 0.184734 2.485544 0.030501 -0.004080 506831.000000 1 0 0
9.640236 2.240397 -13.704140 16.904348 0.228347 2.516121 0.012134 -0.001739 -1112000.000000 1 0 0
-2.274764 -4.057803 -16.454840 17.099768 1.059859 2.866075 -0.004231 -0.002431 -1923550.000000 1 0 0
-2.839964 10.179297 -14.176140 17.681811 -1.298721 2.500990 0.007131 -0.004429 165081.000000 1 0 0
3.672736 5.845497 -13.804940 15.434869 1.009826 2.677883 0.000023 0.000515 26393.900000 1 0 0
-5.114864 -2.610003 -16.618440 17.582562 0.471836 2.808899 0.004052 0.002281 343903.000000 1 0 0
-4.290864 6.174997 -13.611840 15.550701 -0.963517 2.636894 0.000678 -0.001083 -860161.000000 1 0 0
5.853636 -1.207803 -14.173340 15.382048 -0.203478 2.742518 0.001110 0.001090 -2170720.000000 1 0 0
6.806936 -3.019703 -12.677440 14.702736 -0.417537 2.610492 0.000711 -0.000336 1256980.000000 1 0 0
2.824436 -3.173303 -18.334340 18.820077 -0.843499 2.913903 0.009025 -0.009001 160760.000000 1 0 0
7.446236 -12.126603 -12.138040 18.703821 -1.020116 2.277014 0.011246 0.010358 -368275.000000 1 0 0
-5.992564 -5.486103 -17.667440 19.445991 0.741305 2.710570 0.015354 0.002418 430604.000000 1 0 0
0.553436 8.656197 -11.823940 14.664297 1.506948 2.508680 0.003514 0.000686 236843.000000 1 0 0
0.484336 8.567097 -14.392140 16.755997 1.514322 2.603963 0.004908 0.000654 267615.000000 1 0 0
7.747036 -2.359303 -15.080540 17.117405 -0.295619 2.648781 0.006907 -0.006006 4808.990000 1 0 0
14.223636 1.458997 -8.974740 16.881541 0.102218 2.131321 0.013046 0.002809 439373.000000 1 0 0
2.876636 10.800397 -14.638340 18.417508 1.310494 2.489484 0.009095 0.003274 355620.000000 1 0 0
6.039836 0.979097 -15.521940 16.684390 0.160709 2.766100 0.004262 0.001185 421817.000000 1 0 0
16.709236 -5.338603 -10.410440 20.397953 -0.309249 2.106408 0.045153 -0.014435 566927.000000 1 0 0
4.870836 -4.263103 -11.313640 13.034474 -0.718960 2.621913 -0.001209 0.003971 -67100.100000 1 0 0
8.579736 -3.584003 -17.105540 19.469371 -0.395696 2.643692 0.009271 -0.008946 573504.000000 1 0 0
13.235536 -9.493803 -8.946640 18.583704 -0.622240 2.073075 0.026260 0.000837 -715298.000000 1 0 0
2.294336 -7.786903 -13.574140 15.816355 -1.284264 2.602616 0.001095 0.003737 187535.000000 1 0 0
-6.819064 -2.424803 -18.718940 20.069330 0.341648 2.772663 0.007367 0.012028 64979.900000 1 0 0
-1.439864 -6.461903 -15.713440 17.051146 1.351554 2.742844 -0.003892 -0.000603 -242636.000000 1 0 0
1.389236 -7.207103 -18.494840 19.898025 -1.380373 2.763800 0.007445 -0.002301 -156568.000000 1 0 0
5.470736 10.964697 -14.441140 18.939378 1.107996 2.437954 0.011954 -0.013994 -238455.000000 1 0 0
5.320336 -3.386103 -17.438640 18.543943 -0.566787 2.794588 0.010949 -0.004460 -843983.000000 1 0 0
4.092136 13.070597 -14.037840 19.612420 1.267384 2.368512 0.010186 -0.007734 -38859.200000 1 0 0
9.014536 10.469097 -15.644840 20.871628 0.859916 2.418215 0.042404 -0.015272 -20738.300000 1 0 0
2.414536 3.830697 -16.381940 16.996240 1.008386 2.871915 0.006486 -0.000448 663187.000000 1 0 0
16.565036 1.793097 -11.411140 20.194794 0.107826 2.171294 0.025654 -0.000330 140145.000000 1 0 0
10.008536 -3.605103 -10.566640 14.994046 -0.345735 2.352828 0.013038 -0.000324 -252527.000000 1 0 0
14.731236 -2.130503 -11.954840 19.091007 -0.143629 2.247469 0.042706 -0.006253 439287.000000 1 0 0
-2.691164 -8.690903 -15.828040 18.256533 1.270507 2.619905 -0.008417 0.006013 -459555.000000 1 0 0
14.013536 8.387197 -8.961540 18.628834 0.539321 2.072657 0.031971 -0.006557 -45109.600000 1 0 0
-8.370864 -0.143403 -16.651940 18.638107 0.017129 2.675732 -0.001344 0.007029 -526784.000000 1 0 0
-3.486764 4.095497 -16.117140 16.990963 -0.865510 2.819488 0.002060 0.005593 -609543.000000 1 0 0
14.997336 3.907797 -9.702040 18.284434 0.254898 2.130125 0.014694 0.001708 171200.000000 1 0 0
5.385136 1.044597 -12.993440 14.103912 0.191598 2.742117 -0.002175 -0.002682 408389.000000 1 0 0
7.902936 -7.773003 -12.865040 16.981908 -0.777110 2.430384 0.014421 0.004548 -2083780.000000 1 0 0
3.137136 -6.116203 -11.891940 13.735639 -1.096865 2.617488 0.001820 0.002713 -667447.000000 1 0 0
-3.111964 3.652097 -18.691440 19.297462 -0.865082 2.890316 0.005713 0.006648 -236673.000000 1 0 0
0.853436 5.249597 -17.762840 18.541982 1.409635 2.850670 0.009755 -0.005419 461403.000000 1 0 0
6.325536 7.128797 -10.252040 13.997731 0.845030 2.392647 0.001886 -0.001442 497488.000000 1 0 0
9.700436 3.819297 -11.635640 15.622855 0.375085 2.411006 0.011239 -0.002231 117025.000000 1 0 0
4.388836 1.670397 -17.549140 18.166574 0.363673 2.880129 0.003479 -0.001011 -298748.000000 1 0 0
2.661836 8.132797 -13.123140 15.666670 1.254489 2.563757 0.003073 -0.002812 -1129060.000000 1 0 0
14.333036 -3.588703 -9.915140 17.793951 -0.245336 2.161830 0.030172 -0.000238 -185630.000000 1 0 0
-1.268364 9.426697 -16.021040 18.631830 -1.437049 2.605821 0.012857 -0.000142 -2214380.000000 1 0 0
-5.237064 2.068397 -15.874140 16.843201 -0.376148 2.800727 0.004791 0.002451 609999.000000 1 0 0
4.560836 4.283697 -12.062840 13.589091 0.754074 2.663090 0.000240 -0.001443 441505.000000 1 0 0
9.275436 3.139897 -17.630540 20.167513 0.326409 2.634592 0.029467 -0.003473 458366.000000 1 0 0
-4.301064 14.409797 -13.424940 20.158631 -1.280733 2.299583 0.010004 -0.000378 -594260.000000 1 0 0
15.514336 -4.904703 -8.056540 18.156502 -0.306198 2.030550 0.025387 -0.004761 294482.000000 1 0 0
1.193136 9.367097 -16.813740 19.283877 1.444103 2.629879 0.004359 0.007756 403593.000000 1 0 0
0.555536 -3.197303 -12.835840 13.239718 -1.398762 2.893958 0.005375 -0.002657 385234.000000 1 0 0
7.569736 3.581397 -13.014740 15.476135 0.441914 2.569843 0.004363 -0.002291 -1056240.000000 1 0 0
-2.819564 7.624897 -15.053740 17.108597 -1.216606 2.646434 0.004394 0.003228 -233658.000000 1 0 0
12.082436 -5.066303 -11.003740 17.109499 -0.397042 2.269383 0.028273 -0.001993 -1488010.000000 1 0 0
0.686336 -4.412903 -20.028340 20.520213 -1.416503 2.922200 0.013344 -0.007041 -728812.000000 1 0 0
3.353436 -4.387203 -16.101640 17.022217 -0.918163 2.811212 0.006308 -0.003804 512815.000000 1 0 0
-5.614464 4.137097 -14.391840 15.992587 -0.635041 2.690352 -0.000134 0.001453 839980.000000 1 0 0
12.166236 -7.430603 -9.882540 17.346346 -0.548291 2.176960 0.016300 0.002001 -149994.000000 1 0 0
-2.063864 -1.732103 -14.947140 15.188045 0.698221 2.963247 0.005883 -0.001978 804485.000000 1 0 0
7.125236 5.914097 -14.212040 16.962535 0.692780 2.564127 0.007654 -0.003201 -727217.000000 1 0 0
4.022136 -5.472803 -18.403540 19.616815 -0.937009 2.788048 0.019930 -0.009788 66475.900000 1 0 0
7.634536 7.358697 -12.279140 16.223866 0.767003 2.429286 0.010888 -0.005242 -410288.000000 1 0 0
12.300636 -2.433503 -11.123440 16.761816 -0.195313 2.296441 0.024425 -0.002400 -541241.000000 1 0 0
7.464936 -0.725903 -10.689440 13.058190 -0.096937 2.529766 -0.002819 -0.001883 -1740380.000000 1 0 0
5.479136 3.976497 -14.452740 15.959798 0.627801 2.703522 -0.002518 -0.002062 851300.000000 1 0 0
14.770336 2.782897 -12.975840 19.856479 0.186228 2.282971 0.022737 -0.009835 -251066.000000 1 0 0
-6.430764 6.799997 -15.781640 18.348156 -0.813298 2.606304 0.004011 0.005797 445346.000000 1 0 0
-11.219164 3.996897 -16.456840 20.314340 -0.342237 2.515135 0.019654 -0.005175 -66740.700000 1 0 0
-4.990464 6.563697 -17.972340 19.773514 -0.920728 2.711458 0.004843 0.009769 -194399.000000 1 0 0
-9.951164 1.718997 -15.794040 18.746528 -0.171055 2.572713 0.002880 0.005368 -106690.000000 1 0 0
-7.582664 6.005097 -17.900240 20.346414 -0.669814 2.646182 0.000626 0.001377 -729409.000000 1 0 0
-8.694564 3.960997 -15.582440 18.278331 -0.427478 2.591563 0.000067 0.007035 464097.000000 1 0 0
8.988636 13.476597 -11.695140 19.979753 0.982576 2.196107 0.053919 -0.025532 -253569.000000 1 0 0
13.765736 9.215097 -11.420440 20.120635 0.589908 2.174382 0.031003 -0.013217 355372.000000 1 0 0
8.482736 15.831797 -9.102040 20.135783 1.078918 2.039840 0.028224 -0.014814 -257051.000000 1 0 0
7.270236 13.513997 -13.773840 20.620454 1.077230 2.302274 0.034372 -0.014324 -43427.500000 1 0 0
4.650036 15.970497 -12.285840 20.679011 1.287465 2.206969 0.029848 -0.017799 134731.000000 1 0 0
11.060136 11.060097 -11.426140 19.370313 0.785396 2.201705 0.045491 -0.020259 -748644.000000 1 0 0
15.860336 9.823697 -9.962340 21.149551 0.554553 2.061269 0.045319 -0.004631 1347860.000000 1 0 0
13.502336 10.903797 -9.424640 19.749170 0.679327 2.068281 0.065374 -0.013259 37215.800000 1 0 0
10.282236 11.817397 -8.339140 17.745887 0.854752 2.059996 0.017562 -0.005990 106280.000000 1 0 0
5.441036 16.055297 -9.836440 19.599311 1.244050 2.096564 0.011732 -0.018832 -358136.000000 1 0 0
6.764936 14.616397 -11.448040 19.760087 1.137323 2.188729 0.020998 -0.004846 -1002840.000000 1 0 0
10.940136 13.987997 -9.689940 20.229819 0.907060 2.070303 0.043339 -0.009354 -411446.000000 1 0 0
8.202036 -18.625703 -1.132840 20.383167 -1.155987 1.626402 0.028607 0.009893 -169082.000000 1 0 0
7.382636 -17.541903 -3.320240 19.319566 -1.172440 1.743513 0.026039 0.010590 291615.000000 1 0 0
4.447836 -18.265403 5.762960 19.662652 -1.331934 1.273337 0.040615 -0.002299 82832.700000 1 0 0
9.872536 -17.141503 -2.479540 19.936052 -1.048253 1.695494 0.026154 0.009900 -238103.000000 1 0 0
-9.475264 -12.460703 -9.792940 18.464870 0.920665 2.129816 0.007826 -0.012998 -1454390.000000 1 0 0
-5.111764 -6.991703 -12.095140 14.876372 0.939489 2.520157 -0.003360 0.001208 60509.100000 1 0 0
-10.812264 -9.529203 -5.600240 15.462000 0.722405 1.941417 0.006850 -0.004291 -1424800.000000 1 0 0
-4.503564 -11.468703 -13.960440 18.620073 1.196614 2.418484 0.003882 -0.001727 -15000.800000 1 0 0
-3.057764 -15.353203 7.419460 17.323947 1.374207 1.128210 0.000221 -0.004426 264771.000000 1 0 0
-4.692564 -12.089503 -11.524340 17.348966 1.200545 2.297309 -0.001009 -0.002683 660542.000000 1 0 0
-14.469764 -12.664703 -4.269240 19.697593 0.718973 1.789269 0.007025 -0.002953 466327.000000 1 0 0
-3.232664 -12.229103 -3.146140 13.034541 1.312366 1.814573 0.002841 -0.002500 702714.000000 1 0 0
-2.430164 -17.359503 -1.390840 17.583869 1.431710 1.649977 0.000436 -0.002981 -763535.000000 1 0 0
-5.784864 -12.050603 3.662860 13.859950 1.123238 1.303343 -0.004726 -0.001113 -275303.000000 1 0 0
-8.724664 -10.673503 -11.773840 18.129168 0.885527 2.277646 0.000134 -0.004145 216487.000000 1 0 0
-9.778364 -12.193003 -7.275440 17.240004 0.894858 2.006457 0.011171 -0.008023 -116410.000000 1 0 0
-10.845064 -14.984803 6.113460 19.481636 0.944316 1.251597 0.012085 -0.007085 -123402.000000 1 0 0
-9.493164 -15.864803 0.686060 18.500887 1.031570 1.533705 0.017045 0.002585 -1242870.000000 1 0 0
-14.950764 -7.940203 -8.270440 18.840710 0.488209 2.025244 0.018687 -0.001426 189421.000000 1 0 0
-2.412664 -16.483103 5.282260 17.476152 1.425456 1.263739 0.002532 -0.007842 -352898.000000 1 0 0
4.290136 -15.628103 5.720860 17.186364 -1.302882 1.231449 0.038372 -0.013003 -576330.000000 1 0 0
4.130936 -14.680903 -10.015040 18.245398 -1.296507 2.151853 -0.008185 0.007322 -133539.000000 1 0 0
-7.760564 -14.159003 -0.357540 16.150280 1.069412 1.592936 0.008031 -0.000266 -86584.400000 1 0 0
2.838536 -14.633303 9.576960 17.717477 -1.379198 0.999721 0.032965 -0.018363 206145.000000 1 0 0
2.468936 -17.015203 10.441460 20.115587 -1.426700 1.025030 0.054568 -0.020718 -560109.000000 1 0 0
-8.376664 -17.143703 -5.538940 19.868440 1.116298 1.853321 0.018590 -0.009781 -487589.000000 1 0 0
-6.373364 -9.279803 -7.705040 13.641926 0.968985 2.170994 0.003177 -0.004647 453280.000000 1 0 0
-6.189064 -13.183603 -4.759840 15.322140 1.131885 1.886674 -0.000977 -0.007410 168924.000000 1 0 0
2.485936 -19.372703 -4.803340 20.113517 -1.443172 1.811938 0.009504 -0.003069 289107.000000 1 0 0
-5.606264 -12.780303 8.390160 16.283769 1.157409 1.029501 -0.002458 -0.002897 1060430.000000 1 0 0
2.046736 -17.388003 3.627160 17.879822 -1.453626 1.366515 0.017728 -0.013557 1075910.000000 1 0 0
-17.655564 -9.862303 -2.601140 20.389946 0.509418 1.698715 0.006934 -0.005206 823584.000000 1 0 0
-3.460164 -15.505303 2.557660 16.091264 1.351234 1.411172 -0.006213 -0.001380 -16916.700000 1 0 0
-9.986364 -10.489703 -14.087340 20.204318 0.809975 2.342342 0.011443 -0.002954 -378423.000000 1 0 0
6.138236 -14.705503 -5.633340 16.901605 -1.175371 1.910600 0.002057 0.007519 207522.000000 1 0 0
-7.160164 -12.391003 -10.769940 17.910793 1.046821 2.215936 0.000838 -0.009894 -2801700.000000 1 0 0
-7.042664 -14.202403 3.815060 16.305277 1.110451 1.334630 -0.006323 0.001664 795232.000000 1 0 0
3.097136 -14.962003 -3.101240 15.590749 -1.366679 1.771047 0.001471 0.002753 -432726.000000 1 0 0
-7.603864 -11.297303 7.696860 15.642553 0.978374 1.056358 -0.003706 -0.007563 -3776640.000000 1 0 0
-12.822764 -12.476603 -0.869040 17.912122 0.771716 1.619332 0.001923 0.008339 -617595.000000 1 0 0
-1.983564 -13.680703 3.981260 14.385638 1.426810 1.290383 -0.002900 -0.000487 -3521550.000000 1 0 0
-3.318864 -13.840003 5.238060 15.165679 1.335438 1.218143 -0.005506 -0.001161 330159.000000 1 0 0
-14.396564 -10.141803 -4.556040 18.189962 0.613713 1.823962 -0.000547 -0.003589 652353.000000 1 0 0
-6.284264 -8.711103 -10.377240 14.935273 0.945846 2.338958 -0.002139 -0.002077 -89919.100000 1 0 0
0.613536 -19.350103 2.494160 19.519829 -1.539100 1.442670 0.022185 -0.015533 147264.000000 1 0 0
6.440936 -14.236603 -8.272040 17.680304 -1.145931 2.057673 0.001833 0.008943 -3225390.000000 1 0 0
-3.889264 -16.815303 -5.876440 18.232206 1.343500 1.898966 -0.000855 -0.004946 -315124.000000 1 0 0
-3.690864 -13.757203 -13.282040 19.475515 1.308683 2.321272 0.011070 0.002013 630895.000000 1 0 0
-8.230564 -14.657403 -4.549640 17.414961 1.059144 1.835112 0.007675 -0.011031 -1650420.000000 1 0 0
-4.660664 -14.357903 10.079860 18.151439 1.256921 0.982048 -0.001055 -0.004246 -1034700.000000 1 0 0
-0.408764 -12.171903 -10.041740 15.784766 1.537226 2.260316 -0.006588 0.004710 394669.000000 1 0 0
2.384636 -17.087503 6.834060 18.557306 -1.432137 1.193651 0.035170 -0.017498 -1548390.000000 1 0 0
-2.834464 -19.231703 -3.200040 19.701087 1.424465 1.733949 0.005267 -0.012397 -1331070.000000 1 0 0
0.548836 -15.424303 -2.991940 15.721388 -1.535229 1.762274 0.005478 -0.001381 -1174760.000000 1 0 0
5.907936 -18.040503 0.638560 18.993978 -1.254321 1.537171 0.016262 0.004992 -387879.000000 1 0 0
-7.054664 -16.697403 3.930960 18.547884 1.171045 1.357241 0.000584 0.003156 344092.000000 1 0 0
-5.210764 -13.597403 -9.491640 17.381963 1.204841 2.148453 0.001327 -0.005370 48076.700000 1 0 0
5.522436 -15.273403 -2.090840 16.375156 -1.223850 1.698829 0.012404 0.008228 20257.100000 1 0 0
-8.844764 -10.389703 -0.560040 13.656113 0.865547 1.611818 0.000535 -0.000624 724926.000000 1 0 0
-7.468464 -18.074503 -2.966540 19.780444 1.178959 1.721338 0.022587 -0.020720 327941.000000 1 0 0
7.856136 -16.044103 -1.209340 17.905156 -1.115456 1.638389 0.017268 0.008125 -103810.000000 1 0 0
-8.006064 -10.351103 -9.345040 16.080179 0.912455 2.190941 0.004718 -0.006846 -1769190.000000 1 0 0
-9.236764 -15.281903 -6.952340 19.162186 1.027129 1.942084 0.017236 -0.010211 201987.000000 1 0 0
-11.331164 -10.529703 -11.769140 19.436630 0.748753 2.221207 0.012900 0.000764 -839894.000000 1 0 0
6.563836 -16.273703 2.480360 17.722007 -1.187414 1.430376 0.021082 -0.000518 75892.100000 1 0 0
-2.319664 -11.188503 -6.057540 12.932796 1.366367 2.058259 0.000134 0.001311 -39331.100000 1 0 0
-12.597164 -15.216403 -3.385140 20.042121 0.879293 1.740511 0.011858 -0.008220 -168773.000000 1 0 0
-0.217964 -19.563403 -2.770040 19.759741 1.559655 1.711446 0.018060 -0.009790 267701.000000 1 0 0
-5.844464 -15.733003 -4.667940 17.420528 1.215117 1.842067 0.000942 -0.008830 -2829870.000000 1 0 0
1.923036 -15.974903 -0.950940 16.118308 -1.450994 1.629828 0.008819 -0.002518 681285.000000 1 0 0
-13.010064 -11.994103 5.396960 18.499931 0.744789 1.274763 0.009335 0.003064 477746.000000 1 0 0
2.056536 -15.429103 -8.790740 17.876343 -1.438288 2.084898 -0.002049 0.011841 -249450.000000 1 0 0
-11.937864 -16.741503 0.119860 20.562220 0.951352 1.564967 0.022483 -0.005103 333107.000000 1 0 0
-7.596464 -16.789503 -0.843040 18.447341 1.145904 1.616512 0.014397 -0.002267 664874.000000 1 0 0
-3.051264 -14.447803 -1.750540 14.869889 1.362662 1.688794 0.000114 -0.004118 235808.000000 1 0 0
-1.762764 -10.482803 -13.113840 16.881033 1.404197 2.460426 -0.005006 0.004046 -539369.000000 1 0 0
1.514736 -19.523203 4.993660 20.208575 -1.493365 1.321104 0.039703 -0.015244 20426.000000 1 0 0
-17.331864 -9.378403 2.528860 19.868143 0.495990 1.443168 0.003346 -0.002016 159481.000000 1 0 0
-2.681764 -15.722803 -8.056740 17.869231 1.401857 2.038539 -0.005078 -0.000783 -949782.000000 1 0 0
-10.517164 -12.222003 0.203760 16.125434 0.860232 1.558160 0.003444 0.005601 183224.000000 1 0 0
-6.919664 -11.553903 -6.516240 14.961143 1.031184 2.021439 0.001049 -0.007101 -262109.000000 1 0 0
-2.242064 -13.599903 -6.727340 15.337578 1.407407 2.024857 -0.004710 0.002780 386695.000000 1 0 0
-14.282664 -14.654103 -0.857340 20.481022 0.798234 1.612669 0.006503 0.010336 -76603.100000 1 0 0
-9.578064 -11.362303 -4.324540 15.477173 0.870399 1.853980 0.010483 -0.007519 1674080.000000 1 0 0
9.434836 -15.207003 -5.171540 18.628308 -1.015492 1.852109 0.017134 0.010873 161437.000000 1 0 0
-5.512064 -10.969203 -9.307240 15.405550 1.105148 2.219493 0.000561 -0.005524 -1286070.000000 1 0 0
-10.449664 -15.982403 -4.779640 19.684451 0.991738 1.816061 0.017516 -0.012069 -368618.000000 1 0 0
2.243536 -17.389803 -3.129640 17.811045 -1.442491 1.747427 0.011700 0.002443 463210.000000 1 0 0
-0.316564 -14.532803 -8.062940 16.622682 1.549017 2.077224 -0.002699 0.003260 -93140.500000 1 0 0
-0.574564 -18.313003 -7.078840 19.641949 1.539432 1.939487 0.004372 -0.000884 207266.000000 1 0 0
-1.769164 -9.941703 -10.523040 14.584298 1.394686 2.376809 0.000146 0.001490 254488.000000 1 0 0
-5.130164 -17.353103 2.097460 18.216698 1.283350 1.455401 0.004880 -0.003496 -385082.000000 1 0 0
0.157136 -12.809403 -2.691040 13.089965 -1.558530 1.777853 0.003386 -0.001785 -1944930.000000 1 0 0
2.583436 -14.911703 3.074560 15.442990 -1.399250 1.370366 0.016508 -0.005583 -799977.000000 1 0 0
-9.326564 -13.039003 6.861660 17.437969 0.949887 1.166372 -0.001722 -0.002141 -369443.000000 1 0 0
-1.053964 -17.841903 -4.508640 18.432910 1.511792 1.817901 0.006602 -0.003928 137892.000000 1 0 0
-9.828964 -17.621403 -1.961840 20.272424 1.061995 1.667722 0.026355 -0.014601 -2064.170000 1 0 0
1.279436 -16.278503 1.488060 16.396369 -1.492361 1.479916 0.009568 -0.007519 690418.000000 1 0 0
-0.485164 -18.078503 4.408260 18.614521 1.543966 1.331707 0.017268 -0.011359 -888825.000000 1 0 0
-17.298664 -9.343203 -0.048040 19.660659 0.495219 1.573240 -0.002142 0.001191 686134.000000 1 0 0
-14.857164 -7.365603 -10.731840 19.752463 0.460251 2.145179 0.030386 -0.002937 380052.000000 1 0 0
2.667036 -12.822103 -8.866240 15.815486 -1.365718 2.165912 -0.009211 0.005605 709693.000000 1 0 0
-11.620864 -14.664803 1.724460 18.790282 0.900687 1.478893 0.004373 0.001789 236445.000000 1 0 0
-2.420264 -15.667103 10.595860 19.067985 1.417527 0.981605 0.013811 -0.003567 42762.800000 1 0 0
-7.073464 -15.869103 1.398660 17.430392 1.151492 1.490467 0.010395 -0.001780 -1425510.000000 1 0 0
-12.582564 -15.136603 -6.008140 20.579976 0.877279 1.867052 0.011892 -0.002921 497633.000000 1 0 0
0.910636 -13.867003 -4.980440 14.762378 -1.505221 1.914922 0.003606 0.002605 736101.000000 1 0 0
5.724136 -16.518803 -7.424340 18.993614 -1.237223 1.972390 0.007756 -0.000974 154779.000000 1 0 0
-6.489964 -12.843303 5.942260 15.568575 1.102903 1.179180 -0.004944 0.000473 -198717.000000 1 0 0
-2.691264 -13.570603 0.622960 13.848907 1.375021 1.525799 0.000370 -0.003071 2286680.000000 1 0 0
-4.233964 -15.602803 0.198960 16.168286 1.305818 1.558490 -0.002444 -0.004324 14372.000000 1 0 0
-17.397464 -7.420503 -1.888340 19.007931 0.403164 1.670305 -0.016931 0.000439 -81757.900000 1 0 0
1.162336 -12.844103 -11.881840 17.535681 -1.480546 2.315264 -0.006563 0.009643 1020160.000000 1 0 0
1.263536 -17.160003 -5.682640 18.120557 -1.497296 1.889780 0.010567 0.002106 -291484.000000 1 0 0
-12.813864 -6.501603 -9.033840 16.972808 0.469541 2.132057 0.011378 -0.002041 1276690.000000 1 0 0
-11.603264 -13.438203 -8.823340 19.826052 0.858543 2.032013 0.025733 -0.018558 440225.000000 1 0 0
-4.285964 -9.673103 3.528960 11.153115 1.153711 1.248853 0.001133 0.000626 -3809350.000000 1 0 0
-7.211464 -14.264603 9.653060 18.672592 1.102719 1.027496 -0.006320 -0.007706 -638994.000000 1 0 0
-5.305064 -15.919403 -8.079840 18.624041 1.249125 2.019546 -0.001805 -0.010692 852216.000000 1 0 0
-0.370264 -13.535903 2.188460 13.716673 1.543449 1.410564 0.001283 -0.002731 636526.000000 1 0 0
-11.048964 -13.493103 -4.656640 18.050699 0.884661 1.831723 0.018625 -0.007546 -731064.000000 1 0 0
-9.748264 -10.464903 6.611360 15.756044 0.820837 1.137783 0.008358 -0.004084 -1034910.000000 1 0 0
-15.489764 -7.838103 -4.762040 18.001269 0.468451 1.838522 0.011151 -0.001646 166207.000000 1 0 0
-14.607664 -7.341703 5.479060 17.242522 0.465719 1.247426 0.019325 -0.001798 1083240.000000 1 0 0
-1.566664 -19.393403 0.054160 19.456655 1.490188 1.568013 0.022934 -0.006620 -424358.000000 1 0 0
-15.375664 -12.243403 -1.329040 19.699703 0.672471 1.638313 0.000147 0.008451 936481.000000 1 0 0
-4.466564 -12.148103 -6.687940 14.568978 1.218462 2.047726 -0.001488 -0.001254 -620821.000000 1 0 0
-7.411464 -18.484703 2.028760 20.018239 1.189470 1.469276 0.013818 -0.000090 17249.800000 1 0 0
-2.628664 -11.690703 -8.636340 14.770537 1.349624 2.195307 -0.002107 0.002183 890648.000000 1 0 0
-1.321864 -20.317403 -5.019040 20.969858 1.505827 1.812488 0.005526 -0.002477 32837.400000 1 0 0
-5.351764 -8.938103 -13.779640 17.274534 1.031290 2.494243 -0.002209 -0.000372 506049.000000 1 0 0
-8.257164 -19.405703 -0.862740 21.107022 1.168501 1.611682 0.019418 0.009118 54680.200000 1 0 0
-17.188164 -7.349403 5.585860 19.510216 0.404058 1.280429 0.014856 -0.007339 -381207.000000 1 0 0
-3.648164 -14.650803 -4.304740 15.699869 1.326752 1.848543 -0.000416 -0.004865 -2712220.000000 1 0 0
-3.044064 -15.023503 -11.048040 18.895268 1.370883 2.195305 0.002043 0.001198 -443055.000000 1 0 0
-0.138564 -16.557503 6.413460 17.756761 1.562428 1.201259 0.027271 -0.017293 -1243270.000000 1 0 0
-11.046564 -11.581203 3.892160 16.471179 0.809021 1.332239 0.007335 0.003227 -450938.000000 1 0 0
-0.257164 -14.707403 -0.084740 14.709895 1.553313 1.576557 0.002775 -0.001333 746336.000000 1 0 0
-7.218664 -9.602803 -2.493540 12.269502 0.926192 1.775453 0.004362 -0.003358 -309725.000000 1 0 0
-11.091964 -14.488803 -0.839440 18.266410 0.917415 1.616768 0.004870 -0.003527 243914.000000 1 0 0
0.321636 -14.710203 -10.584240 18.125111 -1.548935 2.194388 -0.004628 0.005961 555453.000000 1 0 0
-1.482964 -14.053303 -3.938940 14.670029 1.465661 1.842634 0.001526 -0.002956 -2983250.000000 1 0 0
-11.210464 -8.018103 -7.531840 15.706466 0.620877 2.070924 0.007908 -0.006185 655594.000000 1 0 0
-0.218664 -17.326403 -0.174140 17.328657 1.558177 1.580846 0.009188 -0.004912 -595546.000000 1 0 0
-12.908564 -9.567503 4.636360 16.723157 0.637829 1.289874 0.015609 0.001193 -497870.000000 1 0 0
3.966536 -16.809703 1.750360 17.359818 -1.339068 1.469796 0.016561 -0.006402 2135180.000000 1 0 0
-3.800764 -18.016403 -8.142040 20.132794 1.362884 1.987137 0.006522 -0.007231 -41156.600000 1 0 0
-13.342864 -11.462403 2.739460 17.802341 0.709734 1.416300 -0.001499 0.006106 380186.000000 1 0 0
-8.445864 -12.071203 4.132560 15.301131 0.960292 1.297318 0.005006 0.001472 1151460.000000 1 0 0
-8.320564 -9.602503 -5.899440 14.008684 0.856801 2.005484 0.008122 -0.005222 -382614.000000 1 0 0
3.842736 -17.135103 -5.186440 18.310585 -1.350185 1.857976 -0.003500 0.000747 1572520.000000 1 0 0
-2.722064 -13.150703 11.378560 17.601768 1.366689 0.867882 0.004969 -0.004739 371335.000000 1 0 0
0.027736 -16.865303 -9.496940 19.355388 -1.569152 2.083645 0.001538 0.008041 -61574.100000 1 0 0
-7.031864 -10.678103 -14.400040 19.256950 0.988447 2.415514 0.007197 -0.003991 -1650500.000000 1 0 0
-4.608764 -18.741403 -1.319140 19.344793 1.329667 1.639040 0.016648 -0.015986 63637.600000 1 0 0
-2.514564 -17.283503 1.246260 17.509873 1.426321 1.499561 0.007088 -0.007103 1053810.000000 1 0 0
4.098236 -14.581803 -7.400940 16.858185 -1.296813 2.025295 -0.003646 0.005206 -496874.000000 1 0 0
-1.010064 -15.931603 -6.138540 17.103153 1.507481 1.937899 -0.002368 0.001974 -147457.000000 1 0 0
-9.605664 -15.199103 8.300360 19.803472 1.007187 1.138302 0.000233 -0.003543 -477625.000000 1 0 0
-7.315464 -12.161103 -1.862740 14.313568 1.029241 1.701305 0.001579 -0.004372 383052.000000 1 0 0
-7.268964 -15.176403 -9.448740 19.298697 1.124118 2.082433 0.007084 -0.011963 133906.000000 1 0 0
-5.232364 -13.367403 -0.572440 14.366377 1.197702 1.610653 0.000728 -0.004842 2712170.000000 1 0 0
-6.561364 -13.788103 -7.282540 16.917407 1.126637 2.015817 0.002056 -0.009955 317759.000000 1 0 0
5.703836 -15.427603 0.203760 16.449504 -1.216666 1.558409 0.012327 0.005355 119955.000000 1 0 0
-14.648264 -12.944503 1.064860 19.577173 0.723730 1.516377 0.009666 0.006099 955828.000000 1 0 0
0.753636 -15.222503 11.147160 18.882578 -1.521329 0.939315 0.032524 -0.012790 -37747.100000 1 0 0
-9.268564 -10.800803 1.957960 14.366532 0.861597 1.434085 0.001713 0.002437 -219235.000000 1 0 0
-9.391064 -8.914803 -3.534940 13.422429 0.759387 1.837301 0.008150 -0.004893 -746625.000000 1 0 0
-12.155164 -7.209203 -12.167040 18.648257 0.535329 2.281608 0.010905 -0.001293 -804568.000000 1 0 0
-13.227764 -8.459403 -0.670240 15.715739 0.568972 1.613457 -0.003585 -0.000505 76075.600000 1 0 0
-11.147564 -9.701303 0.524460 14.787107 0.716140 1.535321 -0.003525 0.002424 1010400.000000 1 0 0
-15.904664 -12.162503 3.164760 20.270681 0.652851 1.414030 0.013060 0.003859 230440.000000 1 0 0
-10.584464 -12.489303 -2.282340 16.529448 0.867766 1.709316 0.013279 -0.004349 688654.000000 1 0 0
-3.406164 -8.912603 -12.063540 15.380684 1.205751 2.472413 -0.004015 0.002702 -2855140.000000 1 0 0
-0.400264 -15.583903 3.864760 16.060965 1.545117 1.327781 0.014686 -0.007830 -888948.000000 1 0 0
-15.664064 -7.771103 1.207460 17.527433 0.460531 1.501852 -0.005624 -0.002162 313004.000000 1 0 0
-6.242364 -13.332603 -13.293140 19.835145 1.132908 2.305249 0.011686 -0.008311 -1112280.000000 1 0 0
-15.195064 -10.422803 1.210560 18.465921 0.601223 1.505193 -0.001170 -0.000854 1575120.000000 1 0 0
-9.894964 -8.465103 -12.499640 18.050188 0.707676 2.335736 0.008658 0.001516 712539.000000 1 0 0
-13.104064 -11.575303 -6.241340 18.564979 0.723532 1.913664 0.003925 -0.007782 -458221.000000 1 0 0
-12.231664 -11.320203 -3.762540 17.085588 0.746717 1.792833 0.001933 -0.002073 -2015810.000000 1 0 0
-11.272764 -10.811503 -8.845240 17.949988 0.764515 2.086068 0.002007 -0.015791 -88342.500000 1 0 0
-13.176364 -8.320903 -5.912440 16.667661 0.563261 1.933416 0.006657 -0.005308 -1434560.000000 1 0 0
-13.379664 -8.158403 -3.244340 16.003146 0.547566 1.774943 0.004060 -0.004968 425846.000000 1 0 0
-4.320164 -16.981903 -3.187740 17.810405 1.321683 1.750748 0.002301 -0.010708 731382.000000 1 0 0
-15.322464 -9.049203 -1.744940 17.880458 0.533467 1.668541 0.003337 0.002307 -1772160.000000 1 0 0
-9.291064 -15.434003 3.581260 18.367301 1.028917 1.374559 0.002540 -0.003839 -757119.000000 1 0 0
4.698036 -16.887603 7.996960 19.266916 -1.299463 1.142786 0.050093 -0.036327 272395.000000 1 0 0
-8.259164 -15.287103 5.946160 18.364807 1.075454 1.241074 -0.007362 0.001840 -167331.000000 1 0 0
0.857436 -16.104503 8.665160 18.307791 -1.517605 1.077758 0.029915 -0.011159 410658.000000 1 0 0
-10.821564 -7.819703 -10.138740 16.764488 0.625736 2.220279 0.008269 -0.002003 1006180.000000 1 0 0
-4.933264 -15.986503 5.797260 17.706315 1.271478 1.237233 0.000544 -0.002849 -1462160.000000 1 0 0
-1.438864 -13.312403 -12.070440 18.027365 1.463130 2.304415 -0.003781 0.006234 -1307530.000000 1 0 0
-6.564664 -14.480003 -2.522040 16.097390 1.145151 1.728118 0.005414 -0.005303 602239.000000 1 0 0
-17.756764 -6.898803 -7.091540 20.326979 0.370568 1.927165 0.022538 -0.005270 85295.200000 1 0 0
-17.132564 -4.250103 -10.252040 20.413046 0.243163 2.096972 0.016307 -0.002789 659486.000000 1 0 0
-15.201964 -5.445203 -8.867940 18.422549 0.343953 2.073006 0.007810 -0.009436 23142.700000 1 0 0
-16.127964 -5.345303 -5.741940 17.934697 0.320037 1.896693 0.014852 -0.002747 358126.000000 1 0 0
-15.039764 -4.316803 -12.451240 19.996566 0.279512 2.242945 0.013384 0.002356 -419339.000000 1 0 0
-18.758664 -5.016303 -5.594040 20.207525 0.261299 1.851289 0.012909 -0.001158 -469836.000000 1 0 0
-17.411164 -4.449303 -7.741040 19.567029 0.250189 1.977535 0.008597 -0.002272 230498.000000 1 0 0
12.307936 -7.917303 8.751160 17.051445 -0.571628 1.031863 0.009745 -0.006686 454827.000000 1 0 0
16.029436 -3.622003 1.755160 16.527017 -0.222227 1.464396 0.015097 -0.005762 715471.000000 1 0 0
12.006736 -2.099503 12.586760 17.521306 -0.173110 0.769342 0.021362 -0.004000 -102991.000000 1 0 0
9.573036 -10.040303 5.160760 14.801491 -0.809218 1.214650 0.014623 -0.002094 290309.000000 1 0 0
16.861136 -1.976003 7.118960 18.408750 -0.116661 1.173728 0.034932 -0.010467 -521488.000000 1 0 0
5.241836 -12.920903 9.182560 16.695687 -1.185397 0.988437 0.015476 0.001461 98860.500000 1 0 0
15.114436 -9.122503 -2.244640 17.796197 -0.543035 1.697263 0.014702 -0.000273 493196.000000 1 0 0
11.099936 -8.531103 6.442260 15.410743 -0.655282 1.139513 0.015245 -0.005062 -1942670.000000 1 0 0
19.940136 -3.112203 3.420160 20.469302 -0.154828 1.402922 0.036827 -0.009317 833426.000000 1 0 0
13.526736 -8.634203 6.723860 17.399205 -0.568111 1.174021 0.013456 -0.007059 -2102410.000000 1 0 0
8.258836 -11.021303 8.859460 16.375821 -0.927710 0.999160 0.009902 -0.001355 -1177210.000000 1 0 0
16.834336 0.080597 -0.810540 16.854030 0.004788 1.618907 0.017394 0.000789 -602630.000000 1 0 0
12.513836 -12.384603 2.201360 17.743180 -0.780208 1.446408 0.016591 -0.000599 -2034220.000000 1 0 0
10.425736 -11.603003 3.539160 15.995352 -0.838790 1.347688 0.012079 0.000417 -712766.000000 1 0 0
16.253136 3.039797 2.420560 16.711191 0.184892 1.425438 0.009771 0.001153 -350956.000000 1 0 0
18.293336 -3.369203 0.373960 18.604771 -0.182135 1.550695 0.022157 -0.007234 501252.000000 1 0 0
13.677536 -11.881303 -0.275040 18.119492 -0.715235 1.585976 0.030552 0.003855 -56258.400000 1 0 0
16.994936 -7.699703 -0.981140 18.683573 -0.425395 1.623334 0.029119 -0.001694 590335.000000 1 0 0
10.101936 -5.682803 9.783660 15.167840 -0.512424 0.869738 0.016743 -0.004838 -36430.800000 1 0 0
11.302836 -13.321003 6.192360 18.535062 -0.867175 1.230158 0.009605 0.002639 -1635060.000000 1 0 0
13.045036 -1.866903 10.207260 16.668727 -0.142147 0.911754 0.025210 -0.006039 -872099.000000 1 0 0
15.647636 -2.085203 -1.398440 15.847782 -0.132479 1.659153 0.016355 -0.003204 348356.000000 1 0 0
10.421136 -12.413403 8.954960 18.517126 -0.872426 1.066029 0.011964 -0.007920 61649.500000 1 0 0
14.508936 1.121097 3.275660 14.916301 0.077116 1.349389 0.009898 -0.000750 879363.000000 1 0 0
15.021536 -5.900203 5.183760 16.950820 -0.374269 1.260005 0.023202 -0.008326 -384053.000000 1 0 0
14.342536 -3.393303 -3.075040 15.055853 -0.232318 1.776486 0.018080 -0.003514 1200690.000000 1 0 0
13.975936 0.512997 9.546460 16.932952 0.036689 0.971841 0.026255 -0.005432 -470848.000000 1 0 0
15.358836 -3.508503 4.393760 16.355689 -0.224582 1.298817 0.017561 -0.006140 -950280.000000 1 0 0
18.480936 4.713997 -4.269240 19.544645 0.249748 1.791007 0.002027 -0.003314 451583.000000 1 0 0
18.170036 -5.936803 -5.242140 19.821096 -0.315801 1.838453 0.043658 -0.011812 510596.000000 1 0 0
17.303036 -0.059703 5.780460 18.243145 -0.003450 1.248383 0.035865 -0.006629 1008220.000000 1 0 0
17.019136 -6.752303 3.865760 18.713329 -0.377700 1.362720 0.031716 -0.008270 213052.000000 1 0 0
9.649636 -6.694303 14.204760 18.431071 -0.606510 0.690863 0.011278 -0.001021 -1348370.000000 1 0 0
8.600036 -12.304703 5.080160 15.848481 -0.960794 1.244491 0.010895 -0.003540 -1121010.000000 1 0 0
16.888136 -10.219603 -0.701240 19.751991 -0.544187 1.606306 0.026284 0.000529 -11380.400000 1 0 0
15.010036 -8.854303 0.385460 17.431249 -0.532954 1.548681 0.031609 -0.005618 327374.000000 1 0 0
10.075036 -13.000003 1.427460 16.508908 -0.911485 1.484222 0.019511 -0.001273 332667.000000 1 0 0
17.053136 -8.280103 8.844160 20.918621 -0.452019 1.134276 0.044218 -0.002183 496872.000000 1 0 0
19.172436 -0.048003 -2.129940 19.290444 -0.002504 1.681436 0.025521 -0.000981 432786.000000 1 0 0
13.318536 -1.258803 7.707360 15.439280 -0.094235 1.048116 0.015844 -0.006381 -799106.000000 1 0 0
12.773436 -9.815503 -3.186140 16.421213 -0.655193 1.766061 0.017617 0.000019 -663525.000000 1 0 0
8.822636 -15.258203 1.433160 17.683484 -1.046544 1.489662 0.018186 0.004851 499925.000000 1 0 0
11.474836 -8.447803 11.134360 18.083451 -0.634612 0.907496 0.013769 -0.005340 105756.000000 1 0 0
13.925836 -4.074203 -0.606040 14.522235 -0.284621 1.612540 0.013170 -0.003918 -858028.000000 1 0 0
7.302036 -13.241503 10.840260 18.605600 -1.066840 0.948830 0.020919 0.003241 63163.300000 1 0 0
15.485836 -6.839503 1.800460 17.024440 -0.415898 1.464841 0.024375 -0.004085 734220.000000 1 0 0
15.828236 -6.268003 -2.671940 17.232532 -0.377055 1.726476 0.021929 -0.005333 174496.000000 1 0 0
11.124536 -8.623803 3.798360 14.579191 -0.659439 1.307222 0.019183 -0.004012 765961.000000 1 0 0
10.668636 -14.556003 -0.535440 18.055018 -0.938305 1.600457 0.029304 0.002351 589646.000000 1 0 0
13.241036 -12.999003 4.514960 19.096700 -0.776175 1.332110 0.005601 0.002765 249955.000000 1 0 0
12.812536 -11.177003 6.406560 18.169493 -0.717327 1.210448 0.008773 -0.002979 -1046730.000000 1 0 0
10.855736 -10.520503 1.268060 15.170232 -0.769717 1.487110 0.010640 -0.002702 316401.000000 1 0 0
13.896736 -7.605403 11.870160 19.795508 -0.500752 0.927746 0.021278 -0.014088 482250.000000 1 0 0
15.293836 -1.889003 -5.036640 16.212263 -0.122892 1.886693 0.027046 -0.004164 -834501.000000 1 0 0
12.846836 -11.412503 -7.242840 18.647926 -0.726342 1.969690 0.025835 0.004395 -403890.000000 1 0 0
17.759936 -5.497403 1.809960 18.679205 -0.300186 1.473747 0.033163 -0.003733 442745.000000 1 0 0
10.612136 -9.886203 9.089360 17.116393 -0.749999 1.010978 0.007256 -0.001605 -903292.000000 1 0 0
16.386436 1.567497 9.769260 19.141859 0.095368 1.035192 0.047456 -0.012270 425579.000000 1 0 0
17.959936 3.566397 0.491060 18.317195 0.196025 1.543984 -0.002480 0.004186 428103.000000 1 0 0
13.217936 -4.121503 5.728660 14.983930 -0.302257 1.178490 0.017567 -0.011102 -768786.000000 1 0 0
12.085636 -6.248603 6.691860 15.162078 -0.477176 1.113688 0.019227 -0.006642 131689.000000 1 0 0
16.587836 -10.421303 3.566860 19.911864 -0.560933 1.390692 0.014960 0.005684 -240428.000000 1 0 0
16.288636 -8.212203 -5.641940 19.094277 -0.466976 1.870752 0.022334 -0.004915 627569.000000 1 0 0
13.992936 -0.553103 5.291460 14.970228 -0.039507 1.209523 0.011267 -0.002626 805721.000000 1 0 0
18.363336 -4.407503 5.089060 19.558546 -0.235561 1.307571 0.044611 -0.004319 293189.000000 1 0 0
13.650836 -13.615703 7.028660 20.521568 -0.784110 1.221219 0.006246 0.001057 209350.000000 1 0 0
15.001036 -13.776903 -1.322740 20.410384 -0.742887 1.635649 0.025559 0.005410 -128356.000000 1 0 0
17.818536 -6.003303 7.788860 20.352056 -0.324969 1.178072 0.050359 -0.007318 -1059350.000000 1 0 0
14.375936 3.223797 9.233760 17.387430 0.220600 1.010946 0.027266 -0.007782 -938840.000000 1 0 0
18.827936 3.690097 2.899360 19.403976 0.193537 1.420814 0.034132 -0.002443 312116.000000 1 0 0
14.684136 -10.579703 8.151060 19.849275 -0.624343 1.147632 0.004034 -0.003495 -1316350.000000 1 0 0
14.893536 -4.903503 10.283160 18.751137 -0.318059 0.990344 0.036370 -0.015362 406477.000000 1 0 0
17.873036 -8.165703 1.879260 19.739699 -0.428555 1.475450 0.043569 -0.005846 217808.000000 1 0 0
18.411336 -5.803803 -2.011440 19.408949 -0.305370 1.674617 0.021150 -0.009048 -807180.000000 1 0 0
14.230036 -13.027803 -5.646940 20.102375 -0.741321 1.855538 0.028753 0.004407 -883702.000000 1 0 0
15.359536 -1.677603 9.209960 17.987581 -0.108791 1.033264 0.043401 -0.013290 -1307020.000000 1 0 0
12.974536 -10.212003 10.106760 19.358982 -0.666813 1.021519 0.003051 -0.009720 -1997760.000000 1 0 0
16.485436 2.060097 4.770460 17.284990 0.124320 1.291178 0.023815 -0.004016 -1437500.000000 1 0 0
15.084236 2.358197 -0.079640 15.267665 0.155080 1.576013 0.008446 0.004709 -1575020.000000 1 0 0
15.027836 -9.896703 -7.135340 19.357005 -0.582368 1.948318 0.025290 -0.001433 834212.000000 1 0 0
16.026536 -0.047403 -3.303040 16.363440 -0.002958 1.774048 0.013476 0.001409 129041.000000 1 0 0
12.069036 2.412297 13.523160 18.285422 0.197275 0.738380 0.033562 -0.000320 -178915.000000 1 0 0
17.532636 -2.968203 9.487660 20.154881 -0.167706 1.080670 0.034453 -0.012904 557241.000000 1 0 0
7.851136 -18.245603 4.406160 20.345923 -1.164443 1.352504 0.038127 -0.008999 -449836.000000 1 0 0
6.829636 -11.190203 6.574060 14.665702 -1.022821 1.105977 0.010405 -0.003378 330790.000000 1 0 0
18.070836 2.234997 -1.678840 18.285755 0.123055 1.662737 0.018858 0.005493 327755.000000 1 0 0
17.472536 -2.438503 3.595260 18.004491 -0.138666 1.369758 0.011094 -0.005537 -1838850.000000 1 0 0
12.537436 -13.451303 -2.008140 18.497499 -0.820548 1.679573 0.024471 0.008248 -540883.000000 1 0 0
15.037836 -8.388103 4.284660 17.744156 -0.508812 1.326917 0.019036 -0.001727 -548038.000000 1 0 0
11.676336 -3.307003 14.863260 19.188267 -0.275995 0.684712 0.015476 -0.003427 444296.000000 1 0 0
11.963736 -13.774303 -6.511140 19.371560 -0.855628 1.913589 0.023984 0.002048 153835.000000 1 0 0
10.620936 -12.044103 -1.297240 16.110478 -0.848107 1.651405 0.023626 -0.002044 -347453.000000 1 0 0
13.194436 -8.108903 2.144760 15.634815 -0.551064 1.433184 0.023115 -0.002776 522160.000000 1 0 0
8.739936 -7.838003 10.026560 15.438675 -0.731046 0.863943 0.011864 -0.000699 51445.500000 1 0 0
15.718136 -3.976103 7.842760 18.010499 -0.247765 1.120253 0.042766 -0.016937 -763853.000000 1 0 0
10.220636 -17.178503 5.110860 20.632092 -1.034086 1.320476 0.020499 -0.015755 805422.000000 1 0 0
15.281036 -6.461803 8.225060 18.518006 -0.400060 1.110554 0.034151 -0.005055 -411552.000000 1 0 0
16.491436 -5.117503 -0.447540 17.273001 -0.300891 1.596709 0.015952 -0.006378 -690412.000000 1 0 0
14.035136 -10.678203 3.397660 17.959764 -0.650390 1.380468 0.023208 -0.002813 -19893.700000 1 0 0
14.988636 -10.093503 -4.608740 18.648820 -0.592657 1.820517 0.030406 -0.002525 542147.000000 1 0 0
13.615236 -6.644203 -0.027240 15.149944 -0.454000 1.572594 0.016648 -0.001931 -70839.000000 1 0 0
17.734236 -1.055803 -4.947840 18.441772 -0.059465 1.842419 0.024376 -0.003836 -1585140.000000 1 0 0
14.358436 0.220897 -1.540640 14.442543 0.015383 1.677673 0.011999 0.000031 -2163190.000000 1 0 0
4.911436 -12.927303 11.827960 18.197198 -1.207713 0.863228 0.012238 0.003084 -635449.000000 1 0 0
11.873936 -7.749103 13.513560 19.587120 -0.578211 0.809417 0.016829 -0.007851 -288756.000000 1 0 0
11.955536 -5.853103 11.642760 17.684669 -0.455271 0.852167 0.014879 -0.005557 631486.000000 1 0 0
13.385636 -4.659303 8.287260 16.418375 -0.334965 1.041698 0.028143 -0.010300 -3203610.000000 1 0 0
15.266236 -1.286303 3.057460 15.622439 -0.084059 1.373815 0.012046 -0.004150 630461.000000 1 0 0
15.129736 -10.524103 5.758060 19.308571 -0.607761 1.267977 0.014349 0.001621 -339351.000000 1 0 0
13.665836 -8.075603 -5.783940 16.894507 -0.533726 1.920220 0.024244 -0.001567 -470052.000000 1 0 0
9.593636 -2.153103 13.540860 16.734055 -0.220772 0.628041 0.013143 -0.005631 -620475.000000 1 0 0
9.680736 -9.200203 13.666160 19.108226 -0.759953 0.773889 0.011273 -0.002400 -155981.000000 1 0 0
20.187636 6.279197 -3.142940 21.373980 0.301556 1.718377 0.013702 0.001186 -607479.000000 1 0 0
11.229136 -3.593903 10.588560 15.846995 -0.309750 0.839044 0.017636 -0.004409 963951.000000 1 0 0
10.223336 -13.930603 -3.054740 17.547356 -0.937695 1.745773 0.020275 0.006014 201640.000000 1 0 0
14.854736 -12.959703 2.428560 19.862401 -0.717372 1.448220 0.015164 0.008598 -484457.000000 1 0 0
11.363236 -0.619403 14.642860 18.545084 -0.054455 0.660669 0.023813 0.001124 368334.000000 1 0 0
18.972136 -1.992303 5.614160 19.885422 -0.104629 1.284579 0.042148 -0.007542 443134.000000 1 0 0
18.999236 -0.440003 7.758560 20.527051 -0.023155 1.183196 0.060078 -0.011856 450361.000000 1 0 0
19.077236 0.778797 0.230860 19.094521 0.040801 1.558706 0.026614 -0.001968 -102647.000000 1 0 0
18.422436 0.711397 3.565160 18.777715 0.038597 1.379776 0.022828 -0.002813 220301.000000 1 0 0
16.658936 -4.036403 -4.278840 17.666951 -0.237715 1.815423 0.025681 -0.008211 -512977.000000 1 0 0
10.784336 -8.372703 15.816460 20.894125 -0.660169 0.712116 0.017439 -0.006832 333546.000000 1 0 0
16.627736 -7.664503 6.289160 19.359229 -0.431920 1.239926 0.030125 -0.002395 746476.000000 1 0 0
18.851336 2.122797 5.785560 19.833099 0.112135 1.274780 0.044345 -0.007607 345890.000000 1 0 0
15.312336 1.501297 7.560060 17.142813 0.097733 1.114079 0.027393 -0.006525 139823.000000 1 0 0
8.639136 -15.742103 3.846060 18.364113 -1.068881 1.359801 0.012129 -0.008916 88667.400000 1 0 0
11.366936 -15.202103 1.878060 19.074545 -0.928755 1.472178 0.021362 -0.000172 444811.000000 1 0 0
7.912836 -16.233303 6.082060 19.055827 -1.117243 1.245942 0.017266 -0.007723 -272793.000000 1 0 0
14.512536 -11.685703 -2.651340 18.820174 -0.677912 1.712144 0.018259 0.002515 749090.000000 1 0 0
13.658936 -4.960003 3.189060 14.877441 -0.348326 1.354764 0.014168 -0.005089 -1701290.000000 1 0 0
-1.104364 10.219597 -5.472540 11.645106 -1.463151 2.060023 -0.004747 0.001808 -2910400.000000 1 0 0
8.272636 -1.650203 -7.901940 11.558560 -0.196893 2.323540 -0.002015 0.001785 -2181300.000000 1 0 0
2.774736 -10.094203 7.661060 12.972430 -1.302538 0.939038 0.004979 -0.003605 674224.000000 1 0 0
-6.311264 1.334997 8.260960 10.481304 -0.208453 0.662980 0.001914 -0.001217 -224124.000000 1 0 0
7.418236 -6.310503 -7.377740 12.218171 -0.704885 2.219098 -0.003948 0.001245 56044.400000 1 0 0
-11.287864 -4.487303 -4.109840 12.823515 0.378378 1.897046 0.005221 -0.006685 432288.000000 1 0 0
2.097736 -3.096903 2.891260 4.727651 -0.975423 0.912761 0.002080 0.000855 2048060.000000 1 0 0
-3.600864 -4.235203 8.942260 10.529349 0.866173 0.556195 0.000475 -0.000713 -1734720.000000 1 0 0
-4.839464 -1.049403 -2.388540 5.497889 0.213537 2.020220 0.002185 -0.005747 -232656.000000 1 0 0
4.934036 -5.194403 -3.668840 8.049032 -0.811099 2.044080 -0.000172 -0.000808 283224.000000 1 0 0
2.713236 14.198697 -8.802240 16.924659 1.381982 2.117745 0.009016 -0.008723 -502006.000000 1 0 0
5.417036 -5.545003 13.706760 15.746956 -0.797071 0.514703 0.003711 -0.002349 -886075.000000 1 0 0
-4.684664 -0.914003 9.855960 10.950865 0.192685 0.450989 0.006582 -0.001893 -3462480.000000 1 0 0
-0.932764 11.909597 -2.847540 12.280759 -1.492635 1.804796 -0.005968 -0.000396 645704.000000 1 0 0
3.256436 9.399497 -10.497340 14.461987 1.237290 2.383076 0.005192 -0.000836 -186530.000000 1 0 0
-10.682464 2.728997 1.147360 11.085076 -0.250116 1.467106 0.002610 -0.001514 22412.300000 1 0 0
5.677036 -9.029503 -0.808140 10.696436 -1.009526 1.646421 -0.000703 -0.001866 495879.000000 1 0 0
-6.959264 5.415597 9.335260 12.841618 -0.661297 0.756921 0.002012 0.002687 7090.230000 1 0 0
-5.411064 -1.783503 5.142160 7.674784 0.318389 0.836578 0.001117 -0.000980 738661.000000 1 0 0
6.647036 -3.761803 -7.327040 10.583938 -0.514996 2.335439 -0.001825 -0.000418 487555.000000 1 0 0
6.214136 4.720497 11.017960 13.501631 0.649641 0.616259 0.001733 -0.000160 818257.000000 1 0 0
3.691436 -9.900103 3.314960 11.073739 -1.213896 1.266782 0.000044 -0.001451 1218270.000000 1 0 0
-6.582364 6.643097 -5.846940 11.029278 -0.789990 2.129549 -0.003355 -0.000615 -470291.000000 1 0 0
-11.034064 8.461597 5.213560 14.850267 -0.654205 1.212077 -0.002998 -0.002251 452218.000000 1 0 0
-9.194764 -5.477403 5.130660 11.868838 0.537258 1.123777 -0.001588 -0.000979 -931347.000000 1 0 0
3.230736 9.729497 -7.922640 12.956427 1.250196 2.228730 0.003225 -0.002952 894740.000000 1 0 0
-8.200364 -8.379903 6.078160 13.206543 0.796226 1.092532 -0.001835 -0.003551 -2369390.000000 1 0 0
-7.766664 -5.589603 -7.528240 12.175349 0.623820 2.237397 0.004384 -0.003438 -1192290.000000 1 0 0
9.188136 -1.575903 7.032960 11.677664 -0.169862 0.924470 0.004049 -0.005985 3523550.000000 1 0 0
-4.047264 -0.424303 -4.821040 6.308946 0.104455 2.440533 0.006626 -0.008603 -1030820.000000 1 0 0
9.046936 1.217097 -4.470240 10.164222 0.133729 2.026174 0.000729 0.001193 -3400200.000000 1 0 0
-2.041364 -10.743703 10.612760 15.238930 1.383029 0.800394 -0.002744 -0.004758 204266.000000 1 0 0
-12.868464 0.251097 -2.710140 13.153147 -0.019510 1.778328 0.003930 -0.005634 -556989.000000 1 0 0
-9.807464 -5.251503 -6.009540 12.644335 0.491611 2.066073 0.007087 -0.004618 -2485100.000000 1 0 0
-5.520664 8.395197 -0.123140 10.048494 -0.989098 1.583051 -0.006646 0.001996 363967.000000 1 0 0
6.178736 9.672097 0.440060 11.485639 1.002320 1.532473 0.012661 -0.006570 679616.000000 1 0 0
-0.638864 -12.149503 -0.021740 12.166307 1.518261 1.572583 0.004916 -0.000139 -444866.000000 1 0 0
6.164836 4.705297 2.400760 8.118416 0.651926 1.270589 0.001911 -0.001990 354587.000000 1 0 0
3.547036 -7.558203 -8.240640 11.730986 -1.132012 2.349655 -0.001635 0.000308 1130600.000000 1 0 0
-6.568664 -9.791703 4.602160 12.657198 0.979910 1.198667 -0.003699 0.002244 -2125670.000000 1 0 0
-0.025164 6.348797 -9.214240 11.189731 -1.566833 2.538270 0.003356 -0.000083 -2142440.000000 1 0 0
-17.395264 -2.717503 4.231560 18.107627 0.154968 1.334926 0.011788 -0.006293 240281.000000 1 0 0
-8.376164 0.898797 -9.116340 12.412720 -0.106895 2.395631 -0.003941 -0.002165 381077.000000 1 0 0
-9.987264 -5.832403 -11.750940 16.487782 0.528560 2.364145 0.002935 0.002576 -543060.000000 1 0 0
2.209836 9.385097 6.533160 11.646700 1.339546 0.975269 -0.004456 0.002900 -304680.000000 1 0 0
-11.398664 1.704097 -1.175540 11.585137 -0.148401 1.672441 0.004306 -0.004196 -2165250.000000 1 0 0
-6.190864 -5.446303 -3.028040 8.783965 0.721504 1.922741 0.006149 -0.004435 547542.000000 1 0 0
-6.944164 -8.271103 1.215160 10.867804 0.872389 1.458749 0.002032 0.000362 -131540.000000 1 0 0
0.008336 10.966197 -7.839540 13.480205 1.570036 2.191441 0.004243 0.000382 851860.000000 1 0 0
-2.938664 9.233797 -4.263840 10.586741 -1.262681 1.985319 -0.006111 0.000957 -177368.000000 1 0 0
3.405536 -4.837603 9.339160 11.055315 -0.957410 0.564668 -0.002015 0.001684 -1354880.000000 1 0 0
-9.000864 1.624097 -0.450540 9.157305 -0.178517 1.620016 -0.000079 -0.003057 -1020000.000000 1 0 0
2.476836 3.596897 -10.610040 11.473680 0.967760 2.751118 0.004332 -0.003767 308413.000000 1 0 0
-13.686364 0.500797 1.133660 13.742363 -0.036575 1.488209 0.006629 -0.004606 -575936.000000 1 0 0
9.405936 -12.549803 -5.118040 16.497379 -0.927623 1.886235 0.016350 0.007256 -1822320.000000 1 0 0
-4.600664 9.419997 -8.399540 13.433344 -1.116477 2.246281 -0.004364 0.001139 -2984070.000000 1 0 0
-2.309064 7.130197 8.388060 11.248602 -1.257611 0.729214 -0.000773 0.001884 -1369620.000000 1 0 0
-10.661264 -1.285903 -4.523840 11.652520 0.120035 1.969505 0.002366 -0.006348 -3506290.000000 1 0 0
2.647936 -7.260103 9.479860 12.230634 -1.221065 0.683936 -0.003911 0.003384 -809403.000000 1 0 0
-16.027564 -6.467003 3.398160 17.613984 0.383514 1.376655 0.000691 -0.002907 -538316.000000 1 0 0
-10.759864 -0.112403 6.213660 12.425655 0.010446 1.047120 0.002564 -0.004114 -435934.000000 1 0 0
-8.435464 9.928297 9.432560 16.084195 -0.866512 0.944129 0.003058 -0.006367 -308217.000000 1 0 0
0.288636 -6.055903 -3.760340 7.134243 -1.523170 2.125961 0.001989 0.000119 55330.300000 1 0 0
5.004136 1.502497 -2.913440 5.982224 0.291687 2.079466 -0.003049 0.000475 -721251.000000 1 0 0
0.312236 5.380897 3.887360 6.645534 1.512835 0.945968 -0.005647 0.002334 -2500290.000000 1 0 0
5.946236 -11.402403 -1.585440 12.957088 -1.090105 1.693465 -0.000015 -0.000987 -2085710.000000 1 0 0
6.253036 -13.498303 5.283860 15.786824 -1.136982 1.229509 0.014157 -0.003942 716188.000000 1 0 0
8.086536 -8.268303 -6.138540 13.093455 -0.796512 2.058756 -0.000981 0.000185 612418.000000 1 0 0
-13.064464 -1.403203 -4.623640 13.929366 0.106996 1.909150 0.002266 -0.003763 -2450420.000000 1 0 0
-6.746264 -1.504603 -7.089940 9.901674 0.219436 2.368901 0.006668 -0.006746 167710.000000 1 0 0
-5.632164 12.944697 -4.556840 14.834125 -1.160407 1.883031 -0.002784 0.002892 412552.000000 1 0 0
-4.245564 6.910797 -6.785640 10.574916 -1.019901 2.267474 -0.001404 0.000039 -3139970.000000 1 0 0
-9.404264 -3.675503 -8.067040 12.923878 0.372579 2.244899 0.004163 -0.001771 608613.000000 1 0 0
-2.240264 -6.307003 9.258760 11.424610 1.229494 0.625923 -0.002398 -0.000210 -408515.000000 1 0 0
7.463336 -6.012903 10.047260 13.885381 -0.678182 0.761813 0.008206 0.000718 132585.000000 1 0 0
9.586236 -4.983303 12.278160 16.354890 -0.479393 0.721625 0.014767 -0.001855 -486194.000000 1 0 0
-6.449764 2.787197 -9.004740 11.421614 -0.407902 2.478991 0.002125 -0.004385 14390.400000 1 0 0
7.440536 5.533897 8.817760 12.796034 0.639489 0.810549 -0.000855 -0.003881 -732589.000000 1 0 0
12.709936 3.258197 11.107560 17.191167 0.250947 0.868306 0.027862 -0.000505 -630614.000000 1 0 0
-7.454164 -7.410503 -4.044040 11.262077 0.782461 1.938083 0.006285 -0.006773 -1507680.000000 1 0 0
2.285236 1.466097 -5.846540 6.446221 0.570413 2.706834 0.001290 -0.002802 687351.000000 1 0 0
12.910236 6.966397 -7.147540 16.318462 0.494826 2.024173 0.014703 0.000138 797482.000000 1 0 0
0.820236 -7.649803 1.018460 7.760768 -1.463981 1.439185 -0.000221 -0.000619 922020.000000 1 0 0
-10.190964 -5.992903 -8.548240 14.589141 0.531594 2.196826 0.006216 -0.002276 -570739.000000 1 0 0
-6.638664 0.305297 3.125660 7.344033 -0.045955 1.131165 -0.000120 -0.002150 -244736.000000 1 0 0
10.756136 -8.015603 1.247360 13.472203 -0.640430 1.478076 0.009891 -0.001431 435878.000000 1 0 0
6.210836 1.019797 10.470860 12.216930 0.162744 0.541226 0.001328 -0.001406 -619973.000000 1 0 0
-12.807864 5.308397 1.801660 13.980932 -0.392913 1.441571 0.005845 -0.001896 -135278.000000 1 0 0
2.121336 7.400297 3.669460 8.528154 1.291627 1.125998 -0.006891 0.001179 102697.000000 1 0 0
10.029336 -9.542103 -0.919340 13.873878 -0.760508 1.637109 0.010241 -0.000493 727626.000000 1 0 0
6.712236 -11.791003 -9.142640 16.360615 -1.053281 2.163759 -0.004540 0.005682 -283365.000000 1 0 0
10.276836 3.491297 11.931660 16.129694 0.327492 0.738123 0.011270 -0.000281 -123481.000000 1 0 0
-10.999164 -3.056503 -1.992840 11.588582 0.271046 1.743621 0.000429 -0.004797 -1200520.000000 1 0 0
12.313236 0.901297 6.857060 14.122584 0.073067 1.063817 0.008491 -0.001751 106916.000000 1 0 0
-9.533964 9.109997 3.000060 13.523642 -0.762662 1.347097 -0.003223 -0.003589 1764710.000000 1 0 0
-6.513664 7.651197 -8.814840 13.366751 -0.865533 2.290897 -0.003464 -0.000655 -887561.000000 1 0 0
8.478136 5.429397 12.098260 15.739284 0.569597 0.694042 0.014862 -0.000352 -1879400.000000 1 0 0
1.283436 4.977997 -2.637740 5.778005 1.318470 2.044869 -0.002811 -0.002284 88312.800000 1 0 0
1.514336 0.521597 9.506760 9.640735 0.331713 0.166907 -0.000012 -0.001353 787143.000000 1 0 0
2.517136 12.613597 -3.946040 13.453997 1.373826 1.868472 0.001733 -0.005669 319934.000000 1 0 0
2.075336 0.654797 13.099960 13.279486 0.305628 0.164618 0.001375 -0.005768 -65162.500000 1 0 0
-12.214264 -1.742203 0.752260 12.360802 0.141681 1.509900 0.001449 -0.003333 32957.500000 1 0 0
3.197036 8.799097 -1.178940 9.435839 1.222290 1.696066 0.001606 -0.002856 -178418.000000 1 0 0
3.697836 -2.844303 -5.854340 7.485809 -0.655664 2.468758 -0.001643 0.000028 -1120230.000000 1 0 0
-7.815964 -7.070303 9.321960 14.070445 0.735349 0.846617 0.001418 -0.003031 10847.000000 1 0 0
-6.941464 10.932597 -3.704340 13.469512 -1.005086 1.849403 -0.002666 0.001642 381029.000000 1 0 0
0.471636 0.542097 2.505060 2.606077 0.854794 0.279338 -0.005322 0.001711 -1859610.000000 1 0 0
-7.000364 4.576097 -2.017740 8.603316 -0.578968 1.807532 0.001544 -0.003481 -697504.000000 1 0 0
-6.927564 -3.873603 -5.878840 9.877079 0.509847 2.208311 0.003415 -0.004744 -98385.800000 1 0 0
2.907736 -6.139603 13.472060 15.087944 -1.128488 0.467046 -0.003965 -0.001899 -1237790.000000 1 0 0
-5.484364 -0.628003 -11.866640 13.087772 0.114011 2.706181 0.006985 -0.005313 -869593.000000 1 0 0
11.873636 2.371797 -0.523240 12.119506 0.197158 1.613983 0.000352 0.002396 -1336860.000000 1 0 0
6.102336 -10.999803 10.813260 16.587970 -1.064300 0.860744 0.008030 0.000747 525884.000000 1 0 0
-8.117764 6.418997 -10.507040 14.747864 -0.669066 2.363772 -0.000200 -0.002539 425364.000000 1 0 0
2.915736 8.023697 11.336160 14.191186 1.222242 0.645470 -0.000153 0.000833 894367.000000 1 0 0
-6.260364 -10.365503 -0.346240 12.114276 1.027469 1.599381 0.004145 -0.003924 -594163.000000 1 0 0
11.368036 4.208597 5.985560 13.519300 0.354567 1.112142 0.002919 -0.002084 960538.000000 1 0 0
-7.774964 10.639997 1.594560 13.274119 -0.939743 1.450380 -0.007451 0.001630 468923.000000 1 0 0
4.284236 -2.627503 -3.515540 6.133308 -0.550138 2.181188 0.000478 -0.001480 -4583760.000000 1 0 0
6.539736 6.442797 6.117060 11.031601 0.777931 0.983030 0.001518 -0.000134 -5329110.000000 1 0 0
-0.247264 10.384897 -10.136440 14.513946 -1.546991 2.343946 0.000657 0.002513 135313.000000 1 0 0
14.110936 6.425597 -2.400340 15.689756 0.427305 1.724387 0.007606 0.004258 707722.000000 1 0 0
1.399036 9.423497 -6.103140 11.314058 1.423410 2.140556 0.002656 -0.002913 1983960.000000 1 0 0
0.752736 7.293597 7.279160 10.331958 1.467955 0.789038 -0.003586 0.003849 -167334.000000 1 0 0
12.246036 6.431797 1.866960 13.957756 0.483615 1.436636 0.003148 0.001288 -789969.000000 1 0 0
-6.784964 6.656097 -3.177940 10.021910 -0.775811 1.893466 -0.002526 -0.001584 182139.000000 1 0 0
1.060136 9.924597 11.147760 14.963091 1.464381 0.730236 -0.005020 0.001042 483010.000000 1 0 0
-3.629764 13.779597 -10.979240 17.988780 -1.313231 2.227284 -0.000577 0.003921 -166549.000000 1 0 0
-10.023464 -5.505603 -2.261040 11.657349 0.502284 1.765992 0.001176 -0.004207 -78062.000000 1 0 0
-3.948064 3.805097 -12.580640 13.723646 -0.766960 2.730570 0.003869 -0.006129 -42070.800000 1 0 0
-3.189464 8.490497 2.375460 9.375716 -1.211455 1.314641 -0.008255 0.004486 -3424780.000000 1 0 0
7.032436 8.783897 7.209160 13.363532 0.895686 1.000995 0.006152 -0.000352 -231225.000000 1 0 0
-1.462864 -2.241003 -8.166940 8.594240 0.992475 2.824932 0.005065 -0.007950 -454204.000000 1 0 0
0.854736 -1.301403 4.900560 5.141956 -0.989669 0.307631 -0.000341 0.001580 168112.000000 1 0 0
2.761436 -8.891803 -6.048540 11.102906 -1.269680 2.146912 -0.004518 0.001588 395724.000000 1 0 0
5.423436 3.912897 8.728760 10.996167 0.624997 0.653764 -0.002483 -0.000491 -308270.000000 1 0 0
6.176236 -7.465603 -2.857240 10.101729 -0.879634 1.857557 -0.001187 -0.002865 838831.000000 1 0 0
1.881236 2.419997 -8.303940 8.851601 0.910007 2.787982 0.003341 -0.005285 80139.400000 1 0 0
-5.344964 10.960597 -0.666740 12.212612 -1.117075 1.625418 -0.010368 0.004512 259841.000000 1 0 0
-5.360864 3.300397 -3.458140 7.182633 -0.551845 2.073114 0.001403 -0.002531 84165.900000 1 0 0
2.028536 13.521397 -6.442440 15.114502 1.421883 2.011131 -0.002415 -0.002048 690574.000000 1 0 0
-5.255564 -2.506003 2.580860 6.368818 0.444939 1.153562 -0.003572 -0.001076 844580.000000 1 0 0
10.365336 -3.453303 -1.703440 11.057449 -0.321593 1.725466 0.001033 -0.000288 401123.000000 1 0 0
2.371536 -3.368903 7.083860 8.194801 -0.957425 0.526774 -0.003911 0.002560 -2012200.000000 1 0 0
-2.801964 9.898297 -11.685940 15.568830 -1.294938 2.419764 0.001516 0.004122 -2766110.000000 1 0 0
0.472236 -1.948503 9.347060 9.559666 -1.333023 0.211295 -0.000699 -0.001096 271478.000000 1 0 0
9.508236 2.668097 4.946660 11.045123 0.273573 1.106427 -0.001015 -0.003587 100057.000000 1 0 0
13.461636 2.080397 -5.051840 14.528068 0.153330 1.925945 0.014632 0.000835 -1183370.000000 1 0 0
-6.472364 3.767897 7.552860 10.636459 -0.527192 0.781168 0.001727 -0.000934 985705.000000 1 0 0
10.627036 -0.024603 1.746760 10.769664 -0.002315 1.407884 -0.000430 -0.000453 988895.000000 1 0 0
15.402836 6.553797 -4.647240 17.372290 0.402288 1.841603 0.017429 0.000251 -1000120.000000 1 0 0
8.061136 -4.861303 -9.302140 13.234197 -0.542662 2.350244 -0.000280 0.004494 101197.000000 1 0 0
4.394036 5.696297 -2.186140 7.518947 0.913749 1.865808 0.001682 -0.003276 35049.900000 1 0 0
-1.728364 -10.455803 1.469760 10.699124 1.406976 1.432989 0.005089 -0.000624 -1248580.000000 1 0 0
-2.745564 12.293697 -12.771140 17.938092 -1.351071 2.363077 0.005577 -0.001936 465337.000000 1 0 0
8.402436 4.310697 -9.541440 13.424683 0.474017 2.361344 0.001103 0.002546 -1271630.000000 1 0 0
4.128336 7.561497 -8.942240 12.417047 1.071054 2.374827 0.003781 -0.004609 -1235050.000000 1 0 0
-1.790864 -5.043603 -2.519140 5.915335 1.229606 2.010715 0.005197 -0.003544 228108.000000 1 0 0
-3.324464 -8.818703 7.204660 11.862913 1.210292 0.918105 -0.002209 0.003209 -1064320.000000 1 0 0
1.081636 7.391397 -1.503140 7.619850 1.425491 1.769365 -0.002692 -0.003403 213301.000000 1 0 0
0.467736 -0.459503 -2.231640 2.325970 -0.776519 2.855823 0.000757 -0.004281 -2311070.000000 1 0 0
3.972236 -6.716103 7.394560 10.750080 -1.036688 0.812258 0.003595 0.002306 -362441.000000 1 0 0
-13.915164 3.692497 5.752160 15.503344 -0.259380 1.190682 0.001250 -0.004609 -1787980.000000 1 0 0
4.254236 6.363597 12.584260 14.729477 0.981507 0.546480 0.006330 -0.002119 -2027570.000000 1 0 0
8.367036 10.142397 -7.044240 14.916327 0.881022 2.062638 0.015315 -0.010065 -322182.000000 1 0 0
12.484436 5.206497 9.432660 16.490720 0.395108 0.961857 0.021476 -0.001647 183652.000000 1 0 0
7.521636 4.267597 0.349160 8.655016 0.516086 1.530443 0.004216 -0.002052 -1045650.000000 1 0 0
-10.848864 -7.535103 -1.032240 13.249194 0.607060 1.648785 0.001315 -0.001017 -4808.160000 1 0 0
10.386136 6.762397 0.127360 12.394275 0.577147 1.560520 0.007522 0.001385 -709104.000000 1 0 0
14.548136 3.478797 4.378160 15.585845 0.234716 1.286058 0.010858 -0.000240 695760.000000 1 0 0
2.196336 5.536697 8.231860 10.160828 1.193149 0.626377 -0.004264 0.002480 -1037300.000000 1 0 0
4.188036 0.106397 11.730960 12.456580 0.025400 0.343006 0.000622 -0.003299 -1445290.000000 1 0 0
-1.292064 -1.766403 -0.728340 2.306531 0.939263 1.892067 0.000908 -0.003156 -1012380.000000 1 0 0
3.131736 -5.353503 -9.499040 11.344581 -1.041488 2.563158 -0.002631 0.000964 319689.000000 1 0 0
-4.054664 -5.354403 -1.458340 6.872895 0.922666 1.784609 0.004215 -0.002956 -516845.000000 1 0 0
-1.057464 -8.457003 8.455260 12.005438 1.446402 0.789380 -0.000970 0.003491 -556734.000000 1 0 0
4.028236 8.570997 -5.898340 11.157020 1.131448 2.127825 0.004655 -0.002833 370296.000000 1 0 0
-14.283064 -1.774703 -2.589140 14.623924 0.123619 1.748783 0.001823 -0.005466 -1231710.000000 1 0 0
8.758836 -10.589703 -6.573240 15.233728 -0.879743 2.016943 -0.000887 0.005499 641311.000000 1 0 0
14.827036 6.182997 1.557760 16.139921 0.395082 1.474130 0.000957 0.005954 -862217.000000 1 0 0
-5.699064 0.486397 -8.526740 10.267483 -0.085141 2.550730 0.007314 -0.008291 861479.000000 1 0 0
-8.113064 -4.472503 -13.060640 16.012664 0.503819 2.524638 0.000961 0.003885 265559.000000 1 0 0
0.802436 -10.663303 12.034160 16.098787 -1.495686 0.726476 0.000799 -0.000388 -468120.000000 1 0 0
0.137236 11.681397 3.262060 12.129094 1.559049 1.298499 -0.005852 0.001615 -1246830.000000 1 0 0
5.149036 -13.279903 -3.702740 14.716612 -1.200911 1.825132 -0.001196 0.006402 900223.000000 1 0 0
-7.430664 1.515597 -6.947440 10.284878 -0.201205 2.312439 0.002298 -0.003519 987464.000000 1 0 0
1.409136 2.776797 4.091360 5.141546 1.101192 0.650559 -0.004507 0.001423 -463951.000000 1 0 0
17.271236 5.468997 2.029960 18.229818 0.306664 1.459211 0.011994 -0.000088 -525542.000000 1 0 0
2.596636 -8.100103 -3.485540 9.192560 -1.260578 1.959695 -0.005473 0.001182 370090.000000 1 0 0
-0.291664 -9.459603 -0.490140 9.476781 1.539973 1.622539 0.008299 0.000361 -506836.000000 1 0 0
0.742236 11.769597 -5.414040 12.976369 1.507816 2.001184 0.000429 -0.001910 128298.000000 1 0 0
5.903236 -5.103603 7.876460 11.087542 -0.712877 0.780746 0.002311 0.000787 -1626810.000000 1 0 0
-5.973164 -1.914303 -9.415640 11.313599 0.310142 2.553934 0.008550 -0.006079 -238488.000000 1 0 0
2.015736 -1.232803 11.302160 11.546507 -0.548898 0.206092 -0.000679 -0.003040 -840384.000000 1 0 0
18.052136 2.105097 -5.942240 19.121225 0.116088 1.886796 0.023195 0.000850 945160.000000 1 0 0
-8.921464 4.806097 7.730360 12.745571 -0.494135 0.919128 0.001655 -0.002407 808850.000000 1 0 0
11.450736 -7.071803 -4.883540 14.317077 -0.553249 1.918882 0.018652 -0.002263 214362.000000 1 0 0
10.806736 0.397597 8.887660 13.997647 0.036775 0.882866 0.007494 -0.004269 -346091.000000 1 0 0
-8.331664 -7.364703 -1.594440 11.233775 0.723872 1.713210 0.003063 -0.002310 -86425.300000 1 0 0
10.142236 -10.479603 -3.348040 14.963168 -0.801756 1.796459 0.017370 0.001250 1743070.000000 1 0 0
7.693836 -13.955103 -3.816040 16.386035 -1.066934 1.805838 0.013920 0.005496 -986449.000000 1 0 0
1.763336 -1.154303 -11.646840 11.835989 -0.579611 2.962575 0.005239 -0.006328 309121.000000 1 0 0
-11.768764 -2.702803 -6.319040 13.628618 0.225744 2.052918 0.007708 -0.005584 70885.000000 1 0 0
2.656836 -12.226703 -6.444940 14.074384 -1.356825 2.046450 -0.003550 0.004185 372353.000000 1 0 0
-5.467464 1.441697 1.043960 5.749914 -0.257818 1.388223 -0.001708 -0.002504 200310.000000 1 0 0
0.137536 6.841197 -3.994740 7.923310 1.550695 2.099223 0.000178 -0.002012 677532.000000 1 0 0
5.419736 -11.706403 3.718060 13.425251 -1.137207 1.290183 0.000200 -0.003217 -2200780.000000 1 0 0
-4.371564 -9.206703 0.958360 10.236816 1.127492 1.477040 0.004555 -0.000297 222520.000000 1 0 0
6.999636 -6.158203 -4.812340 10.491757 -0.721536 2.047303 -0.001392 -0.002297 -1227810.000000 1 0 0
-7.109064 -6.049503 2.065460 9.560408 0.705049 1.353036 -0.000518 0.001328 -523491.000000 1 0 0
-6.286364 -0.766103 6.971860 9.418712 0.121269 0.737408 0.000607 -0.001592 -2748870.000000 1 0 0
4.155136 -5.067903 3.262760 7.320819 -0.884043 1.108860 -0.004017 0.002799 -1104720.000000 1 0 0
-2.463364 10.510697 -8.855540 13.962933 -1.340584 2.257793 -0.001878 0.001077 -858095.000000 1 0 0
-2.508864 -4.724703 2.768560 6.023466 1.082650 1.093219 0.002651 0.001977 136466.000000 1 0 0
15.111736 5.127397 6.360060 17.178624 0.327110 1.191539 0.022509 -0.007170 602226.000000 1 0 0
6.893036 0.364897 0.111260 6.903584 0.052888 1.554679 0.004942 -0.001013 3688210.000000 1 0 0
-9.638164 9.444997 0.314460 13.498188 -0.775276 1.547498 -0.003684 0.002440 -1799620.000000 1 0 0
7.144736 10.453797 -2.474340 12.901608 0.971259 1.763777 0.007119 -0.006045 -556343.000000 1 0 0
1.639936 -4.265803 -5.310040 7.005925 -1.203777 2.430939 0.000414 -0.001122 142478.000000 1 0 0
0.918536 -8.190403 -7.841640 11.376191 -1.459115 2.331323 -0.003830 0.002217 443257.000000 1 0 0
-10.462064 0.192197 -10.398240 14.751784 -0.018369 2.353051 -0.004432 -0.002278 -4367970.000000 1 0 0
5.761836 -2.446303 0.502260 6.279762 -0.401506 1.490730 0.000660 -0.000677 -33719.800000 1 0 0
-3.292664 5.333897 -1.120340 6.367673 -1.017747 1.747659 -0.003170 -0.002245 574262.000000 1 0 0
-0.406764 4.567197 -5.119640 6.872806 -1.481969 2.411200 -0.000214 -0.003617 -1076360.000000 1 0 0
3.949736 -9.752303 10.085060 14.574507 -1.185982 0.806588 0.002584 0.000389 -823243.000000 1 0 0
7.226936 -13.504103 -0.683640 15.331561 -1.079413 1.615401 0.014606 0.004160 643020.000000 1 0 0
13.111336 -0.196003 0.567260 13.125065 -0.014948 1.527563 0.004754 -0.003701 457835.000000 1 0 0
9.360136 2.442697 -0.440440 9.683641 0.255275 1.616295 0.002342 -0.000709 -188826.000000 1 0 0
-0.794764 -5.772103 4.307860 7.246135 1.433966 0.934147 -0.001227 0.001442 29061.300000 1 0 0
11.435336 -3.772203 3.318660 12.490393 -0.318633 1.301869 0.010285 -0.006516 -1834700.000000 1 0 0
1.839536 -8.198903 11.778960 14.468925 -1.350088 0.619641 -0.007248 0.000728 -148157.000000 1 0 0
9.380836 -5.966503 -5.872040 12.572990 -0.566492 2.056732 0.001758 -0.001608 -943252.000000 1 0 0
3.121336 6.350197 -0.163440 7.077744 1.113945 1.593890 -0.002223 -0.001797 -1431970.000000 1 0 0
6.410936 -1.356903 11.530360 13.262371 -0.208576 0.516801 0.002294 -0.002612 703633.000000 1 0 0
-4.875764 -7.541603 -3.859140 9.774549 0.996874 1.976663 0.006838 -0.003876 -962795.000000 1 0 0
-3.461664 -8.459203 -5.804340 10.827354 1.182368 2.136584 0.003954 0.000760 -147797.000000 1 0 0
9.828536 5.351497 2.199560 11.405117 0.498600 1.376723 0.003411 -0.002546 -506703.000000 1 0 0
8.797836 -1.484703 0.328560 8.928281 -0.167183 1.533988 0.001935 -0.001567 995773.000000 1 0 0
-3.979064 9.594897 9.174460 13.858778 -1.177677 0.847317 -0.002054 0.001365 305484.000000 1 0 0
-14.354664 -3.576303 -6.057740 15.985698 0.244168 1.959455 0.005057 -0.003089 -153022.000000 1 0 0
10.700936 6.256997 -5.976340 13.761420 0.529105 2.020038 0.001747 -0.002127 -215916.000000 1 0 0
-1.767664 4.572697 2.651960 5.573786 -1.201922 1.074933 -0.005636 0.000692 475508.000000 1 0 0
7.008836 -3.681503 2.545960 8.316198 -0.483655 1.259656 0.002369 -0.003209 -2103500.000000 1 0 0
8.236136 -11.268903 -1.621040 14.051685 -0.939649 1.686416 0.013688 -0.000736 -2269880.000000 1 0 0
4.547136 0.485097 1.761660 4.900532 0.106280 1.203082 -0.000013 0.000646 455054.000000 1 0 0
-10.815464 2.307197 3.790360 11.690349 -0.210174 1.240599 0.003544 -0.004030 77309.100000 1 0 0
-0.909564 -3.024803 4.449560 5.456677 1.278696 0.617318 0.000744 0.001806 64120.900000 1 0 0
8.464336 -8.749403 -8.605640 14.908188 -0.801957 2.186144 0.005851 0.004213 -456752.000000 1 0 0
12.084936 -4.890503 1.011060 13.076121 -0.384532 1.493398 0.008280 -0.003247 10190.600000 1 0 0
2.924836 4.858797 3.454760 6.640628 1.028932 1.023657 -0.004711 -0.000381 -167998.000000 1 0 0
6.025036 7.483697 2.006560 9.814941 0.892961 1.364905 0.004486 -0.003665 11936.500000 1 0 0
-1.605164 -1.280203 -10.393540 10.594392 0.673247 2.946562 0.008917 -0.006687 1171120.000000 1 0 0
-1.102264 -8.608803 5.956260 10.526324 1.443450 0.969339 -0.002066 -0.000837 487549.000000 1 0 0
-4.260764 -0.206403 2.253060 4.824209 0.048405 1.084865 -0.001339 -0.001253 263252.000000 1 0 0
-8.349164 6.074697 -8.052540 13.094040 -0.628998 2.233154 -0.006602 0.000004 -1190040.000000 1 0 0
6.509836 11.064497 -9.309140 15.857526 1.038984 2.198205 0.009714 -0.010647 -126117.000000 1 0 0
-11.060664 -5.702003 3.094460 12.822902 0.475987 1.327067 0.001037 0.000400 1799450.000000 1 0 0
1.639136 -6.346503 3.089660 7.246438 -1.318046 1.130321 -0.005804 0.001759 355079.000000 1 0 0
10.102536 2.226497 7.237560 12.625403 0.216922 0.960325 0.002725 -0.001261 -1988920.000000 1 0 0
-4.084564 -2.457503 -10.624040 11.644449 0.541636 2.719832 0.007039 -0.006105 -2665740.000000 1 0 0
-8.298764 11.825797 5.802760 15.568911 -0.958896 1.188864 -0.005597 0.001842 947165.000000 1 0 0
6.893236 5.985697 -2.864940 9.568341 0.715048 1.874880 0.004616 -0.000400 -3420770.000000 1 0 0
3.856536 -9.938403 -2.309740 10.907777 -1.200639 1.784163 -0.005446 -0.001320 -1001100.000000 1 0 0
8.430536 -12.849403 -7.462240 17.084089 -0.990143 2.022829 0.006243 0.005933 -120078.000000 1 0 0
-1.246964 9.530997 3.593260 10.261888 -1.440703 1.213059 -0.010084 0.003776 -182255.000000 1 0 0
0.395936 -13.248103 4.741360 14.076558 -1.540919 1.227252 0.006201 -0.005656 -1274850.000000 1 0 0
-11.162364 -7.033703 -5.005740 14.111300 0.562277 1.933425 0.005982 -0.005350 -133626.000000 1 0 0
3.622536 10.312697 -3.329140 11.426183 1.232991 1.866445 0.005816 -0.004481 -116681.000000 1 0 0
11.532836 -8.097003 -7.384440 15.909045 -0.612122 2.053489 0.022205 -0.000531 262377.000000 1 0 0
11.712036 -4.789803 -5.959240 13.986655 -0.388210 2.010936 0.015612 -0.003147 -377309.000000 1 0 0
1.289036 -10.283703 -2.780740 10.730735 -1.446099 1.832926 -0.003083 0.002039 -1446430.000000 1 0 0
2.285936 -12.089503 -3.880840 12.901259 -1.383918 1.876339 -0.000502 0.002535 -1572830.000000 1 0 0
-7.652664 -5.702103 7.260260 11.991189 0.640366 0.920445 -0.000458 -0.000039 -1421800.000000 1 0 0
-7.200964 -0.822703 9.425360 11.889834 0.113756 0.655531 0.002911 -0.001098 -34333.800000 1 0 0
16.075436 2.608397 -7.482940 17.922549 0.160858 2.001506 0.019793 -0.002370 973407.000000 1 0 0
-2.010164 6.349897 -5.462140 8.613764 -1.264211 2.257663 -0.003123 -0.000314 -490860.000000 1 0 0
7.665036 1.254997 8.289960 11.360072 0.162290 0.752847 0.000287 -0.002539 -518922.000000 1 0 0
7.964636 8.295997 -3.737340 12.092423 0.805774 1.885006 0.006590 -0.001448 133273.000000 1 0 0
8.051636 0.584697 3.887860 8.960255 0.072491 1.121979 -0.001122 -0.002766 -111294.000000 1 0 0
-6.935764 5.944697 5.349460 10.585886 -0.708606 1.041022 0.002052 -0.004338 -257765.000000 1 0 0
-6.010064 -2.034803 -4.480840 7.767832 0.326452 2.185658 0.006705 -0.005803 -1096820.000000 1 0 0
-15.163164 -2.014203 3.155660 15.618475 0.132062 1.367349 0.005184 -0.004946 -493381.000000 1 0 0
1.214636 1.241197 -10.468840 10.611904 0.796214 2.977203 0.006948 -0.007092 404935.000000 1 0 0
1.416536 -9.351903 9.507160 13.410845 -1.420469 0.782836 0.001697 -0.002270 -1112190.000000 1 0 0
-0.221764 -6.844303 -1.256640 6.962241 1.538406 1.752285 0.003416 -0.000508 618947.000000 1 0 0
-0.422864 -10.251003 -8.401840 13.260949 1.529569 2.256965 -0.001123 0.003136 -524347.000000 1 0 0
-4.352064 6.568497 3.753960 8.727992 -0.985638 1.126186 -0.002049 0.001508 -30968.100000 1 0 0
10.792936 -1.042003 -8.567140 13.819157 -0.096247 2.239471 0.013765 0.000370 777974.000000 1 0 0
2.953836 -1.050603 6.334560 7.067925 -0.341721 0.459576 -0.000474 0.002152 379795.000000 1 0 0
1.803836 -12.244603 6.816660 14.129790 -1.424532 1.067367 0.010063 -0.005667 12417.200000 1 0 0
2.849036 -4.872703 -1.363540 5.806847 -1.041708 1.807825 0.007010 -0.002839 -1997300.000000 1 0 0
-0.989664 9.492897 -1.702740 9.695043 -1.466918 1.747342 -0.005385 -0.002201 503108.000000 1 0 0
4.574236 -2.544303 2.674360 5.877866 -0.507610 1.098437 0.001316 0.001286 -1917290.000000 1 0 0
17.678836 6.680697 -2.671040 19.086838 0.361304 1.711199 0.006476 0.010982 -351100.000000 1 0 0
-7.079664 3.519497 -5.429940 9.591285 -0.461347 2.172603 0.000348 -0.003050 -681092.000000 1 0 0
-13.776764 -5.963503 2.340460 15.193431 0.408515 1.416136 -0.001583 -0.002730 711476.000000 1 0 0
6.652536 -6.138303 3.161360 9.587971 -0.745217 1.234788 0.002608 -0.003324 169212.000000 1 0 0
-4.575464 2.101497 3.435160 6.095202 -0.430558 0.972078 -0.000841 -0.002260 326722.000000 1 0 0
6.784536 -12.182203 -5.573540 15.016668 -1.062654 1.951051 0.002893 0.007034 695136.000000 1 0 0
2.864836 -12.284503 3.343360 13.049688 -1.341684 1.311705 0.005596 -0.004935 -230425.000000 1 0 0
3.287336 11.243497 -5.995440 13.159335 1.286348 2.043846 0.001382 -0.002928 -662319.000000 1 0 0
-5.629764 -8.187003 6.368260 11.801525 0.968409 1.000819 -0.002084 0.002191 -277520.000000 1 0 0
-3.919664 6.626897 6.351860 9.981266 -1.036667 0.881002 0.001874 0.000988 405590.000000 1 0 0
4.289336 4.292197 -6.972040 9.242873 0.785732 2.425407 0.002653 -0.000187 -1856410.000000 1 0 0
-0.373264 -2.765003 1.569660 3.201312 1.436612 1.058342 0.003995 -0.000091 1178850.000000 1 0 0
-13.243564 -0.859503 6.651260 14.844865 0.064809 1.106212 0.000432 -0.002106 -692978.000000 1 0 0
-0.520964 -9.302903 -6.024940 11.095733 1.514855 2.144797 -0.000191 0.002175 563750.000000 1 0 0
2.060936 -1.757803 -3.910140 4.756734 -0.706184 2.535749 0.002334 -0.001048 -2400260.000000 1 0 0
11.258636 -2.030603 1.086860 11.491801 -0.178441 1.476078 0.002789 -0.002526 768559.000000 1 0 0
0.452036 -4.200603 -1.889340 4.628067 -1.463597 1.991316 0.005038 -0.003035 -1403750.000000 1 0 0
1.122036 -7.489203 -11.328740 13.626719 -1.422082 2.552351 -0.001260 0.002415 -993396.000000 1 0 0
-4.455064 3.999397 -10.137640 11.773467 -0.731554 2.608143 0.001251 -0.004799 -124125.000000 1 0 0
-0.965064 5.841897 -1.976240 6.242166 -1.407078 1.892934 -0.002805 -0.002458 -2386280.000000 1 0 0
-11.329464 1.755997 -3.834340 12.088939 -0.153770 1.893548 0.000382 -0.001883 -143790.000000 1 0 0
-1.758364 -11.180403 4.120760 12.044663 1.414802 1.221621 0.006932 -0.000730 -357620.000000 1 0 0
-3.564664 -5.435803 -9.737640 11.707963 0.990372 2.552978 0.002848 -0.000378 -508162.000000 1 0 0
-12.871964 -3.810203 -8.323040 15.794876 0.287790 2.125799 0.009842 0.000111 -281918.000000 1 0 0
11.511136 4.481297 0.566260 12.365635 0.371249 1.524987 0.006023 0.001210 201672.000000 1 0 0
-8.829764 -2.358503 -3.061240 9.638385 0.261015 1.894003 0.005806 -0.006008 115198.000000 1 0 0
-2.547964 -6.017103 -6.350840 9.112124 1.170236 2.341954 0.002776 -0.000906 712120.000000 1 0 0
-0.031864 2.754697 -1.847240 3.316876 -1.559230 2.161471 -0.001912 -0.003227 -51099.500000 1 0 0
8.152836 6.032997 -5.115940 11.359517 0.637062 2.037971 0.004277 -0.000586 -496930.000000 1 0 0
-9.831764 -0.848303 -1.076840 9.926872 0.086069 1.679487 0.002211 -0.004121 837904.000000 1 0 0
6.197936 0.611797 -8.874240 10.841625 0.098391 2.529651 -0.001431 0.001681 521830.000000 1 0 0
-4.111864 2.522397 7.920660 9.273984 -0.550246 0.547030 -0.001384 0.001307 -307209.000000 1 0 0
-10.201264 -3.254603 1.480160 10.809677 0.308831 1.433436 0.000944 -0.002198 1298560.000000 1 0 0
-1.881864 -8.100803 -7.781640 11.389396 1.342539 2.322981 0.002324 -0.001180 1330080.000000 1 0 0
-9.479064 -9.650303 4.146760 14.148379 0.794350 1.273338 0.000035 -0.000865 -472854.000000 1 0 0
-1.227764 -10.627803 7.413860 13.016256 1.455782 0.964796 0.003565 -0.000819 158641.000000 1 0 0
9.475036 3.830497 -3.720040 10.876015 0.384184 1.919884 0.002013 0.001087 -928540.000000 1 0 0
12.772636 -0.806403 3.085960 13.164865 -0.063051 1.334186 0.005102 -0.003372 -1268700.000000 1 0 0
6.587436 11.882897 -6.774440 15.181917 1.064610 2.033331 0.009058 -0.007393 317566.000000 1 0 0
-11.822364 -0.049003 -6.459540 13.472058 0.004145 2.070855 0.001152 -0.003547 382040.000000 1 0 0
-7.568464 -6.579503 -11.546240 15.293370 0.715610 2.426425 0.002825 0.001283 -2119640.000000 1 0 0
4.184136 6.073597 6.550660 9.864417 0.967555 0.844547 -0.004393 0.001679 -1359950.000000 1 0 0
-4.221664 -1.371703 -7.404840 8.633404 0.314159 2.601569 0.006262 -0.010343 -1171230.000000 1 0 0
9.615436 9.223697 0.911260 13.355283 0.764607 1.502511 0.012273 -0.001611 -1203570.000000 1 0 0
-8.890164 3.972597 4.864160 10.884696 -0.420234 1.107521 0.002044 -0.004459 1694020.000000 1 0 0
-6.845864 7.880897 -12.218040 16.070311 -0.855565 2.434550 0.000020 -0.004166 -847939.000000 1 0 0
11.238436 -3.609203 7.280160 13.868292 -0.310744 1.018140 0.010795 -0.005046 897892.000000 1 0 0
11.928336 6.895297 6.462260 15.218118 0.524131 1.132229 0.011780 -0.004375 -168464.000000 1 0 0
-10.026064 -0.577703 -14.712640 17.813407 0.057556 2.542647 -0.003281 0.003548 -242572.000000 1 0 0
1.595736 -13.033103 12.096660 17.853216 -1.448966 0.826354 0.016800 -0.001524 497422.000000 1 0 0
2.924936 3.035897 13.074760 13.737586 0.804011 0.311904 0.001315 -0.004737 -1361210.000000 1 0 0
-2.601164 -1.275303 11.016360 11.390902 0.455843 0.257148 0.005152 -0.002904 -433860.000000 1 0 0
2.490336 -10.137503 -8.252240 13.306772 -1.329911 2.239735 -0.007123 0.004362 -1391870.000000 1 0 0
13.860536 3.546197 -7.471440 16.140396 0.250476 2.052064 0.013278 -0.000029 -3285910.000000 1 0 0
7.250236 -1.598503 4.987260 8.943931 -0.217004 0.979288 -0.001030 -0.001492 383687.000000 1 0 0
-1.166264 8.732897 10.130360 13.425642 -1.438034 0.715823 -0.003014 -0.000363 151193.000000 1 0 0
-12.230364 -4.641503 0.861960 13.109856 0.362716 1.505000 -0.000846 -0.001701 -246739.000000 1 0 0
-4.909464 4.877497 -5.351440 8.748184 -0.782132 2.229029 0.000820 -0.003704 -287470.000000 1 0 0
-11.166564 0.375397 1.928260 11.338045 -0.033605 1.399896 0.001031 -0.002807 -1837620.000000 1 0 0
-1.232364 2.254097 -4.063340 4.807328 -1.070473 2.577808 0.001245 -0.006035 820524.000000 1 0 0
3.095936 -9.924703 13.068460 16.699377 -1.268420 0.672010 0.000485 0.001085 -1278790.000000 1 0 0
8.970136 4.644997 -1.419340 10.200679 0.477809 1.710391 0.004211 -0.001216 -1868900.000000 1 0 0
4.016236 2.287497 3.728360 5.938305 0.517738 0.892009 -0.003846 0.001505 327692.000000 1 0 0
-5.477664 -3.225103 7.425960 9.775018 0.532124 0.707964 0.001366 -0.002121 -58756.300000 1 0 0
1.606236 -5.723103 7.787860 9.797176 -1.297177 0.651939 -0.003452 0.001687 -317017.000000 1 0 0
-5.911064 -6.341303 -9.700540 13.009737 0.820498 2.412286 -0.000784 -0.002236 -991426.000000 1 0 0
-11.699964 -5.771703 5.450660 14.139003 0.458281 1.175041 0.006374 -0.002012 -1718570.000000 1 0 0
10.544336 6.239497 4.552260 13.070479 0.534323 1.215055 0.003216 -0.001424 -1687240.000000 1 0 0
1.495236 -3.703503 0.435760 4.017655 -1.187074 1.462121 0.007867 -0.001753 -963004.000000 1 0 0
8.794136 4.386997 6.811060 11.957136 0.462731 0.964749 -0.001323 -0.000128 607036.000000 1 0 0
-7.840064 12.200497 3.473660 14.912581 -0.999639 1.335702 -0.008576 0.000993 -64310.900000 1 0 0
-6.213364 13.161297 -7.080640 16.185213 -1.129722 2.023586 0.007356 -0.004647 335428.000000 1 0 0
4.409736 -6.950703 -1.053040 8.298610 -1.005444 1.698033 0.000675 -0.003114 -493971.000000 1 0 0
-1.973464 -8.243803 11.009060 13.894396 1.335830 0.656164 -0.007045 -0.003640 -170810.000000 1 0 0
11.653436 8.853297 -5.751840 15.724729 0.649690 1.945270 0.010401 -0.003613 432645.000000 1 0 0
-3.365764 -2.954303 -1.986140 4.899084 0.720386 1.988224 0.005365 -0.004974 -1930300.000000 1 0 0
-2.043964 6.013697 4.724260 7.915869 -1.243161 0.931278 -0.003908 0.001938 -893224.000000 1 0 0
0.335136 -11.509703 -5.717940 12.856143 -1.541687 2.031706 -0.002737 -0.000245 -171974.000000 1 0 0
-8.714864 6.262597 -1.477340 10.832891 -0.623108 1.707598 0.002033 0.000199 -727445.000000 1 0 0
2.969136 -0.073603 3.901960 4.903721 -0.024784 0.650610 -0.003371 0.001353 737961.000000 1 0 0
-10.107564 3.996597 -0.974440 10.912616 -0.376540 1.660210 0.004324 -0.003070 146728.000000 1 0 0
6.458536 5.379797 13.579560 15.970578 0.694527 0.554268 0.013840 0.001187 -854137.000000 1 0 0
-8.761164 -1.615703 5.670160 10.560266 0.182367 1.003998 0.002079 -0.003061 -210078.000000 1 0 0
13.040836 -1.865903 -1.449440 13.253145 -0.142117 1.680381 0.011476 -0.003611 -2320240.000000 1 0 0
5.366836 -5.513003 5.427560 9.415654 -0.798832 0.956431 -0.002341 0.000408 141607.000000 1 0 0
-8.965264 -1.159003 3.171860 9.580185 0.128564 1.233343 -0.000511 -0.001947 450947.000000 1 0 0
2.010636 5.438397 5.622360 8.076494 1.216671 0.800791 -0.004008 0.001258 -1143570.000000 1 0 0
9.320236 3.137797 -7.360740 12.283853 0.324746 2.213324 0.002535 0.002240 -1466860.000000 1 0 0
2.263936 -2.342603 -1.570140 3.616425 -0.802474 2.019912 0.002720 -0.000614 -146262.000000 1 0 0
-6.251964 0.408397 -3.966740 7.415448 -0.065230 2.135220 0.001346 -0.004164 -2590970.000000 1 0 0
-4.027864 4.264197 5.088560 7.765341 -0.813892 0.856228 0.000489 -0.000909 201553.000000 1 0 0
-6.434164 1.818497 -12.442740 14.125409 -0.275447 2.648507 -0.000558 -0.000643 -3290530.000000 1 0 0
-0.168564 3.128697 6.258360 6.998874 -1.516972 0.464166 -0.001553 0.000087 1109030.000000 1 0 0
-8.556664 9.669297 -2.126140 13.085576 -0.846369 1.733999 -0.005760 0.003096 -473408.000000 1 0 0
-1.338964 -3.670503 -6.107140 7.250005 1.221006 2.572450 0.001924 -0.002086 582271.000000 1 0 0
-3.266264 7.143397 -2.920540 8.380105 -1.141936 1.926776 -0.004572 0.001951 1043080.000000 1 0 0
7.134236 -0.412703 -4.373340 8.378171 -0.057784 2.119981 0.001456 0.001211 -163903.000000 1 0 0
-5.118564 -10.717203 6.929860 13.750676 1.125227 1.042613 -0.006991 -0.000933 1088040.000000 1 0 0
9.733536 8.411297 -1.448440 12.945641 0.712655 1.682917 0.007406 0.000065 191192.000000 1 0 0
13.775236 4.594897 -4.320540 15.150487 0.321956 1.859985 0.007455 0.001294 1039120.000000 1 0 0
4.715536 1.123997 -6.810940 8.359937 0.233994 2.523028 -0.002351 0.000332 -1248120.000000 1 0 0
8.988536 -4.830803 3.575660 10.812760 -0.493149 1.233763 0.006299 -0.004774 -23343.700000 1 0 0
-8.717464 -3.238503 -0.756940 9.330329 0.355695 1.652012 0.000795 -0.002100 189537.000000 1 0 0
-8.469464 -4.313803 -10.396340 14.086327 0.471088 2.400964 -0.000732 -0.002795 793965.000000 1 0 0
10.472136 -1.199903 10.658360 14.990198 -0.114083 0.779846 0.014048 -0.001770 732231.000000 1 0 0
2.078736 -11.663303 9.864560 15.416333 -1.394420 0.876458 0.008978 -0.005118 590800.000000 1 0 0
-6.423964 -10.472503 2.075260 12.459829 1.020573 1.403460 0.000869 -0.000252 -1052690.000000 1 0 0
-3.775264 -1.259603 6.821360 7.897479 0.322032 0.528154 0.002676 0.001829 -2179600.000000 1 0 0
4.699636 -7.556803 3.880660 9.708314 -1.014424 1.159579 -0.000999 0.001108 161433.000000 1 0 0
11.483036 -9.541303 -5.382840 15.870461 -0.693303 1.916834 0.020693 0.000699 364102.000000 1 0 0
11.383436 1.131397 11.386060 16.140169 0.099064 0.787740 0.017149 -0.001907 -62550.800000 1 0 0
-10.220764 -3.383903 4.351360 11.612457 0.319722 1.186707 0.005221 -0.001989 2101710.000000 1 0 0
2.054536 8.713897 9.027760 12.714306 1.339248 0.781231 -0.005307 0.001854 -723894.000000 1 0 0
6.645236 8.760697 4.155260 11.754793 0.921860 1.209492 0.006616 -0.001606 -154816.000000 1 0 0
-4.152664 3.606297 0.401060 5.514603 -0.715097 1.498005 -0.000149 -0.003932 -2302490.000000 1 0 0
4.945536 6.992597 4.191260 9.535272 0.955219 1.115695 0.001423 -0.001124 -1102530.000000 1 0 0
-8.300964 13.045097 0.989960 15.493889 -1.004092 1.506859 -0.004954 -0.002362 -845035.000000 1 0 0
8.901636 8.207197 -9.033840 15.106537 0.744831 2.211811 0.006481 -0.009293 -1069050.000000 1 0 0
7.166836 1.877297 6.015060 9.542994 0.256187 0.888842 -0.001844 0.000053 -273636.000000 1 0 0
11.481236 -6.291303 3.048760 13.442254 -0.501279 1.342001 0.011664 -0.001072 -235307.000000 1 0 0
11.382936 4.603697 -2.059640 12.450196 0.384327 1.736991 0.003748 0.004190 -314761.000000 1 0 0
-3.995164 14.321597 -6.085840 16.065707 -1.298752 1.959306 -0.002268 0.002599 -853648.000000 1 0 0
7.095936 -3.036803 7.020460 10.433664 -0.404378 0.832720 0.003289 -0.002128 -545525.000000 1 0 0
-8.000464 -0.355503 0.898560 8.058612 0.044406 1.459061 0.000222 -0.002030 356709.000000 1 0 0
-3.243564 1.172297 10.769760 11.308525 -0.346814 0.309921 0.005080 -0.001265 -181862.000000 1 0 0
7.065236 -1.336503 -1.867640 7.429123 -0.186957 1.824917 0.004804 -0.000905 -2461360.000000 1 0 0
-7.569164 5.278297 2.960160 9.690987 -0.608940 1.260380 0.004551 -0.000987 940484.000000 1 0 0
9.427036 -2.179303 2.917060 10.105820 -0.227185 1.277978 0.002429 -0.003906 -1747450.000000 1 0 0
0.282336 3.451097 1.612260 3.819577 1.489168 1.135031 -0.005623 0.001242 -4161450.000000 1 0 0
-7.492164 -3.038003 3.965960 9.005045 0.385231 1.114735 0.000713 -0.001480 238027.000000 1 0 0
-2.197364 8.411097 -6.760640 11.012775 -1.315262 2.231776 -0.004758 -0.000129 -500754.000000 1 0 0
4.458236 9.778797 7.431160 13.066097 1.143040 0.965828 -0.001917 0.001841 -661934.000000 1 0 0
-11.794864 -3.032703 6.882660 13.988821 0.251669 1.056398 0.005063 -0.003982 -871205.000000 1 0 0
-4.756764 2.299297 -5.738340 7.800136 -0.450259 2.397454 0.005485 -0.008052 -22362.600000 1 0 0
-2.744964 3.009697 -1.913840 4.500654 -0.831369 2.010019 -0.000890 -0.003170 1260680.000000 1 0 0
2.345936 5.220597 11.529460 12.871927 1.148473 0.460780 0.002302 -0.004963 379213.000000 1 0 0
-0.770564 1.675297 4.487460 4.851566 -1.139693 0.389890 0.000702 -0.000268 496652.000000 1 0 0
5.067636 1.595197 7.691060 9.347620 0.304962 0.604506 -0.002785 0.000925 557133.000000 1 0 0
3.360536 -8.209303 1.809660 9.053216 -1.182250 1.369549 0.000082 -0.000557 1185450.000000 1 0 0
5.125236 6.495397 -4.579140 9.456572 0.902764 2.076277 0.004261 -0.002235 -1606740.000000 1 0 0
-3.957464 2.890297 -8.022240 9.400621 -0.630800 2.593219 0.007170 -0.008290 344723.000000 1 0 0
-8.761264 -2.058703 -12.949240 15.769617 0.230791 2.534222 -0.000404 0.000961 1014640.000000 1 0 0
-7.821064 8.198297 1.176460 11.391452 -0.808942 1.467336 -0.001645 -0.000332 -1802110.000000 1 0 0
7.356936 0.912897 -6.502940 9.861344 0.123456 2.290867 -0.001813 0.002279 730634.000000 1 0 0
8.917436 8.912697 5.570060 13.783411 0.785132 1.154787 0.006437 -0.001554 405941.000000 1 0 0
9.391236 -1.113703 -1.307740 9.547032 -0.118038 1.708207 0.003039 -0.001510 402201.000000 1 0 0
5.476636 0.194197 4.240760 6.929307 0.035444 0.912205 -0.001052 0.000780 -3384670.000000 1 0 0
-4.196864 -7.226003 -7.964240 11.543738 1.044614 2.332173 0.005478 -0.004494 -1153650.000000 1 0 0
-2.179264 7.489497 -0.544540 7.819098 -1.287639 1.640495 -0.007195 0.000205 77112.800000 1 0 0
13.397036 -3.378503 -7.376540 15.662317 -0.247032 2.061191 0.019453 -0.003090 1143300.000000 1 0 0
-4.905864 -5.073903 1.633660 7.244366 0.802234 1.343332 0.000847 -0.001490 1331650.000000 1 0 0
-8.844664 1.371197 2.573260 9.312891 -0.153807 1.290842 0.002786 -0.003890 -798567.000000 1 0 0
-1.030564 11.144297 10.223160 15.158181 -1.478584 0.830601 -0.008728 -0.000940 343104.000000 1 0 0
-8.487964 0.342497 7.381860 11.254097 -0.040329 0.855387 0.000792 -0.002861 -1767660.000000 1 0 0
-6.076264 12.972697 -2.142240 14.484511 -1.132756 1.719240 -0.006632 0.003163 1486840.000000 1 0 0
-12.953464 -0.700503 3.164960 13.352899 0.054026 1.331495 0.007058 -0.005414 534149.000000 1 0 0
-6.640564 12.764897 8.670660 16.799406 -1.091103 1.028471 0.000681 -0.003997 -242808.000000 1 0 0
-8.057964 0.922297 -14.182640 16.337952 -0.113962 2.622117 -0.005111 0.003749 -480606.000000 1 0 0
7.210936 2.818497 3.768960 8.610841 0.372606 1.117758 -0.001341 0.000445 -979540.000000 1 0 0
-1.765664 0.716697 -1.992240 2.756854 -0.385589 2.378424 0.001932 -0.004359 640913.000000 1 0 0
-6.153264 9.695397 -10.405240 15.496206 -1.005282 2.306987 -0.001825 -0.002308 -487656.000000 1 0 0
-10.070164 13.780297 5.200760 17.842441 -0.939719 1.275020 -0.005854 -0.001613 687271.000000 1 0 0
-5.682064 8.297397 2.446960 10.349892 -0.970344 1.332113 -0.006098 0.001627 -787230.000000 1 0 0
-2.407364 -10.728703 -1.260940 11.067539 1.350067 1.684976 0.003675 -0.000423 530344.000000 1 0 0
-2.376964 -12.444603 8.851660 15.455419 1.382066 0.960974 -0.003028 -0.000746 544692.000000 1 0 0
-14.579364 -6.436803 -1.508040 16.008263 0.415764 1.665140 0.010351 -0.003241 -157025.000000 1 0 0
-2.806364 -9.319903 3.205060 10.247374 1.278317 1.252689 0.000748 0.001306 -756475.000000 1 0 0
4.661336 -2.708003 7.517360 9.250515 -0.526294 0.622124 -0.002143 0.002746 -1893280.000000 1 0 0
-15.032064 -1.186203 -0.296640 15.081712 0.078748 1.590466 0.003713 -0.003889 106618.000000 1 0 0
5.469236 8.844897 -2.842240 10.780681 1.016994 1.837592 0.005878 -0.001729 -1995240.000000 1 0 0
-5.639264 -5.626503 8.592860 11.717341 0.784265 0.747566 0.000009 0.000776 -3328350.000000 1 0 0
3.462236 3.616997 7.029660 8.630520 0.807256 0.618909 -0.004957 0.001226 32863.600000 1 0 0
3.307436 2.498397 9.390460 10.264593 0.646941 0.415685 0.001055 -0.004440 -926083.000000 1 0 0
9.837436 -3.232703 5.188860 11.582305 -0.317496 1.106270 0.007869 -0.005270 -147590.000000 1 0 0
6.532336 9.975397 -5.026440 12.940056 0.991023 1.969735 0.008651 -0.005633 377926.000000 1 0 0
-4.485964 12.067797 -8.564840 15.463250 -1.214895 2.157818 -0.002468 -0.000282 -895329.000000 1 0 0
-3.356564 -7.160303 1.960360 8.147360 1.132440 1.327799 0.002796 0.001800 580066.000000 1 0 0
-7.486164 -4.004203 1.160860 8.568774 0.491161 1.434903 -0.001562 -0.001764 2229410.000000 1 0 0
-1.974364 -3.952903 -10.981940 11.837506 1.107571 2.759065 0.007796 -0.003714 -417894.000000 1 0 0
-5.246664 8.292597 -4.377840 10.745238 -1.006684 1.990425 -0.005382 0.000212 -2318550.000000 1 0 0
-10.945264 -3.244003 -10.076240 15.226719 0.288136 2.293943 0.004238 0.003108 71448.400000 1 0 0
4.598736 -11.456803 -7.723240 14.562113 -1.189086 2.129828 -0.004089 0.002358 -1233920.000000 1 0 0
-9.400564 -3.927903 7.251660 12.505423 0.395788 0.952213 0.000257 -0.002355 -1117140.000000 1 0 0
-5.734964 -9.698803 -5.135140 12.382498 1.036794 1.998420 0.004206 -0.004872 1115760.000000 1 0 0
4.806536 4.397397 -9.539940 11.552071 0.740975 2.542452 0.001316 0.000986 49994.200000 1 0 0
-3.377464 -7.133003 -14.001640 16.072738 1.128574 2.628320 -0.011580 0.005158 -130749.000000 1 0 0
0.616936 -0.852203 -8.779340 8.842153 -0.944189 3.022326 0.006307 -0.008645 -416623.000000 1 0 0
-7.730864 2.214697 -2.856840 8.534206 -0.279003 1.912138 0.003462 -0.004574 -104600.000000 1 0 0
-2.324964 7.531797 -12.549740 14.819899 -1.271389 2.580768 0.001429 -0.001158 -129330.000000 1 0 0
-9.767564 8.925697 7.598960 15.258361 -0.740393 1.049483 0.001389 -0.003441 -269806.000000 1 0 0
-10.719664 -2.975503 -14.384340 18.184445 0.270758 2.483278 0.002889 0.011901 -197505.000000 1 0 0
-3.169064 4.833397 7.940060 9.820858 -0.990453 0.629215 0.000528 -0.000357 -313496.000000 1 0 0
8.681236 -2.337703 -3.528540 9.658121 -0.263043 1.944799 0.000837 0.000322 -5373360.000000 1 0 0
1.908236 -8.482303 -1.132340 8.767726 -1.349514 1.700307 -0.000323 -0.000313 -1075510.000000 1 0 0
-13.610164 -2.716003 4.985660 14.746866 0.196969 1.225917 0.008505 -0.005869 192832.000000 1 0 0
7.136536 2.811797 -1.909940 7.904696 0.375324 1.814832 0.000853 -0.001464 897796.000000 1 0 0
-11.155964 4.392997 8.796960 14.870793 -0.375133 0.937804 0.000668 -0.002459 -3219810.000000 1 0 0
-1.760864 -2.423803 8.074460 8.612338 0.942513 0.355290 -0.001492 -0.000859 -1536270.000000 1 0 0
3.084236 11.879497 -9.811640 15.713155 1.316778 2.245188 0.003304 -0.007662 351344.000000 1 0 0
3.635336 -5.024503 -7.080440 9.412434 -0.944458 2.422256 -0.003367 -0.000063 701636.000000 1 0 0
8.163936 -13.778303 -9.863740 18.809169 -1.035894 2.122820 0.006692 0.009088 -617901.000000 1 0 0
-6.356264 -5.700303 -0.470440 8.550840 0.731045 1.625841 0.003936 -0.002488 -819406.000000 1 0 0
-1.182464 -3.997303 9.904360 10.745837 1.283183 0.398374 -0.004196 0.000630 391630.000000 1 0 0
2.837336 3.283597 1.816260 4.704390 0.858177 1.174420 -0.005795 0.000910 -788698.000000 1 0 0
-9.106564 13.311197 7.687160 17.866447 -0.970802 1.126019 -0.002315 -0.013848 -306733.000000 1 0 0
4.048536 -11.128503 0.039960 11.842120 -1.221882 1.567422 0.000041 -0.000791 -203583.000000 1 0 0
-12.470664 -1.446003 -8.946440 15.415809 0.115437 2.189945 0.006054 -0.004333 138846.000000 1 0 0
-4.417164 1.037197 -13.651740 14.386004 -0.230633 2.820718 0.003094 -0.003405 -697.044000 1 0 0
3.884436 -3.130903 4.967560 7.040458 -0.678396 0.787564 -0.001129 0.003948 81961.000000 1 0 0
1.679936 -1.175403 1.067060 2.311357 -0.610505 1.090931 0.003018 0.000906 511234.000000 1 0 0
8.073636 -8.883603 7.453060 14.129759 -0.833127 1.015173 0.012894 -0.002138 -330131.000000 1 0 0
-0.021464 2.443397 -6.438940 6.886987 -1.562012 2.778894 0.001536 -0.008138 -1805080.000000 1 0 0
-3.719664 -9.641403 -3.332940 10.858224 1.202590 1.882784 0.007306 -0.000175 482086.000000 1 0 0
-9.483764 2.277597 -5.401240 11.149109 -0.235694 2.076536 -0.000211 -0.001615 -104801.000000 1 0 0
8.888336 -7.628403 5.282760 12.849225 -0.709263 1.147098 0.007963 -0.000192 2116120.000000 1 0 0
-5.481364 -4.265203 4.625660 8.344701 0.661261 0.983247 0.000478 -0.000815 -694569.000000 1 0 0
-0.264964 -12.515303 10.405460 16.278102 1.549628 0.877299 0.009045 -0.003191 -1056060.000000 1 0 0
-14.108664 -8.253703 3.137660 16.644006 0.529324 1.381146 -0.004520 -0.002193 -978333.000000 1 0 0
10.901836 -1.445803 -3.539440 11.552835 -0.131851 1.882173 0.008010 0.000199 -342344.000000 1 0 0
-13.721864 3.065697 2.683060 14.313870 -0.219807 1.382236 0.003771 -0.002444 33118.100000 1 0 0
-6.291864 6.179597 0.970760 8.872280 -0.776397 1.461162 -0.001345 0.000309 55569.500000 1 0 0
7.003236 -6.879603 -0.470840 9.828323 -0.776493 1.618721 0.000741 -0.002388 -497132.000000 1 0 0
-6.921064 7.732497 10.037960 14.437912 -0.840716 0.802028 0.002190 -0.000845 194330.000000 1 0 0
-12.585264 -5.177303 -1.943840 13.746703 0.390276 1.712676 0.000696 -0.004437 -1872710.000000 1 0 0
-9.456464 -5.509003 0.208760 10.946114 0.527501 1.551724 -0.000403 -0.000972 -1827480.000000 1 0 0
-1.787564 1.871597 2.230360 3.416544 -0.808359 0.859506 -0.001403 -0.000059 -95066.700000 1 0 0
-7.026464 7.409797 7.571960 12.712627 -0.811945 0.932753 0.002229 -0.001512 -112566.000000 1 0 0
5.509936 7.200297 -0.354640 9.073557 0.917614 1.609891 0.003286 -0.004004 -1669030.000000 1 0 0
-0.055664 -3.847703 7.460660 8.394603 1.556330 0.476197 -0.001590 0.001621 -1523340.000000 1 0 0
6.334236 0.727897 13.051760 14.525867 0.114413 0.454414 0.004829 -0.004294 328889.000000 1 0 0
5.743736 6.071697 -7.908740 11.506701 0.813148 2.328584 -0.001834 -0.001079 -491330.000000 1 0 0
9.951936 5.228297 9.004760 14.403535 0.483725 0.895438 0.001825 0.000311 -1940790.000000 1 0 0
-1.272964 -4.897003 -8.466840 9.863491 1.316477 2.602943 0.005640 -0.002848 961095.000000 1 0 0
9.878036 -3.476503 -7.967040 13.158092 -0.338404 2.221173 0.007883 -0.002380 230225.000000 1 0 0
8.387936 -5.551703 1.232760 10.134030 -0.584673 1.448849 0.006477 -0.002305 1062790.000000 1 0 0
15.835936 3.006897 -4.828340 16.826502 0.187644 1.861836 0.025632 0.002790 -208467.000000 1 0 0
-6.757864 3.634097 0.942660 7.730718 -0.493396 1.448555 0.003508 -0.003993 403850.000000 1 0 0
-1.652164 3.725297 0.268360 4.084055 -1.153362 1.505040 -0.002084 -0.004492 -1303350.000000 1 0 0
-2.604464 10.090197 6.985660 12.545707 -1.318192 0.980248 -0.004208 0.003452 249342.000000 1 0 0
5.566136 -5.733003 -8.708540 11.818961 -0.800165 2.399163 -0.001912 0.000817 233469.000000 1 0 0
-1.301964 -0.788003 6.240660 6.423543 0.544264 0.239194 0.000416 -0.000301 -68113.800000 1 0 0
-5.617364 5.035397 -7.882640 10.910821 -0.730822 2.378151 0.000466 -0.001858 90888.000000 1 0 0
6.768436 -1.244403 2.567960 7.345385 -0.181823 1.213650 -0.000111 0.000402 -1396760.000000 1 0 0
8.793636 7.524697 3.261860 12.024510 0.707793 1.296087 0.008361 -0.002609 -87723.300000 1 0 0
-5.287764 -4.802203 -7.720940 10.518294 0.737312 2.395061 0.005189 -0.006280 1175940.000000 1 0 0
-2.171964 7.867897 -10.028840 12.930540 -1.301451 2.458451 -0.000650 0.000531 600092.000000 1 0 0
-2.798064 -2.167903 1.481660 3.837223 0.659177 1.174366 -0.001688 0.000530 -457373.000000 1 0 0
6.020736 -2.039603 -9.210140 11.190885 -0.326629 2.537475 -0.002277 0.002056 1389990.000000 1 0 0
0.996636 -7.590503 5.130260 9.215671 -1.440243 0.980402 -0.001763 0.001513 504614.000000 1 0 0
1.698036 11.872797 1.212060 12.054698 1.428741 1.470079 -0.002521 -0.003824 234309.000000 1 0 0
-0.948964 7.094897 2.455060 7.567392 -1.437832 1.240391 -0.008698 0.002800 703234.000000 1 0 0
8.781936 7.866197 -6.601540 13.512209 0.730448 2.081236 0.007662 -0.006111 42731.400000 1 0 0
3.699736 -11.151903 5.539060 12.989772 -1.250464 1.130268 0.007513 -0.003774 519909.000000 1 0 0
7.880636 -7.060203 12.370560 16.278257 -0.730541 0.707570 0.007967 0.000147 151456.000000 1 0 0
-8.678664 0.066697 -3.917540 9.522121 -0.007685 1.994802 0.004578 -0.005741 -1769940.000000 1 0 0
-3.246864 -5.027303 11.254960 12.747158 0.997347 0.488711 0.002405 -0.003932 1018070.000000 1 0 0
-8.194664 0.215997 -11.549640 14.163098 -0.026352 2.524344 -0.004545 -0.001713 -1425920.000000 1 0 0
1.313936 -5.040703 5.365160 7.477971 -1.315805 0.770644 -0.004154 0.003431 -408888.000000 1 0 0
6.714336 3.645497 -7.732040 10.869977 0.497409 2.362172 -0.000803 0.002164 -496499.000000 1 0 0
16.263436 4.234397 -1.476740 16.870395 0.254708 1.658443 0.007322 0.011242 -65622.800000 1 0 0
7.811136 7.537197 0.085060 10.854972 0.767552 1.562960 0.008327 -0.005216 -2456290.000000 1 0 0
5.376736 -10.448803 13.995360 18.274487 -1.095554 0.698447 0.002958 0.002726 -279183.000000 1 0 0
-5.353464 -9.035003 8.896260 13.763513 1.035891 0.867985 -0.003215 -0.003323 364450.000000 1 0 0
-12.701364 -3.160103 2.761060 13.376635 0.243849 1.362893 0.005254 -0.002554 562648.000000 1 0 0
-2.124464 -1.372403 -5.802740 6.329978 0.573558 2.730557 0.005090 -0.008556 -784107.000000 1 0 0
-2.542564 13.040597 -4.368440 13.985889 -1.378239 1.888458 -0.005646 0.005797 229405.000000 1 0 0
3.910536 -0.471303 -5.026440 6.385884 -0.119943 2.476918 0.001146 0.000316 -146916.000000 1 0 0
-8.849464 3.799897 -7.317040 12.095094 -0.405586 2.220511 -0.000816 0.000534 686829.000000 1 0 0
-4.462764 7.926497 -11.377240 14.566647 -1.058013 2.467137 0.001251 -0.000976 -2306470.000000 1 0 0
-10.144664 -6.433303 7.390860 14.104128 0.565157 1.019231 0.002122 -0.002012 -1535200.000000 1 0 0
8.133236 5.196897 4.099860 10.486473 0.568582 1.169115 0.000331 -0.001103 -982529.000000 1 0 0
-6.760264 -7.492203 3.920360 10.826056 0.836708 1.200252 0.000543 0.001800 -504009.000000 1 0 0
-4.098264 11.849497 8.147160 14.952678 -1.237815 0.994571 -0.005108 0.001452 -264652.000000 1 0 0
-7.088764 9.963397 -7.954140 14.587262 -0.952407 2.147519 -0.004164 -0.001240 -403732.000000 1 0 0
13.142936 5.470797 4.637060 14.972265 0.394439 1.255908 0.002479 0.001115 408654.000000 1 0 0
5.418336 4.045097 -3.760440 7.737059 0.641294 2.078337 -0.000367 0.000038 428969.000000 1 0 0
-2.856864 -4.167403 5.217160 7.262760 0.969850 0.769377 0.001654 0.000303 -735658.000000 1 0 0
12.462136 -2.369603 -5.229140 13.720924 -0.187901 1.961790 0.014707 -0.002315 -2474540.000000 1 0 0
-5.282664 9.899297 6.968460 13.208409 -1.080600 1.015050 -0.003069 0.003745 -297854.000000 1 0 0
1.766736 3.795297 -0.455940 4.211118 1.135122 1.679279 -0.004282 -0.001342 586030.000000 1 0 0
-0.099664 9.564197 7.653860 12.250118 -1.560376 0.895922 -0.004404 0.005435 -130655.000000 1 0 0
-5.388864 2.050797 5.860060 8.221067 -0.363638 0.777299 0.001887 -0.001254 728663.000000 1 0 0
8.808036 0.772197 10.619160 13.818261 0.087446 0.694322 0.010513 -0.000119 687147.000000 1 0 0
0.391936 -2.839303 -10.192240 10.587587 -1.433624 2.867456 0.005379 -0.004025 -1690960.000000 1 0 0
1.331536 10.721797 -2.574940 11.106766 1.447239 1.804760 -0.001033 -0.002737 -3334070.000000 1 0 0
2.212536 -4.261403 11.671560 12.620625 -1.091904 0.390286 -0.004408 0.000422 532352.000000 1 0 0
6.478936 -3.006903 9.521260 11.902624 -0.434521 0.643619 0.002541 -0.001014 564459.000000 1 0 0
-10.679764 -8.162303 5.659760 14.584699 0.652576 1.172269 0.006082 -0.002329 -1121900.000000 1 0 0
-2.870064 0.822897 -6.866340 7.487393 -0.279227 2.731424 0.006337 -0.008482 623366.000000 1 0 0
11.085336 2.734997 -5.044940 12.482640 0.241891 1.986853 0.003541 0.000863 -3011960.000000 1 0 0
-2.048264 -4.223903 -0.052140 4.694620 1.119284 1.581903 0.000561 -0.001920 1175260.000000 1 0 0
-1.241064 -6.396503 -10.614940 12.455217 1.379155 2.591065 0.002681 0.000540 899020.000000 1 0 0
0.374536 6.763897 -6.588840 9.450047 1.515480 2.342320 0.002242 0.000122 -2962070.000000 1 0 0
1.997736 3.844497 -6.097340 7.479884 1.091564 2.523810 0.000699 -0.001955 -2182940.000000 1 0 0
1.580736 -14.629703 6.516560 16.093243 -1.463164 1.153899 0.021473 -0.009493 -226607.000000 1 0 0
-1.744764 5.284697 -10.566840 11.942794 -1.251910 2.656835 0.002865 -0.001293 -278377.000000 1 0 0
13.706836 4.300797 -0.725840 14.384055 0.304042 1.621279 0.004316 0.006157 -18584.300000 1 0 0
-2.398064 3.354797 -6.126640 7.385194 -0.950196 2.549159 0.002764 -0.006159 -1189710.000000 1 0 0
5.730536 7.745497 14.210760 17.169085 0.933820 0.595809 0.013734 -0.004809 586125.000000 1 0 0
15.895236 0.569997 -5.799840 16.929901 0.035844 1.920458 0.020649 -0.001132 341516.000000 1 0 0
6.089136 -8.294303 10.593560 14.768092 -0.937527 0.770837 0.001151 0.003642 581911.000000 1 0 0
0.047236 -5.809103 -6.415840 8.655108 -1.562665 2.405768 0.000077 -0.000553 -1350960.000000 1 0 0
8.555136 5.507697 -7.492340 12.635673 0.571996 2.205515 0.004389 0.003163 -514407.000000 1 0 0
-16.017964 -0.713503 5.341560 16.900193 0.044514 1.249217 0.003662 -0.006050 -357288.000000 1 0 0
-0.446864 4.000997 -12.264040 12.907918 -1.459569 2.824409 0.006564 -0.004632 585478.000000 1 0 0
-11.340264 3.708197 5.842060 13.284653 -0.316034 1.115465 0.005028 -0.005803 578788.000000 1 0 0
5.080136 -9.806403 -9.733740 14.721379 -1.092819 2.293210 -0.008034 0.005322 -342466.000000 1 0 0
1.634136 11.044797 -11.689840 16.165095 1.423907 2.379153 0.006738 -0.000728 -3780670.000000 1 0 0
5.983236 2.440597 1.223560 6.576680 0.387303 1.383661 0.001887 0.000108 -607694.000000 1 0 0
5.733636 4.486597 4.936760 8.796348 0.663982 0.974927 -0.003718 0.000377 213403.000000 1 0 0
0.378936 -1.558403 -6.327740 6.527825 -1.332269 2.893363 0.003177 -0.004119 -486588.000000 1 0 0
12.746636 6.826097 -4.531140 15.152675 0.491659 1.874475 0.005339 -0.001243 -8572.640000 1 0 0
7.407036 3.126897 12.729360 15.055839 0.399456 0.563339 0.010258 -0.002411 -512149.000000 1 0 0
-2.417964 -0.067703 8.656060 8.987687 0.027992 0.272496 -0.002084 -0.001529 820808.000000 1 0 0
2.172536 -15.178703 13.343360 20.326293 -1.428631 0.854682 0.029604 -0.006040 594385.000000 1 0 0
18.877836 4.676097 -1.653840 19.518549 0.242816 1.655630 0.011086 0.008490 882456.000000 1 0 0
-0.545364 -13.220303 7.236460 15.081120 1.529568 1.070329 0.005365 -0.005348 -628409.000000 1 0 0
4.412036 1.598797 -0.550640 4.724978 0.347654 1.687600 0.000134 -0.000901 1056330.000000 1 0 0
2.715436 -0.473503 -7.412440 7.908354 -0.172639 2.785575 0.000984 -0.002916 -103030.000000 1 0 0
7.035736 -11.286603 0.863460 13.327961 -1.013370 1.505965 0.003482 -0.000155 -44470.900000 1 0 0
-11.849964 -7.392203 1.303560 14.027316 0.557748 1.477732 -0.000044 0.000827 36186.600000 1 0 0
0.103236 -7.067803 10.192460 12.403658 -1.556191 0.606356 -0.003796 -0.000752 -706809.000000 1 0 0
-4.670364 -7.125703 10.660360 13.646656 0.990617 0.674258 0.001118 -0.001238 -1060280.000000 1 0 0
11.734036 0.604097 -1.508940 11.846072 0.051437 1.698522 0.002171 -0.000191 1731700.000000 1 0 0
6.389536 -9.656903 -7.561740 13.829745 -0.986272 2.149302 -0.006811 0.003610 -709005.000000 1 0 0
-10.930164 4.832997 3.508760 12.455431 -0.416324 1.285225 0.002322 -0.003119 -923243.000000 1 0 0
5.952236 -9.149203 1.995960 11.095985 -0.994018 1.389931 0.001665 -0.003037 2895040.000000 1 0 0
11.545336 -1.414003 5.867060 13.027531 -0.121867 1.103629 0.008630 -0.007907 -497496.000000 1 0 0
-6.404164 3.633897 4.247960 8.500806 -0.516125 1.047529 0.000625 -0.003156 -2156870.000000 1 0 0
9.533136 6.300497 -3.123440 11.846215 0.584003 1.837617 0.005977 0.001719 -1127960.000000 1 0 0
-2.267164 6.576097 10.958860 12.980051 -1.238799 0.565567 -0.001566 0.000462 -423818.000000 1 0 0
1.832736 9.821697 2.960660 10.420661 1.386317 1.282714 -0.007176 0.000210 -140515.000000 1 0 0
2.907136 6.142897 -5.586840 8.797693 1.128776 2.258850 0.000642 -0.002009 -1857550.000000 1 0 0
11.823436 0.078697 -5.503340 13.041724 0.006656 2.006424 0.008340 -0.001196 204045.000000 1 0 0
-2.775664 -12.396603 6.221960 14.145418 1.350524 1.115357 -0.004690 -0.000057 28304.400000 1 0 0
10.762036 1.812897 -2.719340 11.247347 0.166886 1.814992 0.000508 0.000626 126172.000000 1 0 0
-8.805764 5.279897 0.909360 10.307557 -0.540122 1.482459 0.000386 -0.001755 43592.200000 1 0 0
1.142836 -10.164703 5.439860 11.585307 -1.458835 1.082017 -0.000343 -0.002453 982884.000000 1 0 0
9.323036 -5.753003 -1.283840 11.030153 -0.552879 1.687454 0.007458 -0.003660 477062.000000 1 0 0
-7.819264 8.561497 -4.473540 12.427900 -0.830678 1.939021 -0.005184 0.000905 -949101.000000 1 0 0
-7.479964 -0.015303 -1.622940 7.654021 0.002046 1.784456 0.002001 -0.004277 -2485320.000000 1 0 0
4.121336 8.915997 2.780660 10.208452 1.137810 1.294922 0.001933 -0.004011 -508528.000000 1 0 0
-1.285264 -10.532203 -3.774340 11.261653 1.449365 1.912560 0.005558 0.001052 -823673.000000 1 0 0
3.127236 7.919797 -3.668440 9.271475 1.194726 1.977593 0.004314 -0.004000 128953.000000 1 0 0
-4.401664 1.610297 -11.136840 12.082918 -0.350714 2.743240 0.003881 -0.005866 -663742.000000 1 0 0
1.290136 2.781297 11.044260 11.461926 1.136475 0.270787 0.003238 -0.003516 486039.000000 1 0 0
2.133036 5.564997 -7.992340 9.969781 1.204773 2.500857 0.001656 -0.000257 -580663.000000 1 0 0
15.661636 5.972897 4.017460 17.236656 0.364345 1.335556 0.017597 -0.002972 569829.000000 1 0 0
-4.408764 9.077397 4.573160 11.079266 -1.118665 1.145306 -0.002649 0.003717 204050.000000 1 0 0
-0.968464 -8.197303 -12.360340 14.863098 1.453197 2.552801 -0.002439 0.002953 -222885.000000 1 0 0
14.216236 -4.286103 -5.238040 15.745129 -0.292826 1.909937 0.017796 -0.001592 1369850.000000 1 0 0
-5.962164 -6.146803 -5.601640 10.232739 0.800645 2.150078 0.006065 -0.003170 402526.000000 1 0 0
-8.917064 2.570697 -12.223440 15.347149 -0.280679 2.492220 -0.004962 -0.000024 -623618.000000 1 0 0
10.537836 5.289797 13.786660 18.141112 0.465231 0.707533 0.021445 -0.001601 667436.000000 1 0 0
-0.435964 10.932697 5.564860 12.275244 -1.530940 1.100287 -0.005446 0.005980 688270.000000 1 0 0
0.077636 11.375397 -0.539240 11.388436 1.563972 1.618164 -0.002341 -0.002166 -300733.000000 1 0 0
-1.397764 -0.636003 3.593460 3.907839 0.427016 0.403858 -0.000076 0.001049 547680.000000 1 0 0
-4.825364 6.744397 8.793760 12.087235 -0.949768 0.756089 0.000376 0.002295 -2563010.000000 1 0 0
3.471636 -8.756703 -11.390740 14.781104 -1.193350 2.450623 -0.007352 0.006363 497658.000000 1 0 0
6.640436 -3.796703 12.027160 14.253523 -0.519392 0.566466 0.006234 -0.002281 -341951.000000 1 0 0
-2.618164 -1.833403 -12.577140 12.976925 0.610902 2.892728 0.004988 -0.006912 773340.000000 1 0 0
-16.091864 -4.896603 5.252560 17.621413 0.295388 1.268118 0.003345 -0.005160 1119920.000000 1 0 0
-8.955764 7.182297 5.841060 12.880571 -0.675944 1.100132 -0.002359 -0.000551 -1197100.000000 1 0 0
-12.819164 1.443497 6.036660 14.242750 -0.112132 1.133115 0.003554 -0.006742 558670.000000 1 0 0
-3.622764 3.671497 10.196360 11.426727 -0.792079 0.468325 0.003970 -0.000914 470345.000000 1 0 0
1.931236 -12.206203 -1.097540 12.406677 -1.413879 1.659376 0.002082 0.001273 -2482660.000000 1 0 0
10.352336 -5.052103 -3.671840 12.090368 -0.454014 1.879370 0.009058 -0.001597 540625.000000 1 0 0
2.906136 -13.378903 0.975260 13.725589 -1.356901 1.499682 0.003194 0.000620 559748.000000 1 0 0
9.985336 -1.687003 -6.023340 11.782764 -0.167368 2.107376 0.007355 -0.000216 220295.000000 1 0 0
11.895736 -5.539703 -1.569340 13.215887 -0.435823 1.689824 0.015026 -0.001645 866546.000000 1 0 0
1.503736 1.006697 5.910960 6.181757 0.589937 0.297084 -0.001938 0.000342 1026220.000000 1 0 0
-10.852064 11.693697 6.579260 17.256782 -0.822711 1.179641 -0.003545 -0.003376 -44126.900000 1 0 0
4.767636 -14.008503 2.939960 15.086811 -1.242754 1.374672 0.010435 -0.003578 -2709450.000000 1 0 0
5.220736 -3.418403 -1.706540 6.469454 -0.579724 1.837740 0.001952 -0.001601 -1697490.000000 1 0 0
2.011336 -2.943003 -7.679540 8.466526 -0.971278 2.707013 0.000692 -0.001575 -40383.900000 1 0 0
-2.715664 14.954097 -8.966540 17.646492 -1.391154 2.103797 0.007222 -0.001039 -1410410.000000 1 0 0
-2.275164 6.151297 -8.122040 10.439462 -1.216533 2.462294 0.003308 -0.003612 -519320.000000 1 0 0
2.647936 -3.507403 -11.216340 12.046564 -0.924131 2.768164 0.000735 0.001055 -1527570.000000 1 0 0
14.391836 2.704397 -2.632040 14.878385 0.185746 1.748636 0.008273 0.005730 624169.000000 1 0 0
-3.476464 13.224397 2.253760 13.858208 -1.313730 1.407441 -0.013482 0.004933 -598108.000000 1 0 0
7.876936 -4.969203 14.058660 16.863719 -0.562798 0.585089 0.009662 0.000024 -1167540.000000 1 0 0
-11.463064 7.238397 2.929860 13.870123 -0.563227 1.357958 -0.003477 -0.000340 655564.000000 1 0 0
-2.352764 11.920197 4.084360 12.818292 -1.375925 1.246507 -0.008138 0.004518 -99506.100000 1 0 0
1.841036 1.453897 0.630360 2.429112 0.668439 1.308289 -0.005882 0.000934 -1339190.000000 1 0 0
-6.894964 8.682897 5.278960 12.280092 -0.899672 1.126437 -0.003639 -0.001773 -630089.000000 1 0 0
-1.028164 9.165297 1.032760 9.280431 -1.459083 1.459282 -0.010029 0.001787 537995.000000 1 0 0
4.912236 12.769297 -8.408940 16.059118 1.203556 2.121896 0.004480 -0.015921 -1969860.000000 1 0 0
9.001236 6.905997 7.212160 13.443597 0.654436 1.004541 -0.000786 -0.001662 -1180660.000000 1 0 0
7.188036 -13.713603 2.915860 15.755412 -1.088013 1.384653 0.016776 -0.002472 611501.000000 1 0 0
4.106636 -13.434903 -1.267140 14.105556 -1.274147 1.660750 -0.002376 0.006834 -2852120.000000 1 0 0
12.103336 -11.787403 -4.703740 17.537353 -0.772175 1.842334 0.018197 0.007231 -1121260.000000 1 0 0
3.019436 -0.029203 -2.021940 3.634018 -0.009671 2.160834 -0.000193 -0.000551 348924.000000 1 0 0
-13.560864 -3.126203 -10.627340 17.510298 0.226573 2.222975 0.005443 -0.002893 409877.000000 1 0 0
-6.537764 13.693197 4.996160 15.975219 -1.125354 1.252715 -0.005722 -0.001107 174736.000000 1 0 0
7.353436 -4.297203 -0.603840 8.538360 -0.528855 1.641576 0.000862 0.000126 775561.000000 1 0 0
11.726836 2.021397 -7.233940 13.926041 0.170696 2.117008 0.011592 0.001214 -1164770.000000 1 0 0
-7.610864 -4.427603 9.673860 13.080997 0.526891 0.738416 0.001523 -0.000594 748891.000000 1 0 0
1.054236 2.812297 8.469460 8.986222 1.212143 0.340781 0.000124 -0.001302 -2296790.000000 1 0 0
1.581136 7.983497 -8.772740 11.966502 1.375276 2.393677 0.003912 -0.002473 -201333.000000 1 0 0
-8.494964 -1.948603 -5.612440 10.366337 0.225483 2.142910 0.008808 -0.005323 -1370790.000000 1 0 0
6.688736 -0.484403 7.252260 9.877708 -0.072294 0.746302 0.001191 -0.000814 52873.600000 1 0 0
-10.917964 6.612997 7.245160 14.677399 -0.544599 1.054541 0.004027 -0.003400 -127583.000000 1 0 0
-5.933664 11.067797 4.811160 13.448114 -1.078672 1.204931 -0.007006 0.002377 174547.000000 1 0 0
5.941636 -1.172003 -6.956140 9.223042 -0.194752 2.425251 -0.000656 0.001911 -1293030.000000 1 0 0
4.418436 -5.727203 11.444760 13.539053 -0.913688 0.563642 -0.001301 0.000574 -1500110.000000 1 0 0
-9.067164 -7.404503 2.611360 11.994137 0.684798 1.351319 -0.000536 0.001774 -2772750.000000 1 0 0
-1.245864 12.775897 -9.390640 15.904711 -1.473587 2.202389 0.013156 -0.000113 508483.000000 1 0 0
-4.626564 9.360697 -2.274140 10.686415 -1.111756 1.785243 -0.009358 0.000350 719391.000000 1 0 0
-3.147664 9.808897 -0.193440 10.303382 -1.260278 1.589572 -0.007732 0.002011 -1168350.000000 1 0 0
-3.491664 10.739297 -6.454240 13.006977 -1.256447 2.090029 -0.002647 0.001965 689150.000000 1 0 0
4.817636 -4.870503 0.307060 6.857528 -0.790855 1.526004 -0.000621 -0.000786 -1859650.000000 1 0 0
-2.294164 2.812897 -10.765940 11.361384 -0.886623 2.816404 0.006445 -0.002897 -1345770.000000 1 0 0
-3.530864 12.169497 -2.140940 12.850965 -1.288409 1.738174 -0.011993 0.004986 -513571.000000 1 0 0
-0.320964 0.327497 0.089460 0.467200 -0.795473 1.378124 -0.003012 0.000009 -722401.000000 1 0 0
-4.844264 -1.627303 0.063060 5.110674 0.324080 1.558457 -0.001449 -0.001833 310761.000000 1 0 0
2.600636 2.520297 -2.495440 4.398002 0.769711 2.174145 -0.008273 -0.000379 3023990.000000 1 0 0
5.946536 -9.848403 8.472460 14.287579 -1.027582 0.936023 0.003484 0.001080 -318000.000000 1 0 0
-4.212064 -5.441903 6.639660 9.562472 0.912108 0.803286 0.002213 -0.000693 37604.700000 1 0 0
-6.290864 5.282697 -12.147240 14.664150 -0.698508 2.546975 0.002870 -0.003234 2117440.000000 1 0 0
-13.097964 3.149097 7.906160 15.619887 -0.235948 1.040070 0.005016 -0.003761 666661.000000 1 0 0
4.707736 -7.483803 -4.981840 10.148340 -1.009285 2.083921 -0.004884 -0.000447 -175517.000000 1 0 0
-5.828564 2.431097 -1.136940 6.416777 -0.395161 1.748919 0.001319 -0.003984 -460065.000000 1 0 0
-6.894864 -2.712103 -14.532340 16.312068 0.374761 2.670108 0.003066 -0.000840 461620.000000 1 0 0
2.795036 -6.024003 0.927660 6.705325 -1.136375 1.432004 -0.000020 -0.001416 -319226.000000 1 0 0
4.767336 -7.943003 13.004660 15.966840 -1.030235 0.618965 -0.001803 0.002309 -399371.000000 1 0 0
-9.954564 -1.700003 8.073560 12.929259 0.169144 0.896381 0.005575 -0.002837 -45960.300000 1 0 0
-4.473864 13.442897 -0.082440 14.168054 -1.249521 1.576615 -0.010947 0.004916 543766.000000 1 0 0
6.762536 2.276497 -4.454640 8.411786 0.324718 2.128891 -0.000188 0.001937 -1187500.000000 1 0 0
4.960136 4.581197 0.081160 6.752548 0.745704 1.558777 -0.002356 -0.000887 -1148960.000000 1 0 0
-5.910264 12.428297 1.895060 13.891906 -1.126900 1.433955 -0.008648 0.004953 -1886600.000000 1 0 0
6.473036 -7.323103 6.661660 11.828176 -0.846937 0.972540 0.002834 0.002029 -883744.000000 1 0 0
-0.256364 4.961997 7.708360 9.170930 -1.519177 0.572552 -0.001721 0.000955 -1385070.000000 1 0 0
-5.876564 -3.347903 -1.575840 6.944475 0.517845 1.799710 0.001151 -0.003862 -694037.000000 1 0 0
2.284236 -6.600103 -5.238440 8.730426 -1.237608 2.214324 -0.002989 0.000653 -1666400.000000 1 0 0
-14.517664 -4.891303 -3.681040 15.755554 0.324976 1.806610 0.009378 -0.006466 -92014.200000 1 0 0
-12.337464 -5.128403 -6.289540 14.767256 0.393948 2.010765 0.009427 -0.007613 -1750250.000000 1 0 0
-14.727964 -3.783303 -1.185140 15.252241 0.251442 1.648577 0.004212 -0.003348 517553.000000 1 0 0
11.798636 2.835097 8.745160 14.957387 0.235819 0.946321 0.009976 -0.003191 -1274550.000000 1 0 0
8.685536 -6.400303 7.639560 13.219882 -0.635059 0.954663 0.010579 -0.001429 117371.000000 1 0 0
-8.814564 -1.672103 -9.706440 13.217694 0.187470 2.395508 -0.002785 -0.002306 93708.400000 1 0 0
-8.863564 5.070697 -3.776840 10.887574 -0.519640 1.925054 0.001613 -0.004235 -1240340.000000 1 0 0
-4.071464 -6.256403 4.143160 8.537281 0.993882 1.064088 0.004976 -0.000700 -1101830.000000 1 0 0
-0.204364 -9.178303 3.447760 9.806633 1.548534 1.211544 0.001922 -0.002423 655485.000000 1 0 0
7.893836 -10.504103 3.232560 13.531381 -0.926336 1.329570 0.006749 -0.000929 181602.000000 1 0 0
-0.021864 6.478897 9.634460 11.610315 -1.567422 0.592013 -0.003892 -0.001801 902297.000000 1 0 0
-0.007864 3.439397 -9.740540 10.329938 -1.568510 2.802157 0.006994 -0.004433 -787784.000000 1 0 0
4.381036 -3.076703 11.079960 12.305490 -0.612253 0.450090 0.000188 -0.002335 -2011340.000000 1 0 0
8.545836 -9.149103 1.253560 12.582082 -0.819478 1.471000 0.003945 -0.001033 -740753.000000 1 0 0
-0.303564 -0.305103 11.293460 11.301659 0.787925 0.038092 0.004502 -0.001983 -1528320.000000 1 0 0
10.795236 5.856097 11.289160 16.681611 0.497044 0.827467 0.022996 -0.004207 -278388.000000 1 0 0
-6.344064 -2.923103 -11.935040 13.828841 0.431767 2.612082 0.002200 -0.001632 -189095.000000 1 0 0
-1.597364 2.952397 8.561160 9.195743 -1.074858 0.373676 0.003020 -0.003437 -683366.000000 1 0 0
-1.769464 13.520897 -6.860540 15.264753 -1.440667 2.036931 0.001603 -0.000374 114792.000000 1 0 0
7.756136 3.078497 9.786360 12.861090 0.377841 0.706055 0.001458 0.000348 469913.000000 1 0 0
6.527336 8.433697 -7.936540 13.293684 0.912137 2.210572 0.007707 -0.004732 177978.000000 1 0 0
6.574136 -2.976003 -3.928140 8.216212 -0.425083 2.069282 0.002494 -0.000522 -3132630.000000 1 0 0
1.957036 8.247997 1.009660 8.536912 1.337830 1.452249 -0.002460 -0.001514 923249.000000 1 0 0
-17.579664 6.401497 6.429760 19.782962 -0.349218 1.239769 0.018187 -0.002346 385406.000000 1 0 0
-14.356964 2.979097 -10.203540 17.863641 -0.204598 2.178752 -0.001625 -0.002419 -260515.000000 1 0 0
-18.383764 0.056497 -4.256740 18.870236 -0.003073 1.798334 0.012405 0.001820 854399.000000 1 0 0
-12.861764 8.085397 0.168660 15.192994 -0.561211 1.559695 0.004914 0.001487 13869.500000 1 0 0
-12.463764 -4.347003 -12.572940 18.229664 0.335580 2.331866 -0.000741 0.005469 -784671.000000 1 0 0
-17.358964 -0.842203 -8.622640 19.400847 0.048479 2.031353 0.006300 -0.005388 175932.000000 1 0 0
-16.647964 -2.141503 -2.065440 16.911735 0.127932 1.693233 0.004244 -0.003573 -764247.000000 1 0 0
-15.340164 4.207297 1.601460 15.987078 -0.267684 1.470456 0.007664 -0.001031 -880578.000000 1 0 0
-13.134264 5.906297 4.353360 15.044766 -0.422593 1.277238 0.002132 -0.003454 -142492.000000 1 0 0
-9.968164 14.173497 2.672660 17.532696 -0.957862 1.417761 0.006401 -0.004126 70629.000000 1 0 0
-11.882764 2.428497 -6.435940 13.730222 -0.201595 2.058663 0.001308 -0.000546 -67559.400000 1 0 0
-15.783064 10.663297 3.721060 19.407661 -0.594173 1.377870 0.010483 -0.002123 -101518.000000 1 0 0
-12.834364 1.045297 -8.519640 15.440136 -0.081266 2.155300 -0.000666 -0.002863 562827.000000 1 0 0
-12.323264 14.276797 3.896860 19.258123 -0.858707 1.367040 0.016114 -0.013226 289647.000000 1 0 0
-10.482764 11.308397 -1.149940 15.462554 -0.823268 1.645234 0.003714 -0.000407 -23561.300000 1 0 0
-16.978664 5.466597 8.791760 19.886020 -0.311488 1.112849 0.003130 -0.006432 347171.000000 1 0 0
-11.676164 12.524597 -9.281940 19.476980 -0.820442 2.067533 0.010275 -0.010728 -1576950.000000 1 0 0
-17.198564 -0.413303 3.112960 17.482905 0.024027 1.391784 0.003507 -0.006032 394659.000000 1 0 0
-12.966964 14.876297 -0.971440 19.758292 -0.853865 1.619982 0.035125 -0.012081 170644.000000 1 0 0
-16.514164 4.417897 -10.331640 19.974439 -0.261400 2.114423 0.025552 -0.001443 1078300.000000 1 0 0
-11.810364 7.643297 -9.073740 16.740294 -0.574382 2.143647 0.001974 0.003538 251978.000000 1 0 0
-14.835064 13.498597 -2.179040 20.175219 -0.738264 1.679013 0.055735 -0.018639 526409.000000 1 0 0
-11.750064 10.601297 -5.383240 16.716183 -0.734048 1.898677 0.015412 -0.008773 1818370.000000 1 0 0
-17.728664 3.040397 -0.685840 18.000554 -0.169844 1.608907 0.016730 -0.003692 -576996.000000 1 0 0
-9.261464 15.404397 0.523860 17.981786 -1.029479 1.541659 0.010612 -0.007827 50810.500000 1 0 0
-8.108164 13.252397 -3.790540 15.991765 -1.021726 1.810105 0.002996 -0.004843 -1105320.000000 1 0 0
-17.816364 11.670197 2.325460 21.424848 -0.579901 1.462042 0.064866 0.007494 155818.000000 1 0 0
-8.029264 15.631597 -7.423040 19.076620 -1.096284 1.970469 0.031365 -0.020750 81683.700000 1 0 0
-6.216664 15.259897 -5.603640 17.404372 -1.183939 1.898603 0.005154 -0.002417 -202147.000000 1 0 0
-17.369764 5.551497 -0.276640 18.237444 -0.309346 1.585966 0.026632 0.000595 585921.000000 1 0 0
-5.384564 12.352197 -12.230440 18.197636 -1.159713 2.307823 -0.006669 -0.001766 -404434.000000 1 0 0
-11.145164 3.723497 -11.429340 16.392343 -0.322432 2.342331 0.002075 -0.003443 543460.000000 1 0 0
-11.731764 11.135597 1.159660 16.216678 -0.759333 1.499225 0.005829 -0.001357 156751.000000 1 0 0
-12.957064 0.078497 -10.975740 16.981123 -0.006058 2.273587 0.004090 -0.005034 1340980.000000 1 0 0
-13.812064 -2.117503 -13.068340 19.132131 0.152124 2.322737 -0.007013 0.001356 -365591.000000 1 0 0
-18.732464 -2.414203 -3.624040 19.231933 0.128171 1.760368 0.004005 0.005713 -329341.000000 1 0 0
-18.116764 4.633197 -5.259440 19.425380 -0.250375 1.844969 0.014593 -0.003694 -573726.000000 1 0 0
-8.202464 15.617297 -2.388740 17.801306 -1.087180 1.705391 0.016017 -0.008030 -364171.000000 1 0 0
-16.211264 9.039697 -5.476240 19.352272 -0.508673 1.857692 0.049031 -0.003296 525711.000000 1 0 0
-18.304864 1.728597 2.047260 18.499929 -0.094155 1.459906 0.018883 -0.007156 -335249.000000 1 0 0
-15.669364 -2.825703 -8.615440 18.103573 0.178415 2.066780 0.002264 -0.006385 -844821.000000 1 0 0
-9.630064 10.489097 -7.227940 15.968795 -0.828070 2.040508 0.002694 -0.008114 1056130.000000 1 0 0
-13.704764 12.213797 -7.621440 19.876714 -0.727936 1.964310 0.026005 -0.015171 -546762.000000 1 0 0
-11.049264 6.445097 -3.818340 13.349354 -0.528054 1.860879 -0.000486 0.001328 -1872770.000000 1 0 0
-13.155964 5.026997 -12.578940 18.883321 -0.364988 2.299818 0.013927 -0.000652 762067.000000 1 0 0
-17.674664 9.191197 2.678760 20.100936 -0.479536 1.437133 0.044296 -0.004524 666930.000000 1 0 0
-13.301964 8.767197 -6.503140 17.207464 -0.582739 1.958351 0.010673 -0.000410 -590314.000000 1 0 0
-15.770864 6.998697 -3.828540 17.673699 -0.417664 1.789151 0.021312 0.003919 -91745.900000 1 0 0
-14.868364 -0.484403 -9.246740 17.515853 0.032568 2.126931 0.008058 -0.010236 -1232100.000000 1 0 0
-9.869464 5.903197 -5.986340 12.964965 -0.539041 2.050743 0.000613 0.002962 574784.000000 1 0 0
-12.827064 12.267897 -0.849040 17.769518 -0.763120 1.618595 0.027651 -0.006556 -950994.000000 1 0 0
-10.653364 3.450497 -13.962240 17.898163 -0.313226 2.465611 0.000188 0.000627 474489.000000 1 0 0
-10.919764 6.306897 -11.927540 17.357546 -0.523761 2.328379 -0.002403 0.000475 -86855.900000 1 0 0
-5.702264 11.583397 -14.804840 19.643681 -1.113345 2.424423 0.002563 -0.012393 -154413.000000 1 0 0
-15.472064 13.333897 3.627260 20.744508 -0.711307 1.395039 0.022769 -0.013052 75637.300000 1 0 0
-15.005664 11.101697 -3.271240 18.950426 -0.636963 1.744286 0.044964 -0.005621 692459.000000 1 0 0
-18.208064 7.713297 -4.482640 20.276159 -0.400701 1.793717 0.045669 -0.001123 493084.000000 1 0 0
-4.145764 16.320597 -10.614540 19.905218 -1.322037 2.133239 0.015911 0.000137 -195734.000000 1 0 0
-15.656064 4.426797 -4.446240 16.866474 -0.275560 1.837563 0.011447 0.002775 1280900.000000 1 0 0
-18.842964 -1.776903 -6.150940 19.900973 0.094023 1.885019 0.014241 0.000735 557061.000000 1 0 0
-10.734264 8.592797 -5.860040 14.946594 -0.675047 1.973672 0.000564 0.000456 919545.000000 1 0 0
-11.169464 13.527697 -6.861240 18.836989 -0.880596 1.943616 0.012152 -0.013683 -56079.600000 1 0 0
-9.334364 10.512397 -4.524340 14.768565 -0.844685 1.882152 -0.004137 -0.001248 -1243490.000000 1 0 0
-10.830264 6.486597 -0.130540 12.624881 -0.539634 1.581136 0.003354 0.002330 -830388.000000 1 0 0
-14.425464 9.405597 -1.408740 17.278421 -0.577789 1.652419 0.028093 -0.001215 1315530.000000 1 0 0
-18.660464 3.390597 4.552360 19.504693 -0.179739 1.335225 0.012837 -0.003097 216143.000000 1 0 0
-14.632764 13.413997 0.436360 19.855567 -0.741971 1.548818 0.028057 -0.001137 -115190.000000 1 0 0
-16.627764 2.304797 -8.897140 18.998782 -0.137734 2.058163 0.003448 -0.007174 1112560.000000 1 0 0
-9.052364 8.426797 -8.842340 15.203394 -0.749624 2.191494 -0.000417 -0.000547 -422005.000000 1 0 0
-17.570364 4.716997 -2.703040 18.392232 -0.262279 1.718297 0.010849 0.000572 946875.000000 1 0 0
-13.482064 5.859197 -4.442240 15.356749 -0.409967 1.864260 0.006777 0.006088 -415489.000000 1 0 0
-12.105264 9.643097 3.212560 15.806559 -0.672667 1.366128 -0.005612 -0.001124 107094.000000 1 0 0
-17.413464 2.448197 -4.024740 18.039427 -0.139677 1.795798 0.005283 0.002004 767574.000000 1 0 0
-11.321264 1.479997 -12.519840 16.944256 -0.129990 2.402209 0.000708 -0.001869 217458.000000 1 0 0
-11.031164 12.021297 3.462360 16.678912 -0.828323 1.361687 0.000559 -0.004410 594562.000000 1 0 0
-16.033764 13.233597 -4.448040 21.260168 -0.690013 1.781573 0.045595 -0.008707 508165.000000 1 0 0
-11.144464 4.116497 -4.651540 12.758584 -0.353831 1.943979 -0.003446 0.000381 -147968.000000 1 0 0
-10.985264 15.075797 -8.911240 20.672830 -0.941087 2.016464 0.017010 -0.015116 144822.000000 1 0 0
-15.400164 7.294797 -0.354440 17.044200 -0.442373 1.591593 0.019468 0.002607 211274.000000 1 0 0
-12.613264 8.439697 -3.935740 15.678424 -0.589694 1.824540 0.008397 -0.001147 574661.000000 1 0 0
-19.121564 1.965297 -5.918340 20.112766 -0.102419 1.869475 0.014303 -0.002311 -140995.000000 1 0 0
-12.632564 10.114697 -8.815240 18.428164 -0.675158 2.069579 0.011693 -0.010345 704585.000000 1 0 0
-16.542764 11.087497 -1.165640 19.948794 -0.590467 1.629261 0.038767 -0.001461 550280.000000 1 0 0
-10.738164 6.601297 -14.496540 19.210283 -0.551195 2.425877 0.012496 -0.003481 -416121.000000 1 0 0
-13.476264 12.973797 -4.314540 19.197510 -0.766404 1.797477 0.031650 -0.014994 -128987.000000 1 0 0
-17.927164 7.955697 -0.228840 19.614503 -0.417668 1.582463 0.041547 0.000210 -42954.100000 1 0 0
-12.628964 6.690697 -2.037840 14.436376 -0.487195 1.712429 0.002257 0.003231 467782.000000 1 0 0
-13.781964 8.447497 -10.610340 19.336030 -0.549879 2.151646 0.009947 0.001613 268765.000000 1 0 0
-14.995964 1.473597 -0.973040 15.099578 -0.097952 1.635283 0.005857 -0.003029 -845321.000000 1 0 0
-13.367764 2.769297 -2.414240 13.863430 -0.204273 1.745833 -0.001740 -0.000605 -524080.000000 1 0 0
-11.283264 9.336097 -10.941640 18.280980 -0.691243 2.212456 0.002560 -0.004107 561226.000000 1 0 0
-15.060664 4.167297 -8.010840 17.560283 -0.269947 2.044506 -0.002185 0.005740 508201.000000 1 0 0
-18.159864 10.684797 4.768160 21.602799 -0.531827 1.348244 0.044748 -0.013491 172915.000000 1 0 0
-15.370964 6.120597 -6.212340 17.672618 -0.378947 1.929994 0.020050 0.006065 698687.000000 1 0 0
-7.634664 11.295997 -13.027540 18.857477 -0.976447 2.333449 -0.004737 -0.002738 -1265270.000000 1 0 0
-16.741964 9.238197 -2.831640 19.330180 -0.504223 1.717813 0.043723 -0.002156 1139310.000000 1 0 0
-20.769964 -1.123703 -4.695440 21.323726 0.054050 1.792814 0.020505 0.000701 369984.000000 1 0 0
-15.445664 4.458597 4.131660 16.598743 -0.281024 1.319237 0.006483 -0.003019 210932.000000 1 0 0
-6.915764 12.674397 -9.502440 17.284806 -1.071300 2.152869 0.003286 -0.003252 -1543210.000000 1 0 0
-17.276264 1.474997 5.688160 18.248290 -0.085171 1.253805 0.008104 -0.006649 -113371.000000 1 0 0
-10.318164 14.441397 -3.183540 18.032010 -0.950415 1.748276 0.023838 -0.015203 240094.000000 1 0 0
-9.988664 8.505797 -12.911440 18.407262 -0.705390 2.348201 -0.006448 -0.004196 238521.000000 1 0 0
-13.656164 11.685097 2.752260 18.182609 -0.707774 1.418845 0.010475 -0.004626 -286513.000000 1 0 0
-16.768664 6.854197 1.839360 18.208552 -0.388027 1.469607 0.021148 0.000198 774290.000000 1 0 0
-9.290164 13.164097 -8.465240 18.200574 -0.956242 2.054553 0.012969 -0.016208 -2032060.000000 1 0 0
-5.534564 9.845297 -12.913540 17.155780 -1.058670 2.422984 0.001268 -0.002697 -661837.000000 1 0 0
-15.981664 2.019797 3.142460 16.412441 -0.125716 1.378139 0.004811 -0.003418 -451019.000000 1 0 0
-18.601264 -4.955503 4.281660 19.720463 0.260360 1.351936 0.011989 -0.008447 -255851.000000 1 0 0
-5.223964 14.539697 -9.047840 17.904078 -1.225870 2.100585 0.004754 -0.004719 -1184800.000000 1 0 0
-15.450864 -0.918403 -6.775940 16.896332 0.059370 1.983438 0.005690 -0.002883 801525.000000 1 0 0
-8.828864 10.898697 -9.651040 17.025658 -0.889937 2.173477 -0.007707 -0.008148 446661.000000 1 0 0
-16.718964 1.171497 -6.076440 17.827487 -0.069956 1.918614 -0.000170 -0.004370 -1253140.000000 1 0 0
-10.946164 8.736197 -1.607040 14.096887 -0.673585 1.685044 0.006249 -0.001020 260483.000000 1 0 0
-10.730764 11.039997 -12.819540 20.034257 -0.799601 2.265140 0.006146 0.000691 -152392.000000 1 0 0
-14.004064 11.871697 -10.151840 20.978819 -0.703176 2.075912 0.028408 -0.007107 -651899.000000 1 0 0
-13.163764 5.874097 -7.597340 16.294456 -0.419716 2.055847 0.006990 0.003238 -237391.000000 1 0 0
-8.879564 15.395697 -4.983740 18.458381 -1.047643 1.844188 0.022268 -0.016737 1060570.000000 1 0 0
-8.551364 6.240397 -13.057240 16.809518 -0.630418 2.460327 -0.000340 -0.002868 -113032.000000 1 0 0
-16.495564 7.400397 4.260360 18.574719 -0.421714 1.339373 0.026002 -0.001447 82209.900000 1 0 0
-12.613964 5.445097 -10.117240 17.062231 -0.407508 2.205528 0.003832 -0.000250 383163.000000 1 0 0
-12.520664 9.210797 -13.345740 20.486937 -0.634252 2.280260 0.022371 -0.000893 -597331.000000 1 0 0
-10.742464 5.261897 -8.362040 14.594924 -0.455472 2.180887 -0.001504 0.001119 -1105410.000000 1 0 0
-17.700064 -4.476803 -2.545540 18.434039 0.247730 1.709328 0.006877 -0.000790 537201.000000 1 0 0
-8.830364 13.148597 -11.024440 19.297648 -0.979398 2.178866 0.010831 -0.009208 -71763.500000 1 0 0
-14.973964 6.158597 6.075160 17.293221 -0.390199 1.211834 0.000930 -0.004361 840047.000000 1 0 0
-16.366064 -3.208303 -4.459540 17.263509 0.193579 1.832081 0.003527 -0.001275 -786059.000000 1 0 0
-11.164264 -1.141203 -12.486240 16.788369 0.101865 2.409449 -0.004647 0.004212 -489693.000000 1 0 0
-15.361464 6.704697 -8.671840 18.871363 -0.411539 2.048255 0.013383 0.003634 273777.000000 1 0 0
-14.861364 9.330297 1.222460 17.590026 -0.560626 1.501243 0.022647 -0.002870 -194427.000000 1 0 0
-19.344564 5.301097 7.799060 21.520668 -0.267469 1.199956 0.025079 -0.010680 -1623190.000000 1 0 0
-16.322764 0.566197 0.921360 16.358549 -0.034674 1.514444 0.006257 -0.006179 -156227.000000 1 0 0
-17.429464 3.781797 6.845560 19.103662 -0.213665 1.204310 0.000884 -0.002756 710670.000000 1 0 0
-15.408664 4.116997 -1.345540 16.005845 -0.261088 1.654961 0.010714 0.000797 -1094100.000000 1 0 0
-10.801564 13.395397 0.348160 17.211382 -0.892187 1.550566 0.012945 -0.007816 -926074.000000 1 0 0
-13.450364 3.407797 0.051460 13.875447 -0.248139 1.567088 0.004464 -0.001573 -687151.000000 1 0 0
-15.138464 0.046597 -4.290940 15.734911 -0.003078 1.846997 0.002156 -0.000023 -398384.000000 1 0 0
-18.818464 6.839597 3.384160 20.306827 -0.348608 1.403364 0.038874 -0.005220 -513310.000000 1 0 0
-14.128664 1.273497 -6.229840 15.493607 -0.089893 1.984596 0.000761 -0.002965 -1418260.000000 1 0 0
-14.073964 11.882197 5.358060 19.182594 -0.701157 1.287712 0.007536 -0.012124 372811.000000 1 0 0
17.736136 5.448097 6.373560 19.618220 0.298026 1.239912 0.038023 -0.008696 540427.000000 1 0 0
18.480736 7.557097 -0.250440 19.967725 0.388170 1.583339 0.011762 0.009614 344138.000000 1 0 0
16.373336 5.245697 8.669760 19.255342 0.310048 1.103749 0.039588 -0.002053 137559.000000 1 0 0
11.512736 12.358897 10.964960 20.137423 0.820830 0.994996 0.033411 -0.010851 362001.000000 1 0 0
-2.192764 16.385797 -0.534640 16.540508 -1.437766 1.603125 -0.015083 0.005742 18486.800000 1 0 0
15.125036 12.638997 3.363960 19.995679 0.696095 1.401758 0.031292 -0.006820 -26187.900000 1 0 0
13.391836 11.673897 6.555760 18.936714 0.716968 1.217286 0.028253 -0.011303 709370.000000 1 0 0
-0.627264 15.815997 8.656660 18.040981 -1.531157 1.070332 -0.007219 0.001681 -20781.200000 1 0 0
0.739036 12.898997 9.499260 16.036404 1.513565 0.936816 -0.006047 0.001491 -2253410.000000 1 0 0
0.799536 15.482197 -3.924440 15.991839 1.519200 1.818731 -0.003759 -0.000858 6291.900000 1 0 0
5.261036 10.130297 13.635460 17.782778 1.091799 0.696988 0.008762 -0.009942 230838.000000 1 0 0
-1.207764 16.402997 -2.862140 16.694576 -1.497298 1.743089 -0.007221 -0.002394 -1330050.000000 1 0 0
8.679036 10.079597 3.393360 13.727303 0.859922 1.321009 0.011295 -0.002786 305969.000000 1 0 0
12.558736 13.829997 -4.842540 19.298727 0.833535 1.824432 0.028835 -0.011827 -453179.000000 1 0 0
2.419636 11.585797 7.755360 14.150299 1.364911 0.990741 0.000903 0.003805 250060.000000 1 0 0
-0.373164 15.031197 -8.636240 17.339573 -1.545975 2.092163 0.011020 -0.003309 -1884680.000000 1 0 0
2.308436 15.952697 0.263560 16.121008 1.427089 1.554447 -0.000578 -0.005701 -1084630.000000 1 0 0
1.736036 13.348197 5.263560 14.453140 1.441465 1.198043 0.000123 0.004526 -405662.000000 1 0 0
17.670436 9.285497 -2.048440 20.066411 0.483825 1.673057 0.010707 0.013086 765984.000000 1 0 0
-7.256064 14.896197 7.300760 18.106581 -1.117515 1.155774 0.000401 -0.006199 -177069.000000 1 0 0
8.446236 15.780797 -0.254240 17.900757 1.079369 1.585000 0.006957 -0.014967 -660995.000000 1 0 0
15.727536 10.368897 2.095360 18.954154 0.582873 1.460021 0.021660 0.001098 553898.000000 1 0 0
14.087036 7.482897 8.723560 18.180727 0.488287 1.070342 0.028904 -0.009788 -1083910.000000 1 0 0
4.161736 18.486797 -1.794140 19.034197 1.349368 1.665195 0.001774 -0.012184 -477978.000000 1 0 0
-0.381764 17.604097 -4.935340 18.286814 -1.549114 1.844070 0.004426 -0.002492 15866.200000 1 0 0
1.276536 13.751097 -0.765140 13.831401 1.478230 1.626144 -0.003880 -0.005621 -51506.100000 1 0 0
10.153736 14.822197 4.163860 18.442712 0.970184 1.343060 0.018350 -0.011188 1783530.000000 1 0 0
-1.701964 15.379697 -5.214140 16.328473 -1.460582 1.895817 0.000138 0.000572 467856.000000 1 0 0
15.101136 8.826497 -6.251040 18.574898 0.528939 1.914028 0.019263 -0.005617 452179.000000 1 0 0
-2.250764 18.677697 0.768660 18.828520 -1.450869 1.529961 -0.011783 0.002450 -1063870.000000 1 0 0
-3.632664 19.360997 3.479660 20.003812 -1.385325 1.395957 -0.008617 -0.005786 38963.000000 1 0 0
1.887936 17.701297 -2.826240 18.024646 1.464543 1.728245 -0.008771 -0.001787 -313678.000000 1 0 0
2.754236 12.266297 3.232260 12.980577 1.349923 1.319141 -0.000370 0.000108 -109612.000000 1 0 0
-2.557364 16.327397 1.876460 16.632652 -1.415428 1.457738 -0.012760 0.004423 -453645.000000 1 0 0
11.940136 12.884297 -2.622740 17.760933 0.823413 1.719007 0.014730 -0.002016 762290.000000 1 0 0
7.142136 11.591297 4.777860 14.429007 1.018577 1.233297 0.006636 -0.002477 -7560.820000 1 0 0
7.078136 15.641697 1.854060 17.268475 1.145851 1.463222 0.004022 -0.012980 -2126950.000000 1 0 0
5.516036 12.257697 10.372860 16.978634 1.147938 0.913554 0.003600 0.009029 -113605.000000 1 0 0
-1.430664 14.262297 3.228560 14.692976 -1.470820 1.349254 -0.009589 0.004524 -1359480.000000 1 0 0
4.561036 16.003397 1.509160 16.708960 1.293153 1.480353 -0.003521 -0.014294 -1528350.000000 1 0 0
7.405236 13.250997 11.936660 19.310886 1.061189 0.904433 0.015440 0.000137 332725.000000 1 0 0
1.129336 17.212897 -9.331440 19.612114 1.505280 2.066669 0.017142 -0.006725 189792.000000 1 0 0
9.871536 9.401797 15.437860 20.595353 0.761031 0.723369 0.032425 -0.014910 -382821.000000 1 0 0
13.571436 7.545797 -0.144140 15.528802 0.507443 1.580079 0.003024 0.006217 328487.000000 1 0 0
12.335436 13.692697 -0.057540 18.429765 0.837497 1.573918 0.015269 -0.005226 574398.000000 1 0 0
9.368336 12.401197 3.586460 15.950489 0.923824 1.344008 0.012608 -0.003023 553001.000000 1 0 0
-0.675564 13.044197 0.767560 13.084213 -1.519052 1.512100 -0.004967 -0.002048 -628308.000000 1 0 0
16.051336 7.592997 -0.897540 17.779330 0.441852 1.621300 0.013997 0.011098 -1460410.000000 1 0 0
-4.046464 18.537597 -2.450540 19.131689 -1.355883 1.699237 -0.002431 -0.000090 1736.850000 1 0 0
11.589336 9.238097 -3.187540 15.159669 0.672983 1.782642 0.011449 -0.001762 -26935.400000 1 0 0
14.752636 9.704597 7.736960 19.279005 0.581854 1.157844 0.034908 -0.016202 806664.000000 1 0 0
4.345036 13.669397 4.826560 15.133653 1.263030 1.246197 0.005819 -0.002756 -149488.000000 1 0 0
2.122436 15.925097 5.697760 17.046347 1.438301 1.229986 0.005270 0.001764 350387.000000 1 0 0
6.221036 18.283497 5.350760 20.040414 1.242830 1.300519 0.018934 -0.018522 -515525.000000 1 0 0
10.606236 17.046697 -0.840140 20.094476 1.014222 1.612618 0.012996 -0.020166 -1377950.000000 1 0 0
9.991736 13.560297 -4.318840 17.388756 0.935773 1.821793 0.016795 -0.012961 167517.000000 1 0 0
16.679636 7.881297 2.421260 18.606117 0.441415 1.440294 0.012171 0.005048 356406.000000 1 0 0
3.853436 14.032897 -0.523340 14.561767 1.302802 1.606743 -0.001546 -0.008416 -316885.000000 1 0 0
5.525836 13.207297 -2.300640 14.500362 1.174535 1.730130 0.001950 -0.008369 -75753.600000 1 0 0
-5.983064 16.805297 -3.069740 18.100784 -1.228766 1.741212 0.006806 -0.010004 -1316560.000000 1 0 0
18.194736 9.895797 2.684260 20.884934 0.498134 1.441914 0.021126 -0.000027 -211455.000000 1 0 0
7.942736 12.809797 9.508460 17.821021 1.015763 1.008000 0.015277 -0.003368 -165651.000000 1 0 0
-2.578164 15.793197 6.758960 17.371113 -1.408978 1.171151 -0.010526 0.003174 -535132.000000 1 0 0
11.083536 16.082097 6.240360 20.504163 0.967366 1.261545 0.025386 -0.009893 -134888.000000 1 0 0
13.623136 11.932397 1.456760 18.168492 0.719335 1.490530 0.030809 -0.003494 2012840.000000 1 0 0
17.510536 8.088297 -5.358440 20.018798 0.432714 1.841771 0.011516 0.007659 917037.000000 1 0 0
9.484036 9.146297 8.091060 15.461790 0.767272 1.020085 0.011271 -0.005394 -282671.000000 1 0 0
-1.849864 14.184497 -1.994240 14.442955 -1.441114 1.709316 -0.014536 0.003988 702808.000000 1 0 0
10.931136 11.615397 0.740860 15.967344 0.815738 1.524381 0.013832 0.002575 839108.000000 1 0 0
11.755336 9.730597 -0.485240 15.267872 0.691440 1.602583 0.007133 0.004653 -1014220.000000 1 0 0
-0.328964 16.190797 11.258060 19.722932 -1.550481 0.963303 0.004118 -0.000159 -681267.000000 1 0 0
2.043836 20.049197 -1.713940 20.225854 1.469206 1.655638 -0.000477 -0.008682 -793737.000000 1 0 0
9.283736 14.278397 1.713060 17.117095 0.994284 1.470550 0.010308 -0.006445 -550683.000000 1 0 0
8.554136 11.562297 -5.013540 15.231400 0.933836 1.906208 0.010795 -0.009516 -1404590.000000 1 0 0
10.620736 9.973697 10.270260 17.825625 0.753990 0.956784 0.021248 -0.008696 1051140.000000 1 0 0
-5.082464 15.788997 6.039360 17.652132 -1.259372 1.221611 -0.017308 0.001839 333682.000000 1 0 0
14.309036 9.038597 -2.065840 17.050291 0.563382 1.692256 0.013467 0.004321 -434572.000000 1 0 0
12.213636 9.510597 6.958160 16.971752 0.661609 1.148359 0.014776 -0.007477 -361475.000000 1 0 0
3.227436 12.972197 9.741360 16.540506 1.326951 0.941050 -0.000709 0.001362 -760965.000000 1 0 0
8.522736 12.598397 -2.486240 15.412269 0.976021 1.732820 0.007127 -0.005634 -500503.000000 1 0 0
9.384436 16.922097 1.931160 19.446192 1.064454 1.471324 0.009576 -0.011800 -30408.700000 1 0 0
9.563136 14.159497 -7.363140 18.605396 0.976781 1.977684 0.023834 -0.023029 -36855.100000 1 0 0
6.412336 11.332497 7.427160 14.990205 1.055876 1.052423 0.002666 -0.001092 -953117.000000 1 0 0
5.506536 16.908997 -5.563240 18.632922 1.255970 1.873991 -0.003733 -0.006791 -487964.000000 1 0 0
-3.936964 17.280897 -4.694740 18.334931 -1.346798 1.829735 0.001708 -0.003004 199017.000000 1 0 0
0.145536 18.495097 -0.192040 18.496667 1.562928 1.581179 -0.006106 -0.003539 -775895.000000 1 0 0
6.560936 15.649497 -2.737440 17.188549 1.173812 1.730737 -0.002386 -0.007514 -190679.000000 1 0 0
-0.636464 20.801797 0.706860 20.823533 -1.540209 1.536845 -0.002955 -0.000121 25721.900000 1 0 0
-1.331064 18.847497 4.533460 19.430701 -1.500291 1.335312 -0.002701 -0.000486 -128556.000000 1 0 0
7.236736 13.730497 -4.267140 16.096751 1.085739 1.839097 0.006893 -0.009864 -334060.000000 1 0 0
-0.967264 11.932997 7.810660 14.294700 -1.489915 0.992733 -0.003214 0.005933 337727.000000 1 0 0
7.645236 10.831897 10.988160 17.219736 0.956183 0.878750 0.007439 -0.001535 401639.000000 1 0 0
1.472036 15.916597 -7.206440 17.533902 1.478574 1.994347 0.001875 -0.007132 -27022.800000 1 0 0
8.913836 7.115197 14.729560 18.629075 0.673654 0.658884 0.020713 -0.004074 880494.000000 1 0 0
11.480736 11.454197 -4.871740 16.933392 0.784241 1.862621 0.020560 -0.005966 -96711.300000 1 0 0
-3.411964 17.130997 4.605560 18.064434 -1.374200 1.312998 -0.012196 0.004424 -327678.000000 1 0 0
3.962436 15.219397 -6.781240 17.126476 1.316096 1.977899 0.003396 -0.012384 -812493.000000 1 0 0
-4.459364 14.070797 9.532260 17.570921 -1.263887 0.997384 0.000463 -0.002395 -903911.000000 1 0 0
6.167736 17.719797 0.492860 18.768993 1.235842 1.544534 -0.005839 -0.019324 -312382.000000 1 0 0
9.830636 10.687297 -2.019340 14.660745 0.827126 1.708973 0.007447 -0.002311 -110213.000000 1 0 0
7.389336 18.099797 -2.442440 19.702042 1.183194 1.695085 0.002429 -0.011037 -12466.300000 1 0 0
3.490436 10.391097 10.274860 15.024340 1.246732 0.817728 -0.001158 0.000397 727058.000000 1 0 0
-0.040664 18.769297 2.239160 18.902434 -1.568630 1.452059 -0.003558 -0.000582 425167.000000 1 0 0
-0.811464 17.264697 -7.465540 18.827175 -1.523830 1.978530 0.016175 0.000148 532400.000000 1 0 0
10.095736 8.749897 13.054360 18.678889 0.714105 0.796962 0.025262 -0.005253 -538407.000000 1 0 0
3.542536 11.383197 5.444660 13.106146 1.269089 1.142383 -0.002335 0.002607 636808.000000 1 0 0
12.928136 13.726897 8.115760 20.528760 0.815356 1.164363 0.029267 -0.017870 -300794.000000 1 0 0
-0.386664 17.443797 6.832460 18.738145 -1.548634 1.197563 -0.005225 0.001632 -51637.100000 1 0 0
11.992636 13.684897 5.680060 19.062078 0.851207 1.268224 0.024408 -0.009647 -906586.000000 1 0 0
4.900836 14.551897 -4.440140 15.984078 1.245944 1.852284 -0.003704 -0.006733 -596550.000000 1 0 0
3.822336 17.459197 4.718460 18.485067 1.355267 1.312682 0.013433 -0.011115 -1748520.000000 1 0 0
7.128536 11.690797 2.126260 13.856830 1.023234 1.416743 0.010336 -0.004613 695695.000000 1 0 0
6.423936 8.707097 11.811760 16.018682 0.935161 0.741622 0.006043 -0.002856 304199.000000 1 0 0
-5.367364 15.004797 1.742460 16.030868 -1.227270 1.461887 -0.008390 0.006823 98436.400000 1 0 0
6.686336 13.638597 6.089860 16.364743 1.114978 1.189490 0.010285 -0.006433 -454206.000000 1 0 0
5.872536 15.745397 4.918860 17.509980 1.213808 1.286046 0.008325 -0.012329 784776.000000 1 0 0
1.281136 18.017997 4.386460 18.588453 1.499813 1.332572 0.008006 -0.003497 1454140.000000 1 0 0
7.331936 18.038297 -6.986940 20.687068 1.184729 1.915316 0.001042 -0.008534 170820.000000 1 0 0
-2.275864 18.846997 -5.951540 19.894967 -1.450623 1.874596 0.015080 -0.000772 -2653220.000000 1 0 0
13.594636 10.083197 -4.493240 17.512116 0.638171 1.830277 0.014399 -0.001287 -1683520.000000 1 0 0
-1.544264 18.028397 9.904560 20.627850 -1.485348 1.069965 0.005644 -0.005174 -497174.000000 1 0 0
3.442736 11.859797 -1.477140 12.437410 1.288275 1.689843 0.004142 -0.009557 -983873.000000 1 0 0
4.333736 13.864797 -10.772640 18.084901 1.267847 2.208896 0.006185 -0.018350 -322553.000000 1 0 0
11.524536 13.391497 2.412260 17.831605 0.860189 1.435100 0.023960 -0.007692 -237891.000000 1 0 0
16.220236 6.653997 -7.058640 18.899633 0.389293 1.953554 0.031382 -0.000735 688739.000000 1 0 0
2.451536 16.045297 2.974260 16.501752 1.419180 1.389567 0.002951 -0.005978 160373.000000 1 0 0
13.558636 10.560197 3.622360 17.563481 0.661713 1.363062 0.023799 0.002061 -319447.000000 1 0 0
-4.788764 19.513397 -5.825340 20.919836 -1.330143 1.852987 0.009612 -0.009128 472535.000000 1 0 0
5.485336 12.184097 0.179160 13.363130 1.147772 1.557389 0.004863 -0.007384 863094.000000 1 0 0
4.631836 15.570597 9.663060 18.901644 1.281659 1.034183 0.007062 0.006844 -172017.000000 1 0 0
7.786336 9.366697 13.949460 18.518895 0.877272 0.717799 0.011716 -0.009559 -777773.000000 1 0 0
-5.029264 13.580297 7.016460 16.091883 -1.216121 1.119620 -0.009856 0.003837 -1018960.000000 1 0 0
-4.424164 17.264997 0.391360 17.827129 -1.319944 1.548841 -0.007954 0.000991 -1676100.000000 1 0 0
-0.729864 16.624597 3.595760 17.024671 -1.526922 1.357985 -0.004372 0.000673 -1472620.000000 1 0 0
7.881336 16.899097 -4.747840 19.241542 1.134408 1.820121 -0.001840 -0.011369 -139520.000000 1 0 0
3.164436 16.425797 -4.591740 17.346600 1.380478 1.838695 -0.005863 -0.004143 -715837.000000 1 0 0
9.554336 14.374897 8.106960 19.069500 0.984188 1.131694 0.026432 -0.008010 333186.000000 1 0 0
12.779636 10.964997 9.060960 19.122010 0.709123 1.077139 0.029966 -0.016333 290055.000000 1 0 0
3.712936 12.180397 12.182160 17.622514 1.274915 0.807532 0.001518 -0.002779 510538.000000 1 0 0
-3.484264 19.258897 6.072460 20.491950 -1.391815 1.269944 0.009063 -0.005196 166585.000000 1 0 0
-2.628464 15.719997 10.255960 18.952885 -1.405124 0.999017 0.002255 -0.007466 -373651.000000 1 0 0
1.964836 14.199397 7.743360 16.292425 1.433295 1.075521 0.005934 0.001179 -65977.400000 1 0 0
4.455736 17.307397 7.956660 19.562925 1.318821 1.151934 0.019621 -0.004697 324380.000000 1 0 0
-1.889064 13.457697 9.417660 16.533920 -1.431337 0.964782 -0.002363 -0.000083 -1161650.000000 1 0 0
5.723736 17.648097 3.061460 18.803963 1.257174 1.407259 -0.004360 -0.016320 366901.000000 1 0 0
7.326036 15.436097 -6.733340 18.365233 1.127671 1.946186 0.010247 -0.010576 53171.500000 1 0 0
11.009736 7.589097 9.591260 16.456031 0.603514 0.948575 0.012827 -0.003186 931584.000000 1 0 0
9.109336 16.187897 -2.673540 18.766348 1.058236 1.713747 0.006074 -0.019620 -282415.000000 1 0 0
14.401336 11.349297 -6.614740 19.492558 0.667426 1.917019 0.024161 -0.009566 354384.000000 1 0 0
11.262736 6.424997 16.021360 20.611012 0.518419 0.680401 0.045225 -0.017610 319901.000000 1 0 0
8.423936 8.414197 10.312460 15.751452 0.784820 0.857012 0.005471 -0.001706 1830910.000000 1 0 0
16.423636 9.434697 4.508860 19.469955 0.521427 1.337094 0.029765 -0.002594 -155400.000000 1 0 0
-3.354764 14.447097 4.712260 15.562084 -1.342630 1.263163 -0.015580 0.007813 -1420400.000000 1 0 0
4.634136 14.604697 12.845560 19.994520 1.263540 0.873100 0.004430 0.003528 -267300.000000 1 0 0
16.099236 10.768297 -4.676040 19.925034 0.589527 1.807687 0.022562 -0.006369 971640.000000 1 0 0
14.597436 13.919897 6.171360 21.093467 0.761644 1.273881 0.027620 -0.008591 -559042.000000 1 0 0
6.109336 9.484297 9.354360 14.655372 0.998543 0.878523 -0.000424 -0.000018 598712.000000 1 0 0
10.387236 11.976397 8.677260 18.072731 0.856339 1.069993 0.023792 -0.011808 -461737.000000 1 0 0
7.936236 11.526997 -0.298640 13.998025 0.967836 1.592132 0.011664 -0.005596 -380539.000000 1 0 0
7.337436 13.575097 -8.617340 17.674269 1.075271 2.080094 0.019200 -0.008626 -725404.000000 1 0 0
2.820736 15.401397 -2.296140 15.825039 1.389656 1.716406 -0.007323 -0.004525 345152.000000 1 0 0
12.140636 13.524997 -7.594140 19.697501 0.839284 1.966587 0.022325 -0.024448 254002.000000 1 0 0
-8.100464 14.627497 9.770860 19.366231 -1.065053 1.041958 0.020370 -0.013606 185609.000000 1 0 0
11.493036 9.667897 2.359660 15.202832 0.699361 1.414954 0.013584 0.002706 -1858040.000000 1 0 0
12.173036 8.578497 4.508960 15.559696 0.613882 1.276795 0.010030 -0.000540 364140.000000 1 0 0
14.147036 7.943497 6.095260 17.331762 0.511626 1.211430 0.019006 -0.006222 -1420770.000000 1 0 0
16.296836 7.377497 7.314560 19.326591 0.425093 1.182652 0.046032 -0.011568 145052.000000 1 0 0
13.721136 8.361197 2.350360 16.238946 0.547278 1.425550 0.010273 0.004108 -1874190.000000 1 0 0
-4.071264 17.535397 -7.241340 19.403669 -1.342664 1.953246 0.009306 -0.007915 56216.800000 1 0 0
3.121136 19.580497 -3.994140 20.225986 1.412726 1.769579 -0.007498 -0.007700 355828.000000 1 0 0
-0.126364 14.824797 6.282460 16.101549 -1.562273 1.169972 -0.001429 0.003708 -98669.000000 1 0 0
6.790536 16.000697 8.297260 19.260795 1.169442 1.125434 0.020711 -0.004671 -406501.000000 1 0 0
12.885836 15.237597 -1.961440 20.051842 0.868827 1.668771 0.027149 -0.015071 -18161.400000 1 0 0
12.620736 15.791297 4.184360 20.643568 0.896531 1.366686 0.028426 -0.011255 -236951.000000 1 0 0
2.963336 18.081097 1.326960 18.370309 1.408349 1.498499 0.011752 -0.010014 -434784.000000 1 0 0
10.398836 14.476997 -1.383040 17.878256 0.947893 1.648232 0.011689 -0.007280 -2755030.000000 1 0 0
-6.343264 15.794697 -0.650340 17.033274 -1.188905 1.608986 -0.000460 -0.000277 -351623.000000 1 0 0
-3.697664 15.894297 -2.584340 16.522113 -1.342221 1.727858 -0.007294 0.002076 -1789040.000000 1 0 0
-6.737464 17.189397 1.549060 18.527504 -1.197245 1.487090 -0.004072 0.002144 636829.000000 1 0 0
0.231336 19.436497 -6.598440 20.527308 1.558895 1.898053 0.012659 -0.006013 -383420.000000 1 0 0
4.738436 14.854197 7.118260 17.139708 1.262004 1.142515 0.011079 -0.001031 -625032.000000 1 0 0
8.661736 12.299997 6.970760 16.580323 0.957253 1.136884 0.016596 -0.006459 202758.000000 1 0 0
-7.637264 17.534397 -5.571140 19.920354 -1.160016 1.854247 0.036033 -0.016022 293128.000000 1 0 0
-7.544364 17.963597 -1.384740 19.532685 -1.173185 1.641749 0.018146 -0.003986 -116111.000000 1 0 0
-13.705564 -9.248003 9.104860 18.875024 0.593587 1.067431 0.022362 -0.011117 -751293.000000 1 0 0
-12.648764 -12.916403 7.821560 19.697754 0.795867 1.162465 0.022699 -0.002012 218216.000000 1 0 0
-4.045964 -15.172903 12.427160 20.025512 1.310203 0.901331 0.003527 -0.007407 195806.000000 1 0 0
-2.376364 -13.966403 15.014060 20.642905 1.402262 0.756383 0.026666 -0.008793 161930.000000 1 0 0
-7.325564 -13.610703 12.826660 20.085774 1.077042 0.878126 0.012774 -0.011274 82756.200000 1 0 0
-9.820864 -11.547403 8.981560 17.619884 0.866022 1.035914 0.004053 -0.006150 600457.000000 1 0 0
-10.472164 -10.563203 11.373760 18.724580 0.789726 0.917982 0.014244 -0.012127 378422.000000 1 0 0
-6.183764 -12.186103 10.854860 17.451878 1.101211 0.899517 0.005965 -0.004893 846084.000000 1 0 0
-12.369364 -10.362903 7.306460 17.713703 0.697361 1.145627 0.006349 -0.003111 -893905.000000 1 0 0
-7.720864 -11.117503 12.685360 18.550714 0.963786 0.817810 0.010814 -0.008598 -25787.700000 1 0 0
-14.770664 -11.615603 7.339160 20.173201 0.666391 1.198444 0.024636 0.000820 -66153.100000 1 0 0
-11.132364 -9.149203 9.249660 17.122899 0.687927 1.000131 0.011689 -0.003662 -30324.900000 1 0 0
-5.316464 -12.003203 13.238460 18.643994 1.153845 0.781205 0.007406 -0.010705 -334560.000000 1 0 0
3.902136 -12.685303 14.638560 19.759327 -1.272372 0.736472 0.001672 0.007908 527781.000000 1 0 0
6.512836 -12.878303 14.350560 20.352059 -1.102582 0.788210 0.011227 0.006440 204343.000000 1 0 0
6.588336 -8.549303 16.104060 19.386529 -0.914223 0.590463 -0.000378 0.003462 480378.000000 1 0 0
0.671236 -1.709003 14.462660 14.578745 -1.196543 0.126279 0.005273 -0.004212 -1200490.000000 1 0 0
-0.194964 -6.319303 15.684060 16.910392 1.539954 0.383179 0.005720 -0.008764 -154488.000000 1 0 0
-1.656964 -4.744503 18.228560 18.908629 1.234800 0.269012 0.016825 -0.028457 -857445.000000 1 0 0
-5.201564 12.670797 12.884260 18.804509 -1.181257 0.815961 0.003410 -0.008281 -884528.000000 1 0 0
-4.052564 8.781597 11.615360 15.114772 -1.138434 0.694338 -0.005026 0.001901 -375095.000000 1 0 0
-0.691264 -3.935703 14.941460 15.466572 1.396930 0.261324 0.004246 -0.007479 -52436.300000 1 0 0
-4.430664 9.214697 14.193460 17.492734 -1.122605 0.624267 0.000278 -0.002431 129700.000000 1 0 0
-13.353064 -2.444503 16.810460 21.607209 0.181062 0.679316 0.002122 0.006037 -856545.000000 1 0 0
-0.174464 0.857397 17.356660 17.378700 -1.370056 0.050368 0.015603 -0.004818 -1839650.000000 1 0 0
-3.250064 -7.359303 15.421860 17.394138 1.154927 0.480827 0.008721 -0.009339 417272.000000 1 0 0
-7.485864 5.452997 12.711460 15.727510 -0.629559 0.629655 0.004808 -0.001241 -2698170.000000 1 0 0
-9.628464 9.882697 13.597460 19.371783 -0.798428 0.792705 0.018023 -0.008716 474271.000000 1 0 0
-5.660164 2.253597 11.155560 12.710731 -0.378911 0.499861 0.007409 -0.001038 -16089.400000 1 0 0
-7.142664 -7.331103 16.832360 19.700027 0.798417 0.546337 0.015162 -0.014597 -326516.000000 1 0 0
-4.612364 2.912797 18.662860 19.443782 -0.563274 0.284376 0.016912 -0.007331 -1090270.000000 1 0 0
0.927936 -8.458703 16.529960 18.591673 -1.461531 0.475409 0.003465 -0.006181 571676.000000 1 0 0
-14.856064 -3.643903 14.043060 20.765072 0.240532 0.828092 0.014087 -0.000680 175320.000000 1 0 0
-14.317164 2.284897 13.143260 19.569038 -0.158257 0.834382 -0.000494 -0.003835 -167924.000000 1 0 0
-5.718964 0.991197 16.170360 17.180500 -0.171613 0.344619 0.020936 -0.003983 642982.000000 1 0 0
4.431136 5.604597 15.013160 16.626529 0.901798 0.444178 0.012227 -0.003837 -451063.000000 1 0 0
-1.201564 -12.024003 13.803360 18.345385 1.471197 0.719074 0.008089 -0.008703 -119247.000000 1 0 0
-5.902164 -4.050903 16.766260 18.230547 0.601501 0.403533 0.016314 -0.014085 131285.000000 1 0 0
-12.827064 -1.463003 9.921360 16.282117 0.113565 0.915567 -0.001589 0.001597 -458848.000000 1 0 0
-14.774064 10.317797 10.046060 20.631366 -0.609633 1.062223 0.006230 -0.003313 430972.000000 1 0 0
-3.600564 -3.267403 17.683960 18.340186 0.736927 0.268314 0.020951 -0.018841 -1282230.000000 1 0 0
-7.784864 9.287897 11.878760 16.969800 -0.873209 0.795407 -0.001454 -0.005853 -122599.000000 1 0 0
-4.135564 10.573797 16.407860 19.953094 -1.197973 0.605317 -0.001930 -0.003154 292518.000000 1 0 0
-12.654364 12.747597 8.194260 19.742849 -0.789068 1.142799 0.017016 -0.011885 962425.000000 1 0 0
-12.785064 3.157697 10.409360 16.786414 -0.242137 0.901918 0.001838 -0.000561 1163140.000000 1 0 0
-10.107964 -3.453103 13.716660 17.385098 0.329192 0.661634 0.003635 0.002002 -1375390.000000 1 0 0
-4.336764 -6.408703 17.688460 19.307010 0.975880 0.412384 0.018935 -0.015143 -730888.000000 1 0 0
0.767336 -3.757203 18.044060 18.447046 -1.369336 0.209406 0.012448 -0.010426 -1046090.000000 1 0 0
-6.068564 1.873997 13.681160 15.083550 -0.299514 0.434632 0.011123 -0.000555 -716012.000000 1 0 0
-10.588264 8.612697 10.178860 17.026424 -0.682870 0.930008 0.008918 -0.010602 -12717.000000 1 0 0
4.693436 2.441397 17.276560 18.068434 0.479655 0.297154 0.023882 -0.007419 105510.000000 1 0 0
0.474636 -5.488403 13.234760 14.335506 -1.484531 0.394431 0.000548 -0.002982 -552394.000000 1 0 0
-3.944564 5.710297 20.869460 21.993214 -0.966285 0.321050 0.022074 -0.004350 81990.900000 1 0 0
-10.758364 10.949497 8.965060 17.776563 -0.794203 1.042203 0.006209 -0.006704 153393.000000 1 0 0
0.670936 4.153397 13.088060 13.747661 1.410641 0.311023 0.007871 -0.004688 -2166070.000000 1 0 0
-3.139464 7.096297 13.431660 15.512033 -1.154273 0.523876 -0.000423 0.004783 -706446.000000 1 0 0
0.729636 8.887297 14.123860 16.703289 1.488881 0.563158 0.002086 -0.004747 482176.000000 1 0 0
-4.211264 -6.628503 13.092560 15.267185 1.004806 0.540285 0.006911 -0.006881 -21183.300000 1 0 0
-5.192664 8.243497 16.600660 19.248401 -1.008674 0.530719 0.016315 0.004789 370806.000000 1 0 0
1.529636 -10.805303 15.812660 19.212875 -1.430167 0.604082 -0.001090 0.000751 88540.600000 1 0 0
-15.033864 -1.104403 14.365660 20.823280 0.073329 0.809467 0.007605 0.001799 645521.000000 1 0 0
-13.797564 -5.263603 8.215560 16.898927 0.364446 1.063108 0.019799 -0.009060 -412852.000000 1 0 0
-14.124264 -1.986403 12.094960 18.701035 0.139721 0.867476 0.010300 -0.000798 111647.000000 1 0 0
9.381536 0.943597 16.932060 19.380358 0.100243 0.508098 0.025054 -0.008070 -774804.000000 1 0 0
4.867036 -6.836203 16.753860 18.738024 -0.952095 0.464356 0.000661 -0.007031 557604.000000 1 0 0
-6.128864 -2.623203 11.090960 12.940385 0.404416 0.541219 0.002677 -0.001739 352925.000000 1 0 0
0.518536 -6.302303 18.018260 19.095696 -1.488704 0.337525 0.011287 -0.017015 -646467.000000 1 0 0
-8.563664 11.824797 12.081060 18.950309 -0.944005 0.879531 0.018837 -0.014549 195804.000000 1 0 0
-6.604464 -5.756703 14.816360 17.212876 0.716923 0.534012 0.010432 -0.008586 -1722060.000000 1 0 0
-4.452464 -8.926903 17.099060 19.796260 1.108134 0.528128 0.018219 -0.014660 13908.300000 1 0 0
2.384436 -6.210303 16.278660 17.585454 -1.204204 0.387943 0.004444 -0.007404 -1541700.000000 1 0 0
2.152036 5.135197 16.024160 16.963939 1.173954 0.334418 0.010384 -0.006873 -1038510.000000 1 0 0
0.954836 -8.904203 14.010460 16.627974 -1.463970 0.568734 -0.000568 -0.003863 -799366.000000 1 0 0
-10.070464 -2.750103 11.275860 15.366273 0.266586 0.746889 -0.002298 0.001346 253217.000000 1 0 0
-1.305164 10.072497 12.428060 16.050400 -1.441937 0.685165 -0.004450 -0.001298 -331805.000000 1 0 0
-12.426264 -3.704203 11.326260 17.216775 0.289708 0.852820 0.010608 0.001941 -2022280.000000 1 0 0
-1.742864 6.735397 20.090860 21.261369 -1.317588 0.333365 0.004052 0.002271 270577.000000 1 0 0
0.111136 -13.369803 15.721260 20.637878 -1.562484 0.704760 0.009855 -0.009471 -387859.000000 1 0 0
3.942236 -8.737303 15.309860 18.063042 -1.146948 0.559389 -0.003477 0.000884 66160.100000 1 0 0
4.262036 -4.444703 16.286360 17.411659 -0.806375 0.361490 0.005965 0.000863 128961.000000 1 0 0
8.114036 1.501297 14.697460 16.855468 0.182956 0.511585 0.018648 -0.000853 -45854.400000 1 0 0
-6.389164 -0.135703 11.811260 13.429285 0.021236 0.495954 0.005287 -0.002279 129779.000000 1 0 0
-3.156264 -10.656803 18.534360 21.611385 1.282854 0.540172 0.017548 -0.017341 427380.000000 1 0 0
3.204636 -1.469803 13.623960 14.072750 -0.430023 0.253226 0.001591 -0.002728 592467.000000 1 0 0
-2.612764 8.647797 16.115960 18.475257 -1.277386 0.510910 0.000372 0.003482 -808553.000000 1 0 0
-3.266064 3.951897 14.949660 15.804335 -0.880131 0.330373 0.010586 -0.001204 957358.000000 1 0 0
-5.002764 -8.943403 19.664960 22.174823 1.060780 0.480390 0.042275 -0.018190 62011.900000 1 0 0
-5.785964 -2.886403 19.032760 20.101111 0.462737 0.327495 0.025932 -0.020423 -1177310.000000 1 0 0
-6.622564 -8.518203 11.140560 15.509037 0.909951 0.769402 0.008386 -0.007649 -1057450.000000 1 0 0
-11.792664 2.678297 12.715560 17.547811 -0.223327 0.760308 0.007857 -0.009392 -1199830.000000 1 0 0
-11.693364 -7.618503 11.707960 18.216824 0.577446 0.872778 0.013274 -0.004205 -327908.000000 1 0 0
-10.921464 -7.227503 15.702460 20.447064 0.584605 0.695151 0.014574 -0.016535 -536974.000000 1 0 0
0.142836 5.539497 17.690960 18.538514 1.545017 0.303550 0.012400 -0.002026 -119149.000000 1 0 0
-2.167864 -0.070503 13.213160 13.390004 0.032510 0.162704 0.009793 -0.003666 243911.000000 1 0 0
-5.819364 -10.836003 18.065660 21.855252 1.077958 0.597748 0.020535 -0.010704 -420462.000000 1 0 0
0.431336 2.583997 19.234760 19.412344 1.405396 0.135366 0.026056 -0.007559 -290888.000000 1 0 0
-0.794864 10.861097 14.880660 18.439883 -1.497742 0.631772 -0.006592 -0.002228 -516060.000000 1 0 0
-12.672464 -2.264903 14.324660 19.259206 0.176859 0.732085 0.000690 0.002633 -1074550.000000 1 0 0
-13.864564 8.455697 11.675160 20.000858 -0.547651 0.947478 0.014219 -0.008286 375705.000000 1 0 0
-18.034164 -0.703503 6.896260 19.320570 0.038990 1.205808 0.011561 -0.005063 87276.800000 1 0 0
-2.182864 -7.879403 17.737660 19.531372 1.300540 0.431923 0.015494 -0.011147 -1603340.000000 1 0 0
5.785936 2.671497 14.622260 15.950688 0.432560 0.411013 0.017222 -0.006040 -2361780.000000 1 0 0
-14.010064 -6.821003 10.926260 19.031320 0.453084 0.959267 0.016191 -0.012501 272712.000000 1 0 0
3.273236 7.557597 16.217460 18.188935 1.162080 0.469905 0.011670 -0.016435 -135785.000000 1 0 0
1.091236 2.015897 14.691960 14.869712 1.074645 0.154776 0.009302 -0.004652 -1706270.000000 1 0 0
-14.364764 0.719497 9.761460 17.382469 -0.050046 0.974515 0.000665 -0.000055 -1075360.000000 1 0 0
-9.444464 -5.103303 15.553860 18.898788 0.495403 0.604109 0.006276 -0.000020 -727108.000000 1 0 0
-2.421864 -0.206203 18.143860 18.305945 0.084937 0.133171 0.020637 -0.011288 328145.000000 1 0 0
7.022536 3.521097 17.432160 19.120522 0.464767 0.423396 0.039706 -0.009345 -413510.000000 1 0 0
-4.229964 -0.695903 14.711260 15.323122 0.163057 0.283546 0.018586 -0.002155 115344.000000 1 0 0
4.740836 -9.123503 17.833260 20.584922 -1.091569 0.522997 0.002024 0.003810 -137695.000000 1 0 0
1.902436 6.833797 13.505560 15.255170 1.299285 0.483635 0.006433 -0.003201 -1584330.000000 1 0 0
-3.717364 -0.535603 20.288360 20.633062 0.143096 0.183046 0.025799 -0.014055 -321624.000000 1 0 0
-10.560464 1.565197 16.374660 19.547449 -0.147142 0.577760 0.013423 -0.008120 -854712.000000 1 0 0
-3.886264 7.024197 18.562360 20.223838 -1.065447 0.408178 0.019293 -0.000284 -599235.000000 1 0 0
-12.622764 1.269197 14.791460 19.486722 -0.100211 0.708939 0.006787 -0.007027 -896706.000000 1 0 0
-16.217364 -4.429003 8.334960 18.764076 0.266601 1.110518 0.016791 -0.007367 -469766.000000 1 0 0
-2.215664 0.750097 15.735960 15.908874 -0.326432 0.147572 0.018205 -0.005889 585968.000000 1 0 0
-13.816164 -8.758103 12.716760 20.719719 0.564976 0.909993 0.022417 -0.017032 218204.000000 1 0 0
5.930836 -3.250503 14.507360 16.006376 -0.501359 0.436235 0.000882 -0.003446 646142.000000 1 0 0
-15.719764 0.489897 7.552960 17.447011 -0.031154 1.123079 0.000486 -0.002602 421807.000000 1 0 0
-14.162664 5.971097 12.403660 19.750591 -0.398994 0.891797 0.011009 -0.009345 189692.000000 1 0 0
0.424236 9.580497 16.741160 19.293324 1.526544 0.520204 0.002982 -0.003286 -19022.100000 1 0 0
-10.504364 -5.448703 10.905560 16.092274 0.478502 0.826181 0.009747 -0.002610 166152.000000 1 0 0
-3.291064 -10.881603 15.096760 18.898480 1.277100 0.645441 0.012820 -0.009616 -374990.000000 1 0 0
-3.659164 2.763597 12.701060 13.503477 -0.646855 0.346471 0.009980 0.000979 -1478620.000000 1 0 0
-12.420664 -7.680203 7.494560 16.414227 0.553796 1.096639 0.018085 -0.004477 687990.000000 1 0 0
-8.293664 -1.764903 13.196160 15.685611 0.209674 0.571130 0.000766 -0.000101 -422816.000000 1 0 0
-9.824164 6.379097 9.501160 15.082412 -0.575902 0.889308 0.004959 -0.001980 -632872.000000 1 0 0
-18.146964 -3.669403 6.430060 19.599043 0.199515 1.236526 0.015849 -0.008582 -64075.700000 1 0 0
-1.171864 -0.164903 20.492060 20.526203 0.139800 0.057686 0.020345 -0.009826 -1009150.000000 1 0 0
-2.680264 2.537997 20.211960 20.546255 -0.758142 0.180636 0.021864 -0.008348 -490584.000000 1 0 0
-3.889164 11.284097 11.105560 16.303065 -1.238888 0.821403 0.000446 -0.003442 -818513.000000 1 0 0
-4.189264 -4.796503 14.957760 16.257028 0.852873 0.402513 0.011942 -0.010310 578386.000000 1 0 0
-0.354964 -14.399803 13.376760 19.657518 1.546151 0.822364 0.024761 -0.011976 -424940.000000 1 0 0
-12.157764 0.530397 8.437060 14.807989 -0.043599 0.964578 0.001979 -0.000948 -372310.000000 1 0 0
-7.909664 2.248397 15.397160 17.455390 -0.276954 0.490524 0.011666 -0.002841 -1736340.000000 1 0 0
3.404336 -2.337603 18.442560 18.899257 -0.601713 0.220285 0.019009 -0.009715 -120891.000000 1 0 0
-2.131264 4.793597 12.646660 13.691562 -1.152437 0.393213 0.001095 0.001970 -604170.000000 1 0 0
-10.369464 -6.150603 13.368960 18.002356 0.535364 0.733818 0.002083 -0.004401 -451778.000000 1 0 0
2.331936 -3.796503 14.288060 14.966630 -1.019977 0.302277 -0.000967 -0.003144 -485042.000000 1 0 0
6.826236 0.874097 17.018360 18.357182 0.127357 0.384281 0.024860 -0.005228 -431851.000000 1 0 0
-1.934264 -5.875103 13.833960 15.153767 1.252743 0.420449 -0.000234 -0.005536 -865176.000000 1 0 0
-12.953064 3.860697 14.681860 19.956049 -0.289669 0.744082 0.005295 -0.000981 115617.000000 1 0 0
-13.279964 -6.254603 13.332560 19.830146 0.440164 0.833434 0.014929 -0.013794 -681078.000000 1 0 0
-9.500964 6.879697 11.994960 16.777295 -0.626721 0.774241 0.006821 -0.002672 236569.000000 1 0 0
-1.041164 -2.394703 12.784460 13.048412 1.160673 0.201480 0.004274 -0.000867 214130.000000 1 0 0
0.012036 6.605597 15.350160 16.711119 1.568974 0.406375 0.010697 -0.005675 588830.000000 1 0 0
-16.333164 -0.963503 9.621060 18.980658 0.058922 1.039226 0.004665 0.002488 -505890.000000 1 0 0
-1.314164 2.653897 13.724060 14.039944 -1.111010 0.212527 0.009000 -0.001820 -1016870.000000 1 0 0
-11.045964 -3.206303 16.115060 19.798709 0.282506 0.619885 0.000525 -0.004820 -1662440.000000 1 0 0
-5.270964 -1.437403 17.028960 17.883922 0.266229 0.310458 0.030028 -0.010369 352359.000000 1 0 0
-11.950964 6.631697 11.223660 17.685460 -0.506604 0.883271 0.008879 -0.002717 -420108.000000 1 0 0
-2.575564 4.676997 18.800760 19.544217 -1.067425 0.276707 0.014461 -0.001208 227038.000000 1 0 0
5.124336 -2.018103 16.499360 17.394265 -0.375174 0.322166 0.014675 -0.004263 -944334.000000 1 0 0
-8.073864 -4.080003 12.153360 15.150507 0.467906 0.639867 0.004402 -0.001134 -1462540.000000 1 0 0
-11.653764 -0.669303 16.133960 19.913886 0.057369 0.626326 0.018110 -0.003211 298121.000000 1 0 0
2.211836 2.039597 17.383160 17.641611 0.744907 0.171382 0.014107 -0.006105 -1677480.000000 1 0 0
-9.003664 -7.503503 11.706460 16.565317 0.694768 0.785995 0.008728 -0.005989 440252.000000 1 0 0
-7.290364 6.852397 14.910760 17.956490 -0.754440 0.591002 0.009352 -0.002480 -58821.400000 1 0 0
-5.788964 3.489197 15.845760 17.227151 -0.542426 0.403192 0.011906 -0.003779 55372.700000 1 0 0
-9.355964 4.292097 11.527560 15.454476 -0.430111 0.728905 -0.001099 -0.002873 -302678.000000 1 0 0
-10.335664 0.290897 14.075560 17.465165 -0.028138 0.633565 0.006012 -0.003539 -511030.000000 1 0 0
8.081136 -0.996003 15.747860 17.728279 -0.122632 0.477187 0.013454 -0.003770 -112753.000000 1 0 0
-8.522364 -7.439203 14.696760 18.546353 0.717641 0.656007 0.011657 -0.005597 -2513030.000000 1 0 0
-0.163064 4.092997 15.600560 16.129374 -1.530978 0.256774 0.009647 -0.006643 -201010.000000 1 0 0
-8.075064 3.126597 9.606460 12.933150 -0.369416 0.733586 -0.001990 0.001039 -582202.000000 1 0 0
-2.162264 -9.688903 13.055460 16.401075 1.351225 0.650118 -0.003503 -0.005468 625267.000000 1 0 0
-6.097364 10.205997 10.528760 15.880650 -1.032269 0.845987 0.005653 -0.007020 -3508620.000000 1 0 0
-8.524664 -2.656603 15.628760 17.999600 0.302099 0.519064 0.010612 -0.009271 -404478.000000 1 0 0
4.225136 5.631897 17.640760 18.993853 0.927157 0.379739 0.021695 -0.004992 332551.000000 1 0 0
-6.780064 -0.911703 15.096960 16.574640 0.133666 0.425465 0.008794 -0.002588 -776611.000000 1 0 0
-0.902364 -9.917103 15.354460 18.300892 1.480055 0.575352 -0.003901 -0.006869 -1294460.000000 1 0 0
-4.349164 5.751597 16.356960 17.875857 -0.923360 0.415212 0.009964 -0.001160 350342.000000 1 0 0
3.809736 0.001497 17.373960 17.786753 0.000393 0.215862 0.024146 -0.008209 -786446.000000 1 0 0
1.566436 0.270497 19.215260 19.280900 0.170997 0.082539 0.012696 -0.006269 -356342.000000 1 0 0
-6.303664 6.334297 18.072060 20.160825 -0.787822 0.459228 0.013891 0.003439 -684101.000000 1 0 0
-12.206464 0.717297 11.090460 16.507895 -0.058696 0.834123 0.002881 0.000630 53345.800000 1 0 0
-5.324664 5.224297 14.086860 15.940043 -0.775884 0.487001 0.004550 0.000559 -1225240.000000 1 0 0
-8.629064 -9.448303 9.879760 16.166040 0.830686 0.913293 0.010555 -0.007478 -483068.000000 1 0 0
6.772036 -3.945603 16.929860 18.656056 -0.527551 0.433568 0.007815 -0.006332 -1022870.000000 1 0 0
-16.704564 1.706097 9.599760 19.341888 -0.101781 1.051442 0.005910 -0.003724 276521.000000 1 0 0
-4.248264 -9.562103 11.316760 15.412677 1.152708 0.746235 -0.001685 -0.005066 125806.000000 1 0 0
-11.139364 -3.968503 9.114760 14.930282 0.342240 0.914120 0.006100 0.000811 3149.680000 1 0 0
3.513836 -5.523603 18.573360 19.693322 -1.004220 0.338873 0.005171 -0.006445 -324561.000000 1 0 0
2.569036 -1.923103 16.130760 16.446875 -0.642585 0.196378 0.007576 -0.005657 -248035.000000 1 0 0
-3.308764 -4.481803 20.107260 20.864717 0.934847 0.270278 0.025346 -0.021283 -1273630.000000 1 0 0
-6.293064 -3.276403 14.350360 16.008445 0.480021 0.459162 0.008934 -0.004189 776850.000000 1 0 0
-9.851764 5.335697 13.909760 17.860805 -0.496370 0.678067 0.013741 -0.008556 144616.000000 1 0 0
-5.942864 -5.241703 11.684060 14.117732 0.722790 0.595949 0.004690 -0.002389 -392081.000000 1 0 0
6.298836 1.888597 19.351460 20.438228 0.291303 0.327571 0.040156 -0.013343 151183.000000 1 0 0
-2.886164 11.741497 13.458360 18.091992 -1.329766 0.731932 -0.001692 -0.012892 -938740.000000 1 0 0
3.508036 1.296897 15.181460 15.635376 0.354110 0.241549 0.006757 -0.003789 -942815.000000 1 0 0
-5.694064 7.329597 12.854860 15.855371 -0.910326 0.625351 -0.005018 -0.005288 41558.900000 1 0 0
-1.820964 -1.732803 15.264860 15.470439 0.760595 0.163205 0.012360 -0.005312 584161.000000 1 0 0
-7.200264 10.616497 14.100560 19.062519 -0.974842 0.738171 0.024329 -0.009680 704998.000000 1 0 0
-10.224164 2.154397 10.586060 14.874126 -0.207678 0.778867 -0.002222 0.001070 -1330600.000000 1 0 0
-13.668564 5.245797 9.127760 17.252943 -0.366451 1.013309 -0.000544 0.000671 257379.000000 1 0 0
0.140336 -5.104903 20.138660 20.776077 -1.543313 0.248348 0.015407 -0.017797 -344033.000000 1 0 0
-14.377764 -2.917603 7.377060 16.421131 0.200206 1.104880 0.004010 -0.005341 284751.000000 1 0 0
-2.238664 2.353497 17.734560 18.029565 -0.810399 0.181147 0.011557 -0.005988 -244126.000000 1 0 0
-6.203664 -8.355103 14.677960 17.992657 0.932112 0.616728 0.011227 -0.006023 -642679.000000 1 0 0
-8.072964 1.952497 12.006860 14.599647 -0.237299 0.605166 0.002534 -0.000185 459389.000000 1 0 0
-14.608764 -3.349403 9.949460 17.989615 0.225378 0.984755 0.011074 -0.006411 -270330.000000 1 0 0
-0.625464 7.051097 12.885160 14.701583 -1.482323 0.502363 0.003357 -0.003619 160370.000000 1 0 0
-1.911664 -2.406703 19.423760 19.665430 0.899535 0.156935 0.023989 -0.014085 -199389.000000 1 0 0
-12.809364 10.252097 7.409260 18.002290 -0.674960 1.146617 -0.000998 -0.009102 418214.000000 1 0 0
-19.590664 2.187497 6.724960 20.827971 -0.111200 1.242024 0.018156 -0.008616 1677950.000000 1 0 0
-16.000564 8.552897 6.515360 19.277449 -0.490894 1.226028 0.005287 -0.001404 541967.000000 1 0 0
-12.506364 7.625997 13.638360 20.014241 -0.547572 0.821078 0.031235 -0.003929 -32168.100000 1 0 0
-15.886564 7.913697 10.232960 20.487143 -0.462157 1.047796 0.000400 -0.011679 -522003.000000 1 0 0
1.874636 10.873997 14.953460 18.583973 1.400078 0.635723 -0.000929 -0.014766 -214552.000000 1 0 0
2.051036 14.151097 12.897460 19.256292 1.426860 0.836885 -0.008507 -0.006675 -475082.000000 1 0 0
-3.147064 13.660997 11.708160 18.264936 -1.344378 0.874972 -0.003416 -0.006099 -44426.200000 1 0 0
9.280836 4.844997 15.973960 19.099092 0.481126 0.580164 0.032804 0.004996 -147388.000000 1 0 0
-0.538164 12.583697 12.896360 18.026513 -1.528056 0.773585 -0.007490 -0.004469 -885144.000000 1 0 0
3.710636 13.099697 14.649960 19.999806 1.294766 0.748802 0.001995 -0.006982 -138483.000000 1 0 0
-2.937964 -4.105103 -13.789740 14.684700 0.949620 2.790667 -0.000091 -0.003482 -230594.000000 1 0 0
5.492936 -11.666903 16.405660 20.867071 -1.130769 0.666163 -0.011148 0.008156 229623.000000 1 0 0
7.945336 -13.430003 7.264160 17.212244 -1.036568 1.135108 0.009599 -0.006778 -503464.000000 1 0 0
-0.095864 15.550897 1.406160 15.614637 -1.564632 1.480620 -0.009128 -0.000079 -2817580.000000 1 0 0
-13.500564 8.146697 9.117860 18.214535 -0.542941 1.046526 -0.011843 0.000796 210984.000000 1 0 0
-15.447364 -9.752703 4.951760 18.927657 0.563153 1.306101 0.015132 0.000001 -936285.000000 1 0 0
9.538236 -11.149703 11.114060 18.406959 -0.863135 0.922541 0.014291 -0.000744 -59942.700000 1 0 0
-5.921364 -10.542203 -16.574040 20.515832 1.059029 2.511318 0.014544 -0.005519 85289.600000 1 0 0
-1.811064 -12.669503 -14.673940 19.471023 1.428811 2.424363 -0.001483 0.006508 -79385.100000 1 0 0
5.302436 -15.731003 -12.700440 20.901709 -1.245687 2.223865 -0.003573 0.007277 245534.000000 1 0 0
2.634636 -11.639703 -16.624540 20.464586 -1.348198 2.518978 0.003828 0.004772 345305.000000 1 0 0
0.710136 -13.934203 -14.668240 20.244099 -1.519877 2.381205 0.018698 0.013524 159163.000000 1 0 0
-6.605764 -6.112403 -14.581440 17.135226 0.746626 2.588612 0.010103 0.002717 7451.330000 1 0 0
-5.895364 -8.274303 -17.236240 20.007682 0.951736 2.608976 -0.000338 0.001517 23788.300000 1 0 0
-2.397764 -16.277103 -13.414240 21.228169 1.424539 2.254808 0.013259 0.001685 454807.000000 1 0 0
16.469736 -7.914303 -9.012340 20.374264 -0.447956 2.029002 0.030118 -0.007945 142000.000000 1 0 0
19.429736 -2.851303 -4.441240 20.133782 -0.145709 1.793212 0.034223 -0.010458 132660.000000 1 0 0
15.450336 -11.329303 -9.537840 21.401784 -0.632709 2.032704 0.012773 -0.003372 241316.000000 1 0 0
18.450236 -2.802003 -6.611340 19.798288 -0.150716 1.911271 0.137520 -0.007776 -300887.000000 1 0 0
8.988036 -10.033503 -15.994540 20.911271 -0.840305 2.441646 0.045173 0.011586 173669.000000 1 0 0
-4.262664 10.309697 -16.395340 19.830969 -1.178739 2.544110 0.007114 0.008967 330737.000000 1 0 0
1.524136 -9.641603 -19.108840 21.457662 -1.414015 2.669320 0.007534 0.023156 404234.000000 1 0 0
11.013736 8.053897 -14.605640 19.987305 0.631399 2.390210 0.044852 -0.043047 389630.000000 1 0 0
18.658336 -5.683903 -8.747340 21.376534 -0.295700 1.992377 0.038060 -0.010885 312596.000000 1 0 0
12.686936 5.293797 -13.836340 19.504536 0.395300 2.359430 0.034567 -0.008880 97429.900000 1 0 0
15.865636 6.453997 -10.373340 20.024451 0.386347 2.115347 0.013781 -0.016944 -164821.000000 1 0 0
3.792536 -0.398703 -19.078740 19.456120 -0.104743 2.944314 0.015412 -0.008372 32425.800000 1 0 0
10.031636 -1.353403 -15.141640 18.213585 -0.134104 2.552307 0.017479 0.004680 -25119.100000 1 0 0
12.284536 -5.655903 -14.238040 19.637231 -0.431476 2.381908 0.037001 0.002515 -153.834000 1 0 0
10.134436 6.434097 -12.718440 17.488942 0.565669 2.385070 0.026737 -0.009706 545661.000000 1 0 0
10.802736 5.455197 -16.305540 20.305883 0.467626 2.503101 0.045690 -0.013764 391151.000000 1 0 0
11.902136 -10.026303 -15.149040 21.718218 -0.700063 2.342737 0.048282 -0.009715 298524.000000 1 0 0
-1.383664 2.129497 -17.337040 17.522050 -0.994589 2.996146 0.002271 -0.005227 274631.000000 1 0 0
6.027036 -1.148203 -17.106240 18.173249 -0.188253 2.797218 0.006813 0.005757 30558.800000 1 0 0
6.883936 -6.048403 -15.634440 18.122015 -0.720880 2.611444 0.003366 -0.002043 337773.000000 1 0 0
-2.144964 -4.487603 -20.439840 21.036314 1.124923 2.902890 0.006541 -0.014715 253523.000000 1 0 0
16.204836 -0.309303 -13.338540 20.990689 -0.019085 2.259388 0.037776 0.000281 -45836.000000 1 0 0
-4.031864 -0.480803 -18.459940 18.901229 0.118690 2.925081 0.002751 -0.003412 161446.000000 1 0 0
4.458136 8.296697 -18.253340 20.540072 1.077726 2.665232 0.026393 -0.006557 199250.000000 1 0 0
8.842436 0.912197 -15.894140 18.211108 0.102798 2.631648 0.022268 -0.054970 -175870.000000 1 0 0
4.161436 4.667297 -18.492940 19.521527 0.842633 2.815528 0.009385 0.002941 502923.000000 1 0 0
-3.012564 -10.972703 -17.532840 20.901584 1.302848 2.565924 0.004634 -0.016084 253514.000000 1 0 0
6.395436 -9.425703 -16.277740 19.867317 -0.974639 2.531025 0.026074 0.000353 287194.000000 1 0 0
9.763336 -13.077403 -11.319340 19.861234 -0.929487 2.177206 0.000059 0.040336 60114.700000 1 0 0
6.299136 6.906497 -17.019040 19.417171 0.831358 2.639327 0.019314 -0.012207 378728.000000 1 0 0
8.181136 1.471097 -19.991840 21.651068 0.177915 2.747551 0.020947 -0.012840 156269.000000 1 0 0
-1.389664 -0.498603 -20.081140 20.135341 0.344487 3.068203 0.006407 -0.011785 205710.000000 1 0 0
-1.051264 6.887697 -19.695240 20.891338 -1.419336 2.801569 0.011293 -0.003590 -46804.700000 1 0 0
8.567336 5.720397 -18.309940 21.008952 0.588717 2.629111 0.031179 -0.011190 158860.000000 1 0 0
12.010136 -0.005303 -13.098040 17.770820 -0.000442 2.399496 0.007350 0.001051 -24450.100000 1 0 0
-4.375964 -2.685803 -19.957740 20.607619 0.550478 2.889787 -0.003373 -0.000159 470867.000000 1 0 0
5.939836 -11.488003 -14.645040 19.537990 -1.093604 2.418205 0.005879 0.005991 164332.000000 1 0 0
11.280036 1.645197 -16.087740 19.717029 0.144829 2.525134 0.035456 0.001378 -320973.000000 1 0 0
-2.924664 -4.368603 -17.074140 17.865178 0.980853 2.842899 -0.004308 -0.005125 289046.000000 1 0 0
-6.483164 -4.694203 -17.480940 19.226289 0.626692 2.712205 0.005022 -0.003320 23191.100000 1 0 0
3.177136 10.407297 -15.449240 18.896694 1.274503 2.527963 0.001587 -0.004636 369645.000000 1 0 0
16.712336 -5.995503 -11.096640 20.937613 -0.344446 2.129380 0.026348 -0.011071 -142969.000000 1 0 0
9.277236 -3.279403 -17.674140 20.228613 -0.339780 2.633594 -0.001264 -0.009097 206700.000000 1 0 0
-7.150364 -1.633103 -19.126240 20.484330 0.224543 2.775410 -0.001718 0.017184 384952.000000 1 0 0
1.556936 -7.473603 -19.391140 20.839748 -1.365409 2.766540 0.013839 -0.006895 255468.000000 1 0 0
5.821436 10.272697 -13.892840 18.232620 1.055230 2.437157 0.013331 -0.014286 428002.000000 1 0 0
6.086636 -3.884303 -17.697740 19.113998 -0.568013 2.754220 0.020754 -0.016706 595016.000000 1 0 0
4.756636 13.348997 -14.657140 20.387571 1.228494 2.373051 0.013677 -0.010123 212753.000000 1 0 0
9.439336 11.309497 -15.518840 21.397200 0.875289 2.382229 0.061611 -0.018169 170557.000000 1 0 0
17.036036 1.098097 -10.966640 20.290380 0.064368 2.141809 0.038570 -0.004179 26368.000000 1 0 0
14.360336 -2.687203 -12.629340 19.311668 -0.184987 2.283623 0.024413 0.001419 107940.000000 1 0 0
-8.741664 0.180597 -17.464440 19.530898 -0.020656 2.677427 0.002907 0.003681 426665.000000 1 0 0
-3.179864 4.434197 -19.226340 19.985639 -0.948671 2.865059 0.011540 0.006798 67799.600000 1 0 0
3.978836 2.062597 -16.787140 17.375083 0.478253 2.880706 0.000680 -0.008323 348859.000000 1 0 0
-5.178364 14.554097 -13.759640 20.687312 -1.228963 2.298457 0.013063 -0.001661 -152238.000000 1 0 0
1.153336 9.399797 -17.762340 20.129259 1.448709 2.651765 0.012729 -0.001172 356836.000000 1 0 0
0.903236 -5.300803 -20.287240 20.987769 -1.402021 2.882497 0.008279 0.013863 466092.000000 1 0 0
3.662436 -6.265803 -18.023640 19.430010 -1.041843 2.758783 0.017657 -0.013114 72514.600000 1 0 0
-6.553064 7.720697 -15.981340 18.919700 -0.867019 2.576788 -0.003310 0.004456 71239.800000 1 0 0
-11.728964 3.317997 -16.883140 20.823499 -0.275686 2.516269 0.027495 -0.010067 204337.000000 1 0 0
-4.427264 7.115697 -17.442540 19.351383 -1.014225 2.693693 0.002628 0.016603 391529.000000 1 0 0
-8.237564 5.377797 -17.617440 20.178016 -0.578368 2.632323 0.009353 -0.002569 421100.000000 1 0 0
-8.256164 4.243697 -14.788540 17.460645 -0.474788 2.581045 -0.013656 -0.017671 424076.000000 1 0 0
9.564936 13.719497 -12.410240 20.826105 0.961967 2.209180 0.054855 -0.025599 530081.000000 1 0 0
14.469936 9.246997 -12.057340 20.982503 0.568638 2.182958 0.072091 -0.020210 152660.000000 1 0 0
8.876136 15.496897 -9.899340 20.419024 1.050641 2.076942 0.022388 -0.016290 46209.500000 1 0 0
8.106436 13.709997 -14.180040 21.324912 1.036814 2.298226 0.042789 -0.022049 167850.000000 1 0 0
4.214036 15.428197 -12.932640 20.567949 1.304162 2.250775 0.022802 -0.018827 196453.000000 1 0 0
10.832636 11.683197 -10.746040 19.217712 0.823156 2.164185 0.042484 -0.032894 258589.000000 1 0 0
16.203436 10.698897 -10.098940 21.886213 0.583572 2.050402 0.053723 -0.016166 298593.000000 1 0 0
14.067336 11.667497 -9.431140 20.566157 0.692415 2.047188 0.090522 -0.015492 -59054.200000 1 0 0
10.512536 11.330197 -7.556740 17.204392 0.822815 2.025541 0.012282 -0.013582 7340.040000 1 0 0
6.160436 16.672597 -9.774740 20.284773 1.216861 2.073590 0.045364 -0.017712 114959.000000 1 0 0
11.735536 13.639797 -10.075340 20.622302 0.860302 2.081241 0.054041 -0.032542 253018.000000 1 0 0
7.939136 -19.393203 -1.627140 21.018415 -1.182232 1.648289 0.012691 0.007871 167218.000000 1 0 0
7.817136 -17.268503 -4.119540 19.397922 -1.145715 1.784796 0.031303 0.012016 255570.000000 1 0 0
3.787236 -18.945403 5.823760 20.178890 -1.373494 1.278025 0.048006 -0.005802 155753.000000 1 0 0
10.335536 -17.940103 -2.255140 20.826815 -1.048126 1.679290 0.023609 0.006557 516620.000000 1 0 0
-3.456964 -14.603703 7.845460 16.934284 1.338357 1.089094 0.019273 -0.036745 93944.700000 1 0 0
-15.389464 -12.490603 -4.431440 20.309811 0.681794 1.790758 0.005705 0.001407 95161.300000 1 0 0
-9.054364 -12.775803 -7.078740 17.184621 0.954247 1.995360 0.006610 -0.010895 -72077.700000 1 0 0
-11.533464 -15.267403 6.703960 20.274552 0.923829 1.233795 0.011644 0.000527 286765.000000 1 0 0
-15.224264 -7.679403 -7.398840 18.587476 0.467176 1.980192 0.054854 -0.015486 116387.000000 1 0 0
4.133836 -14.894103 6.303260 16.692932 -1.300062 1.183593 0.026935 -0.020686 96028.700000 1 0 0
2.415736 -13.969103 9.045460 16.816419 -1.399556 1.002859 0.020640 -0.011932 461028.000000 1 0 0
3.117536 -17.331103 9.823460 20.163991 -1.392819 1.061940 0.049473 -0.016631 203969.000000 1 0 0
-7.465664 -17.254603 -5.293540 19.531488 1.162441 1.845255 -0.019679 -0.012812 -288340.000000 1 0 0
1.972136 -19.815103 -4.137940 20.338391 -1.471596 1.775681 0.017546 -0.001580 45523.500000 1 0 0
-17.372564 -10.768403 -2.564840 20.599585 0.554888 1.695630 -0.064858 -0.003898 -38066.300000 1 0 0
-4.179064 -14.937603 2.809360 15.763536 1.298003 1.391620 -0.005185 0.002008 225533.000000 1 0 0
-10.556264 -9.918703 -14.589040 20.558586 0.754270 2.359773 0.008935 0.004694 184607.000000 1 0 0
0.449436 -20.261603 2.705560 20.446383 -1.548618 1.438082 0.027113 -0.013431 303969.000000 1 0 0
5.419936 -18.820003 0.876760 19.604512 -1.290396 1.526059 0.004560 0.016592 79240.900000 1 0 0
-7.727864 -18.867003 -3.421840 20.673477 1.182044 1.737080 0.024079 -0.020691 143531.000000 1 0 0
-9.418864 -16.028903 -7.510240 20.051045 1.039531 1.954714 0.021446 -0.006626 -6284.490000 1 0 0
-11.971064 -10.900203 -12.365640 20.372281 0.738611 2.223056 0.029986 -0.000255 83468.600000 1 0 0
-13.462464 -14.825303 -3.415540 20.314858 0.833539 1.739729 0.006103 -0.011631 116956.000000 1 0 0
-0.393164 -20.379803 -2.317040 20.514863 1.551507 1.683982 0.023994 -0.011785 450116.000000 1 0 0
-12.101264 -16.918403 -0.799040 20.816133 0.949894 1.609191 0.014524 0.002083 194082.000000 1 0 0
0.836636 -19.932803 5.517960 20.699383 -1.528848 1.300958 0.044671 -0.022006 262793.000000 1 0 0
-18.218264 -9.700603 2.414760 20.780710 0.489282 1.454331 0.022740 0.005601 164635.000000 1 0 0
-15.061464 -15.116403 -1.144040 21.369655 0.787219 1.624358 0.007179 0.011669 -200788.000000 1 0 0
9.815236 -15.950903 -4.719540 19.314352 -1.019173 1.817650 0.018681 0.016874 25816.100000 1 0 0
-0.067164 -19.113903 -7.018740 20.361937 1.567282 1.922714 0.008453 0.000667 149119.000000 1 0 0
-9.987864 -16.919803 -2.582240 19.816789 1.037535 1.701474 0.015948 -0.004766 502008.000000 1 0 0
-14.640864 -6.782803 -11.450140 19.785525 0.433842 2.187946 0.024301 0.003634 163720.000000 1 0 0
-12.448064 -15.029503 2.016560 19.619041 0.879070 1.467829 0.015149 -0.006364 363002.000000 1 0 0
-2.875564 -16.337803 10.100560 19.421997 1.396574 1.023878 0.014846 -0.014248 434693.000000 1 0 0
-12.145664 -14.704203 -6.732340 20.225111 0.880402 1.910142 0.000540 -0.000084 180132.000000 1 0 0
4.940336 -16.870503 -7.829840 19.243886 -1.285922 1.989826 0.003769 0.004658 11777.100000 1 0 0
-17.175164 -7.164303 -2.775640 18.815357 0.395187 1.718857 -0.031171 -0.001292 -194784.000000 1 0 0
-11.802664 -13.452803 -9.752040 20.380948 0.850643 2.069728 0.012361 -0.018247 -94844.500000 1 0 0
-8.046864 -13.894703 9.913260 18.870281 1.045862 1.017685 0.010606 -0.002683 587819.000000 1 0 0
-16.207864 -8.325703 -5.148240 18.934534 0.474534 1.846160 0.041744 0.002312 470850.000000 1 0 0
-0.665464 -19.658403 0.195860 19.670638 1.536958 1.560839 0.021533 -0.005585 277393.000000 1 0 0
-15.006364 -11.497103 -1.786240 18.988549 0.653756 1.665005 0.004298 0.003031 40457.800000 1 0 0
-7.048564 -18.903903 1.257460 20.214376 1.213901 1.508550 0.007086 -0.009910 175115.000000 1 0 0
-2.172964 -20.595003 -5.337040 21.385974 1.465676 1.823020 0.010355 -0.006537 124228.000000 1 0 0
-9.137564 -19.737103 -0.730040 21.761922 1.137214 1.604349 0.024996 -0.003935 217968.000000 1 0 0
-17.821964 -7.493603 4.893060 19.942882 0.398028 1.322912 0.022344 -0.004893 94559.500000 1 0 0
-2.739364 -15.912003 -10.905840 19.484180 1.400310 2.164854 0.003517 0.005508 185426.000000 1 0 0
-2.983264 -18.181003 -8.597140 20.331245 1.408159 2.007388 0.004494 -0.001407 218614.000000 1 0 0
4.481836 -17.743003 -5.539040 19.120197 -1.323375 1.864705 0.010026 0.022897 580818.000000 1 0 0
0.677436 -17.512903 -9.249840 19.817170 -1.532134 2.056419 0.005086 0.009233 58774.800000 1 0 0
-7.527664 -9.894003 -14.604640 19.179482 0.920399 2.436377 0.001891 -0.009911 333229.000000 1 0 0
-5.330464 -19.056403 -1.850640 19.874234 1.298047 1.664049 0.018173 -0.021068 142778.000000 1 0 0
-10.312064 -15.800303 8.505660 20.696243 0.992561 1.147272 0.003655 -0.009281 163060.000000 1 0 0
-7.160764 -15.311203 -10.382840 19.837158 1.133336 2.121637 0.005480 -0.010072 221016.000000 1 0 0
-12.514264 -8.032903 -12.475440 19.410588 0.570660 2.268831 0.011100 0.003326 332931.000000 1 0 0
-15.628764 -12.844503 3.765760 20.577183 0.687923 1.386752 0.006104 -0.001373 17000.200000 1 0 0
-6.271564 -14.221403 -12.958840 20.236411 1.155456 2.265779 0.001882 -0.007700 518153.000000 1 0 0
-13.817264 -11.859903 -6.800640 19.437664 0.709316 1.928228 0.006230 -0.005152 105873.000000 1 0 0
-11.849264 -10.700003 -8.098440 17.901951 0.734476 2.040226 0.023595 -0.005395 115710.000000 1 0 0
-9.738964 -14.610903 3.425360 17.890193 0.982871 1.378141 0.000169 -0.004749 554132.000000 1 0 0
5.198736 -17.667403 8.206060 20.161929 -1.284618 1.151621 0.065950 -0.036980 171575.000000 1 0 0
-4.902464 -16.790203 5.291760 18.274238 1.286710 1.277014 -0.004830 0.008128 447784.000000 1 0 0
-18.302264 -7.421903 -6.515940 20.796995 0.385254 1.889475 0.006901 -0.010299 55963.300000 1 0 0
-16.907564 -3.582503 -10.889440 20.427431 0.208799 2.133032 0.025804 -0.006907 -172837.000000 1 0 0
-15.384364 -4.251103 -13.334040 20.797768 0.269599 2.266764 0.010317 0.001665 282193.000000 1 0 0
-19.507764 -4.736203 -6.106840 20.982802 0.238177 1.866110 0.025259 0.003417 -523339.000000 1 0 0
5.410236 -13.821203 8.930360 17.321883 -1.197687 1.029143 0.032651 -0.004116 286569.000000 1 0 0
19.787436 -2.873503 2.513360 20.152335 -0.144210 1.445753 0.025473 -0.008959 -54798.100000 1 0 0
18.108436 -2.459303 0.574860 18.283711 -0.134984 1.539350 0.025222 -0.018017 156867.000000 1 0 0
14.465336 -11.750503 0.239560 18.638070 -0.682209 1.557943 0.034305 0.007376 43005.200000 1 0 0
10.954636 -13.819903 5.462660 18.461701 -0.900540 1.270408 0.007313 0.006672 498908.000000 1 0 0
10.118536 -13.238003 9.316960 19.090187 -0.918171 1.060942 0.024273 0.004322 248832.000000 1 0 0
17.665736 4.962597 -4.688940 18.939159 0.273858 1.820977 -0.004284 0.004381 -45745.500000 1 0 0
18.889036 -6.215003 -4.687040 20.430131 -0.317870 1.802276 0.030486 -0.013732 2547.040000 1 0 0
17.783836 -10.166103 -0.389440 20.488195 -0.519312 1.589805 0.041170 0.000840 474009.000000 1 0 0
17.842636 -8.767603 8.640360 21.676862 -0.456732 1.160808 0.074356 -0.003603 -323879.000000 1 0 0
20.081636 0.226997 -2.139540 20.196565 0.011303 1.676931 0.038116 -0.005264 -47978.100000 1 0 0
7.364236 -13.706103 11.666560 19.447309 -1.077759 0.927413 0.014193 0.008178 318814.000000 1 0 0
16.033636 -6.575003 -3.547240 17.688726 -0.389162 1.772702 0.022023 -0.004016 232527.000000 1 0 0
14.420836 -6.857403 11.608460 19.741855 -0.443873 0.942197 0.030288 -0.034401 402786.000000 1 0 0
16.438236 1.438397 10.709060 19.671516 0.087281 0.995130 0.053229 -0.011911 328044.000000 1 0 0
16.527236 -10.348003 2.621560 19.674940 -0.559403 1.437155 0.006120 0.003411 293546.000000 1 0 0
16.339236 -7.424103 -6.170040 18.977811 -0.426484 1.901933 0.026789 0.001563 316145.000000 1 0 0
18.012136 -4.371203 5.970960 19.472976 -0.238078 1.259148 0.064950 -0.009555 -1413.680000 1 0 0
13.272736 -13.760503 7.888160 20.681877 -0.803439 1.179481 0.004260 0.004423 161380.000000 1 0 0
15.082336 -14.392003 -2.042140 20.947003 -0.761981 1.668442 0.022284 0.002171 123163.000000 1 0 0
18.665336 -6.380303 7.581060 21.132333 -0.329375 1.203876 0.056960 -0.008468 210700.000000 1 0 0
19.521536 3.174097 2.505460 19.935962 0.161184 1.444788 0.029142 -0.002047 351087.000000 1 0 0
15.609236 -10.364603 8.127360 20.423692 -0.586157 1.161528 0.024817 -0.021494 246291.000000 1 0 0
14.072736 -4.509003 10.553460 18.158979 -0.310072 0.950630 0.028414 -0.016162 39763.800000 1 0 0
18.765036 -7.999903 1.597360 20.461588 -0.402988 1.492651 0.041942 -0.007489 93632.600000 1 0 0
18.657736 -4.892703 -1.903840 19.382318 -0.256460 1.669181 0.009624 -0.006463 297846.000000 1 0 0
14.585736 -13.774503 -6.114240 20.972948 -0.756801 1.866622 0.034237 0.002952 456654.000000 1 0 0
13.841236 -9.824203 10.135260 19.769124 -0.617258 1.032491 0.012561 -0.008240 334108.000000 1 0 0
14.314636 2.027697 0.368760 14.462238 0.140716 1.545295 0.000123 0.000075 -224841.000000 1 0 0
13.013536 2.370097 13.615560 18.982965 0.180151 0.770946 0.028222 -0.003673 179128.000000 1 0 0
17.968736 -3.776703 9.245860 20.557842 -0.207166 1.104313 0.031626 -0.003115 57991.000000 1 0 0
6.909136 -18.269603 4.527060 20.050157 -1.209244 1.343046 0.022655 -0.017178 503935.000000 1 0 0
12.493636 -3.099403 15.300760 19.995262 -0.243169 0.699414 0.019829 0.012291 360737.000000 1 0 0
12.053836 -13.914403 -7.446440 19.858374 -0.856924 1.955169 0.040238 0.009516 252054.000000 1 0 0
10.485636 -18.008003 5.490560 21.549547 -1.043511 1.313168 0.002944 0.008729 586862.000000 1 0 0
18.352836 -0.345203 -4.825840 18.979844 -0.018807 1.827880 0.040001 -0.012475 362956.000000 1 0 0
4.113036 -13.319703 11.494560 18.068106 -1.271292 0.881260 0.012487 -0.012779 67691.200000 1 0 0
9.153936 -2.603303 14.252660 17.137971 -0.277076 0.588738 0.013498 -0.003125 260732.000000 1 0 0
8.970136 -9.412603 14.259760 19.297699 -0.809463 0.739307 0.010074 0.003820 303384.000000 1 0 0
20.864036 5.612997 -3.108940 21.828404 0.262805 1.713709 0.016950 0.001584 388728.000000 1 0 0
14.560236 -13.792403 2.078760 20.163137 -0.758323 1.467516 0.011475 0.010956 236712.000000 1 0 0
11.143636 0.134097 14.107760 17.978529 0.012033 0.668584 0.018734 -0.022312 98999.200000 1 0 0
19.583436 0.214197 7.393360 20.933672 0.010937 1.209828 0.079232 -0.013884 -106370.000000 1 0 0
19.904236 1.229997 0.108460 19.942499 0.061717 1.565358 0.030175 -0.000424 244079.000000 1 0 0
18.047436 -0.058603 3.154160 18.321083 -0.003247 1.397774 0.024974 0.000941 -7358.050000 1 0 0
10.038836 -8.600403 16.359560 21.032840 -0.708379 0.679622 0.010096 0.003378 62030.900000 1 0 0
19.004136 2.953497 5.350760 19.962739 0.154180 1.299441 0.038390 -0.004457 114012.000000 1 0 0
15.216236 2.252697 6.986760 16.894475 0.146978 1.144443 0.025886 -0.006128 71471.100000 1 0 0
11.218536 -16.139703 1.914960 19.748737 -0.963374 1.473678 -0.001186 0.006165 259300.000000 1 0 0
8.382836 -16.309303 6.904160 19.594201 -1.096019 1.210708 0.014450 -0.003518 391602.000000 1 0 0
6.317836 6.463497 7.040560 11.456934 0.796794 0.909014 0.000657 0.000230 -1244900.000000 1 0 0
18.457236 2.867197 -6.339140 19.724986 0.154111 1.897979 0.017489 -0.001025 375507.000000 1 0 0
14.132536 4.421697 -7.222340 16.475502 0.303225 2.024579 0.019728 -0.002842 273072.000000 1 0 0
-10.308464 -3.802103 -14.160540 17.923206 0.353353 2.481715 -0.002102 0.011706 -245584.000000 1 0 0
7.605836 -14.297303 -10.431040 19.263130 -1.081896 2.143020 -0.002361 0.012774 -76569.400000 1 0 0
1.801336 -15.701803 14.044060 21.143014 -1.456574 0.844318 0.023646 -0.009230 473157.000000 1 0 0
-9.503264 -8.125603 2.172660 12.690859 0.707409 1.398750 0.002385 0.001728 386029.000000 1 0 0
-13.550964 3.018297 -9.702140 16.937245 -0.219159 2.180749 -0.002533 -0.002694 247826.000000 1 0 0
-12.620464 -4.654403 -13.458040 19.027833 0.353322 2.356442 -0.003742 0.007542 299718.000000 1 0 0
-17.698864 -0.121503 -8.105440 19.466965 0.006865 2.000244 0.023705 -0.019044 380079.000000 1 0 0
-12.301864 15.213797 4.052260 19.980398 -0.890834 1.366568 0.021261 -0.017309 292680.000000 1 0 0
-17.359464 6.250097 9.170660 20.603780 -0.345591 1.109515 0.010475 -0.005812 214208.000000 1 0 0
-13.246064 15.547197 -0.359540 20.427992 -0.865148 1.588398 0.038981 -0.019500 183023.000000 1 0 0
-16.174264 5.249997 -10.639040 20.058875 -0.313861 2.129858 0.028660 -0.000053 16091.100000 1 0 0
-18.305964 3.212897 0.048560 18.585839 -0.173741 1.568184 0.041171 -0.007573 10555.500000 1 0 0
-9.579464 15.489497 -0.367340 18.216081 -1.016922 1.590963 0.010322 -0.009786 -94028.600000 1 0 0
-18.275464 12.381497 2.756660 22.246196 -0.595460 1.446561 0.076337 -0.008378 93634.400000 1 0 0
-8.535664 16.399097 -7.661840 20.012290 -1.090887 1.963683 0.043406 -0.026178 13163.400000 1 0 0
-14.466364 -1.590003 -12.625540 19.266760 0.109471 2.285378 -0.010261 -0.020788 165889.000000 1 0 0
-18.938364 4.982297 -4.934440 20.194891 -0.257250 1.817636 0.040904 -0.009881 -19257.300000 1 0 0
-16.848964 8.942197 -6.173640 20.049048 -0.487926 1.883810 0.052632 -0.002278 -67806.500000 1 0 0
-18.887664 1.591997 2.784960 19.158140 -0.084089 1.424912 0.012817 -0.015927 300255.000000 1 0 0
-13.281864 11.940497 -6.815840 19.116461 -0.732267 1.935361 0.020562 -0.012944 -40547.800000 1 0 0
-12.854964 5.185097 -13.466040 19.325361 -0.383394 2.341732 0.015765 -0.003849 7495.230000 1 0 0
-13.927164 9.464497 -6.662240 18.108784 -0.596883 1.947547 0.019551 -0.005018 322722.000000 1 0 0
-6.249364 11.113597 -15.423440 20.011224 -1.058546 2.450797 0.001229 -0.036920 114690.000000 1 0 0
-14.923364 14.043097 3.313560 20.758012 -0.755018 1.410482 0.026709 -0.013306 -17277.700000 1 0 0
-18.929764 8.315297 -4.621240 21.185750 -0.413896 1.790694 0.071804 -0.009416 346881.000000 1 0 0
-3.958164 17.018397 -9.997740 20.130765 -1.342278 2.090519 0.012014 0.001045 138664.000000 1 0 0
-19.504864 -2.224103 -6.665140 20.731870 0.113538 1.898102 0.022437 -0.000144 -98564.200000 1 0 0
-10.470064 13.827997 -6.292740 18.450863 -0.922726 1.918834 0.014702 -0.020829 -36037.400000 1 0 0
-19.601964 3.316397 4.449960 20.372473 -0.167600 1.350591 0.037759 0.001574 134333.000000 1 0 0
-15.007064 12.548597 0.552360 19.569987 -0.696416 1.542568 0.027751 -0.005407 84944.900000 1 0 0
-17.027264 2.009497 -9.706840 19.702501 -0.117473 2.085952 -0.010722 0.006242 131485.000000 1 0 0
-16.906464 12.900397 -4.275240 21.691622 -0.651798 1.769187 0.062008 0.000806 232016.000000 1 0 0
-10.635264 15.750597 -8.341540 20.755034 -0.976889 1.984392 0.028466 -0.017361 52609.900000 1 0 0
-18.866764 2.282597 -6.776740 20.176453 -0.120400 1.913329 0.008181 -0.004322 128996.000000 1 0 0
-17.223064 10.590197 -0.727040 20.231530 -0.551292 1.606740 0.050776 -0.000496 -27751.700000 1 0 0
-11.382964 7.262397 -14.719440 19.974388 -0.567897 2.399293 0.006720 0.001362 311755.000000 1 0 0
-13.637764 13.427097 -5.133640 19.814889 -0.777615 1.832866 0.042656 -0.005082 376764.000000 1 0 0
-18.719364 7.530797 -0.536140 20.184523 -0.382487 1.597361 0.035196 -0.000098 -45649.800000 1 0 0
-14.592364 8.632797 -10.150640 19.761016 -0.534218 2.110253 0.015641 0.000119 477452.000000 1 0 0
-18.362364 11.591797 4.965360 22.275569 -0.563103 1.346002 0.038317 -0.014411 109640.000000 1 0 0
-8.040464 11.872197 -13.664640 19.807082 -0.975501 2.332129 -0.009697 -0.007465 401363.000000 1 0 0
-20.999164 -0.628503 -5.473040 21.709769 0.029921 1.825646 0.008671 0.002641 189153.000000 1 0 0
-10.571464 13.537097 -3.040240 17.442819 -0.907795 1.745989 0.019222 -0.007337 437881.000000 1 0 0
-18.677664 -4.963803 3.334860 19.611623 0.259757 1.399921 0.012008 -0.010051 -49973.000000 1 0 0
-11.199964 11.405297 -13.560440 20.962002 -0.794481 2.274316 0.013122 0.002315 285190.000000 1 0 0
-14.876064 11.703797 -9.814240 21.321244 -0.666612 2.049133 0.027836 0.000970 102914.000000 1 0 0
-13.255864 9.183697 -12.744640 20.554417 -0.605879 2.239595 0.060558 -0.030138 39089.700000 1 0 0
-18.454164 -4.935403 -2.897040 19.321160 0.261325 1.721305 0.009918 -0.000678 -291658.000000 1 0 0
-9.438764 12.562097 -11.458340 19.447111 -0.926420 2.200871 0.011711 -0.009578 86159.900000 1 0 0
-15.225364 7.581297 -8.331840 18.939571 -0.461997 2.026303 -0.002119 0.001269 -65768.100000 1 0 0
-14.393464 9.135697 2.026060 17.167927 -0.565552 1.452506 0.017594 0.001100 -112950.000000 1 0 0
-19.612264 6.199597 7.952460 22.052609 -0.306169 1.201871 0.035459 -0.009036 211330.000000 1 0 0
-18.744064 5.898997 3.273360 19.921170 -0.304900 1.405732 0.027408 -0.003823 173091.000000 1 0 0
-14.503464 12.555597 5.872360 20.061857 -0.713536 1.273734 0.020602 -0.015124 -16203.100000 1 0 0
18.065236 6.117797 5.785460 19.931175 0.326528 1.276285 0.032206 -0.009866 221038.000000 1 0 0
18.428036 8.194897 0.451660 20.173072 0.418435 1.548405 0.023283 0.015135 -36183.100000 1 0 0
16.651936 4.339297 8.727960 19.294915 0.254919 1.101403 0.038610 -0.002981 -36489.100000 1 0 0
12.185536 12.987297 10.730560 20.791876 0.817238 1.028512 0.047377 -0.016514 157697.000000 1 0 0
15.497336 12.505597 4.227760 20.357587 0.678965 1.361599 0.033510 -0.006087 221869.000000 1 0 0
4.379036 9.836097 13.440560 17.221307 1.151941 0.675393 0.013136 -0.035055 347840.000000 1 0 0
13.210436 13.310597 -5.298740 19.487541 0.789175 1.846167 0.032811 -0.007661 211999.000000 1 0 0
17.924636 9.429497 -2.952440 20.467655 0.484280 1.715550 0.019334 0.010734 -93135.200000 1 0 0
14.552036 7.294297 9.530160 18.862462 0.464652 1.041131 0.037531 -0.009039 -12361.200000 1 0 0
4.767936 19.216097 -1.849640 19.884989 1.327586 1.663948 -0.003757 -0.008024 377938.000000 1 0 0
-4.529064 19.196697 3.211460 19.983471 -1.339104 1.409391 -0.008218 -0.006653 277419.000000 1 0 0
6.733336 13.199497 12.606360 19.454687 1.099085 0.865859 0.017974 0.006773 -59875.000000 1 0 0
0.644936 17.711197 -9.979240 20.339314 1.534398 2.083618 0.011348 0.015957 46533.600000 1 0 0
10.814436 9.505297 15.386660 21.072542 0.721060 0.752217 0.040487 -0.014865 247916.000000 1 0 0
-1.160964 12.340197 1.181260 12.450851 -1.476993 1.475780 -0.006012 0.000001 250289.000000 1 0 0
-4.459164 19.376397 -2.619840 20.054737 -1.344601 1.701805 0.003560 0.010054 24966.900000 1 0 0
5.905136 18.557197 6.203860 20.438397 1.262716 1.262391 0.022327 -0.012491 246846.000000 1 0 0
10.683836 17.790997 -1.425340 20.801335 1.029995 1.639372 0.003446 -0.009924 381034.000000 1 0 0
18.402936 10.564997 3.325660 21.478995 0.521152 1.415338 0.016767 0.001285 293099.000000 1 0 0
11.850936 16.465997 6.647960 21.348750 0.946957 1.254132 0.043039 -0.003308 -17778.600000 1 0 0
18.195936 7.609497 -5.809740 20.560875 0.396095 1.857261 0.007254 0.007895 379803.000000 1 0 0
0.332136 15.528097 11.096060 19.088077 1.549410 0.950461 -0.008049 0.003904 408978.000000 1 0 0
1.140036 20.260097 -1.916640 20.382462 1.514586 1.664969 -0.009723 -0.001155 330719.000000 1 0 0
14.466936 9.784697 -1.499440 17.529428 0.594676 1.656439 0.017723 0.000682 36316.500000 1 0 0
10.265436 17.035797 1.594360 19.953435 1.028482 1.490807 0.033377 -0.024755 307741.000000 1 0 0
0.527536 17.665597 0.069760 17.673610 1.540943 1.566849 -0.015113 0.003140 -63670.400000 1 0 0
0.017736 21.144697 1.304260 21.184892 1.569958 1.509192 0.004905 0.003695 228322.000000 1 0 0
6.269536 17.310697 -0.358440 18.414554 1.223315 1.590263 -0.001095 -0.024764 31833.800000 1 0 0
6.687236 18.700797 -2.662240 20.038125 1.227375 1.704049 -0.014662 -0.016992 -41955.100000 1 0 0
9.993236 9.609797 12.663860 18.777282 0.765841 0.830611 0.019850 -0.009768 88034.600000 1 0 0
12.486836 14.557397 8.249960 20.878236 0.861811 1.164569 0.021091 -0.014482 200218.000000 1 0 0
0.462836 17.552897 7.243560 18.994410 1.544434 1.179538 -0.001853 -0.000620 281005.000000 1 0 0
7.145536 18.044197 -7.918440 20.960759 1.193741 1.958188 0.001599 -0.009775 106127.000000 1 0 0
-1.059764 18.556597 9.281060 20.775189 -1.513748 1.107681 0.024730 -0.011503 1175.810000 1 0 0
16.177636 7.104697 -7.893840 19.352140 0.413809 1.990955 0.044338 -0.002904 -213925.000000 1 0 0
-4.610964 20.122397 -6.532540 21.652851 -1.345539 1.877265 -0.010528 -0.003176 263973.000000 1 0 0
3.740036 15.867997 9.800360 19.021784 1.339324 1.029535 0.007327 0.003155 275907.000000 1 0 0
9.081636 14.833097 7.422060 18.909888 1.021415 1.167452 0.025311 -0.007128 60729.100000 1 0 0
-2.861764 19.827697 6.510060 21.064381 -1.427455 1.256597 0.013214 -0.000330 109645.000000 1 0 0
4.945036 18.052697 8.284460 20.469136 1.303432 1.154113 0.024372 -0.009372 145394.000000 1 0 0
13.562336 11.140697 -7.008440 18.898950 0.687680 1.950707 -0.060917 -0.033755 -20516.200000 1 0 0
12.061736 6.736497 15.612460 20.847417 0.509347 0.724408 0.054164 -0.020054 306155.000000 1 0 0
17.064836 8.994297 5.054160 19.941177 0.485065 1.314548 0.032073 -0.010068 165767.000000 1 0 0
4.511636 15.006897 11.993660 19.733467 1.278755 0.917531 -0.009389 -0.008723 480708.000000 1 0 0
16.168036 11.712997 -4.748740 20.521945 0.626950 1.804311 0.042073 0.032383 131805.000000 1 0 0
15.316936 13.398297 6.507060 21.365035 0.718681 1.261314 0.034033 -0.007620 341922.000000 1 0 0
12.604836 14.350797 -7.665440 20.581211 0.850079 1.952442 0.046051 -0.021812 401555.000000 1 0 0
-8.025064 15.560497 9.608860 19.971503 -1.094642 1.068855 0.011654 -0.008995 202805.000000 1 0 0
-4.580964 16.750397 -7.078340 18.752705 -1.303840 1.957845 0.004051 -0.005152 81101.400000 1 0 0
2.478236 19.381197 -4.664540 20.088066 1.443618 1.805140 -0.011741 -0.018280 32832.000000 1 0 0
7.052436 16.618097 8.970060 20.158373 1.169449 1.109645 0.021270 -0.000382 590384.000000 1 0 0
12.980936 15.893197 -1.280540 20.560598 0.885919 1.633118 0.017437 -0.015071 107377.000000 1 0 0
12.507736 16.733897 4.220260 21.313784 0.928930 1.371473 0.029595 -0.019077 325742.000000 1 0 0
3.502636 18.357297 0.595260 18.697945 1.382259 1.538955 0.028443 -0.011188 120369.000000 1 0 0
-6.409864 18.077897 1.473060 19.237116 -1.230057 1.494147 -0.037472 0.023599 161464.000000 1 0 0
0.258436 20.051597 -5.874940 20.896130 1.557909 1.855788 0.002307 0.002155 194072.000000 1 0 0
-7.098064 17.956197 -6.229740 20.288351 -1.194349 1.882898 0.033798 -0.020232 122473.000000 1 0 0
-6.935464 18.690897 -1.331140 19.980547 -1.215483 1.637467 0.013374 -0.007087 -44795.600000 1 0 0
-14.450364 -8.820603 8.698460 19.033635 0.548037 1.096172 0.025809 -0.012948 317321.000000 1 0 0
-13.004864 -13.743603 7.519360 20.360596 0.813009 1.192531 0.010045 0.000654 58125.600000 1 0 0
-3.839364 -16.074403 12.644460 20.808881 1.336339 0.917701 0.022326 -0.002717 65363.600000 1 0 0
-2.758964 -14.731903 14.601560 20.924780 1.385663 0.798458 0.030737 -0.031714 366983.000000 1 0 0
-8.060264 -13.436603 13.403160 20.619284 1.030470 0.863172 0.008116 -0.009667 177254.000000 1 0 0
-9.921264 -11.287703 11.645860 19.012359 0.849737 0.911524 0.017002 -0.006346 -110709.000000 1 0 0
-7.307664 -10.308003 12.961760 18.101495 0.954101 0.772655 0.008973 -0.014111 428732.000000 1 0 0
-15.036964 -11.791103 8.234060 20.807214 0.664996 1.163933 0.015780 0.013923 436663.000000 1 0 0
-5.034164 -12.857703 13.542460 19.340671 1.197614 0.795110 0.022996 -0.005759 315953.000000 1 0 0
3.267736 -12.360903 14.010260 18.967272 -1.312348 0.739724 0.004643 0.002183 557119.000000 1 0 0
6.707936 -13.434703 15.095460 21.292265 -1.107710 0.782767 0.019381 0.009319 315059.000000 1 0 0
7.176936 -8.611103 16.847060 20.235685 -0.875988 0.587115 0.002937 0.004916 536043.000000 1 0 0
-5.225964 13.557297 13.224760 19.647018 -1.202876 0.832379 -0.000072 -0.008754 339549.000000 1 0 0
-13.268064 -2.020103 17.656160 22.177970 0.151093 0.649952 0.009130 0.000274 339133.000000 1 0 0
-10.035264 10.522297 14.170060 20.303100 -0.809085 0.798299 0.012842 0.031567 287814.000000 1 0 0
-7.436464 -8.190903 17.109360 20.374545 0.833637 0.573989 0.023696 -0.012444 215115.000000 1 0 0
-4.905764 2.069897 18.337260 19.094662 -0.399269 0.282597 0.022779 -0.008757 603167.000000 1 0 0
-15.342864 -3.588803 14.856960 21.656691 0.229776 0.814789 0.017725 -0.000602 94039.800000 1 0 0
-14.511364 2.871697 12.421960 19.316610 -0.195369 0.872294 0.000430 -0.002622 84076.300000 1 0 0
-14.044664 10.903097 9.879060 20.340255 -0.660132 1.063644 -0.045061 0.024908 -200939.000000 1 0 0
-4.009064 11.237197 15.739660 19.750547 -1.228106 0.648612 -0.008751 -0.006157 146311.000000 1 0 0
-13.281564 13.031097 7.539460 20.076178 -0.775880 1.185814 0.016740 -0.028799 123565.000000 1 0 0
-4.587564 -6.733303 18.545360 20.256197 0.972714 0.413948 0.025087 -0.014936 306701.000000 1 0 0
0.428236 -3.158503 17.389060 17.678771 -1.436036 0.181287 0.007346 -0.026660 228629.000000 1 0 0
-4.324364 6.513497 21.205860 22.601201 -0.984706 0.353223 0.024052 -0.003795 172817.000000 1 0 0
1.982636 -10.629903 16.629060 19.835607 -1.386400 0.576558 -0.000068 -0.003703 263816.000000 1 0 0
-14.954264 -0.237603 13.985260 20.476181 0.015887 0.818932 -0.008992 0.003365 -148138.000000 1 0 0
-14.151864 -5.750203 7.480660 17.008832 0.385944 1.115409 0.018767 -0.005352 39929.700000 1 0 0
10.090036 0.367297 16.670560 19.489775 0.036386 0.544572 0.025728 0.009022 370689.000000 1 0 0
-7.737664 12.253197 11.889660 18.745035 -1.007550 0.883715 0.021610 -0.013218 195491.000000 1 0 0
-1.625664 7.603397 19.722960 21.200227 -1.360160 0.375516 0.009320 -0.018576 414044.000000 1 0 0
0.462736 -14.195303 16.033460 21.419444 -1.538210 0.724928 0.003922 0.017603 515504.000000 1 0 0
-2.847164 -11.089003 17.746860 21.119266 1.319470 0.572930 0.006783 -0.020680 651429.000000 1 0 0
-2.130164 9.225497 16.695560 19.193466 -1.343874 0.515885 -0.000399 -0.000642 305532.000000 1 0 0
-5.763064 -9.236603 20.153260 22.905930 1.012961 0.495298 0.082231 -0.025239 180735.000000 1 0 0
-6.712164 -2.676003 19.050560 20.374935 0.379368 0.362538 0.023869 -0.018832 117842.000000 1 0 0
-10.617264 -7.742703 16.440360 21.046643 0.630092 0.674308 0.025375 -0.016844 158129.000000 1 0 0
-0.182464 6.383897 17.980160 19.080713 -1.542222 0.341297 0.014592 -0.001773 21189.800000 1 0 0
-6.010664 -11.467003 18.749660 22.785302 1.088000 0.604328 0.035549 -0.015718 394877.000000 1 0 0
0.483336 3.466797 18.887860 19.209466 1.432271 0.183243 0.021063 -0.003209 54815.100000 1 0 0
-17.707464 -1.396203 7.458360 19.264756 0.078685 1.173257 -0.026045 0.006534 253304.000000 1 0 0
-1.664964 -8.408003 17.141960 19.165422 1.375304 0.463661 0.010877 -0.022162 10082.100000 1 0 0
6.167036 3.373397 15.136560 16.689146 0.500541 0.434762 0.017030 -0.004577 521553.000000 1 0 0
-13.394264 -6.697403 10.213560 18.126730 0.463664 0.972237 -0.000256 -0.008488 79223.000000 1 0 0
3.905636 8.053397 16.724160 18.968625 1.119247 0.491396 0.014215 -0.013077 211766.000000 1 0 0
6.503836 4.223697 17.058260 18.738296 0.575965 0.426686 0.041436 -0.035919 315614.000000 1 0 0
5.355636 -9.832003 17.982960 21.183436 -1.072020 0.556865 0.009703 0.003009 355883.000000 1 0 0
-4.454064 -0.460203 19.693260 20.195915 0.102957 0.223575 0.023342 -0.019008 757846.000000 1 0 0
-11.219464 1.920897 16.959060 20.424886 -0.169567 0.591126 0.035525 -0.013595 248088.000000 1 0 0
-16.751964 -3.784803 8.784160 19.290270 0.222201 1.098011 0.010018 -0.006435 253509.000000 1 0 0
-13.542564 -9.474303 12.155760 20.516480 0.610454 0.936653 0.040674 -0.024418 170824.000000 1 0 0
-14.764464 6.122597 13.122960 20.680612 -0.393101 0.883365 0.011236 -0.008120 250966.000000 1 0 0
1.244936 9.555797 17.219060 19.732186 1.441245 0.510218 0.006095 -0.005795 191015.000000 1 0 0
-3.939764 -10.233103 14.849160 18.459027 1.203286 0.636066 0.015546 -0.014965 610853.000000 1 0 0
-19.002364 -4.064803 6.550160 20.506513 0.210734 1.245681 0.098287 -0.006442 -198073.000000 1 0 0
-0.488964 -0.780503 20.731060 20.751509 1.011138 0.044398 0.024241 -0.021970 326895.000000 1 0 0
-1.762364 2.345697 20.363460 20.573739 -0.926452 0.143096 0.016480 -0.009824 103152.000000 1 0 0
-8.223364 2.053497 16.272360 18.347487 -0.244710 0.480209 0.014845 0.002618 277753.000000 1 0 0
2.599136 -2.053703 18.859060 19.147777 -0.668705 0.173876 0.011511 -0.008993 120878.000000 1 0 0
-12.123864 4.324197 14.696760 19.536672 -0.342603 0.719303 -0.011976 0.000225 172210.000000 1 0 0
-13.516264 -5.369103 13.082560 19.561954 0.378119 0.838235 0.027014 -0.006879 -35444.200000 1 0 0
-17.262964 -1.085703 9.468860 19.719229 0.062809 1.069932 0.011531 -0.010757 228443.000000 1 0 0
-7.110564 7.784197 14.952960 18.296035 -0.830594 0.614124 0.010605 -0.002288 -76526.000000 1 0 0
-9.483364 0.708897 14.037760 16.955691 -0.074613 0.595428 0.008582 -0.002453 218504.000000 1 0 0
7.608636 -1.247803 14.963160 16.832840 -0.162551 0.475800 0.018768 -0.006537 46360.500000 1 0 0
4.254836 6.298597 18.316860 19.831372 0.976689 0.393349 0.027415 -0.000730 151449.000000 1 0 0
1.633536 0.628197 20.092760 20.168840 0.367128 0.086885 0.018829 -0.002040 108561.000000 1 0 0
-6.721864 7.114397 18.416760 20.856058 -0.813760 0.488493 0.005766 0.015304 484118.000000 1 0 0
7.365736 -3.212503 17.041860 18.841424 -0.411270 0.440616 0.000091 0.010384 355911.000000 1 0 0
-16.467064 2.536097 9.203160 19.034026 -0.152810 1.066135 0.011110 -0.006147 223629.000000 1 0 0
4.062036 -6.046303 19.146860 20.485609 -0.979234 0.363525 0.017794 -0.013058 22337.700000 1 0 0
-3.899864 -3.917203 20.591260 21.320258 0.787616 0.262257 0.026367 -0.017811 289119.000000 1 0 0
-9.884064 6.142997 14.409360 18.521901 -0.556082 0.679378 0.019337 -0.005973 76389.600000 1 0 0
6.978336 2.389797 19.786760 21.116917 0.329942 0.356827 0.047440 -0.015020 195001.000000 1 0 0
-7.138764 11.457397 14.538360 19.839300 -1.013586 0.748360 0.022241 -0.012381 198707.000000 1 0 0
-14.573064 5.029297 9.321160 18.015329 -0.332311 1.026985 -0.000403 -0.000428 153182.000000 1 0 0
0.995836 -5.471703 20.328560 21.075616 -1.390769 0.267050 0.022578 -0.017347 299141.000000 1 0 0
-5.988364 -8.445403 13.757060 17.217492 0.954010 0.645138 0.007596 -0.002003 361723.000000 1 0 0
-12.833864 10.177297 6.462560 17.608241 -0.670460 1.194994 -0.013768 -0.011868 97250.100000 1 0 0
-19.517064 1.896997 7.626460 21.039898 -0.096893 1.199873 -0.001384 -0.005179 44364.400000 1 0 0
-16.519864 9.298197 6.237360 19.956629 -0.512655 1.252924 0.031177 -0.000677 13613.300000 1 0 0
-12.964264 7.295997 14.402460 20.705907 -0.512600 0.801580 0.026464 -0.010043 175771.000000 1 0 0
-16.541064 8.392397 10.728060 21.427329 -0.469524 1.046422 0.004762 -0.009852 397184.000000 1 0 0
2.623736 10.408097 15.306060 18.694597 1.323855 0.611579 0.001073 -0.025868 328792.000000 1 0 0
1.701736 14.516597 13.701760 20.034115 1.454102 0.817672 -0.005820 -0.010634 617428.000000 1 0 0
8.850736 5.172297 16.755160 19.642392 0.528864 0.549070 0.027874 -0.002236 130470.000000 1 0 0
-0.348064 13.185597 13.606460 18.950380 -1.544405 0.769865 -0.008785 0.009299 196449.000000 1 0 0
4.456236 12.538797 14.829260 19.924519 1.229323 0.731352 0.018046 -0.003077 170052.000000 1 0 0
-3.579264 -4.486503 -13.201740 14.395338 0.897407 2.731501 -0.004925 -0.004929 150527.000000 1 0 0
5.135836 -12.447703 16.812460 21.540217 -1.179481 0.675307 -0.048148 0.027880 184628.000000 1 0 0
8.850936 -13.643403 7.071760 17.733902 -0.995312 1.160620 0.008280 -0.006771 319226.000000 1 0 0
-0.294564 15.300897 0.511460 15.312277 -1.551547 1.537388 -0.010871 0.000896 -398889.000000 1 0 0
-13.934064 7.788197 8.352260 18.015949 -0.509675 1.088738 -0.010343 -0.001381 87044.300000 1 0 0
-16.077164 -9.611603 5.648760 19.564422 0.538831 1.277900 0.021561 -0.000108 286684.000000 1 0 0
8.958736 -10.422803 11.309660 17.798937 -0.860794 0.882254 0.002676 0.001962 99870.200000 1 0 0
-25.177494 6.326097 30.564283 40.101136 -0.246164 0.704122 0.067266 -0.020585 47109.100000 0 0 1
-24.100964 5.398997 30.479243 39.229962 -0.220377 0.681009 0.063615 -0.013840 -214996.000000 0 0 1
-23.426764 5.425797 31.670903 39.765546 -0.227594 0.649410 0.067049 -0.017442 -24189.900000 0 0 1
-21.998864 4.788297 31.561763 38.768837 -0.214318 0.619616 0.047930 -0.014641 83696.800000 0 0 1
-21.902264 3.359797 31.610393 38.603294 -0.152213 0.611388 0.023015 -0.015320 697927.000000 0 0 1
-20.575964 2.868097 31.367253 37.623142 -0.138498 0.584982 0.018514 -0.011659 819742.000000 0 0 1
-20.130264 1.691297 32.294783 38.092532 -0.083821 0.558977 0.011220 -0.007408 -25365.200000 0 0 1
-20.922964 0.558997 32.088803 38.311541 -0.026711 0.577966 0.018123 -0.000544 22849.400000 0 0 1
-20.750764 -0.361003 33.174958 39.131859 0.017395 0.559023 0.013928 0.002375 -36534.800000 0 0 1
-21.433064 -1.732103 33.037931 39.419301 0.080639 0.576977 0.012585 -0.018089 -421855.000000 0 0 1
-20.606664 -2.602603 32.309733 38.409985 0.125634 0.571334 0.013791 -0.015142 -77321.500000 0 0 1
-20.884064 -3.997203 32.402433 38.756153 0.189112 0.580736 0.017977 -0.021350 -510163.000000 0 0 1
-22.283264 -4.407003 31.824983 39.099809 0.195252 0.619890 -0.001178 -0.014272 1045750.000000 0 0 1
-23.468764 -4.209803 32.623343 40.407769 0.177491 0.631144 -0.016229 -0.013019 852671.000000 0 0 1
-23.471364 -4.715903 33.949413 41.541633 0.198281 0.614194 -0.015837 -0.017015 -1657930.000000 0 0 1
-24.719264 -4.474303 -33.953270 42.236074 0.179066 2.504608 -0.017790 -0.010095 -664498.000000 0 0 1
-24.862564 -5.056403 -32.669480 41.364347 0.200638 2.481276 -0.009350 -0.012057 -15148.300000 0 0 1
-25.973024 -4.546603 -31.971580 41.442146 0.173295 2.451952 0.007005 -0.011819 -327985.000000 0 0 1
-25.911524 -5.006203 -30.492450 40.326897 0.190852 2.428178 -0.001716 -0.004004 -829087.000000 0 0 1
-26.208174 -6.385103 -30.414530 40.653186 0.238975 2.416060 -0.014375 -0.005208 478541.000000 0 0 1
-25.917054 -6.911403 -29.126560 39.595677 0.260609 2.397348 -0.016899 -0.003445 -311650.000000 0 0 1
-26.110864 -8.457803 -29.069270 39.979171 0.313254 2.384900 -0.013408 0.000494 -178220.000000 0 0 1
-27.452994 -8.862103 -29.193770 41.042416 0.312250 2.362153 0.009794 0.002388 -397719.000000 0 0 1
-27.620474 -10.053703 -28.478360 40.926575 0.349087 2.340386 0.011477 -0.000093 347874.000000 0 0 1
-29.057054 -10.586403 -28.216100 41.863261 0.349385 2.310415 0.060091 -0.002891 317296.000000 0 0 1
-29.122074 -11.669303 -27.288000 41.580076 0.381112 2.286669 0.062429 -0.008984 -157583.000000 0 0 1
-30.451824 -11.776903 -26.818640 42.252201 0.369022 2.258452 0.065183 -0.008527 -18563.300000 0 0 1
-30.643884 -12.443703 -25.442700 41.727980 0.385732 2.226513 0.065542 -0.009563 -81159.200000 0 0 1
-30.287944 -11.664403 -24.326740 40.561165 0.367611 2.213991 0.067602 -0.006647 217121.000000 0 0 1
-30.232284 -12.426703 -23.122540 40.038304 0.389988 2.186472 0.072916 -0.008923 -588984.000000 0 0 1
-29.792724 -11.594903 -21.925740 38.765787 0.371149 2.171951 0.077937 -0.013558 -28075.200000 0 0 1
-29.601414 -12.235503 -20.679340 38.125927 0.391955 2.144082 0.080593 -0.017153 -152789.000000 0 0 1
-28.497464 -13.092403 -20.710740 37.582592 0.430663 2.154446 0.068543 -0.020403 -753784.000000 0 0 1
-28.150314 -13.499503 -19.268340 36.687132 0.447155 2.123755 0.075445 -0.024843 -115714.000000 0 0 1
-27.653424 -12.436103 -18.521140 35.530285 0.422615 2.119144 0.074596 -0.028682 88906.900000 0 0 1
-27.304504 -12.739603 -17.203140 34.695554 0.436552 2.089588 0.059230 -0.024155 7199.920000 0 0 1
-26.957104 -11.455803 -16.376340 33.557494 0.401840 2.080603 0.062707 -0.031031 350183.000000 0 0 1
-25.737974 -10.821503 -16.777840 32.573673 0.398010 2.111890 0.062861 -0.035823 613404.000000 0 0 1
-25.608724 -9.466503 -16.357640 31.827564 0.354080 2.110574 0.067083 -0.033238 -121205.000000 0 0 1
-24.129264 -9.000903 -16.494740 30.582905 0.357041 2.140456 0.070988 -0.033862 676401.000000 0 0 1
-23.246064 -9.449503 -15.465240 29.476198 0.386096 2.123122 0.049950 -0.035220 806389.000000 0 0 1
-22.102064 -8.577503 -15.407340 28.274740 0.370194 2.147084 0.076992 -0.047023 304661.000000 0 0 1
-20.962364 -8.973803 -14.488140 27.015848 0.404486 2.136823 0.060339 -0.007642 -596684.000000 0 0 1
-20.257964 -10.096203 -14.910140 27.104071 0.462352 2.153289 0.044879 0.000084 -120205.000000 0 0 1
-19.175464 -10.350203 -14.068340 25.937296 0.494950 2.144085 0.045009 0.009280 48408.800000 0 0 1
-18.139864 -11.450403 -14.479740 25.881060 0.563066 2.164545 0.042899 0.001823 173766.000000 0 0 1
-17.397464 -11.172003 -15.642240 25.926146 0.570846 2.218477 0.059893 -0.018468 206595.000000 0 0 1
-18.032264 -11.408803 -16.875440 27.204849 0.564109 2.239934 0.045311 -0.018242 -267987.000000 0 0 1
-17.289664 -10.670103 -18.011140 27.151146 0.552925 2.296104 0.036657 -0.014336 -139697.000000 0 0 1
-17.671864 -11.148503 -19.267840 28.422413 0.562803 2.315712 0.031364 -0.023754 155466.000000 0 0 1
-17.254264 -10.471703 -20.435440 28.722350 0.545481 2.362402 0.023279 -0.018817 -383163.000000 0 0 1
-18.190464 -10.808103 -21.605240 30.240609 0.536117 2.366626 0.030703 -0.018895 -258673.000000 0 0 1
-19.418464 -10.131503 -21.485740 30.681609 0.480893 2.346587 0.024742 -0.032136 -292200.000000 0 0 1
-20.352464 -10.696703 -22.365640 32.075911 0.483896 2.342381 0.038119 -0.020205 314816.000000 0 0 1
-21.498564 -9.768503 -22.875340 32.876938 0.426490 2.340311 0.037352 -0.026062 193864.000000 0 0 1
-21.038664 -8.754103 -23.738740 32.905736 0.394305 2.376642 0.025226 -0.035045 -106404.000000 0 0 1
-22.012464 -8.214503 -24.592440 34.011979 0.357170 2.379007 0.021782 -0.031147 -365392.000000 0 0 1
-21.406364 -7.515103 -25.806350 34.360979 0.337626 2.420427 0.012765 -0.027989 -264295.000000 0 0 1
-20.616664 -8.417503 -26.554670 34.656192 0.387629 2.443752 0.026565 -0.029309 -58212.300000 0 0 1
-19.820164 -7.616303 -27.404060 34.667412 0.366873 2.482396 0.022167 -0.036772 -17070.600000 0 0 1
-18.592564 -8.365403 -27.983330 34.622683 0.422798 2.511948 0.037003 -0.031929 98963.300000 0 0 1
-18.976064 -9.395203 -28.918920 35.842220 0.459726 2.509579 0.036973 -0.026723 210197.000000 0 0 1
-17.829164 -10.127403 -29.253180 35.723828 0.516576 2.530236 0.021663 -0.018537 5145.740000 0 0 1
-18.188264 -11.291003 -30.252780 37.061171 0.555563 2.525761 0.014587 -0.013736 -26961.600000 0 0 1
-18.569964 -10.876403 -31.573940 38.210645 0.529837 2.543325 0.003850 -0.010905 463351.000000 0 0 1
-18.990364 -11.974403 -32.402240 39.419860 0.562581 2.535671 -0.006538 -0.007340 -1872.870000 0 0 1
-19.616364 -11.659103 -33.764950 40.753015 0.536259 2.547267 -0.009819 -0.008450 333786.000000 0 0 1
-18.670364 -11.278203 33.930752 40.337033 0.543407 0.571333 -0.009488 -0.013207 333536.000000 0 0 1
-19.250164 -11.268003 32.666966 39.555876 0.529575 0.599100 -0.001007 -0.015397 -112610.000000 0 0 1
-18.610864 -12.253703 31.602283 38.668098 0.582269 0.614139 0.010122 -0.010439 -1201470.000000 0 0 1
-17.263964 -12.024603 31.402283 37.798662 0.608383 0.590293 0.013264 -0.012745 -792235.000000 0 0 1
-16.676364 -12.833803 30.407743 36.978892 0.655915 0.605355 0.023136 -0.011761 15570.600000 0 0 1
-16.639464 -14.374203 30.584763 37.668517 0.712487 0.623320 0.017359 -0.011162 -42244.200000 0 0 1
-17.927564 -14.988803 30.368113 38.318195 0.696355 0.655859 0.017626 -0.014904 836755.000000 0 0 1
-17.894664 -16.309203 30.794003 39.172435 0.739078 0.666300 0.024415 -0.014775 16359.000000 0 0 1
-18.456064 -16.538503 32.218803 40.647258 0.730657 0.655663 -0.001050 -0.017848 -1048730.000000 0 0 1
-17.524464 -16.285303 33.170274 40.897249 0.748764 0.624828 0.018407 -0.016250 -308975.000000 0 0 1
-18.132264 -16.157103 -34.270179 42.003287 0.727859 2.525068 0.001803 -0.016118 140765.000000 0 0 1
-17.013764 -15.679903 -33.354170 40.593450 0.744622 2.535120 0.021826 -0.010684 -157840.000000 0 0 1
-16.496664 -14.465503 -33.779960 40.279975 0.719891 2.565558 0.016243 -0.009330 113979.000000 0 0 1
-15.350664 -13.970503 -33.063960 39.038997 0.738362 2.581013 0.020063 -0.008264 522988.000000 0 0 1
-15.457664 -13.581703 -31.591110 37.701462 0.720887 2.564272 0.022820 -0.011053 -455702.000000 0 0 1
-15.646764 -14.662703 -30.738380 37.478848 0.752942 2.532474 0.024879 -0.009736 -48839.400000 0 0 1
-15.836364 -14.241303 -29.403690 36.306778 0.732416 2.514723 0.014929 -0.000670 -237399.000000 0 0 1
-15.713364 -15.388903 -28.298190 35.840141 0.774966 2.480899 0.022368 -0.000370 629943.000000 0 0 1
-14.430964 -15.885903 -27.914950 35.211632 0.833352 2.486147 0.021391 -0.005217 345270.000000 0 0 1
-13.710964 -16.590503 -28.894950 36.029896 0.880143 2.501385 0.024378 -0.007319 -801819.000000 0 0 1
-12.292964 -17.003603 -28.555610 35.435326 0.944825 2.507908 0.016346 0.002151 -159260.000000 0 0 1
-11.360264 -15.926903 -28.501880 34.569914 0.951216 2.540062 0.016840 0.003837 -664750.000000 0 0 1
-10.053964 -16.365303 -28.334700 34.230988 1.019895 2.545882 0.025256 -0.003316 481525.000000 0 0 1
-8.996464 -15.197903 -28.114100 33.201133 1.036314 2.580701 0.017708 -0.003357 690379.000000 0 0 1
-9.341364 -14.445603 -26.917330 31.944939 0.996774 2.572920 0.009191 -0.001807 231681.000000 0 0 1
-8.364464 -13.459703 -26.545050 30.915490 1.014758 2.603393 0.016620 -0.002459 253415.000000 0 0 1
-8.314364 -12.113403 -27.291940 30.995373 0.969272 2.647747 0.017123 -0.013074 -206528.000000 0 0 1
-7.945764 -12.275903 -28.633200 32.151098 0.996346 2.669420 0.037403 -0.010872 96580.400000 0 0 1
-7.953964 -11.000303 -29.247180 32.243910 0.944756 2.707045 0.042140 -0.011588 49764.400000 0 0 1
-6.919664 -10.836303 -30.401420 33.008386 1.002503 2.741490 0.041997 -0.003391 1051760.000000 0 0 1
-5.534264 -10.892403 -29.996350 32.389095 1.100702 2.754803 0.032764 -0.007058 1341180.000000 0 0 1
-4.589164 -10.697203 -31.028690 33.140159 1.165537 2.782701 0.042472 -0.006946 83339.000000 0 0 1
-4.355864 -9.222203 -31.603310 33.208308 1.129534 2.829421 0.029999 -0.005668 601020.000000 0 0 1
-3.017364 -8.865303 -32.023140 33.364345 1.242738 2.857089 0.032399 -0.008436 932959.000000 0 0 1
-3.068964 -7.574803 -32.546130 33.556620 1.185854 2.895563 0.019310 -0.008847 430299.000000 0 0 1
-1.743064 -6.959903 -33.120540 33.888769 1.325400 2.928260 0.035434 -0.014384 633477.000000 0 0 1
-1.298364 -7.321503 34.290190 35.087138 1.395285 0.213541 0.044704 -0.019100 -811883.000000 0 0 1
-0.144964 -6.645803 33.953294 34.597888 1.548987 0.193335 0.039315 -0.007553 -652059.000000 0 0 1
0.476036 -7.179103 32.677212 33.459921 -1.504585 0.216722 0.040733 -0.005119 -277499.000000 0 0 1
-0.287264 -6.879103 31.555983 32.298369 1.529062 0.214820 0.029919 0.001180 -48333.600000 0 0 1
0.267636 -7.569503 30.468493 31.395828 -1.535454 0.243653 0.036112 -0.001908 -44850.600000 0 0 1
-0.056964 -6.974103 29.072313 29.897169 1.562629 0.235447 0.033852 0.002479 -199942.000000 0 0 1
0.575836 -5.738503 28.843063 29.414015 -1.470785 0.197353 0.040434 -0.002264 29155.400000 0 0 1
0.458736 -5.152103 27.584723 28.065486 -1.481992 0.185360 0.038905 0.002631 -261236.000000 0 0 1
-0.852664 -4.348003 27.435013 27.790503 1.377149 0.160120 0.024761 0.010424 630181.000000 0 0 1
-2.046264 -5.126003 27.278083 27.830862 1.190986 0.199641 0.011795 0.011774 -387725.000000 0 0 1
-3.104564 -4.239203 27.082053 27.587075 0.938690 0.191638 0.002152 0.008346 -512552.000000 0 0 1
-4.462964 -4.896803 27.354403 28.145338 0.831716 0.237632 -0.002917 0.009062 -377310.000000 0 0 1
-5.028764 -5.738503 26.410033 27.490157 0.851219 0.281252 0.001515 0.011985 -195361.000000 0 0 1
-6.315964 -6.106503 26.879203 28.278478 0.768538 0.315897 -0.003393 0.009642 612748.000000 0 0 1
-6.697864 -7.633403 26.810473 28.669351 0.850585 0.362082 0.009667 0.009491 414575.000000 0 0 1
-5.964364 -8.310603 27.814533 29.635924 0.948302 0.352417 0.006886 0.011440 19843.400000 0 0 1
-6.315564 -9.711503 27.815513 30.131418 0.994198 0.394628 0.020383 0.006954 25703.700000 0 0 1
-5.521664 -10.534203 28.824943 31.182295 1.088004 0.391334 0.018868 0.001889 -210402.000000 0 0 1
-5.675864 -11.925703 28.747423 31.636247 1.126585 0.430670 0.027374 -0.001373 43081.600000 0 0 1
-4.861164 -12.579103 29.683953 32.603708 1.202027 0.426433 0.031091 -0.000017 -111498.000000 0 0 1
-4.978664 -14.106003 29.643803 33.204238 1.231499 0.467336 0.038085 -0.005212 380096.000000 0 0 1
-6.284464 -14.491903 30.063553 33.960667 1.161619 0.483773 0.052709 -0.010566 179998.000000 0 0 1
-6.342264 -15.867103 30.269933 34.760007 1.190539 0.513915 0.057481 -0.016403 183840.000000 0 0 1
-6.311264 -16.243603 31.763623 36.230021 1.200209 0.501794 0.065927 -0.016459 -107421.000000 0 0 1
-7.614564 -16.499703 32.215943 36.987684 1.138423 0.513580 0.068517 -0.011327 -542428.000000 0 0 1
-7.810964 -17.006103 33.547389 38.414138 1.140233 0.508844 0.070077 -0.012736 57723.300000 0 0 1
-9.222564 -17.494603 33.979078 39.315322 1.085653 0.527098 0.081207 -0.011413 590204.000000 0 0 1
-9.765164 -18.663203 33.354489 39.448644 1.088737 0.563264 0.075331 -0.020703 157870.000000 0 0 1
-10.189464 -18.495303 31.981453 38.323814 1.067246 0.583561 0.063365 -0.016998 -498832.000000 0 0 1
-10.953264 -19.697503 31.425303 38.671892 1.063302 0.622174 0.056840 -0.015170 -358401.000000 0 0 1
-11.954764 -20.123303 32.307303 39.895181 1.034744 0.626977 0.067671 -0.018922 -236838.000000 0 0 1
-12.239364 -21.499803 32.353383 40.728183 1.053273 0.652821 0.057685 -0.019252 -1793.790000 0 0 1
-11.404964 -22.420203 33.318462 41.747558 1.100220 0.646672 0.058110 -0.021164 -502779.000000 0 0 1
-10.019464 -22.371903 33.070426 41.164848 1.149724 0.637871 0.058116 -0.021532 -233148.000000 0 0 1
-9.271364 -23.009903 34.097835 42.167240 1.187767 0.628971 0.063926 -0.027040 4725.050000 0 0 1
-9.580864 -24.432803 -34.185455 43.097565 1.197092 2.486860 0.054678 -0.015935 -957963.000000 0 0 1
-9.351864 -25.312753 33.493463 43.011683 1.216898 0.678195 0.064194 -0.020583 39961.700000 0 0 1
-9.578964 -26.665713 33.851340 44.144422 1.225928 0.696906 0.057731 -0.018615 -739559.000000 0 0 1
-9.120464 -27.514823 32.627593 43.644108 1.250720 0.726381 0.060702 -0.019478 -949628.000000 0 0 1
-7.802264 -27.367183 32.268533 43.024368 1.293069 0.722725 0.058179 -0.026622 -1585390.000000 0 0 1
-6.971164 -28.207463 33.007445 43.974418 1.328512 0.721818 0.046083 -0.020717 -1170420.000000 0 0 1
-5.528464 -27.701683 33.013320 43.449124 1.373813 0.707767 0.033087 -0.021020 -367477.000000 0 0 1
-5.232664 -26.673503 33.895705 43.448536 1.377082 0.675915 0.033695 -0.020917 -57564.100000 0 0 1
-5.319664 -25.430943 33.260329 42.205226 1.364589 0.663142 0.050360 -0.023516 79954.100000 0 0 1
-4.778764 -24.298703 34.207521 42.230534 1.376607 0.626612 0.054409 -0.018818 -47420.500000 0 0 1
-3.396864 -24.309603 -34.304690 42.181835 1.431962 2.520525 0.041985 -0.024880 -200588.000000 0 0 1
-2.872864 -23.133903 -33.673660 40.955417 1.447245 2.536067 0.043612 -0.021679 143989.000000 0 0 1
33.712560 -16.748003 2.197560 37.707580 -0.461075 1.512484 0.086827 -0.045631 -509451.000000 0 0 1
34.773350 -16.402003 3.026660 38.566465 -0.440739 1.492236 0.075091 -0.036498 -219508.000000 0 0 1
34.411650 -16.470803 4.332460 38.395562 -0.446414 1.457718 0.076039 -0.041695 -114649.000000 0 0 1
35.630954 -16.434503 5.282060 39.592397 -0.432164 1.436986 0.062166 -0.023021 114268.000000 0 0 1
-35.270684 -17.654803 5.395460 39.809851 0.464089 1.434847 0.063880 -0.026423 55309.300000 0 0 1
-34.470400 -17.690003 6.574460 39.298451 0.474147 1.402710 0.056009 -0.020472 -107318.000000 0 0 1
-33.303564 -18.659003 6.380560 38.703970 0.510694 1.405185 0.049702 -0.021751 -285379.000000 0 0 1
-33.638574 -20.058303 6.459560 39.694018 0.537686 1.407336 0.056718 -0.024529 318517.000000 0 0 1
-32.504144 -20.732703 6.994960 39.182826 0.567785 1.391313 0.039056 -0.015427 112912.000000 0 0 1
-32.568314 -22.235703 7.269760 40.099513 0.599048 1.388495 0.037621 -0.010282 -554160.000000 0 0 1
-32.299834 -23.025003 6.140560 40.138965 0.619300 1.417211 0.053016 -0.005772 54878.800000 0 0 1
-32.620264 -24.383303 6.356360 41.219297 0.641892 1.415970 0.069749 -0.014873 -101068.000000 0 0 1
-32.096144 -25.199683 5.154260 41.130924 0.665609 1.445153 0.051595 -0.006197 -147768.000000 0 0 1
-32.691574 -24.994203 3.911660 41.337033 0.652746 1.476026 0.042539 0.000871 -153062.000000 0 0 1
-32.283114 -25.925193 2.979360 41.511344 0.676602 1.498962 0.028873 0.000466 -258384.000000 0 0 1
-32.627734 -25.507933 1.527060 41.443402 0.663536 1.533941 0.032689 -0.000915 1522790.000000 0 0 1
-34.020164 -25.759873 1.151260 42.688031 0.648090 1.543824 0.023743 0.002127 1607690.000000 0 0 1
-34.436625 -25.053333 0.011360 42.585805 0.628958 1.570530 0.018313 0.006418 -436152.000000 0 0 1
-35.519150 -24.009703 0.132960 42.872993 0.594412 1.567695 0.029480 -0.007992 -656491.000000 0 0 1
34.766430 -24.460903 0.240260 42.509977 -0.613123 1.565144 0.021397 -0.004266 -402370.000000 0 0 1
33.946930 -23.415703 0.668560 41.244832 -0.603830 1.554586 0.051955 -0.014937 740982.000000 0 0 1
32.412590 -23.630203 0.389260 40.113763 -0.629954 1.561092 0.039198 -0.011343 889179.000000 0 0 1
32.124050 -23.392803 -0.965440 39.750596 -0.629404 1.595086 0.037297 -0.019845 -970878.000000 0 0 1
30.745920 -23.385803 -1.097540 38.644688 -0.650260 1.599201 0.035280 -0.013544 -805824.000000 0 0 1
30.394420 -23.150003 -2.593440 38.294508 -0.650917 1.638572 0.026837 -0.003237 -227234.000000 0 0 1
30.658600 -21.826003 -3.052840 37.757701 -0.618671 1.651738 0.049932 -0.017512 178635.000000 0 0 1
30.215920 -21.724003 -4.399640 37.473870 -0.623337 1.688473 0.047502 -0.033924 83948.400000 0 0 1
30.163720 -20.270503 -4.894040 36.670082 -0.591697 1.704657 0.049704 -0.036632 92999.000000 0 0 1
29.098440 -19.576503 -4.292840 35.332522 -0.592215 1.692596 0.050288 -0.034539 -26164.200000 0 0 1
29.061210 -18.215403 -4.710040 34.619926 -0.559889 1.707270 0.042794 -0.032729 -179719.000000 0 0 1
28.340040 -17.462803 -3.546040 33.476585 -0.552238 1.676921 0.057105 -0.021367 -477882.000000 0 0 1
28.787060 -17.247803 -2.207440 33.631151 -0.539795 1.636480 0.051761 -0.017532 -122418.000000 0 0 1
29.328640 -18.328203 -1.428040 34.614035 -0.558545 1.612064 0.046826 -0.006758 -328383.000000 0 0 1
28.435230 -19.565703 -1.128940 34.534816 -0.602681 1.603492 0.038753 -0.004391 -291652.000000 0 0 1
27.370640 -19.303503 -0.277340 33.494090 -0.614250 1.579077 0.033346 0.013889 109729.000000 0 0 1
26.574550 -20.465803 0.069960 33.541924 -0.656259 1.568711 0.013558 0.015366 -237133.000000 0 0 1
25.662310 -20.168903 1.220460 32.662338 -0.666106 1.533422 0.023236 0.013643 -1251060.000000 0 0 1
24.897110 -21.347203 1.592860 32.834530 -0.708784 1.522266 0.018572 0.020820 562814.000000 0 0 1
24.042810 -21.074503 2.715360 32.086828 -0.719702 1.486070 0.009221 0.020834 360273.000000 0 0 1
22.711510 -20.406503 2.294560 30.618671 -0.731991 1.495786 0.002866 0.015117 -877451.000000 0 0 1
22.837310 -19.046703 1.987260 29.803839 -0.695142 1.504069 0.040736 -0.001564 118704.000000 0 0 1
22.763810 -18.192603 3.115660 29.306470 -0.674247 1.464282 0.053626 -0.003190 -188427.000000 0 0 1
22.624710 -16.683103 2.737660 28.243551 -0.635378 1.473713 0.053574 0.006269 460766.000000 0 0 1
21.311510 -16.453503 2.247760 27.017599 -0.657463 1.487504 0.041188 0.012680 -39050.300000 0 0 1
21.320810 -15.286603 1.421760 26.273153 -0.622032 1.516655 0.052559 -0.000293 574122.000000 0 0 1
19.936610 -14.911403 0.794560 24.908827 -0.642182 1.538892 0.030957 0.001950 594848.000000 0 1 0
18.956210 -14.620303 1.779260 24.005352 -0.656974 1.496609 0.028032 -0.003651 402892.000000 0 1 0
18.136710 -13.490103 1.480760 22.652059 -0.639522 1.505380 0.041310 -0.008930 -79696.300000 0 1 0
18.717110 -12.156003 1.983660 22.406104 -0.575995 1.482148 0.052875 -0.006162 -1051740.000000 0 1 0
19.766910 -11.777803 1.172660 23.039585 -0.537351 1.519877 0.059526 -0.004881 -403176.000000 0 1 0
20.376310 -10.598703 1.585960 23.022636 -0.479636 1.501855 0.070992 -0.009468 -248267.000000 0 1 0
21.119510 -9.866003 0.452660 23.314729 -0.437025 1.551380 0.072883 -0.012163 -248192.000000 0 1 0
20.292410 -9.421103 -0.579540 22.380235 -0.434655 1.596694 0.055383 -0.004107 361152.000000 0 1 0
21.097410 -8.823203 -1.580840 22.922667 -0.396108 1.639815 0.047836 -0.005921 -258400.000000 0 1 0
20.350810 -8.269403 -2.807240 22.145408 -0.385962 1.697902 0.046274 -0.008960 -681869.000000 0 1 0
21.123610 -7.659103 -3.791640 22.786954 -0.347842 1.737969 0.045070 -0.011569 391326.000000 0 1 0
22.145510 -8.411803 -4.453140 24.104201 -0.363009 1.756609 0.040826 -0.014818 46382.800000 0 1 0
21.670910 -9.635803 -5.318740 24.305679 -0.418390 1.791409 0.028077 -0.015141 -80020.000000 0 1 0
20.987410 -9.213703 -6.511440 23.827768 -0.413678 1.847588 0.016886 -0.020798 939150.000000 0 1 0
19.557610 -9.283703 -6.444640 22.588064 -0.443191 1.860128 0.007944 -0.006932 47141.200000 0 1 0
18.935310 -9.234403 -7.805340 22.466497 -0.453744 1.925616 0.011485 -0.003649 -594794.000000 0 1 0
19.030010 -10.472903 -8.483740 23.319451 -0.503101 1.943146 0.019228 -0.002963 1027710.000000 0 1 0
20.285910 -10.676103 -9.140540 24.678873 -0.484451 1.950213 0.016163 -0.004610 271213.000000 0 1 0
20.194010 -12.046603 -9.840340 25.490213 -0.537874 1.967135 0.012840 -0.003074 -481079.000000 0 0 1
19.159210 -12.218703 -10.755740 25.140763 -0.567712 2.012877 0.025684 -0.008045 -261507.000000 0 0 1
19.108810 -13.533003 -11.302740 26.000783 -0.616213 2.020510 0.033551 -0.002894 -98323.500000 0 0 1
17.857810 -13.867903 -12.139440 25.662932 -0.660292 2.063528 0.042055 -0.009800 33845.700000 0 0 1
17.768910 -15.241803 -12.349940 26.468240 -0.708993 2.056233 0.039240 -0.017044 1005320.000000 0 0 1
16.615410 -15.554803 -13.173440 26.297590 -0.752441 2.095478 0.051778 -0.020836 492801.000000 0 0 1
16.535810 -17.114503 -13.509340 27.364968 -0.802594 2.087104 0.047534 -0.027235 -512462.000000 0 0 1
16.027710 -17.938703 -12.518340 27.118137 -0.841600 2.050620 0.032477 -0.022621 57260.100000 0 0 1
16.084810 -19.265403 -12.875140 28.207199 -0.875130 2.044796 0.037473 -0.019673 -577488.000000 0 0 1
15.130310 -20.190103 -12.094740 27.979443 -0.927684 2.017808 0.035038 -0.020743 -521945.000000 0 0 1
13.813110 -19.829603 -12.408240 27.165779 -0.962362 2.045146 0.029890 -0.023270 -929738.000000 0 0 1
12.932910 -20.676003 -11.718740 27.057090 -1.011835 2.018738 0.020139 -0.018663 270525.000000 0 0 1
11.446110 -20.218203 -11.822340 26.068311 -1.055654 2.041500 0.021957 -0.021177 393276.000000 0 0 1
10.621310 -21.106303 -11.123340 26.115454 -1.104569 2.010785 0.014374 -0.018409 390744.000000 0 0 1
9.232610 -20.751403 -11.212440 25.329441 -1.152179 2.029364 0.012523 -0.010123 1050980.000000 0 0 1
8.265810 -21.390003 -10.191940 25.094451 -1.202040 1.989026 0.005950 -0.007165 -246238.000000 0 0 1
8.186710 -22.813403 -10.297140 26.334476 -1.226255 1.972529 0.014496 -0.002677 -124241.000000 0 0 1
7.426310 -23.397503 -9.259640 26.236123 -1.263456 1.931502 0.012939 -0.020343 -50972.800000 0 0 1
7.446610 -24.911003 -9.426740 27.656346 -1.280323 1.918620 0.015950 -0.013237 951239.000000 0 0 1
8.737310 -25.462233 -9.125740 28.424373 -1.240239 1.897638 0.005406 -0.004349 205316.000000 0 0 1
8.825410 -26.851193 -9.442140 29.799805 -1.253241 1.893205 -0.000184 0.001618 468179.000000 0 0 1
10.245510 -27.463193 -9.319240 30.757855 -1.213725 1.878622 0.004418 0.010438 456438.000000 0 0 1
10.691110 -27.649593 -7.983940 30.700865 -1.201839 1.833876 0.010350 0.008757 -770693.000000 0 0 1
11.994210 -28.133453 -7.941140 31.597689 -1.167797 1.824840 0.018815 0.023016 -636564.000000 0 0 1
12.395710 -28.446863 -6.416240 31.686681 -1.159856 1.774696 0.016744 0.013269 269956.000000 0 0 1
11.787510 -29.585453 -5.804640 32.371874 -1.191651 1.751083 0.027426 0.004798 714253.000000 0 0 1
10.381110 -29.523593 -5.537740 31.781701 -1.232678 1.745933 0.028162 0.003525 614548.000000 0 0 1
9.943710 -30.619223 -4.491740 32.505229 -1.256787 1.709425 0.037084 -0.003687 67871.000000 0 0 1
10.134410 -31.950393 -4.958940 33.883992 -1.263643 1.717674 0.060032 -0.006133 -46912.300000 0 0 1
9.288410 -32.432063 -6.014240 34.267832 -1.291867 1.747217 0.053094 -0.007029 332267.000000 0 0 1
9.398710 -33.953373 -6.257340 35.781581 -1.300746 1.746576 0.050741 -0.005131 -163303.000000 0 0 1
8.969010 34.066296 -5.164840 35.603809 1.313357 1.716374 0.050769 -0.005806 -558819.000000 0 0 1
9.490610 32.832875 -5.059340 34.549476 1.289408 1.717762 0.049374 -0.003044 -371142.000000 0 0 1
9.035510 31.943915 -3.869840 33.421996 1.295142 1.686844 0.052038 -0.009106 -516569.000000 0 0 1
7.754010 31.440775 -4.009340 32.630075 1.328999 1.693980 0.044848 -0.007317 -1141250.000000 0 0 1
7.419710 30.393005 -3.086240 31.437426 1.331354 1.669126 0.031533 -0.006503 448235.000000 0 0 1
6.066010 29.723565 -3.454240 30.532255 1.369480 1.684173 0.026150 -0.006204 372497.000000 0 0 1
6.147910 29.120745 -4.718940 30.134415 1.362734 1.728040 0.017853 -0.016485 -51059.800000 0 0 1
5.624110 29.953155 -5.737740 31.011994 1.385194 1.756885 0.011150 -0.008156 -315888.000000 0 0 1
5.447610 29.261115 -7.134440 30.607018 1.386731 1.806059 0.027075 -0.008160 81723.300000 0 0 1
4.499010 28.200425 -7.082340 29.422179 1.412593 1.813898 0.020089 -0.014046 -141384.000000 0 0 1
4.947310 26.940735 -6.574040 28.169080 1.389183 1.806346 0.017730 -0.016533 -891590.000000 0 0 1
4.167510 25.740025 -7.068640 27.016341 1.410281 1.835521 0.016444 -0.015038 63929.400000 0 0 1
2.819310 25.747325 -6.615240 26.732651 1.461732 1.820853 0.012223 -0.016143 134685.000000 0 0 1
1.865610 26.400855 -7.459740 27.497879 1.500249 1.845523 0.018882 -0.010940 268731.000000 0 0 1
1.406010 25.752715 -8.874040 27.275039 1.516254 1.902182 0.032465 -0.012961 213650.000000 0 0 1
2.509710 25.620955 -9.782440 27.539574 1.473152 1.933939 0.025970 -0.016837 330756.000000 0 0 1
2.210510 24.877635 -10.966640 27.277285 1.482174 1.984543 0.044634 -0.017472 -309226.000000 0 0 1
2.172110 23.362315 -10.845140 25.848267 1.478088 2.003767 0.055603 -0.015452 1138760.000000 0 0 1
0.937210 22.900315 -10.215840 25.093150 1.529894 1.990091 0.060221 -0.017540 1010860.000000 0 0 1
0.916110 21.508815 -10.158340 23.804627 1.528230 2.011679 0.029657 -0.019667 -14714.400000 0 1 0
-0.248990 20.749015 -9.484840 22.815473 -1.558797 1.999530 0.045150 -0.011609 997542.000000 0 1 0
-1.587890 21.014015 -9.959540 23.308854 -1.495376 2.012285 0.053799 -0.014194 611638.000000 0 1 0
-2.444790 20.100915 -9.290340 22.278559 -1.449765 2.000947 0.049240 -0.014204 -623112.000000 0 1 0
-3.883390 20.589315 -9.440540 22.980957 -1.384374 1.994126 0.053646 -0.015404 -376008.000000 0 1 0
-4.839890 19.657915 -8.994040 22.152898 -1.329392 1.988867 0.040290 -0.023403 -759372.000000 0 1 0
-5.869090 19.470815 -9.875740 22.607280 -1.278028 2.022878 0.039373 -0.009622 -1283330.000000 0 1 0
-6.787790 18.311215 -9.496140 21.715233 -1.215809 2.023394 0.037776 -0.011712 302764.000000 0 1 0
-7.853690 18.570515 -8.565540 21.906916 -1.170696 1.972511 0.055606 -0.017621 732356.000000 0 1 0
-9.074490 18.894115 -9.243640 22.908052 -1.123048 1.986147 0.055656 -0.015389 14466.700000 0 1 0
-10.159290 19.246215 -8.227840 23.266399 -1.085111 1.932252 0.071278 -0.018270 -260616.000000 0 1 0
-10.475190 18.108015 -7.477840 22.215938 -1.046348 1.914098 0.065618 -0.019029 216528.000000 0 1 0
-11.471290 18.358815 -6.460840 22.591570 -1.012313 1.860830 0.064038 -0.019509 449655.000000 0 1 0
-11.993990 17.125715 -5.686140 21.667443 -0.959836 1.836334 0.065974 -0.026481 -269207.000000 0 1 0
-12.797190 17.578815 -4.644840 22.234148 -0.941531 1.781252 0.065679 -0.022584 -236905.000000 0 1 0
-13.395990 16.472015 -3.986940 21.602674 -0.888024 1.756418 0.072047 -0.020370 -435054.000000 0 1 0
-14.670390 16.813115 -3.225340 22.545598 -0.853352 1.714347 0.068106 -0.017353 211127.000000 0 1 0
-15.809690 16.937515 -4.105640 23.530448 -0.819825 1.746176 0.077399 -0.032992 216728.000000 0 1 0
-16.936990 17.344815 -3.392640 24.478853 -0.797294 1.709839 0.073478 -0.029738 39484.900000 0 1 0
-18.219590 17.377115 -4.287840 25.540226 -0.761735 1.739481 0.074801 -0.036986 150881.000000 0 0 1
-18.198090 18.431215 -5.194140 26.417026 -0.791763 1.768707 0.076986 -0.032144 -291474.000000 0 0 1
-19.399590 18.707115 -5.872040 27.582261 -0.767228 1.785330 0.052695 -0.023640 -22031.000000 0 0 1
-19.169490 19.723215 -7.019940 28.385808 -0.799634 1.820694 0.038967 -0.012977 110931.000000 0 0 1
-18.633190 20.930815 -6.523440 28.772384 -0.843407 1.799511 0.033466 -0.020348 -9539.920000 0 0 1
-18.360590 21.903515 -7.508240 29.550785 -0.873164 1.827692 0.024257 -0.004129 -197673.000000 0 0 1
-18.145590 23.246715 -6.851940 30.275754 -0.908018 1.799092 0.026927 -0.010801 -645051.000000 0 0 1
-16.912790 23.458115 -6.260240 29.589124 -0.946129 1.783980 0.020412 -0.005656 -707261.000000 0 0 1
-16.938690 24.562395 -5.374540 30.316928 -0.967072 1.749017 0.029565 -0.012707 -406063.000000 0 0 1
-15.562290 24.960215 -4.844740 29.810547 -1.013288 1.734038 0.018514 -0.002003 -552846.000000 0 0 1
-15.553790 25.859185 -3.723140 30.405256 -1.029289 1.693555 0.022836 -0.001453 1014670.000000 0 0 1
-14.345590 26.682495 -3.618740 30.509782 -1.077492 1.689685 0.024393 -0.007304 1143440.000000 0 0 1
-14.147990 27.725205 -4.732940 31.484176 -1.098948 1.721696 0.032043 -0.006302 -667578.000000 0 0 1
-14.892890 28.820245 -4.426340 32.741368 -1.093838 1.706403 0.044738 -0.010897 -486146.000000 0 0 1
-14.451690 29.940945 -5.166840 33.645323 -1.121106 1.724974 0.029480 -0.015525 -348799.000000 0 0 1
-15.084390 31.248525 -4.740940 35.021217 -1.121065 1.706587 0.035424 -0.025197 356052.000000 0 0 1
-16.478090 31.313705 -5.023740 35.739523 -1.086389 1.711829 0.046841 -0.011324 261589.000000 0 0 1
-17.132390 32.250905 -4.221340 36.762200 -1.082484 1.685878 0.058625 -0.020794 -179227.000000 0 0 1
12.274036 -8.594403 18.802383 24.042573 -0.610867 0.672855 0.032898 -0.007925 -333176.000000 0 1 0
12.792036 -9.739803 19.378383 25.179786 -0.650755 0.692581 0.035310 -0.011217 -204999.000000 0 0 1
13.015636 -10.661903 18.322983 24.875985 -0.686316 0.742807 0.043699 -0.017048 -237307.000000 0 1 0
13.545936 -11.984903 18.841983 26.118012 -0.724331 0.764950 0.070756 -0.025189 -766800.000000 0 0 1
14.894936 -11.855203 19.201283 27.038754 -0.672249 0.781100 0.069430 -0.023240 -18561.200000 0 0 1
15.373836 -12.980203 20.005583 28.373647 -0.701178 0.788266 0.063082 -0.021918 -7887.820000 0 0 1
15.764636 -14.271103 19.233183 28.672346 -0.735714 0.835520 0.054986 -0.023412 -476604.000000 0 0 1
14.742836 -14.881903 18.452483 27.916238 -0.790092 0.848653 0.059433 -0.026674 231642.000000 0 0 1
15.177636 -15.927103 17.606783 28.178574 -0.809488 0.895884 0.059012 -0.021543 -617642.000000 0 0 1
14.345936 -16.035703 16.380683 27.042123 -0.840959 0.920092 0.048542 -0.021264 -754377.000000 0 0 1
12.969036 -16.269303 16.519683 26.566633 -0.897797 0.899731 0.060222 -0.028472 -445798.000000 0 0 1
12.313136 -16.126103 15.315283 25.420904 -0.918678 0.924207 0.066537 -0.034125 -415866.000000 0 0 1
11.948936 -17.443103 14.574783 25.680015 -0.970193 0.967265 0.045669 -0.021195 -494223.000000 0 0 1
13.037436 -18.160003 14.058583 26.408411 -0.948144 1.009419 0.037309 -0.015406 -182317.000000 0 0 1
12.627236 -19.332403 13.391083 26.692882 -0.992200 1.045265 0.029403 -0.016620 -375654.000000 0 0 1
13.742936 -20.288303 12.941183 27.712050 -0.975412 1.084915 0.035162 -0.026224 -295157.000000 0 0 1
14.483036 -20.862303 13.976183 28.988406 -0.963960 1.067712 0.032977 -0.025837 65383.700000 0 0 1
14.833336 -22.233903 13.607483 29.992297 -0.982460 1.099884 0.032903 -0.017961 15084.800000 0 0 1
15.551936 -23.183103 14.614783 31.510487 -0.979917 1.088509 0.026220 -0.017568 112248.000000 0 0 1
16.954836 -23.061703 14.646183 32.153060 -0.936838 1.097846 0.009112 -0.013403 -328907.000000 0 0 1
17.458236 -23.853803 15.703883 33.472464 -0.938990 1.082459 0.008035 -0.024111 -254594.000000 0 0 1
18.808936 -23.249603 16.121683 33.973942 -0.890591 1.076365 0.019643 -0.011557 -106573.000000 0 0 1
19.829936 -23.616603 15.211583 34.385499 -0.872335 1.112542 0.017953 -0.025546 -57204.700000 0 0 1
20.985836 -22.797103 15.408083 34.605234 -0.826744 1.109340 0.014374 -0.017829 281481.000000 0 0 1
22.273936 -23.458703 14.887683 35.610139 -0.811299 1.139472 0.017291 -0.027107 -270983.000000 0 0 1
22.555736 -24.634303 15.685383 36.900424 -0.829416 1.131754 0.021181 -0.021988 76780.700000 0 0 1
23.731836 -25.240253 15.190783 37.828960 -0.816190 1.157571 0.025099 -0.025908 -119672.000000 0 0 1
24.069836 -26.509013 16.012283 39.223436 -0.833586 1.150279 0.029420 -0.021193 -72938.600000 0 0 1
24.630836 -26.228063 17.291383 39.919685 -0.816793 1.122807 0.026240 -0.013589 121692.000000 0 0 1
25.218736 -27.351663 17.899683 41.285551 -0.825949 1.122359 0.022758 -0.004907 91662.400000 0 0 1
25.552736 -27.058123 19.368783 41.955143 -0.814004 1.090937 0.020836 -0.002742 -587203.000000 0 0 1
24.415736 -26.808983 20.102583 41.460385 -0.832085 1.064590 0.022961 0.002860 -665853.000000 0 0 1
24.751536 -26.257623 21.366583 41.936048 -0.814915 1.036188 0.024013 0.006239 -238858.000000 0 0 1
23.538236 -26.191993 22.279883 41.670879 -0.838711 1.006687 0.029089 -0.007669 -161592.000000 0 0 1
23.054636 -27.521323 22.526083 42.383532 -0.873486 1.010447 0.019939 0.000567 248641.000000 0 0 1
21.821436 -27.548163 23.240783 42.133245 -0.900879 0.986513 0.028749 -0.007411 460123.000000 0 0 1
21.187636 -28.987593 23.148783 42.720751 -0.939618 0.998144 0.030995 -0.007586 -117673.000000 0 0 1
22.045236 -29.825983 23.865343 44.103699 -0.934289 0.999029 0.039458 -0.019731 219268.000000 0 0 1
22.362236 -31.034093 23.197783 44.736133 -0.946398 1.025646 0.043607 -0.020647 -318558.000000 0 0 1
23.447036 -31.797013 23.979943 46.215270 -0.935410 1.025262 0.017152 -0.019001 -141001.000000 0 0 1
23.046936 -32.147223 25.313403 46.961405 -0.948806 1.001516 0.016860 -0.020630 485240.000000 0 0 1
24.204936 -32.396863 26.119613 48.142183 -0.929129 0.997325 0.013944 -0.017407 -4619.500000 0 0 1
23.911636 -32.655803 27.689593 49.039589 -0.938764 0.970802 0.009833 -0.014753 129847.000000 0 0 1
23.305736 -33.907903 27.999063 49.767968 -0.968628 0.973279 0.000995 -0.004851 738988.000000 0 0 1
21.915436 -33.919643 27.659993 48.947969 -0.997169 0.970254 0.006059 -0.010521 -220163.000000 0 0 1
21.223736 33.512883 27.898723 48.496381 1.006250 0.957857 0.025540 -0.020055 -513462.000000 0 0 1
20.868036 33.473065 29.239753 49.100755 1.013328 0.932902 0.003203 -0.007401 12210.600000 0 0 1
20.467936 32.180035 29.642393 48.302821 1.004294 0.910085 0.013239 -0.009451 -255990.000000 0 0 1
19.843636 32.183465 31.060633 48.931669 1.018276 0.883078 -0.002778 -0.001992 300137.000000 0 0 1
20.928336 32.470245 31.936113 50.122124 0.998270 0.879981 -0.009615 0.005978 532940.000000 0 0 1
20.540136 32.645945 33.294501 50.952710 1.009198 0.858677 -0.013145 0.010576 -134225.000000 0 0 1
21.751536 32.703805 34.261927 52.120512 0.983874 0.853487 -0.016158 0.015450 59882.600000 0 0 1
22.284536 31.433955 -34.190344 51.513820 0.954101 2.296567 -0.006783 0.008779 847264.000000 0 0 1
23.487936 31.683925 -33.404140 51.685499 0.932873 2.273517 -0.010457 0.013087 939750.000000 0 0 1
24.184336 30.378625 -32.999480 50.957910 0.898440 2.275205 0.002811 -0.001806 -368060.000000 0 0 1
24.651736 29.535455 -34.023950 51.358352 0.875282 2.294923 0.014569 -0.012152 156890.000000 0 0 1
23.678836 28.609225 34.212306 50.494127 0.879413 0.826370 0.015604 -0.015048 -63799.600000 0 0 1
24.010036 27.804375 32.924536 49.331432 0.858497 0.840064 0.042826 -0.021823 154565.000000 0 0 1
25.100536 26.884885 32.969505 49.394556 0.819709 0.839987 0.035750 -0.018573 648178.000000 0 0 1
25.169536 26.168025 31.765933 48.242570 0.804845 0.852022 0.053649 -0.032291 772251.000000 0 0 1
26.459236 25.217585 31.760243 48.422420 0.761376 0.855423 0.032894 -0.021711 821823.000000 0 0 1
26.498136 24.261695 32.850130 48.681743 0.741367 0.830111 0.047519 -0.025910 195119.000000 0 0 1
27.516336 24.637455 33.733788 50.021210 0.730254 0.830658 0.051052 -0.029271 -891740.000000 0 0 1
27.294936 23.884015 -33.642790 49.470163 0.718850 2.318644 0.045677 -0.028424 -486627.000000 0 0 1
26.304536 24.456095 -32.788370 48.632359 0.748999 2.310689 0.050949 -0.017136 1537730.000000 0 0 1
24.920036 24.217725 -33.119580 48.004301 0.771106 2.332188 0.040196 -0.019695 572864.000000 0 0 1
24.455936 22.760915 -33.234010 47.123788 0.749515 2.353571 0.026244 -0.020216 -1428360.000000 0 0 1
24.176836 22.114815 -32.026770 45.818101 0.740883 2.344792 0.018647 -0.028029 367800.000000 0 0 1
24.218536 20.666415 -32.171630 45.262036 0.706424 2.361412 0.019415 -0.016404 -299034.000000 0 0 1
24.174436 19.900515 -30.795330 43.917948 0.688731 2.347878 0.014255 -0.014399 261625.000000 0 0 1
22.914436 20.036515 -30.140190 42.836484 0.718493 2.351262 0.011057 -0.008840 535243.000000 0 0 1
22.914436 19.184615 -29.022050 41.658135 0.697033 2.341544 0.011416 -0.006175 -153501.000000 0 0 1
21.642336 19.286315 -28.164340 40.417603 0.727898 2.341769 0.028860 -0.014248 -368210.000000 0 0 1
21.588036 18.511215 -26.951610 39.180322 0.708818 2.329369 0.031397 -0.010216 -296379.000000 0 0 1
22.262736 19.109915 -25.907430 39.140940 0.709340 2.294148 0.033539 0.002395 -242272.000000 0 0 1
22.338536 18.285415 -24.631540 37.948377 0.685956 2.277171 0.045214 0.000376 -422817.000000 0 0 1
23.331236 17.340115 -24.758140 38.183657 0.639144 2.276272 0.035762 -0.010193 -372247.000000 0 0 1
23.469436 16.625815 -23.516440 37.151784 0.616343 2.256196 0.049772 -0.007848 272799.000000 0 0 1
24.444936 15.394515 -23.440340 37.202090 0.562017 2.252454 0.057861 -0.009305 -289616.000000 0 0 1
25.797436 15.672915 -23.200640 38.071218 0.545944 2.226101 0.071753 -0.016903 258311.000000 0 0 1
26.646136 14.493815 -23.229240 38.205821 0.498176 2.224339 0.060604 -0.023236 484858.000000 0 0 1
26.486436 13.573715 -21.979540 36.998340 0.473580 2.206903 0.049921 -0.012159 -1699280.000000 0 0 1
25.256536 12.983015 -21.980940 35.911182 0.474821 2.229499 0.034485 -0.008417 -1200340.000000 0 0 1
25.019536 12.266015 -20.800340 34.771920 0.455823 2.212041 0.027279 -0.012006 -1049500.000000 0 0 1
23.592436 11.776415 -20.728540 33.540413 0.462976 2.237014 0.030274 -0.009211 -892965.000000 0 0 1
22.751136 12.891615 -20.663340 33.328389 0.515526 2.239529 0.056962 -0.014407 -257372.000000 0 0 1
21.421936 12.593115 -21.068140 32.578404 0.531446 2.274034 0.046360 -0.016471 270413.000000 0 0 1
20.463936 13.787615 -20.919040 32.349300 0.592892 2.273996 0.053633 -0.021226 -736820.000000 0 0 1
20.761636 14.838515 -21.787840 33.554985 0.620529 2.277483 0.050512 -0.011541 895951.000000 0 0 1
19.816036 15.952715 -21.766140 33.480281 0.677807 2.278536 0.041281 -0.015673 346264.000000 0 0 1
18.457136 15.760515 -22.426940 33.045837 0.706753 2.316735 0.032239 -0.006718 -325716.000000 0 0 1
17.593936 14.778415 -21.850140 31.707676 0.698643 2.331059 0.025427 -0.013403 684127.000000 0 0 1
16.428236 14.682015 -22.671040 31.613676 0.729327 2.370468 0.025376 -0.019901 410555.000000 0 0 1
15.309736 13.675415 -22.279640 30.295005 0.729073 2.397087 0.011189 -0.016815 111658.000000 0 0 1
14.132036 14.122315 -22.907340 30.395730 0.785054 2.424374 0.016878 -0.016579 -452255.000000 0 0 1
13.014936 13.444615 -22.338140 29.139985 0.801636 2.444295 0.031468 -0.018191 -84124.300000 0 0 1
11.752736 13.586315 -23.194540 29.337713 0.857634 2.482593 0.035585 -0.014207 -509388.000000 0 0 1
11.255136 14.875315 -23.095240 29.687424 0.923064 2.462188 0.027403 -0.015950 -92273.600000 0 0 1
11.015636 15.370315 -24.377140 30.851835 0.948962 2.481827 0.025334 -0.009316 -720614.000000 0 0 1
10.961336 16.945815 -24.311040 31.596490 0.996641 2.448732 0.021416 -0.004755 647136.000000 0 0 1
12.172936 17.738515 -24.138340 32.334111 0.969363 2.413626 0.013740 -0.002803 1126310.000000 0 0 1
13.265436 17.468315 -25.020740 33.273882 0.921306 2.421832 0.010241 -0.006195 97535.500000 0 0 1
13.005636 17.787315 -26.491460 34.457692 0.939453 2.447776 0.016034 -0.006667 -248397.000000 0 0 1
14.038436 17.330615 -27.356850 35.296248 0.889965 2.457613 0.013844 -0.009561 126131.000000 0 0 1
13.511836 17.237215 -28.667650 36.076660 0.905965 2.489197 0.019712 -0.018031 -1575.750000 0 0 1
14.505336 17.688015 -29.746940 37.525339 0.883939 2.486048 0.019295 -0.013928 61910.900000 0 0 1
15.606636 16.824815 -29.968060 37.745544 0.822942 2.488074 0.010581 -0.017848 -41526.800000 0 0 1
16.223036 17.153815 -31.216260 39.139432 0.813278 2.494045 0.016674 -0.006797 -560867.000000 0 0 1
17.498236 16.339615 -31.408060 39.492246 0.751171 2.490293 0.016119 -0.005646 -732007.000000 0 0 1
18.580536 16.959015 -30.724670 39.709568 0.739804 2.455512 0.018170 -0.012045 -19905.600000 0 0 1
19.682236 16.065515 -30.785250 39.915195 0.684568 2.451625 0.021606 -0.007766 -417839.000000 0 0 1
20.971636 16.687815 -31.264880 41.179915 0.672133 2.432920 0.021682 -0.008880 -792400.000000 0 0 1
20.846636 17.118215 -32.615840 42.325034 0.687505 2.450585 0.020956 -0.007118 555961.000000 0 0 1
22.093236 17.620415 -33.105820 43.526835 0.673244 2.435009 0.031388 -0.003655 345254.000000 0 0 1
22.065036 18.197915 34.149907 44.544877 0.689645 0.697204 0.026670 0.005315 254319.000000 0 0 1
23.218936 18.959015 33.792726 45.172022 0.684741 0.725618 0.030389 -0.003869 378185.000000 0 0 1
23.028736 19.606815 32.562093 44.441419 0.705310 0.748520 0.035206 -0.000106 -429561.000000 0 0 1
24.060936 20.688215 32.262773 45.252816 0.710171 0.777107 0.044449 -0.007872 -298686.000000 0 0 1
25.384936 20.266915 32.091953 45.662197 0.673755 0.791453 0.032568 -0.018953 -392975.000000 0 0 1
26.218036 21.325315 31.738743 46.362725 0.682848 0.816776 0.026263 -0.033879 -589991.000000 0 0 1
27.708536 21.035515 31.635083 47.021637 0.649345 0.832840 0.048346 -0.032409 -585958.000000 0 0 1
28.265436 20.461815 32.799237 47.889567 0.626598 0.816339 0.033939 -0.031609 -357231.000000 0 0 1
29.568836 20.001015 32.581183 48.331047 0.594726 0.831016 0.032096 -0.031620 -117148.000000 0 0 1
30.112836 19.278515 33.909878 49.278026 0.569462 0.811882 0.021703 -0.025891 -18064.100000 0 0 1
30.210436 20.028815 -33.651060 49.459253 0.585444 2.319077 0.025100 -0.027256 -415612.000000 0 0 1
29.024236 20.089415 -32.932400 48.275603 0.605445 2.321529 0.026978 -0.027576 -724600.000000 0 0 1
29.286136 20.473715 -31.436930 47.593396 0.610117 2.292323 0.034639 -0.019356 -136494.000000 0 0 1
29.989436 19.446515 -30.770780 47.163270 0.575282 2.281584 0.032210 -0.020631 45758.200000 0 0 1
30.554836 19.893215 -29.565440 46.940955 0.577124 2.252148 0.025087 -0.017391 982674.000000 0 0 1
32.028336 19.415315 -29.227060 47.507786 0.544960 2.233443 0.042721 -0.013176 1558010.000000 0 0 1
33.026236 20.158515 -29.962430 48.937155 0.548016 2.229716 0.020501 -0.015027 122168.000000 0 0 1
34.218036 20.208115 -29.228340 49.330900 0.533456 2.204950 0.026041 -0.013498 -280336.000000 0 0 1
35.306536 21.128015 -29.801140 50.804059 0.539254 2.197638 0.032472 -0.020430 -28038.700000 0 0 1
-35.722539 20.694815 -31.023570 51.641427 -0.525076 2.215235 0.027243 -0.019477 356917.000000 0 0 1
-34.571139 21.516815 -31.242810 51.324946 -0.556722 2.225250 0.032759 -0.028531 556727.000000 0 0 1
-33.641939 21.032415 -32.412770 51.232120 -0.558732 2.255786 0.029350 -0.032058 402830.000000 0 0 1
-32.775939 19.949715 -32.048640 49.993685 -0.546770 2.266667 0.046618 -0.025609 132820.000000 0 0 1
-32.060539 19.494615 -33.150670 50.068803 -0.546322 2.294417 0.045089 -0.012028 -421595.000000 0 0 1
-31.281439 18.249315 -32.843270 48.890145 -0.528118 2.307401 0.029695 -0.004890 -102658.000000 0 0 1
-32.109039 17.082815 -32.817460 48.987739 -0.488938 2.304886 0.025332 -0.009816 363953.000000 0 0 1
-31.379739 15.929415 -33.173900 48.362608 -0.469736 2.326693 0.013490 -0.000843 229742.000000 0 0 1
-32.330839 14.675515 -33.298360 48.676839 -0.426106 2.324124 0.004367 0.001434 221152.000000 0 0 1
-31.724939 13.433715 -33.465150 48.029706 -0.400551 2.341666 0.003293 -0.002481 -656520.000000 0 0 1
-32.749539 12.506815 -33.490770 48.482825 -0.364800 2.333358 0.006170 -0.003042 -691747.000000 0 0 1
-32.327039 11.042715 -33.388820 47.768109 -0.329166 2.344763 0.004821 -0.007098 123758.000000 0 0 1
-31.684339 10.578515 34.142912 47.765476 -0.322235 0.774454 -0.007287 -0.007492 134716.000000 0 0 1
-32.184039 9.305715 33.930022 47.682859 -0.281465 0.779056 0.028421 -0.012689 -257840.000000 0 0 1
-31.646139 8.551415 32.716112 46.313591 -0.263917 0.786391 0.043427 -0.014400 838847.000000 0 0 1
-30.367839 8.004515 33.097176 45.625661 -0.257723 0.759171 0.042236 -0.003962 704507.000000 0 0 1
-29.529539 7.664315 31.996633 44.209952 -0.253944 0.761586 0.047077 -0.008209 305559.000000 0 0 1
19.874936 -4.077803 -30.995540 37.045445 -0.202365 2.562007 0.057659 -0.023637 1311320.000000 0 0 1
21.125336 -4.367503 -31.698700 38.342697 -0.203870 2.544050 0.071711 -0.022023 1505090.000000 0 0 1
22.255236 -3.535303 -31.521040 38.747514 -0.157536 2.520939 0.054803 -0.019080 281670.000000 0 0 1
22.201436 -2.056503 -32.132800 39.110737 -0.092366 2.534982 0.057732 -0.018474 -368096.000000 0 0 1
23.252036 -1.199003 -31.740070 39.364029 -0.051520 2.508703 0.048225 -0.014430 266769.000000 0 0 1
22.901436 0.108397 -32.085310 39.420231 0.004733 2.521681 0.050292 -0.011048 50026.400000 0 0 1
23.967636 1.176197 -31.723050 39.776662 0.049035 2.493985 0.036069 -0.007421 -243104.000000 0 0 1
25.103536 1.179497 -32.528210 41.105512 0.046951 2.483785 0.032131 -0.010804 -516524.000000 0 0 1
26.200336 1.779497 -31.876180 41.300303 0.067815 2.452486 0.020999 -0.000820 211911.000000 0 0 1
27.570736 1.404497 -32.494190 42.637899 0.050898 2.437341 0.004066 -0.008835 14276.900000 0 0 1
27.847436 1.992197 -33.746100 43.797805 0.071418 2.450418 0.008252 -0.019109 -571154.000000 0 0 1
28.799036 1.243997 34.305783 44.808690 0.043169 0.698814 -0.002418 -0.015038 -661403.000000 0 0 1
29.654936 2.140597 33.375685 44.698252 0.072059 0.727726 0.010454 -0.021876 75123.800000 0 0 1
28.991036 2.986797 32.352493 43.544057 0.102663 0.733280 0.028644 -0.013723 226148.000000 0 0 1
28.642636 4.260897 32.900054 43.828864 0.147678 0.721754 0.013639 -0.006675 -568384.000000 0 0 1
27.725136 5.139797 32.106843 42.731136 0.183303 0.720662 0.021167 -0.005980 -541873.000000 0 0 1
27.724236 6.470297 32.457743 43.174102 0.229277 0.720028 0.025072 -0.007497 -209174.000000 0 0 1
27.054836 7.286597 31.534443 42.183880 0.263084 0.726435 0.025025 -0.001888 -285549.000000 0 0 1
27.319936 8.809997 31.679963 42.750614 0.311946 0.736177 0.022710 0.000302 1140480.000000 0 0 1
28.703036 9.159497 31.452623 43.554886 0.308898 0.763909 0.018508 0.001775 703775.000000 0 0 1
28.897136 10.556897 31.554173 44.069926 0.350263 0.772737 0.016656 -0.004797 -6764.920000 0 0 1
30.240936 11.044597 30.954763 44.662005 0.350169 0.805030 0.016203 0.000583 -30983.500000 0 0 1
31.312636 10.605997 31.778683 45.856875 0.326584 0.805158 0.016353 -0.003442 742903.000000 0 0 1
32.616936 10.917397 31.249633 46.471428 0.322994 0.833285 0.007521 -0.006481 887655.000000 0 0 1
33.188636 12.345497 31.327843 47.279283 0.356120 0.846495 0.015235 -0.010263 -487462.000000 0 0 1
33.464536 12.721297 32.689177 48.479778 0.363272 0.830801 0.020451 -0.013132 -22802.500000 0 0 1
34.091736 13.955397 32.958428 49.429318 0.388539 0.840918 0.016756 -0.011720 677334.000000 0 0 1
33.178536 15.289997 32.851953 49.130948 0.431832 0.838390 0.029192 -0.019325 26054.000000 0 0 1
32.795936 15.573597 31.540263 48.092603 0.443337 0.855523 0.026254 -0.029093 352471.000000 0 0 1
31.897936 16.702097 31.534893 47.863220 0.482357 0.851501 0.035624 -0.036051 1052310.000000 0 0 1
30.376736 16.341597 31.636893 46.804774 0.493556 0.828566 0.032283 -0.025469 227749.000000 0 0 1
29.991036 15.525897 30.541553 45.533528 0.477695 0.835579 0.044629 -0.020669 114954.000000 0 0 1
28.616236 15.182697 30.606223 44.566177 0.487798 0.813775 0.027490 -0.023924 303674.000000 0 0 1
27.985236 14.547197 29.342153 43.078490 0.479375 0.821488 0.023484 -0.008764 -197739.000000 0 0 1
28.159636 13.237597 28.940093 42.493859 0.439436 0.821612 0.022319 -0.009438 -426631.000000 0 0 1
27.080336 12.770697 28.185123 41.119782 0.440659 0.815589 0.018148 -0.006331 -239086.000000 0 0 1
27.023236 11.261497 28.293793 40.713822 0.394848 0.802455 0.020072 0.001366 -303994.000000 0 0 1
28.092936 10.637897 27.649943 40.827653 0.361983 0.826797 0.022799 0.006869 -535879.000000 0 0 1
27.868336 9.288997 27.485303 40.228988 0.321736 0.818631 0.029957 0.012473 180829.000000 0 0 1
28.892836 8.375697 26.717713 40.234120 0.282154 0.844566 0.017926 0.010470 91008.300000 0 0 1
29.214636 8.691197 25.377103 39.661432 0.289157 0.876502 0.021213 0.012938 182469.000000 0 0 1
30.034136 7.685197 24.788683 39.693707 0.250507 0.896306 0.017251 0.018390 179611.000000 0 0 1
30.277836 8.084697 23.319283 39.062752 0.260929 0.931078 0.027766 0.017092 414147.000000 0 0 1
31.166036 9.218397 23.212383 39.938895 0.287584 0.950597 0.031656 0.006611 644257.000000 0 0 1
30.469336 10.361097 22.810883 39.447042 0.327783 0.954195 0.039119 0.001064 -225135.000000 0 0 1
29.940636 10.482697 21.347583 38.236735 0.336778 0.978461 0.038979 0.017380 -401884.000000 0 0 1
30.976736 10.615397 20.428383 38.594865 0.330147 1.013017 0.053419 -0.002796 -220673.000000 0 0 1
30.548336 10.527497 19.056183 37.512226 0.331872 1.037936 0.049552 -0.009484 -1857930.000000 0 0 1
31.459536 11.023197 17.949283 37.860138 0.337025 1.076861 0.055472 -0.030289 -545160.000000 0 0 1
32.669536 10.323397 17.840483 38.628408 0.306065 1.090718 0.063623 -0.025838 -24456.200000 0 0 1
33.640036 10.443797 18.871683 39.960797 0.301023 1.078949 0.063298 -0.018925 -563746.000000 0 0 1
34.985536 9.924097 18.250183 40.688384 0.276402 1.105670 0.080132 -0.030526 -161546.000000 0 0 1
35.090236 8.500297 18.340283 40.496243 0.237663 1.100794 0.075913 -0.021088 304848.000000 0 0 1
-35.461639 8.052797 17.524183 40.366723 -0.223298 1.121730 0.076653 -0.017855 -250248.000000 0 0 1
-35.452039 6.522697 17.423883 40.037286 -0.181952 1.120545 0.076787 -0.017677 -7002.580000 0 0 1
35.020336 6.130097 16.680383 39.271328 0.173288 1.132114 0.052924 -0.009442 405822.000000 0 0 1
35.239636 4.868497 16.109083 39.051719 0.137285 1.145593 0.053047 -0.004166 -493038.000000 0 0 1
33.970236 4.011497 16.070583 37.793288 0.117544 1.131588 0.037014 0.000257 -337700.000000 0 0 1
33.800536 3.340097 17.305383 38.119663 0.098498 1.099575 0.042533 0.004902 -143578.000000 0 0 1
32.666336 2.517097 17.361483 37.078921 0.076903 1.083509 0.031100 0.006861 -137105.000000 0 0 1
32.469136 1.711697 18.671383 37.493936 0.052669 1.049524 0.028584 0.004740 -352229.000000 0 0 1
33.340936 0.641297 18.817683 38.290135 0.019232 1.057043 0.033559 0.006657 -313100.000000 0 0 1
33.000636 -0.143203 19.924983 38.549545 -0.004339 1.027609 0.038470 0.000904 -73789.200000 0 0 1
33.681436 -1.492203 19.929383 39.164347 -0.044274 1.036930 0.039857 0.000048 -96633.300000 0 0 1
33.412236 -2.266603 21.070383 39.566097 -0.067734 1.009202 0.053711 0.005672 -62610.100000 0 0 1
34.076936 -3.487603 21.041783 40.201462 -0.101990 1.019950 0.034340 0.006867 -834943.000000 0 0 1
33.607636 -4.385603 22.099283 40.460907 -0.129761 0.992989 0.037427 0.005636 -507760.000000 0 0 1
33.910336 -3.863503 23.409483 41.386488 -0.113444 0.969598 0.035151 -0.001945 301550.000000 0 0 1
33.310436 -4.620703 24.435063 41.569319 -0.137837 0.942441 0.036946 -0.001289 -78724.300000 0 0 1
33.505736 -4.009003 25.840233 42.502048 -0.119085 0.917287 0.016530 -0.001181 468157.000000 0 0 1
32.683736 -4.546903 26.909263 42.579447 -0.138231 0.886694 0.025167 -0.005535 375522.000000 0 0 1
32.917236 -3.845603 28.098253 43.449337 -0.116299 0.867559 0.023906 -0.006905 -80310.600000 0 0 1
32.087436 -4.326903 29.314913 43.677107 -0.134039 0.835006 0.028538 -0.012887 -56085.900000 0 0 1
32.450036 -5.573803 29.893283 44.471119 -0.170106 0.833626 0.040346 -0.013673 265111.000000 0 0 1
31.485136 -5.972103 30.864693 44.492798 -0.187453 0.804182 0.055911 -0.032038 18970.000000 0 0 1
31.514536 -7.513603 31.122983 44.925051 -0.234048 0.805465 0.045198 -0.022915 -254438.000000 0 0 1
32.628936 -7.816803 31.898953 46.295713 -0.235135 0.810652 0.037338 -0.022842 -698336.000000 0 0 1
33.372436 -8.888203 31.380003 46.662878 -0.260291 0.833237 0.030442 -0.009435 -269508.000000 0 0 1
34.677836 -9.052203 32.157893 48.152100 -0.255339 0.839494 0.045229 -0.004326 -434598.000000 0 0 1
34.479036 -9.395203 33.512214 48.991246 -0.266031 0.817503 0.031712 -0.011445 78788.100000 0 0 1
35.714036 -9.635603 34.162606 50.352962 -0.263524 0.825128 0.018455 -0.017260 -60657.300000 0 0 1
35.665136 -9.807203 -33.015650 49.580402 -0.268348 2.299497 0.038474 -0.021898 -247749.000000 0 0 1
35.105136 -8.710103 -32.300380 48.492793 -0.243204 2.299745 0.035850 -0.031252 225963.000000 0 0 1
35.754636 -7.470803 -32.344050 48.788773 -0.205983 2.295536 0.043965 -0.020881 132958.000000 0 0 1
34.932536 -6.362303 -31.552020 47.500430 -0.180156 2.297282 0.047595 -0.018144 -131808.000000 0 0 1
35.082336 -6.446203 -30.149180 46.704356 -0.181718 2.272517 0.035746 -0.006354 601850.000000 0 0 1
34.273436 -5.462403 -29.487750 45.541559 -0.158048 2.275084 0.035868 -0.010137 -4843.180000 0 0 1
34.774136 -5.375103 -28.012830 44.976114 -0.153358 2.243161 0.038739 -0.009354 1469090.000000 0 0 1
-35.456739 -4.936903 -27.874780 45.371320 0.138348 2.232384 0.050484 -0.009195 1132690.000000 0 0 1
-34.979039 -5.090703 -26.561090 44.214702 0.144521 2.215210 0.047306 -0.009162 222289.000000 0 0 1
-33.506139 -4.650703 -26.391100 42.904318 0.137920 2.233328 0.058926 -0.000227 -809882.000000 0 0 1
-33.290839 -4.448503 -25.001640 41.870647 0.132839 2.210697 0.065377 0.000544 575687.000000 0 0 1
-31.942739 -4.290203 -24.562140 40.522131 0.133510 2.221996 0.073115 0.001029 720150.000000 0 0 1
-30.990239 -3.236903 -25.189510 40.067241 0.104072 2.250652 0.063761 -0.003312 -459935.000000 0 0 1
-30.676139 -3.574003 -26.504260 40.697356 0.115985 2.280030 0.059086 -0.000876 -367110.000000 0 0 1
-29.675939 -2.777903 -27.076150 40.267803 0.093336 2.308245 0.053928 -0.005180 -211102.000000 0 0 1
-29.146239 -3.420203 -28.345590 40.800410 0.116812 2.338852 0.042802 -0.000386 -286552.000000 0 0 1
-30.063039 -3.426203 -29.406130 42.192957 0.113478 2.341924 0.062968 0.000552 -14610.200000 0 0 1
-29.545639 -4.158603 -30.488040 42.658637 0.139833 2.366988 0.053820 0.004324 -442885.000000 0 0 1
-30.641139 -4.614003 -31.490400 44.179335 0.149459 2.364258 0.042289 -0.004438 -497132.000000 0 0 1
-31.618239 -5.542803 -31.101580 44.696129 0.173541 2.340392 0.039992 -0.007166 858852.000000 0 0 1
-32.776939 -4.936803 -30.480100 45.030392 0.149494 2.314310 0.054022 -0.011988 1280230.000000 0 0 1
-33.815439 -4.041303 -31.324390 46.271302 0.118946 2.314437 0.078238 -0.014272 -16518.400000 0 0 1
-33.367339 -2.811603 -31.882970 46.236437 0.084064 2.331683 0.081178 -0.008362 13695.200000 0 0 1
-33.007539 -1.836203 -30.922490 45.266650 0.055573 2.322821 0.081931 -0.011021 -156034.000000 0 0 1
-32.911839 -0.422303 -31.474560 45.541359 0.012831 2.333834 0.071384 -0.009276 413449.000000 0 0 1
-34.166939 0.234497 -31.635280 46.564209 -0.006863 2.317728 0.097913 -0.009879 415663.000000 0 0 1
-33.974639 1.599897 -31.967240 46.676977 -0.047056 2.325209 0.112202 -0.005600 433017.000000 0 0 1
-35.299339 2.308297 -32.398230 47.968915 -0.065299 2.312304 0.070158 -0.002909 288228.000000 0 0 1
-35.727539 1.955197 -33.680160 49.138915 -0.054671 2.325959 0.057566 -0.007406 -931154.000000 0 0 1
34.773436 2.694397 -33.989190 48.700273 0.077330 2.343294 0.019037 -0.005887 -1135310.000000 0 0 1
33.948736 2.071697 33.572148 47.790143 0.060949 0.791905 0.003149 -0.003865 -238294.000000 0 0 1
34.381336 2.248597 32.270383 47.207097 0.065309 0.818124 0.009168 -0.005204 497670.000000 0 0 1
35.647836 1.660697 31.964093 47.908552 0.046553 0.840367 0.009324 -0.007495 274125.000000 0 0 1
-35.582839 1.752497 30.468593 46.877978 -0.049211 0.863271 0.022587 -0.009296 -121918.000000 0 0 1
-35.364139 3.060597 29.956653 46.447719 -0.086330 0.869833 0.030074 -0.011177 206224.000000 0 0 1
-34.887239 2.936097 28.612293 45.215079 -0.083962 0.885627 0.041584 -0.015090 -6379.090000 0 0 1
-34.625939 4.369097 28.074103 44.790623 -0.125517 0.893376 0.050410 -0.016600 -234730.000000 0 0 1
-33.934739 4.374197 26.862233 43.500341 -0.128193 0.905213 0.045629 -0.008992 -24770.900000 0 0 1
-33.509539 5.633997 26.521473 43.104752 -0.166573 0.908056 0.034862 -0.002670 -755702.000000 0 0 1
-32.567439 5.839797 25.356513 41.685657 -0.177428 0.916906 0.038435 0.002149 -91469.000000 0 0 1
-31.292139 5.210397 25.578723 40.750672 -0.164994 0.892216 0.033140 -0.000513 938588.000000 0 0 1
-30.273039 5.598697 24.669283 39.450929 -0.182874 0.895260 0.034657 -0.003439 118313.000000 0 0 1
-30.486039 5.282497 23.133583 38.632447 -0.171572 0.928779 0.051430 -0.004221 -680587.000000 0 0 1
-30.666239 3.906897 22.781583 38.401596 -0.126718 0.935712 0.037111 0.002253 73192.100000 0 0 1
-31.165239 3.737397 21.456783 38.021491 -0.119352 0.971171 0.058546 -0.006017 -63285.200000 0 0 1
-31.285239 2.266497 20.932683 37.710481 -0.072320 0.982326 0.045189 0.008965 691718.000000 0 0 1
-30.106339 1.612197 20.409083 36.407712 -0.053499 0.975722 0.041894 0.011545 626561.000000 0 0 1
-29.928339 1.955697 19.025083 35.517376 -0.065253 1.005512 0.042302 0.001234 104300.000000 0 0 1
-28.673239 1.311797 18.377583 34.082414 -0.045718 1.001297 0.038906 0.000262 -102297.000000 0 0 1
-28.758639 -0.091903 18.247783 34.059497 0.003196 1.005386 0.044588 -0.000454 51869.500000 0 0 1
-27.726239 -0.759903 17.552983 32.824213 0.027400 1.006576 0.049983 -0.004040 -216290.000000 0 0 1
-27.551739 -0.449603 16.050983 31.889410 0.016317 1.043345 0.059155 -0.002059 -229792.000000 0 0 1
-27.078139 0.801897 15.761083 31.341352 -0.029606 1.043864 0.065053 -0.002475 53678.600000 0 0 1
-27.185639 0.979597 14.347083 30.754794 -0.036018 1.085468 0.073894 -0.004786 -43537.100000 0 0 1
-26.760039 2.334597 13.750583 30.176622 -0.087022 1.097672 0.069806 -0.003889 54945.200000 0 0 1
-25.354639 2.530997 13.822783 28.988497 -0.099494 1.073744 0.059724 -0.006744 212746.000000 0 0 1
-25.003539 3.749797 13.228183 28.534588 -0.148861 1.088760 0.053600 -0.005305 -136340.000000 0 0 1
-23.467839 3.853297 13.113483 27.157886 -0.162743 1.066877 0.041829 -0.005293 -639752.000000 0 0 1
-22.814639 4.190797 14.276883 27.237839 -0.181664 1.019072 0.024711 0.000629 -46535.500000 0 0 1
-21.469839 4.419297 13.845183 25.926304 -0.203002 1.007447 0.021204 -0.003290 -138324.000000 0 0 1
-20.664839 4.878797 15.026183 26.012005 -0.231846 0.954933 0.010975 -0.007127 -766050.000000 0 0 1
-21.029439 6.240197 15.321183 26.756606 -0.288460 0.961107 0.008466 0.000573 420121.000000 0 0 1
-20.550039 6.619297 16.581883 27.222748 -0.311612 0.915848 0.000745 0.007055 -269075.000000 0 0 1
-20.702839 8.122997 16.924883 27.947133 -0.373904 0.920272 0.005643 0.012124 -446060.000000 0 0 1
-19.780639 8.974697 16.266583 27.137070 -0.425936 0.928016 -0.000931 0.011895 381734.000000 0 0 1
-19.995839 10.376097 16.403683 27.867145 -0.478663 0.941422 0.004665 0.018921 -348786.000000 0 0 1
-19.420139 11.011397 17.684183 28.480221 -0.515808 0.900870 0.009995 0.012665 -195591.000000 0 0 1
-20.025339 10.586397 18.919383 29.513201 -0.486304 0.874933 0.014038 0.008932 486387.000000 0 0 1
-19.715939 11.469997 19.940583 30.296962 -0.526902 0.852409 0.025320 0.008484 -124535.000000 0 0 1
-12.371064 -34.095420 -21.150840 41.986890 1.222732 2.098729 0.047050 -0.023293 -220616.000000 0 0 1
-13.319464 34.189797 -20.217540 41.893905 -1.199310 2.074405 0.068695 -0.018620 -234927.000000 0 0 1
-14.409364 -33.659720 -20.193940 41.813894 1.166312 2.074815 0.064062 -0.032938 -54567.400000 0 0 1
-15.562764 -34.291120 -19.377140 42.350373 1.144752 2.046027 0.059281 -0.022938 -1491040.000000 0 0 1
-16.081364 33.364297 -20.098740 42.139601 -1.121658 2.067985 0.052013 -0.018742 -92068.300000 0 0 1
-16.710864 32.400497 -19.276040 41.238464 -1.094621 2.057176 0.057992 -0.010258 309835.000000 0 0 1
-18.005364 32.827297 -18.509940 41.766523 -1.069115 2.029935 0.057021 -0.019405 -784433.000000 0 0 1
-17.819164 33.941297 -17.595040 42.179612 -1.087350 2.001099 0.062271 -0.013651 -61761.700000 0 0 1
-19.041764 34.318797 -16.992640 42.768194 -1.064238 1.979390 0.049455 -0.006678 94137.900000 0 0 1
-19.385664 33.730397 -15.655140 41.935988 -1.049170 1.953371 0.055387 -0.011856 -199069.000000 0 0 1
-19.490164 32.289897 -15.644140 40.831888 -1.027734 1.963985 0.064792 -0.017973 34787.800000 0 0 1
-20.158264 31.939397 -14.468340 40.445192 -1.007793 1.936629 0.059550 -0.013408 -189510.000000 0 0 1
-20.156364 30.379097 -14.308540 39.165072 -0.984993 1.944794 0.054968 -0.015073 899413.000000 0 0 1
-18.843464 29.874897 -13.967940 37.982746 -1.008076 1.947379 0.053271 -0.024531 1063210.000000 0 0 1
-18.883564 28.449197 -13.964340 36.891037 -0.984806 1.959003 0.044348 -0.024679 -364921.000000 0 0 1
-17.635964 27.850497 -13.302340 35.547569 -1.006296 1.954344 0.050135 -0.021116 -33209.700000 0 0 1
-16.493464 28.118297 -14.089340 35.513131 -1.040307 1.978755 0.063386 -0.031036 90027.100000 0 0 1
-15.317864 27.385597 -13.742940 34.256040 -1.060810 1.983604 0.066798 -0.033764 874713.000000 0 0 1
-14.086164 27.906397 -14.542240 34.477004 -1.103344 2.006221 0.063231 -0.036939 -246839.000000 0 0 1
-14.272964 27.769597 -15.990340 35.079325 -1.096029 2.044105 0.051488 -0.039451 -653691.000000 0 0 1
-13.134864 28.206097 -16.633040 35.281250 -1.134984 2.061721 0.070001 -0.041800 -903922.000000 0 0 1
-13.101564 28.175597 -18.156340 35.988442 -1.135541 2.099605 0.081174 -0.050596 -159307.000000 0 0 1
-13.185564 26.834197 -18.521040 35.170473 -1.114075 2.125401 0.047539 -0.044631 216868.000000 0 0 1
-13.387464 26.725197 -19.879640 35.897917 -1.106405 2.157696 0.051369 -0.050773 -259448.000000 0 0 1
-12.499164 25.601597 -20.514340 35.107108 -1.116619 2.194858 0.040927 -0.038097 -732112.000000 0 0 1
-11.234264 26.124497 -20.764940 35.211941 -1.164675 2.201500 0.027200 -0.020251 -1023230.000000 0 0 1
-10.373964 25.136097 -21.242340 34.506224 -1.179380 2.233955 0.046956 -0.025386 136487.000000 0 0 1
-9.187064 25.711097 -22.073540 35.109882 -1.227616 2.250675 0.038385 -0.022864 -43042.700000 0 0 1
-9.498064 26.163397 -23.382740 36.352292 -1.222562 2.269500 0.039039 -0.014790 480550.000000 0 0 1
-8.401764 26.843697 -24.023140 36.990336 -1.267467 2.277649 0.017481 -0.013773 461398.000000 0 0 1
-8.809664 27.614997 -25.321280 38.488511 -1.261985 2.288812 0.014444 -0.008052 -337788.000000 0 0 1
-9.489664 26.853097 -26.248390 38.731389 -1.231103 2.315431 0.025039 -0.003852 -414756.000000 0 0 1
-9.851864 27.582097 -27.342760 40.068165 -1.227737 2.321846 0.045386 -0.002419 53357.700000 0 0 1
-10.605264 26.710197 -28.372380 40.384381 -1.192836 2.349782 0.022317 -0.002946 -222807.000000 0 0 1
-11.322364 27.411897 -29.280350 41.676695 -1.179095 2.349784 0.042015 0.001262 569320.000000 0 0 1
-12.492664 26.678597 -29.760580 41.874889 -1.132857 2.361292 0.039505 0.001221 1093250.000000 0 0 1
-12.870664 27.002497 -31.243030 43.254084 -1.126005 2.377939 0.034446 -0.005841 37474.000000 0 0 1
-12.071864 26.395097 -32.255010 43.391436 -1.141845 2.408861 0.035645 -0.005019 143234.000000 0 0 1
-11.866164 24.980497 -32.299560 42.521673 -1.127334 2.433498 0.046738 -0.013974 215540.000000 0 0 1
-11.145364 24.432897 -33.544010 42.969596 -1.142830 2.466494 0.030846 -0.005385 675619.000000 0 0 1
-11.995064 24.615997 34.042679 43.689047 -1.117370 0.677402 0.044807 -0.002843 859506.000000 0 0 1
-11.312564 23.936997 32.985610 42.296624 -1.129310 0.676348 0.046100 -0.007274 276720.000000 0 0 1
-12.039564 24.022797 31.613023 41.490109 -1.106211 0.704491 0.054085 -0.001498 340824.000000 0 0 1
-13.169764 23.168197 31.403433 41.187178 -1.053905 0.703695 0.070775 -0.013309 103001.000000 0 0 1
-13.653164 23.191797 30.130453 40.399413 -1.038722 0.729040 0.078907 -0.001238 -281527.000000 0 0 1
-15.001564 22.459797 30.044413 40.399953 -0.981920 0.732246 0.056876 -0.000616 -158625.000000 0 0 1
-14.946864 21.092597 30.235893 39.780845 -0.954301 0.707388 0.049286 -0.015324 -81048.500000 0 0 1
-16.240364 20.553997 30.371513 40.107917 -0.902102 0.711712 0.039891 -0.014513 189645.000000 0 0 1
-16.036964 19.004197 30.494373 39.347815 -0.869875 0.684089 0.037638 -0.022794 202579.000000 0 0 1
-15.291264 18.439897 29.437163 37.952591 -0.878473 0.683084 0.030217 -0.013172 210783.000000 0 0 1
-14.986964 17.076997 29.628113 37.337086 -0.850489 0.654208 0.018560 -0.023597 50093.300000 0 0 1
-14.432064 16.219397 28.446233 35.784654 -0.843644 0.651907 0.023915 -0.011743 157244.000000 0 0 1
-13.176264 16.627197 27.949563 35.089253 -0.900674 0.649266 0.026263 -0.005722 -35208.300000 0 0 1
-12.887964 15.875297 26.784303 33.697531 -0.888886 0.652045 0.014268 0.002514 -14805.900000 0 0 1
-11.874064 16.528497 25.814583 32.872136 -0.947828 0.667611 0.024408 0.002784 -30005.900000 0 0 1
-12.298964 17.534397 24.925253 32.863168 -0.959118 0.709856 0.024569 0.002834 -410889.000000 0 0 1
-12.856764 18.759197 25.379263 34.078011 -0.969965 0.730651 0.019641 -0.000194 228747.000000 0 0 1
-11.900764 19.941397 25.839813 34.741667 -1.032743 0.732103 0.012067 -0.001569 414554.000000 0 0 1
-11.378164 19.723897 27.168773 35.449076 -1.047556 0.697552 0.022703 -0.007007 238993.000000 0 0 1
-12.239564 20.235097 28.181593 36.789513 -1.026805 0.698166 0.045685 -0.014004 -123319.000000 0 0 1
-11.883264 19.773397 29.604853 37.531940 -1.029662 0.661957 0.045385 -0.018291 -1195800.000000 0 0 1
-10.709564 20.320897 30.015603 37.796429 -1.085765 0.653207 0.030629 -0.020420 -1325030.000000 0 0 1
-10.488664 20.056497 31.388233 38.697498 -1.088953 0.624735 0.018620 -0.020251 245989.000000 0 0 1
-9.276864 20.846797 31.955613 39.265893 -1.152107 0.620090 0.023413 -0.019247 -113017.000000 0 0 1
-8.008864 20.295797 31.852093 38.608511 -1.194948 0.600591 0.028818 -0.020061 -499280.000000 0 0 1
-7.076664 21.068097 32.585773 39.443333 -1.246742 0.598571 0.022133 -0.013807 57354.900000 0 0 1
-5.866164 20.292497 33.122777 39.285057 -1.289387 0.567701 0.032962 -0.014275 -372372.000000 0 0 1
-6.091964 19.601897 34.348693 40.014736 -1.269475 0.538652 0.030325 -0.015734 553977.000000 0 0 1
-4.905164 19.110697 -33.739420 39.084880 -1.319549 2.612439 0.026222 -0.013776 891322.000000 0 0 1
-4.100664 17.951397 34.313428 38.942001 -1.346218 0.492525 0.023262 -0.008729 53707.800000 0 0 1
-4.831064 16.749097 34.344536 38.515173 -1.289981 0.469677 0.028049 -0.008267 11617.800000 0 0 1
-4.569564 16.055797 33.137502 37.104765 -1.293522 0.466652 0.030053 -0.007913 116268.000000 0 0 1
-5.384064 14.757097 32.837966 36.401814 -1.220958 0.446192 0.040727 -0.009880 -164212.000000 0 0 1
-4.751364 13.619197 33.320640 36.308718 -1.235126 0.408536 0.047243 -0.008045 -385908.000000 0 0 1
-5.587564 12.514897 33.294443 36.005047 -1.150879 0.390508 0.059921 -0.011402 130125.000000 0 0 1
-4.780064 11.221597 33.744270 35.881040 -1.168104 0.346849 0.082670 -0.021358 653506.000000 0 0 1
-4.548664 11.152597 -33.582150 35.676765 -1.183535 2.797225 0.074200 -0.015037 123907.000000 0 0 1
-3.620464 10.088897 -33.323010 35.004522 -1.226254 2.830380 0.085685 -0.018456 563524.000000 0 0 1
-3.572864 9.693897 -31.854980 33.488457 -1.217676 2.827972 0.076070 -0.016570 281455.000000 0 0 1
-4.779464 9.046297 -31.504450 33.124147 -1.084739 2.827581 0.085501 -0.016217 46999.400000 0 0 1
-4.697264 8.595397 -30.138340 31.690135 -1.070655 2.827355 0.091492 -0.005177 297139.000000 0 0 1
-5.904164 7.734597 -29.702120 31.255385 -0.918809 2.825008 0.082284 -0.014000 63027.200000 0 0 1
-5.645264 7.039797 -28.512590 29.906446 -0.894894 2.835084 0.076303 -0.008438 351805.000000 0 0 1
-6.666264 6.087797 -28.161420 29.573061 -0.740074 2.831371 0.081846 -0.025451 -11084.000000 0 0 1
-6.504164 5.341797 -26.801310 28.091799 -0.687588 2.837309 0.067225 -0.024570 -285769.000000 0 0 1
-6.786764 6.147097 -25.666300 27.250797 -0.735982 2.798905 0.046221 -0.014359 -135737.000000 0 0 1
-5.784964 7.027597 -25.274940 26.864019 -0.882081 2.795919 0.051321 -0.014781 -791363.000000 0 0 1
-6.264264 7.869897 -24.083040 26.099216 -0.898513 2.745951 0.029291 -0.012044 202837.000000 0 0 1
-6.686564 7.141697 -22.940740 24.939758 -0.818300 2.738484 0.023333 -0.008048 1248.910000 0 1 0
-7.839764 7.744797 -22.402140 24.965970 -0.779305 2.684427 0.020263 0.000286 -170273.000000 0 1 0
-7.819964 7.926997 -20.892340 23.674437 -0.792195 2.651916 0.014487 -0.005752 -336463.000000 0 1 0
-7.005064 8.970997 -20.456740 23.409996 -0.907838 2.633854 -0.001851 -0.005910 -213781.000000 0 1 0
-6.874664 9.180497 -19.073240 22.256033 -0.928042 2.600200 0.005352 -0.003791 -393798.000000 0 1 0
-8.158364 9.520697 -18.305440 22.187648 -0.862305 2.541049 0.002739 0.003711 -581824.000000 0 1 0
-7.989564 9.452397 -16.867440 20.921077 -0.869071 2.508567 0.000671 -0.005111 -431570.000000 0 1 0
-9.139264 9.823097 -16.196240 21.031823 -0.821445 2.449767 0.007783 -0.003923 -451224.000000 0 1 0
-9.642764 11.294797 -16.271340 22.029795 -0.864138 2.401797 0.011069 -0.009346 -478345.000000 0 1 0
-8.642864 12.155297 -15.785440 21.717055 -0.952701 2.384547 -0.003311 -0.014262 40779.200000 0 1 0
-8.911864 13.478197 -16.146640 22.842879 -0.986584 2.355841 0.009639 -0.015172 182525.000000 0 1 0
-7.650964 14.362297 -15.934340 22.775338 -1.081323 2.345678 0.014525 -0.008806 -143105.000000 0 1 0
-7.197764 14.640597 -14.625540 21.910302 -1.113867 2.301668 0.011742 0.000618 87010.100000 0 1 0
-8.160764 15.243997 -13.728240 22.078091 -1.079276 2.241840 0.005589 -0.009361 -322254.000000 0 1 0
-7.541564 16.038997 -12.547640 21.715614 -1.131270 2.186847 0.005983 -0.008821 224925.000000 0 1 0
-6.960564 17.329497 -12.819340 22.651631 -1.188860 2.172363 0.013680 -0.008931 928843.000000 0 1 0
-5.912764 17.473197 -13.827640 23.053786 -1.244501 2.214046 0.030766 -0.002891 599342.000000 0 1 0
-5.694464 18.903497 -14.272540 24.361333 -1.278204 2.196748 0.042665 0.003159 476630.000000 0 1 0
-5.115064 19.812097 -13.271840 24.389031 -1.318135 2.146199 0.040884 -0.006686 209161.000000 0 1 0
-5.449464 21.136597 -13.649040 25.743906 -1.318470 2.129615 0.057728 -0.000006 -33252.400000 0 0 1
-4.829264 22.203997 -12.725140 26.043588 -1.356636 2.081291 0.065334 0.000435 -346020.000000 0 0 1
-5.088164 23.589297 -13.056740 27.437617 -1.358353 2.066749 0.057486 -0.002793 1158390.000000 0 0 1
-6.460364 24.071897 -13.129040 28.170272 -1.308597 2.055629 0.060555 -0.004547 1013070.000000 0 0 1
-7.163964 24.214197 -11.801340 27.873309 -1.283144 2.007983 0.039672 -0.001701 -468828.000000 0 0 1
-7.525464 22.956697 -11.228040 26.640410 -1.254024 2.005858 0.039183 0.003198 -45408.500000 0 0 1
-8.316364 22.952997 -10.050540 26.401048 -1.223187 1.961336 0.053168 -0.001268 157466.000000 0 0 1
-7.577464 23.307497 -8.710440 26.010174 -1.256466 1.912280 0.054791 -0.003131 124901.000000 0 0 1
-7.330964 24.704797 -8.667840 27.188260 -1.282331 1.895268 0.053170 -0.002043 -227504.000000 0 0 1
-6.778964 25.076497 -7.423840 27.016633 -1.306776 1.849165 0.044020 -0.005157 62341.000000 0 0 1
-6.640464 26.579797 -7.200840 28.327257 -1.325976 1.827819 0.033585 -0.008359 384172.000000 0 0 1
-5.672964 27.299797 -7.967140 28.998910 -1.365910 1.849115 0.034880 -0.005778 -38426.700000 0 0 1
-5.911364 27.390997 -9.340540 29.537377 -1.358242 1.892547 0.038531 -0.000066 -25519.300000 0 0 1
-5.425964 28.717797 -9.972140 30.880359 -1.384057 1.899618 0.033469 0.001744 425766.000000 0 0 1
-6.404964 29.753197 -9.855540 31.990748 -1.358762 1.883965 0.034070 0.004126 228098.000000 0 0 1
-7.115264 29.853997 -11.105340 32.637658 -1.336826 1.917991 0.040550 0.005711 420425.000000 0 0 1
-8.326364 30.822297 -10.973740 33.760411 -1.306953 1.901858 0.030792 0.002993 459365.000000 0 0 1
-9.352064 30.470697 -10.043340 33.418456 -1.273003 1.876047 0.030265 0.001241 -257984.000000 0 0 1
-10.211064 31.548197 -9.887140 34.602169 -1.257772 1.860572 0.024873 -0.008478 -467379.000000 0 0 1
-11.392464 31.089197 -9.014240 34.315929 -1.219547 1.836599 0.031376 -0.007992 -175038.000000 0 0 1
-12.222764 30.128197 -9.602740 33.901576 -1.185393 1.857981 0.037357 -0.008790 -499857.000000 0 0 1
-13.368764 29.886297 -8.830240 33.909995 -1.150173 1.834235 0.037113 -0.005779 125569.000000 0 0 1
-14.279564 28.763997 -9.370240 33.452577 -1.110002 1.854700 0.041308 -0.006405 -10504.700000 0 0 1
-13.942464 27.414297 -8.964740 32.035957 -1.100305 1.854417 0.034971 0.003730 288252.000000 0 0 1
-14.878664 26.484797 -9.522440 31.835452 -1.058953 1.874561 0.042788 0.004194 223605.000000 0 0 1
-14.952264 25.114797 -8.890140 30.550906 -1.033798 1.866062 0.041359 0.004314 -202883.000000 0 0 1
-13.926864 24.263797 -9.325840 29.490010 -1.049731 1.892557 0.033866 0.006522 41884.000000 0 0 1
-14.150864 22.969397 -8.773540 28.369265 -1.018641 1.885213 0.033251 0.004208 -133577.000000 0 0 1
-13.149264 21.906597 -9.244740 27.171076 -1.030199 1.917971 0.045098 0.004450 -214947.000000 0 0 1
-13.161864 21.682797 -10.627840 27.501443 -1.025232 1.967572 0.046035 0.007562 240971.000000 0 0 1
-12.696964 20.377697 -11.023140 26.419180 -1.013578 2.001203 0.051600 0.001756 -99091.400000 0 0 1
-12.636364 20.077097 -12.565440 26.845071 -1.009045 2.057905 0.056597 0.005952 273065.000000 0 0 1
-13.915464 19.755497 -13.099340 27.486588 -0.957134 2.067548 0.068753 0.008321 36684.200000 0 0 1
-13.840164 19.368797 -14.433440 27.839264 -0.950365 2.115841 0.072182 0.007911 235017.000000 0 0 1
-15.195764 18.896697 -14.996040 28.511009 -0.893530 2.124656 0.061254 0.002537 533458.000000 0 0 1
-16.166064 19.911197 -15.210040 29.818496 -0.888836 2.106083 0.043798 -0.004973 388486.000000 0 0 1
-17.472464 19.360897 -15.363340 30.268194 -0.836623 2.103163 0.042002 -0.004556 713028.000000 0 0 1
-18.580364 20.271497 -15.960640 31.794741 -0.828898 2.096694 0.023092 -0.010237 57153.800000 0 0 1
-18.868264 21.345297 -15.176840 32.279554 -0.846917 2.060278 0.028881 -0.010146 249327.000000 0 0 1
-19.502164 22.325197 -16.018540 33.694843 -0.852788 2.066215 0.031959 -0.022062 -36439.300000 0 0 1
-19.901364 23.627797 -15.325640 34.484958 -0.870798 2.031318 0.023037 -0.018047 -775835.000000 0 0 1
-21.130664 23.402397 -14.729640 34.801429 -0.836366 2.007824 0.034660 -0.016719 -675222.000000 0 0 1
-21.432464 24.492397 -13.934040 35.403185 -0.851929 1.975321 0.033125 -0.017897 -405286.000000 0 0 1
-25.432694 -0.806703 3.747960 25.720029 0.031708 1.424554 0.074964 -0.038517 -66513.300000 0 0 1
-25.819354 -0.089903 4.882360 26.277073 0.003482 1.383907 0.073966 -0.031210 19124.000000 0 0 1
-27.131644 -0.430703 5.270760 27.642224 0.015873 1.378944 0.077317 -0.031979 -326359.000000 0 0 1
-27.604474 0.308897 6.490760 28.358991 -0.011190 1.339871 0.072070 -0.026065 -672740.000000 0 0 1
-28.053864 1.626997 6.246360 28.786862 -0.057931 1.352070 0.077410 -0.023987 70837.400000 0 0 1
-28.225424 2.411797 7.452660 29.292209 -0.085241 1.313544 0.070314 -0.010740 551600.000000 0 0 1
-26.913424 2.851897 8.235060 28.289255 -0.105572 1.275418 0.069077 -0.012774 558568.000000 0 0 1
-26.466054 1.696397 8.898260 27.973359 -0.064010 1.247074 0.074044 -0.021069 428320.000000 0 0 1
-25.434894 1.946797 9.855060 27.346775 -0.076391 1.202128 0.074501 -0.029419 234360.000000 0 0 1
-24.710264 0.703097 10.472260 26.846969 -0.028446 1.170086 0.067334 -0.021419 442954.000000 0 0 1
-23.697064 0.060097 9.670160 25.594266 -0.002536 1.183350 0.048410 -0.024535 829728.000000 0 0 1
-24.165864 -0.671903 8.528260 25.635360 0.027797 1.231657 0.038471 -0.015502 -11640.900000 0 0 1
-22.976264 -1.392303 7.841460 24.317396 0.060523 1.242466 0.025995 -0.024499 227365.000000 0 1 0
-22.360264 -2.414503 8.622660 24.086542 0.107565 1.204686 0.039121 -0.015656 608935.000000 0 1 0
-21.098164 -2.722603 8.049960 22.745262 0.128335 1.209039 0.039132 -0.020179 919980.000000 0 1 0
-19.856764 -2.816903 9.029560 21.994522 0.140921 1.147754 0.015006 -0.009534 348739.000000 0 1 0
-19.550464 -1.594803 9.692260 21.879304 0.081393 1.111868 0.016507 -0.004779 228463.000000 0 1 0
-20.356264 -1.195403 10.767060 23.059403 0.058657 1.084984 0.035795 -0.009663 -468016.000000 0 1 0
-20.120864 0.317897 11.099260 22.981380 -0.015798 1.066756 0.034010 -0.004219 -202361.000000 0 1 0
-20.520664 1.224797 10.095960 22.902537 -0.059615 1.114281 0.028974 -0.000970 422219.000000 0 1 0
-20.835964 2.492197 10.709560 23.559354 -0.119045 1.098898 0.026784 0.000051 -264095.000000 0 1 0
-21.525464 3.445297 9.712560 23.865237 -0.158711 1.151656 0.033779 -0.011150 -341222.000000 0 1 0
-21.689464 4.690497 10.310960 24.469359 -0.212977 1.135827 0.028027 -0.008904 513103.000000 0 1 0
-22.228664 5.682597 9.459060 24.816915 -0.250282 1.179752 0.027262 -0.008888 -355923.000000 0 1 0
-22.395164 7.077597 10.158360 25.589608 -0.306100 1.162581 0.034936 -0.001629 139211.000000 0 0 1
-23.334464 6.924597 11.214560 26.799508 -0.288476 1.139046 0.032081 -0.003045 425482.000000 0 0 1
-23.332364 8.054397 12.081160 27.481393 -0.332395 1.115629 0.030475 -0.003811 -111437.000000 0 0 1
-24.130164 7.838097 13.388860 28.687317 -0.314074 1.085221 0.037458 -0.001059 69751.500000 0 0 1
-25.483554 7.530797 13.134560 29.641881 -0.287338 1.111733 0.044192 0.003733 281389.000000 0 0 1
-26.173334 7.226497 14.372160 30.721730 -0.269390 1.083977 0.046291 0.001682 1411880.000000 0 0 1
-27.680754 6.749097 14.276460 31.868351 -0.239153 1.106289 0.056650 0.001625 1136990.000000 0 0 1
-27.847244 5.457797 13.650160 31.489418 -0.193537 1.122441 0.067800 0.001163 91873.400000 0 0 1
-28.679464 5.561397 12.512960 31.780733 -0.191538 1.166113 0.065005 -0.000134 -126762.000000 0 0 1
-28.953504 4.234897 11.772060 31.540786 -0.145236 1.188305 0.074946 0.002426 -382381.000000 0 0 1
-29.695544 3.298397 12.502060 32.388367 -0.110620 1.174500 0.078842 -0.000068 -40404.600000 0 0 1
-30.380394 2.467997 11.623560 32.621565 -0.081059 1.206475 0.073433 0.004532 265559.000000 0 0 1
-31.494014 1.560197 12.313160 33.851456 -0.049499 1.198516 0.051032 0.011597 483639.000000 0 0 1
-31.122684 0.388097 12.976060 33.721658 -0.012469 1.175806 0.056673 0.004743 -812881.000000 0 0 1
-32.259954 -0.258903 13.428260 34.944096 0.008025 1.176370 0.049354 0.005845 -740257.000000 0 0 1
-32.110424 -1.480703 14.341860 35.198875 0.046080 1.151134 0.036929 0.003197 -301251.000000 0 0 1
-31.754434 -2.684503 13.699260 34.687467 0.084339 1.164800 0.036360 0.001262 344826.000000 0 0 1
-31.808334 -3.704203 14.651960 35.216064 0.115932 1.141689 0.035728 0.006914 -137216.000000 0 0 1
-31.760224 -5.153903 14.082960 35.122704 0.160873 1.158227 0.040240 0.003019 63448.500000 0 0 1
-32.926364 -5.533803 13.377360 35.968350 0.166510 1.189719 0.032271 -0.008254 290004.000000 0 0 1
-32.811814 -6.887203 12.916560 35.928905 0.206896 1.203061 0.046017 -0.010683 -77130.500000 0 0 1
-33.920294 -7.251003 11.861560 36.658696 0.210596 1.241299 0.056177 -0.001700 1019150.000000 0 0 1
-35.250686 -7.300403 12.361260 38.061891 0.204213 1.240031 0.048653 -0.000202 821698.000000 0 0 1
35.693997 -6.007603 12.607660 38.328916 -0.166746 1.235622 0.051669 -0.006639 -677064.000000 0 0 1
34.186990 -6.048403 12.448060 36.882078 -0.175109 1.226526 0.055841 -0.008235 -476371.000000 0 0 1
33.385120 -6.705203 13.429860 36.604469 -0.198207 1.195131 0.042267 -0.002235 281462.000000 0 0 1
32.029760 -6.398403 13.119960 35.199126 -0.197169 1.188841 0.044856 0.000255 626655.000000 0 0 1
31.027830 -7.566103 13.457360 34.656496 -0.239181 1.172003 0.013852 0.001165 300858.000000 0 0 1
30.737540 -7.642903 14.856060 34.984466 -0.243708 1.132224 0.021647 0.003449 -37774.000000 0 0 1
29.708400 -8.566003 15.117260 34.416522 -0.280722 1.116039 0.032218 0.006686 -41300.600000 0 0 1
29.231600 -8.543903 16.601460 34.685634 -0.284362 1.071707 0.023167 -0.003685 -46986.100000 0 0 1
30.159470 -9.111303 17.538660 36.058481 -0.293386 1.062837 0.022001 -0.003104 371019.000000 0 0 1
29.656130 -8.979803 18.877960 36.283609 -0.294021 1.023607 0.024023 -0.004904 -568323.000000 0 0 1
30.598840 -9.497403 19.960160 37.747817 -0.300956 1.013638 0.032134 -0.003265 500560.000000 0 0 1
31.711750 -8.604303 20.240960 38.592300 -0.264950 1.018690 0.032810 -0.002331 115032.000000 0 0 1
32.848930 -9.131803 19.620860 39.337262 -0.271147 1.048599 0.014866 0.003480 -676786.000000 0 0 1
34.163940 -8.472603 20.106760 40.536917 -0.243094 1.051797 0.005433 0.014541 173261.000000 0 0 1
34.285880 -8.668603 21.517760 41.396621 -0.247643 1.024185 0.010743 0.008730 311303.000000 0 0 1
35.552730 -8.260903 22.037660 42.636810 -0.228305 1.027606 -0.000766 0.013733 355934.000000 0 0 1
-35.766383 -8.685403 23.492560 43.664296 0.238226 1.002702 0.003715 0.015537 -497502.000000 0 0 1
35.108830 -8.076903 24.481660 43.557066 -0.226119 0.973923 0.010088 0.013035 -247500.000000 0 0 1
35.182820 -8.778103 25.649560 44.416054 -0.244508 0.955153 0.012112 0.009843 -129641.000000 0 0 1
34.781380 -7.966603 26.894660 44.682591 -0.225164 0.924912 0.021455 0.011310 1160390.000000 0 0 1
-35.664110 -7.454003 27.590360 45.702504 0.206040 0.922669 0.004193 -0.002154 1128400.000000 0 0 1
35.442900 -6.672103 28.676360 46.076564 -0.186072 0.899038 0.014180 -0.011509 318641.000000 0 0 1
-35.012526 -6.248703 29.588360 46.264396 0.176611 0.876885 0.021633 -0.001723 336160.000000 0 0 1
-34.591151 -7.232703 30.510560 46.687836 0.206122 0.858595 0.016687 0.001964 -1146840.000000 0 0 1
-33.256464 -7.088303 30.821260 45.893208 0.209998 0.834448 0.019556 -0.008796 -607999.000000 0 0 1
-32.778194 -7.780603 32.175560 46.585561 0.233058 0.808372 0.014024 -0.010530 54140.700000 0 0 1
-32.748844 -9.202203 32.169660 46.819380 0.273929 0.813304 0.020597 -0.013947 55760.800000 0 0 1
-32.204984 -9.694603 33.348860 47.363412 0.292400 0.789633 0.018143 -0.015684 -229950.000000 0 0 1
-32.163694 -11.234703 33.206160 47.574897 0.336049 0.798228 0.025423 -0.012218 -39784.900000 0 0 1
-33.513374 -11.639703 33.195960 48.586014 0.334281 0.818604 0.016551 -0.012960 -128857.000000 0 0 1
-33.641824 -13.025403 33.211160 49.034831 0.369405 0.826713 0.008128 -0.009561 714008.000000 0 0 1
-35.145137 -13.457403 33.193960 50.180886 0.365687 0.847998 -0.002860 -0.009401 633926.000000 0 0 1
-35.436605 -14.830703 33.302760 50.840698 0.396364 0.856559 -0.000735 -0.012317 47958.000000 0 0 1
34.815430 -15.027303 33.640260 50.691233 -0.407471 0.845134 -0.004302 -0.009140 -34380.500000 0 0 1
34.447020 -16.488703 33.925460 51.082398 -0.446437 0.844464 -0.002937 -0.005971 -304580.000000 0 0 1
34.988760 -17.026303 -33.627962 51.429059 -0.452888 2.283486 0.000869 -0.013870 29625.200000 0 0 1
34.569700 -18.340103 -33.482962 51.502740 -0.487769 2.278539 0.009822 -0.022256 -444440.000000 0 0 1
35.044200 -19.038603 -32.162062 51.234388 -0.497665 2.249448 0.010091 -0.019634 529215.000000 0 0 1
34.099820 -18.929203 -31.081462 49.871532 -0.506759 2.243663 0.012548 -0.013279 218944.000000 0 0 1
34.522930 -19.847003 -30.054262 49.889827 -0.521754 2.217317 0.009806 -0.012952 -514201.000000 0 0 1
33.503810 -19.887703 -28.854862 48.483286 -0.535697 2.208249 -0.001866 -0.006116 1290990.000000 0 0 1
32.226700 -20.470403 -29.171362 48.047538 -0.565901 2.223247 0.016638 -0.008863 796589.000000 0 0 1
31.423550 -19.709703 -30.042062 47.732980 -0.560199 2.251548 0.012371 -0.003667 -1163620.000000 0 0 1
29.991570 -20.277203 -30.250162 47.177659 -0.594503 2.266853 0.012541 -0.002173 -109484.000000 0 0 1
29.155160 -19.422603 -30.991862 46.773458 -0.587666 2.295075 0.003672 0.007255 121191.000000 0 0 1
27.913800 -20.140503 -30.985562 46.313336 -0.625027 2.303715 0.006812 0.004313 358442.000000 0 0 1
26.905320 -19.610403 -32.017362 46.190644 -0.629838 2.336656 0.009646 0.009831 246521.000000 0 0 1
27.382390 -19.934703 -33.352162 47.534770 -0.629279 2.348489 0.008889 0.005097 36893.300000 0 0 1
26.422210 -19.624903 -34.321662 47.552565 -0.638840 2.377142 0.032118 0.001305 -146898.000000 0 0 1
26.903150 -19.810903 32.946060 46.922215 -0.634726 0.792395 0.036399 -0.000629 300996.000000 0 0 1
27.902990 -18.858703 32.539060 46.829670 -0.594345 0.802601 0.029361 -0.005842 432332.000000 0 0 1
28.115580 -18.758803 31.132260 45.952107 -0.588374 0.826447 0.035756 -0.008603 -52245.500000 0 0 1
26.966420 -18.058203 30.360860 44.441741 -0.590069 0.818714 0.040363 -0.013749 -157014.000000 0 0 1
26.639830 -16.767303 30.736460 43.994920 -0.561762 0.797306 0.046605 -0.009880 163861.000000 0 0 1
25.863610 -16.110303 29.768860 42.598747 -0.557084 0.797050 0.062040 -0.014813 -149925.000000 0 0 1
25.679710 -14.601703 30.075460 42.156738 -0.517018 0.776430 0.069085 -0.017722 -326791.000000 0 0 1
26.907490 -13.956003 30.237660 42.814707 -0.478469 0.786617 0.064739 -0.008344 -172059.000000 0 0 1
26.785310 -12.694803 30.818960 42.760018 -0.442588 0.765924 0.085160 -0.012691 -285129.000000 0 0 1
28.115870 -11.939903 30.922660 43.465784 -0.401589 0.779272 0.077556 -0.004802 -277939.000000 0 0 1
28.462650 -11.353903 29.668060 42.652401 -0.379562 0.801573 0.064658 -0.007523 414761.000000 0 0 1
29.878370 -11.177503 29.663460 43.561157 -0.357982 0.821722 0.052173 -0.001443 433578.000000 0 0 1
30.330550 -10.503803 28.376860 42.842950 -0.333385 0.846850 0.040115 -0.003755 -137105.000000 0 0 1
29.957580 -9.116803 28.306760 42.211910 -0.295419 0.835796 0.046788 -0.007144 288816.000000 0 0 1
30.556610 -8.473403 27.160060 41.751333 -0.270505 0.862528 0.044415 -0.001351 70360.300000 0 0 1
30.443310 -6.969703 27.037360 41.308483 -0.225062 0.857245 0.052629 -0.009139 1450470.000000 0 0 1
29.118140 -6.441603 26.682160 40.016222 -0.217717 0.840912 0.065833 -0.012423 1238700.000000 0 0 1
28.956150 -5.058403 26.822260 39.792961 -0.172947 0.831125 0.066147 -0.010769 85531.800000 0 0 1
27.429650 -4.839703 26.805360 38.656639 -0.174643 0.804569 0.058848 -0.010233 127301.000000 0 0 1
26.837260 -5.074003 25.534560 37.389809 -0.186860 0.819032 0.076813 -0.011673 -359059.000000 0 0 1
25.468010 -4.780503 25.513560 36.365018 -0.185547 0.793161 0.074714 -0.016180 -518933.000000 0 0 1
24.840710 -5.170203 24.174560 35.045702 -0.205205 0.809582 0.079961 -0.013476 -204531.000000 0 0 1
25.310010 -4.318203 23.104560 34.540761 -0.168985 0.838059 0.086292 -0.004747 151256.000000 0 0 1
24.779710 -4.675803 21.886960 33.390660 -0.186502 0.855976 0.089408 -0.004520 -163737.000000 0 0 1
25.109410 -3.699403 20.780560 32.802435 -0.146279 0.884719 0.097159 -0.003619 3932.340000 0 0 1
24.409810 -2.483303 20.893560 32.226487 -0.101385 0.865401 0.089898 -0.002447 82816.500000 0 0 1
24.758310 -1.483503 19.880060 31.786656 -0.059848 0.895125 0.090411 -0.000168 86279.000000 0 0 1
23.511810 -0.800903 19.285660 30.420114 -0.034051 0.884111 0.045778 0.003695 307384.000000 0 0 1
22.674610 -1.589103 18.445760 29.273012 -0.069969 0.889078 0.071342 -0.001367 1085780.000000 0 0 1
21.441810 -0.942903 18.046160 28.041116 -0.043947 0.871655 0.063420 -0.002048 1050920.000000 0 0 1
20.472310 -1.851603 17.302460 26.868551 -0.090199 0.871124 0.052320 -0.006009 -435147.000000 0 0 1
20.989010 -2.135003 16.048660 26.507664 -0.101371 0.920484 0.056438 -0.013913 41192.300000 0 0 1
20.075210 -2.926503 15.314760 25.418898 -0.144757 0.924173 0.078232 -0.023788 -273360.000000 0 0 1
20.449410 -3.368903 13.891260 24.949849 -0.163277 0.980307 0.073319 -0.028116 -480277.000000 0 1 0
19.493710 -4.260903 13.378360 24.023750 -0.215194 0.980171 0.084660 -0.028152 387987.000000 0 1 0
19.676910 -4.715703 12.053960 23.552422 -0.235220 1.033526 0.076413 -0.028182 -116833.000000 0 1 0
18.542510 -5.705703 11.697660 22.654249 -0.298514 1.028206 0.062832 -0.029679 1459.070000 0 1 0
18.586610 -6.863503 12.539060 23.447767 -0.353739 1.006566 0.080846 -0.027249 322545.000000 0 1 0
17.364510 -7.543203 12.457460 22.663063 -0.409808 0.988814 0.053251 -0.006503 -478231.000000 0 1 0
17.412210 -9.052803 12.686560 23.368507 -0.479449 0.996920 0.059610 -0.018136 -322718.000000 0 1 0
17.928810 -9.754003 11.567360 23.460320 -0.498256 1.055192 0.030876 -0.025186 524671.000000 0 1 0
17.552010 -11.107003 11.594060 23.787829 -0.564192 1.061693 0.026566 -0.021249 -121708.000000 0 1 0
18.186510 -11.761903 10.378860 24.016916 -0.574078 1.123923 0.017222 -0.018801 -129252.000000 0 1 0
17.781210 -11.295003 9.120260 22.954905 -0.565916 1.162210 0.030989 -0.016851 393526.000000 0 1 0
18.554410 -11.875903 8.055760 23.456310 -0.569354 1.220222 0.046916 -0.019976 296121.000000 0 1 0
18.413610 -11.001903 6.750660 22.487203 -0.538570 1.265894 0.045007 -0.016142 81379.600000 0 1 0
19.134110 -9.744603 6.746960 22.507619 -0.471043 1.266352 0.067800 -0.008182 861278.000000 0 1 0
19.434510 -9.416903 5.357560 22.250431 -0.451208 1.327622 0.040818 -0.010848 -254915.000000 0 1 0
20.135310 -8.059203 5.159260 22.293484 -0.380724 1.337255 0.080604 -0.007659 -217757.000000 0 1 0
20.654610 -7.834603 3.869260 22.426883 -0.362548 1.397401 0.063743 -0.012306 686210.000000 0 1 0
20.969710 -6.469003 3.585760 22.235881 -0.299230 1.408829 0.068577 -0.013900 -250466.000000 0 1 0
21.573910 -6.336903 2.148560 22.587745 -0.285695 1.475532 0.065163 -0.008189 529683.000000 0 1 0
20.589110 -6.357403 1.105160 21.576594 -0.299488 1.519554 0.036185 -0.018687 986897.000000 0 1 0
20.971810 -5.373303 0.179160 21.649972 -0.250820 1.562521 0.028652 -0.017994 -245072.000000 0 1 0
-25.353604 -16.194003 0.150160 30.084440 0.568409 1.565805 0.049766 -0.020077 -153578.000000 0 0 1
-24.637564 -15.181303 -0.562140 28.944732 0.552235 1.590219 0.037563 -0.016659 -462133.000000 0 0 1
-23.254564 -15.337103 -0.585440 27.862954 0.583046 1.591809 0.030032 -0.007126 -269308.000000 0 0 1
-22.449864 -14.857003 0.640260 26.928365 0.584616 1.547018 0.027954 -0.018433 -640973.000000 0 0 1
-22.749064 -15.441103 1.857160 27.557152 0.596327 1.503352 0.026839 -0.006017 7721.130000 0 0 1
-21.832864 -15.110403 2.899760 26.709677 0.605400 1.462016 0.016163 0.000156 70002.700000 0 0 1
-22.268364 -15.713203 4.218160 27.578572 0.614494 1.417243 0.027088 0.000403 -294408.000000 0 0 1
-22.184664 -17.123603 4.248560 28.344794 0.657350 1.420341 0.051955 -0.014269 -2064.480000 0 0 1
-22.704564 -17.739403 5.381660 29.311191 0.663243 1.386145 0.051737 -0.018040 -284749.000000 0 0 1
-22.806764 -19.294803 5.246860 30.330965 0.702174 1.396935 0.040218 -0.013360 -706.679000 0 0 1
-23.320164 -19.924203 6.401260 31.333370 0.707029 1.365053 0.032825 -0.016075 -7275.620000 0 0 1
-23.412364 -21.336803 6.154860 32.268874 0.739049 1.378884 0.044651 -0.018768 64850.900000 0 0 1
-24.249764 -22.107503 7.187560 33.592466 0.739219 1.355166 0.038177 -0.011986 -200082.000000 0 0 1
-23.472364 -22.425103 8.294960 33.505872 0.762585 1.320628 0.038363 -0.010811 -7021.820000 0 0 1
-24.167764 -23.166003 9.292960 34.743397 0.764238 1.300026 0.044850 -0.011279 286585.000000 0 0 1
-23.106364 -23.611703 10.324260 34.612237 0.796215 1.267903 0.030987 -0.015351 443530.000000 0 0 1
-22.714164 -22.556603 11.224760 33.922394 0.781918 1.233544 0.033942 -0.011388 -151575.000000 0 0 1
-22.060864 -23.012803 12.357460 34.190315 0.806515 1.200993 0.032261 -0.012049 -486988.000000 0 0 1
-22.373664 -22.176703 13.594760 34.310414 0.780977 1.163391 0.032673 -0.007159 -97175.400000 0 0 1
-23.725264 -22.481803 13.892260 35.514990 0.758494 1.168898 0.037581 -0.012405 -147144.000000 0 0 1
-24.089864 -21.743103 15.007960 35.753642 0.734240 1.137615 0.035594 0.002166 -150133.000000 0 0 1
-25.518714 -22.046303 15.530860 37.127508 0.712524 1.139211 0.012345 -0.000042 463924.000000 0 0 1
-26.527584 -21.812603 14.520760 37.287462 0.688168 1.170786 0.010408 0.004241 633901.000000 0 0 1
-26.924274 -22.894603 13.664260 37.891838 0.704687 1.201872 0.014212 0.000773 -142964.000000 0 0 1
-27.863134 -23.952203 14.336560 39.441085 0.710063 1.198782 0.011976 -0.003928 -121500.000000 0 0 1
-27.305754 -24.723903 15.406260 39.927790 0.735816 1.174664 0.002518 0.001572 -49230.200000 0 0 1
-28.274234 -25.501803 16.075160 41.330195 0.733889 1.171311 0.006777 -0.000713 -18046.800000 0 0 1
-28.466044 -26.960603 15.549160 42.177792 0.758244 1.193232 0.020788 -0.003285 44700.100000 0 0 1
-28.991644 -27.019713 14.239560 42.111108 0.750207 1.225854 0.025977 -0.017316 557753.000000 0 0 1
-30.299534 -27.613293 14.218160 43.390227 0.739047 1.236948 0.034783 -0.023737 457777.000000 0 0 1
-30.774774 -27.941153 12.816060 43.497657 0.737176 1.271720 0.049596 -0.028272 -259556.000000 0 0 1
-30.140114 -29.057753 12.193360 43.605705 0.767116 1.287390 0.049209 -0.034887 103566.000000 0 0 1
-30.701084 -29.433023 10.929860 43.912655 0.764314 1.319252 0.043114 -0.027799 -111888.000000 0 0 1
-29.943124 -30.533563 10.205260 43.966311 0.795161 1.336544 0.037641 -0.034461 -375872.000000 0 0 1
-30.150754 -31.781223 10.864260 45.134757 0.811719 1.327702 0.026446 -0.021018 -219882.000000 0 0 1
-29.371974 -32.830553 10.366860 45.255164 0.840943 1.339668 0.038140 -0.026629 -583225.000000 0 0 1
-29.660824 -34.172619 11.088460 46.588478 0.855962 1.330481 0.032040 -0.015047 580753.000000 0 0 1
-30.977174 34.065278 10.890060 47.314077 -0.832841 1.338549 0.034445 -0.015509 411022.000000 0 0 1
-31.071974 32.708495 11.376160 46.526662 -0.811051 1.323784 0.033022 -0.014229 -499444.000000 0 0 1
-32.400054 32.374805 12.087960 47.370986 -0.785008 1.312766 0.029918 -0.010674 1324080.000000 0 0 1
-33.612694 32.258255 11.286860 47.935388 -0.764839 1.333105 0.005840 -0.009401 1034310.000000 0 0 1
-34.141075 33.441693 10.784660 48.992538 -0.775050 1.348850 0.018181 -0.006926 570779.000000 0 0 1
-35.596294 33.258208 10.161060 49.763960 -0.751454 1.365165 0.014626 0.003823 1182110.000000 0 0 1
-35.718849 32.624745 8.878260 49.183673 -0.740156 1.389289 0.001822 0.002038 -895657.000000 0 0 1
34.598080 32.550315 8.384060 48.237357 0.754912 1.396101 -0.000759 0.009079 -724542.000000 0 0 1
34.360060 31.878815 7.048860 47.397880 0.747957 1.421526 0.002414 0.005938 -98626.600000 0 0 1
34.382090 30.463525 7.089560 46.480279 0.725042 1.417670 0.009905 0.001171 -36677.900000 0 0 1
34.312270 29.938695 5.766860 45.901133 0.717433 1.444827 0.018650 0.003344 -2644.720000 0 0 1
34.735840 28.445855 5.722360 45.260255 0.686171 1.444025 0.026177 -0.001143 -161131.000000 0 0 1
33.780200 27.571955 6.298960 44.056685 0.684551 1.427331 0.027677 0.003185 33440.500000 0 0 1
34.275580 26.964875 7.446160 44.242120 0.666583 1.401687 0.008172 0.004107 -295092.000000 0 0 1
33.329550 25.912295 8.018160 42.972047 0.660843 1.383106 0.011525 0.007737 -221860.000000 0 0 1
33.262770 24.781775 7.137360 42.089074 0.640313 1.400395 0.018214 0.002327 72995.600000 0 0 1
32.121780 23.978965 7.364760 40.755849 0.641258 1.389094 0.013821 0.002810 -388314.000000 0 0 1
32.101820 22.578615 6.605560 39.798921 0.612967 1.404051 0.024164 0.001666 120432.000000 0 0 1
32.946480 21.516215 7.100660 39.985465 0.578527 1.392268 0.038568 -0.000969 -41335.800000 0 0 1
34.284060 21.719115 6.731360 41.139129 0.564692 1.406433 0.049333 -0.003498 -891732.000000 0 0 1
35.189860 20.528915 6.871960 41.315692 0.528106 1.403692 0.037322 -0.003985 -480666.000000 0 0 1
35.042920 19.653815 5.827560 40.598512 0.511135 1.426758 0.058820 -0.018155 286812.000000 0 0 1
35.747186 18.448215 6.109660 40.688154 0.476424 1.420068 0.069645 -0.019629 -16254.200000 0 0 1
35.539310 17.293115 5.021360 39.841040 0.452863 1.444425 0.071423 -0.030368 -221615.000000 0 0 1
-35.440095 17.420315 3.777560 39.670363 -0.456859 1.475428 0.088196 -0.032929 10157.400000 0 0 1
35.666301 16.431015 2.945760 39.379446 0.431706 1.495922 0.080184 -0.039048 -397720.000000 0 0 1
-35.031488 16.062415 1.744260 38.577828 -0.429911 1.525567 0.083518 -0.023777 198540.000000 0 0 1
-33.830994 15.375515 1.972060 37.213326 -0.426573 1.517778 0.086219 -0.032230 1558000.000000 0 0 1
-32.661644 16.165315 2.390060 36.521402 -0.459586 1.505307 0.095175 -0.031793 1594560.000000 0 0 1
-31.336744 15.366915 2.633360 35.000974 -0.455922 1.495488 0.055424 -0.022758 421415.000000 0 0 1
-31.224014 14.661615 3.874960 34.711919 -0.439002 1.458931 0.063548 -0.028265 982986.000000 0 0 1
-29.876694 14.212715 4.117360 33.340228 -0.444029 1.446985 0.044701 -0.023062 724122.000000 0 0 1
-29.647384 13.577715 5.452760 33.061372 -0.429465 1.405111 0.056383 -0.029808 -398950.000000 0 0 1
-29.991324 12.178715 5.461860 32.827314 -0.385732 1.403637 0.047411 -0.018838 471617.000000 0 0 1
-29.811484 11.675115 6.767060 32.723478 -0.373271 1.362498 0.036865 -0.009818 -353937.000000 0 0 1
-29.827184 10.141415 6.925160 32.256272 -0.327744 1.354420 0.032404 -0.010346 -776311.000000 0 0 1
-31.079954 9.573815 6.793960 33.223176 -0.298815 1.364849 0.031851 -0.007974 -766908.000000 0 0 1
-31.111634 8.153015 6.842660 32.882023 -0.256294 1.361167 0.023880 -0.007759 -323202.000000 0 0 1
-32.537994 7.625915 6.702560 34.085187 -0.230214 1.372865 0.022533 0.001464 -149297.000000 0 0 1
-33.388594 7.720715 7.842060 35.155449 -0.227244 1.345836 0.029158 0.002372 -555976.000000 0 0 1
-34.597656 7.122715 7.519060 36.114639 -0.203036 1.361062 0.039115 0.005811 -202861.000000 0 0 1
-35.358098 6.383815 8.716360 36.971924 -0.178623 1.332800 0.037798 0.005153 267068.000000 0 0 1
35.708972 7.148415 9.798860 37.712706 0.197574 1.307951 0.045071 0.006284 -107556.000000 0 0 1
-34.973578 7.825015 10.615360 37.377372 -0.220116 1.282828 0.048922 -0.003529 -499306.000000 0 0 1
-35.552986 8.849115 11.574460 38.422517 -0.243942 1.264802 0.054845 -0.018036 -168176.000000 0 0 1
35.219040 8.290015 12.602660 38.313603 0.231176 1.235621 0.046386 -0.015994 765234.000000 0 0 1
34.746940 9.286215 13.495660 38.415055 0.261149 1.211825 0.062490 -0.025411 -217484.000000 0 0 1
34.025900 8.628915 14.717560 38.063455 0.248363 1.173791 0.048493 -0.022502 261391.000000 0 0 1
32.663350 8.258915 14.483460 36.672534 0.247659 1.164793 0.039957 -0.019821 747821.000000 0 0 1
32.254970 7.681515 15.712860 36.691726 0.233795 1.128252 0.029935 -0.010232 -457213.000000 0 0 1
30.751790 7.386215 15.757160 35.334358 0.235723 1.108567 0.018017 0.002430 -408989.000000 0 0 1
29.865670 8.466015 15.995960 34.921375 0.276223 1.094989 0.009634 0.000485 819967.000000 0 0 1
28.514080 8.026115 16.179960 33.752961 0.274380 1.070866 0.011922 0.009990 577552.000000 0 0 1
28.027850 7.424215 17.524460 33.878991 0.258940 1.027143 0.009537 0.006040 -443730.000000 0 0 1
27.737860 8.383415 18.508260 34.383517 0.293508 1.002391 0.026778 -0.001234 117965.000000 0 0 1
27.007530 7.900315 19.626560 34.307776 0.284583 0.961765 0.028898 -0.000204 -161861.000000 0 0 1
27.705310 6.952115 20.647360 35.245278 0.245855 0.944906 0.032571 0.005784 -194839.000000 0 0 1
26.984110 6.705115 21.854860 35.365742 0.243551 0.904642 0.013883 0.014786 51567.200000 0 0 1
27.325700 5.468515 22.472160 35.799393 0.197514 0.892170 0.025061 0.018244 -731158.000000 0 0 1
26.595980 5.183915 23.836860 36.088988 0.192500 0.849309 0.032127 0.018038 -170867.000000 0 0 1
25.221510 4.970715 23.858560 35.072261 0.194589 0.822667 0.024029 0.023102 -564596.000000 0 0 1
24.442410 6.131015 23.624160 34.541594 0.245765 0.817655 0.023981 0.025411 3253.790000 0 0 1
22.899710 5.892215 23.696160 33.475707 0.251842 0.784330 0.028322 0.010996 711663.000000 0 0 1
22.400710 5.261115 22.509760 32.189446 0.230683 0.796392 0.024512 0.016376 42637.700000 0 0 1
20.993810 5.210215 22.550260 31.247410 0.243264 0.764587 0.025991 0.004956 -788171.000000 0 0 1
20.434710 4.321015 21.352160 29.869103 0.208385 0.774376 0.033823 0.003378 395849.000000 0 0 1
19.078710 4.325715 20.948160 28.662422 0.222960 0.751218 0.032307 -0.003189 511298.000000 0 0 1
18.128810 4.010115 21.954760 28.753196 0.217696 0.701990 0.038069 -0.008944 1723650.000000 0 0 1
16.583810 4.125215 21.488360 27.455232 0.243801 0.671854 0.039885 -0.013479 1892020.000000 0 0 1
16.276410 3.013315 20.629960 26.449893 0.183061 0.676188 0.028568 -0.008072 746534.000000 0 0 1
14.879910 2.896715 20.318360 25.350315 0.192268 0.640991 0.033138 -0.020985 752498.000000 0 0 1
14.072010 1.918115 21.248860 25.558065 0.135472 0.589182 0.041176 -0.017786 -532601.000000 0 0 1
14.297110 0.510115 21.065360 25.464033 0.035664 0.596584 0.020207 -0.009225 244964.000000 0 0 1
13.436910 -0.208885 21.933060 25.722623 -0.015544 0.549710 0.017886 -0.012409 66426.300000 0 0 1
13.692510 -1.696885 22.016260 25.982301 -0.123299 0.559810 -0.002902 -0.009648 14500.100000 0 0 1
13.328010 -2.333385 20.825960 24.835482 -0.173317 0.576168 0.002350 -0.001358 132484.000000 0 1 0
13.651810 -3.706885 20.837660 25.185730 -0.265138 0.596406 0.014937 0.008201 -109473.000000 0 0 1
13.535010 -4.427485 19.458160 24.112634 -0.316142 0.631794 0.028208 0.000201 -191214.000000 0 1 0
12.172310 -4.549085 19.133360 23.128873 -0.357652 0.596601 0.016384 -0.002048 -172676.000000 0 1 0
12.008410 -5.157685 17.857860 22.129320 -0.405681 0.631780 0.027243 -0.003324 1053380.000000 0 1 0
10.470110 -5.339585 17.587360 21.153005 -0.471603 0.589110 0.023631 -0.002719 1275080.000000 0 1 0
9.789610 -6.274385 18.435060 21.795775 -0.569968 0.562717 0.019210 0.005938 -128047.000000 0 1 0
8.390510 -6.181185 18.332460 21.087598 -0.634927 0.516915 0.010995 -0.001381 20841.000000 0 1 0
7.557710 -7.106085 19.239660 21.858178 -0.754609 0.494504 0.003157 -0.007996 -403391.000000 0 1 0
7.661710 -8.493885 18.972060 22.153712 -0.836863 0.542573 -0.000472 -0.006864 42648.600000 0 1 0
8.684410 -9.181885 19.695760 23.401901 -0.813235 0.570500 0.015391 -0.008703 314741.000000 0 1 0
8.718610 -10.683585 19.236160 23.668186 -0.886330 0.621951 0.030302 -0.014035 178006.000000 0 1 0
8.981310 -10.712285 17.864860 22.684140 -0.873068 0.663976 0.014860 -0.003504 128586.000000 0 1 0
9.402310 -11.980685 17.367260 23.098961 -0.905399 0.719913 0.017398 -0.010456 214279.000000 0 1 0
9.485810 -11.940185 15.831560 21.981513 -0.899452 0.766675 0.020115 -0.013660 43982.900000 0 1 0
10.131410 -12.996685 15.160760 22.392140 -0.908657 0.827040 0.016857 -0.017402 -12490.100000 0 1 0
9.894710 -12.985685 13.752760 21.346468 -0.919678 0.870736 0.014598 -0.014651 -170047.000000 0 1 0
10.628110 -14.147785 12.990560 21.951565 -0.926514 0.937528 0.028632 -0.019072 270641.000000 0 1 0
11.997310 -14.044185 12.683860 22.406581 -0.863837 0.969057 0.012105 -0.016308 -108642.000000 0 1 0
12.259010 -13.243185 11.581360 21.442789 -0.823971 1.000234 -0.003878 -0.012345 -1389480.000000 0 1 0
13.688810 -13.230585 11.094160 22.034343 -0.768378 1.043158 0.006735 -0.012319 -685868.000000 0 1 0
14.043610 -14.374585 10.282760 22.574030 -0.797044 1.097848 0.003082 -0.011757 -691378.000000 0 1 0
15.368110 -14.201285 9.906260 23.151443 -0.745958 1.128640 0.015496 -0.016969 -628123.000000 0 1 0
16.187810 -15.501585 9.664360 24.407871 -0.763747 1.163691 0.014530 -0.020656 429527.000000 0 1 0
16.742110 -16.271385 10.747060 25.701275 -0.771141 1.139385 0.021372 -0.016974 286378.000000 0 0 1
15.720710 -16.767085 11.575560 25.734596 -0.817595 1.104249 0.033367 -0.010652 92055.700000 0 0 1
16.332910 -17.459885 12.791260 27.115086 -0.818735 1.079534 0.036979 -0.008801 91672.500000 0 0 1
17.148910 -18.590385 12.511260 28.217356 -0.825709 1.111420 0.054369 -0.021364 216774.000000 0 0 1
17.684210 -19.180385 13.740460 29.485907 -0.825962 1.086031 0.051132 -0.019547 373676.000000 0 0 1
18.898310 -20.086285 13.446760 30.682574 -0.815862 1.117141 0.022365 -0.024450 258613.000000 0 0 1
20.015010 -19.472885 12.842760 30.736466 -0.771670 1.139736 0.021086 -0.029220 -721060.000000 0 0 1
21.094010 -20.334385 12.627660 31.904581 -0.767064 1.163863 0.015163 -0.035137 -85999.100000 0 0 1
22.017610 -19.556885 11.659960 31.673357 -0.726279 1.193798 0.029915 -0.025437 -746766.000000 0 0 1
21.754010 -19.664985 10.266160 31.069963 -0.735004 1.234047 0.020830 -0.024244 832821.000000 0 0 1
20.451010 -19.327785 9.716860 29.769522 -0.757169 1.238301 0.026490 -0.026292 1151750.000000 0 0 1
20.042210 -17.783385 9.843760 28.545378 -0.725752 1.218722 0.066634 -0.017143 145170.000000 0 0 1
20.868810 -16.836685 9.141460 28.329269 -0.678866 1.242230 0.063414 -0.022239 57179.900000 0 0 1
20.323610 -15.543785 9.104360 27.157830 -0.652915 1.228938 0.053424 -0.026251 72333.100000 0 0 1
-34.490556 24.484697 7.889060 43.027156 -0.617337 1.386402 0.035332 0.002051 -347949.000000 0 0 1
-33.762634 24.337997 9.066860 42.596497 -0.624587 1.356301 0.026374 0.005339 31325.700000 0 0 1
-32.683504 25.249997 9.157460 42.304053 -0.657784 1.352601 0.036478 -0.004537 71620.900000 0 0 1
-31.445524 24.599297 9.849660 41.121311 -0.663844 1.328918 0.048081 -0.007950 158201.000000 0 0 1
-30.902694 23.482597 9.134460 39.872889 -0.649800 1.339654 0.054972 -0.013843 110597.000000 0 0 1
-30.356814 22.471597 9.953260 39.058626 -0.637231 1.313126 0.057286 -0.012036 -64085.900000 0 0 1
-29.418214 21.550497 9.159460 37.599880 -0.632243 1.324717 0.044946 -0.025583 -322585.000000 0 0 1
-30.127274 20.703297 8.300060 37.485600 -0.602080 1.347526 0.050602 -0.027525 -138942.000000 0 0 1
-29.343404 20.075197 7.340060 36.303243 -0.600007 1.367205 0.049020 -0.034474 -310945.000000 0 0 1
-30.167144 19.284997 6.257660 36.347298 -0.568796 1.397771 0.055710 -0.024389 -292273.000000 0 0 1
-30.717504 18.103197 6.785160 36.295030 -0.532548 1.382745 0.066127 -0.023953 -306414.000000 0 0 1
-31.676974 17.700497 5.886960 36.761320 -0.509560 1.409964 0.064131 -0.026684 -656702.000000 0 0 1
-32.458994 16.460697 6.382060 36.949581 -0.469330 1.397202 0.071232 -0.028064 -154103.000000 0 0 1
-33.237584 16.532097 7.561460 37.884336 -0.461559 1.369853 0.067531 -0.024617 58207.800000 0 0 1
-33.926134 15.365897 7.849260 38.061848 -0.425281 1.363082 0.072787 -0.023232 -446968.000000 0 0 1
-34.991490 15.556797 8.921060 39.319252 -0.418344 1.341915 0.066520 -0.020900 -344389.000000 0 0 1
35.460130 16.253897 8.549560 39.933757 0.429793 1.355033 0.080926 -0.028059 367566.000000 0 0 1
34.560020 16.476997 9.648160 39.483837 0.444887 1.323940 0.074348 -0.021190 275432.000000 0 0 1
33.645760 17.698797 9.532760 39.193853 0.484257 1.325111 0.043822 -0.020863 214979.000000 0 0 1
32.646000 17.493297 8.520260 38.004889 0.491913 1.344686 0.039562 -0.028169 761992.000000 0 0 1
31.842230 18.645597 8.193160 37.798331 0.529736 1.352302 0.025070 -0.027619 773564.000000 0 0 1
30.329200 18.567297 8.538660 36.572033 0.549336 1.335146 0.008583 -0.012350 -63209.200000 0 0 1
29.829900 19.851197 8.759760 36.886669 0.587181 1.331028 0.002877 -0.002260 634395.000000 0 0 1
28.513390 20.220397 8.312560 35.930162 0.616844 1.337328 -0.007216 -0.001557 691366.000000 0 0 1
28.290420 20.303197 6.781260 35.476093 0.622487 1.378463 -0.014825 -0.004554 -537560.000000 0 0 1
28.380040 18.984997 6.246960 34.711400 0.589586 1.389842 0.000809 -0.007455 6527.550000 0 0 1
28.229370 18.937897 4.810760 34.331978 0.590899 1.430209 0.001412 -0.010485 608498.000000 0 0 1
26.843150 19.319997 4.158960 33.333376 0.623850 1.445702 0.021394 -0.008472 70583.400000 0 0 1
25.760210 18.606097 4.703460 32.123166 0.625523 1.423848 0.021975 -0.002994 1355920.000000 0 0 1
24.431110 18.915797 4.200060 31.182159 0.658842 1.435691 0.026156 -0.004023 1241100.000000 0 0 1
23.777010 20.189697 4.671360 31.540319 0.703987 1.422142 0.026970 -0.006134 -1159480.000000 0 0 1
24.398310 21.272797 4.083760 32.626470 0.717069 1.445300 0.027577 -0.007959 115154.000000 0 0 1
23.896210 22.558097 4.449360 33.161626 0.756601 1.436219 0.032754 -0.002678 190019.000000 0 0 1
24.994010 23.665197 4.212360 34.676881 0.758096 1.449021 0.027463 -0.001032 174012.000000 0 0 1
26.007210 23.590097 5.187660 35.493372 0.736702 1.424112 0.016366 -0.008920 -701909.000000 0 0 1
26.930480 24.557897 4.846360 36.767218 0.739351 1.438600 0.018926 -0.000611 -815783.000000 0 0 1
28.321830 24.398197 5.545760 37.790919 0.711111 1.423516 0.003130 -0.003116 -46592.800000 0 0 1
29.112380 23.284897 5.208760 37.641045 0.674636 1.431971 -0.003111 -0.003724 157742.000000 0 0 1
29.492210 23.106397 3.845860 37.662803 0.664583 1.468505 0.000060 -0.000949 -807356.000000 0 0 1
30.363480 24.192697 3.205660 38.955151 0.672768 1.488412 0.027570 -0.017770 -810050.000000 0 0 1
29.699980 25.438897 2.959260 39.217133 0.708272 1.495266 0.013369 -0.012452 60490.400000 0 0 1
30.552060 26.376297 2.316060 40.428969 0.712178 1.513478 0.052455 -0.010716 -276049.000000 0 0 1
29.962640 27.835897 2.231160 40.958211 0.748619 1.516295 0.044172 -0.007485 440258.000000 0 0 1
28.695830 28.163697 1.700160 40.243447 0.776040 1.528537 0.076314 -0.006754 361195.000000 0 0 1
27.581680 27.906197 2.543960 39.318910 0.791247 1.506050 0.058416 -0.004853 -135934.000000 0 0 1
26.285410 28.582897 2.126960 38.889957 0.827246 1.516077 0.021714 0.003520 -479285.000000 0 0 1
26.310510 29.948697 2.499360 39.942637 0.849977 1.508182 0.025337 0.001313 894409.000000 0 0 1
25.085810 30.588797 2.086560 39.614721 0.883920 1.518101 0.033257 0.001082 787365.000000 0 0 1
24.937410 31.942197 2.781560 40.619152 0.907932 1.502264 0.027686 -0.001832 -136367.000000 0 0 1
24.747910 32.017697 4.153060 40.679724 0.912772 1.468526 0.026261 -0.014903 411759.000000 0 0 1
25.943110 31.899097 4.904060 41.408298 0.888006 1.452086 0.017659 -0.013340 186318.000000 0 0 1
25.561010 31.714697 6.421160 41.236132 0.892427 1.414443 0.027815 -0.025673 152342.000000 0 0 1
25.110910 30.428297 6.769360 40.028282 0.880848 1.400865 0.034475 -0.027937 204303.000000 0 0 1
26.126810 29.452897 6.750360 39.945597 0.845170 1.400993 0.025587 -0.022166 -1544.230000 0 0 1
25.574110 28.085697 7.183760 38.658090 0.832170 1.383882 0.043600 -0.023397 -165667.000000 0 0 1
24.514810 27.687497 6.353660 37.522559 0.846100 1.400647 0.040588 -0.027234 -135638.000000 0 0 1
23.933210 26.487697 6.837160 36.347537 0.836018 1.381564 0.053769 -0.028233 1039070.000000 0 0 1
22.559010 26.160397 6.061760 35.071645 0.859185 1.397085 0.061340 -0.012729 1082370.000000 0 0 1
22.510410 26.023697 4.627560 34.718377 0.857660 1.437110 0.031119 -0.007649 3898.690000 0 0 1
22.783710 27.198797 3.859560 35.689890 0.873502 1.462443 0.023415 -0.007547 -173276.000000 0 0 1
22.720110 26.956597 2.315360 35.330192 0.870473 1.505214 0.030118 0.003158 -498859.000000 0 0 1
23.814910 26.184197 1.949060 35.448004 0.832749 1.515785 0.028633 0.019382 -252524.000000 0 0 1
23.648010 25.772097 0.588560 34.982507 0.828352 1.553971 0.037222 0.011348 38337.900000 0 0 1
24.880410 25.190297 -0.150140 35.406333 0.791587 1.575037 0.045704 0.002060 -745159.000000 0 0 1
25.916410 26.131197 -0.379440 36.805485 0.789525 1.581106 0.028665 0.006538 2073770.000000 0 0 1
27.206570 25.620497 -0.892740 37.381872 0.755383 1.594680 0.049274 0.012311 2303050.000000 0 0 1
27.910830 24.449397 -0.088040 37.105191 0.719386 1.573169 0.035996 0.004839 -768558.000000 0 0 1
27.246850 23.178097 -0.171840 35.772120 0.704883 1.575600 0.031604 0.002147 359077.000000 0 0 1
27.959630 22.121897 0.411060 35.655129 0.669357 1.559267 0.028722 -0.004524 -284432.000000 0 0 1
26.910230 21.201497 1.015660 34.273832 0.667295 1.541158 0.022824 -0.009308 -92927.000000 0 0 1
26.288110 20.368697 0.095660 33.255943 0.659201 1.567920 0.037660 -0.020741 35071.900000 0 0 1
25.211610 19.681097 0.672560 31.990986 0.662822 1.549771 0.040252 -0.007415 -311037.000000 0 0 1
24.434810 18.782597 -0.324940 30.821283 0.655351 1.581339 0.040072 -0.014346 -740856.000000 0 0 1
23.171910 18.428897 0.142060 29.607125 0.671876 1.565998 0.034925 -0.007832 -455380.000000 0 0 1
22.684010 17.366097 -0.604740 28.574663 0.653389 1.591961 0.045138 -0.029168 -88738.700000 0 0 1
21.327710 16.759797 -0.189440 27.125595 0.666036 1.577780 0.037641 -0.008965 -689010.000000 0 0 1
20.836710 15.796897 -1.067840 26.169653 0.648683 1.611612 0.044184 -0.016426 -311151.000000 0 0 1
19.564310 15.286397 -0.795840 24.840884 0.663259 1.602839 0.061129 -0.019358 319922.000000 0 1 0
18.340610 16.191797 -1.222740 24.495864 0.723252 1.620733 0.055762 -0.032543 -150456.000000 0 1 0
18.310510 17.439597 -0.555040 25.292734 0.761042 1.592743 0.046715 -0.020027 -153567.000000 0 0 1
17.213010 18.181097 -1.036440 25.058217 0.812743 1.612169 0.037766 -0.026554 -25629.600000 0 0 1
17.145610 19.703597 -0.606940 26.126080 0.854705 1.594030 0.031966 -0.008260 -170980.000000 0 0 1
16.912710 19.868897 0.765960 26.103631 0.865597 1.541449 0.036489 -0.005254 -43493.000000 0 0 1
17.023610 21.206897 1.191360 27.220491 0.894387 1.527015 0.042872 -0.007686 -9598.600000 0 0 1
15.846210 22.181797 1.004960 27.279011 0.950485 1.533948 0.033432 -0.013191 -273363.000000 0 0 1
14.598210 21.893097 1.577360 26.361023 0.982705 1.510924 0.010488 -0.010187 -281451.000000 0 0 1
13.703310 22.884097 1.125360 26.696986 1.031250 1.528631 0.002610 -0.008527 470530.000000 0 0 1
12.325610 22.853997 1.872660 26.033300 1.076190 1.498801 -0.002438 -0.005682 555858.000000 0 0 1
12.345910 23.354097 3.191560 26.608672 1.084500 1.450562 -0.010352 0.006948 1210820.000000 0 0 1
11.028010 23.377897 3.824560 26.129875 1.130021 1.423901 -0.007567 0.006737 1295820.000000 0 0 1
11.071410 23.729897 5.308260 26.718192 1.134257 1.370790 -0.007504 0.000252 -223737.000000 0 0 1
11.637710 22.751197 6.138560 26.281842 1.097975 1.335052 0.014060 -0.019796 -45301.200000 0 0 1
10.909110 22.451297 7.338960 26.017874 1.118491 1.284841 0.013517 -0.017564 -773972.000000 0 0 1
11.530010 21.291397 8.130760 25.541613 1.074476 1.246825 0.020321 -0.015070 542147.000000 0 0 1
12.852610 21.423897 8.655560 26.440342 1.030436 1.237286 0.026559 -0.016744 -226321.000000 0 0 1
13.857510 21.406297 7.710260 26.640350 0.996282 1.277175 0.026578 -0.012902 -1393950.000000 0 0 1
15.217610 21.518997 8.429560 27.671292 0.955274 1.261244 0.028467 -0.013622 -507563.000000 0 0 1
15.486310 20.292497 9.080360 27.093619 0.918929 1.229034 0.029205 -0.013680 1126470.000000 0 0 1
16.708110 20.184897 9.879360 28.003442 0.879360 1.210244 0.028211 -0.015512 1184850.000000 0 0 1
17.075110 21.230097 10.956160 29.365181 0.893446 1.188448 0.017851 -0.005966 -962647.000000 0 0 1
16.135610 21.224697 11.972460 29.226452 0.920781 1.148732 0.015923 -0.003316 -393325.000000 0 0 1
16.395810 21.959997 13.145460 30.395184 0.929461 1.123549 0.024998 0.001547 -189937.000000 0 0 1
17.406510 21.305897 14.149560 30.937646 0.885787 1.095775 0.037862 0.002767 261384.000000 0 0 1
18.745010 21.615397 13.824860 31.776211 0.856398 1.120681 0.042903 -0.000003 -133387.000000 0 0 1
19.643310 20.988497 14.755860 32.312723 0.818493 1.096561 0.028230 -0.000245 222712.000000 0 0 1
21.098810 21.423997 14.513960 33.388658 0.793045 1.121094 0.034721 -0.010166 -320248.000000 0 0 1
21.651110 21.018497 13.304660 32.978202 0.770573 1.155525 0.039855 -0.008780 193688.000000 0 0 1
22.857110 21.716897 13.045260 34.121107 0.759824 1.178488 0.043279 -0.012835 -35532.000000 0 0 1
23.824810 21.212897 11.984860 34.077052 0.727469 1.211411 0.042131 -0.006112 -410164.000000 0 0 1
23.439510 21.497497 10.654660 33.542135 0.742209 1.247546 0.047484 -0.014917 308592.000000 0 0 1
24.446910 21.124897 9.739060 33.745548 0.712631 1.278029 0.051164 -0.024015 -469540.000000 0 0 1
24.339010 21.928397 8.459360 33.834935 0.733343 1.318097 0.042899 -0.023464 19473.400000 0 0 1
24.734310 23.300997 8.555360 35.041643 0.755568 1.324155 0.041210 -0.017288 1394580.000000 0 0 1
26.174410 23.423697 8.638560 36.171730 0.729995 1.329645 0.028813 -0.024541 496696.000000 0 0 1
26.571410 24.840997 8.985560 37.468057 0.751753 1.328617 0.040543 -0.018699 -688479.000000 0 0 1
27.925250 25.127097 8.787860 38.580009 0.732704 1.340996 0.027389 -0.014030 -172399.000000 0 0 1
28.253360 26.332397 9.475860 39.767316 0.750221 1.330199 0.030844 -0.012681 764286.000000 0 0 1
29.481380 27.183097 8.965960 41.090887 0.744861 1.350828 0.025615 -0.006638 643284.000000 0 0 1
29.279290 27.697497 7.666060 41.026780 0.757643 1.382837 0.035688 -0.010499 30066.700000 0 0 1
30.490550 27.952497 6.993760 41.951501 0.741998 1.403304 0.024603 0.000598 -135654.000000 0 0 1
30.275090 29.010097 5.859160 42.337886 0.764064 1.431960 0.042597 0.003876 145144.000000 0 0 1
30.267550 30.350997 6.390960 43.337651 0.786775 1.422788 0.041851 -0.003808 14491.100000 0 0 1
30.110650 31.279397 5.331760 43.743338 0.804434 1.448605 0.046327 -0.003038 52557.900000 0 0 1
30.028270 32.801097 5.744560 44.839815 0.829502 1.442330 0.023498 0.002014 -70357.600000 0 0 1
28.890710 33.220697 6.450460 44.496026 0.854999 1.425317 0.022357 -0.006806 -359275.000000 0 0 1
28.792030 -34.159920 6.543360 45.151929 -0.870462 1.425365 0.011671 0.003665 808787.000000 0 0 1
27.435360 -33.564420 7.091060 43.926671 -0.885539 1.408657 0.038631 -0.009804 1440740.000000 0 0 1
26.327810 -33.704020 6.190060 43.213787 -0.907657 1.427059 0.033271 -0.015325 351513.000000 0 0 1
25.204910 -32.913620 6.583560 41.975435 -0.917266 1.413303 0.044611 -0.029354 356420.000000 0 0 1
24.187310 -32.967120 5.423160 41.246426 -0.937822 1.438933 0.048601 -0.020706 -18214.900000 0 0 1
24.710410 -32.303120 4.260060 40.893081 -0.917793 1.466431 0.008736 0.002446 469414.000000 0 0 1
23.779410 -32.580620 3.211560 40.463209 -0.940308 1.491343 0.025131 -0.005119 208523.000000 0 0 1
24.169310 -31.964120 1.863060 40.116474 -0.923378 1.524338 0.022527 0.006640 -165182.000000 0 0 1
24.148410 -30.575720 1.928860 39.009497 -0.902312 1.521330 0.027997 0.013376 148041.000000 0 0 1
24.972110 -29.993320 0.922460 39.039166 -0.876497 1.547165 0.015279 0.017577 -139244.000000 0 0 1
25.402110 -28.541020 1.185660 38.226467 -0.843522 1.539775 0.018457 0.010238 814473.000000 0 0 1
24.267910 -27.631320 1.142860 36.793035 -0.850114 1.539729 0.020806 0.012300 770739.000000 0 0 1
23.731610 -27.520620 -0.183340 36.340163 -0.859193 1.575841 0.032398 0.014393 -799992.000000 0 0 1
22.583210 -26.535820 -0.165840 34.845066 -0.865695 1.575556 0.011300 0.016949 -586987.000000 0 0 1
23.019010 -25.183220 0.004160 34.118462 -0.830267 1.570674 0.007637 0.008776 -33591.000000 0 0 1
23.003610 -24.712320 1.380360 33.790091 -0.821193 1.529934 -0.002710 0.017424 56759.000000 0 0 1
21.648810 -24.382020 2.063060 32.671243 -0.844706 1.507608 -0.001500 0.013221 141465.000000 0 0 1
21.757410 -23.574320 3.216160 32.240923 -0.825457 1.470876 0.003242 0.004934 -1057160.000000 0 0 1
20.522010 -23.448020 3.812060 31.392584 -0.851846 1.449064 0.018437 0.002445 -848457.000000 0 0 1
20.567610 -22.690320 5.190060 31.061454 -0.834430 1.402919 0.015537 -0.011462 42310.100000 0 0 1
20.738410 -21.241920 5.200560 30.138790 -0.797392 1.397375 0.034907 -0.010174 597836.000000 0 0 1
19.544510 -20.540020 4.808260 28.757602 -0.810228 1.402808 0.021609 -0.002623 203152.000000 0 0 1
19.444410 -19.111820 5.298260 27.774418 -0.776772 1.378860 0.026568 -0.006983 69531.900000 0 0 1
19.062110 -18.980520 6.662760 27.713112 -0.783253 1.327999 0.042863 -0.010024 -369665.000000 0 0 1
17.691410 -18.701920 6.790660 26.624441 -0.813157 1.312893 0.014472 -0.006651 -86044.200000 0 0 1
18.669836 -26.445083 -12.374840 34.656050 -0.956065 1.935932 0.076339 -0.023595 -15120.300000 0 0 1
18.809836 -25.193873 -12.904440 33.986257 -0.929472 1.960264 0.076274 -0.022998 -242523.000000 0 0 1
17.603836 -24.643703 -13.403840 33.119028 -0.950515 1.987466 0.059037 -0.021411 142347.000000 0 0 1
17.761036 -23.135603 -13.887840 32.304529 -0.916068 2.015183 0.049861 -0.034245 19588.500000 0 0 1
17.868336 -22.074103 -12.942440 31.209777 -0.890307 1.998400 0.055246 -0.033354 685182.000000 0 0 1
19.097836 -21.914003 -12.180540 31.516922 -0.853958 1.967604 0.052698 -0.028965 258455.000000 0 0 1
19.262036 -22.818903 -10.912640 31.793302 -0.869722 1.921158 0.053178 -0.026210 302009.000000 0 0 1
18.395236 -22.560903 -9.799240 30.714884 -0.886760 1.895511 0.051600 -0.023045 1028220.000000 0 0 1
16.983036 -22.665603 -10.040940 30.049518 -0.927752 1.911496 0.053082 -0.010595 101163.000000 0 0 1
16.110836 -22.030703 -8.995940 28.737394 -0.939377 1.889188 0.031479 -0.004883 -1143660.000000 0 0 1
16.151436 -20.583503 -8.817740 27.609817 -0.905468 1.895861 0.026315 -0.013381 482612.000000 0 0 1
15.233636 -20.048803 -7.819740 26.366010 -0.921035 1.871910 0.022805 -0.014469 1318290.000000 0 0 1
13.717136 -20.113403 -8.236340 25.701091 -0.972260 1.897018 0.022579 -0.004707 148166.000000 0 0 1
13.173436 -21.350403 -8.181640 26.387844 -1.017962 1.886045 0.012183 -0.007025 130878.000000 0 0 1
11.741036 -21.265403 -8.202940 25.638984 -1.066328 1.896463 0.013465 -0.009055 691807.000000 0 0 1
10.996136 -22.588203 -7.921640 26.341873 -1.117757 1.876248 0.009473 -0.001012 -123735.000000 0 0 1
11.337436 -23.135903 -6.664440 26.612444 -1.115151 1.823916 0.008844 0.002299 134236.000000 0 0 1
10.462236 -24.166803 -6.291740 27.075426 -1.162239 1.805318 0.001948 0.004664 -135624.000000 0 0 1
11.008136 -24.844903 -5.056640 27.640873 -1.153717 1.754773 0.011633 0.006227 579448.000000 0 0 1
10.151136 -25.875923 -4.454740 28.150553 -1.196945 1.729711 0.021169 0.004197 665107.000000 0 0 1
10.843436 -26.333883 -3.302140 28.669803 -1.180187 1.686231 0.016273 0.003146 136315.000000 0 0 1
9.958236 -27.188233 -2.386940 29.052778 -1.219701 1.653048 0.028320 -0.003018 249523.000000 0 0 1
9.081136 -26.454083 -1.524940 28.010908 -1.240121 1.625264 0.012027 0.001729 10554.900000 0 0 1
8.358436 -27.385863 -0.694840 28.641434 -1.274567 1.595059 0.020246 -0.005381 12607.400000 0 0 1
7.740036 -26.669213 0.468360 27.773628 -1.288333 1.553932 0.024110 -0.003755 -369163.000000 0 0 1
6.501236 -26.119553 0.099460 26.916667 -1.326850 1.567101 0.021286 -0.014558 -622026.000000 0 0 1
5.981236 -25.501673 1.251660 26.223599 -1.340418 1.523048 0.024332 -0.006430 21213.300000 0 0 1
4.562936 -24.872803 1.140660 25.313589 -1.389363 1.525720 0.037151 -0.012669 48343.000000 0 0 1
3.598336 -25.857473 0.884460 26.121623 -1.432524 1.536931 0.059458 -0.016260 -948977.000000 0 0 1
2.378936 -25.174373 0.786960 25.298768 -1.476578 1.539685 0.050068 -0.013676 -840894.000000 0 0 1
1.189036 -26.009403 0.356960 26.039014 -1.525113 1.557087 0.045060 -0.011342 -160578.000000 0 0 1
0.656136 -26.972973 1.261160 27.010411 -1.546475 1.524088 0.043254 -0.007093 -104725.000000 0 0 1
1.122336 -28.275193 1.001760 28.315185 -1.531124 1.535410 0.040359 -0.018942 270666.000000 0 0 1
0.288936 -29.321083 1.854160 29.381070 -1.560942 1.507647 0.051604 -0.007269 598829.000000 0 0 1
0.491136 -29.216613 3.279560 29.404203 -1.553988 1.459030 0.057194 -0.003638 -80173.300000 0 0 1
-0.237564 -30.266303 3.897260 30.517112 1.562947 1.442739 0.061858 0.000438 92491.100000 0 0 1
0.035836 -30.451383 5.388160 30.924428 -1.569620 1.395666 0.054915 -0.005034 -646218.000000 0 0 1
1.335436 -30.833723 5.753260 31.394296 -1.527512 1.386497 0.055817 0.005753 -264490.000000 0 0 1
1.525636 -30.932123 7.166060 31.787988 -1.521514 1.343409 0.050281 0.001671 -436800.000000 0 0 1
2.961736 -31.300453 7.513560 32.325590 -1.476454 1.336217 0.038234 0.000362 -328872.000000 0 0 1
3.209436 -32.681303 7.374460 33.656362 -1.472906 1.349894 0.038318 -0.006996 604519.000000 0 0 1
4.608336 -32.986833 7.546460 34.151383 -1.431992 1.347987 0.025973 -0.009249 1112940.000000 0 0 1
4.948036 34.294181 7.592060 35.471302 1.427503 1.355094 0.045138 -0.002354 -386803.000000 0 0 1
4.887036 33.819377 6.241260 34.735957 1.427286 1.390138 0.040195 -0.002347 -86366.500000 0 0 1
5.178236 32.451685 6.091860 33.422100 1.412563 1.387501 0.031203 -0.008779 -422068.000000 0 0 1
5.470736 31.936015 4.700860 32.740435 1.401140 1.426719 0.036547 -0.008618 663335.000000 0 0 1
6.828136 32.022185 4.257060 33.017667 1.360711 1.441504 0.034471 -0.007485 631270.000000 0 0 1
7.624036 30.871915 4.591660 32.129183 1.328684 1.427393 0.027375 -0.005458 -316960.000000 0 0 1
9.069736 30.892045 4.116960 32.458095 1.285226 1.443614 -0.004893 0.005208 -29825.400000 0 0 1
9.998836 31.445485 5.059460 33.382531 1.262933 1.418650 -0.011199 -0.007079 -309828.000000 0 0 1
11.275136 31.550985 4.506660 33.806853 1.227578 1.437092 -0.002882 0.002589 -5475.150000 0 0 1
12.413536 31.937485 5.504460 34.704436 1.200084 1.411514 -0.003314 -0.007917 399764.000000 0 0 1
12.570036 30.996775 6.523560 34.078772 1.185534 1.378182 -0.011274 -0.012811 -136944.000000 0 0 1
13.696736 31.419195 7.272060 35.037826 1.159700 1.361728 0.004823 -0.021795 -296695.000000 0 0 1
14.259936 30.298665 8.164260 34.467521 1.130907 1.331655 0.005179 -0.013453 -873325.000000 0 0 1
13.501836 29.910945 9.252960 34.096649 1.146778 1.295976 -0.000194 -0.011615 -197755.000000 0 0 1
14.148136 28.838075 9.965360 33.632019 1.114692 1.269974 0.004527 -0.013647 174649.000000 0 0 1
13.905336 28.901915 11.490960 34.069359 1.122365 1.226769 -0.002131 -0.012291 -83863.500000 0 0 1
14.718636 29.843465 12.134660 35.419213 1.112608 1.221112 0.014966 -0.017021 -30289.000000 0 0 1
14.255536 30.164975 13.436660 35.967900 1.129320 1.187938 0.018999 -0.012699 -617028.000000 0 0 1
15.041936 31.256235 14.113460 37.448656 1.122264 1.184376 0.033339 -0.011136 -563196.000000 0 0 1
16.230736 30.725555 14.628360 37.702592 1.084806 1.172343 0.048676 -0.009253 -370034.000000 0 0 1
17.063936 31.832015 15.004860 39.110113 1.078717 1.177043 0.051196 -0.006518 -486117.000000 0 0 1
18.389836 31.416745 15.606860 39.607727 1.041217 1.165778 0.055487 -0.002946 -413842.000000 0 0 1
19.424336 30.892785 14.818360 39.385947 1.009493 1.185067 0.036928 -0.001167 -41147.300000 0 0 1
19.326236 29.486585 14.665360 38.184223 0.990617 1.176598 0.025865 0.002926 -142668.000000 0 0 1
20.574136 28.776775 14.054560 38.064794 0.950103 1.192619 0.034144 0.000036 631105.000000 0 0 1
21.685136 28.934225 14.945760 39.125570 0.927639 1.178843 0.029736 -0.009502 873191.000000 0 0 1
22.921836 28.535075 14.318160 39.302300 0.894055 1.197906 0.021753 -0.001570 265360.000000 0 0 1
24.107336 28.771205 15.239960 40.511755 0.873370 1.185120 0.025113 -0.003513 -578325.000000 0 0 1
24.355136 27.661705 16.081660 40.211471 0.848880 1.159359 0.009782 0.001387 -72047.000000 0 0 1
25.412936 27.999885 16.954460 41.439891 0.833793 1.149292 0.003019 0.002122 -494722.000000 0 0 1
26.180636 26.824985 17.481260 41.359400 0.797554 1.134410 -0.026204 0.011983 -592231.000000 0 0 1
25.397536 25.930615 18.250960 40.626705 0.795784 1.104887 -0.023537 0.008668 122019.000000 0 0 1
25.342636 26.202165 19.623060 41.398878 0.802072 1.076969 -0.002010 0.013680 48924.900000 0 0 1
24.764736 24.931195 20.378360 40.621844 0.788748 1.045280 0.005580 0.006994 228411.000000 0 0 1
25.747836 23.906795 20.465560 40.661100 0.748338 1.043359 -0.010911 0.006262 5654.910000 0 0 1
25.122236 22.748515 20.852760 39.792704 0.735853 1.019215 -0.001899 -0.000510 -271534.000000 0 0 1
25.824236 21.487715 20.382660 39.294604 0.693996 1.025450 -0.024862 0.005179 -100399.000000 0 0 1
25.182136 20.297015 20.804460 38.456916 0.678394 0.999193 -0.023884 0.012377 308463.000000 0 0 1
26.081936 19.190415 20.632260 38.395697 0.634334 1.003494 -0.021286 0.005608 153618.000000 0 0 1
26.598336 18.687515 22.013260 39.259118 0.612457 0.975545 0.016261 0.012049 -244901.000000 0 0 1
25.721836 18.094915 22.947760 38.931202 0.613061 0.940426 -0.010573 0.016654 529358.000000 0 0 1
26.530936 17.841815 24.114260 40.046454 0.592024 0.924596 0.028017 0.005087 474203.000000 0 0 1
25.660436 17.158815 25.188860 39.841707 0.589400 0.886377 0.010962 0.009095 122736.000000 0 0 1
25.285436 15.909415 24.688360 38.755359 0.561609 0.880156 0.008465 0.003938 112723.000000 0 0 1
24.316836 15.327615 25.532760 38.446926 0.562422 0.844501 0.008547 0.009302 -86420.200000 0 0 1
23.701936 14.091415 24.883160 37.141909 0.536385 0.836657 0.009110 0.013364 -828266.000000 0 0 1
22.635436 13.477615 25.491360 36.658130 0.537046 0.801847 0.007597 0.005696 -402784.000000 0 0 1
22.246436 12.255015 24.826960 35.517140 0.503515 0.796779 0.018261 0.009373 828220.000000 0 0 1
20.824536 11.763115 25.289760 34.808105 0.514187 0.757512 0.015479 0.004510 854128.000000 0 0 1
19.727836 12.579815 24.958760 34.210802 0.567657 0.753121 0.015270 -0.000486 35861.400000 0 0 1
18.512036 11.841215 24.966160 33.259871 0.569065 0.721767 0.017365 0.001408 711521.000000 0 0 1
17.280936 12.766315 25.234160 33.141702 0.636263 0.705323 0.011958 -0.002988 195070.000000 0 0 1
17.013536 13.175015 26.582460 34.200418 0.658925 0.680504 0.018067 0.001227 517432.000000 0 0 1
15.895036 14.063215 26.637160 34.058251 0.724328 0.672758 0.027954 0.000288 401340.000000 0 0 1
15.418836 14.488615 28.068960 35.150064 0.754305 0.645920 0.024377 0.008399 -296356.000000 0 0 1
14.998936 13.397915 28.878860 35.191771 0.729078 0.608312 0.018197 0.007673 -244204.000000 0 0 1
15.343836 13.503815 30.230460 36.492014 0.721700 0.594528 0.018206 0.007664 19737.200000 0 0 1
16.859236 13.251715 30.499760 37.283739 0.666159 0.612793 0.020009 0.013616 -203654.000000 0 0 1
17.652636 14.279515 30.062060 37.672902 0.680154 0.646867 0.028472 0.000107 -69756.000000 0 0 1
19.029836 13.888015 30.026460 38.165429 0.630449 0.665278 0.022535 0.015377 153174.000000 0 0 1
19.955236 15.066715 29.820360 38.916208 0.646710 0.697779 0.029871 0.006756 -573651.000000 0 0 1
19.792836 15.736415 28.550460 38.138168 0.671719 0.724839 0.032227 0.002723 144305.000000 0 0 1
20.001736 14.911515 27.372260 37.035974 0.640622 0.739104 0.036238 0.003303 -308503.000000 0 0 1
19.911436 15.678015 26.023160 36.324514 0.667003 0.772157 0.014373 0.001303 152953.000000 0 0 1
20.884136 16.705315 25.790960 37.153577 0.674683 0.803528 0.013659 0.008072 534840.000000 0 0 1
20.562136 17.284115 24.579760 36.410255 0.699000 0.829726 -0.000824 0.001584 -377941.000000 0 0 1
21.751636 18.095115 24.072260 37.148897 0.693890 0.865849 -0.004465 0.008863 -382214.000000 0 0 1
21.598036 18.759515 22.807760 36.586726 0.715179 0.897727 -0.007079 0.001278 574387.000000 0 0 1
22.743836 19.627115 22.597460 37.591900 0.711972 0.925887 -0.000801 0.002537 449298.000000 0 0 1
22.878636 20.934115 23.428860 38.866189 0.741045 0.923780 0.007916 -0.007808 -648093.000000 0 0 1
22.222036 22.023415 22.871260 38.754925 0.780909 0.939550 0.006290 -0.004298 99078.000000 0 0 1
22.234636 23.147915 23.733860 39.918681 0.805519 0.934084 0.011843 -0.002553 -144939.000000 0 0 1
21.359636 24.259925 23.136060 39.749909 0.848888 0.949560 0.013522 -0.015825 -64573.800000 0 0 1
21.905836 24.808085 21.946460 39.710878 0.847447 0.985248 0.014812 -0.009154 281407.000000 0 0 1
21.090936 25.877415 21.459160 39.685813 0.886956 0.999496 0.038035 -0.011158 -234212.000000 0 0 1
21.542236 26.518145 20.139560 39.659574 0.888565 1.038155 0.035202 -0.008414 -705514.000000 0 0 1
21.350036 25.829605 18.937960 38.492062 0.880061 1.056415 0.031026 -0.007639 -47845.700000 0 0 1
21.847736 26.463275 17.804760 38.660548 0.880647 1.092192 0.032031 -0.018074 -371711.000000 0 0 1
21.701836 25.670565 16.482660 37.438292 0.868980 1.114906 0.016373 0.002693 -959457.000000 0 0 1
20.396536 25.576015 16.004060 36.418143 0.897590 1.115807 0.022236 0.000919 -658740.000000 0 0 1
20.325036 25.077925 14.673060 35.458541 0.889701 1.144162 0.024951 0.006603 338672.000000 0 0 1
18.894136 24.730555 14.141960 34.184554 0.918395 1.144288 0.023438 -0.000224 618327.000000 0 0 1
18.006336 25.781045 13.842260 34.358384 0.961123 1.156136 0.025587 0.004448 -101533.000000 0 0 1
17.237036 26.222325 14.953260 34.760980 0.989277 1.126111 0.032250 -0.001691 -1259720.000000 0 0 1
15.746436 26.342855 14.616160 33.993064 1.032033 1.126331 0.028230 -0.002874 -691026.000000 0 0 1
15.148136 25.072655 14.452060 32.664447 1.027317 1.112479 0.026438 -0.000674 23363.500000 0 0 1
14.985636 24.277765 15.664560 32.547774 1.017784 1.068683 0.029314 0.001137 -254334.000000 0 0 1
13.937036 24.804215 16.712260 32.996813 1.058877 1.039698 0.056094 -0.013153 252089.000000 0 0 1
14.421536 25.951345 17.444360 34.434847 1.063576 1.039571 0.047463 -0.012864 312310.000000 0 0 1
13.430936 26.462545 18.303360 34.866450 1.101131 1.018133 0.050963 -0.013065 6159.280000 0 0 1
13.945636 27.812455 18.923460 36.415804 1.106016 1.024355 0.050808 -0.018695 105808.000000 0 0 1
13.909636 28.971085 18.166260 36.916321 1.123178 1.056304 0.045213 -0.018346 -14855.400000 0 0 1
14.449836 29.946735 18.987060 38.289857 1.121232 1.051952 0.054263 -0.016268 -504402.000000 0 0 1
14.464436 31.328965 18.303360 39.060683 1.138259 1.083105 0.044287 -0.023205 891351.000000 0 0 1
13.136736 31.852265 18.061360 38.901843 1.179623 1.087974 0.033309 -0.017037 814937.000000 0 0 1
13.105736 32.996893 17.254960 39.475168 1.192723 1.118414 0.033028 -0.015645 -19370.400000 0 0 1
11.733536 33.702542 17.289060 39.654115 1.235771 1.119651 0.033825 -0.019475 -71329.400000 0 0 1
11.513736 -33.812663 16.559760 39.371156 -1.242596 1.136683 0.028100 -0.019451 124828.000000 0 0 1
12.221636 -32.607113 17.016860 38.757783 -1.212188 1.116248 0.025946 -0.024043 381242.000000 0 0 1
12.056036 -32.235853 18.579660 39.111405 -1.212907 1.075782 0.034988 -0.021515 -81027.200000 0 0 1
12.872736 -33.135893 19.322460 40.460501 -1.200258 1.072917 0.056537 -0.024254 443101.000000 0 0 1
12.554936 -33.042103 20.709960 40.967175 -1.207677 1.040805 0.053295 -0.024016 -144913.000000 0 0 1
13.627036 -33.788283 21.497560 42.302355 -1.187443 1.037716 0.068276 -0.028537 -1060940.000000 0 0 1
14.897736 -33.298343 21.389260 42.287381 -1.150105 1.040479 0.063602 -0.030182 -1642320.000000 0 0 1
15.814936 -33.892653 22.270760 43.529425 -1.134209 1.033721 0.055148 -0.028796 326116.000000 0 0 1
17.199236 -33.225683 21.993960 43.399239 -1.093130 1.039348 0.079626 -0.032002 244644.000000 0 0 1
17.160736 -31.809993 22.144960 42.388274 -1.076069 1.021097 0.078358 -0.018480 -619831.000000 0 0 1
18.289136 -31.317243 21.524660 42.173133 -1.042228 1.035160 0.067064 -0.014315 -619952.000000 0 0 1
-4.598864 13.376397 18.715883 23.459792 -1.239652 0.647183 0.011634 0.014804 -562750.000000 0 1 0
-4.288264 14.633997 18.150283 23.706030 -1.285742 0.698761 0.011747 0.006114 -243128.000000 0 1 0
-5.424964 15.346197 17.762483 24.092360 -1.231002 0.741781 0.015894 0.001265 -408088.000000 0 1 0
-5.159164 16.833097 17.481183 24.810520 -1.273397 0.788955 0.025616 0.000070 -134426.000000 0 1 0
-4.867664 17.376097 18.748683 26.021837 -1.297662 0.766276 0.018541 0.006064 264023.000000 0 0 1
-4.451964 18.731997 18.648983 26.804706 -1.337459 0.801353 0.015486 -0.004172 -408197.000000 0 0 1
-3.786364 19.329697 19.904383 28.002825 -1.377362 0.780163 0.013223 -0.008229 58732.000000 0 0 1
-4.720464 19.524197 20.955983 29.028095 -1.333574 0.764222 0.005519 -0.001841 507321.000000 0 0 1
-4.115464 20.233197 22.005883 30.175788 -1.370132 0.753562 0.012824 -0.004677 75226.400000 0 0 1
-5.222964 20.500397 23.036583 31.276665 -1.321330 0.742852 0.008091 0.003959 114545.000000 0 0 1
-5.566264 19.340497 23.791123 31.161766 -1.290566 0.702125 0.002512 -0.002064 30460.100000 0 0 1
-6.216664 19.640297 25.044123 32.428325 -1.264248 0.688356 -0.005459 -0.000860 -158025.000000 0 0 1
-5.295564 20.043797 26.185583 33.398826 -1.312499 0.669669 -0.009457 -0.005606 -1022490.000000 0 0 1
-4.888064 21.386697 25.996743 34.016388 -1.346100 0.700932 0.006242 -0.007854 1720.060000 0 0 1
-3.821664 21.778197 26.846353 34.779615 -1.397084 0.688973 0.011490 -0.008962 -838636.000000 0 0 1
-2.469964 21.419297 26.304373 34.011866 -1.455989 0.686628 0.021457 0.001470 -1876140.000000 0 0 1
-2.085664 20.185697 26.664763 33.508535 -1.467838 0.650534 0.034684 -0.001681 -861265.000000 0 0 1
-0.826364 19.840997 26.194653 32.871080 -1.529171 0.648666 0.043554 0.004063 -535908.000000 0 0 1
-0.204764 18.643997 26.934913 32.758664 -1.559814 0.605491 0.040281 0.009928 -411855.000000 0 0 1
-0.744464 17.425897 26.480593 31.708641 -1.528101 0.582441 0.046090 0.004763 -180992.000000 0 0 1
-0.137864 16.243997 26.987043 31.498999 -1.562309 0.541845 0.044878 0.002202 550215.000000 0 0 1
1.355936 16.017697 26.562003 31.047467 1.486345 0.544225 0.055199 0.001758 320820.000000 0 0 1
1.679836 15.861797 25.174253 29.802038 1.465285 0.564762 0.045861 0.007769 -228531.000000 0 0 1
1.190836 14.666497 24.605413 28.669680 1.489780 0.538969 0.052434 0.001338 -310438.000000 0 0 1
1.223536 14.778397 23.080783 27.433932 1.488193 0.571071 0.056309 -0.014259 -278641.000000 0 0 1
2.521336 14.602997 22.597683 27.023322 1.399823 0.580426 0.038193 -0.007438 -609295.000000 0 0 1
2.623636 13.852597 21.404483 25.630642 1.383617 0.582458 0.029479 -0.010796 318304.000000 0 0 1
4.079436 13.729897 20.872783 25.314520 1.281983 0.601411 0.017845 -0.009242 447658.000000 0 0 1
4.557636 14.881997 20.221583 25.517804 1.273614 0.655981 0.023427 -0.012102 290723.000000 0 0 1
5.978236 14.851697 20.119583 25.712056 1.188112 0.672132 0.030762 -0.009841 399590.000000 0 0 1
6.551736 15.882997 19.144983 25.724020 1.179561 0.731392 0.039888 -0.011538 -119634.000000 0 0 1
6.022736 15.546097 17.897383 24.459575 1.201189 0.749965 0.028709 -0.016493 241302.000000 0 1 0
6.489536 16.405297 16.833183 24.384501 1.194110 0.808861 0.032141 -0.010234 82654.400000 0 1 0
6.343536 15.707697 15.449183 22.927046 1.186976 0.831401 0.025143 -0.008841 543064.000000 0 1 0
7.300436 14.702297 15.044383 22.266283 1.109912 0.828940 0.018999 -0.013456 254939.000000 0 1 0
7.548136 13.619697 15.895383 22.251600 1.064729 0.775105 0.020583 -0.011522 -347859.000000 0 1 0
8.633436 12.698997 15.332783 21.700115 0.973721 0.786148 0.022874 -0.010588 1500370.000000 0 1 0
9.985236 13.251297 15.417583 22.649584 0.925041 0.822078 0.028713 -0.009999 1981120.000000 0 1 0
11.018136 12.483697 14.756083 22.248236 0.847677 0.845647 0.034959 -0.005254 322773.000000 0 1 0
12.275536 13.351797 14.614383 23.292476 0.827370 0.892549 0.040744 -0.001190 -550672.000000 0 1 0
13.157836 13.008697 15.687683 24.258158 0.779699 0.867550 0.044333 -0.011186 141133.000000 0 1 0
14.425536 13.605297 15.581883 25.218947 0.756145 0.904773 0.037499 -0.003876 -94012.600000 0 0 1
15.520036 12.961097 14.703083 25.000844 0.695792 0.942084 0.035377 -0.008950 -561805.000000 0 0 1
16.745936 13.652097 14.842283 26.212582 0.683970 0.968875 0.036358 -0.011422 82430.000000 0 0 1
17.655236 13.092597 13.908883 26.011161 0.638084 1.006611 0.043902 -0.012167 -188402.000000 0 0 1
19.011436 13.835897 13.911883 27.320454 0.629120 1.036528 0.045243 -0.006654 -263515.000000 0 0 1
19.828236 13.395197 14.949083 28.214629 0.594135 1.012391 0.033179 -0.003937 119145.000000 0 0 1
21.141836 13.934097 14.780083 29.318716 0.582730 1.042436 0.026800 -0.008009 168785.000000 0 0 1
22.031536 13.673197 15.983183 30.459925 0.555443 1.018400 0.035442 0.000131 -272760.000000 0 0 1
22.420736 12.301097 16.119783 30.230015 0.501805 1.008373 0.033509 0.003049 5930.220000 0 0 1
23.325536 12.164297 17.159383 31.408521 0.480700 0.992821 0.024899 0.004274 -511903.000000 0 0 1
23.635136 10.702197 17.481683 31.285234 0.425187 0.977878 0.029725 0.012453 -370005.000000 0 0 1
22.501336 10.088297 18.054583 30.562261 0.421474 0.938811 0.017717 0.008749 438625.000000 0 0 1
22.469036 8.758697 17.611683 29.862078 0.371693 0.940025 0.017177 0.012946 -553113.000000 0 0 1
21.357936 7.899997 18.193283 29.147331 0.354279 0.896710 0.035408 -0.000401 -630063.000000 0 0 1
21.279736 6.535597 17.769483 28.483253 0.297983 0.897128 0.035958 0.002907 165759.000000 0 0 1
20.116136 5.937897 18.285783 27.826020 0.287030 0.853769 0.029775 0.004634 -270723.000000 0 0 1
19.890936 4.477397 17.738683 27.025123 0.221407 0.854789 0.046174 0.001547 -694764.000000 0 0 1
19.649736 4.342397 16.385883 25.951217 0.217495 0.887425 0.057797 -0.014545 391397.000000 0 0 1
19.414136 2.996897 15.987483 25.327646 0.153158 0.887663 0.049985 -0.015583 413224.000000 0 0 1
18.280336 2.138797 16.680683 24.839289 0.116470 0.834505 0.068563 -0.007020 162762.000000 0 1 0
18.712036 1.404397 17.748483 25.828690 0.074913 0.813222 0.061467 -0.012609 353521.000000 0 0 1
17.556636 1.022897 18.506983 25.530182 0.058197 0.759898 0.043626 -0.006091 353141.000000 0 0 1
17.867336 0.234297 19.761383 26.642238 0.013112 0.735148 0.046163 -0.006393 -516389.000000 0 0 1
18.141536 -1.137603 19.534383 26.683357 -0.062625 0.749424 0.049353 -0.003789 215876.000000 0 0 1
16.985536 -1.953103 19.598083 26.007843 -0.114483 0.717358 0.039416 0.002926 85001.400000 0 0 1
17.320236 -3.325803 18.994583 25.919986 -0.189709 0.748345 0.028791 -0.001487 -32490.100000 0 0 1
16.996036 -3.432003 17.603583 24.708905 -0.199250 0.777829 0.028585 -0.012623 342151.000000 0 1 0
17.168636 -4.781303 17.183083 24.756438 -0.271608 0.803648 0.056698 -0.009344 -168242.000000 0 1 0
16.773636 -4.863403 15.699783 23.483839 -0.282205 0.838558 0.048322 -0.017254 -82698.100000 0 1 0
15.404836 -4.579703 15.452083 22.294607 -0.288969 0.805035 0.034910 -0.016387 320766.000000 0 1 0
15.067336 -4.684003 14.086383 21.151611 -0.301400 0.842000 0.039166 -0.015798 246863.000000 0 1 0
15.690136 -3.523003 13.293783 20.864241 -0.220873 0.879993 0.040427 -0.015635 298602.000000 0 1 0
14.949236 -2.284703 13.550683 20.305677 -0.151657 0.840172 0.037975 -0.009819 532976.000000 0 1 0
15.614336 -1.160103 13.064983 20.392329 -0.074161 0.875411 0.040884 -0.009320 -307709.000000 0 1 0
14.823936 0.129097 13.332483 19.937924 0.008708 0.838338 0.046680 -0.000637 -284190.000000 0 1 0
15.286136 1.382297 12.836283 20.008669 0.090183 0.874297 0.055164 -0.000831 385890.000000 0 1 0
16.313336 2.006197 13.600483 21.333609 0.122365 0.879529 0.068329 -0.007726 164916.000000 0 1 0
16.579536 3.414797 13.020883 21.356152 0.203124 0.915112 0.076713 -0.012886 600308.000000 0 1 0
15.489636 4.314597 13.349883 20.898898 0.271661 0.877880 0.073389 -0.007165 1171870.000000 0 1 0
15.600836 5.527297 12.606783 20.805481 0.340496 0.919855 0.075824 -0.015166 715651.000000 0 1 0
14.300036 6.406297 12.754683 20.204297 0.421183 0.887586 0.063798 -0.019514 546318.000000 0 1 0
14.422436 7.573697 11.985583 20.224286 0.483551 0.936472 0.043773 -0.027632 513786.000000 0 1 0
13.366036 8.532997 12.121883 19.960035 0.568184 0.918129 0.032284 -0.022441 -55251.900000 0 1 0
13.497136 9.543197 13.281983 21.205102 0.615444 0.893924 0.033531 -0.026553 -190541.000000 0 1 0
13.265636 8.982897 14.558883 21.647878 0.595229 0.833172 0.049427 -0.024165 350392.000000 0 1 0
13.856836 9.665197 15.624683 23.012141 0.609049 0.824430 0.056608 -0.030387 -220512.000000 0 1 0
13.483036 9.050597 17.054583 23.549190 0.591175 0.760907 0.055512 -0.034512 399944.000000 0 1 0
12.214536 9.566097 17.440883 23.342868 0.664396 0.727016 0.054743 -0.027863 294452.000000 0 1 0
11.466536 8.828297 18.425883 23.429328 0.656128 0.665764 0.048381 -0.018895 -52506.200000 0 1 0
11.832836 8.748497 19.916683 24.763410 0.636644 0.636336 0.051870 -0.030435 -188565.000000 0 1 0
13.142736 8.192897 19.966783 25.269101 0.557432 0.659717 0.055941 -0.032238 190170.000000 0 0 1
13.743036 8.422397 21.232083 26.657253 0.549813 0.649338 0.047044 -0.018456 -623019.000000 0 0 1
15.246036 8.200997 21.184483 27.358367 0.493514 0.685136 0.044522 -0.009415 -588442.000000 0 0 1
15.898236 9.177597 20.372783 27.423210 0.523540 0.733400 0.051005 -0.012829 -197694.000000 0 0 1
17.171036 8.670397 20.038783 27.777204 0.467594 0.764959 0.048928 -0.014003 -259524.000000 0 0 1
18.088336 9.597097 19.234883 28.094001 0.487802 0.816657 0.051990 -0.014516 15872.800000 0 0 1
18.844136 10.540797 19.988783 29.423822 0.510007 0.823933 0.033606 -0.010754 347209.000000 0 0 1
19.662936 11.439297 19.251883 29.801402 0.526907 0.868456 0.032976 -0.009471 240171.000000 0 0 1
20.547236 12.347997 20.149383 31.315484 0.541123 0.871823 0.022620 0.000406 -529720.000000 0 0 1
19.915136 13.490097 20.692383 31.729640 0.595382 0.860384 0.020787 0.003118 -1790.550000 0 0 1
20.572036 14.181297 21.769383 33.139461 0.603541 0.854094 0.004270 0.013086 296291.000000 0 0 1
21.846936 14.947097 21.240483 33.939099 0.600025 0.894587 -0.005724 0.014297 486912.000000 0 0 1
22.964236 14.106397 21.048283 34.196151 0.550851 0.907756 -0.014119 0.021087 124968.000000 0 0 1
24.185036 14.807197 21.273083 35.450149 0.549375 0.927190 -0.017598 0.023185 684723.000000 0 0 1
25.431036 13.870897 21.184483 35.887626 0.499329 0.939365 -0.015982 0.013434 206938.000000 0 0 1
25.621536 13.346397 19.879883 35.068492 0.480232 0.968074 -0.015767 0.007509 460508.000000 0 0 1
26.732636 12.448697 19.816983 35.529096 0.435812 0.979102 0.008176 -0.005197 295447.000000 0 0 1
26.949636 11.793297 18.448483 34.723353 0.412499 1.010663 0.028053 -0.002692 -818470.000000 0 0 1
27.619736 12.664897 17.610083 35.119289 0.429937 1.045538 0.028694 -0.010065 -109939.000000 0 0 1
27.969836 11.990197 16.434983 34.585910 0.404986 1.075613 0.036806 -0.016172 -237571.000000 0 0 1
26.902436 11.617397 15.350183 33.080706 0.407645 1.088266 0.037464 -0.016420 58634.600000 0 0 1
26.391736 12.765997 14.687283 32.790405 0.450532 1.106365 0.048974 -0.011020 627896.000000 0 0 1
25.427836 12.531897 13.645283 31.461358 0.457905 1.122184 0.046407 -0.007465 528873.000000 0 0 1
24.942136 13.710297 12.808583 31.211251 0.502601 1.147922 0.043476 -0.004890 610869.000000 0 0 1
23.930636 14.645197 13.255883 31.030236 0.549186 1.129411 0.032890 -0.007484 857808.000000 0 0 1
24.089736 15.880097 12.587583 31.479201 0.582820 1.159422 0.035685 -0.007068 -387659.000000 0 0 1
23.055536 16.951697 12.983683 31.424414 0.633997 1.144862 0.030527 -0.009056 642390.000000 0 0 1
21.900436 16.951897 12.105083 30.224641 0.658712 1.158730 0.038030 -0.017194 562334.000000 0 0 1
20.920336 17.749497 12.701883 30.233143 0.703583 1.137207 0.035483 -0.014049 -991768.000000 0 0 1
19.867836 18.260897 11.707783 29.415361 0.743278 1.161443 0.043337 0.000876 -201997.000000 0 0 1
18.863836 17.394497 11.226183 28.007856 0.744896 1.158382 0.032905 -0.000954 660248.000000 0 0 1
17.769336 17.324897 12.192383 27.650598 0.772735 1.114145 0.015876 0.009166 488114.000000 0 0 1
16.495936 16.759197 11.490783 26.172976 0.793314 1.116275 0.017345 0.001811 29183.800000 0 0 1
16.585036 15.374597 11.378683 25.316320 0.747542 1.104635 0.028542 -0.003139 -100790.000000 0 0 1
15.399336 14.841597 10.871383 23.991655 0.766957 1.100521 0.031936 -0.014077 -317630.000000 0 1 0
15.619836 13.543697 10.088183 23.003966 0.714329 1.116822 0.042698 -0.019276 -210906.000000 0 1 0
15.832536 12.436297 10.945983 22.916047 0.665831 1.072812 0.051063 -0.015089 315381.000000 0 1 0
16.271736 11.264897 10.247883 22.286462 0.605538 1.092998 0.053086 -0.016492 18287.000000 0 1 0
16.874536 10.104697 11.113583 22.591294 0.539547 1.056479 0.066676 -0.024466 -727767.000000 0 1 0
17.580236 9.110297 10.385983 22.359133 0.478111 1.087718 0.077815 -0.019118 593694.000000 0 1 0
18.168836 8.070997 11.196883 22.817050 0.418039 1.057875 0.088721 -0.013468 577913.000000 0 1 0
19.358536 8.482297 12.122483 24.365075 0.412971 1.050041 0.068742 -0.020558 -528244.000000 0 1 0
19.016336 9.394597 13.109883 24.934885 0.458858 1.017182 0.059146 -0.020919 -196896.000000 0 1 0
20.049136 9.524497 14.050383 26.269700 0.443495 1.006465 0.056211 -0.010112 -878828.000000 0 0 1
19.443836 9.828597 15.456683 26.712789 0.468027 0.953755 0.038081 -0.008724 161694.000000 0 0 1
18.827936 8.756897 16.120683 26.287846 0.435341 0.910644 0.044848 -0.017879 -7377.870000 0 0 1
17.704336 8.179397 15.525283 24.927504 0.432788 0.898458 0.061493 -0.028385 -1010140.000000 0 1 0
17.194336 6.835097 16.122083 24.541501 0.378367 0.854055 0.060982 -0.023300 -1020570.000000 0 1 0
16.498536 7.092197 17.296883 24.933574 0.405987 0.804157 0.069202 -0.022633 -253963.000000 0 1 0
15.971036 5.916097 17.810683 24.643348 0.354755 0.763041 0.069387 -0.004281 318240.000000 0 1 0
14.569736 5.553497 17.217883 23.228733 0.364166 0.735892 0.063401 -0.023317 -258721.000000 0 1 0
14.115836 4.231197 17.539983 22.908750 0.291226 0.698752 0.066163 -0.016126 206272.000000 0 1 0
13.643036 3.585797 16.358883 21.601005 0.257017 0.711596 0.062260 -0.018083 -5810.680000 0 1 0
13.314936 2.139897 16.644683 21.422235 0.159351 0.680939 0.045848 -0.013498 76336.500000 0 1 0
14.481736 1.361897 16.861183 22.268249 0.093767 0.711804 0.035913 -0.008501 209288.000000 0 1 0
14.269136 -0.057403 16.945083 22.152818 -0.004023 0.699883 0.032753 0.001670 41194.800000 0 1 0
13.299536 -0.673403 18.004583 22.394109 -0.050590 0.636826 0.028860 -0.005283 181201.000000 0 1 0
11.932036 -0.551303 17.701183 21.354374 -0.046171 0.593613 0.025296 0.000566 -318368.000000 0 1 0
11.220936 -1.623103 18.313783 21.539232 -0.143653 0.554332 0.021914 -0.007704 21848.300000 0 1 0
-25.929774 14.178797 28.922423 41.350913 -0.500395 0.796185 0.036581 0.000916 -378664.000000 0 0 1
-25.101064 14.074797 30.034693 41.596227 -0.511040 0.764031 0.030681 0.003887 235506.000000 0 0 1
-24.428364 12.796097 30.002703 40.751040 -0.482523 0.743293 0.036594 0.002808 428692.000000 0 0 1
-23.132864 12.684097 30.874523 40.610982 -0.501549 0.707098 0.026765 0.001471 192262.000000 0 0 1
-23.335764 12.779797 32.241263 41.801676 -0.501036 0.689929 0.031814 -0.003863 44004.800000 0 0 1
-22.141264 12.738697 33.000535 41.731826 -0.522088 0.658720 0.025962 -0.002912 -222472.000000 0 0 1
-22.444364 12.965497 -34.216162 42.925509 -0.523841 2.493283 0.016179 0.004074 -463749.000000 0 0 1
-23.178164 11.947297 -33.655820 42.575573 -0.475935 2.482415 0.025819 -0.004270 -293800.000000 0 0 1
-23.855664 12.407097 -32.508780 42.188263 -0.479590 2.450523 0.008010 0.003533 199087.000000 0 0 1
-24.802264 11.370497 -31.811240 41.909372 -0.429855 2.432646 0.004480 -0.002879 271371.000000 0 0 1
-24.156664 10.339997 -31.046400 40.673565 -0.404442 2.439212 0.016487 -0.009161 394988.000000 0 0 1
-23.628764 9.236697 -31.834550 40.707169 -0.372645 2.468725 0.015844 -0.012107 85860.600000 0 0 1
-22.805264 8.266197 -30.963700 39.333965 -0.347739 2.477052 0.016081 -0.007359 -236976.000000 0 0 1
-23.528664 7.606197 -29.935280 38.827481 -0.312670 2.451178 0.015135 -0.008500 -105998.000000 0 0 1
-22.665964 6.851297 -29.149780 37.555238 -0.293540 2.459387 0.007853 -0.002883 -647496.000000 0 0 1
-23.330664 5.895897 -28.178110 37.055194 -0.247528 2.434781 0.006928 -0.003591 -351873.000000 0 0 1
-23.864064 4.774397 -28.872750 37.761410 -0.197459 2.441232 0.020325 -0.005671 130658.000000 0 0 1
-24.275564 3.716997 -28.039210 37.273534 -0.151937 2.422275 0.032769 0.001354 -561384.000000 0 0 1
-24.959964 2.554597 -28.709910 38.128529 -0.101993 2.423371 0.031479 0.006983 785125.000000 0 0 1
-26.333094 2.743797 -29.107700 39.347407 -0.103821 2.403512 0.051304 -0.006104 1031180.000000 0 0 1
-26.594694 3.577197 -30.208270 40.405614 -0.133705 2.415276 0.052236 -0.008915 -405071.000000 0 0 1
-28.078094 3.583297 -30.627910 41.704775 -0.126933 2.395576 0.077009 -0.016459 -239664.000000 0 0 1
-29.064094 3.973497 -29.666370 41.720543 -0.135873 2.361820 0.068303 -0.014634 2653.470000 0 0 1
-30.360514 3.774297 -30.148360 42.952645 -0.123681 2.348854 0.077648 -0.023582 -127364.000000 0 0 1
-30.895034 5.019197 -30.932130 44.005592 -0.161053 2.350282 0.077107 -0.030849 -442050.000000 0 0 1
-30.174554 5.205897 -32.190780 44.428047 -0.170844 2.381192 0.079086 -0.025819 426599.000000 0 0 1
-30.368864 6.438697 -32.890100 45.227021 -0.208923 2.385063 0.082465 -0.020752 -562664.000000 0 0 1
-29.975974 7.714797 -32.197250 44.662512 -0.251899 2.375898 0.047511 -0.018863 1437670.000000 0 0 1
-28.524274 7.824397 -31.985450 43.565174 -0.267721 2.395281 0.043959 -0.016501 2096570.000000 0 0 1
-28.010904 7.542397 -30.645620 42.197779 -0.263028 2.383630 0.023460 -0.022393 -53401.500000 0 0 1
-28.242324 8.704597 -29.623410 41.844298 -0.298973 2.357379 0.002221 -0.013036 54480.400000 0 0 1
-29.486724 8.851097 -28.955420 42.263757 -0.291615 2.325554 0.015124 -0.014075 320380.000000 0 0 1
-29.665344 7.996097 -27.881850 41.489369 -0.263286 2.307735 0.015528 -0.005951 95170.300000 0 0 1
-31.036864 8.245497 -27.191670 42.079236 -0.259670 2.273393 0.008260 -0.004506 94756.900000 0 0 1
-30.915404 9.082797 -26.082450 41.455441 -0.285755 2.251279 -0.013803 0.001977 102104.000000 0 0 1
-30.557474 8.294897 -24.943140 40.307875 -0.265065 2.238030 -0.011427 0.008205 133283.000000 0 0 1
-29.881204 9.092297 -23.770140 39.250169 -0.295380 2.221324 -0.012832 0.006089 339364.000000 0 0 1
-30.806094 9.941597 -23.040440 39.733017 -0.312164 2.189379 -0.006240 0.006431 1133660.000000 0 0 1
-30.040014 10.903897 -22.352840 38.999319 -0.348190 2.181153 -0.006169 0.003804 -155309.000000 0 0 1
-30.970114 11.794797 -21.550840 39.531050 -0.363885 2.147379 -0.001665 0.006408 -126696.000000 0 0 1
-31.536434 11.069197 -20.438340 39.176518 -0.337563 2.119637 -0.008510 0.001573 357227.000000 0 0 1
-32.206174 11.935497 -19.510540 39.501328 -0.354905 2.087390 -0.003597 0.007218 314963.000000 0 0 1
-31.346814 12.992297 -18.693640 38.741124 -0.392917 2.074334 -0.003613 0.009927 134805.000000 0 0 1
-30.715354 12.604697 -17.464940 37.514471 -0.389415 2.055055 0.012982 0.008085 448963.000000 0 0 1
-31.558914 12.111897 -16.412940 37.577223 -0.366452 2.022811 0.013138 0.010028 -35602.700000 0 0 1
-32.227024 13.181697 -15.475140 38.102732 -0.388263 1.989025 0.002718 0.008822 125834.000000 0 0 1
-33.059474 14.126897 -16.153640 39.413680 -0.403832 1.993084 0.002547 0.006412 340546.000000 0 0 1
-33.669434 14.975797 -15.217740 39.868345 -0.418512 1.962431 -0.000195 0.006435 -311039.000000 0 0 1
-34.327349 16.116897 -15.957940 41.143373 -0.438956 1.969107 -0.005204 0.008291 -183582.000000 0 0 1
-35.407959 15.684297 -16.757640 42.196437 -0.416984 1.979188 -0.010551 0.006433 318220.000000 0 0 1
35.516230 16.758497 -17.381340 42.946022 0.440879 1.987475 -0.009787 0.002660 -562730.000000 0 0 1
35.231830 16.558697 -18.897940 43.273600 0.439355 2.022733 -0.016044 0.000819 573951.000000 0 0 1
34.085550 15.783497 -19.257740 42.211421 0.433658 2.044540 0.009845 -0.001653 305636.000000 0 0 1
32.838350 16.391397 -19.061840 41.356848 0.462971 2.049818 0.032517 -0.010875 -262169.000000 0 0 1
31.672560 15.345497 -19.255340 40.117371 0.451175 2.071423 0.045292 -0.016937 165460.000000 0 0 1
31.442720 15.119797 -20.630840 40.532511 0.448225 2.104813 0.042308 -0.016665 1004410.000000 0 0 1
30.453330 14.071097 -20.886840 39.517859 0.432833 2.127678 0.027127 -0.013929 638628.000000 0 0 1
30.863240 12.592397 -20.549640 39.158597 0.387389 2.123253 0.025593 0.002631 -78033.600000 0 0 1
31.111960 12.392697 -19.196640 38.601088 0.379062 2.091290 0.029286 0.007420 128183.000000 0 0 1
31.824700 11.195097 -18.980940 38.709402 0.338254 2.083281 0.026131 0.010154 -62500.300000 0 0 1
32.108580 10.818797 -17.508040 38.138415 0.324997 2.047740 0.020318 0.016830 235993.000000 0 0 1
30.916520 10.426097 -16.828840 36.711641 0.325257 2.046997 0.024256 0.008439 554070.000000 0 0 1
31.242550 10.034097 -15.520740 36.299771 0.310762 2.012601 0.002266 0.004687 -52104.500000 0 0 1
30.881280 11.035297 -14.352040 35.796819 0.343204 1.983329 0.009891 0.002718 23335.700000 0 0 1
29.488430 11.200997 -14.165840 34.578908 0.363011 1.992885 0.013535 0.009626 250391.000000 0 0 1
29.274000 12.245197 -13.264940 34.392885 0.396179 1.966750 0.007603 0.004742 331008.000000 0 0 1
27.760170 12.504697 -13.027340 33.116553 0.423232 1.975100 0.032226 0.006915 -66811.700000 0 0 1
26.990370 11.517997 -12.389940 31.853649 0.403347 1.970304 0.009696 0.006619 -287965.000000 0 0 1
25.651810 11.572397 -12.801040 30.916053 0.423796 1.997704 0.001430 0.008635 -354074.000000 0 0 1
25.288010 10.802897 -14.096640 30.901477 0.403728 2.044494 0.008396 0.005688 -745430.000000 0 0 1
25.552710 9.414197 -14.021740 30.629680 0.352992 2.046296 0.011327 0.003539 577452.000000 0 0 1
26.821240 9.078597 -14.568740 31.844121 0.326380 2.045980 0.023761 -0.002793 -233313.000000 0 0 1
27.370900 7.682897 -14.138040 31.750232 0.273654 2.032294 0.028394 0.002540 -663016.000000 0 0 1
26.694690 6.493697 -14.345740 30.993142 0.238623 2.052024 0.035054 -0.007189 -139692.000000 0 0 1
25.921010 6.069597 -13.255640 29.739717 0.230013 2.032777 0.037317 -0.005700 -235049.000000 0 0 1
25.592010 4.529797 -13.441740 29.260048 0.175186 2.048103 0.033076 -0.003459 -188077.000000 0 0 1
25.125410 4.052597 -12.196840 28.221847 0.159917 2.017702 0.028456 -0.008110 313214.000000 0 0 1
24.601910 2.745897 -12.303740 27.643732 0.111153 2.032063 0.028133 -0.010392 -138430.000000 0 0 1
23.736610 2.322497 -11.105040 26.308602 0.097534 2.006564 0.022791 -0.014239 58690.400000 0 0 1
24.520710 1.988797 -9.938140 26.532756 0.080930 1.954720 0.020970 -0.013985 1159110.000000 0 0 1
23.714310 1.914497 -8.753740 25.350774 0.080557 1.923360 0.026328 -0.009558 -271518.000000 0 0 1
24.567610 1.534097 -7.508040 25.735026 0.062363 1.866846 0.040200 -0.008631 -660531.000000 0 0 1
24.722510 0.132297 -7.178940 25.744071 0.005351 1.853401 0.024118 -0.014053 527243.000000 0 0 1
25.461810 -0.635303 -8.137540 26.738117 -0.024946 1.880044 0.026699 -0.014180 -583188.000000 0 0 1
25.516610 -2.094403 -7.762540 26.753335 -0.081896 1.865182 0.028355 -0.022798 -105838.000000 0 0 1
26.558110 -2.340003 -6.812340 27.517572 -0.087882 1.820961 0.038233 -0.024116 657066.000000 0 0 1
26.374710 -3.572403 -6.189540 27.325771 -0.134629 1.799289 0.049917 -0.032859 -212672.000000 0 0 1
27.728350 -3.865203 -5.520140 28.535471 -0.138503 1.765472 0.062556 -0.023526 345540.000000 0 0 1
28.854350 -4.118603 -6.359640 29.832556 -0.141780 1.785623 0.067698 -0.019612 151218.000000 0 0 1
29.927820 -4.578803 -5.594140 30.788541 -0.151818 1.753507 0.083458 -0.016343 22798.700000 0 0 1
31.157310 -4.906103 -6.510840 32.206193 -0.156180 1.774360 0.095539 -0.010975 147143.000000 0 0 1
30.805460 -5.935503 -7.416040 32.236690 -0.190344 1.802925 0.095656 -0.016202 10471.600000 0 0 1
31.632700 -6.055203 -8.552440 33.323226 -0.189134 1.830352 0.088973 -0.020858 -896846.000000 0 0 1
30.916930 -6.835303 -9.708740 33.118538 -0.217586 1.868318 0.073827 -0.021179 -127276.000000 0 0 1
29.728850 -6.158303 -10.023640 31.971903 -0.204260 1.889688 0.061844 -0.022956 -120767.000000 0 0 1
28.647920 -6.761503 -9.313440 30.873312 -0.231779 1.877236 0.073188 -0.024919 -650644.000000 0 0 1
27.377650 -5.874703 -9.336340 29.516353 -0.211375 1.892634 0.060763 -0.017491 184555.000000 0 0 1
26.546910 -5.851503 -10.510140 29.145180 -0.216952 1.939722 0.035755 -0.015947 1147430.000000 0 0 1
25.319810 -5.160503 -10.270640 27.806647 -0.201059 1.949116 0.019320 -0.009410 1112890.000000 0 0 1
24.029810 -5.972303 -9.934940 26.679640 -0.243601 1.952367 0.031385 -0.010448 -611854.000000 0 0 1
24.168310 -6.588003 -8.655240 26.503248 -0.266123 1.903472 0.039375 -0.017542 665485.000000 0 0 1
22.948310 -7.080003 -8.144540 25.359119 -0.299254 1.897759 0.025065 -0.019657 -83210.100000 0 0 1
21.933310 -6.086503 -7.543440 23.979555 -0.270689 1.890808 0.017815 -0.014757 -255023.000000 0 1 0
21.416210 -5.238103 -8.554040 23.648750 -0.239877 1.940900 0.027724 -0.009936 266768.000000 0 1 0
21.427910 -3.925803 -8.169740 23.266110 -0.181200 1.929588 0.024765 -0.014534 -250607.000000 0 1 0
21.420010 -2.904803 -9.337240 23.546523 -0.134789 1.978546 0.034616 -0.011351 112568.000000 0 1 0
22.706010 -2.693403 -9.897040 24.915230 -0.118069 1.979291 0.029105 -0.010096 915450.000000 0 1 0
22.526110 -1.927003 -11.118040 25.194241 -0.085338 2.027835 0.035544 -0.006877 -204992.000000 0 0 1
23.828610 -1.877103 -11.920340 26.709936 -0.078613 2.033410 0.029214 -0.009028 -678816.000000 0 0 1
24.952210 -1.438203 -11.224840 27.398508 -0.057575 1.992908 0.023052 -0.010172 281326.000000 0 0 1
26.107110 -1.601003 -12.045440 28.796476 -0.061248 2.002364 0.026370 -0.007410 418046.000000 0 0 1
27.228460 -0.599903 -11.618640 29.609824 -0.022029 1.974026 0.027268 -0.004067 164730.000000 0 0 1
28.493870 -0.752203 -12.242440 31.021666 -0.026393 1.976474 0.033372 -0.007203 1015380.000000 0 0 1
29.402020 0.347597 -11.977940 31.750128 0.011822 1.957628 0.040753 -0.009479 348075.000000 0 0 1
29.222370 1.674097 -12.769540 31.934474 0.057226 1.982168 0.039603 -0.008775 -365316.000000 0 0 1
29.538920 1.503297 -14.173140 32.797646 0.050848 2.017660 0.033923 -0.006110 511850.000000 0 0 1
29.409340 2.688797 -14.875340 33.066821 0.091173 2.037402 0.032923 -0.004101 -171254.000000 0 0 1
29.782470 2.454597 -16.381840 34.079103 0.082232 2.072250 0.036133 -0.009217 -360251.000000 0 0 1
28.945230 1.565597 -17.078440 33.644473 0.054036 2.103211 0.037320 -0.007367 -162984.000000 0 0 1
29.209760 1.453697 -18.420240 34.563399 0.049726 2.132868 0.031034 -0.010304 -983472.000000 0 0 1
28.133870 0.829897 -19.272840 34.112252 0.029490 2.171209 0.031631 -0.003923 -640465.000000 0 0 1
28.006000 -0.597703 -19.275340 34.003412 -0.021339 2.173492 0.035084 0.001527 357931.000000 0 0 1
27.369550 -1.152603 -20.438640 34.178337 -0.042088 2.211800 0.022061 0.001658 26553.500000 0 0 1
27.269280 -2.716203 -20.403640 34.165771 -0.099279 2.210796 0.017912 0.010713 626202.000000 0 0 1
26.047010 -3.156303 -19.778640 32.857321 -0.120589 2.216744 0.031101 0.007810 889241.000000 0 0 1
25.852210 -4.555503 -19.768740 32.861717 -0.174423 2.216266 0.031245 0.004187 -194864.000000 0 0 1
26.602240 -5.346703 -18.660740 32.931590 -0.198344 2.173233 0.018019 0.003943 2195860.000000 0 0 1
28.065360 -5.320703 -18.888640 34.245511 -0.187359 2.155036 0.005630 0.000482 2073040.000000 0 0 1
28.723350 -5.496503 -17.628740 34.146959 -0.189074 2.113276 0.002872 0.007085 182609.000000 0 0 1
30.249230 -5.286203 -17.810340 35.498846 -0.173008 2.096378 0.007242 0.006993 165145.000000 0 0 1
30.836240 -6.329603 -18.568840 36.547768 -0.202453 2.103739 0.000714 0.006953 -41552.900000 0 0 1
32.219310 -6.151403 -18.770740 37.792385 -0.188652 2.090566 0.013807 0.011794 175.249000 0 0 1
32.822940 -7.332903 -19.588440 38.920738 -0.219798 2.098199 0.012702 0.017865 -222284.000000 0 0 1
33.229740 -8.294503 -18.665340 39.005247 -0.244612 2.069781 0.018552 0.007499 -183305.000000 0 0 1
33.967090 -9.259603 -19.361440 40.179208 -0.266138 2.073592 0.019341 0.009719 -366672.000000 0 0 1
34.624920 -10.321903 -18.413540 40.552253 -0.289718 2.042124 0.021042 0.001053 -267203.000000 0 0 1
33.677700 -10.911103 -17.519640 39.499081 -0.313314 2.030347 0.010925 -0.002750 304606.000000 0 0 1
34.222960 -11.660403 -16.477840 39.732797 -0.328383 1.998427 0.036784 -0.014791 -841336.000000 0 0 1
35.291500 -11.050303 -15.572940 40.126246 -0.303445 1.969364 0.043296 -0.014227 -427283.000000 0 0 1
-35.786522 -11.946803 -14.584140 40.448713 0.322202 1.939663 0.032196 -0.014986 592485.000000 0 0 1
-35.021188 -13.118803 -14.874040 40.247032 0.358417 1.949341 0.024261 -0.005489 -121346.000000 0 0 1
-33.592124 -12.834603 -15.393840 39.116852 0.364956 1.975270 0.022482 -0.011851 -242335.000000 0 0 1
-33.477404 -12.345003 -16.705340 39.398021 0.353286 2.008670 0.020753 -0.004206 190964.000000 0 0 1
-32.079504 -12.282503 -16.958740 38.308658 0.365659 2.029389 0.046427 -0.009642 340596.000000 0 0 1
-31.659444 -11.380903 -18.153340 38.228119 0.345094 2.065611 0.062000 -0.010640 -28374.600000 0 0 1
-31.873914 -9.977703 -18.035440 37.957582 0.303374 2.065928 0.060709 -0.007315 618927.000000 0 0 1
-33.233024 -9.634003 -18.362640 39.171858 0.282158 2.058695 0.040530 -0.002650 551406.000000 0 0 1
-33.615554 -8.146203 -18.066340 39.022541 0.237751 2.052141 0.046501 -0.002264 -83003.600000 0 0 1
-34.875169 -7.774403 -18.578740 40.272675 0.219335 2.050283 0.047540 -0.000165 -311750.000000 0 0 1
-35.258288 -6.492703 -18.104740 40.163213 0.182107 2.038434 0.039740 0.006304 -65039.300000 0 0 1
24.180836 27.960697 -26.571270 45.525221 0.857764 2.194026 0.029961 0.007064 245521.000000 0 0 1
24.837936 26.820897 -25.927410 44.816450 0.823765 2.187715 0.032102 0.006675 381470.000000 0 0 1
26.029936 26.404497 -26.556690 45.607157 0.792541 2.192342 0.032589 0.003684 -20971.800000 0 0 1
26.832036 25.355497 -25.708040 44.986250 0.757113 2.179086 0.022011 0.003815 -289482.000000 0 0 1
27.386036 25.912297 -24.554140 44.992754 0.757754 2.148063 0.029366 0.006378 60951.000000 0 0 1
27.432436 24.988597 -23.545140 43.947038 0.738812 2.136206 0.024311 0.011339 -336735.000000 0 0 1
28.172336 25.489997 -22.298240 44.052604 0.735454 2.101538 0.006185 0.008303 -299168.000000 0 0 1
27.521536 26.492297 -21.509940 43.840099 0.766345 2.083627 0.010210 0.013533 188532.000000 0 0 1
28.217536 26.699697 -20.291740 43.827592 0.757767 2.052162 0.000616 0.015477 9767.750000 0 0 1
27.584436 27.796097 -19.422940 43.712409 0.789220 2.031228 0.017668 0.008679 -782067.000000 0 0 1
26.505636 27.507297 -18.574940 42.476211 0.803941 2.023393 0.019320 0.009744 -267716.000000 0 0 1
25.724736 28.661997 -18.563340 42.753593 0.839353 2.019939 0.028508 0.005022 -780171.000000 0 0 1
24.569936 28.654197 -17.578840 41.638448 0.861985 2.006643 0.034251 0.006997 -626200.000000 0 0 1
23.555436 27.774397 -18.020040 40.632469 0.867407 2.030284 0.041104 0.003754 -228981.000000 0 0 1
22.537036 27.741297 -17.050840 39.600867 0.888540 2.015918 0.037305 0.002150 -359663.000000 0 0 1
21.483136 26.670397 -17.334340 38.383780 0.892708 2.039361 0.040380 0.006343 -361663.000000 0 0 1
20.735436 26.965097 -18.498240 38.720274 0.915263 2.068877 0.038110 0.008251 240593.000000 0 0 1
19.861336 25.875397 -18.852940 37.675485 0.916141 2.094861 0.035887 0.006245 104186.000000 0 0 1
19.139236 26.098797 -20.197740 38.149787 0.938045 2.128728 0.029427 0.011514 -444362.000000 0 0 1
18.114736 26.997197 -20.007240 38.174363 0.979810 2.122456 0.015421 0.009039 -856004.000000 0 0 1
17.119536 26.883697 -21.001940 38.169270 1.003757 2.153438 0.005742 0.016034 285910.000000 0 0 1
15.981836 27.946397 -20.932740 38.400518 1.051314 2.147324 0.007029 0.010040 367745.000000 0 0 1
15.293536 27.768897 -19.688940 37.318337 1.067383 2.126562 0.014968 0.009761 -482268.000000 0 0 1
14.302436 28.723397 -19.509240 37.552678 1.108801 2.117081 0.015785 0.001841 -307810.000000 0 0 1
13.709536 28.662597 -18.105340 36.569101 1.124653 2.088746 0.024865 -0.001244 -456293.000000 0 0 1
13.085136 27.457397 -17.767540 35.225203 1.126075 2.099482 0.024175 0.001868 -105445.000000 0 0 1
12.290936 27.536297 -16.584040 34.414316 1.150979 2.073611 0.037435 -0.000777 552982.000000 0 0 1
11.418836 26.252897 -16.324940 32.956154 1.160524 2.089038 0.048870 -0.007810 354282.000000 0 0 1
12.195736 25.142997 -15.928840 32.165731 1.119176 2.088875 0.039064 -0.005927 -212158.000000 0 0 1
11.349736 24.035397 -15.735540 30.888898 1.129627 2.105311 0.053039 -0.007828 429362.000000 0 0 1
12.075536 22.670797 -16.049740 30.288245 1.081373 2.129279 0.040975 -0.001805 244362.000000 0 0 1
12.345236 22.488997 -17.408240 31.003333 1.068763 2.166989 0.034893 0.003447 -41479.300000 0 0 1
13.493936 21.713097 -17.698440 31.093081 1.014743 2.176339 0.034901 0.004302 174194.000000 0 0 1
13.156436 20.218997 -17.844040 30.005156 0.993931 2.207688 0.043193 0.003695 114061.000000 0 0 1
12.792936 19.491697 -16.656040 28.653257 0.989986 2.191118 0.050655 -0.000835 131635.000000 0 0 1
12.240236 18.188097 -16.950740 27.712052 0.978435 2.228971 0.039208 -0.002438 266938.000000 0 0 1
13.285536 17.043097 -17.055740 27.529455 0.908665 2.238959 0.049281 -0.004093 34902.200000 0 0 1
13.830536 16.697997 -15.791940 26.823352 0.879051 2.200294 0.047366 -0.007096 40340.500000 0 0 1
14.931136 15.851997 -16.068840 27.063485 0.815304 2.206503 0.056702 -0.008370 -1228890.000000 0 0 1
15.454036 15.096497 -14.868740 26.226149 0.773696 2.173587 0.083455 -0.000409 -753151.000000 0 0 1
16.249136 15.791797 -13.916940 26.591286 0.771126 2.121591 0.040036 0.005712 188111.000000 0 0 1
17.445336 16.398397 -14.333340 27.905050 0.754474 2.110226 0.021861 0.002299 -308943.000000 0 0 1
18.569136 15.399997 -14.821340 28.313333 0.692373 2.121721 0.015806 -0.002575 -442187.000000 0 0 1
19.065836 14.495797 -13.815540 27.649654 0.650062 2.094007 0.046757 -0.005390 980823.000000 0 0 1
19.965636 15.019897 -12.802440 28.073589 0.644963 2.044327 0.037455 -0.006030 -106197.000000 0 0 1
20.496436 13.954197 -11.899440 27.503094 0.597731 2.018235 0.039197 -0.011731 -813516.000000 0 0 1
19.566536 13.349497 -11.061240 26.142101 0.598722 2.007682 0.073453 -0.015281 -148624.000000 0 0 1
20.093036 12.328797 -10.270640 25.714108 0.550349 1.981677 0.073073 -0.017664 -316844.000000 0 0 1
20.378736 10.939897 -10.936140 25.584632 0.492675 2.012466 0.060288 -0.017329 -484549.000000 0 0 1
21.530236 11.070197 -11.749040 26.909854 0.474919 2.022620 0.041021 -0.009291 331586.000000 0 0 1
21.822036 9.996497 -12.601840 27.109732 0.429563 2.054257 0.022558 -0.005441 112744.000000 0 0 1
22.483336 8.780597 -11.884240 26.904171 0.372323 2.028317 0.023123 0.002229 -103828.000000 0 0 1
21.475036 8.158597 -11.114840 25.520179 0.363069 2.021425 0.026533 -0.005192 869283.000000 0 0 1
22.023036 7.070197 -10.360240 25.344356 0.310643 1.991912 0.018577 0.000656 -476579.000000 0 0 1
22.361536 5.746797 -11.133940 25.632569 0.251551 2.020132 0.029832 -0.007580 298705.000000 0 0 1
21.257336 4.947197 -11.559340 24.697518 0.228659 2.057864 0.038787 -0.013536 608475.000000 0 1 0
20.338836 5.383697 -12.517840 24.481600 0.258766 2.107512 -0.002011 -0.012684 -156622.000000 0 1 0
19.340836 4.256197 -12.888240 23.628158 0.216610 2.147735 0.010952 -0.027175 -54312.200000 0 1 0
19.957536 3.220097 -13.643540 24.388900 0.159969 2.164477 0.015822 -0.016519 369499.000000 0 1 0
19.194936 2.048097 -13.806440 23.733058 0.106298 2.191661 0.031520 -0.014840 -240675.000000 0 1 0
19.972936 1.007297 -14.696840 24.817935 0.050390 2.204566 0.047437 -0.008610 251671.000000 0 1 0
20.998536 0.329697 -13.927640 25.199729 0.015700 2.156385 0.055212 -0.004016 362951.000000 0 0 1
22.097036 0.184297 -14.787140 26.588954 0.008340 2.160529 0.031640 -0.008706 -599707.000000 0 0 1
22.248436 -1.203003 -15.380840 27.074164 -0.054019 2.174992 0.036831 -0.002593 -282779.000000 0 0 1
21.215336 -1.518703 -16.318840 26.808608 -0.071463 2.225238 0.029148 0.001309 683997.000000 0 0 1
21.655836 -2.619303 -17.174340 27.763175 -0.120367 2.237758 0.042872 -0.002796 107661.000000 0 0 1
20.497136 -3.301003 -17.947540 27.443458 -0.159676 2.283633 0.029601 -0.002399 -137301.000000 0 0 1
19.841736 -4.208203 -17.086740 26.520937 -0.208992 2.270869 0.045328 -0.005640 -116094.000000 0 0 1
18.896736 -4.962003 -17.780840 26.417160 -0.256788 2.309161 0.046711 -0.008947 -304018.000000 0 0 1
18.269036 -6.151203 -16.958040 25.674307 -0.324778 2.292289 0.055228 -0.016265 235565.000000 0 0 1
19.211636 -7.147203 -16.509940 26.320098 -0.356160 2.248846 0.055294 -0.007120 494636.000000 0 0 1
18.601236 -8.191003 -15.832040 25.763384 -0.414798 2.232570 0.064330 -0.004691 -390648.000000 0 0 1
19.607436 -9.273603 -15.459940 26.635709 -0.441785 2.190043 0.078732 -0.005381 -279809.000000 0 0 1
20.089136 -10.003503 -16.562640 27.892014 -0.462011 2.206586 0.072883 -0.008515 168191.000000 0 0 1
21.015236 -10.937603 -16.046440 28.613974 -0.479882 2.166136 0.064085 -0.014400 -256786.000000 0 0 1
21.701436 -11.745603 -17.215440 30.087919 -0.496090 2.179947 0.047997 -0.013149 257319.000000 0 0 1
22.749336 -11.059603 -17.902840 30.989656 -0.452507 2.186709 0.039306 -0.007769 196298.000000 0 0 1
23.305736 -11.923003 -18.859740 32.264610 -0.472877 2.195101 0.037824 -0.005656 -674562.000000 0 0 1
22.542136 -12.048503 -20.196340 32.576163 -0.490856 2.239505 0.061892 -0.009272 -302549.000000 0 0 1
21.308136 -12.708203 -20.119240 31.942430 -0.537769 2.252168 0.084573 -0.023556 -382199.000000 0 0 1
21.287936 -14.125903 -19.984340 32.435955 -0.585851 2.234600 0.070949 -0.011063 -272982.000000 0 0 1
19.799636 -14.537203 -19.834240 31.571394 -0.633322 2.250078 0.069531 -0.015731 202350.000000 0 0 1
19.051736 -14.061203 -20.910940 31.590401 -0.635811 2.294200 0.059768 -0.009187 -970428.000000 0 0 1
17.681536 -14.194503 -20.684540 30.691543 -0.676438 2.310338 0.073652 -0.007403 -127608.000000 0 0 1
16.852036 -13.329803 -21.696040 30.535109 -0.669223 2.361044 0.062622 -0.007662 146933.000000 0 0 1
16.824436 -13.925403 -23.017540 31.729885 -0.691398 2.382443 0.051612 0.000923 599746.000000 0 0 1
15.938836 -13.290303 -23.968440 31.704333 -0.695032 2.427975 0.055737 -0.010143 375429.000000 0 0 1
16.001436 -13.977403 -25.350460 33.076571 -0.717985 2.444041 0.044529 -0.013580 -343888.000000 0 0 1
15.123536 -15.076403 -25.407110 33.189463 -0.783837 2.442641 0.059461 -0.017389 95974.600000 0 0 1
15.160636 -15.701403 -26.660780 34.455422 -0.802918 2.455577 0.060742 -0.015401 -489323.000000 0 0 1
16.142536 -16.861803 -26.815190 35.552162 -0.807188 2.425306 0.055874 -0.013056 479534.000000 0 0 1
17.533536 -16.502603 -26.895940 36.099201 -0.755118 2.411416 0.053455 -0.010056 707900.000000 0 0 1
18.236836 -17.732103 -26.963110 37.067761 -0.771367 2.385323 0.042220 -0.006466 1174040.000000 0 0 1
19.812036 -17.620103 -27.074790 37.894973 -0.726907 2.366661 0.031578 -0.002606 1110910.000000 0 0 1
20.401936 -17.140503 -25.907020 37.164627 -0.698742 2.342124 0.038474 -0.003190 -447127.000000 0 0 1
21.808236 -17.158103 -26.013420 38.035479 -0.666623 2.323926 0.041223 0.003157 -66978.000000 0 0 1
22.393136 -16.596903 -24.657240 37.214099 -0.637820 2.295052 0.040153 0.001849 -65503.800000 0 0 1
22.284436 -15.176003 -24.464140 36.406061 -0.597869 2.307675 0.055218 -0.007974 293983.000000 0 0 1
20.936836 -14.779403 -24.190140 35.241236 -0.614678 2.327345 0.065560 -0.007839 685960.000000 0 0 1
20.943436 -13.335103 -23.619540 34.268573 -0.566983 2.331247 0.072177 -0.005938 71936.900000 0 0 1
20.911936 -12.349403 -24.588640 34.560353 -0.533437 2.362384 0.078355 -0.015538 204297.000000 0 0 1
20.562136 -11.132303 -23.901740 33.436847 -0.496215 2.367181 0.079574 -0.017769 82428.400000 0 0 1
20.531236 -9.897503 -24.817040 33.695365 -0.449201 2.398696 0.096158 -0.019307 -96358.700000 0 0 1
20.124536 -8.748203 -24.091840 32.587493 -0.410061 2.402822 0.101166 -0.016406 150246.000000 0 0 1
19.993736 -7.659303 -24.931140 32.862990 -0.365840 2.432018 0.085821 -0.018773 -31007.200000 0 0 1
19.432236 -6.451403 -24.109340 31.630565 -0.320545 2.437527 0.093001 -0.024368 772666.000000 0 0 1
18.062736 -6.599103 -23.692440 30.514624 -0.350278 2.459776 0.092305 -0.016830 868697.000000 0 0 1
17.628236 -5.643803 -22.686240 29.279219 -0.309845 2.457233 0.076258 -0.016689 37693.600000 0 0 1
18.110236 -5.922203 -21.231140 28.527433 -0.316048 2.410186 0.077181 -0.020480 -464742.000000 0 0 1
17.581336 -7.018403 -20.531040 27.926420 -0.379813 2.396733 0.083601 -0.015409 253796.000000 0 0 1
18.193836 -8.232003 -20.897640 28.904893 -0.424899 2.378901 0.091895 -0.014692 -242376.000000 0 0 1
17.921836 -9.278903 -19.858740 28.313597 -0.477741 2.348135 0.084216 -0.015561 204108.000000 0 0 1
16.559436 -9.663903 -19.892040 27.627869 -0.528265 2.374597 0.073187 -0.011611 46418.400000 0 0 1
16.258336 -10.688403 -18.949840 27.160115 -0.581567 2.342990 0.074419 -0.010629 549788.000000 0 0 1
14.748436 -10.855603 -18.536740 26.057075 -0.634514 2.362270 0.070948 -0.009751 787216.000000 0 0 1
14.173236 -9.951603 -17.623340 24.708240 -0.612161 2.364931 0.072041 -0.009434 83844.800000 0 1 0
14.165936 -8.582203 -17.996540 24.458196 -0.544698 2.397656 0.069841 -0.018990 -538247.000000 0 1 0
13.016436 -7.773303 -17.349240 23.040138 -0.538352 2.423407 0.058174 -0.001652 -170360.000000 0 1 0
11.802136 -7.845203 -18.042540 22.942773 -0.586659 2.475780 0.046272 -0.012644 -25485.300000 0 1 0
10.905236 -6.820503 -17.617240 21.813082 -0.558911 2.510945 0.034106 -0.007106 -834983.000000 0 1 0
9.451536 -6.929103 -17.947040 21.434557 -0.632610 2.563113 0.039730 -0.005301 -1009410.000000 0 1 0
9.112236 -6.610303 -19.295940 22.339701 -0.627591 2.613463 0.034116 -0.013007 75938.700000 0 1 0
7.746636 -6.232703 -19.367940 21.770945 -0.677521 2.667316 0.026674 -0.023585 296838.000000 0 1 0
7.348236 -5.874403 -20.827640 22.853791 -0.674393 2.717331 0.028617 -0.028205 -18198.200000 0 1 0
7.293036 -6.945903 -21.705740 23.928499 -0.761024 2.707158 0.032385 -0.022092 -2003.360000 0 1 0
6.552336 -6.651203 -22.856640 24.690030 -0.792886 2.753794 0.041414 -0.024884 -309537.000000 0 1 0
6.585236 -7.754903 -23.965240 26.035294 -0.866784 2.740130 0.038045 -0.015995 -295057.000000 0 0 1
5.940936 -8.939503 -23.590340 25.917437 -0.984246 2.714590 0.044520 -0.017456 -29370.800000 0 0 1
5.660536 -9.739003 -24.699840 27.147227 -1.044298 2.713713 0.038789 -0.006479 -125891.000000 0 0 1
4.928036 -11.050003 -24.359040 27.198362 -1.151294 2.680590 0.036320 -0.010034 264413.000000 0 0 1
5.659936 -11.976803 -23.556540 27.025714 -1.129329 2.629323 0.033843 -0.011622 345118.000000 0 0 1
4.810436 -13.138903 -23.353640 27.224319 -1.219832 2.601815 0.043549 -0.011593 -259461.000000 0 0 1
5.353136 -14.351803 -22.583640 27.288296 -1.213786 2.545605 0.057463 -0.009752 -438181.000000 0 0 1
6.419736 -15.053003 -23.215040 28.403238 -1.167677 2.527571 0.061965 -0.007881 1410170.000000 0 0 1
7.708336 -14.434403 -23.516140 28.649245 -1.080300 2.533658 0.061738 -0.007333 1104850.000000 0 0 1
8.474536 -13.849403 -22.347540 27.623110 -1.021668 2.513273 0.055211 -0.001678 -921432.000000 0 0 1
9.035836 -14.741403 -21.406440 27.517103 -1.020905 2.462165 0.058900 0.002243 300500.000000 0 0 1
8.051636 -15.355103 -20.586340 26.914780 -1.087849 2.441638 0.052833 -0.000377 -44272.900000 0 0 1
8.627336 -15.740503 -19.212640 26.292962 -1.069415 2.390164 0.051377 -0.003472 402305.000000 0 0 1
9.586336 -16.798703 -19.266540 27.300069 -1.052230 2.354253 0.072369 -0.007127 138302.000000 0 0 1
10.228136 -17.187903 -18.076840 26.959430 -1.034004 2.305706 0.063453 -0.004131 122209.000000 0 0 1
9.228236 -17.859803 -17.070240 26.372826 -1.093875 2.274789 0.046548 -0.004747 29528.400000 0 0 1
8.956036 -19.252503 -17.312640 27.397024 -1.135384 2.254820 0.045235 -0.006491 247835.000000 0 0 1
8.174936 -19.603803 -18.459840 28.140795 -1.175715 2.286279 0.046944 -0.000844 619471.000000 0 0 1
6.627236 -19.417303 -18.293940 27.488545 -1.241888 2.298975 0.035275 0.003202 553606.000000 0 0 1
6.129736 -18.113503 -17.949040 26.226716 -1.244486 2.324549 0.038739 0.004727 10494.800000 0 0 1
4.725936 -18.011803 -17.816640 25.771926 -1.314200 2.334110 0.028994 0.004176 250263.000000 0 0 1
4.283536 -16.578203 -17.501240 24.484257 -1.317943 2.367128 0.005432 0.014114 -41469.600000 0 1 0
4.535436 -16.145903 -16.162740 23.291511 -1.296950 2.337733 -0.004682 0.011547 3174.240000 0 1 0
4.158436 -14.845303 -15.936540 22.173157 -1.297678 2.372772 -0.008264 0.016183 -85895.000000 0 1 0
10.450936 30.160597 -18.143540 36.716096 1.237234 2.087662 0.029777 -0.013141 110922.000000 0 0 1
9.369836 29.715197 -18.963940 36.474893 1.265343 2.117551 0.047567 -0.020669 909220.000000 0 0 1
8.357336 28.949097 -18.244440 35.224351 1.289747 2.115249 0.047709 -0.020088 793290.000000 0 0 1
7.293136 28.386097 -19.219040 35.047565 1.319309 2.151210 0.055027 -0.020363 -194552.000000 0 0 1
6.553736 29.470597 -19.709040 36.054317 1.351975 2.149153 0.066758 -0.036565 -467433.000000 0 0 1
5.827936 29.014597 -20.833640 36.191881 1.372572 2.184188 0.053321 -0.035940 117353.000000 0 0 1
4.785136 30.014797 -21.415340 37.180672 1.412701 2.184599 0.052594 -0.043520 562766.000000 0 0 1
3.605636 30.062297 -20.624040 36.634592 1.451428 2.168767 0.057032 -0.036821 -376818.000000 0 0 1
2.545536 30.698897 -21.261440 37.429278 1.488066 2.174922 0.060791 -0.034253 -358829.000000 0 0 1
1.152836 30.291297 -20.685840 36.698715 1.532756 2.169614 0.057497 -0.024604 309594.000000 0 0 1
0.681236 28.962197 -20.967940 35.762095 1.547279 2.197302 0.056378 -0.046739 12104.600000 0 0 1
0.231736 28.867997 -22.309440 36.484601 1.562769 2.228720 0.064482 -0.048144 -578233.000000 0 0 1
-0.269664 27.463197 -22.639040 35.592500 -1.560978 2.260180 0.066022 -0.045361 383182.000000 0 0 1
-1.296464 26.960297 -21.788440 34.688248 -1.522745 2.249933 0.066760 -0.046473 -65439.300000 0 0 1
-1.941064 25.841997 -22.276740 34.173523 -1.495824 2.280846 0.061469 -0.049634 -543293.000000 0 0 1
-3.055564 25.415997 -21.323040 33.316384 -1.451148 2.265316 0.044976 -0.039640 -564169.000000 0 0 1
-4.124864 26.328597 -21.269340 34.096838 -1.415391 2.244382 0.045977 -0.035752 22148.100000 0 0 1
-5.092864 25.871297 -20.340740 33.301757 -1.376428 2.227868 0.042593 -0.031798 362638.000000 0 0 1
-6.233864 26.900097 -20.061140 34.131007 -1.343075 2.199094 0.035190 -0.039763 197877.000000 0 0 1
-7.278464 26.419797 -19.257740 33.493914 -1.301972 2.183354 0.044089 -0.039717 -251868.000000 0 0 1
-8.182164 27.479397 -18.845540 34.310632 -1.281399 2.152278 0.036726 -0.044013 728559.000000 0 0 1
-9.488464 26.855197 -18.304140 33.856670 -1.231167 2.141989 0.045916 -0.039093 -142304.000000 0 0 1
-9.214164 25.968597 -17.251540 32.509760 -1.229834 2.130172 0.049815 -0.042853 -62977.200000 0 0 1
-10.443364 25.402297 -16.811340 32.201890 -1.180742 2.120062 0.024833 -0.038317 323963.000000 0 0 1
-10.543664 24.682397 -15.527940 31.008168 -1.167086 2.095284 0.032272 -0.021126 -351230.000000 0 0 1
-9.767364 23.508497 -15.517840 29.813658 -1.177015 2.118226 0.044634 -0.022942 -325599.000000 0 0 1
-9.880264 22.812597 -14.311840 28.685588 -1.162080 2.093150 0.052622 -0.003185 -246452.000000 0 0 1
-9.311664 21.385397 -14.251340 27.333917 -1.160132 2.119263 0.067080 0.004590 -169060.000000 0 0 1
-9.989864 20.329097 -14.909440 27.117540 -1.114047 2.152931 0.052255 0.006619 -426684.000000 0 0 1
-10.034064 20.497797 -16.363140 28.081925 -1.115569 2.192835 0.067747 -0.003108 -10143.900000 0 0 1
-8.798864 20.139697 -17.221540 27.921477 -1.158897 2.235448 0.059231 -0.006467 -45277.100000 0 0 1
-8.315364 18.834697 -17.079540 26.750734 -1.155040 2.263305 0.060192 0.000359 82906.200000 0 0 1
-7.237464 18.685997 -18.010640 26.943098 -1.201268 2.302945 0.056652 -0.005360 382703.000000 0 0 1
-6.683964 17.243797 -18.132440 25.899986 -1.201012 2.346326 0.035038 -0.005624 -75652.800000 0 0 1
-7.568064 16.237897 -18.595240 25.821074 -1.134656 2.374826 0.047468 -0.018650 -415800.000000 0 0 1
-7.400264 15.691697 -19.921940 26.417361 -1.130123 2.425114 0.039268 -0.020465 327447.000000 0 0 1
-6.195464 14.711897 -19.971340 25.567129 -1.172217 2.467275 0.027951 -0.012750 176720.000000 0 0 1
-6.480064 13.479597 -19.217540 24.351686 -1.122682 2.480247 0.019639 -0.014509 243970.000000 0 1 0
-5.329264 12.769297 -18.775940 23.323634 -1.175423 2.506502 0.019129 -0.006821 485365.000000 0 1 0
-4.587464 13.364997 -17.519940 22.508138 -1.240152 2.462881 0.021617 -0.000775 -183954.000000 0 1 0
-3.912264 14.555997 -17.733140 23.273313 -1.308228 2.437118 0.010766 -0.005295 -595478.000000 0 1 0
-3.612764 15.098397 -16.452140 22.620490 -1.335931 2.385193 0.026726 0.007551 1477.170000 0 1 0
-2.745164 16.367897 -16.492040 23.397251 -1.404626 2.353037 0.036117 -0.000259 -200536.000000 0 1 0
-3.367664 17.522497 -16.953840 24.613244 -1.380921 2.330642 0.028071 0.001261 647407.000000 0 1 0
-2.410664 18.632297 -16.832240 25.224950 -1.442130 2.301354 0.038895 -0.005228 901302.000000 0 0 1
-2.982164 19.945597 -17.344540 26.599872 -1.422381 2.281086 0.043668 -0.009737 131565.000000 0 0 1
-3.099664 19.931697 -18.778040 27.558941 -1.416518 2.320439 0.050999 -0.012141 72596.400000 0 0 1
-3.714764 21.150497 -19.256040 28.843337 -1.396935 2.301787 0.061889 -0.013288 761687.000000 0 0 1
-2.716364 22.370097 -19.420340 29.748101 -1.449960 2.282106 0.044357 -0.020357 -376696.000000 0 0 1
-1.709664 22.158097 -20.376740 30.151546 -1.493791 2.312860 0.057641 -0.012640 -261809.000000 0 0 1
-0.610664 23.013797 -20.151540 30.595626 -1.544268 2.289808 0.059527 -0.022752 91964.500000 0 0 1
0.426736 22.547397 -19.105240 29.556343 1.551872 2.273654 0.072467 -0.022538 -774864.000000 0 0 1
-0.071364 22.657997 -17.779440 28.801014 -1.567647 2.236128 0.065483 -0.019378 -349280.000000 0 0 1
0.744936 21.962897 -16.855940 27.695604 1.536891 2.225109 0.072009 -0.021452 -328691.000000 0 0 1
0.345536 22.028197 -15.400040 26.879771 1.555112 2.180864 0.078345 -0.021649 251709.000000 0 0 1
-0.726264 21.176797 -14.939840 25.926493 -1.536514 2.184915 0.068623 -0.012448 486606.000000 0 0 1
-0.689764 21.050997 -13.542040 25.040110 -1.538042 2.142201 0.079075 -0.017747 174590.000000 0 0 1
-1.559864 19.879497 -13.005440 23.806912 -1.492491 2.148723 0.055321 -0.012261 -48949.300000 0 1 0
-1.118264 18.555397 -13.164740 22.778579 -1.510603 2.187003 0.048686 -0.009875 -414357.000000 0 1 0
-1.972364 17.586697 -12.615640 21.733304 -1.459112 2.190108 0.039271 -0.009920 -219347.000000 0 1 0
-1.390064 16.161197 -12.822940 20.677146 -1.484995 2.239731 0.020166 -0.007414 186752.000000 0 1 0
-0.297264 15.851697 -11.923340 19.837608 -1.552046 2.215607 0.018038 -0.008413 720467.000000 0 1 0
0.340336 14.612297 -12.150140 19.006866 1.547509 2.264319 0.023412 0.000081 329443.000000 0 1 0
0.907936 14.181397 -13.519940 19.614412 1.506861 2.331299 0.014236 0.006722 -853052.000000 0 1 0
-0.018364 13.801497 -14.483540 20.006364 -1.569466 2.380303 0.014819 -0.005485 -470412.000000 0 1 0
0.604736 13.000197 -15.438640 20.192138 1.524312 2.441196 0.015794 -0.003351 -399472.000000 0 1 0
-0.131064 12.844097 -16.788740 21.138822 -1.560592 2.488509 0.013753 -0.000075 -55032.800000 0 1 0
-0.154164 14.111197 -17.445940 22.439039 -1.559872 2.461448 0.016047 -0.002347 22968.400000 0 1 0
-0.590664 14.062997 -18.838940 23.516429 -1.528820 2.499922 0.020456 -0.003477 -130700.000000 0 1 0
-1.043664 15.403297 -19.404540 24.796914 -1.503144 2.469529 0.018972 -0.004905 717319.000000 0 1 0
0.001936 16.385297 -19.620740 25.562695 1.570678 2.445812 0.013496 -0.004441 503163.000000 0 0 1
-0.673064 17.588297 -19.909140 26.573955 -1.532547 2.417646 0.038553 -0.013993 -252827.000000 0 0 1
0.201736 18.719397 -20.334940 27.639940 1.560020 2.397509 0.046179 -0.012756 -397163.000000 0 0 1
0.844636 18.428897 -21.569640 28.382865 1.524996 2.434037 0.040995 -0.019224 190603.000000 0 0 1
1.570036 19.597297 -22.005140 29.508393 1.490852 2.412418 0.040613 -0.019069 117094.000000 0 0 1
2.165636 19.327697 -23.377540 30.409854 1.459213 2.447679 0.052168 -0.030903 -470721.000000 0 0 1
3.187036 18.384997 -23.384740 29.916741 1.399152 2.468120 0.048090 -0.030906 -458191.000000 0 0 1
3.453036 17.984997 -24.729040 30.771886 1.381109 2.504157 0.050292 -0.040907 -124448.000000 0 0 1
4.534636 16.917897 -24.788240 30.351853 1.308914 2.526459 0.045915 -0.033300 -822772.000000 0 0 1
5.790436 17.255697 -24.240340 30.313072 1.247037 2.497535 0.034148 -0.021055 -345910.000000 0 0 1
6.809436 16.370197 -24.588540 30.314156 1.176603 2.516868 0.033035 -0.013131 -213.709000 0 0 1
7.317536 16.411897 -26.066060 31.659693 1.151384 2.538032 0.027742 -0.017907 -1033300.000000 0 0 1
8.311536 17.411097 -26.337540 32.648031 1.125416 2.509362 0.011818 -0.006599 456122.000000 0 0 1
8.782736 17.408397 -27.660710 33.842334 1.103546 2.527576 0.014005 -0.011616 213797.000000 0 0 1
9.427636 16.156197 -28.310710 33.932275 1.042575 2.557712 0.001348 -0.012805 555613.000000 0 0 1
10.699636 15.745397 -27.734570 33.639353 0.973934 2.540058 0.020184 -0.015002 904835.000000 0 0 1
11.069336 14.481297 -28.286830 33.650897 0.918150 2.569180 0.011466 -0.010030 -161096.000000 0 0 1
10.648736 13.191797 -27.502910 32.308345 0.891666 2.589185 0.014649 -0.015258 63838.000000 0 0 1
9.238236 13.092597 -27.514740 31.840572 0.956317 2.614237 0.034855 -0.022977 -154576.000000 0 0 1
8.726136 12.474397 -26.351580 30.432906 0.960390 2.617725 0.035826 -0.018987 -43154.200000 0 0 1
7.239836 12.097197 -26.449460 29.972176 1.031501 2.651878 0.036171 -0.022752 200396.000000 0 0 1
6.288636 13.154397 -26.350020 30.114924 1.124852 2.636195 0.038874 -0.019190 309204.000000 0 0 1
5.004336 12.588097 -26.062580 29.372804 1.192408 2.662260 0.049501 -0.025210 229622.000000 0 0 1
3.833636 13.521397 -26.264960 29.788808 1.294523 2.650262 0.067042 -0.022448 -975399.000000 0 0 1
3.589836 13.865397 -27.642830 31.132976 1.317453 2.663547 0.067992 -0.025123 2296.670000 0 0 1
4.489436 14.766897 -28.225800 32.170049 1.275655 2.641199 0.075441 -0.031586 -359500.000000 0 0 1
4.276436 14.684797 -29.692500 33.400235 1.287418 2.665933 0.068295 -0.034853 -128408.000000 0 0 1
4.870036 13.587197 -30.346020 33.603721 1.226633 2.697627 0.058053 -0.029295 -312963.000000 0 0 1
4.802236 13.600797 -31.736180 34.860124 1.231376 2.715013 0.051014 -0.025391 -760491.000000 0 0 1
5.848336 12.648997 -32.398650 35.268579 1.137715 2.735386 0.043558 -0.019848 154656.000000 0 0 1
7.215036 12.962297 -32.252640 35.500854 1.062887 2.710484 0.039187 -0.012861 91038.000000 0 0 1
7.799836 13.005197 -30.939490 34.456126 1.030562 2.685860 0.030567 -0.018682 -838379.000000 0 0 1
7.678236 11.724397 -30.047530 33.155253 0.990988 2.705165 0.030080 -0.014915 159307.000000 0 0 1
8.682936 10.737597 -30.329990 33.325630 0.890804 2.714346 0.013659 -0.005836 309777.000000 0 0 1
8.452236 9.632397 -29.460510 32.127013 0.850563 2.731293 0.022225 -0.008884 4591.890000 0 0 1
9.349436 8.412797 -29.821250 32.365013 0.732715 2.742474 0.023089 -0.008571 665279.000000 0 0 1
10.631236 8.591697 -29.213830 32.253500 0.679694 2.703959 0.021918 -0.009208 343555.000000 0 0 1
11.469336 7.460097 -29.447060 32.470418 0.576683 2.706637 0.008919 -0.000883 -1499790.000000 0 0 1
12.823236 7.522497 -28.867620 32.470953 0.530531 2.666016 0.014071 -0.000763 -1034680.000000 0 0 1
13.527136 6.312697 -28.496530 32.169640 0.436629 2.659056 0.027396 -0.007515 426997.000000 0 0 1
14.288936 5.784397 -29.575200 33.351542 0.384652 2.661109 0.022515 -0.002125 -371724.000000 0 0 1
15.158436 4.557297 -29.235910 33.245835 0.292048 2.645367 0.031246 -0.009421 50110.900000 0 0 1
16.134336 4.838597 -28.262760 32.901556 0.291360 2.604129 0.019189 -0.009917 146725.000000 0 0 1
17.028936 3.755097 -28.126620 33.093687 0.217039 2.586609 0.035130 -0.015906 41723.200000 0 0 1
17.791736 3.603897 -26.772020 32.346174 0.199856 2.545743 0.032601 -0.013934 -80383.500000 0 0 1
18.733536 4.632597 -26.700810 32.944492 0.242426 2.515765 0.045790 -0.015940 146865.000000 0 0 1
19.302436 4.840897 -25.362270 32.237603 0.245724 2.476289 0.045431 -0.012273 325488.000000 0 0 1
20.241836 6.070297 -25.288600 32.955936 0.291355 2.445488 0.032936 -0.009349 -87065.300000 0 0 1
19.614036 7.307797 -25.502800 32.992531 0.356647 2.454332 0.035531 -0.006973 547825.000000 0 0 1
20.545936 8.238797 -26.092330 34.217290 0.381363 2.438039 0.033801 -0.015798 -15719.800000 0 0 1
20.728236 8.121497 -27.628140 35.481440 0.373425 2.463331 0.056038 -0.014478 23952.800000 0 0 1
19.765136 8.546797 -28.590850 35.793086 0.408137 2.496063 0.049578 -0.011537 174060.000000 0 0 1
18.620436 7.714697 -28.668780 35.044773 0.392784 2.528829 0.047150 -0.013613 -240214.000000 0 0 1
17.366336 8.394097 -29.219720 35.012034 0.450243 2.558134 0.037313 -0.009373 -413285.000000 0 0 1
17.347536 8.604197 -30.607690 36.218778 0.460434 2.577507 0.034644 -0.003932 244585.000000 0 0 1
16.231736 9.398397 -30.941320 36.182377 0.524845 2.596634 0.015842 0.008009 236316.000000 0 0 1
15.362736 8.992797 -32.159670 36.757699 0.529588 2.636046 0.008686 0.010257 281841.000000 0 0 1
14.857636 7.678397 -32.230260 36.311111 0.476996 2.662936 0.013275 0.004206 695724.000000 0 0 1
13.777736 7.627297 -33.179140 36.726788 0.505600 2.698440 0.001560 0.008999 599779.000000 0 0 1
13.205436 6.239497 -33.397560 36.451500 0.441402 2.729336 0.002756 0.002942 -19524.000000 0 0 1
12.738736 5.558997 -32.255260 35.122352 0.411474 2.734734 0.014248 0.000890 -238813.000000 0 0 1
11.809136 4.621897 -32.707970 35.080321 0.373056 2.771721 0.009050 -0.002539 -278776.000000 0 0 1
11.518036 3.433897 -31.740440 33.939834 0.289742 2.779612 0.017180 -0.001569 68827.000000 0 0 1
12.646236 2.643097 -31.338070 33.896723 0.206037 2.750561 0.022671 -0.006687 540649.000000 0 0 1
12.293536 1.512697 -30.551060 32.966445 0.122433 2.756416 0.027374 -0.008448 -329242.000000 0 0 1
11.686236 0.246897 -31.184340 33.303034 0.021124 2.782971 0.023896 -0.006160 -121727.000000 0 0 1
12.514036 -0.647203 -31.934090 34.304607 -0.051672 2.767660 0.026647 -0.006479 623125.000000 0 0 1
13.450536 -1.327003 -31.043070 33.857791 -0.098340 2.730955 0.030730 -0.013933 703573.000000 0 0 1
14.068236 -2.570503 -31.731800 34.805601 -0.180723 2.718167 0.034607 -0.016541 445641.000000 0 0 1
13.097436 -3.622003 -31.818870 34.599165 -0.269800 2.737966 0.031367 -0.012749 398906.000000 0 0 1
13.434936 -4.620803 -32.742180 35.691731 -0.331265 2.732194 0.038705 -0.023194 -88034.800000 0 0 1
12.715236 -5.963403 -32.478930 35.385311 -0.438539 2.733463 0.043944 -0.018445 11271.700000 0 0 1
13.173236 -6.598903 -31.314150 34.607161 -0.464393 2.701814 0.044754 -0.018267 201985.000000 0 0 1
12.739236 -7.976703 -31.281210 34.704899 -0.559428 2.693670 0.052207 -0.021812 -1432.610000 0 0 1
13.124736 -8.578503 -29.941480 33.798544 -0.578911 2.659185 0.030506 -0.017332 917053.000000 0 0 1
14.547236 -8.815203 -29.873520 34.376693 -0.544798 2.623984 0.055204 -0.016698 934509.000000 0 0 1
15.070936 -9.408503 -28.715140 33.767029 -0.558082 2.587522 0.064089 -0.008355 99561.300000 0 0 1
14.867836 -10.998503 -28.642880 34.094489 -0.636910 2.568269 0.044125 -0.009865 -917819.000000 0 0 1
13.549336 -11.388603 -28.538870 33.582017 -0.698970 2.586451 0.040239 -0.012026 -1062540.000000 0 0 1
13.486236 -12.772003 -28.810490 34.278957 -0.758205 2.568949 0.050934 -0.021073 279882.000000 0 0 1
-10.176164 -2.761503 -17.918840 20.790984 0.264988 2.609715 0.014334 0.010600 286338.000000 0 1 0
-10.920664 -2.275403 -19.042440 22.069274 0.205419 2.611675 0.016063 0.007703 693867.000000 0 1 0
-12.079664 -3.081103 -19.304540 22.979920 0.249740 2.568192 0.020916 0.002647 173186.000000 0 1 0
-12.781964 -2.616203 -20.596440 24.381067 0.201891 2.576935 0.016483 -0.011834 26541.200000 0 1 0
-13.513964 -1.377803 -20.501540 24.593469 0.101603 2.556421 0.010067 -0.001574 404023.000000 0 1 0
-14.398864 -1.212103 -21.612840 25.998295 0.083982 2.552270 0.007466 -0.002573 147541.000000 0 0 1
-15.208164 0.059497 -21.473040 26.313176 -0.003912 2.525351 0.018120 0.004889 -86061.200000 0 0 1
-14.392864 1.208797 -21.634540 26.012863 -0.083789 2.552934 0.030430 -0.002710 296548.000000 0 0 1
-15.175764 2.399597 -21.602540 26.509085 -0.156822 2.523372 0.029027 0.007320 -261757.000000 0 0 1
-14.437464 3.580197 -22.107840 26.646102 -0.243076 2.549337 0.043141 -0.011033 157366.000000 0 0 1
-13.314064 3.936997 -21.288240 25.415613 -0.287509 2.563680 0.042247 -0.009560 495233.000000 0 0 1
-12.752764 5.116297 -21.842340 25.804986 -0.381533 2.580058 0.044604 -0.012730 592220.000000 0 0 1
-11.527264 5.753997 -21.062640 24.690506 -0.462979 2.592630 0.027006 -0.015271 505062.000000 0 1 0
-11.878064 6.247297 -19.783440 23.906100 -0.484193 2.545522 0.037678 -0.019553 420682.000000 0 1 0
-10.809164 6.598797 -18.920940 22.768050 -0.548091 2.551754 0.027906 -0.015947 -214792.000000 0 1 0
-11.410764 7.233197 -17.714640 22.278536 -0.564968 2.490041 0.041231 -0.010562 -32847.600000 0 1 0
-12.059864 8.450897 -17.908340 23.185483 -0.611226 2.453399 0.043675 -0.009885 530292.000000 0 1 0
-13.029864 8.711097 -16.884040 23.037608 -0.589304 2.393357 0.052771 -0.002946 243353.000000 0 1 0
-13.665064 10.096997 -16.970240 24.014004 -0.636354 2.355592 0.052577 0.002561 -15200.700000 0 1 0
-12.775964 11.050097 -16.460640 23.585643 -0.713088 2.343270 0.024246 0.018176 683645.000000 0 1 0
-13.542664 12.269597 -16.430740 24.574702 -0.736118 2.303126 0.047152 0.004017 637407.000000 0 1 0
-12.733564 13.525897 -15.898440 24.451052 -0.815562 2.278664 0.048717 0.014626 -6044.980000 0 1 0
-12.527164 13.394897 -14.501940 23.380748 -0.818860 2.239859 0.060181 0.014637 -66627.100000 0 1 0
-12.056864 14.535997 -13.858240 23.424645 -0.878355 2.203850 0.055697 0.006646 -1275830.000000 0 1 0
-12.406364 14.632197 -12.338040 22.808908 -0.867534 2.142340 0.035689 -0.001509 15439.400000 0 1 0
-13.723364 14.887297 -11.947040 23.509447 -0.826058 2.103867 0.027578 -0.005467 640201.000000 0 1 0
-14.776064 14.042097 -12.513640 23.918690 -0.759935 2.121368 0.036038 0.000975 359645.000000 0 1 0
-16.120564 14.111897 -11.730840 24.426028 -0.719055 2.071747 0.022871 -0.001441 740392.000000 0 1 0
-17.209564 13.591197 -12.498340 25.240805 -0.668458 2.088820 0.026876 0.004780 617192.000000 0 0 1
-18.454764 13.988797 -11.937840 26.053345 -0.648604 2.046774 0.075744 0.000056 54444.400000 0 0 1
-19.738464 13.519397 -12.619040 27.048498 -0.600538 2.056164 0.056981 0.002249 -265092.000000 0 0 1
-19.926464 12.115297 -12.485240 26.452327 -0.546281 2.062343 0.065393 0.001055 157780.000000 0 0 1
-21.101964 11.714997 -13.159140 27.489944 -0.506797 2.069957 0.080644 -0.002293 -277808.000000 0 0 1
-21.740764 10.518297 -12.470340 27.180964 -0.450608 2.047429 0.075298 -0.004266 -522697.000000 0 0 1
-21.007464 9.323297 -12.529840 26.176981 -0.417693 2.069923 0.067271 -0.000360 125874.000000 0 0 1
-21.510264 8.343197 -11.710140 25.873303 -0.370006 2.040470 0.058474 -0.002018 4817.850000 0 0 1
-20.505364 7.146197 -11.773840 24.701445 -0.335341 2.067632 0.069583 -0.005577 269750.000000 0 1 0
-20.481764 6.447197 -12.957140 25.079005 -0.304958 2.113733 0.074709 0.002730 51591.900000 0 0 1
-19.404664 5.558497 -13.031240 24.026050 -0.278981 2.144063 0.062845 -0.005170 -461364.000000 0 1 0
-19.575164 4.343797 -13.982140 24.444956 -0.218365 2.179720 0.075659 -0.010664 -304264.000000 0 1 0
-20.519564 3.376697 -13.656540 24.878820 -0.163098 2.151871 0.079260 -0.016350 2190.390000 0 1 0
-20.089464 2.202997 -14.311040 24.763797 -0.109223 2.186952 0.071398 -0.026420 245701.000000 0 1 0
-20.954764 0.904797 -14.166740 25.310419 -0.043152 2.164844 0.070752 -0.018460 -998690.000000 0 0 1
-22.196164 0.817697 -14.724540 26.648647 -0.036823 2.156209 0.060068 -0.014898 -1054640.000000 0 0 1
-22.626764 -0.470003 -14.540940 26.900377 0.020769 2.141884 0.057651 -0.018954 -820683.000000 0 0 1
-23.869964 -0.742403 -15.364740 28.397211 0.031092 2.142499 0.059293 -0.009052 -773653.000000 0 0 1
-25.048464 -0.225403 -14.811240 29.100673 0.008998 2.104779 0.071789 -0.017304 -758314.000000 0 0 1
-26.146584 -0.483203 -15.615440 30.458485 0.018478 2.109099 0.066885 -0.005114 -625464.000000 0 0 1
-27.502124 -0.145303 -14.999540 31.326892 0.005283 2.070092 0.062053 -0.008585 -364725.000000 0 0 1
-27.804694 -0.794803 -13.778240 31.041466 0.028577 2.030704 0.070524 -0.005298 922600.000000 0 0 1
-29.094924 -0.462803 -13.211740 31.957454 0.015905 1.996999 0.085471 -0.009232 1104310.000000 0 0 1
-29.222244 -0.958103 -11.709940 31.495717 0.032775 1.951738 0.080905 -0.006776 -141843.000000 0 0 1
-29.552294 -2.298203 -11.443640 31.773837 0.077611 1.939235 0.085430 -0.006586 370849.000000 0 0 1
-28.628964 -3.270403 -11.912140 31.180318 0.113741 1.962799 0.083758 -0.013892 -201034.000000 0 0 1
-28.793444 -4.681903 -11.297240 31.282747 0.161192 1.940279 0.085637 -0.020535 336886.000000 0 0 1
-30.072164 -5.243803 -11.617940 32.662043 0.172638 1.934461 0.080416 -0.016784 727992.000000 0 0 1
-30.290984 -6.547903 -11.002340 32.885715 0.212891 1.911938 0.076305 -0.019195 -5029.480000 0 0 1
-29.593704 -7.785503 -11.644740 32.741432 0.257251 1.934414 0.064664 -0.017917 -123179.000000 0 0 1
-28.190204 -7.709403 -11.636540 31.456821 0.266951 1.949720 0.056187 -0.016701 -407918.000000 0 0 1
-27.561854 -8.843003 -12.114740 31.378678 0.310467 1.967177 0.072800 -0.021751 40929.600000 0 0 1
-26.054554 -8.855603 -11.769540 29.929643 0.327637 1.974949 0.070439 -0.030366 -296377.000000 0 0 1
-25.215434 -7.802403 -12.218440 29.085836 0.300085 2.004332 0.062354 -0.029005 1029470.000000 0 0 1
-23.868264 -7.897403 -11.738040 27.746073 0.319536 2.007608 0.058400 -0.026770 674888.000000 0 0 1
-23.675064 -7.599503 -10.183840 26.869531 0.310602 1.959523 0.046027 -0.020866 -642562.000000 0 0 1
-23.862564 -6.215603 -9.778140 26.526736 0.254813 1.948314 0.039725 -0.012838 215436.000000 0 0 1
-25.221934 -5.866103 -9.620040 27.624306 0.228517 1.926495 0.048350 -0.016642 -389931.000000 0 0 1
-25.403414 -4.508803 -8.962040 27.312651 0.175659 1.905117 0.047621 -0.021680 -468464.000000 0 0 1
-25.209414 -4.430403 -7.526940 26.679540 0.173967 1.856804 0.036916 -0.013354 143126.000000 0 0 1
-25.296074 -3.099403 -7.132940 26.464627 0.121917 1.843698 0.059650 -0.015945 -103803.000000 0 0 1
-25.257364 -2.832603 -5.590840 26.023366 0.111683 1.787324 0.052387 -0.009899 -383540.000000 0 0 1
-24.031164 -3.206803 -5.043140 24.763152 0.132660 1.775886 0.022671 -0.002468 -430531.000000 0 1 0
-23.890664 -3.067403 -3.644040 24.360867 0.127695 1.720946 0.010863 -0.003878 -99722.300000 0 1 0
-22.583664 -3.676903 -3.112140 23.091707 0.161396 1.705981 0.004268 0.003310 -183937.000000 0 1 0
-22.573664 -5.082703 -3.191540 23.357870 0.221467 1.707862 0.021872 -0.002425 463518.000000 0 1 0
-21.341364 -5.659203 -2.799340 22.255712 0.259210 1.696911 0.017014 -0.007503 -119486.000000 0 1 0
-21.355964 -7.202703 -2.597640 22.687086 0.325288 1.685547 0.029990 -0.004808 425467.000000 0 1 0
-22.170064 -7.621403 -1.460640 23.488955 0.331114 1.633021 0.045400 0.002891 805190.000000 0 1 0
-22.814164 -8.826203 -1.676740 24.519368 0.369140 1.639234 0.044469 -0.005095 -50854.300000 0 1 0
-23.186464 -9.555603 -0.346140 25.080699 0.390911 1.584598 0.038638 -0.013794 508140.000000 0 0 1
-22.003664 -10.032603 0.311960 24.184947 0.427792 1.557897 0.023962 -0.006646 731631.000000 0 1 0
-22.246564 -10.927603 1.410860 24.825645 0.456586 1.513935 0.011025 -0.005102 1644440.000000 0 1 0
-20.850064 -11.529503 1.966660 23.906534 0.505122 1.488439 0.003836 -0.004560 1654000.000000 0 1 0
-20.141764 -12.393103 1.128860 23.676021 0.551589 1.523099 0.006275 0.001623 -66740.400000 0 1 0
-19.030164 -12.918003 1.809360 23.071535 0.596367 1.492292 -0.012662 0.002557 -361022.000000 0 1 0
-18.311564 -13.988803 0.981560 23.064333 0.652359 1.528226 -0.009047 0.007218 -445784.000000 0 1 0
-19.093864 -15.154403 0.841860 24.391398 0.670875 1.536275 -0.003243 0.006374 168870.000000 0 1 0
-18.476764 -16.292203 0.201160 24.634674 0.722650 1.562630 -0.006681 0.002411 6729.550000 0 1 0
-17.416564 -17.050803 1.046960 24.395957 0.774787 1.527868 -0.003289 0.011275 -1094820.000000 0 1 0
-16.214064 -16.364503 1.025660 23.059592 0.790016 1.526303 -0.000911 0.011189 -566973.000000 0 1 0
-15.208464 -17.053303 1.786460 22.919510 0.842519 1.492772 0.012063 0.006813 466644.000000 0 1 0
-15.293264 -16.863503 3.325660 23.006992 0.834190 1.425738 0.026053 -0.002695 -535955.000000 0 1 0
-15.118264 -15.497103 3.662160 21.957539 0.797772 1.403230 0.021218 0.002265 -57971.100000 0 1 0
-14.176464 -15.245803 4.663260 21.334306 0.821727 1.350437 0.010940 -0.000761 -119355.000000 0 1 0
-14.652564 -15.649103 6.113260 22.292689 0.818274 1.293010 0.020650 -0.002528 -798839.000000 0 1 0
-15.497364 -14.687003 6.674360 22.370146 0.758558 1.267822 0.018336 -0.002574 90075.800000 0 1 0
-15.755064 -14.941703 8.066060 23.163287 0.758908 1.215118 0.019944 -0.001621 267195.000000 0 1 0
-16.699664 -16.154203 8.477360 24.732624 0.768797 1.220943 0.007608 0.006336 -27187.600000 0 1 0
-16.214864 -17.407403 8.057460 25.116969 0.820852 1.244225 0.009451 0.005897 22790.900000 0 0 1
-16.962064 -18.517103 8.591160 26.540587 0.829200 1.241160 0.010989 0.002691 43077.800000 0 0 1
-16.715664 -18.992503 10.064160 27.228954 0.849074 1.192204 0.014066 -0.004831 631158.000000 0 0 1
-15.351864 -19.305603 10.365560 26.755016 0.898988 1.172960 0.016381 -0.004738 494444.000000 0 0 1
-15.215164 -19.728303 11.695660 27.522638 0.913843 1.131893 0.016418 -0.004039 -553143.000000 0 0 1
-13.889664 -20.350203 12.081660 27.441211 0.971890 1.114892 0.017703 0.004788 -560564.000000 0 0 1
-12.752764 -19.542503 11.987460 26.234359 0.992620 1.096247 0.007313 0.001019 -124779.000000 0 0 1
-11.557064 -20.262003 12.280560 26.361461 1.052440 1.086198 -0.000284 0.003310 358196.000000 0 0 1
-10.363564 -19.384603 12.609460 25.340970 1.079831 1.049976 0.009902 -0.004881 -232375.000000 0 0 1
-9.751064 -18.638603 11.605460 24.024310 1.088789 1.066637 0.005838 -0.010560 -251300.000000 0 1 0
-8.668264 -17.914703 12.165360 23.325337 1.120141 1.022128 0.000246 -0.008720 223824.000000 0 1 0
-7.787664 -17.145703 11.140660 21.880063 1.144451 1.036577 -0.007528 -0.011025 435385.000000 0 1 0
-6.947964 -18.031303 10.370960 21.930775 1.203002 1.078223 -0.000392 -0.009509 92521.500000 0 1 0
-6.484464 -17.270803 9.247260 20.635909 1.211624 1.106141 0.010622 -0.010056 -221463.000000 0 1 0
-5.425664 -18.067303 8.438060 20.665578 1.279062 1.150189 0.008735 -0.013613 1245600.000000 0 1 0
-4.165064 -18.168803 9.170160 20.773661 1.345447 1.113602 0.025343 -0.013098 331542.000000 0 1 0
-3.155464 -18.699103 8.373560 20.729928 1.403622 1.154981 0.035549 -0.017838 -804260.000000 0 1 0
-1.857064 -18.792203 9.134360 20.976942 1.472295 1.120261 0.029731 -0.029859 -751110.000000 0 1 0
-0.868564 -19.545503 8.491260 21.327976 1.526387 1.161321 0.046047 -0.010419 -26002.900000 0 1 0
0.358336 -19.612803 9.210860 21.670957 -1.552528 1.131799 0.058677 -0.015118 522539.000000 0 1 0
1.530436 -20.191703 8.383260 21.916344 -1.495146 1.178283 0.059743 -0.025373 70429.700000 0 1 0
1.453036 -21.519103 7.921860 22.976922 -1.503376 1.218798 0.056163 -0.017481 -239135.000000 0 1 0
1.769336 -22.497503 8.905660 24.260646 -1.492312 1.194926 0.053318 -0.019297 22610.600000 0 1 0
1.604936 -23.899103 8.347960 25.365949 -1.503742 1.235445 0.040572 -0.011987 174472.000000 0 0 1
1.711336 -24.836403 9.367460 26.599340 -1.502001 1.210909 0.043015 -0.006436 -151042.000000 0 0 1
1.504336 -26.081933 8.869160 27.589713 -1.513183 1.243519 0.041626 -0.009516 -822172.000000 0 0 1
1.774836 -27.037943 9.992960 28.880091 -1.505248 1.217475 0.036675 -0.009438 50891.700000 0 0 1
0.880636 -27.011473 11.104260 29.218141 -1.538206 1.180949 0.036309 -0.007960 1109010.000000 0 0 1
-0.427864 -27.590913 10.781960 29.625870 1.555290 1.198305 0.028684 -0.004833 1065930.000000 0 0 1
-1.119964 -27.789623 12.129760 30.342191 1.530517 1.159535 0.025980 -0.006299 254320.000000 0 0 1
-0.452364 -28.857233 12.863460 31.597676 1.555122 1.151518 0.017439 -0.002877 235614.000000 0 0 1
-0.808564 -28.836113 14.241060 32.171151 1.542764 1.112227 0.024863 -0.003056 96598.400000 0 0 1
-0.264864 -30.026843 15.048360 33.587715 1.561976 1.106234 0.015480 0.012410 199303.000000 0 0 1
-0.533064 -29.784573 16.376460 33.994020 1.552901 1.068151 0.016016 0.011974 -45877.100000 0 0 1
-0.245964 -30.931373 17.205660 35.395551 1.562845 1.063179 0.013393 0.010417 96950.300000 0 0 1
-0.367964 -30.606353 18.700260 35.868983 1.558774 1.022365 0.021504 0.004537 441323.000000 0 0 1
-1.747064 -30.601093 19.032660 36.079374 1.513767 1.015115 -0.002303 0.007688 153923.000000 0 0 1
-2.034064 -30.271553 20.393060 36.556548 1.503703 0.979004 0.023223 0.002492 1094150.000000 0 0 1
-3.543064 -30.466543 20.830660 37.076676 1.455023 0.974204 0.045811 -0.008122 1304910.000000 0 0 1
-4.470764 -29.711513 20.002660 36.095265 1.421444 0.983439 0.032132 -0.011161 848415.000000 0 0 1
-5.770164 -29.540253 20.564560 36.453017 1.377893 0.971406 0.045927 -0.020646 684143.000000 0 0 1
-5.859964 -28.419503 21.633460 36.194114 1.367451 0.930159 0.069696 -0.030599 -438235.000000 0 0 1
-5.004864 -28.664813 22.724260 36.920349 1.397939 0.907783 0.068080 -0.026527 -52680.500000 0 0 1
-5.096764 -27.646673 23.684360 36.759549 1.388490 0.870682 0.079359 -0.030681 81588.000000 0 0 1
-4.162264 -27.977043 24.894260 37.679750 1.423105 0.849072 0.090054 -0.031658 331906.000000 0 0 1
-4.518664 -29.162923 25.602560 39.068984 1.417073 0.856194 0.085203 -0.031576 60163.300000 0 0 1
-3.865064 -30.238903 25.007660 39.429849 1.443668 0.883782 0.069288 -0.020884 -220920.000000 0 0 1
-3.898264 -31.561523 25.840960 40.976596 1.447906 0.888435 0.072444 -0.023238 279929.000000 0 0 1
-3.088164 -31.447523 27.002260 41.564474 1.472910 0.863676 0.065187 -0.026487 254628.000000 0 0 1
-3.491864 -32.409283 27.941960 42.933761 1.463468 0.862138 0.060311 -0.029850 -55577.300000 0 0 1
-3.091964 -32.043933 29.383760 43.586457 1.474603 0.830985 0.069854 -0.027407 80660.400000 0 0 1
-1.761464 -32.264413 29.817560 43.967965 1.516256 0.825533 0.065836 -0.026877 292215.000000 0 0 1
-1.576564 -32.220103 31.256560 44.917626 1.521904 0.801174 0.056253 -0.023076 -232039.000000 0 0 1
-28.251124 3.270897 -9.869040 30.103534 -0.115266 1.904809 0.081494 -0.014245 75581.400000 0 0 1
-28.888414 2.809997 -11.087140 31.070263 -0.096966 1.935680 0.072823 -0.014288 202708.000000 0 0 1
-29.538234 3.909297 -11.641740 31.989373 -0.131582 1.943275 0.055018 -0.011028 -314382.000000 0 0 1
-30.306774 3.564197 -12.942640 33.146885 -0.117066 1.971931 0.055335 -0.008012 -268249.000000 0 0 1
-31.463554 2.798297 -12.774540 34.073077 -0.088704 1.955102 0.063404 -0.010500 -279583.000000 0 0 1
-32.168404 2.693697 -13.965440 35.172372 -0.083542 1.979104 0.068451 -0.009161 -325207.000000 0 0 1
-33.347234 1.718397 -13.783040 36.124273 -0.051485 1.962264 0.058319 -0.005551 24848.100000 0 0 1
-32.933814 0.364297 -13.489940 35.591394 -0.011061 1.959536 0.069643 -0.002706 567597.000000 0 0 1
-34.058989 -0.413903 -13.074740 36.484721 0.012152 1.937309 0.062773 -0.006740 424050.000000 0 0 1
-33.687024 -1.818003 -12.635740 36.024751 0.053915 1.929170 0.059978 -0.004040 -35238.000000 0 0 1
-33.530694 -2.661303 -13.763640 36.343194 0.079203 1.959202 0.055193 0.002859 31422.400000 0 0 1
-33.100364 -3.964803 -13.366640 35.916860 0.119213 1.952126 0.056936 -0.003760 82736.500000 0 0 1
-33.795534 -5.169503 -14.042440 36.960141 0.151788 1.960522 0.046916 0.000450 -31620.000000 0 0 1
-33.360874 -6.383503 -13.507140 36.553247 0.189062 1.949288 0.053762 -0.011263 -7690.890000 0 0 1
-33.815054 -7.525303 -14.213940 37.444948 0.218975 1.960156 0.053385 -0.006403 -701846.000000 0 0 1
-33.423604 -8.873403 -13.412740 37.091457 0.259497 1.940793 0.051883 -0.014181 -145906.000000 0 0 1
-32.040294 -9.110003 -13.286240 35.862191 0.277019 1.950323 0.043000 -0.017018 -62194.200000 0 0 1
-31.468264 -9.457503 -14.513040 35.921085 0.291953 1.986710 0.039918 -0.016252 -1659130.000000 0 0 1
-30.264344 -10.330603 -14.272640 35.019425 0.328944 1.990581 0.041693 -0.021567 -911003.000000 0 0 1
-30.631104 -11.628903 -13.878940 35.582593 0.362836 1.971481 0.035326 -0.023121 406696.000000 0 0 1
-29.490464 -12.451503 -13.660640 34.804317 0.399515 1.974143 0.055743 -0.023688 -69322.800000 0 0 1
-29.699914 -13.956203 -13.933840 35.651261 0.439285 1.972337 0.066912 -0.017546 -319902.000000 0 0 1
-29.849584 -14.182303 -15.333640 36.431523 0.443551 2.005222 0.065426 -0.014213 105436.000000 0 0 1
-29.975094 -15.536003 -15.761540 37.259895 0.478178 2.007568 0.063845 -0.012108 437312.000000 0 0 1
-28.651464 -16.343703 -15.559940 36.471012 0.518394 2.011569 0.050255 -0.002263 1993650.000000 0 0 1
-27.477044 -15.755103 -16.210240 35.580656 0.520625 2.043833 0.060594 -0.015213 1385290.000000 0 0 1
-26.260144 -16.491903 -16.134240 34.955568 0.560768 2.050554 0.069040 -0.018047 1488090.000000 0 0 1
-25.012964 -15.914903 -16.891740 34.121304 0.566660 2.088688 0.069499 -0.022049 598444.000000 0 0 1
-25.203354 -16.085603 -18.315540 35.063010 0.568058 2.120413 0.083784 -0.033886 798133.000000 0 0 1
-24.041564 -15.557603 -19.001840 34.367219 0.574343 2.156644 0.057565 -0.030584 355586.000000 0 0 1
-24.280864 -15.163103 -20.441040 35.175505 0.558231 2.190895 0.065831 -0.029022 -146469.000000 0 0 1
-24.608764 -16.158803 -21.316540 36.346844 0.581020 2.197497 0.070106 -0.031900 -1057040.000000 0 0 1
-25.953744 -16.418103 -21.363640 37.410641 0.564039 2.178590 0.082490 -0.035269 -1529930.000000 0 0 1
-26.202504 -17.793903 -22.054240 38.595125 0.596555 2.179038 0.084586 -0.029950 -166639.000000 0 0 1
-25.930344 -17.590903 -23.441040 39.131892 0.596075 2.213081 0.088567 -0.025013 450544.000000 0 0 1
-26.568774 -18.660803 -24.151140 40.464835 0.612307 2.210357 0.066774 -0.015859 143547.000000 0 0 1
-25.855254 -18.857503 -25.521440 40.932181 0.630153 2.244015 0.053490 -0.017637 2139660.000000 0 0 1
-24.512764 -19.473203 -25.453750 40.348167 0.671324 2.253448 0.059788 -0.027515 1676060.000000 0 0 1
-24.489764 -20.885203 -25.182110 40.866599 0.706125 2.234708 0.050042 -0.023969 -553993.000000 0 0 1
-23.064764 -21.372803 -24.896240 40.107391 0.747342 2.240482 0.044415 -0.015231 -109600.000000 0 0 1
-22.263364 -21.234203 -26.023020 40.295735 0.761742 2.272868 0.031333 -0.017699 90173.900000 0 0 1
-20.904564 -21.613203 -25.836490 39.644111 0.802063 2.280634 0.042107 -0.020268 777071.000000 0 0 1
-19.855464 -21.390003 -26.940960 39.718849 0.822586 2.316231 0.039502 -0.020262 -183171.000000 0 0 1
-19.964264 -22.282603 -28.037900 41.002561 0.840219 2.323766 0.039136 -0.014061 -341818.000000 0 0 1
-20.879664 -21.885403 -29.012960 41.912803 0.808912 2.335360 0.031777 -0.017699 -164994.000000 0 0 1
-20.260964 -21.907403 -30.428380 42.618391 0.824423 2.365953 0.033248 -0.019289 -36115.200000 0 0 1
-20.018364 -23.186403 -30.955320 43.549696 0.858593 2.361438 0.032550 -0.018001 133705.000000 0 0 1
-19.007464 -23.169903 -31.952980 43.807773 0.883769 2.388227 0.026150 -0.015524 93005.800000 0 0 1
-18.696164 -24.595703 -32.541750 44.871601 0.920837 2.382149 0.027485 -0.016768 -250249.000000 0 0 1
-18.152464 -24.700003 -33.842470 45.660868 0.937018 2.405608 0.029055 -0.011198 -371280.000000 0 0 1
-19.075664 -24.698903 33.831123 46.026749 0.913158 0.745083 0.033214 -0.004459 -97231.300000 0 0 1
-18.355764 -24.881903 32.420493 44.801021 0.935204 0.761712 0.033041 -0.003609 348790.000000 0 0 1
-17.702564 -23.665203 31.993223 43.554436 0.928550 0.745783 0.035612 -0.005794 51124.600000 0 0 1
-17.052364 -23.821003 30.742013 42.465217 0.949509 0.761308 0.037475 -0.001397 356098.000000 0 0 1
-15.990864 -22.723403 30.392513 41.179674 0.957580 0.740626 0.030027 0.000748 -33402.500000 0 0 1
-16.485264 -21.518603 29.835093 40.310631 0.917075 0.737533 0.038791 -0.009575 -310668.000000 0 0 1
-15.567864 -20.440703 29.623213 39.213715 0.919905 0.714486 0.040453 -0.009092 -99326.400000 0 0 1
-15.351064 -19.571403 30.913963 39.678307 0.905664 0.677544 0.039177 -0.019960 113087.000000 0 0 1
-14.763864 -18.291203 30.863473 38.795537 0.891707 0.650895 0.037555 -0.020452 -46754.700000 0 0 1
-14.397964 -17.748503 32.122143 39.422617 0.889250 0.618386 0.038634 -0.026181 -108041.000000 0 0 1
-13.874864 -16.333203 32.004063 38.516820 0.866599 0.590053 0.037708 -0.017402 277525.000000 0 0 1
-12.640064 -16.299703 31.284683 37.472428 0.911188 0.582896 0.049543 -0.014395 318668.000000 0 0 1
-12.255264 -14.976603 30.925783 36.481422 0.885000 0.559137 0.033497 -0.013747 1939970.000000 0 0 1
-10.712864 -14.732703 30.532883 35.553831 0.942081 0.537915 0.047156 -0.015905 1962850.000000 0 0 1
-10.477764 -13.351403 30.449113 34.859603 0.905412 0.508495 0.043019 -0.015315 328261.000000 0 0 1
-9.118564 -12.896303 30.450323 34.302842 0.955342 0.478491 0.041367 -0.009902 674873.000000 0 0 1
-9.039164 -11.357103 30.354303 33.646307 0.898558 0.446049 0.037169 -0.004748 -246856.000000 0 0 1
-9.435964 -10.688003 31.528953 34.602683 0.847534 0.424680 0.038080 -0.009464 -11175.700000 0 0 1
-9.208564 -9.295903 31.439113 34.053330 0.790118 0.394389 0.035977 -0.010060 -413141.000000 0 0 1
-9.966764 -8.450903 32.481323 35.011291 0.703278 0.382489 0.022670 -0.012603 1674240.000000 0 0 1
-11.373064 -8.264303 32.095223 35.039244 0.628393 0.412854 0.027428 -0.018247 2151370.000000 0 0 1
-12.257764 -7.635603 33.063837 36.080085 0.557102 0.411801 0.026332 -0.022152 565685.000000 0 0 1
-12.010964 -6.160703 33.438028 36.059939 0.473933 0.383688 0.022427 -0.017745 -404740.000000 0 0 1
-12.023864 -5.272503 32.311873 34.877352 0.413252 0.385946 0.026019 -0.019399 305395.000000 0 0 1
-12.289364 -3.960503 32.778289 35.229679 0.311761 0.375248 0.021951 -0.019534 -612775.000000 0 0 1
-11.874664 -2.886603 31.792283 34.060085 0.238464 0.366973 0.007833 -0.012331 138889.000000 0 0 1
-10.485464 -2.643003 31.959543 33.739336 0.246920 0.326257 0.014940 -0.017286 212183.000000 0 0 1
-10.059764 -1.583803 31.149713 32.772121 0.156158 0.315974 0.006585 -0.004825 -377178.000000 0 0 1
-8.546364 -1.368203 31.314453 32.488571 0.158745 0.269664 0.001823 -0.005341 -189589.000000 0 0 1
-8.300264 -0.759103 32.548353 33.598599 0.091202 0.250691 0.000730 -0.017986 -759888.000000 0 0 1
-6.953564 -0.470603 32.726693 33.460573 0.067575 0.209825 0.017595 -0.024422 -746399.000000 0 0 1
-6.632164 0.246197 34.094403 34.734342 -0.037105 0.192253 0.044160 -0.029467 -389513.000000 0 0 1
-7.075564 1.583897 -34.320201 35.077750 -0.220224 2.933389 0.044964 -0.022451 72682.300000 0 0 1
-6.414564 2.548797 33.597158 34.298863 -0.378216 0.202626 0.054337 -0.018229 -110137.000000 0 0 1
-7.090464 3.933897 33.618859 34.582914 -0.506533 0.236673 0.063393 -0.019655 689817.000000 0 0 1
-8.436664 3.860397 33.092148 34.368157 -0.429135 0.273349 0.031167 -0.007026 550168.000000 0 0 1
-9.168264 4.964597 33.440400 35.028055 -0.496292 0.302231 0.027143 0.003961 -746737.000000 0 0 1
-10.432464 5.116797 32.618113 34.625990 -0.455994 0.342219 0.012596 0.006095 -39311.900000 0 0 1
-11.297364 6.210797 32.959605 35.391242 -0.502656 0.372851 0.021884 0.004806 643204.000000 0 0 1
-12.369264 6.384097 32.049263 34.941532 -0.476465 0.409737 0.001176 0.007181 348823.000000 0 0 1
-13.194364 7.701497 32.255923 35.691019 -0.528345 0.442335 0.013979 -0.003204 286546.000000 0 0 1
-14.028464 7.810497 33.401551 37.060292 -0.508019 0.448091 0.019039 -0.003055 90380.500000 0 0 1
-14.682964 9.061797 33.419259 37.610537 -0.552945 0.476597 0.019961 0.005182 221182.000000 0 0 1
-15.592564 9.474297 -34.120541 38.692398 -0.546001 2.650548 0.019034 0.000354 497772.000000 0 0 1
-14.835164 9.710797 -32.923790 37.394620 -0.579588 2.647590 0.019324 -0.005865 1052870.000000 0 0 1
-15.754264 10.243697 -31.935070 37.053729 -0.576528 2.609719 0.029650 -0.010241 159750.000000 0 0 1
-15.073064 10.167797 -30.527430 35.531751 -0.593452 2.604421 0.049135 -0.015762 742550.000000 0 0 1
-14.152364 11.220297 -30.219590 35.205228 -0.670348 2.602907 0.054989 -0.018096 324882.000000 0 0 1
-12.896964 11.036097 -30.848220 35.209939 -0.707801 2.638556 0.066077 -0.025866 -439334.000000 0 0 1
-11.913764 12.196197 -30.808520 35.211502 -0.797112 2.636142 0.064537 -0.022194 -218082.000000 0 0 1
-12.354264 13.154897 -31.758290 36.527635 -0.816774 2.624848 0.060992 -0.024142 132649.000000 0 0 1
-11.560864 14.336497 -31.919100 36.851291 -0.892169 2.618262 0.062005 -0.023328 4455.110000 0 0 1
-11.741264 15.518797 -30.970230 36.576570 -0.923095 2.580592 0.073481 -0.027472 -744743.000000 0 0 1
-12.953764 16.094997 -31.282030 37.488856 -0.893116 2.557904 0.075219 -0.029483 -610805.000000 0 0 1
-13.268364 17.209297 -30.427040 37.390027 -0.913990 2.521413 0.056313 -0.026616 -1032580.000000 0 0 1
-14.572364 17.894397 -30.672650 38.384563 -0.887364 2.496573 0.042231 -0.029394 -1329940.000000 0 0 1
-14.665864 18.709597 -31.831680 39.728987 -0.905969 2.500128 0.045691 -0.029884 422689.000000 0 0 1
-16.001064 19.179797 -32.026510 40.615219 -0.875508 2.479219 0.041692 -0.030024 818949.000000 0 0 1
-16.557564 20.330397 -31.128640 40.699757 -0.887322 2.441583 0.017823 -0.029536 -280503.000000 0 0 1
-15.948464 21.531297 -31.593960 41.426182 -0.933267 2.438207 0.028730 -0.029383 303527.000000 0 0 1
-16.536364 22.748097 -31.130110 41.952485 -0.942222 2.406894 0.007527 -0.014845 1352340.000000 0 0 1
-17.999664 23.089197 -31.678850 43.135235 -0.908637 2.395590 0.028487 -0.015147 1328890.000000 0 0 1
-19.040464 22.557697 -30.875690 42.716475 -0.869750 2.378649 0.015256 -0.019894 336760.000000 0 0 1
-20.135964 22.163997 -31.690040 43.599982 -0.833306 2.384500 0.033044 -0.018645 29068.900000 0 0 1
-21.394164 21.645597 -30.929450 43.392085 -0.791240 2.364265 0.025994 -0.026395 339825.000000 0 0 1
-22.341364 22.551197 -30.315590 43.894510 -0.790072 2.333179 0.032301 -0.024476 770796.000000 0 0 1
-23.073664 23.391097 -31.184820 45.299342 -0.792230 2.330100 0.054111 -0.017829 225896.000000 0 0 1
-24.208164 22.699997 -32.043360 46.131356 -0.753258 2.338676 0.049630 -0.024161 -146621.000000 0 0 1
-23.715064 21.804997 -33.009210 46.124507 -0.743462 2.368357 0.052678 -0.018948 -107333.000000 0 0 1
-24.741164 21.437197 -33.905510 47.130269 -0.713972 2.373734 0.056120 -0.019280 -124563.000000 0 0 1
-24.423664 20.412497 33.709961 46.363206 -0.696173 0.756731 0.050935 -0.009299 -182100.000000 0 0 1
-24.069964 19.148897 34.261159 46.042051 -0.672023 0.731568 0.047754 -0.013970 235921.000000 0 0 1
-23.769164 18.358997 33.097999 44.693439 -0.657676 0.736899 0.043511 -0.012419 -122710.000000 0 0 1
-23.754764 16.864197 33.425174 44.338834 -0.617359 0.716882 0.027255 -0.001281 -349284.000000 0 0 1
-25.027664 16.360397 33.717127 45.065411 -0.578967 0.725479 0.034074 -0.000123 -96416.600000 0 0 1
-25.326564 15.338997 32.792688 44.182350 -0.544563 0.734431 0.042907 -0.003335 104778.000000 0 0 1
-26.343764 14.233997 33.199813 44.708256 -0.495379 0.733870 0.036579 -0.005258 994833.000000 0 0 1
-27.641364 14.621897 33.698379 45.972009 -0.486567 0.748046 0.031955 -0.002416 906804.000000 0 0 1
-28.705944 13.710697 33.579458 46.255750 -0.445589 0.758379 0.020561 0.004571 212558.000000 0 0 1
-28.566214 12.398797 -34.306990 46.332800 -0.409500 2.404532 0.013463 -0.000293 -266905.000000 0 0 1
-27.657784 11.407797 33.908596 45.220391 -0.391203 0.722958 0.025194 -0.007963 -246287.000000 0 0 1
-27.997074 10.097997 34.241585 45.368401 -0.346158 0.715531 0.033630 -0.007942 -417781.000000 0 0 1
-26.827004 9.031097 -34.258884 44.440072 -0.324725 2.451050 0.041846 -0.013858 759614.000000 0 0 1
-25.956304 8.816297 33.367490 43.183865 -0.327433 0.687738 0.048816 -0.015708 -80875.700000 0 0 1
-25.103174 9.899297 33.151214 42.745391 -0.375621 0.683209 0.035828 -0.018994 -941122.000000 0 0 1
-23.724664 9.510397 32.534303 41.373762 -0.381252 0.665916 0.051924 -0.014756 276248.000000 0 0 1
-23.832664 9.169597 31.186963 40.307618 -0.367290 0.686098 0.049001 -0.013776 447074.000000 0 0 1
-22.533864 9.032297 30.613743 39.071200 -0.381224 0.670458 0.050104 -0.013503 493016.000000 0 0 1
-22.588764 8.987897 29.032363 37.867039 -0.378688 0.697123 0.055719 -0.010910 164.116000 0 0 1
-22.923564 10.261497 28.471383 37.965876 -0.420889 0.722855 0.043072 -0.006307 294730.000000 0 0 1
-22.663164 10.337997 27.041283 36.765802 -0.427964 0.744391 0.037070 -0.006683 -821679.000000 0 0 1
-22.888264 11.747297 26.476443 36.917119 -0.474188 0.771040 0.033695 -0.002855 199413.000000 0 0 1
-24.225464 12.219197 26.455913 37.895873 -0.467157 0.798026 0.038186 -0.003816 108157.000000 0 0 1
-24.970764 11.600697 25.428703 37.479783 -0.434905 0.825126 0.037963 -0.000463 -1056910.000000 0 0 1
-26.410594 12.106397 25.401963 38.592021 -0.429811 0.852347 0.037025 -0.004238 -515645.000000 0 0 1
-26.549694 13.459897 25.094823 38.933343 -0.469208 0.870350 0.030142 -0.006283 -592140.000000 0 0 1
-27.830644 13.884997 25.457323 40.192203 -0.462776 0.884871 0.027719 -0.013559 -283341.000000 0 0 1
-28.094684 15.279597 24.895783 40.528723 -0.498118 0.909329 0.022450 -0.014566 -412461.000000 0 0 1
-27.309384 16.330197 25.376663 40.699543 -0.538926 0.897569 0.031098 -0.014754 -303163.000000 0 0 1
-27.688194 17.512997 24.703933 41.032005 -0.563980 0.924712 0.025819 -0.011976 -165967.000000 0 0 1
-22.432064 -9.626803 31.667683 39.983934 0.405384 0.656702 0.015057 -0.023535 535960.000000 0 0 1
-21.554964 -8.978603 30.699593 38.570673 0.394687 0.650252 0.010958 -0.019438 345261.000000 0 0 1
-22.014164 -9.192203 29.383063 37.848176 0.395551 0.681958 0.013793 -0.013585 1002200.000000 0 0 1
-20.899364 -8.854903 28.261653 36.247948 0.400763 0.676648 0.016381 -0.013658 719986.000000 0 0 1
-20.537464 -7.496103 28.204423 35.685690 0.349972 0.659405 0.019479 -0.016267 269306.000000 0 0 1
-19.521064 -6.998403 29.097663 35.731269 0.344232 0.619193 0.023094 -0.010227 1686140.000000 0 0 1
-18.023164 -7.311003 28.631123 34.612518 0.385363 0.596708 0.028642 -0.003094 400335.000000 0 0 1
-17.643364 -8.682903 28.484483 34.612813 0.457335 0.604219 0.023007 -0.012857 -14497.600000 0 0 1
-17.181464 -9.268603 29.671343 35.517577 0.494710 0.581938 0.026513 -0.015067 69594.800000 0 0 1
-15.734064 -8.866903 30.097533 35.100487 0.513185 0.540469 0.026555 -0.010978 -294317.000000 0 0 1
-14.746864 -9.399603 29.245273 34.075042 0.567464 0.538925 0.030781 -0.005935 -131367.000000 0 0 1
-13.479764 -8.972203 29.767183 33.886422 0.587267 0.498209 0.031515 -0.010288 215195.000000 0 0 1
-12.334664 -9.842903 29.257983 33.242386 0.673512 0.494637 0.035272 -0.007448 -580036.000000 0 0 1
-12.018564 -9.716703 27.893263 31.888780 0.679887 0.505970 0.043428 -0.006926 296978.000000 0 0 1
-11.069764 -10.703103 27.435973 31.461543 0.768559 0.511425 0.044610 -0.004641 509252.000000 0 0 1
-10.524664 -10.530903 25.997433 29.958888 0.785694 0.520098 0.038964 0.000614 581559.000000 0 0 1
-11.537464 -10.937503 25.086223 29.699505 0.758710 0.564852 0.033611 -0.004553 76475.800000 0 0 1
-10.997264 -10.882703 23.846253 28.425636 0.780162 0.575538 0.028947 -0.011494 211712.000000 0 0 1
-12.015264 -11.300303 22.725883 28.080761 0.754743 0.627829 0.032435 -0.019340 42807.100000 0 0 1
-12.295064 -12.722403 22.719283 28.795728 0.802478 0.661648 0.044513 -0.017540 5549.210000 0 0 1
-13.490064 -13.101003 22.077383 29.000499 0.770768 0.705518 0.045911 -0.016179 -81405.000000 0 0 1
-14.716464 -13.004603 23.021583 30.260325 0.723723 0.706275 0.027697 -0.009517 142979.000000 0 0 1
-16.021564 -13.309803 22.548083 30.696211 0.693208 0.745784 0.022771 -0.003777 619055.000000 0 0 1
-16.991164 -13.113403 23.556783 31.868213 0.657294 0.738924 0.018940 0.004059 32283.300000 0 0 1
-18.323064 -13.844703 23.304983 32.718996 0.647068 0.778060 0.032385 0.001313 -517190.000000 0 0 1
-18.189464 -15.268603 23.350383 33.305063 0.698320 0.793849 0.031232 0.001745 -329799.000000 0 0 1
-19.369264 -16.001603 23.255583 34.235096 0.690474 0.824001 0.020814 0.007702 -491896.000000 0 0 1
-20.168264 -16.004503 24.575113 35.592684 0.670795 0.808680 0.028314 0.004721 -476562.000000 0 0 1
-19.607564 -16.818303 25.589593 36.361231 0.708974 0.790120 0.040962 0.001791 -141787.000000 0 0 1
-20.312364 -16.816403 26.801423 37.599199 0.691517 0.777287 0.031161 -0.001480 -772738.000000 0 0 1
-19.682064 -17.676203 27.904103 38.450887 0.731757 0.758734 0.033602 -0.002231 -202226.000000 0 0 1
-19.714064 -19.048803 27.645603 38.933027 0.768238 0.781183 0.045048 0.002530 122530.000000 0 0 1
-19.275664 -19.746503 28.786973 39.876878 0.797463 0.764258 0.049589 -0.001965 -270751.000000 0 0 1
-19.298764 -21.239303 28.562163 40.488855 0.833231 0.787763 0.044402 0.005527 -80624.600000 0 0 1
-20.618964 -21.729403 28.445333 41.309146 0.811614 0.811245 0.050588 0.008076 68904.300000 0 0 1
-20.467664 -23.001803 27.849963 41.516607 0.843629 0.835489 0.060840 0.012243 280261.000000 0 0 1
-21.755564 -23.649203 27.282563 42.153619 0.827080 0.866868 0.064341 0.013439 891442.000000 0 0 1
-22.766564 -24.031903 28.244793 43.515711 0.812430 0.864434 0.053640 0.011425 1612130.000000 0 0 1
-23.823264 -24.866803 27.665753 44.173518 0.806827 0.894002 0.034289 0.015240 637220.000000 0 0 1
-24.765364 -25.506303 28.661663 45.666023 0.800136 0.892283 0.024083 0.011323 -505064.000000 0 0 1
-25.700054 -24.720703 29.348383 46.183693 0.765977 0.882178 0.015222 0.016115 131212.000000 0 0 1
-26.247384 -25.466033 30.397403 47.554664 0.770290 0.877326 0.017848 0.006914 -351954.000000 0 0 1
-27.356064 -24.768103 31.186193 48.315544 0.735789 0.869159 0.015786 0.006068 1095670.000000 0 0 1
-28.627364 -24.727803 30.476333 48.577742 0.712441 0.892622 0.021913 0.004368 940229.000000 0 0 1
-29.582324 -23.848703 30.968183 49.019413 0.678498 0.886983 0.022103 -0.006804 -594097.000000 0 0 1
-30.829094 -23.823903 30.082633 49.223736 0.657917 0.913295 0.013511 -0.010621 -967894.000000 0 0 1
-31.712594 -24.859403 30.275373 50.401158 0.664845 0.926435 0.019070 -0.007381 -797009.000000 0 0 1
-32.783344 -24.774303 29.364613 50.505388 0.647138 0.950329 0.015354 -0.015251 -612751.000000 0 0 1
-33.974934 -25.475963 30.014573 52.001879 0.643402 0.955522 0.020198 -0.014023 -656798.000000 0 0 1
-33.763464 -26.844083 30.108693 52.603324 0.671723 0.961400 0.025667 -0.017297 -333372.000000 0 0 1
-34.745044 -27.526333 30.811873 53.984151 0.669990 0.963368 0.033606 -0.019346 -94680.900000 0 0 1
-34.178518 -28.958403 31.123763 54.547675 0.702906 0.963586 0.033739 -0.018965 849554.000000 0 0 1
-33.227354 -28.944053 32.212633 54.584512 0.716612 0.939561 0.036328 -0.011643 298368.000000 0 0 1
-32.700204 -30.192903 32.536483 55.132000 0.745553 0.939544 0.034845 -0.011530 -135548.000000 0 0 1
-31.773994 -30.216423 33.776201 55.348447 0.760277 0.914425 0.037041 -0.020578 -138898.000000 0 0 1
-32.359724 -29.985493 -33.711520 55.522501 0.747335 2.223289 0.037593 -0.021754 -129272.000000 0 0 1
-31.490674 -30.416973 -32.667320 54.626079 0.768056 2.211821 0.029972 -0.010470 239677.000000 0 0 1
-31.991714 -29.948163 -31.290850 53.846815 0.752418 2.190887 0.022122 -0.013189 -70903.300000 0 0 1
-32.063374 -28.557983 -31.040880 52.982587 0.727638 2.196749 0.019212 -0.020776 536454.000000 0 0 1
-30.817904 -27.818903 -31.089090 51.866811 0.734297 2.213551 0.022361 -0.014433 459987.000000 0 0 1
-30.903774 -26.270723 -31.210460 51.178969 0.704541 2.226642 0.013418 -0.011038 -453724.000000 0 0 1
-31.417234 -25.742613 -30.013410 50.502767 0.686446 2.207182 0.007847 -0.016248 -75952.800000 0 0 1
-31.245174 -24.298403 -29.950340 49.635634 0.660975 2.218559 0.018836 -0.021839 627960.000000 0 0 1
-29.934944 -23.757803 -29.242050 48.121009 0.670856 2.223929 0.022756 -0.021446 579469.000000 0 0 1
-29.908114 -22.350903 -29.275080 47.445637 0.641783 2.235751 0.032684 -0.020156 163860.000000 0 0 1
-28.855644 -21.885403 -28.454770 46.057496 0.648884 2.236751 0.029265 -0.018505 -215210.000000 0 0 1
-28.573484 -20.390003 -28.705140 45.345135 0.619794 2.256266 0.045372 -0.025528 -118448.000000 0 0 1
-28.128704 -20.121403 -30.004890 45.786333 0.620943 2.285408 0.040030 -0.014709 380057.000000 0 0 1
-27.778394 -18.705103 -30.215930 45.105681 0.592628 2.304859 0.039051 -0.015642 -110781.000000 0 0 1
-27.398744 -18.407303 -31.719580 45.778289 0.591569 2.336294 0.037035 -0.013978 -167662.000000 0 0 1
-28.471914 -18.308503 -32.605650 46.999783 0.571465 2.337466 0.045323 -0.025599 -26475.700000 0 0 1
-29.362634 -17.219303 -32.391770 46.988248 0.530386 2.331400 0.041319 -0.020603 56924.200000 0 0 1
-30.409324 -16.986603 -33.506100 48.331464 0.509421 2.336794 0.034092 -0.024955 -288162.000000 0 0 1
-31.421144 -17.931303 -33.632750 49.396172 0.518579 2.319757 0.041296 -0.018476 -1260570.000000 0 0 1
-32.646204 -17.326103 -33.746420 50.047870 0.487923 2.310789 0.045899 -0.020070 -429316.000000 0 0 1
-33.491574 -17.999303 33.797806 50.871919 0.493140 0.844145 0.032011 -0.019676 238253.000000 0 0 1
-34.138218 -19.252303 34.128055 51.969156 0.513491 0.854364 0.017935 -0.020473 248691.000000 0 0 1
-34.619233 -19.843803 32.954057 51.751692 0.520482 0.880491 0.011958 -0.015493 -475140.000000 0 0 1
-34.982532 -21.270503 33.269164 52.754612 0.546305 0.888419 0.011673 -0.018063 -418896.000000 0 0 1
-33.884164 -22.115003 33.163577 52.316658 0.578246 0.884210 0.019444 -0.020737 -481609.000000 0 0 1
-34.169286 -23.357103 33.771157 53.418961 0.599614 0.886414 0.021879 -0.023923 -554629.000000 0 0 1
-32.989864 -24.382703 33.854210 53.187920 0.636486 0.880842 0.021981 -0.017976 511214.000000 0 0 1
-31.893104 -24.039003 -34.027250 52.468061 0.645888 2.276451 0.015949 -0.023653 705317.000000 0 0 1
-31.113384 -22.871403 34.327640 51.667500 0.633896 0.844112 0.018084 -0.018082 -847549.000000 0 0 1
-29.781314 -22.824803 -33.638440 50.392886 0.653923 2.301674 0.023387 -0.014686 -653719.000000 0 0 1
-28.793994 -23.676903 -34.203887 50.592447 0.688183 2.313208 0.026547 -0.014252 544678.000000 0 0 1
-27.541364 -23.652103 -33.514850 49.408439 0.709572 2.316273 0.035135 -0.016140 575175.000000 0 0 1
-27.407324 -24.029303 -32.025520 48.520127 0.719819 2.291676 0.021007 -0.007835 -890882.000000 0 0 1
-27.440104 -25.409053 -31.764860 49.067154 0.746986 2.274932 0.028524 -0.007418 246516.000000 0 0 1
-26.634514 -25.559313 -30.599010 47.947630 0.764801 2.262923 0.024285 -0.003699 46994.000000 0 0 1
-26.433454 -27.017593 -30.201370 48.381820 0.796326 2.244941 0.030773 -0.006917 168586.000000 0 0 1
-27.643924 -27.718673 -30.011960 49.327772 0.786748 2.224863 0.021698 -0.004780 367493.000000 0 0 1
-27.236824 -29.062353 -29.625550 49.640086 0.817812 2.210312 0.026183 -0.008471 507677.000000 0 0 1
-28.284144 -30.187473 -29.904120 51.044419 0.817938 2.196719 0.039079 0.001894 -49481.900000 0 0 1
-28.223214 -30.668603 -31.250330 52.093148 0.826898 2.214164 0.038071 -0.013663 340471.000000 0 0 1
-28.197774 -32.101023 -31.300230 52.965031 0.850040 2.203045 0.040026 -0.000843 -229953.000000 0 0 1
-27.804764 -32.672303 -32.671460 53.925954 0.865711 2.221640 0.035253 -0.008764 572028.000000 0 0 1
-26.414464 -32.549913 -32.997220 53.348264 0.889079 2.237660 0.015499 -0.009647 326799.000000 0 0 1
-26.110064 -33.188943 -34.243985 54.368114 0.904212 2.252162 0.013820 -0.008959 -421988.000000 0 0 1
-24.608564 -33.214263 34.191327 53.645275 0.933142 0.879730 0.003950 -0.004915 -373373.000000 0 0 1
-24.310164 -33.817973 32.980823 53.126020 0.947529 0.901029 0.006576 -0.000415 -206231.000000 0 0 1
-23.422264 33.886250 33.180976 52.894778 -0.965999 0.892713 0.008092 0.003537 -914391.000000 0 0 1
-23.398064 32.975203 31.946603 51.530756 -0.953679 0.902115 0.015975 -0.001390 552270.000000 0 0 1
-24.654364 32.350055 31.615753 51.516207 -0.919589 0.910052 0.026318 -0.013997 509116.000000 0 0 1
-24.564864 31.626915 30.417343 50.288260 -0.910420 0.921207 0.029212 -0.008935 1173590.000000 0 0 1
-25.946614 30.988295 29.937233 50.296512 -0.873719 0.933263 0.032762 -0.011428 1242970.000000 0 0 1
-26.455134 29.850155 30.608623 50.277168 -0.845622 0.916252 0.039043 -0.013506 20257.500000 0 0 1
-27.779834 29.577835 30.232103 50.601853 -0.816735 0.930478 0.040008 -0.017082 -248964.000000 0 0 1
-28.371414 28.417595 31.038733 50.753323 -0.786211 0.912765 0.042362 -0.022152 -537257.000000 0 0 1
-27.782744 27.138265 30.899093 49.629832 -0.773664 0.898747 0.036485 -0.017554 -390625.000000 0 0 1
-28.498064 26.009025 31.295943 49.679423 -0.739765 0.889297 0.050699 -0.018567 -282361.000000 0 0 1
-29.234564 25.421275 30.054063 49.032108 -0.715742 0.911012 0.044147 -0.016721 -190967.000000 0 0 1
-28.362254 25.108805 29.002133 47.707371 -0.724628 0.917362 0.035515 -0.014450 -255936.000000 0 0 1
-29.087044 24.334755 28.064843 47.179146 -0.696674 0.933709 0.031803 -0.016315 -212722.000000 0 0 1
-28.327704 24.013535 26.787813 45.789689 -0.703160 0.945894 0.030888 -0.005101 -396436.000000 0 0 1
-27.405154 22.994615 27.119433 44.891630 -0.698109 0.922149 0.032493 -0.007278 159614.000000 0 0 1
-26.382814 22.911015 26.139843 43.637815 -0.715084 0.928522 0.026530 -0.009879 391651.000000 0 0 1
-25.081714 22.167315 26.599153 42.755084 -0.723795 0.899338 0.011756 -0.010249 232293.000000 0 0 1
-25.126564 20.768315 26.889813 42.257889 -0.690721 0.881070 0.033325 -0.014122 387268.000000 0 0 1
-23.882264 20.227615 27.314663 41.540459 -0.702734 0.853243 0.011441 -0.008778 30543.800000 0 0 1
-24.065564 19.049715 28.329573 41.768502 -0.669583 0.825415 0.031441 -0.009361 -83301.200000 0 0 1
-22.928364 18.235215 28.581543 40.928444 -0.671876 0.797735 0.008188 -0.004849 315593.000000 0 0 1
-23.256564 17.094115 29.356013 41.168581 -0.633847 0.776931 0.015389 -0.001260 115394.000000 0 0 1
-22.008564 16.182215 29.496093 40.202742 -0.634006 0.747069 0.024479 -0.002695 225451.000000 0 0 1
-21.102464 16.678815 30.447623 40.627018 -0.668843 0.723576 0.029528 0.001355 -324016.000000 0 0 1
-19.850264 16.054615 30.379533 39.682486 -0.680075 0.698877 0.023308 -0.000899 -502294.000000 0 0 1
-18.815564 16.711315 31.273493 40.141311 -0.726238 0.677591 0.021012 -0.014378 -905946.000000 0 0 1
-19.059864 16.527115 32.655280 41.264891 -0.714347 0.657770 0.017160 -0.019939 -20209.300000 0 0 1
-17.997364 16.880715 33.494210 41.601992 -0.753393 0.634934 0.019126 -0.015944 -1016820.000000 0 0 1
-18.212064 16.483315 -33.769440 41.758281 -0.735613 2.512715 0.006483 -0.021286 -105896.000000 0 0 1
-19.147964 17.195215 -33.006570 41.853956 -0.731719 2.479346 0.019709 -0.020637 156486.000000 0 0 1
-20.499464 16.916615 -33.336880 42.635049 -0.689932 2.468524 0.023123 -0.016975 -715723.000000 0 0 1
-21.454664 17.783815 -32.524970 42.830367 -0.692117 2.433172 0.033238 -0.018210 -323820.000000 0 0 1
-21.477964 17.408715 -31.178160 41.670661 -0.681134 2.416147 0.024566 -0.017681 126915.000000 0 0 1
-22.498464 18.124215 -30.511290 42.019125 -0.678131 2.383471 0.009197 -0.017490 -201619.000000 0 0 1
-22.510964 17.642115 -28.999840 40.730559 -0.664730 2.363128 0.015624 -0.022377 249532.000000 0 0 1
-23.124864 16.369015 -28.740630 40.357500 -0.615977 2.363354 0.008656 -0.022599 -380768.000000 0 0 1
-24.529064 16.401815 -28.806980 41.237563 -0.589387 2.344182 0.030936 -0.020883 -347091.000000 0 0 1
-25.250204 15.329515 -28.005430 40.704680 -0.545627 2.329546 0.037195 -0.017053 -461092.000000 0 0 1
-25.208504 14.029915 -28.531650 40.575390 -0.507862 2.350651 0.008704 -0.005884 -25332.100000 0 0 1
-25.829654 13.012915 -27.744510 40.078234 -0.466681 2.335411 -0.010870 -0.001311 121035.000000 0 0 1
-25.245624 11.609815 -28.053450 39.485762 -0.431035 2.360962 0.004452 -0.000508 410872.000000 0 0 1
-24.116864 11.315615 -27.246460 38.105588 -0.438705 2.367457 0.006727 -0.005328 122059.000000 0 0 1
-23.309364 10.287215 -27.761750 37.681136 -0.415624 2.399054 0.009475 0.000883 250843.000000 0 0 1
-22.316164 9.600915 -26.774950 36.153654 -0.406286 2.404741 0.031742 -0.007221 -33146.700000 0 0 1
-22.868664 8.578915 -25.951380 35.637729 -0.358892 2.386488 0.023469 -0.011656 73228.400000 0 0 1
-21.993364 8.140415 -24.926640 34.224433 -0.354495 2.386676 0.042214 -0.007108 61526.700000 0 0 1
-22.564664 6.871715 -24.228940 33.814584 -0.295612 2.369602 0.030639 -0.009769 165369.000000 0 0 1
-22.672264 5.734915 -25.028140 34.253884 -0.247752 2.390093 0.036058 -0.013597 199208.000000 0 0 1
-23.366164 4.682015 -24.391240 34.100315 -0.197757 2.367820 0.027479 0.002019 -406389.000000 0 0 1
34.568070 24.663297 -10.388940 43.716813 0.619709 1.810734 -0.027623 0.004069 212780.000000 0 0 1
35.329080 23.941897 -9.390140 43.698204 0.595590 1.787372 -0.010823 0.000429 -3434.510000 0 0 1
-35.473483 23.001697 -10.040740 43.454143 -0.575263 1.803969 -0.002787 0.000987 -277315.000000 0 0 1
-34.511930 22.392597 -9.016540 42.116502 -0.575557 1.786552 0.021037 -0.002806 -469719.000000 0 0 1
-35.169121 21.454097 -8.187540 42.002157 -0.547759 1.766984 0.003833 -0.002875 -189760.000000 0 0 1
-34.329740 21.104197 -7.131440 40.924023 -0.551194 1.745951 0.044317 -0.004682 -266247.000000 0 0 1
-34.999570 20.301397 -5.963340 40.898387 -0.525619 1.717127 0.026890 -0.002368 -155503.000000 0 0 1
-35.289914 18.923797 -6.271240 40.531674 -0.492216 1.726145 0.016232 -0.002200 232719.000000 0 0 1
-35.605779 18.139697 -5.128440 40.287976 -0.471186 1.698437 0.024614 -0.010518 -172735.000000 0 0 1
35.317100 16.870097 -5.697140 39.551930 0.445629 1.715341 0.032882 -0.009595 722198.000000 0 0 1
34.049440 17.181797 -6.308240 38.657113 0.467331 1.734714 0.043563 -0.006826 624868.000000 0 0 1
33.704680 16.249097 -7.279640 38.118654 0.449227 1.762950 0.058540 -0.008622 895834.000000 0 0 1
32.431690 16.648597 -8.147640 37.354710 0.474265 1.790679 0.049929 -0.014600 876303.000000 0 0 1
32.123560 15.737397 -9.131640 36.918500 0.455537 1.820736 0.057114 -0.015602 -32543.200000 0 0 1
31.309530 16.217697 -10.185640 36.702147 0.477928 1.852010 0.052218 -0.008963 -319627.000000 0 0 1
30.707470 15.045497 -11.037040 35.932325 0.455585 1.883006 0.040252 -0.007401 -760744.000000 0 0 1
29.599200 14.392697 -10.547040 34.561574 0.452590 1.880910 0.040662 -0.000971 -543661.000000 0 0 1
29.633360 13.793097 -9.252640 33.970530 0.435635 1.846654 0.043392 -0.007912 -585817.000000 0 0 1
28.539790 12.716097 -9.005640 32.516462 0.419153 1.851421 0.032869 0.001391 77569.900000 0 0 1
28.909790 11.476097 -9.482740 32.517674 0.377885 1.866714 0.033058 0.006086 -236162.000000 0 0 1
27.855010 10.576297 -9.553940 31.289573 0.362877 1.881091 0.032280 -0.001174 -855645.000000 0 0 1
28.167650 9.154097 -10.073340 31.283960 0.314219 1.898634 0.036828 0.004190 -137228.000000 0 0 1
29.268100 8.604897 -9.354440 31.908799 0.285946 1.868329 0.052843 0.001106 687479.000000 0 0 1
29.483790 7.282197 -9.803740 31.912969 0.242144 1.883048 0.048917 -0.001924 -130438.000000 0 0 1
30.537530 6.627897 -8.831440 32.472513 0.213726 1.846232 0.063387 -0.007117 137082.000000 0 0 1
31.841080 6.992597 -9.233840 33.882364 0.216178 1.846814 0.065493 -0.010254 -649087.000000 0 0 1
32.739100 6.503497 -8.313240 34.398461 0.196093 1.814888 0.083654 -0.019041 449414.000000 0 0 1
34.253250 6.782997 -8.662040 35.976730 0.195496 1.813953 0.070845 -0.018254 742647.000000 0 0 1
34.682160 6.246797 -9.838140 36.587753 0.178205 1.843038 0.064909 -0.014345 -540780.000000 0 0 1
-35.568703 6.481797 -10.036240 37.521627 -0.180255 1.841572 0.055498 -0.014208 -1142240.000000 0 0 1
-35.014636 5.609797 -11.216740 37.192873 -0.158863 1.877149 0.047520 -0.012521 405588.000000 0 0 1
-33.611774 5.614097 -11.466240 35.954751 -0.165500 1.895373 0.047893 -0.009733 1140810.000000 0 0 1
-32.989904 6.691297 -12.214240 35.809145 -0.200114 1.918875 0.037332 -0.011320 -118197.000000 0 0 1
-32.451884 7.896797 -11.362040 35.278608 -0.238699 1.898707 0.029741 -0.006224 -1011840.000000 0 0 1
-33.374524 8.582097 -10.579540 36.047717 -0.251692 1.868669 0.035116 -0.006890 -148531.000000 0 0 1
-34.062015 9.622897 -11.296740 37.154238 -0.275336 1.879737 0.030553 -0.006866 35938.300000 0 0 1
-34.897436 10.433497 -10.275240 37.845336 -0.290517 1.845754 0.037435 -0.006508 173073.000000 0 0 1
-34.085719 11.262597 -9.431440 37.116498 -0.319126 1.827717 0.044358 -0.008287 212347.000000 0 0 1
-34.840359 12.087397 -8.560540 37.858139 -0.333943 1.798891 0.056726 -0.016681 -250502.000000 0 0 1
-33.931084 12.923197 -7.644540 37.104804 -0.363904 1.778308 0.066301 -0.015107 -46377.500000 0 0 1
-33.129574 13.864097 -8.305840 36.861482 -0.396336 1.798074 0.042131 -0.017135 -366766.000000 0 0 1
-32.535244 14.712097 -7.359240 36.457459 -0.424673 1.774051 0.041918 -0.010824 22737.900000 0 0 1
-31.497284 15.685797 -7.948940 36.073658 -0.462050 1.792973 0.018700 -0.001847 -97603.400000 0 0 1
-32.095004 16.655097 -8.790940 37.212393 -0.478678 1.809288 0.021426 -0.001821 117518.000000 0 0 1
-31.277714 17.810297 -9.050640 37.113558 -0.517634 1.817144 0.027578 0.001225 389222.000000 0 0 1
-31.995594 18.981997 -9.844840 38.483180 -0.535456 1.829494 0.010101 0.000499 297295.000000 0 0 1
-31.915524 18.711997 -11.241240 38.666588 -0.530283 1.865778 0.006880 0.003518 -187653.000000 0 0 1
-33.017924 19.230797 -11.930140 40.029178 -0.527404 1.873431 0.001718 -0.001450 -206105.000000 0 0 1
-32.681224 19.341497 -13.500840 40.304201 -0.534385 1.912373 -0.008202 0.010734 195904.000000 0 0 1
-31.778024 20.409597 -13.801440 40.210375 -0.570911 1.921151 -0.002637 0.005790 285427.000000 0 0 1
-31.692404 20.661397 -15.194140 40.769642 -0.577735 1.952695 -0.021420 0.010159 -889.631000 0 0 1
-30.702244 21.834297 -15.575540 40.767166 -0.618179 1.962822 0.006568 -0.001304 744635.000000 0 0 1
-29.397684 21.598897 -15.051440 39.462413 -0.633646 1.962120 0.008420 0.004147 1562400.000000 0 0 1
-28.480584 22.759997 -14.875940 39.375814 -0.674217 1.958209 0.021589 0.000994 1219750.000000 0 0 1
-27.796824 23.447997 -16.064740 39.756105 -0.700737 1.986772 0.009231 -0.004530 -445210.000000 0 0 1
-28.774524 24.076997 -16.935840 41.164277 -0.696750 1.994809 0.022530 0.004851 696143.000000 0 0 1
-28.247244 24.750997 -18.061040 41.673971 -0.719525 2.019046 0.009356 0.004681 -461214.000000 0 0 1
-27.424014 26.004997 -17.817140 41.782615 -0.758845 2.011333 0.010265 0.006372 -138442.000000 0 0 1
-28.144304 27.083697 -17.318940 42.726739 -0.766196 1.988149 0.019209 0.007591 -63919.300000 0 0 1
-27.303484 28.201697 -17.404540 42.938724 -0.801579 1.988141 0.017138 0.006208 150076.000000 0 0 1
-27.975354 29.510097 -16.950440 44.054327 -0.812090 1.965747 0.015529 0.005148 -180133.000000 0 0 1
-28.430814 29.674597 -15.586640 43.952659 -0.806801 1.933308 0.014799 -0.002013 296403.000000 0 0 1
-27.547584 29.420497 -14.502240 42.833982 -0.818263 1.916192 0.011660 0.003507 -380361.000000 0 0 1
-27.932014 30.237297 -13.240640 43.241255 -0.825008 1.881999 0.012231 -0.005211 -338668.000000 0 0 1
-27.553194 31.588697 -13.303140 43.977242 -0.853527 1.878111 0.027991 -0.002984 163859.000000 0 0 1
-27.954524 32.391597 -12.210340 44.494532 -0.858793 1.848786 0.022305 -0.002914 -223062.000000 0 0 1
-27.255524 33.767097 -12.255140 45.091783 -0.891703 1.846041 0.009531 -0.004624 -253602.000000 0 0 1
-27.571114 -34.097220 -13.291340 45.819717 0.890832 1.865106 0.007353 -0.015097 131289.000000 0 0 1
-26.583184 -33.088720 -13.467340 44.529747 0.893991 1.878042 0.024638 -0.009572 26447.800000 0 0 1
-26.853824 -32.146920 -14.675540 44.383824 0.874871 1.907789 0.022514 -0.008984 -4672.870000 0 0 1
-26.653854 -32.776320 -15.950840 45.156887 0.888056 1.931819 0.013434 -0.014230 7195.590000 0 0 1
-26.990764 -31.968220 -17.042840 45.176618 0.869621 1.957620 0.017829 0.000168 -136287.000000 0 0 1
-26.323844 -32.467720 -18.339440 45.644635 0.889523 1.984264 0.011286 0.003863 -264181.000000 0 0 1
-26.741014 -33.731920 -18.811040 46.976372 0.900491 1.982789 0.011218 0.003241 -309597.000000 0 0 1
-25.907174 34.025197 -18.385540 46.550229 -0.920032 1.976822 0.006591 0.004398 -833502.000000 0 0 1
-26.094254 32.773097 -19.297440 46.123499 -0.898371 2.002464 0.013024 -0.001647 385437.000000 0 0 1
-27.320894 32.040697 -19.308340 46.323315 -0.864741 2.000737 0.013232 -0.006218 285651.000000 0 0 1
-28.241994 32.615597 -20.221740 47.647730 -0.857141 2.009096 0.015724 -0.001160 -337020.000000 0 0 1
-29.647504 31.996397 -20.134740 48.043227 -0.823484 2.003246 0.022910 -0.005579 -168188.000000 0 0 1
-29.758804 30.613997 -20.538940 47.377751 -0.799562 2.019185 0.018739 -0.010794 408621.000000 0 0 1
-31.134974 30.263397 -20.535140 48.030738 -0.771204 2.012568 0.031999 -0.012286 219883.000000 0 0 1
-31.517234 28.854597 -21.120540 47.665512 -0.741323 2.029849 0.034933 -0.009241 -395070.000000 0 0 1
-32.902644 28.632197 -21.184140 48.488705 -0.716110 2.022933 0.048364 -0.013097 -14178.200000 0 0 1
-33.121774 27.507697 -22.034240 48.365619 -0.693065 2.043816 0.044773 -0.010747 330787.000000 0 0 1
-34.593727 26.992097 -22.140540 49.147765 -0.662588 2.038110 0.043708 -0.009230 610078.000000 0 0 1
-35.265903 27.657797 -23.209340 50.470894 -0.665072 2.048629 0.033268 -0.007369 75146.500000 0 0 1
35.165490 26.956597 -23.604740 50.204119 0.654018 2.060286 0.031629 0.000808 571267.000000 0 0 1
34.383310 27.646897 -24.761440 50.593397 0.677223 2.082221 0.021884 0.001147 -79770.800000 0 0 1
35.072250 27.611497 -25.966670 51.640347 0.666933 2.097674 0.040775 -0.005374 -260600.000000 0 0 1
34.254910 27.902397 -27.097980 51.828980 0.683551 2.120969 0.036213 0.000209 -179960.000000 0 0 1
35.071520 28.175797 -28.347080 53.173715 0.676799 2.133061 0.041077 -0.006491 -194439.000000 0 0 1
35.757780 27.040997 -28.791390 53.280188 0.647474 2.141681 0.035179 -0.002509 -539163.000000 0 0 1
-35.180014 27.226897 -29.949220 53.627354 -0.658642 2.163335 0.021844 -0.006586 -1084170.000000 0 0 1
-34.610779 25.982497 -30.708860 53.066282 -0.643952 2.187916 0.022682 -0.009508 1775.340000 0 0 1
-33.706454 25.172397 -30.046370 51.696799 -0.641458 2.191003 0.029824 -0.011290 -747024.000000 0 0 1
-32.433694 25.754397 -29.931820 51.099387 -0.671110 2.196610 0.025732 -0.005877 -736603.000000 0 0 1
-31.547814 24.912097 -28.972080 49.550566 -0.668405 2.195303 0.020056 -0.008842 -406324.000000 0 0 1
-31.204274 23.659597 -29.456860 49.001937 -0.648739 2.215719 0.036131 -0.018759 129436.000000 0 0 1
-31.697994 22.604097 -28.639610 48.331515 -0.619469 2.205037 0.037803 -0.017684 -98873.600000 0 0 1
-31.370694 21.220797 -29.180810 47.811739 -0.594747 2.227270 0.030807 -0.022843 501446.000000 0 0 1
-29.992174 20.862697 -29.019580 46.657461 -0.607770 2.242053 0.043877 -0.026620 493766.000000 0 0 1
-29.809184 19.612697 -29.644790 46.390289 -0.581938 2.264033 0.034455 -0.025275 -1465300.000000 0 0 1
-28.379234 19.181597 -29.708990 45.342460 -0.594369 2.285261 0.050702 -0.026833 -1492310.000000 0 0 1
-27.825584 19.839997 -30.873820 46.055199 -0.619406 2.305498 0.051996 -0.027608 544865.000000 0 0 1
-26.615634 19.195397 -31.316720 45.360690 -0.624818 2.332829 0.043169 -0.024712 468720.000000 0 0 1
-26.672874 17.846897 -32.059780 45.362798 -0.589687 2.355678 0.028207 -0.013443 -351563.000000 0 0 1
-27.061154 16.815897 -31.160720 44.565356 -0.556009 2.345094 0.014310 -0.007175 141990.000000 0 0 1
-26.929364 15.621397 -31.886680 44.564325 -0.525650 2.368165 0.006116 -0.002281 -115950.000000 0 0 1
-27.416394 14.404297 -31.105290 43.893980 -0.483753 2.358374 0.007499 0.001284 -28619.700000 0 0 1
-28.822144 14.436597 -30.946550 44.685795 -0.464356 2.335796 0.011017 -0.004521 184867.000000 0 0 1
-29.500304 13.190597 -30.818270 44.654513 -0.420468 2.332491 0.003171 -0.003027 64041.800000 0 0 1
-29.392314 12.326397 -29.567520 43.475124 -0.397096 2.318698 -0.008664 -0.007479 -418970.000000 0 0 1
-29.855874 12.958997 -28.402650 43.197446 -0.409513 2.288302 -0.013616 -0.007083 186920.000000 0 0 1
-30.138914 12.065397 -27.333060 42.438475 -0.380788 2.270594 -0.010610 0.004688 17537.300000 0 0 1
-29.922484 12.730297 -25.977860 41.620485 -0.402245 2.244853 -0.012361 -0.001424 -205554.000000 0 0 1
-28.580284 12.994497 -25.658440 40.546826 -0.426728 2.255973 -0.007728 -0.004926 -255827.000000 0 0 1
-28.498274 13.640397 -24.409640 39.925463 -0.446414 2.228600 -0.010860 -0.003112 1949.280000 0 0 1
-27.054954 13.631597 -23.837140 38.548673 -0.466722 2.237457 -0.006827 0.000121 -362538.000000 0 0 1
-26.183154 14.403997 -24.645040 38.735135 -0.502939 2.260418 0.008298 -0.004844 -855454.000000 0 0 1
-24.899864 14.427497 -24.131740 37.556581 -0.525150 2.268609 0.012220 -0.012712 -678890.000000 0 0 1
-24.575164 15.247497 -22.840940 36.852862 -0.555316 2.239268 0.017136 -0.011192 -1129410.000000 0 0 1
-24.757564 16.655497 -22.848940 37.582132 -0.592198 2.224302 0.028703 -0.018255 141302.000000 0 0 1
-24.893964 17.029297 -21.501140 37.040592 -0.599957 2.190108 0.021418 -0.003970 417649.000000 0 0 1
-26.378594 17.184997 -21.034840 37.863160 -0.577412 2.159819 0.011629 -0.001762 379747.000000 0 0 1
-27.118514 15.979797 -20.947040 37.809340 -0.532483 2.157979 0.013442 0.000079 1484690.000000 0 0 1
-28.424614 16.270697 -20.370440 38.570055 -0.519890 2.127207 0.019349 0.009207 1085710.000000 0 0 1
-29.659064 15.432697 -20.759040 39.354364 -0.479784 2.126440 -0.011869 0.005505 107894.000000 0 0 1
-29.983274 15.242897 -22.118240 40.256170 -0.470329 2.152487 -0.006884 0.005045 262947.000000 0 0 1
-30.920684 16.204197 -22.585440 41.578442 -0.482707 2.145041 -0.015762 0.002138 -117407.000000 0 0 1
-31.291674 16.128897 -24.078340 42.650635 -0.475921 2.170682 -0.012458 -0.005183 -388545.000000 0 0 1
-32.332414 15.225297 -24.335240 43.236542 -0.440097 2.168614 -0.000494 -0.002116 -165173.000000 0 0 1
-32.736124 15.218097 -25.668000 44.295491 -0.435152 2.188877 0.009197 -0.012390 -574392.000000 0 0 1
-33.979684 14.370497 -25.886900 45.069521 -0.400103 2.182639 0.004889 -0.007843 -463380.000000 0 0 1
-33.825054 12.940297 -25.862290 44.502175 -0.365387 2.190933 0.004057 -0.006270 48679.000000 0 0 1
-33.670814 12.373097 -24.624840 43.510918 -0.352155 2.172377 -0.007213 -0.003274 -221149.000000 0 0 1
-33.627344 10.797297 -24.666240 43.079035 -0.310689 2.180447 0.001331 0.000308 -307374.000000 0 0 1
-34.846687 10.318197 -25.153100 44.197684 -0.287877 2.176213 0.015917 -0.005738 -202486.000000 0 0 1
-34.612190 9.310797 -26.083140 44.328601 -0.262783 2.199880 0.011238 -0.002784 405701.000000 0 0 1
35.668642 8.707197 -26.618160 45.349683 0.239431 2.198087 0.030485 -0.002653 988592.000000 0 0 1
34.766940 8.074597 -25.686920 43.974505 0.228204 2.194607 0.032283 -0.004742 181168.000000 0 0 1
33.657650 7.463597 -26.271930 43.344630 0.218219 2.221966 0.032262 -0.005245 -592987.000000 0 0 1
32.880890 6.596797 -25.316650 42.019084 0.197998 2.217431 0.036257 -0.013127 -275638.000000 0 0 1
33.650560 5.516497 -24.787140 42.156781 0.162489 2.199350 0.045616 -0.020936 426746.000000 0 0 1
32.840500 4.554997 -24.124640 41.002984 0.137821 2.199829 0.047515 -0.016433 654317.000000 0 0 1
33.776700 3.568697 -23.323640 41.201859 0.105265 2.172542 0.045469 -0.017574 914672.000000 0 0 1
34.566880 2.652097 -24.141640 42.245965 0.076574 2.179073 0.048771 -0.019607 700653.000000 0 0 1
35.498550 1.995897 -23.293440 42.505470 0.056166 2.150780 0.051056 -0.016361 157716.000000 0 0 1
-35.221638 0.920597 -24.015840 42.640026 -0.026131 2.169077 0.052081 -0.015753 132338.000000 0 0 1
35.721429 -0.179903 -24.542640 43.340443 -0.005036 2.172777 0.052494 -0.012780 184854.000000 0 0 1
-34.917391 -1.182003 -24.845440 42.870937 0.033838 2.188961 0.056222 -0.012892 511471.000000 0 0 1
-22.849164 29.822297 27.338643 46.463482 -0.917022 0.941730 0.044661 -0.013350 1112240.000000 0 0 1
-24.124864 29.959597 26.600243 46.767077 -0.892864 0.965773 0.031207 -0.018229 2145690.000000 0 0 1
-24.299764 29.127597 25.424683 45.665194 -0.875516 0.980313 0.028404 -0.006016 -228535.000000 0 0 1
-24.675464 27.629697 25.626633 45.044456 -0.841819 0.965606 0.029427 -0.016417 -61675.600000 0 0 1
-25.960664 27.264097 26.108923 45.814440 -0.809882 0.964431 0.030376 -0.015070 162111.000000 0 0 1
-26.218184 27.331897 27.536523 46.826124 -0.806193 0.942139 0.036038 -0.015680 -865982.000000 0 0 1
-25.519304 26.322997 28.449213 46.405741 -0.800900 0.910876 0.031280 -0.007918 140643.000000 0 0 1
-24.108764 26.431697 28.602453 45.803575 -0.831328 0.896358 0.038504 -0.011335 141360.000000 0 0 1
-23.790164 27.112497 29.766033 46.766186 -0.850574 0.880862 0.033935 -0.011474 268646.000000 0 0 1
-22.380964 26.742697 30.304833 46.200241 -0.873957 0.855362 0.040906 -0.002924 41511.600000 0 0 1
-21.255664 27.242897 29.588263 45.491142 -0.908228 0.862662 0.053336 -0.010326 712613.000000 0 0 1
-20.053464 26.731197 30.193293 45.037021 -0.927174 0.836034 0.077606 -0.013712 586657.000000 0 0 1
-19.582064 25.296397 29.835333 43.743709 -0.912046 0.820236 0.061402 -0.007021 -806582.000000 0 0 1
-19.011264 25.223997 28.571613 42.591258 -0.924933 0.835465 0.060643 -0.002894 -80583.900000 0 0 1
-19.656364 24.361297 27.630483 41.752713 -0.891881 0.847626 0.051137 -0.003941 -24312.400000 0 0 1
-19.396864 22.809397 27.825423 40.874945 -0.866076 0.822017 0.043993 0.006552 -138059.000000 0 0 1
-20.082564 22.290097 28.897463 41.655986 -0.837449 0.804159 0.020978 0.002680 -227851.000000 0 0 1
-20.114964 20.883797 28.787903 40.859370 -0.804149 0.788993 0.020831 0.003907 91711.100000 0 0 1
-20.613464 20.274197 30.107493 41.742294 -0.777101 0.765161 0.024364 -0.001781 233575.000000 0 0 1
-19.640964 20.470997 31.116913 42.108093 -0.806088 0.739246 0.023006 -0.009085 539649.000000 0 0 1
-20.293464 20.354697 32.377923 43.295130 -0.786905 0.725991 0.021073 -0.012736 -372425.000000 0 0 1
-19.364464 20.647797 33.525947 43.878276 -0.817461 0.701202 0.025498 -0.017926 -426947.000000 0 0 1
-19.186064 22.006497 33.854937 44.705120 -0.853761 0.711636 0.035340 -0.013953 438442.000000 0 0 1
-18.224964 22.809697 33.145186 44.170521 -0.896665 0.722142 0.054567 -0.008361 277771.000000 0 0 1
-16.766864 22.823997 33.653483 43.984310 -0.937214 0.699561 0.067279 -0.007705 292382.000000 0 0 1
-16.099464 21.564397 33.462408 42.941224 -0.929490 0.677311 0.064576 -0.016609 -145678.000000 0 0 1
-14.737864 21.701097 33.790214 42.777574 -0.974215 0.660142 0.048007 -0.016828 -166986.000000 0 0 1
-13.904464 20.373397 33.716221 41.775508 -0.971925 0.631605 0.047286 -0.016863 320245.000000 0 0 1
-12.591764 20.261697 34.231327 41.723766 -1.014749 0.608638 0.036056 -0.018345 238453.000000 0 0 1
-12.407664 20.440497 -33.092430 40.827356 -1.025236 2.515879 0.045276 -0.019994 -1110000.000000 0 0 1
-10.971264 20.311697 -32.644160 39.982182 -1.075551 2.526063 0.045791 -0.019653 -496907.000000 0 0 1
-10.150264 21.457697 -32.842120 40.522407 -1.128952 2.515747 0.037302 -0.016319 1258250.000000 0 0 1
-8.782364 21.101497 -32.456360 39.696579 -1.176406 2.528046 0.030608 -0.014759 1562570.000000 0 0 1
-7.845764 22.338297 -32.414880 40.140752 -1.233031 2.510749 0.031239 -0.016138 41579.200000 0 0 1
-8.249564 23.336597 -31.482760 40.047675 -1.231004 2.475322 0.032669 -0.011460 54481.100000 0 0 1
-7.753264 23.186997 -30.176210 38.837528 -1.248104 2.460660 0.022644 -0.015713 -18706.000000 0 0 1
-7.232664 24.537697 -29.520780 39.062597 -1.284156 2.427565 0.017856 -0.012853 -234061.000000 0 0 1
-6.163764 25.105897 -30.194820 39.749531 -1.330047 2.433536 0.012938 -0.011439 -363091.000000 0 0 1
-5.766264 26.374897 -29.702230 40.138603 -1.355556 2.403854 0.014743 0.000214 186710.000000 0 0 1
-4.345864 26.827997 -30.126860 40.574076 -1.410201 2.407614 0.020727 -0.001025 -717581.000000 0 0 1
-3.313764 26.162697 -29.466510 39.544190 -1.444807 2.411562 0.030913 -0.010682 560735.000000 0 0 1
-1.998564 26.509197 -29.946140 40.043765 -1.495547 2.415592 0.037761 -0.005914 1033690.000000 0 0 1
-1.459664 27.895097 -29.465490 40.601504 -1.518517 2.382883 0.032059 -0.012537 -807402.000000 0 0 1
-1.096664 27.990597 -28.121260 39.692335 -1.531637 2.358140 0.045264 -0.024617 415012.000000 0 0 1
-0.513564 29.226997 -27.750430 40.305924 -1.553227 2.330208 0.039893 -0.020355 -924287.000000 0 0 1
-0.067764 29.371797 -26.272670 39.407617 -1.568489 2.300555 0.060092 -0.036628 172078.000000 0 0 1
1.029236 28.660497 -25.742950 38.538071 1.534900 2.302297 0.087919 -0.052066 497563.000000 0 0 1
2.276236 28.774897 -26.442960 39.145959 1.491856 2.312434 0.093707 -0.051070 359995.000000 0 0 1
3.467336 28.723197 -25.423650 38.515016 1.450662 2.291744 0.085338 -0.054755 185438.000000 0 0 1
3.820736 27.485897 -24.891340 37.278028 1.432674 2.301940 0.096524 -0.049192 894972.000000 0 0 1
5.195436 27.590497 -24.466740 37.240428 1.384671 2.287621 0.064717 -0.038835 910221.000000 0 0 1
5.663336 26.416197 -23.543840 35.835754 1.359604 2.287620 0.075608 -0.036266 -612793.000000 0 0 1
6.940536 26.650197 -23.057440 35.917260 1.316025 2.267848 0.058851 -0.036828 -817695.000000 0 0 1
7.650836 25.450397 -22.701940 34.951911 1.278773 2.277748 0.046501 -0.015983 332734.000000 0 0 1
9.121536 25.785197 -22.402340 35.354542 1.230784 2.257056 0.038060 0.005071 -838802.000000 0 0 1
9.234536 26.625497 -21.285540 35.316681 1.236948 2.217683 0.045103 0.003507 346023.000000 0 0 1
10.551036 26.856997 -20.787340 35.563129 1.196460 2.195084 0.050031 -0.003129 230027.000000 0 0 1
11.280536 25.704097 -20.112740 34.532208 1.157244 2.192516 0.026866 0.014074 -478503.000000 0 0 1
11.735336 24.780897 -21.064240 34.576194 1.128520 2.225863 0.021617 0.003555 -251222.000000 0 0 1
11.967936 23.550697 -20.412940 33.384951 1.100628 2.228677 0.009505 0.012137 -157298.000000 0 0 1
12.407536 22.450897 -21.398640 33.404962 1.065919 2.266053 0.001735 0.005286 599554.000000 0 0 1
11.344736 22.177197 -22.343040 33.462554 1.097952 2.301915 0.010113 -0.006459 789071.000000 0 0 1
11.567236 21.009397 -23.093040 33.293906 1.067512 2.337287 0.000508 0.004500 229552.000000 0 0 1
10.614036 20.771797 -24.341340 33.713886 1.098401 2.377481 0.019380 0.007722 -212801.000000 0 0 1
9.266036 20.656497 -24.008040 32.999034 1.149126 2.385522 0.015298 0.002102 -809214.000000 0 0 1
8.623636 20.606297 -25.248610 33.711702 1.174448 2.417283 0.010615 -0.001456 -840698.000000 0 0 1
7.101336 20.580297 -25.418720 33.467730 1.238534 2.433340 0.024506 -0.015690 -158757.000000 0 0 1
6.330136 21.713797 -25.124730 33.805497 1.287132 2.408658 0.044211 -0.017915 -73520.900000 0 0 1
6.238636 22.013297 -23.746040 32.975449 1.294635 2.374761 0.047579 -0.012801 -1147590.000000 0 0 1
4.866936 22.365797 -23.181940 32.577880 1.356530 2.362548 0.061942 -0.022735 -407336.000000 0 0 1
4.308836 23.560997 -23.662740 33.669154 1.389915 2.350125 0.062090 -0.026238 -427006.000000 0 0 1
2.927136 23.492697 -23.875440 33.623081 1.446837 2.360423 0.073194 -0.025833 -384288.000000 0 0 1
2.326836 24.698197 -24.622340 34.952464 1.476863 2.352447 0.066370 -0.023896 -857192.000000 0 0 1
1.006536 24.440197 -24.974940 34.958318 1.529636 2.366592 0.082349 -0.044033 -760437.000000 0 0 1
0.671136 25.243497 -26.049770 36.280506 1.544216 2.371736 0.080374 -0.038931 -365912.000000 0 0 1
-0.814364 25.109897 -26.393140 36.438550 -1.538376 2.380843 0.080058 -0.032971 -346508.000000 0 0 1
-1.191864 23.842197 -26.939190 35.994317 -1.520848 2.416486 0.087165 -0.040289 132709.000000 0 0 1
-2.469464 23.977997 -27.553070 36.608937 -1.468169 2.422847 0.083861 -0.031195 186336.000000 0 0 1
-3.127864 22.682197 -27.966750 36.144221 -1.433761 2.455543 0.077725 -0.033754 -250020.000000 0 0 1
-2.421164 21.951197 -28.970480 36.428091 -1.460943 2.490263 0.092702 -0.038272 -11143.500000 0 0 1
-3.024864 20.704597 -29.291650 35.997651 -1.425726 2.521303 0.076986 -0.042620 165617.000000 0 0 1
-4.135164 20.805397 -30.401440 37.070361 -1.374599 2.532384 0.053874 -0.030638 209517.000000 0 0 1
-3.702664 21.203697 -31.705170 38.321329 -1.397916 2.545170 0.056323 -0.027845 -53507.500000 0 0 1
-3.189364 22.525497 -31.900670 39.181919 -1.430142 2.522091 0.065142 -0.026574 -144859.000000 0 0 1
-2.539664 22.667197 -33.237620 40.311178 -1.459220 2.540161 0.038021 -0.019102 -443022.000000 0 0 1
-1.555064 21.718397 -33.554880 40.000462 -1.499317 2.565986 0.045199 -0.017199 66575.400000 0 0 1
-1.006164 22.019297 33.883783 40.422426 -1.525133 0.576745 0.036699 -0.003006 58585.700000 0 0 1
-0.077464 20.922597 33.364463 39.382083 -1.567094 0.560106 0.035877 0.001366 -201879.000000 0 0 1
-0.793964 19.834097 32.949481 38.466740 -1.530787 0.542209 0.033281 0.003663 188843.000000 0 0 1
0.142336 18.936697 32.348803 37.484181 1.563280 0.529621 0.046180 -0.003277 488120.000000 0 0 1
-0.392764 17.501597 32.099573 36.562860 -1.548358 0.499278 0.044104 -0.001537 -263546.000000 0 0 1
-1.182964 17.424797 30.972403 35.557175 -1.503011 0.513442 0.036023 0.002836 -400043.000000 0 0 1
-1.593064 16.105897 30.715013 34.718148 -1.472205 0.484954 0.037064 -0.001764 171470.000000 0 0 1
-2.793764 15.953697 29.729843 33.855415 -1.397437 0.498833 0.049278 0.000142 730320.000000 0 0 1
-4.042764 16.518397 30.117133 34.586747 -1.330771 0.514028 0.037564 -0.009015 289574.000000 0 0 1
-4.192364 17.853997 29.634693 34.850483 -1.340161 0.554169 0.034000 -0.002268 -354454.000000 0 0 1
-5.608464 18.411597 29.863073 35.528086 -1.275110 0.572502 0.031286 -0.012516 171523.000000 0 0 1
-6.505564 17.918197 28.886873 34.609761 -1.222525 0.583308 0.018559 -0.014809 -498481.000000 0 0 1
-7.750864 18.565997 28.913233 35.224241 -1.175316 0.607928 0.009584 -0.007129 -245084.000000 0 0 1
-8.807764 17.914197 27.975683 34.367630 -1.113840 0.619769 0.020211 -0.007145 100356.000000 0 0 1
-9.161364 16.555997 28.302633 34.045127 -1.065380 0.589305 0.044934 -0.016596 524265.000000 0 0 1
-9.961264 16.340897 29.504643 35.167821 -1.023354 0.575414 0.053195 -0.013824 -315830.000000 0 0 1
-10.547664 14.990097 29.834823 35.015324 -0.957630 0.550906 0.061651 -0.020619 -527237.000000 0 0 1
-9.665164 13.928397 30.014173 34.471238 -0.964164 0.514169 0.058637 -0.011929 -210910.000000 0 0 1
-8.780764 14.036297 31.121783 35.251735 -1.011783 0.488913 0.055092 -0.012856 7620.110000 0 0 1
-9.368264 13.553697 32.502323 36.439924 -0.966003 0.469173 0.077387 -0.020274 -137068.000000 0 0 1
-9.625064 12.134197 32.509673 36.010546 -0.900204 0.444602 0.072105 -0.010293 281308.000000 0 0 1
-10.222964 11.771297 33.723610 37.153120 -0.855679 0.433044 0.070759 -0.003712 -219983.000000 0 0 1
-10.462464 10.306897 33.926707 36.969132 -0.777908 0.408535 0.058402 -0.012528 -283070.000000 0 0 1
-9.295364 9.536297 34.116692 36.623673 -0.798192 0.372151 0.068114 -0.014648 3248.900000 0 0 1
-9.290764 8.786497 -33.440250 35.801831 -0.757510 2.776351 0.093122 -0.022254 -294771.000000 0 0 1
-8.487464 9.455497 -32.322800 34.730489 -0.839296 2.767050 0.074839 -0.021129 -530543.000000 0 0 1
-9.045364 10.602497 -31.717840 34.644667 -0.864485 2.727592 0.065285 -0.020588 124543.000000 0 0 1
-8.206364 11.185497 -30.724420 33.711270 -0.937834 2.717467 0.055553 -0.011921 -78121.600000 0 0 1
-7.078364 12.056497 -31.256330 34.240627 -1.039916 2.720991 0.052992 -0.010424 -650355.000000 0 0 1
-7.606264 13.283697 -31.625590 35.135307 -1.050766 2.690815 0.064484 -0.015460 -361609.000000 0 0 1
-6.745064 14.095597 -32.321040 35.900298 -1.124478 2.691255 0.047610 -0.010663 -325181.000000 0 0 1
-7.400964 15.486997 -32.675270 36.909275 -1.124999 2.657905 0.036415 -0.014739 276679.000000 0 0 1
-8.405164 15.501797 -33.667600 38.006049 -1.073957 2.659116 0.043890 -0.012425 137192.000000 0 0 1
-8.761364 16.858697 -33.869490 38.834514 -1.091518 2.630374 0.055987 -0.018973 -628612.000000 0 0 1
-9.360464 17.187797 33.471186 38.773173 -1.072109 0.529111 0.035661 -0.019735 1371510.000000 0 0 1
-10.603464 16.563497 33.083605 38.487762 -1.001362 0.536334 0.051118 -0.022538 1038190.000000 0 0 1
-11.780864 16.900297 33.773622 39.560919 -0.962033 0.547724 0.052449 -0.036807 399817.000000 0 0 1
-13.145764 16.469397 33.096569 39.235635 -0.897158 0.566968 0.048679 -0.040561 860147.000000 0 0 1
-13.369064 15.107097 32.782393 38.492097 -0.846357 0.551641 0.037922 -0.033449 237609.000000 0 0 1
-14.236664 14.514497 33.731187 39.384594 -0.795061 0.542431 0.045943 -0.028945 -44191.700000 0 0 1
-14.223864 12.961297 33.781524 38.878077 -0.738988 0.517802 0.036921 -0.024329 -148886.000000 0 0 1
-14.575064 12.348397 32.527893 37.722397 -0.702882 0.531009 0.014713 -0.020590 729162.000000 0 0 1
-13.453564 12.206397 31.638333 36.482580 -0.736833 0.521210 0.035106 -0.003751 457865.000000 0 0 1
-13.881764 11.635197 30.253863 35.261557 -0.697582 0.539464 0.014351 0.003373 -62507.800000 0 0 1
-14.266764 10.238397 30.311923 35.031100 -0.622467 0.525076 0.017308 0.002417 187691.000000 0 0 1
-14.245064 9.827497 28.985993 33.759285 -0.603907 0.538248 0.007943 -0.000473 -93079.100000 0 0 1
-15.001064 8.486297 28.774763 33.541558 -0.514827 0.539659 0.010220 0.001623 -99550.400000 0 0 1
-14.353364 7.280397 29.100033 33.254100 -0.469412 0.505193 0.002401 0.001117 -264042.000000 0 0 1
-15.108164 6.188497 28.657533 32.981939 -0.388766 0.517850 0.011082 0.006946 -99141.300000 0 0 1
-14.432964 4.799397 28.817693 32.585335 -0.321028 0.485641 0.018770 0.007483 821821.000000 0 0 1
-13.350564 4.443897 27.922663 31.267569 -0.321326 0.466777 0.020274 0.005567 585234.000000 0 0 1
-13.819164 4.172497 26.632403 30.292968 -0.293232 0.496697 0.020034 0.007993 -224867.000000 0 0 1
-12.854164 4.348897 25.427023 28.821449 -0.326237 0.490228 0.019929 0.017436 -212902.000000 0 0 1
-11.829164 3.380297 25.325653 28.155714 -0.278342 0.452206 0.004786 0.015874 46562.400000 0 0 1
-11.603864 3.135497 23.981343 26.825097 -0.263909 0.464626 0.010205 0.017450 -193479.000000 0 0 1
-10.669464 1.930597 23.742983 26.101607 -0.179009 0.428387 0.011666 0.004874 -247124.000000 0 0 1
-9.338064 2.239597 24.045213 25.891842 -0.235389 0.379961 0.011961 -0.001994 -143391.000000 0 0 1
-8.520164 1.074097 24.197673 25.676336 -0.125404 0.341028 0.007743 0.004099 614284.000000 0 0 1
-6.995864 1.372097 24.225353 25.252574 -0.193671 0.286205 0.018529 -0.002242 -255513.000000 0 0 1
-6.505364 1.550597 22.906283 23.862563 -0.233991 0.284060 0.023665 -0.006359 -555135.000000 0 1 0
-5.186464 1.914797 22.646183 23.311273 -0.353668 0.239448 0.028256 -0.010271 -440125.000000 0 1 0
-4.599264 3.192897 23.247583 23.912297 -0.606836 0.236338 0.033706 -0.012540 -885547.000000 0 1 0
-4.561464 3.101797 24.665153 25.274451 -0.597177 0.220022 0.033432 -0.009945 -156896.000000 0 0 1
-4.034164 4.321197 25.123653 25.809788 -0.819738 0.231097 0.025787 -0.012888 -55355.900000 0 0 1
4.017136 -23.601703 12.961660 27.224665 -1.402207 1.074582 0.068276 0.003426 310646.000000 0 0 1
3.656536 -24.694103 13.796760 28.522264 -1.423791 1.065897 0.046315 0.002950 -975595.000000 0 0 1
2.381036 -25.133753 13.494460 28.626479 -1.476344 1.079921 0.033794 0.006634 -762603.000000 0 0 1
1.979836 -26.349113 14.314860 30.051800 -1.495799 1.074309 0.017762 0.005236 -76020.700000 0 0 1
2.171236 -26.242103 15.696560 30.655248 -1.488246 1.033244 0.030837 -0.002614 53666.100000 0 0 1
2.891136 -27.344893 16.225060 31.927330 -1.465459 1.037718 0.013903 -0.000517 -52590.600000 0 0 1
2.644036 -27.736333 17.668260 32.991855 -1.475756 1.005656 0.022178 0.001461 91764.100000 0 0 1
3.187136 -26.842963 18.678060 32.856847 -1.452617 0.966154 0.017596 -0.010937 325488.000000 0 0 1
3.031336 -27.343763 19.998560 34.011950 -1.460387 0.942229 0.009585 -0.010719 -278067.000000 0 0 1
3.684036 -26.447893 21.016560 33.981744 -1.432393 0.904007 0.006198 -0.008853 -463058.000000 0 0 1
3.037836 -25.221533 21.255260 33.123107 -1.450928 0.874077 0.013157 -0.003556 -5814.850000 0 0 1
3.800736 -24.344403 22.085660 33.088849 -1.415923 0.839997 0.030173 -0.017443 -364220.000000 0 0 1
3.111536 -23.049603 22.601860 32.431619 -1.436614 0.799719 0.039767 -0.022170 -300124.000000 0 0 1
2.726436 -22.206603 21.560260 31.071071 -1.448632 0.803903 0.066753 -0.018513 246528.000000 0 0 1
3.752536 -21.277803 21.230760 30.291444 -1.396232 0.794162 0.065322 -0.007952 175344.000000 0 0 1
3.217336 -20.110503 20.376060 28.809155 -1.412158 0.785157 0.052634 -0.012634 5304.470000 0 0 1
2.397836 -19.207003 21.044060 28.592150 -1.446597 0.743641 0.027025 -0.014023 262414.000000 0 0 1
1.470036 -18.487803 20.204160 27.425680 -1.491449 0.742637 0.023861 -0.017028 330263.000000 0 0 1
1.009736 -17.177903 20.890260 27.064790 -1.512083 0.689033 0.027211 -0.019310 -261906.000000 0 0 1
1.911336 -16.128003 20.774560 26.369453 -1.452836 0.663524 0.008102 -0.004886 -318744.000000 0 0 1
1.372136 -14.895403 21.236460 25.975816 -1.478938 0.613657 0.014838 -0.000558 -790746.000000 0 0 1
2.421936 -13.854403 21.174960 25.420252 -1.397732 0.586296 -0.009231 0.011535 -894197.000000 0 0 1
3.015836 -13.483903 19.933960 24.254354 -1.350756 0.606108 -0.021955 0.016015 901691.000000 0 1 0
2.050436 -13.049303 18.905160 23.062820 -1.414941 0.609866 -0.007677 0.012709 1312810.000000 0 1 0
1.138436 -11.814903 19.231960 22.599917 -1.474737 0.552958 -0.003359 0.001852 139500.000000 0 1 0
1.796936 -10.567003 19.008360 21.822197 -1.402356 0.513448 -0.008986 0.000120 -101967.000000 0 1 0
1.418136 -9.571303 19.951760 22.174167 -1.423701 0.451543 -0.005468 -0.009293 553969.000000 0 1 0
-0.049664 -9.043903 19.957460 21.911067 1.565305 0.425484 0.009142 -0.016958 434948.000000 0 1 0
-0.357764 -8.189903 21.019960 22.561942 1.527140 0.371853 0.008790 -0.022314 -79673.300000 0 1 0
-1.749364 -7.925703 21.092660 22.600384 1.353559 0.367335 0.018173 -0.016370 267562.000000 0 1 0
-2.161864 -7.096203 22.281360 23.483798 1.275078 0.321390 0.021319 -0.016239 -419131.000000 0 1 0
-2.164064 -7.833003 23.519060 24.883434 1.301245 0.332683 0.022013 -0.004541 52923.400000 0 1 0
-2.137964 -6.998503 24.636760 25.700582 1.274312 0.288727 0.020571 -0.003586 -494473.000000 0 0 1
-2.230464 -7.909703 25.899760 27.172338 1.295942 0.307258 0.020736 0.002720 317914.000000 0 0 1
-1.152564 -8.786503 26.228760 27.685355 1.440367 0.325823 0.018622 0.000794 247164.000000 0 0 1
-1.538964 -9.639403 27.256360 28.951609 1.412479 0.343904 0.028454 -0.003893 526680.000000 0 0 1
-0.438864 -10.749703 27.476260 29.507518 1.529993 0.373211 0.031434 -0.005720 697838.000000 0 0 1
0.650736 -10.338603 28.261560 30.100265 -1.507937 0.351335 0.032288 -0.005641 -52538.700000 0 0 1
1.770036 -11.197003 28.186660 30.380812 -1.414013 0.382382 0.046889 -0.012134 144840.000000 0 0 1
2.951636 -10.810803 29.092260 31.176036 -1.304266 0.367688 0.053639 -0.013826 117954.000000 0 0 1
2.583136 -10.743803 30.466660 32.408630 -1.334845 0.347935 0.051784 -0.016201 42183.300000 0 0 1
3.633636 -10.146203 31.195060 33.004250 -1.226899 0.332641 0.054658 -0.006442 197921.000000 0 0 1
3.195636 -9.974703 32.674860 34.312582 -1.260754 0.310207 0.042248 -0.005212 61152.500000 0 0 1
3.169336 -11.183103 33.370260 35.336677 -1.294634 0.335177 0.037220 -0.010465 116100.000000 0 0 1
2.558236 -11.103403 -34.078462 35.932877 -1.344347 2.818923 0.033802 -0.008755 -334129.000000 0 0 1
3.223336 -10.369603 -32.917562 34.662435 -1.269420 2.822948 0.023931 0.001830 -390485.000000 0 0 1
2.937436 -8.998903 -32.992362 34.323530 -1.255279 2.862178 0.027044 -0.006233 297047.000000 0 0 1
3.439836 -8.367803 -31.787962 33.050372 -1.180775 2.864312 0.027032 -0.001344 -202190.000000 0 0 1
2.915836 -6.989603 -31.577762 32.473246 -1.175578 2.906205 0.004966 -0.004833 -234162.000000 0 0 1
3.303736 -6.022403 -32.494562 33.212657 -1.069048 2.933268 0.030511 -0.006125 -154575.000000 0 0 1
2.786736 -4.842003 -32.025762 32.509388 -1.048561 2.968887 0.017447 -0.003420 -311596.000000 0 0 1
2.984436 -3.649203 -32.979362 33.314589 -0.885276 2.999611 0.025570 -0.001100 -81894.800000 0 0 1
2.043836 -3.638203 -34.040262 34.295090 -1.058961 3.019612 0.028325 -0.003245 82236.900000 0 0 1
2.310536 -2.610203 33.709360 33.889124 -0.846222 0.103045 0.049374 -0.003941 8470.140000 0 0 1
1.618236 -2.871803 32.373460 32.540849 -1.057654 0.101473 0.057491 -0.009395 378712.000000 0 0 1
0.202036 -2.805403 32.423360 32.545129 -1.498904 0.086532 0.046102 -0.010018 89349.000000 0 0 1
-0.354564 -3.300603 31.209360 31.385409 1.463783 0.105967 0.051103 -0.004965 748822.000000 0 0 1
-1.891864 -3.510203 31.083260 31.337992 1.076467 0.127590 0.031164 -0.008188 572823.000000 0 0 1
-2.670664 -2.413803 30.654060 30.864710 0.734922 0.116899 0.018514 -0.006683 -907291.000000 0 0 1
-4.004164 -2.794203 30.578460 30.965838 0.609264 0.158342 0.009778 -0.004345 -808362.000000 0 0 1
-4.856464 -1.717703 29.920360 30.360562 0.339962 0.170495 0.003233 0.000516 -886759.000000 0 0 1
-4.707064 -1.669203 28.496860 28.931190 0.340782 0.173495 0.001195 0.004754 186761.000000 0 0 1
-5.744464 -0.913003 27.857760 28.458518 0.157618 0.205838 -0.015894 0.003560 441642.000000 0 0 1
-5.869664 0.575197 28.248460 28.857570 -0.097683 0.205826 -0.000468 0.002035 -11887.200000 0 0 1
-6.470664 0.781897 29.528860 30.239617 -0.120254 0.217241 -0.004567 0.005098 -243247.000000 0 0 1
-6.814764 2.149597 29.659360 30.508023 -0.305554 0.236422 0.005589 -0.004593 -535265.000000 0 0 1
-8.284964 2.451397 29.889260 31.112986 -0.287677 0.281397 -0.005854 -0.001761 -366177.000000 0 0 1
-9.137264 1.900297 28.883460 30.353830 -0.205049 0.312529 -0.009587 0.008902 208673.000000 0 0 1
-10.496964 2.240897 29.097160 31.013749 -0.210323 0.353398 -0.007987 0.009951 35767.200000 0 0 1
-11.408164 1.411897 28.180760 30.435094 -0.123136 0.387306 0.004637 0.011697 -255611.000000 0 0 1
-11.491464 0.078497 28.539460 30.766227 -0.006831 0.382798 0.003491 0.012590 -199612.000000 0 0 1
-12.128364 -0.716203 27.594360 30.150604 0.058983 0.414749 0.004128 0.020182 -1074700.000000 0 0 1
-11.847664 -2.212303 27.898060 30.390183 0.184603 0.407799 0.009848 0.016696 -116038.000000 0 0 1
-10.499164 -2.552503 28.138760 30.141957 0.238488 0.366628 0.007204 0.005894 -47147.200000 0 0 1
-9.512064 -2.365503 27.175360 28.889015 0.243740 0.346163 0.021030 0.007138 -825256.000000 0 0 1
-9.684864 -3.154303 25.879860 27.812109 0.314860 0.374953 0.008288 0.015298 -570893.000000 0 0 1
-10.621764 -2.563003 24.979460 27.264708 0.236771 0.412347 -0.002421 0.017872 331091.000000 0 0 1
-10.629364 -3.104703 23.670360 26.132519 0.284182 0.437575 0.005380 0.016792 -390618.000000 0 0 1
-9.664864 -2.444803 22.700660 24.793278 0.247761 0.413805 0.015744 0.008368 367380.000000 0 1 0
-8.297364 -2.677903 23.013260 24.609502 0.312188 0.362150 0.016613 0.002930 -62299.600000 0 1 0
-7.440664 -2.200103 22.006060 23.333894 0.287495 0.338980 0.016328 -0.005105 4915.130000 0 1 0
-5.941764 -2.275303 22.368060 23.255358 0.365708 0.277127 0.020476 -0.009060 276733.000000 0 1 0
-5.251564 -3.536403 22.424960 23.301586 0.592650 0.275170 0.017465 -0.011709 -14058.800000 0 1 0
-5.589064 -4.426403 23.450760 24.510586 0.669829 0.295143 0.010276 -0.001298 -279205.000000 0 1 0
-5.546664 -5.925803 23.029060 24.417581 0.818434 0.338859 0.023545 -0.003282 33753.200000 0 1 0
-6.496064 -6.431103 22.096760 23.912857 0.780373 0.392244 0.030125 -0.012466 101183.000000 0 1 0
-6.199664 -5.948803 20.781660 22.487808 0.764751 0.392044 0.032401 -0.021045 -619000.000000 0 1 0
-7.371064 -6.106703 19.827460 22.017098 0.691861 0.449767 0.031507 -0.018028 -834430.000000 0 1 0
-8.526764 -5.493203 20.280360 22.675405 0.572309 0.463760 0.041023 -0.007281 -810379.000000 0 1 0
-9.423364 -5.185503 19.229160 22.032926 0.503059 0.509996 0.035084 -0.004480 472543.000000 0 1 0
-9.978264 -3.725403 19.316760 22.058595 0.357325 0.503908 0.020756 -0.007567 710277.000000 0 1 0
-8.978964 -2.782403 18.898860 21.107593 0.300496 0.461561 0.016072 -0.009064 499247.000000 0 1 0
-9.574464 -1.476703 18.655260 21.020698 0.153028 0.478968 0.013133 -0.017174 -311098.000000 0 1 0
-8.602864 -0.377203 18.263560 20.191810 0.043818 0.440583 0.020480 -0.008926 -460500.000000 0 1 0
-7.611464 -0.115603 19.246960 20.697663 0.015187 0.376629 0.028707 0.000915 258341.000000 0 1 0
-7.949064 0.844997 20.264260 21.783982 -0.105904 0.375739 0.042497 -0.002610 -244042.000000 0 1 0
-7.771764 2.282597 19.835660 21.425779 -0.285671 0.387690 0.037036 -0.015553 500986.000000 0 1 0
-8.827364 2.748197 18.975560 21.107981 -0.301816 0.453371 0.030060 -0.022096 662036.000000 0 1 0
-8.530664 4.076597 18.573460 20.841409 -0.445792 0.470855 0.028095 -0.022618 -146760.000000 0 1 0
-9.532264 4.605797 17.539660 20.486999 -0.450101 0.543051 0.030527 -0.013144 226685.000000 0 1 0
-10.820964 4.832597 18.117860 21.649576 -0.420019 0.579258 0.031234 -0.003183 182832.000000 0 1 0
-11.729264 5.456397 17.251360 21.562870 -0.435418 0.643419 0.028876 0.016078 -213544.000000 0 1 0
-11.692064 6.979797 17.165160 21.910378 -0.538188 0.670637 0.032181 0.012817 901954.000000 0 1 0
-10.416964 7.502497 16.656760 21.029700 -0.624167 0.656622 0.030165 0.003252 1406590.000000 0 1 0
-10.288664 8.899297 16.686660 21.529021 -0.713116 0.683959 0.021355 -0.001822 779615.000000 0 1 0
-8.779564 9.330797 16.628760 20.991908 -0.815826 0.656471 0.015255 -0.004244 696331.000000 0 1 0
-8.136264 9.461097 17.906260 21.825337 -0.860542 0.608626 0.022014 0.005997 234822.000000 0 1 0
-7.296764 10.625897 18.018460 22.154399 -0.969055 0.620973 0.023741 0.001415 -13765.800000 0 1 0
-7.885164 12.049897 17.863960 22.945521 -0.991351 0.678463 0.022464 0.004216 -433280.000000 0 1 0
-8.225064 12.312397 16.529960 22.192035 -0.981850 0.730471 0.029373 -0.007563 -111064.000000 0 1 0
-9.054164 13.432897 16.371260 23.031257 -0.977714 0.780122 0.045996 -0.014345 -252993.000000 0 1 0
-8.910064 14.141597 14.989160 22.451035 -1.008566 0.839765 0.042767 -0.009058 421849.000000 0 1 0
-7.644764 14.777497 14.923160 22.349890 -1.093385 0.839673 0.037270 -0.003729 152948.000000 0 1 0
-7.431664 15.324697 13.606360 21.799290 -1.119264 0.896734 0.025546 -0.011533 -508189.000000 0 1 0
-6.388064 16.411497 13.472260 22.173101 -1.199597 0.917768 0.001192 -0.008334 513319.000000 0 1 0
-5.048064 15.974497 13.730160 21.660675 -1.264719 0.884243 -0.004643 -0.011401 337975.000000 0 1 0
-4.150564 17.058397 13.772260 22.313477 -1.332119 0.905596 -0.006001 -0.015072 1042880.000000 0 1 0
-2.603564 16.781997 13.905560 21.949455 -1.416883 0.884694 0.009689 -0.022144 920865.000000 0 1 0
-2.037664 16.307597 15.041960 22.278922 -1.446489 0.829607 0.012746 -0.016715 -372963.000000 0 1 0
-2.388964 14.944497 15.278360 21.505196 -1.412282 0.780659 0.011972 -0.014030 -311121.000000 0 1 0
-1.367564 14.263097 16.217260 21.640372 -1.475207 0.723643 0.009551 -0.010755 -583457.000000 0 1 0
-0.111364 14.097197 15.612660 21.035649 -1.562897 0.734449 -0.011439 -0.021968 -1115750.000000 0 1 0
0.700336 13.543897 16.582960 21.422470 1.519134 0.685517 -0.006661 -0.004704 -389649.000000 0 1 0
1.775136 14.522797 17.111260 22.513507 1.449169 0.707415 -0.006211 -0.011506 -335198.000000 0 1 0
1.173136 15.583297 17.827060 23.706950 1.495656 0.719742 -0.005350 -0.013696 257135.000000 0 1 0
2.121436 16.562197 18.328260 24.793790 1.443401 0.738873 0.014065 -0.016331 16452.700000 0 1 0
1.422636 17.789597 18.907860 26.000016 1.490996 0.756526 0.018872 -0.011091 367497.000000 0 0 1
0.652136 18.633997 18.042260 25.945603 1.535814 0.801837 0.012483 -0.013768 81158.300000 0 0 1
-0.600464 18.078497 17.701060 25.308500 -1.537594 0.796222 0.022473 -0.013053 -659124.000000 0 0 1
-1.360064 19.021797 16.720060 25.362156 -1.499417 0.850972 0.010065 -0.013060 -417750.000000 0 0 1
-1.801864 20.189897 17.351060 26.682166 -1.481786 0.862834 0.012327 -0.007047 -249845.000000 0 0 1
-2.397964 20.955097 16.328860 26.673920 -1.456858 0.912000 0.013513 -0.010350 -688777.000000 0 0 1
-3.192464 22.106497 16.918160 28.019872 -1.427375 0.922547 0.014737 -0.008016 421452.000000 0 0 1
-4.428264 21.679997 17.556260 28.246311 -1.369312 0.900087 0.020104 -0.006500 870376.000000 0 0 1
-4.896864 22.710497 18.380060 29.623852 -1.358427 0.901482 0.021660 -0.016206 115239.000000 0 0 1
-6.056764 22.338897 19.328760 30.154796 -1.306031 0.875016 0.008282 -0.011996 -414057.000000 0 0 1
-7.366664 22.430997 18.859360 30.217427 -1.253479 0.896789 -0.008006 -0.008152 -804246.000000 0 0 1
-8.230564 21.966197 19.877660 30.746990 -1.212295 0.867820 -0.024134 -0.002026 -1066810.000000 0 0 1
-9.620964 22.431497 19.547960 31.270718 -1.165623 0.895511 -0.008916 -0.006691 -1262400.000000 0 0 1
-9.959564 23.786297 19.671760 32.433918 -1.174265 0.919122 -0.004449 -0.002324 906563.000000 0 0 1
-11.153364 24.103497 18.904760 32.600093 -1.137408 0.952192 -0.006945 -0.004899 905005.000000 0 0 1
-11.614464 25.569997 19.136560 33.984239 -1.144437 0.972663 -0.002390 -0.008030 -137663.000000 0 0 1
-12.268864 25.772597 20.373760 35.069102 -1.126497 0.950888 -0.002131 0.009369 127589.000000 0 0 1
-12.863664 27.048597 20.372760 36.223609 -1.126878 0.973491 0.020780 -0.002508 -630481.000000 0 0 1
-13.831264 27.261397 21.513660 37.380814 -1.101280 0.957548 0.040013 -0.002550 613061.000000 0 0 1
-15.083464 26.520697 21.526260 37.339499 -1.053677 0.956356 0.037084 -0.002515 1072090.000000 0 0 1
-15.989264 27.062597 22.431660 38.616320 -1.037150 0.950980 0.022635 0.000391 -555453.000000 0 0 1
-17.350164 26.391997 22.510860 38.785365 -0.989235 0.951582 0.035617 0.005391 -414617.000000 0 0 1
-17.330564 25.102697 23.020560 38.215705 -0.966552 0.924311 0.047548 0.000177 1144120.000000 0 0 1
-18.677064 24.594797 23.233960 38.646523 -0.921312 0.925805 0.056669 0.005828 624482.000000 0 0 1
27.425036 24.535297 24.024243 43.946304 0.729841 0.992411 0.008228 -0.000832 -38382.700000 0 0 1
27.161936 23.570597 25.002213 43.800165 0.714726 0.963286 0.011034 -0.015651 -62751.500000 0 0 1
26.434336 22.525997 24.468793 42.484309 0.705740 0.957032 0.011369 -0.005030 -584529.000000 0 0 1
26.066236 21.491697 25.538563 42.350441 0.689504 0.923503 0.030161 -0.010478 293670.000000 0 0 1
24.853536 21.819497 26.224213 42.207796 0.720483 0.900380 0.022468 -0.013767 608582.000000 0 0 1
24.697936 21.073497 27.463583 42.524448 0.706377 0.868686 0.028730 -0.021500 -148099.000000 0 0 1
23.326436 21.427097 28.047933 42.307560 0.742984 0.846040 0.036489 -0.023913 -644900.000000 0 0 1
23.367236 22.747597 28.630003 43.395368 0.771962 0.850313 0.044306 -0.032974 272544.000000 0 0 1
22.410836 22.908597 29.671713 43.674477 0.796381 0.823874 0.058309 -0.028428 -98884.300000 0 0 1
22.337436 24.351597 30.227123 44.784375 0.828511 0.829902 0.045753 -0.030865 -587791.000000 0 0 1
21.651036 25.170397 29.333893 44.303426 0.860423 0.847161 0.050042 -0.037119 -167211.000000 0 0 1
21.307536 26.405497 29.953143 45.259829 0.891841 0.847574 0.039509 -0.029313 251352.000000 0 0 1
19.915936 26.540297 30.644053 45.167354 0.927037 0.825138 0.044529 -0.027445 -256922.000000 0 0 1
18.850036 26.856497 29.724293 44.273343 0.958810 0.834725 0.036867 -0.031891 702823.000000 0 0 1
17.663636 27.299697 30.358563 44.485052 0.996514 0.819695 0.021439 -0.027944 195456.000000 0 0 1
16.822536 26.159797 30.985303 43.902411 0.999309 0.787277 0.017616 -0.013009 -1172860.000000 0 0 1
17.270336 25.552197 32.192703 44.581940 0.976439 0.763960 0.015988 -0.016202 124231.000000 0 0 1
16.376936 24.564797 32.713619 44.066020 0.982782 0.734184 0.012801 -0.014008 202038.000000 0 0 1
16.831236 24.078397 34.100843 45.010301 0.960730 0.711133 0.017338 -0.009173 -340737.000000 0 0 1
17.206136 25.170797 -33.777960 45.503524 0.971179 2.407315 0.017539 -0.002143 336447.000000 0 0 1
17.412036 24.850897 -32.381280 44.376721 0.959627 2.388666 0.000251 0.001486 -347456.000000 0 0 1
17.615836 26.009297 -31.455680 44.455157 0.975475 2.356867 -0.004515 0.020886 -57993.300000 0 0 1
16.492036 26.867697 -31.324040 44.441601 1.020274 2.352988 0.005467 0.004941 216035.000000 0 0 1
16.857536 28.134997 -30.786910 44.984313 1.030990 2.324566 0.010472 0.001535 -161984.000000 0 0 1
16.344636 28.566797 -29.368920 44.110571 1.051103 2.299365 0.024144 0.004511 -227398.000000 0 0 1
16.811636 27.831097 -28.249020 43.072128 1.027397 2.286109 0.003678 0.010282 -150395.000000 0 0 1
16.388136 28.482597 -27.088400 42.586509 1.048681 2.260203 0.007269 0.012171 -306845.000000 0 0 1
16.858736 27.695197 -25.880180 41.485234 1.023987 2.244444 0.005019 0.023656 938501.000000 0 0 1
18.280736 27.752497 -25.647870 41.978562 0.988325 2.228088 0.016598 0.017022 765189.000000 0 0 1
18.783736 27.093897 -24.477540 41.061636 0.964593 2.209452 0.025210 0.017048 2523240.000000 0 0 1
20.393436 27.220397 -24.384740 41.850422 0.927809 2.192799 0.024299 0.010975 2155060.000000 0 0 1
20.998536 26.679897 -23.265440 41.158670 0.903999 2.171547 0.041926 0.008841 784764.000000 0 0 1
22.410836 26.432797 -23.452040 41.844193 0.867556 2.165739 0.037025 0.009687 1121330.000000 0 0 1
23.178636 26.373097 -22.144540 41.511084 0.849776 2.133483 0.045016 0.010559 -87853.900000 0 0 1
22.779136 25.191197 -21.511840 40.202546 0.835638 2.135406 0.042400 0.014981 424717.000000 0 0 1
23.361136 25.136897 -20.179540 39.809799 0.821997 2.102380 0.038217 0.009305 -62723.600000 0 0 1
23.049136 23.935797 -19.231240 38.393041 0.804267 2.095440 0.043245 -0.001607 -432860.000000 0 0 1
23.669336 22.761897 -19.673140 38.280202 0.765857 2.110550 0.050678 0.005130 348740.000000 0 0 1
23.214336 21.696797 -18.788940 36.914505 0.751621 2.104802 0.046935 -0.002786 -363783.000000 0 0 1
23.272336 20.198197 -19.324540 36.373158 0.714798 2.130914 0.054945 -0.001008 274223.000000 0 0 1
22.331636 19.791797 -20.316540 36.099570 0.725176 2.168556 0.044228 -0.001418 298821.000000 0 0 1
20.983436 19.791697 -19.914340 35.051345 0.756179 2.175050 0.040265 0.000789 -758461.000000 0 0 1
19.960636 19.593597 -21.011340 34.983031 0.776119 2.215067 0.033104 -0.000486 -351624.000000 0 0 1
20.061636 20.514397 -22.124940 36.232895 0.796556 2.227654 0.035803 0.007403 78452.300000 0 0 1
20.072636 21.947197 -21.892240 36.930480 0.829980 2.205322 0.032453 0.014015 -290624.000000 0 0 1
19.730936 22.729097 -23.158640 37.976891 0.855893 2.226616 0.028184 0.021026 1307140.000000 0 0 1
18.335936 22.503497 -23.494740 37.344568 0.887094 2.251235 0.015560 0.018616 988493.000000 0 0 1
18.085036 23.268297 -24.649740 38.419941 0.910089 2.267362 0.011408 0.020817 -234734.000000 0 0 1
16.578436 23.430797 -24.916340 38.008825 0.955022 2.285695 0.002869 0.024686 -230580.000000 0 0 1
16.068436 24.320197 -23.939840 37.719790 0.986934 2.258385 -0.001485 0.012543 89935.800000 0 0 1
14.657436 24.357297 -24.099740 37.268161 1.029078 2.273991 -0.002195 0.015378 456463.000000 0 0 1
13.929436 25.541797 -23.422640 37.350136 1.071524 2.248634 0.003236 0.016276 192416.000000 0 0 1
14.220536 26.800797 -24.045740 38.713098 1.082968 2.240976 -0.003791 0.022283 -444978.000000 0 0 1
13.280036 27.735497 -23.666640 38.803698 1.124244 2.226739 0.022169 0.011856 -265115.000000 0 0 1
13.429836 29.078797 -24.395740 40.262750 1.138138 2.221710 0.023695 0.003595 50954.500000 0 0 1
13.256236 28.941897 -25.823920 40.990682 1.141285 2.252343 0.018403 -0.002694 -1927.510000 0 0 1
12.656336 30.097897 -26.445750 42.017186 1.172739 2.251581 0.043747 -0.012956 -94096.500000 0 0 1
13.388336 31.456297 -26.404570 43.196614 1.168403 2.228454 0.049370 -0.012416 -124082.000000 0 0 1
14.585336 31.402297 -27.141020 43.993991 1.135977 2.235627 0.032965 0.004171 -550806.000000 0 0 1
15.364536 32.533097 -27.067170 45.023361 1.129575 2.215774 0.029917 -0.011341 -255857.000000 0 0 1
16.790636 32.371297 -27.625200 45.749076 1.092310 2.219108 0.026033 0.003072 157759.000000 0 0 1
17.644536 31.617797 -26.755600 45.020849 1.061788 2.207183 0.002900 0.005495 506331.000000 0 0 1
18.942136 31.426097 -27.305920 45.738576 1.028356 2.210552 0.007013 0.001075 -67020.300000 0 0 1
19.917736 30.728397 -26.349670 45.113808 0.995697 2.194531 0.008159 0.007700 -695105.000000 0 0 1
20.379436 31.495797 -25.208720 45.197192 0.996496 2.162468 0.015552 0.003440 136150.000000 0 0 1
21.340336 32.501997 -25.374040 46.428780 0.989806 2.148994 0.022123 -0.005072 -140256.000000 0 0 1
22.794336 32.049997 -25.668280 46.964291 0.952585 2.149034 0.030644 -0.010083 -170366.000000 0 0 1
22.844236 31.348997 -26.935210 47.224191 0.941063 2.177751 0.021824 -0.008671 -237089.000000 0 0 1
23.937936 31.809197 -27.681320 48.488197 0.925667 2.178383 0.010118 -0.000857 -843817.000000 0 0 1
23.828736 31.057997 -28.998270 48.716604 0.916357 2.208366 0.004756 -0.001784 -255662.000000 0 0 1
22.916536 31.483797 -29.971950 49.139748 0.941601 2.226772 0.009391 0.008521 -306480.000000 0 0 1
21.679536 30.812997 -29.880050 48.085969 0.957669 2.241309 0.006856 -0.001468 276649.000000 0 0 1
20.543036 31.433497 -30.801060 48.567338 0.991937 2.257760 -0.005401 -0.000411 201453.000000 0 0 1
20.334236 32.824297 -30.342700 49.107994 1.016171 2.236836 0.007471 -0.005960 -304488.000000 0 0 1
19.745936 33.661997 -31.235020 49.986583 1.040292 2.245759 0.010203 0.002273 -730436.000000 0 0 1
18.210336 33.753597 -31.035470 49.336822 1.076044 2.251131 -0.004548 -0.003310 41126.600000 0 0 1
17.370636 32.637797 -31.264220 48.419172 1.081703 2.272735 0.021210 -0.006484 243104.000000 0 0 1
17.415436 32.095797 -32.586200 48.941782 1.073646 2.299383 0.019097 -0.004825 -945216.000000 0 0 1
16.848936 32.914997 -33.769310 50.076441 1.097680 2.310887 0.040995 -0.013710 -474341.000000 0 0 1
17.543136 34.121497 -34.041830 51.292147 1.095903 2.296531 0.028745 -0.005746 -19135.900000 0 0 1
17.432636 -34.186120 33.394297 50.870096 -1.099234 0.854677 0.040619 -0.005886 340369.000000 0 0 1
16.043136 -33.728720 32.818092 49.719573 -1.126816 0.849893 0.056963 -0.011742 710874.000000 0 0 1
15.144936 33.961797 32.477503 49.371661 1.151324 0.852880 0.060881 -0.013558 567667.000000 0 0 1
13.807636 34.291097 32.140083 48.984845 1.187999 0.855127 0.052318 -0.013834 437264.000000 0 0 1
13.608136 -33.773820 30.768963 47.671599 -1.187776 0.869202 0.038797 -0.012369 -616176.000000 0 0 1
14.174336 -32.456820 30.609673 46.811420 -1.159046 0.858077 0.053387 -0.020882 676127.000000 0 0 1
13.486036 -31.740320 29.551343 45.415889 -1.169022 0.862313 0.060639 -0.029441 261922.000000 0 0 1
13.753336 -30.201820 29.514473 44.411803 -1.143477 0.843887 0.061579 -0.028551 -305820.000000 0 0 1
13.182836 -29.548220 30.591393 44.527719 -1.151152 0.813418 0.056518 -0.015442 218425.000000 0 0 1
13.501436 -28.158520 30.459363 43.622973 -1.123699 0.797859 0.069146 -0.019119 -546200.000000 0 0 1
13.075636 -27.253120 31.646693 43.763203 -1.123451 0.762466 0.055207 -0.021243 -95567.100000 0 0 1
11.675236 -27.100720 31.746213 43.342614 -1.164016 0.748886 0.030650 -0.016368 83141.300000 0 0 1
11.100236 -26.130020 30.832073 41.911930 -1.169089 0.744186 0.015924 -0.015587 -308456.000000 0 0 1
11.277236 -24.627120 31.075093 41.222961 -1.141376 0.716925 -0.002852 -0.009073 -236788.000000 0 0 1
10.486036 -24.175320 32.129633 41.553777 -1.161538 0.686915 0.018672 -0.013944 -230737.000000 0 0 1
11.045536 -22.964720 32.614463 41.389436 -1.122481 0.663259 0.012712 -0.009582 67837.200000 0 0 1
10.409036 -22.264320 33.821861 41.808686 -1.133468 0.628403 0.028303 -0.014214 -632560.000000 0 0 1
10.308936 -23.026120 -33.708530 42.103935 -1.149852 2.499097 0.027447 -0.007715 -436110.000000 0 0 1
11.488836 -23.439620 -33.085870 42.143611 -1.115063 2.473613 0.032936 -0.006822 -221616.000000 0 0 1
12.234636 -22.307420 -32.309250 41.124140 -1.069139 2.474545 0.032426 -0.015239 -189714.000000 0 0 1
12.813136 -21.351020 -33.188060 41.490840 -1.030290 2.497906 0.024323 -0.009346 -224690.000000 0 0 1
13.631036 -20.414920 -32.558710 40.775528 -0.982079 2.495573 0.026390 -0.012499 -480215.000000 0 0 1
13.895336 -19.128720 -33.449310 40.961501 -0.942563 2.526298 0.016528 -0.009686 -416891.000000 0 0 1
14.607436 -19.458420 34.084207 41.877684 -0.926847 0.619965 0.019261 0.006737 283592.000000 0 0 1
14.358636 -18.513220 33.080874 40.537069 -0.911119 0.616227 -0.004306 0.007663 -224820.000000 0 0 1
15.114536 -17.148020 33.037486 40.174361 -0.848344 0.605263 0.007447 0.004557 -599146.000000 0 0 1
14.876436 -16.180220 34.045148 40.523819 -0.827354 0.573279 0.002286 -0.001059 230995.000000 0 0 1
15.581036 -14.958520 33.934271 40.225126 -0.765017 0.566827 0.014686 -0.004722 314718.000000 0 0 1
17.089836 -14.877220 -34.358531 41.157050 -0.716293 2.558593 0.027714 -0.001765 698888.000000 0 0 1
17.858236 -15.613720 33.444512 41.002929 -0.718442 0.616925 0.023073 0.002610 -1066320.000000 0 0 1
19.209636 -15.358220 33.558216 41.605756 -0.674440 0.632459 0.052183 -0.001455 -662533.000000 0 0 1
20.094036 -16.168620 32.555463 41.533754 -0.677569 0.669984 0.069728 -0.011439 -184532.000000 0 0 1
19.974036 -15.644120 31.265053 40.264179 -0.664427 0.681707 0.059994 -0.001425 454026.000000 0 0 1
20.789336 -16.229320 30.270743 40.148539 -0.662834 0.716714 0.058282 -0.006846 -442862.000000 0 0 1
20.899136 -15.487520 28.952083 38.921206 -0.637755 0.731963 0.062430 0.002943 -527694.000000 0 0 1
21.814536 -14.424020 29.078733 39.108810 -0.584216 0.732456 0.065182 -0.004372 460497.000000 0 0 1
21.896736 -13.686820 27.851963 37.980625 -0.558644 0.747604 0.055013 -0.004770 104501.000000 0 0 1
22.709536 -12.333520 28.034303 38.128216 -0.497529 0.744740 0.037104 0.005801 111555.000000 0 0 1
22.023936 -11.265520 28.615103 37.825782 -0.472815 0.712856 0.051752 0.001312 194803.000000 0 0 1
22.872536 -10.179320 28.876713 38.218268 -0.418726 0.714267 0.052771 -0.002859 125952.000000 0 0 1
21.946336 -8.941120 28.954933 37.416218 -0.386877 0.685882 0.057366 -0.004299 304197.000000 0 0 1
21.078836 -9.012220 30.052613 37.798108 -0.404027 0.651653 0.063239 -0.008873 -83744.000000 0 0 1
20.081036 -7.992020 29.948373 36.932715 -0.378771 0.625125 0.044497 -0.012782 1103370.000000 0 0 1
18.983836 -7.960120 31.102353 37.297532 -0.397042 0.584662 0.016870 -0.000662 712538.000000 0 0 1
19.445036 -7.368420 32.312993 38.425675 -0.362217 0.571812 0.027269 -0.001585 184467.000000 0 0 1
19.536936 -8.372220 33.325477 39.526868 -0.404859 0.567757 0.036275 -0.006077 -446690.000000 0 0 1
19.352536 -7.908220 -33.956680 39.876267 -0.387932 2.589733 0.033169 -0.018227 -69370.700000 0 0 1
18.033436 -7.598920 -33.577850 38.864127 -0.398800 2.613919 0.032593 -0.025139 -216489.000000 0 0 1
18.046336 -7.043720 -32.266800 37.635496 -0.372128 2.600896 0.039109 -0.030664 -83626.400000 0 0 1
16.764536 -6.649120 -31.503640 36.300685 -0.377588 2.621660 0.038909 -0.029900 -285031.000000 0 0 1
17.047836 -6.033520 -30.282620 35.271364 -0.340160 2.603253 0.052600 -0.031521 754072.000000 0 0 1
15.873936 -5.701920 -29.499750 33.981303 -0.344847 2.622193 0.052266 -0.028896 651922.000000 0 0 1
16.164036 -4.675920 -28.382380 32.995450 -0.281592 2.606440 0.048348 -0.025173 -221321.000000 0 0 1
16.984936 -5.118020 -27.302030 32.558916 -0.292674 2.565399 0.049609 -0.024843 47691.300000 0 0 1
16.547736 -6.121320 -26.459720 31.802750 -0.354309 2.553490 0.069920 -0.027811 -603869.000000 0 0 1
15.182536 -5.927620 -25.760910 30.483939 -0.372224 2.577483 0.051314 -0.017346 48764.600000 0 0 1
14.944636 -4.776920 -24.999040 29.514625 -0.309377 2.581122 0.058669 -0.008093 162484.000000 0 0 1
13.577336 -4.666120 -24.610640 28.492109 -0.331024 2.613501 0.021577 -0.017496 319670.000000 0 0 1
13.317136 -3.411920 -23.777240 27.465331 -0.250810 2.617380 0.034051 -0.020612 -81940.500000 0 0 1
13.624736 -2.134920 -24.363540 27.995953 -0.155431 2.626510 0.031376 -0.020821 278766.000000 0 0 1
13.181236 -1.095920 -23.499440 26.966084 -0.082952 2.628936 0.033943 -0.014895 -70676.500000 0 0 1
13.477636 0.321080 -23.983040 27.512469 0.023819 2.629488 0.033043 -0.018734 -142500.000000 0 0 1
12.708936 0.816080 -25.087700 28.134955 0.064125 2.671865 0.025075 -0.018722 203944.000000 0 0 1
13.328536 1.953080 -25.658640 28.979824 0.145498 2.658143 0.028352 -0.009658 -112823.000000 0 0 1
12.685036 2.462080 -26.944440 29.882684 0.191710 2.694422 0.023791 -0.011211 42469.900000 0 0 1
11.523136 3.240080 -26.690180 29.251435 0.274103 2.720004 0.030347 -0.017723 172172.000000 0 0 1
11.020636 3.822080 -27.881470 30.223154 0.333831 2.745356 0.030242 -0.009783 422605.000000 0 0 1
9.730336 4.654080 -27.560830 29.596270 0.446142 2.768560 0.032860 -0.009624 359464.000000 0 0 1
9.940836 5.770080 -26.785680 29.147670 0.525915 2.736243 0.028757 -0.021339 245592.000000 0 0 1
8.752336 6.544080 -26.663040 28.815726 0.642024 2.752608 0.031576 -0.024371 29082.200000 0 0 1
7.660936 5.465997 -31.518080 32.893106 0.619722 2.851429 0.005877 -0.003488 25739.800000 0 0 1
7.719836 4.400697 -30.635820 31.898518 0.518107 2.859285 0.011681 0.008282 330908.000000 0 0 1
7.918736 3.176197 -31.286850 32.429332 0.381453 2.875364 0.008716 0.008284 -239932.000000 0 0 1
7.566536 2.039697 -30.319130 31.315530 0.263309 2.888657 0.016646 0.000478 359039.000000 0 0 1
8.667736 1.836097 -29.422260 30.727354 0.208745 2.849095 0.027168 -0.006472 712846.000000 0 0 1
8.342136 0.804597 -28.480580 29.688079 0.096152 2.855405 0.019002 -0.013618 514275.000000 0 0 1
9.540136 0.239197 -27.631710 29.233248 0.025068 2.809049 0.023871 -0.018112 551917.000000 0 0 1
10.505636 -0.534303 -28.328520 30.218519 -0.050815 2.786044 0.026952 -0.014549 229873.000000 0 0 1
11.363836 -1.127103 -27.354910 29.642844 -0.098860 2.746125 0.029524 -0.017708 226.360000 0 0 1
12.076036 -2.391603 -27.841270 30.441529 -0.195515 2.725269 0.032753 -0.015648 11307.700000 0 0 1
11.235336 -3.505603 -28.060580 30.428903 -0.302444 2.744447 0.030894 -0.014926 -777.687000 0 0 1
12.015636 -4.638103 -28.241050 31.039400 -0.368384 2.713707 0.031565 -0.010228 69306.600000 0 0 1
11.190636 -5.884303 -27.786770 30.528018 -0.484093 2.714576 0.016432 -0.002649 190574.000000 0 0 1
11.159636 -5.818603 -26.367940 29.217492 -0.480618 2.696268 0.025742 -0.004627 153529.000000 0 0 1
10.648836 -7.036103 -25.790410 28.775852 -0.583888 2.682042 0.032370 -0.006799 -107200.000000 0 0 1
10.339336 -6.843503 -24.342240 27.318126 -0.584688 2.670484 0.034530 -0.011370 -308683.000000 0 0 1
11.480836 -6.866203 -23.524640 27.062206 -0.538990 2.624541 0.032759 -0.011309 31058.300000 0 0 1
11.099036 -6.821603 -22.142340 25.690583 -0.551095 2.609772 0.027869 -0.014061 502054.000000 0 0 1
12.391436 -6.881003 -21.279840 25.568094 -0.506906 2.554006 0.037701 -0.016205 542589.000000 0 0 1
13.065736 -5.647303 -21.140740 25.486003 -0.407972 2.549015 0.034316 -0.014110 119900.000000 0 0 1
14.322536 -5.885203 -20.510240 25.699038 -0.389872 2.494921 0.041415 -0.014781 392442.000000 0 0 1
14.849836 -4.639103 -19.700540 25.102792 -0.302795 2.473161 0.052233 -0.015579 -250494.000000 0 0 1
15.512936 -3.695803 -20.486440 25.961594 -0.233880 2.480148 0.053501 -0.016700 -138086.000000 0 0 1
16.030636 -2.631903 -19.823140 25.629379 -0.162728 2.455068 0.047896 -0.013883 -330024.000000 0 0 1
16.937736 -1.809603 -20.781840 26.870921 -0.106435 2.454976 0.034142 -0.013245 245235.000000 0 0 1
18.196336 -2.419803 -21.006440 27.896820 -0.132207 2.423413 0.047705 -0.017931 34125.100000 0 0 1
18.998836 -1.542803 -21.781140 28.943981 -0.081027 2.422688 0.039682 -0.014606 -106486.000000 0 0 1
20.398736 -2.113903 -22.058840 30.119253 -0.103261 2.392612 0.039838 -0.011496 -1203950.000000 0 0 1
21.308436 -2.152103 -20.947140 29.957697 -0.100656 2.345108 0.025544 -0.006621 943700.000000 0 0 1
22.592236 -2.670203 -21.312140 31.172847 -0.117645 2.323585 0.026985 -0.003851 470969.000000 0 0 1
23.458236 -1.802103 -22.218840 32.360674 -0.076671 2.327598 0.032047 -0.005051 -2064290.000000 0 0 1
23.015536 -1.637703 -23.530440 32.955706 -0.071037 2.365994 0.038965 -0.011442 957075.000000 0 0 1
24.053636 -1.088603 -24.413440 34.289626 -0.045226 2.363107 0.030890 -0.000616 1954540.000000 0 0 1
25.301436 -2.023503 -24.751440 35.452658 -0.079806 2.343613 0.019794 -0.010811 -34072.500000 0 0 1
26.232436 -2.194203 -23.673240 35.403072 -0.083450 2.303225 0.017756 -0.003485 55684.400000 0 0 1
27.431236 -2.775703 -24.102740 36.621295 -0.100844 2.289171 0.009572 -0.000133 799535.000000 0 0 1
28.422736 -1.979603 -25.097310 37.969009 -0.069536 2.292940 0.016939 -0.006620 -176378.000000 0 0 1
27.921336 -1.824703 -26.428590 38.488971 -0.065259 2.327672 0.017191 -0.003264 342863.000000 0 0 1
28.704436 -0.823303 -27.058990 39.456449 -0.028674 2.326490 0.019438 -0.008282 -382246.000000 0 0 1
28.121336 -0.536503 -28.466530 40.018004 -0.019076 2.362204 0.011606 -0.010331 1329170.000000 0 0 1
26.753136 -0.044803 -28.509300 39.096195 -0.001675 2.387962 0.010598 -0.002630 1300210.000000 0 0 1
26.509736 1.185297 -27.877160 38.487752 0.044682 2.380833 0.009755 -0.000114 -363339.000000 0 0 1
25.032436 1.692797 -28.054920 37.637307 0.067521 2.411934 0.016859 -0.005699 1143840.000000 0 0 1
24.120536 1.089397 -27.113730 36.306217 0.045134 2.414044 0.021203 -0.009544 1198880.000000 0 0 1
22.768036 1.489997 -27.329140 35.601761 0.065349 2.445938 0.029267 -0.013374 627914.000000 0 0 1
21.680836 1.234497 -26.266490 34.080949 0.056878 2.450749 0.038360 -0.018088 59618.700000 0 0 1
21.866136 1.983997 -25.085280 33.336697 0.090486 2.422620 0.034520 -0.013436 401843.000000 0 0 1
20.926136 1.554497 -24.118840 31.969330 0.074149 2.425592 0.038411 -0.013486 -51691.700000 0 0 1
21.155636 2.129797 -22.697140 31.100757 0.100335 2.388817 0.028524 -0.011157 -293267.000000 0 0 1
20.831736 3.497097 -22.610740 30.942470 0.166323 2.390194 0.024266 -0.013835 343589.000000 0 0 1
21.160036 3.983897 -21.313140 30.296344 0.186096 2.351091 0.017157 -0.012592 -492241.000000 0 0 1
20.701236 5.375797 -21.031140 29.995820 0.254073 2.347785 0.015209 -0.008941 -284382.000000 0 0 1
21.482436 6.392697 -21.645140 31.158846 0.289233 2.338758 0.014619 -0.005521 347188.000000 0 0 1
21.222336 7.706797 -21.050840 30.869404 0.348337 2.321197 0.010664 -0.004833 -239876.000000 0 0 1
21.765436 7.954397 -19.595240 30.347653 0.350381 2.272726 0.009198 -0.006632 104632.000000 0 0 1
23.172136 8.163397 -19.519440 31.378296 0.338717 2.242178 0.004578 -0.004901 522930.000000 0 0 1
23.684736 8.363097 -18.222340 31.031625 0.339434 2.198414 0.010633 -0.008290 -86114.900000 0 0 1
23.503336 9.746997 -17.548340 30.908817 0.393120 2.174561 0.018375 -0.014397 -297543.000000 0 0 1
22.168236 10.088097 -17.264540 29.854057 0.427062 2.187437 0.016978 -0.017569 -258123.000000 0 0 1
22.161836 11.475897 -16.948440 30.167744 0.477804 2.167364 0.026864 -0.013334 -121467.000000 0 0 1
20.728736 12.058997 -16.879340 29.325961 0.526894 2.184106 0.020316 -0.018664 180306.000000 0 0 1
19.842536 11.920397 -17.942540 29.287486 0.540971 2.230187 0.023741 -0.023840 89711.200000 0 0 1
19.223036 10.664797 -18.045140 28.440993 0.506515 2.258127 0.022808 -0.026293 -718188.000000 0 0 1
18.346136 10.368797 -19.265740 28.552782 0.514420 2.311410 0.028330 -0.015962 -35413.400000 0 0 1
19.073436 10.283797 -20.468540 29.807944 0.494489 2.327709 0.033322 -0.014151 202274.000000 0 0 1
18.188136 9.994197 -21.532640 29.905632 0.502452 2.374627 0.022945 -0.015099 11106.300000 0 0 1
18.914436 10.136097 -22.893440 31.378431 0.491947 2.388521 0.038131 -0.013795 -161577.000000 0 0 1
19.093236 11.486697 -23.259440 32.210206 0.541603 2.377650 0.038281 -0.018893 303160.000000 0 0 1
19.868736 11.618597 -24.429340 33.564134 0.529144 2.385964 0.044102 -0.017085 -90666.500000 0 0 1
20.144736 13.052197 -24.851440 34.550894 0.574912 2.373548 0.048435 -0.017184 35885.300000 0 0 1
20.925236 13.243897 -26.026780 35.925751 0.564271 2.381047 0.037939 -0.014595 330637.000000 0 0 1
21.207336 14.616397 -26.255000 36.779276 0.603450 2.365781 0.037602 -0.011507 -203472.000000 0 0 1
20.049936 15.444397 -26.815620 36.872846 0.656365 2.385097 0.036855 -0.010522 639188.000000 0 0 1
18.836436 15.455697 -26.047820 35.667616 0.687129 2.389547 0.037524 -0.010631 424362.000000 0 0 1
17.707336 15.849097 -26.804230 35.821926 0.730078 2.416237 0.026403 -0.013837 481749.000000 0 0 1
16.386736 15.380197 -26.134690 34.468791 0.753724 2.431364 0.023848 -0.017965 -420.699000 0 0 1
16.170936 13.990197 -26.222430 33.835493 0.713221 2.457508 0.017891 -0.011827 910964.000000 0 0 1
14.824936 13.562297 -25.919570 32.795407 0.740948 2.482162 0.011729 -0.014787 865617.000000 0 0 1
14.647036 12.045197 -25.932380 32.126480 0.688230 2.510183 0.011182 -0.016823 50663.000000 0 0 1
13.277436 11.701197 -25.960860 31.419334 0.722378 2.543250 0.011014 -0.020782 -337.388000 0 0 1
13.008336 10.390497 -25.572960 30.514841 0.673982 2.564495 0.021429 -0.020377 605554.000000 0 0 1
11.506536 9.929897 -25.649310 29.814264 0.711981 2.606661 0.030285 -0.027740 634059.000000 0 0 1
10.907036 10.163097 -24.389240 28.584733 0.750105 2.592936 0.048131 -0.033724 -571344.000000 0 0 1
9.750336 9.398897 -24.223040 27.751828 0.767048 2.631798 0.050325 -0.033043 -471792.000000 0 0 1
8.958836 9.960897 -23.022540 26.636771 0.838313 2.614582 0.051945 -0.030729 -256735.000000 0 0 1
8.321836 11.193997 -23.307440 27.162387 0.931520 2.602311 0.051182 -0.033248 319208.000000 0 0 1
7.564336 11.814597 -22.239140 26.294167 1.001303 2.578826 0.052678 -0.018169 167064.000000 0 0 1
8.421536 12.573197 -21.268740 26.103004 0.980627 2.523181 0.055856 -0.021425 -562910.000000 0 0 1
9.232436 11.748397 -20.509840 25.375505 0.904745 2.511976 0.057554 -0.028452 -617014.000000 0 0 1
9.978836 12.360697 -19.500740 25.152392 0.891618 2.457992 0.061987 -0.030562 360766.000000 0 0 1
11.145536 11.455997 -18.891840 24.745999 0.799134 2.439404 0.066399 -0.032626 1567180.000000 0 1 0
12.300336 11.191797 -19.739940 25.811234 0.738246 2.441498 0.068366 -0.033807 934938.000000 0 0 1
12.009236 10.341197 -20.822440 26.167463 0.710905 2.491021 0.064892 -0.031380 -514413.000000 0 0 1
13.239536 9.758797 -21.578340 27.131977 0.635191 2.490316 0.065652 -0.028593 318182.000000 0 0 1
13.857336 8.695597 -20.843240 26.496789 0.560401 2.476132 0.073725 -0.035001 11636.200000 0 0 1
14.895336 8.162097 -21.632640 27.503853 0.501278 2.475968 0.060321 -0.032108 -323242.000000 0 0 1
15.420936 6.865297 -20.968740 26.918871 0.418850 2.463803 0.080243 -0.030192 1170.170000 0 0 1
16.118836 7.071097 -19.762240 26.464380 0.413405 2.413956 0.050330 -0.023766 -172578.000000 0 0 1
16.742336 5.912997 -19.366840 26.274395 0.339502 2.399564 0.042206 -0.024153 -463238.000000 0 0 1
17.433336 6.017697 -18.033940 25.794512 0.332377 2.344988 0.046513 -0.023461 -162296.000000 0 0 1
18.649336 6.780897 -18.161440 26.900115 0.348739 2.311956 0.025253 -0.025267 697155.000000 0 0 1
19.386536 6.991197 -16.991340 26.709928 0.346105 2.260286 0.028689 -0.023302 -93216.500000 0 0 1
20.002836 5.772497 -16.277740 26.427258 0.280951 2.234381 0.019461 -0.023212 -1557130.000000 0 0 1
21.091336 5.271297 -16.936140 27.558372 0.244910 2.232618 0.006452 -0.016315 -391344.000000 0 0 1
21.679036 4.103497 -16.311140 27.438523 0.187071 2.207392 0.020069 -0.018097 1377460.000000 0 0 1
23.191936 3.825197 -16.721640 28.846339 0.163465 2.189132 0.010972 0.005210 1206990.000000 0 0 1
23.815836 2.760497 -16.044540 28.848598 0.115395 2.160559 0.015335 -0.001033 636789.000000 0 0 1
25.099836 2.413397 -16.548840 30.161073 0.095857 2.151583 0.022610 -0.001855 470842.000000 0 0 1
25.836636 1.293897 -15.742840 30.282716 0.050038 2.117486 0.035196 -0.008746 39356.600000 0 0 1
25.243436 0.057097 -15.853640 29.808928 0.002262 2.131571 0.042187 -0.009735 399029.000000 0 0 1
26.340236 -0.841803 -15.987740 30.824089 -0.031948 2.116099 0.034840 -0.002349 380599.000000 0 0 1
25.925636 -2.311603 -16.362940 30.744559 -0.088928 2.132020 0.028574 -0.006273 126559.000000 0 0 1
25.280836 -2.905503 -15.197440 29.639918 -0.114427 2.109164 0.030977 -0.005544 683653.000000 0 0 1
25.298136 -4.295103 -15.213340 29.831012 -0.168176 2.105963 0.023635 -0.004594 -507142.000000 0 0 1
24.645836 -4.975703 -13.908440 28.733596 -0.199210 2.076071 0.028037 -0.008595 2182520.000000 0 0 1
23.199836 -4.901303 -13.674740 27.372498 -0.208203 2.093910 0.036649 -0.001618 2144090.000000 0 0 1
22.375836 -5.474103 -14.681040 27.316236 -0.239931 2.138204 0.042893 -0.000415 -318389.000000 0 0 1
20.886736 -5.584903 -14.278940 25.910133 -0.261278 2.154472 0.047329 -0.003113 -159455.000000 0 0 1
20.700736 -6.554703 -13.276940 25.451163 -0.306653 2.119596 0.051966 -0.004512 412880.000000 0 0 1
20.546136 -5.956703 -11.996740 24.526471 -0.282182 2.081893 0.048458 -0.009810 -542062.000000 0 1 0
20.263436 -6.977503 -10.855940 24.023817 -0.331623 2.039671 0.049598 -0.011409 102680.000000 0 1 0
18.987236 -7.616203 -10.785740 23.126907 -0.381473 2.055981 0.050372 -0.008822 850604.000000 0 1 0
18.818836 -8.707103 -11.686740 23.802145 -0.433349 2.084028 0.051638 -0.013845 -772026.000000 0 1 0
17.442736 -9.371403 -11.673640 22.985780 -0.493015 2.103499 0.069952 -0.011798 -603403.000000 0 1 0
16.431236 -8.470603 -11.960540 22.017973 -0.475985 2.145060 0.056577 -0.007320 -205803.000000 0 1 0
15.158936 -9.037103 -12.245540 21.480591 -0.537589 2.177393 0.054887 -0.006051 828900.000000 0 1 0
14.031436 -7.977103 -12.466140 20.394117 -0.516948 2.228450 0.046267 -0.005716 45992.900000 0 1 0
14.204036 -7.085503 -13.572440 20.884686 -0.462717 2.278217 0.045868 -0.010747 301393.000000 0 1 0
15.213736 -6.100303 -13.426740 21.188411 -0.381345 2.257101 0.044151 -0.011204 -50820.600000 0 1 0
15.194536 -5.116903 -14.646440 21.715773 -0.324831 2.311031 0.042354 -0.006666 -380344.000000 0 1 0
14.039036 -4.325703 -14.616840 20.723374 -0.298889 2.353686 0.041904 -0.001732 -328276.000000 0 1 0
13.866536 -3.308203 -15.623240 21.149719 -0.234197 2.401932 0.043298 -0.004857 -407606.000000 0 1 0
14.810736 -2.089903 -15.649740 21.648093 -0.140182 2.378809 0.041811 -0.011239 -477915.000000 0 1 0
15.955936 -2.492303 -16.358740 22.987210 -0.154947 2.362634 0.041291 -0.007157 52469.200000 0 1 0
17.068936 -1.601503 -16.328940 23.675887 -0.093552 2.331852 0.048586 -0.004085 916866.000000 0 1 0
18.160436 -2.015403 -15.280340 23.819153 -0.110525 2.267268 0.050105 -0.003804 -301992.000000 0 1 0
17.658536 -1.964603 -13.955040 22.592624 -0.110799 2.236587 0.045423 -0.000462 246993.000000 0 1 0
18.654136 -2.381403 -13.036640 22.882348 -0.126974 2.176967 0.037896 0.000325 -49589.000000 0 1 0
18.233236 -2.451503 -11.564840 21.730307 -0.133651 2.131992 0.036104 -0.001805 -351538.000000 0 1 0
18.091936 -1.229703 -10.901140 21.158099 -0.067865 2.112064 0.046092 -0.001897 708834.000000 0 1 0
17.580036 -1.502103 -9.597840 20.085629 -0.085237 2.068997 0.043538 -0.007857 -755097.000000 0 1 0
17.862036 -0.390603 -8.533440 19.799608 -0.021864 2.016386 0.059198 -0.006699 351518.000000 0 1 0
19.203936 -0.037403 -8.178840 20.873092 -0.001948 1.973423 0.063344 -0.007068 1163150.000000 0 1 0
20.027936 0.689097 -9.072240 21.997695 0.034393 1.995903 0.043033 0.000013 -425911.000000 0 1 0
19.567936 2.059797 -9.583840 21.885997 0.104878 2.024056 0.035691 -0.004746 -676957.000000 0 1 0
19.496436 3.180197 -8.685640 21.579272 0.161693 1.985042 0.034783 -0.002695 640126.000000 0 1 0
18.853936 4.190397 -9.431340 21.493731 0.218701 2.025053 0.022501 -0.007742 -248565.000000 0 1 0
18.798436 5.670697 -9.012740 21.604802 0.292977 2.001119 0.037610 0.000917 -288464.000000 0 1 0
18.016336 6.491097 -9.867640 21.542818 0.345812 2.046594 0.025352 -0.000812 118077.000000 0 1 0
18.290236 7.794997 -9.696140 22.120349 0.402873 2.024543 0.020367 0.004838 -707398.000000 0 1 0
-26.036734 -29.955653 6.039460 40.146329 0.855274 1.419787 0.038656 -0.010696 -97967.700000 0 0 1
-25.956084 -28.857313 6.841760 39.411578 0.838278 1.396315 0.025203 -0.011058 -517007.000000 0 0 1
-24.861464 -28.021173 6.605160 38.038226 0.845077 1.396266 0.025074 -0.009788 -525739.000000 0 0 1
-24.889864 -26.723973 7.497860 37.281282 0.820918 1.368299 0.020468 -0.001648 -339884.000000 0 0 1
-25.886004 -25.807093 7.104060 37.236527 0.783872 1.378838 0.012567 -0.008712 2195440.000000 0 0 1
-27.257054 -26.032733 7.659060 38.461817 0.762427 1.370322 0.004156 -0.008685 2444280.000000 0 0 1
-27.476504 -25.906063 9.187460 38.865046 0.755988 1.332143 0.004333 -0.008069 -239656.000000 0 0 1
-26.725914 -26.871203 9.928960 39.178059 0.788109 1.314570 -0.002063 -0.012867 197652.000000 0 0 1
-27.267404 -26.951093 11.223860 39.948063 0.779564 1.286001 0.009568 -0.016915 -184513.000000 0 0 1
-26.377854 -27.896873 12.063060 40.243560 0.813378 1.266364 0.008047 -0.016160 -216503.000000 0 0 1
-25.116244 -27.409103 12.358460 39.176730 0.829023 1.249861 0.019440 -0.016422 -821847.000000 0 0 1
-25.174964 -26.591073 13.499860 39.027044 0.812747 1.217587 0.029290 -0.011827 -298841.000000 0 0 1
-23.784264 -26.088883 14.011960 37.982312 0.831575 1.192963 0.042017 -0.013131 208683.000000 0 0 1
-23.162364 -27.224543 14.549360 38.592159 0.865844 1.184238 0.048785 -0.019567 -430103.000000 0 0 1
-21.950264 -26.856943 15.183360 37.863490 0.885593 1.158185 0.053589 -0.019964 3932.910000 0 0 1
-21.185664 -28.104423 15.678160 38.529153 0.924855 1.151720 0.056872 -0.021190 -253276.000000 0 0 1
-21.738764 -28.618053 16.882160 39.706097 0.921169 1.131638 0.054401 -0.010092 174988.000000 0 0 1
-21.294364 -29.915473 17.068660 40.493513 0.952183 1.135680 0.068975 -0.017742 -375491.000000 0 0 1
-22.160464 -30.684063 18.082860 41.947440 0.945317 1.125103 0.063182 -0.029540 -603559.000000 0 0 1
-23.415964 -30.952993 17.525660 42.585724 0.923148 1.146655 0.043257 -0.023692 -389511.000000 0 0 1
-24.095964 -31.877623 18.347460 43.970759 0.923536 1.140363 0.047334 -0.018475 -459790.000000 0 0 1
-25.298164 -32.505403 17.664460 44.817758 0.909443 1.165665 0.035304 -0.022046 -494293.000000 0 0 1
-24.852864 -33.371473 16.621260 44.806097 0.930674 1.190754 0.039165 -0.021708 584089.000000 0 0 1
-25.688404 34.249676 16.319960 45.817852 -0.927274 1.206607 0.026644 -0.019969 -175419.000000 0 0 1
-25.110004 33.494935 15.096560 44.500889 -0.927509 1.224686 0.018283 -0.023931 637861.000000 0 0 1
-23.922664 32.742475 15.377260 43.368464 -0.939807 1.208340 0.018091 -0.030156 423539.000000 0 0 1
-22.761464 33.477638 15.027860 43.181861 -0.973688 1.215345 0.029836 -0.029761 -730713.000000 0 0 1
-21.573864 32.519925 14.960660 41.794719 -0.985056 1.204719 0.046296 -0.034593 -445427.000000 0 0 1
-21.442464 31.785155 13.780560 40.742842 -0.977317 1.225758 0.044258 -0.020204 -125.508000 0 0 1
-20.297164 30.960645 13.814560 39.514282 -0.990509 1.213642 0.039425 -0.024947 7179.470000 0 0 1
-20.159864 30.039385 12.569760 38.298612 -0.979721 1.236395 0.030740 -0.019993 158139.000000 0 0 1
-19.522864 30.727665 11.520560 38.184486 -1.004788 1.264313 0.016540 -0.008302 -73530.900000 0 0 1
-19.681364 29.925115 10.331560 37.277470 -0.989036 1.289967 0.022090 -0.010485 -11066.100000 0 0 1
-19.149064 30.597995 9.085660 37.221945 -1.011602 1.324211 0.013443 -0.005016 -33494.000000 0 0 1
-17.747264 30.779655 8.987560 36.648722 -1.047767 1.323034 0.007440 -0.012261 -171552.000000 0 0 1
-17.247364 31.244385 7.735160 36.517337 -1.066408 1.357358 0.022001 -0.016198 314928.000000 0 0 1
-16.863564 30.088435 6.695260 35.135740 -1.059953 1.379070 0.014179 -0.014889 405603.000000 0 0 1
-17.989864 29.266755 6.307960 34.928048 -1.019648 1.389201 0.005318 -0.010226 608273.000000 0 0 1
-17.921364 28.000305 6.874560 33.947783 -1.001454 1.366882 -0.005540 -0.003202 180814.000000 0 0 1
-19.014364 27.047885 6.336560 33.664315 -0.958067 1.381439 0.004320 0.003755 116111.000000 0 0 1
-18.641764 26.551635 5.071860 32.836389 -0.958666 1.415717 0.011335 -0.004481 -46016.300000 0 0 1
-19.679964 25.867305 4.424760 32.802393 -0.920416 1.435492 0.030166 -0.008439 -639120.000000 0 0 1
-19.242064 25.004635 3.164860 31.709701 -0.914907 1.470823 0.040810 -0.015723 -732725.000000 0 0 1
-18.875064 25.680425 1.972160 31.931829 -0.936966 1.508995 0.044507 -0.019075 245353.000000 0 0 1
-17.659964 26.418535 1.921360 31.835593 -0.981547 1.510407 0.032912 -0.020074 553240.000000 0 0 1
-16.323464 25.595975 1.990860 30.423230 -1.003091 1.505311 0.021067 -0.019417 69135.000000 0 0 1
-15.987464 24.616955 1.004260 29.370087 -0.994808 1.536596 0.041315 -0.017742 64403.000000 0 0 1
-16.151764 24.940575 -0.327840 29.715640 -0.996103 1.581829 0.038587 -0.018578 -363836.000000 0 0 1
-15.684064 23.725815 -1.168240 28.465224 -0.986689 1.611849 0.044793 -0.024985 285241.000000 0 0 1
-16.721964 22.733615 -1.254940 28.249181 -0.936600 1.615235 0.057365 -0.028949 201000.000000 0 0 1
-16.457664 21.468115 -1.803640 27.110658 -0.916750 1.637374 0.056273 -0.029237 -769956.000000 0 0 1
-15.442464 20.555215 -1.100440 25.733199 -0.926485 1.613573 0.058201 -0.030051 -389610.000000 0 0 1
-15.781864 19.880015 0.063660 25.382795 -0.899813 1.568288 0.070383 -0.030508 -433342.000000 0 0 1
-14.864264 18.854015 0.286460 24.010462 -0.903177 1.558865 0.085819 -0.042611 -417901.000000 0 1 0
-15.396164 17.593115 0.998960 23.399947 -0.851896 1.528093 0.070311 -0.039386 -10425.700000 0 1 0
-16.184064 16.779315 0.170160 23.313050 -0.803454 1.563497 0.066200 -0.032231 284453.000000 0 1 0
-17.015364 15.940015 0.924460 23.333695 -0.752779 1.531167 0.074423 -0.040507 190833.000000 0 1 0
-17.744464 14.710315 0.293060 23.050928 -0.692181 1.558082 0.089327 -0.037365 -28193.900000 0 1 0
-18.767464 14.975315 -0.616340 24.017861 -0.673484 1.596461 0.096873 -0.041763 146096.000000 0 1 0
-19.651664 13.883715 -0.864940 24.076827 -0.615069 1.606728 0.089318 -0.028287 -12881.400000 0 1 0
-20.756664 14.326115 -1.843340 25.287835 -0.604114 1.643755 0.096428 -0.011754 -962118.000000 0 0 1
-21.782764 13.467915 -2.270240 25.710456 -0.553755 1.659212 0.082935 -0.009930 1196560.000000 0 0 1
-22.859664 13.289315 -1.300440 26.473785 -0.526588 1.619938 0.078398 -0.012066 253009.000000 0 0 1
-23.874464 14.414715 -1.245640 27.916405 -0.543188 1.615431 0.048943 -0.009153 -1291160.000000 0 0 1
-23.363664 15.490415 -0.525640 28.037298 -0.585469 1.589545 0.038718 -0.019843 432933.000000 0 0 1
-24.371964 16.435015 -0.163840 29.396075 -0.593297 1.576370 0.022606 -0.019708 -103566.000000 0 0 1
-23.781864 17.608515 0.594160 29.597127 -0.637340 1.550720 0.017345 -0.028292 -158179.000000 0 0 1
-23.244164 17.220915 1.817360 28.985408 -0.637633 1.508056 0.026347 -0.029086 -189653.000000 0 0 1
-23.057564 18.325115 2.706460 29.576782 -0.671535 1.479162 0.030542 -0.029169 -409116.000000 0 0 1
-24.327564 19.054615 3.159860 31.062734 -0.664445 1.468895 0.025976 -0.030051 -419007.000000 0 0 1
-25.158884 18.198815 3.991360 31.306506 -0.626229 1.442955 0.027320 -0.031651 1375140.000000 0 0 1
-26.514874 18.624015 4.242960 32.678666 -0.612334 1.440590 0.027932 -0.030943 720211.000000 0 0 1
-27.469134 18.560815 3.076760 33.294499 -0.594228 1.478254 0.032646 -0.030442 -1422740.000000 0 0 1
-28.699054 19.203615 3.333460 34.691880 -0.589711 1.474560 0.042387 -0.027682 -310998.000000 0 0 1
-29.525074 18.765915 2.301360 35.059747 -0.566180 1.505108 0.042051 -0.020055 -229555.000000 0 0 1
-30.859084 19.564715 2.167060 36.602695 -0.565046 1.511557 0.067424 -0.036517 -2457.660000 0 0 1
-31.794714 19.223115 3.155560 37.287928 -0.543796 1.486068 0.084785 -0.031250 -557347.000000 0 0 1
-32.955334 19.975115 2.985560 38.651945 -0.544912 1.493477 0.081097 -0.030535 -638700.000000 0 0 1
-33.355534 20.640015 4.260160 39.455682 -0.554120 1.462612 0.063532 -0.026920 -123894.000000 0 0 1
-32.366464 21.599715 4.637760 39.187301 -0.588475 1.452170 0.058109 -0.027430 731476.000000 0 0 1
-32.492564 21.975915 5.972660 39.678461 -0.594667 1.419695 0.061120 -0.026966 -578530.000000 0 0 1
-31.508874 23.105815 6.198460 39.561456 -0.632735 1.413469 0.052717 -0.025819 -417591.000000 0 0 1
-31.924124 24.329655 5.600160 40.527073 -0.651206 1.432170 0.036117 -0.017522 148657.000000 0 0 1
-30.941524 25.284495 5.838860 40.382867 -0.685123 1.425700 0.027522 -0.023364 -621614.000000 0 0 1
-31.423014 26.693715 5.481060 41.593296 -0.704201 1.438634 0.023175 -0.017477 -828204.000000 0 0 1
-32.169634 27.171745 6.538460 42.613854 -0.701374 1.416753 0.032233 -0.009832 -109723.000000 0 0 1
-32.765584 28.452115 6.360660 43.858458 -0.715053 1.425256 0.022555 -0.009505 46196.900000 0 0 1
-33.772814 28.826425 7.476060 45.027295 -0.706545 1.403990 0.013607 -0.002373 -630473.000000 0 0 1
-33.164274 29.246435 8.697860 45.065240 -0.722705 1.376572 0.010439 -0.009786 -62560.600000 0 0 1
-34.006844 29.704055 9.726960 46.188853 -0.717964 1.358617 0.015207 -0.003436 -540106.000000 0 0 1
-35.011700 28.729795 10.351460 46.458293 -0.687163 1.346098 0.006409 0.004480 -404005.000000 0 0 1
-34.464865 27.614295 11.028860 45.519358 -0.675491 1.326071 0.015662 0.002508 -223664.000000 0 0 1
-35.427765 26.782345 11.601460 45.902227 -0.647311 1.315282 0.019303 0.001136 -490705.000000 0 0 1
-34.818944 25.490515 12.242460 44.855357 -0.631938 1.294357 0.021487 0.007458 74558.200000 0 0 1
-33.940724 25.843585 13.300560 44.685216 -0.650778 1.268566 0.024323 -0.007481 142712.000000 0 0 1
-33.546104 24.702945 14.054960 43.967244 -0.634732 1.245416 0.026809 -0.006301 145646.000000 0 0 1
-32.495774 25.120875 15.129060 43.771248 -0.658091 1.217876 0.036762 -0.003651 324433.000000 0 0 1
-33.077814 25.903995 16.173860 45.019468 -0.664365 1.203318 0.045805 -0.013445 880688.000000 0 0 1
-32.039254 26.381235 17.063260 44.873581 -0.688849 1.180728 0.059702 -0.001704 172036.000000 0 0 1
-32.384344 27.794425 17.592760 46.160384 -0.709274 1.179786 0.071028 -0.011160 -392704.000000 0 0 1
-32.266824 28.791275 16.627060 46.330817 -0.728538 1.203732 0.070983 -0.008386 147218.000000 0 0 1
-32.594264 30.019975 17.254760 47.553251 -0.744308 1.199470 0.065623 -0.006539 -92130.800000 0 0 1
-32.221394 31.198735 16.369060 47.744376 -0.769274 1.220849 0.043083 -0.002162 -567884.000000 0 0 1
-30.864794 31.390405 16.136160 46.886765 -0.793841 1.219461 0.034262 -0.004725 -629570.000000 0 0 1
-30.764294 32.606325 15.515160 47.437690 -0.814458 1.237601 0.029741 0.004574 -222345.000000 0 0 1
-29.321914 32.976802 15.077860 46.632457 -0.843998 1.241546 0.035628 -0.004862 164883.000000 0 0 1
-28.904974 32.367425 13.823160 45.543688 -0.841847 1.262418 0.034453 -0.009398 252901.000000 0 0 1
-28.319244 31.101045 13.892860 44.297474 -0.832180 1.251787 0.036781 -0.014150 -313081.000000 0 0 1
-29.286724 29.901125 13.656360 44.025966 -0.795778 1.255405 0.044023 -0.016408 265183.000000 0 0 1
-29.693264 29.653555 12.293560 43.728193 -0.784729 1.285819 0.046450 -0.019154 272150.000000 0 0 1
-30.546914 28.542785 12.061860 43.511987 -0.751494 1.289910 0.047620 -0.020061 194873.000000 0 0 1
-30.575574 28.246445 10.540660 42.939876 -0.745823 1.322787 0.043955 -0.009841 -1367650.000000 0 0 1
-29.415504 27.755125 10.059160 41.674999 -0.756364 1.327017 0.035625 -0.006814 -1357850.000000 0 0 1
-29.500914 27.672585 8.647960 41.362581 -0.753430 1.360165 0.034995 -0.009766 -22073.500000 0 0 1
-28.346474 26.878985 7.992060 39.873243 -0.758832 1.368993 0.037330 -0.017455 131006.000000 0 0 1
-28.325284 27.082635 6.580460 39.737807 -0.762975 1.404433 0.038424 -0.025583 -702898.000000 0 0 1
-27.174474 26.521995 6.037360 38.448901 -0.773248 1.413121 0.044200 -0.020829 -651364.000000 0 0 1
-26.861844 27.001075 4.615860 38.365647 -0.787983 1.450192 0.035347 -0.016064 -210574.000000 0 0 1
-26.251364 28.282275 4.548160 38.854948 -0.822622 1.453472 0.033639 -0.020242 243138.000000 0 0 1
-25.903924 28.570735 3.193360 38.697516 -0.834314 1.488181 0.023815 -0.016455 245433.000000 0 0 1
-24.718464 29.564515 2.942660 38.648703 -0.874436 1.494584 0.021308 -0.014100 846881.000000 0 0 1
-23.444564 28.939955 3.104160 37.373847 -0.889921 1.487644 0.029203 -0.010741 337217.000000 0 0 1
-22.398864 29.898255 2.992960 37.477628 -0.927827 1.490851 0.034265 -0.013749 -114906.000000 0 0 1
-21.004064 29.402975 3.334560 36.288083 -0.950503 1.478775 0.027483 -0.015626 -102390.000000 0 0 1
-19.996064 30.326515 2.911960 36.442004 -0.987870 1.490804 0.021969 -0.008684 -760790.000000 0 0 1
-18.750764 29.803775 3.255160 35.361734 -1.009225 1.478613 0.028309 -0.015403 -534828.000000 0 0 1
-17.572564 30.643605 2.751060 35.431538 -1.050128 1.493074 0.027832 -0.018475 -252368.000000 0 0 1
-17.474864 31.915385 3.385860 36.543491 -1.069846 1.478010 0.036422 -0.019453 745446.000000 0 0 1
-16.477364 32.656555 2.580860 36.668992 -1.103503 1.500355 0.048518 -0.007282 851746.000000 0 0 1
-16.030464 33.914933 3.351960 37.662104 -1.129253 1.481678 0.048129 -0.014985 -265016.000000 0 0 1
-16.922664 -33.746583 3.401060 37.904823 1.105979 1.480949 0.045109 -0.021591 113692.000000 0 0 1
-16.431664 -32.755293 4.306360 36.897880 1.105830 1.453819 0.062707 -0.019089 597462.000000 0 0 1
-17.572464 -31.754863 4.698760 36.595644 1.065363 1.442044 0.056507 -0.013019 549584.000000 0 0 1
-17.972264 -30.830613 3.685760 35.876368 1.043019 1.467880 0.058620 -0.009615 510801.000000 0 0 1
-19.048664 -29.997143 4.134860 35.773974 1.005027 1.454954 0.054984 -0.011351 315591.000000 0 0 1
-19.604964 -28.974963 3.087560 35.120309 0.975936 1.482769 0.042461 -0.023295 -286923.000000 0 0 1
-18.923764 -27.769383 3.013460 33.739123 0.972621 1.481361 0.045051 -0.014929 -405007.000000 0 0 1
-19.389664 -26.894973 1.978360 33.214643 0.946154 1.511198 0.037808 -0.006611 149304.000000 0 0 1
-18.543364 -25.600863 1.866060 31.666113 0.943930 1.511833 0.038015 -0.004946 882435.000000 0 0 1
-17.248264 -25.786223 1.294960 31.050102 0.981253 1.529079 0.053081 -0.012980 144215.000000 0 0 1
-16.373864 -24.667003 1.441760 29.641915 0.984784 1.522138 0.045002 -0.021891 743179.000000 0 0 1
-15.051164 -24.872003 0.654060 29.078890 1.026602 1.548302 0.058795 -0.020143 124451.000000 0 0 1
-15.190364 -24.846203 -0.747840 29.131430 1.022054 1.596470 0.054395 -0.009269 102468.000000 0 0 1
-15.059964 -23.532703 -1.285140 27.968593 1.001512 1.616762 0.061303 -0.020119 -251677.000000 0 0 1
-15.051364 -23.583003 -2.839540 28.120536 1.002740 1.671946 0.026128 0.000671 692568.000000 0 0 1
-13.826664 -24.138003 -3.361040 28.019929 1.050604 1.691038 0.052169 -0.001177 587961.000000 0 0 1
-13.822864 -23.876703 -4.752140 27.995559 1.046016 1.741368 0.048633 0.011017 71321.400000 0 0 1
-12.777464 -24.525803 -5.681740 28.232264 1.090506 1.773430 0.068979 -0.003881 -129375.000000 0 0 1
-12.902264 -25.920153 -5.788640 29.526786 1.108935 1.768121 0.048556 -0.001683 -437069.000000 0 0 1
-12.154664 -26.496743 -6.807740 29.935907 1.140712 1.800214 0.063073 -0.001874 -262755.000000 0 0 1
23.299836 13.229997 28.547593 39.152014 0.516418 0.753721 0.020208 0.009273 -384531.000000 0 0 1
23.839336 11.923297 28.737173 39.195715 0.463769 0.747823 0.016191 0.008493 27591.500000 0 0 1
23.075436 10.975897 29.441113 38.983653 0.443981 0.714811 0.017150 0.004004 -602963.000000 0 0 1
23.035236 11.071097 30.963503 40.148845 0.448020 0.690044 0.029862 0.005495 -139240.000000 0 0 1
22.269936 12.168897 31.403333 40.375753 0.500096 0.679675 0.030876 0.009915 -115883.000000 0 0 1
22.518436 12.589097 32.738177 41.681573 0.509770 0.667397 0.037107 0.004370 -609472.000000 0 0 1
21.627336 13.687397 33.320918 42.016307 0.564242 0.655001 0.027437 0.010970 1005480.000000 0 0 1
20.378136 13.092397 33.806234 41.587747 0.571065 0.621700 0.030767 0.009485 1162700.000000 0 0 1
19.537836 14.058497 -34.324224 41.922795 0.623728 2.530024 0.024675 0.013196 421999.000000 0 0 1
18.275836 13.457497 -33.607330 40.553212 0.634711 2.547616 0.020984 0.019241 504648.000000 0 0 1
17.187536 13.263397 34.240175 40.542800 0.657237 0.565083 0.014499 0.018363 -662723.000000 0 0 1
16.102536 12.792697 -33.778100 39.546236 0.671349 2.594695 0.010868 0.014618 -270637.000000 0 0 1
14.851036 12.453497 34.099044 39.222285 0.697815 0.516851 0.008127 0.014935 456712.000000 0 0 1
15.020736 11.347997 33.248722 38.208337 0.647005 0.515197 0.006410 0.018973 286200.000000 0 0 1
13.777036 10.648297 33.141472 37.437282 0.657998 0.483758 0.002993 0.015481 541318.000000 0 0 1
13.791236 9.585097 32.073873 36.205049 0.607372 0.482376 0.008867 0.016306 -398173.000000 0 0 1
14.491636 8.429897 32.331643 36.419854 0.526861 0.478367 0.003714 0.018315 -371009.000000 0 0 1
14.930536 7.756297 31.162293 35.414256 0.479120 0.495068 -0.000028 0.004608 -60651.200000 0 0 1
15.250536 6.286097 31.517393 35.573022 0.390969 0.482169 0.017640 -0.002045 220086.000000 0 0 1
14.169936 5.423397 31.872363 35.299403 0.365539 0.444292 0.014224 0.006302 -120170.000000 0 0 1
14.594636 4.150897 32.287263 35.674931 0.277096 0.439321 0.022840 -0.003123 -622267.000000 0 0 1
13.460336 3.212297 32.546173 35.365984 0.234267 0.402032 0.015896 0.000615 -967918.000000 0 0 1
13.919336 1.966997 32.949278 35.822784 0.140384 0.403263 0.024697 -0.004070 -289120.000000 0 0 1
12.892036 1.124597 33.402754 35.821966 0.087012 0.369617 0.025868 -0.008777 -394213.000000 0 0 1
13.363736 -0.262003 33.874461 36.416166 -0.019603 0.375828 0.003668 -0.008493 -284330.000000 0 0 1
13.775636 -1.046403 32.808784 35.598868 -0.075815 0.398551 -0.002803 -0.002558 132733.000000 0 0 1
14.387736 -2.204803 33.379568 36.415157 -0.152059 0.411206 0.022548 -0.007441 -28715.300000 0 0 1
14.362336 -3.420403 32.418193 35.621834 -0.233796 0.427355 0.017882 -0.010431 -485741.000000 0 0 1
14.788436 -4.737503 32.915872 36.395005 -0.310022 0.440810 0.024376 -0.015058 803395.000000 0 0 1
16.107936 -5.067003 33.381431 37.409357 -0.304766 0.468319 0.014629 -0.010446 551648.000000 0 0 1
17.286736 -4.776303 32.450233 37.076433 -0.269573 0.504895 0.025785 -0.010799 -813692.000000 0 0 1
17.499136 -3.403803 32.288083 36.882596 -0.192114 0.504474 0.032815 -0.016519 597594.000000 0 0 1
18.576036 -3.026903 31.394283 36.603719 -0.161527 0.540056 0.055325 -0.021529 478389.000000 0 0 1
18.619436 -1.510803 31.374103 36.514384 -0.080964 0.537042 0.061542 -0.021353 -98228.700000 0 0 1
19.006736 -0.826603 32.574183 37.722893 -0.043463 0.528603 0.055646 -0.018069 231497.000000 0 0 1
18.649536 0.522597 32.581383 37.544970 0.028015 0.520046 0.056975 -0.008641 502041.000000 0 0 1
19.797936 1.465397 32.062973 37.711270 0.073883 0.554388 0.067513 -0.013106 493380.000000 0 0 1
20.113536 1.467897 30.659103 36.697270 0.072851 0.581827 0.073242 -0.017909 90245.200000 0 0 1
21.005636 2.458997 30.171193 36.845410 0.116533 0.611376 0.063898 -0.016058 120879.000000 0 0 1
20.459336 3.929097 30.087023 36.595781 0.189734 0.605628 0.058929 -0.005851 -265554.000000 0 0 1
20.388336 4.588297 31.345003 37.672880 0.221357 0.588037 0.060815 -0.010645 78700.300000 0 0 1
19.714436 5.802197 31.252443 37.403738 0.286230 0.581675 0.053532 -0.010267 -588850.000000 0 0 1
19.363236 6.244597 32.664031 38.482058 0.311967 0.557062 0.050871 -0.009188 172771.000000 0 0 1
18.212136 5.654397 33.266911 38.345032 0.301038 0.520506 0.047661 -0.008667 444417.000000 0 0 1
18.185036 6.101997 -34.108918 39.132444 0.323745 2.629309 0.042687 -0.005313 186365.000000 0 0 1
17.082536 5.448897 -33.227660 37.756865 0.308773 2.646749 0.047490 -0.001409 421.058000 0 0 1
17.244436 4.055097 -32.931770 37.394061 0.230958 2.648068 0.041912 -0.009705 428241.000000 0 0 1
16.009736 3.481597 -32.511060 36.406073 0.214133 2.674790 0.038864 -0.009109 373414.000000 0 0 1
15.916236 1.952697 -32.743190 36.458964 0.122076 2.686189 0.030964 -0.013125 75711.600000 0 0 1
17.039336 1.285197 -32.199920 36.453059 0.075283 2.653706 0.041273 -0.013804 294958.000000 0 0 1
17.119536 -0.052103 -32.659550 36.874482 -0.003043 2.658786 0.046825 -0.014562 -62298.700000 0 0 1
18.141336 -0.876903 -31.836200 36.652703 -0.048300 2.623148 0.050310 -0.015399 -214430.000000 0 0 1
17.781736 -1.216803 -30.514480 35.338424 -0.068323 2.612951 0.053167 -0.017907 315547.000000 0 0 1
17.726636 -0.124903 -29.612630 34.513143 -0.007046 2.602179 0.041665 -0.013308 -147506.000000 0 0 1
17.628736 -0.390203 -28.071620 33.150270 -0.022131 2.580735 0.049424 -0.020064 820482.000000 0 0 1
16.366836 -0.967503 -27.660470 32.154486 -0.059045 2.606530 0.054655 -0.019725 929365.000000 0 0 1
16.309336 -1.259303 -26.263520 30.941117 -0.077061 2.584551 0.048910 -0.022841 245841.000000 0 0 1
17.277236 -2.342203 -25.609610 30.981299 -0.134744 2.543862 0.058308 -0.021320 963501.000000 0 0 1
18.637536 -1.881903 -25.686380 31.791341 -0.100633 2.511491 0.055965 -0.017415 19089.800000 0 0 1
19.467936 -2.995403 -25.616600 32.313823 -0.152666 2.486094 0.060024 -0.015251 -219991.000000 0 0 1
20.266536 -3.414403 -26.886030 33.841531 -0.166908 2.488928 0.063159 -0.022110 17278.900000 0 0 1
21.493636 -2.715003 -26.938930 34.569546 -0.125651 2.464293 0.046053 -0.009836 -390318.000000 0 0 1
21.844036 -2.349303 -28.192800 35.742343 -0.107137 2.479616 0.042986 -0.012137 469222.000000 0 0 1
23.393236 -2.174503 -28.300120 36.781364 -0.092688 2.448721 0.036719 -0.009617 720719.000000 0 0 1
24.175036 -3.368403 -28.376490 37.429983 -0.138443 2.431225 0.035835 -0.012362 -916929.000000 0 0 1
25.486536 -3.030803 -28.613010 38.437658 -0.118362 2.410433 0.021441 -0.012842 -1341820.000000 0 0 1
26.577136 -4.048503 -28.296620 39.031182 -0.151168 2.381794 0.016415 -0.015459 -359198.000000 0 0 1
26.486236 -5.227703 -29.111860 39.703273 -0.194870 2.393865 0.021546 -0.024246 -147439.000000 0 0 1
27.516536 -6.156003 -28.937250 40.403224 -0.220096 2.369155 0.017315 -0.027319 -609199.000000 0 0 1
27.453736 -7.135703 -27.752250 39.683916 -0.254291 2.345259 0.006822 -0.018824 -229896.000000 0 0 1
27.532536 -6.492203 -26.486160 38.751850 -0.231571 2.323317 -0.001182 -0.008854 273571.000000 0 0 1
27.196336 -7.444803 -25.492680 38.012399 -0.267197 2.305869 -0.013873 -0.001065 -326885.000000 0 0 1
27.195936 -6.936003 -24.009940 36.935136 -0.249715 2.278456 -0.023095 0.003393 -503057.000000 0 0 1
28.500436 -6.656303 -23.580740 37.585003 -0.229438 2.249003 -0.029921 0.009061 -134471.000000 0 0 1
28.588136 -6.060703 -22.291840 36.755132 -0.208908 2.222442 -0.019591 0.007980 431365.000000 0 0 1
29.969136 -5.412403 -21.920440 37.522645 -0.178673 2.194681 -0.004187 0.009980 475703.000000 0 0 1
30.234936 -4.226903 -22.651040 38.014308 -0.138902 2.209127 0.004049 0.002993 640990.000000 0 0 1
31.601436 -3.838703 -22.469040 38.964652 -0.120880 2.185421 0.016304 0.002408 764486.000000 0 0 1
32.019036 -2.488303 -23.152740 39.591156 -0.077557 2.195425 0.023478 -0.004104 -87548.800000 0 0 1
31.451036 -1.418203 -22.480040 38.685025 -0.045062 2.190881 0.034320 -0.007964 166118.000000 0 0 1
31.903536 -0.165803 -22.960040 39.306825 -0.005197 2.194596 0.040232 -0.008133 -702024.000000 0 0 1
30.887036 0.909197 -22.683240 38.332297 0.029428 2.204028 0.039427 -0.010751 -570565.000000 0 0 1
29.724036 0.713597 -23.480840 37.886374 0.024003 2.239246 0.035263 -0.006528 -136288.000000 0 0 1
28.754736 1.606197 -23.065440 36.897550 0.055801 2.246083 0.031865 -0.003117 -884986.000000 0 0 1
27.505136 1.591297 -23.957440 36.510596 0.057790 2.286539 0.015139 -0.002538 -223426.000000 0 0 1
26.569936 2.559697 -23.494640 35.559972 0.096042 2.292553 0.012163 -0.006359 180964.000000 0 0 1
25.581536 2.781097 -24.485040 35.519947 0.108290 2.331363 0.019077 -0.009706 -113427.000000 0 0 1
24.529236 3.850397 -24.181440 34.659068 0.155701 2.342971 0.022814 -0.006232 -127015.000000 0 0 1
25.078036 5.162797 -23.941440 35.053600 0.203033 2.322652 0.015996 -0.001625 552667.000000 0 0 1
24.047136 6.122097 -23.635140 34.269004 0.249292 2.331863 0.024076 -0.006606 336323.000000 0 0 1
24.525536 7.523897 -23.097640 34.519732 0.297664 2.303812 0.022538 -0.005377 -541704.000000 0 0 1
25.313036 8.200697 -23.982040 35.820936 0.313301 2.304329 0.022925 -0.000644 -270461.000000 0 0 1
25.538036 9.548797 -23.577240 36.045208 0.357810 2.283791 0.022110 0.000787 -618102.000000 0 0 1
26.286636 10.386997 -24.605240 37.473921 0.376313 2.287093 0.040334 0.000236 -426231.000000 0 0 1
25.667136 10.576397 -25.862310 37.941021 0.390859 2.320805 0.045289 -0.010244 491097.000000 0 0 1
24.377636 11.175897 -25.854660 37.250949 0.429858 2.337920 0.043381 -0.014905 342743.000000 0 0 1
23.838336 11.511397 -27.279420 38.012436 0.449870 2.371211 0.037999 -0.015826 -12252.700000 0 0 1
23.625836 10.492297 -28.284250 38.317975 0.417939 2.401114 0.041959 -0.009706 602518.000000 0 0 1
24.792236 9.849197 -28.798010 39.255407 0.378150 2.394410 0.043678 -0.013584 376663.000000 0 0 1
25.681136 10.492597 -29.861630 40.759444 0.387874 2.392976 0.042551 -0.011593 -1188280.000000 0 0 1
26.546136 11.512697 -29.432710 41.273768 0.409205 2.364720 0.037819 -0.002542 458180.000000 0 0 1
27.487736 11.974697 -30.382980 42.685998 0.410846 2.362823 0.038451 0.003382 401156.000000 0 0 1
28.539436 10.985397 -30.959060 43.515994 0.367439 2.362343 0.030733 -0.005815 -852685.000000 0 0 1
27.984536 10.037097 -31.843780 43.564938 0.344374 2.390509 0.025583 -0.007267 -87280.300000 0 0 1
28.708836 8.835697 -31.888410 43.807961 0.298569 2.386070 0.021374 -0.004191 -114285.000000 0 0 1
28.038836 7.840497 -32.864430 43.905813 0.272665 2.416625 0.027089 -0.009073 739441.000000 0 0 1
26.798936 7.322597 -32.370880 42.657675 0.266731 2.432346 0.033150 -0.009401 346305.000000 0 0 1
26.360136 6.188697 -33.104680 42.767704 0.230599 2.456022 0.040652 -0.009607 -722913.000000 0 0 1
25.136736 5.527797 -32.516820 41.469936 0.216464 2.472050 0.038773 -0.006603 -1610660.000000 0 0 1
24.012636 6.284497 -32.674410 41.033141 0.255975 2.491939 0.055532 -0.012568 -1078360.000000 0 0 1
23.426336 6.658697 -31.449870 39.777201 0.276936 2.482667 0.047444 -0.010008 59360.500000 0 0 1
21.938236 7.110597 -31.532750 39.066112 0.313435 2.510128 0.051779 -0.015790 386981.000000 0 0 1
21.704736 8.206097 -32.386240 39.840985 0.361467 2.519889 0.055041 -0.010242 776857.000000 0 0 1
20.339236 8.671497 -32.254800 39.105645 0.403008 2.540666 0.048849 -0.005426 1061140.000000 0 0 1
19.956936 9.706597 -33.346500 40.056040 0.452690 2.554394 0.040167 0.001916 -237827.000000 0 0 1
19.495136 9.178997 34.185688 40.410092 0.440045 0.562416 0.038249 -0.002107 -167541.000000 0 0 1
19.257536 10.230397 33.290261 39.796422 0.488327 0.579906 0.029567 0.009090 361310.000000 0 0 1
18.252536 9.932097 32.119873 38.255560 0.498340 0.574226 0.010500 0.009297 506241.000000 0 0 1
18.703536 8.926697 31.179743 37.439078 0.445301 0.586627 0.009093 0.004638 654702.000000 0 0 1
19.743136 9.279497 30.224073 37.274590 0.439370 0.625195 0.028045 0.001148 339078.000000 0 0 1
19.360636 10.197697 28.985263 36.317664 0.484797 0.646655 0.022668 -0.000677 371675.000000 0 0 1
18.338636 9.624497 28.147653 34.946056 0.483307 0.634345 0.007025 0.004723 9025.350000 0 0 1
17.111236 10.284997 28.218813 34.566992 0.541204 0.615731 0.007845 0.000646 -444304.000000 0 0 1
16.087336 9.498897 27.366913 33.135771 0.533374 0.598995 0.017497 -0.003829 -559604.000000 0 0 1
15.818336 9.908797 26.046693 32.044254 0.559614 0.621794 0.025676 -0.001538 1248240.000000 0 0 1
14.682936 9.297897 25.327923 30.717148 0.564506 0.601384 0.033057 -0.002527 1300190.000000 0 0 1
14.649536 7.797097 25.008403 30.013727 0.489107 0.585869 0.033057 -0.000452 -214644.000000 0 0 1
14.611036 7.028297 26.229503 30.836117 0.448354 0.553652 0.026879 0.005121 12860.300000 0 0 1
14.161836 5.709797 26.080473 30.221688 0.383246 0.529674 0.031188 0.002877 -117181.000000 0 0 1
14.276636 4.915597 27.379723 31.267149 0.331597 0.503974 0.030471 0.005304 -727833.000000 0 0 1
15.500336 4.305197 27.609953 31.954728 0.270920 0.527569 0.017469 0.009371 -487906.000000 0 0 1
15.742736 3.854597 28.923193 33.154830 0.240125 0.510772 0.011943 0.004177 -121224.000000 0 0 1
16.645236 2.620197 28.989843 33.531184 0.156133 0.526515 0.033905 0.004428 -153083.000000 0 0 1
16.003636 1.415197 28.720413 32.908680 0.088200 0.510028 0.022511 -0.005715 363492.000000 0 0 1
15.199636 0.821297 29.756733 33.424042 0.053982 0.472838 0.013778 -0.004906 394790.000000 0 0 1
15.156836 -0.703903 29.655303 33.311591 -0.046408 0.472925 0.025342 -0.004694 -395331.000000 0 0 1
14.358536 -1.208103 28.596463 32.021629 -0.083941 0.466749 0.014813 -0.008519 179203.000000 0 0 1
14.942036 -1.374503 27.270583 31.126169 -0.091731 0.503021 0.023508 -0.007783 -688210.000000 0 0 1
16.107536 -2.402003 27.167813 31.675106 -0.148032 0.540012 0.023073 -0.004721 640686.000000 0 0 1
17.321736 -2.131103 27.879573 32.891560 -0.122415 0.559311 0.035788 -0.015501 275999.000000 0 0 1
18.112836 -1.191303 27.186863 32.689746 -0.065677 0.588700 0.046406 -0.011324 -387530.000000 0 0 1
19.456536 -0.954603 27.964583 34.080580 -0.049024 0.608436 0.066746 -0.004870 628901.000000 0 0 1
20.502736 -1.766703 27.492783 34.341469 -0.085957 0.642549 0.054879 -0.011630 -167811.000000 0 0 1
21.808136 -1.335603 27.828633 35.380947 -0.061167 0.665606 0.064006 -0.021779 509284.000000 0 0 1
22.822936 -1.769303 26.719473 35.184472 -0.077368 0.708389 0.061814 -0.012125 -139849.000000 0 0 1
22.757436 -1.098403 25.439343 34.150659 -0.048228 0.730389 0.065999 -0.000454 86380.000000 0 0 1
22.122236 -1.797903 24.401423 32.985682 -0.081093 0.738086 0.056263 0.012336 -124991.000000 0 0 1
21.945736 -1.095303 23.042183 31.839554 -0.049868 0.761652 0.058558 -0.012174 -60664.800000 0 0 1
20.921336 -0.119903 23.011883 31.100859 -0.005731 0.737858 0.036586 0.005145 57769.500000 0 0 1
20.786236 0.383097 21.627283 29.999229 0.018428 0.765656 0.051596 0.009390 -315912.000000 0 0 1
-30.250864 -27.712720 -9.887440 42.200369 0.741638 1.807292 0.014071 0.011529 -78187.300000 0 0 1
-30.033054 -26.414520 -9.334140 41.071126 0.721381 1.800067 0.022372 0.016139 356771.000000 0 0 1
-30.913504 -26.339520 -8.199240 41.432386 0.705677 1.770006 0.024168 0.010999 -197339.000000 0 0 1
-30.891524 -24.932420 -7.561840 40.411549 0.679053 1.759027 0.046307 0.006298 1555030.000000 0 0 1
-29.608994 -24.373320 -7.083340 38.999038 0.688712 1.753439 0.061559 -0.006003 1447240.000000 0 0 1
-28.975694 -25.138120 -6.035540 38.832251 0.714600 1.726855 0.054947 -0.002709 458000.000000 0 0 1
-27.803114 -24.319420 -5.377440 37.327794 0.718661 1.715359 0.049734 -0.003117 291575.000000 0 0 1
-28.075514 -23.364620 -4.380640 36.787634 0.694073 1.690159 0.061286 -0.007057 82570.900000 0 0 1
-28.792314 -22.202320 -4.835940 36.678695 0.656881 1.703027 0.081449 -0.016282 180168.000000 0 0 1
-28.663234 -20.990420 -3.867140 35.737005 0.632084 1.679220 0.068019 -0.018974 827795.000000 0 0 1
-27.381884 -20.331520 -3.993740 34.337855 0.638695 1.687367 0.067496 -0.029854 1172670.000000 0 0 1
-27.294324 -19.251620 -3.104340 33.544626 0.614297 1.663473 0.087081 -0.029698 -138964.000000 0 0 1
-26.071054 -18.382620 -3.454140 32.086628 0.614139 1.678656 0.079837 -0.027898 47495.600000 0 0 1
-26.343804 -17.440020 -4.427240 31.902207 0.584776 1.710021 0.070955 -0.032693 436793.000000 0 0 1
-25.331874 -16.446120 -4.339040 30.512391 0.575831 1.713486 0.068655 -0.030537 223952.000000 0 0 1
-25.597944 -15.432020 -5.428140 30.378721 0.542521 1.750443 0.054651 -0.036039 -107906.000000 0 0 1
-26.792274 -14.716920 -5.217540 31.010263 0.502303 1.739852 0.057944 -0.029282 -116885.000000 0 0 1
-26.985314 -13.617020 -6.159940 30.847614 0.467328 1.771837 0.064219 -0.034386 -538457.000000 0 0 1
-28.388794 -13.038520 -6.051440 31.820537 0.430548 1.762136 0.058277 -0.025558 -299417.000000 0 0 1
-29.411144 -13.897720 -6.530040 33.178358 0.441433 1.768906 0.057951 -0.022004 772601.000000 0 0 1
-30.707474 -13.274220 -6.515440 34.082325 0.408020 1.763148 0.044665 -0.021111 79163.900000 0 0 1
-31.629594 -14.055820 -7.400840 35.394487 0.418177 1.781447 0.032105 -0.020580 -966889.000000 0 0 1
-32.033364 -15.268420 -6.804740 36.132611 0.444787 1.760255 0.040954 -0.026230 172410.000000 0 0 1
-32.546354 -16.162120 -7.777040 37.161292 0.460914 1.781633 0.036279 -0.014208 -510982.000000 0 0 1
-33.467074 -17.359320 -7.294840 38.400596 0.478494 1.761925 0.033306 -0.023342 757752.000000 0 0 1
-34.835225 -17.036120 -7.089040 39.420512 0.454848 1.751611 0.042698 -0.028066 290459.000000 0 0 1
-35.131433 -16.151220 -6.022840 39.132520 0.430922 1.725319 0.048616 -0.025507 -144890.000000 0 0 1
34.933780 -16.158520 -5.784040 38.921997 -0.433239 1.719955 0.075276 -0.032409 303428.000000 0 0 1
34.262230 -15.397720 -6.786740 38.171325 -0.422362 1.749543 0.069875 -0.034772 1517780.000000 0 0 1
32.817820 -15.432820 -6.858440 36.908257 -0.439572 1.757707 0.083964 -0.039901 1670680.000000 0 0 1
31.968580 -14.796320 -5.699540 35.684814 -0.433480 1.731202 0.094066 -0.039724 -286421.000000 0 0 1
32.123180 -15.416620 -4.433540 35.905809 -0.447457 1.694589 0.087971 -0.044114 480995.000000 0 0 1
31.491360 -14.578520 -3.453440 34.873561 -0.433560 1.669986 0.087275 -0.032181 -449114.000000 0 0 1
31.415770 -15.130020 -2.002440 34.926750 -0.448824 1.628160 0.084090 -0.031258 980425.000000 0 0 1
32.665440 -15.456520 -1.318240 36.161758 -0.441960 1.607258 0.096536 -0.031268 1442510.000000 0 0 1
33.505300 -16.515620 -1.817940 37.398874 -0.457972 1.619425 0.083602 -0.030625 -285323.000000 0 0 1
32.810280 -17.868620 -2.191140 37.424633 -0.498691 1.629378 0.083290 -0.033874 -904217.000000 0 0 1
33.026810 -18.788220 -1.149340 38.014318 -0.517221 1.601035 0.077998 -0.036383 252967.000000 0 0 1
32.925050 -20.126420 -1.641840 38.624181 -0.548672 1.613317 0.062711 -0.033390 -158602.000000 0 0 1
34.020740 -20.762520 -2.556540 39.937813 -0.547951 1.634853 0.053184 -0.035552 19078.300000 0 0 1
34.111620 -20.030020 -3.761140 39.736010 -0.530948 1.665591 0.047703 -0.038703 -523078.000000 0 0 1
35.059260 -20.598720 -4.590440 40.921035 -0.531207 1.683211 0.047373 -0.031893 -589819.000000 0 0 1
35.046390 -19.931820 -5.991440 40.760572 -0.517107 1.718322 0.060052 -0.034632 1085.160000 0 0 1
33.871210 -20.058620 -6.769340 39.942847 -0.534666 1.741094 0.057808 -0.036457 293791.000000 0 0 1
33.955740 -19.174320 -7.883540 39.784382 -0.514048 1.770273 0.054881 -0.037360 650983.000000 0 0 1
32.891340 -19.511220 -9.006540 39.289257 -0.535406 1.802090 0.056903 -0.038637 639276.000000 0 0 1
33.193970 -20.781020 -9.611040 40.324466 -0.559353 1.811455 0.045896 -0.034394 421829.000000 0 0 1
32.192270 -21.097720 -10.560140 39.912061 -0.580138 1.838570 0.049783 -0.036527 -106967.000000 0 0 1
32.302220 -22.527820 -11.120140 40.921799 -0.608984 1.845998 0.034255 -0.029484 -188102.000000 0 0 1
31.804670 -23.308320 -10.055840 40.693178 -0.632440 1.820497 0.024775 -0.024133 38416.900000 0 0 1
31.699770 -24.609520 -10.548940 41.494385 -0.660141 1.827843 0.012412 -0.012482 -526175.000000 0 0 1
30.869120 -25.491620 -9.614840 41.172447 -0.690274 1.806499 0.005695 -0.012293 -635794.000000 0 0 1
29.568420 -24.998820 -9.685840 39.913005 -0.701851 1.815917 0.025722 -0.021790 -680133.000000 0 0 1
28.640150 -25.817020 -8.964040 39.587002 -0.733603 1.799216 0.013801 -0.014630 705406.000000 0 0 1
27.238290 -25.157720 -8.822640 38.113965 -0.745710 1.804396 0.034675 -0.026563 19790.100000 0 0 1
26.574640 -25.079220 -10.039140 37.894104 -0.756455 1.838924 0.042414 -0.025783 -782050.000000 0 0 1
25.502610 -24.203520 -9.925840 36.533762 -0.759269 1.845944 0.055404 -0.035626 -296096.000000 0 0 1
24.716010 -24.002020 -11.278140 36.251546 -0.770744 1.887155 0.087815 -0.044272 -79485.300000 0 0 1
23.936410 -25.119220 -11.635640 36.596654 -0.809505 1.894355 0.071191 -0.033663 199770.000000 0 0 1
23.159810 -24.790920 -12.762740 36.247125 -0.819401 1.930614 0.077228 -0.018515 -504361.000000 0 0 1
22.210310 -25.842020 -13.304340 36.580231 -0.860833 1.943036 0.083135 -0.030422 -536838.000000 0 0 1
22.889310 -26.858320 -14.012340 37.968876 -0.865012 1.948781 0.078474 -0.022168 -32765.600000 0 0 1
22.349010 -28.154520 -13.885240 38.535116 -0.899848 1.939415 0.082476 -0.017306 -71053.000000 0 0 1
23.126010 -29.356320 -14.572440 40.111867 -0.903558 1.942598 0.065437 -0.013938 13058.700000 0 0 1
23.100610 -29.241220 -16.022540 40.563640 -0.902182 1.976862 0.058455 -0.007725 379966.000000 0 0 1
23.406210 -30.485420 -16.626740 41.876724 -0.916010 1.979086 0.044064 -0.005430 -359846.000000 0 0 1
23.297410 -30.544520 -18.180940 42.500395 -0.919194 2.012835 0.035433 -0.004810 -863677.000000 0 0 1
22.043510 -30.405320 -18.741540 41.971957 -0.943496 2.033675 0.047762 -0.004807 -759907.000000 0 0 1
22.068910 -30.634420 -20.121640 42.782997 -0.946513 2.060448 0.037824 -0.000251 231680.000000 0 0 1
20.644010 -30.416220 -20.681640 42.178808 -0.974497 2.083268 0.038011 0.002312 174696.000000 0 0 1
20.746810 -30.585920 -22.093440 43.058666 -0.974775 2.109590 0.013498 0.004448 170861.000000 0 0 1
19.452110 -30.338020 -22.558740 42.516782 -1.000647 2.130086 0.011505 0.003143 -854642.000000 0 0 1
19.291110 -30.269520 -24.077340 43.221627 -1.003393 2.161646 0.009491 0.004721 -497878.000000 0 0 1
19.942410 -29.168220 -24.748440 43.138962 -0.971092 2.181802 0.010534 -0.000398 651191.000000 0 0 1
19.998610 -29.413920 -26.132250 44.136352 -0.973686 2.204434 0.009947 -0.002330 -477623.000000 0 0 1
20.559310 -28.210320 -26.887530 44.061850 -0.941010 2.227138 0.001371 -0.002135 356896.000000 0 0 1
19.720510 -27.045320 -27.108870 43.072482 -0.940763 2.251549 0.019006 -0.012723 231404.000000 0 0 1
18.677810 -27.197220 -28.054370 43.308163 -0.969015 2.275469 0.028366 -0.014951 -160289.000000 0 0 1
17.872410 -25.882420 -28.223890 42.260036 -0.966459 2.302129 0.027712 -0.010606 -447850.000000 0 0 1
17.003810 -25.602620 -27.166130 41.019780 -0.984543 2.294639 0.024592 -0.005691 -400470.000000 0 0 1
16.460510 -24.318020 -27.305020 40.098361 -0.975753 2.319857 0.027989 -0.006032 -67035.300000 0 0 1
15.424610 -24.023420 -26.189800 38.742082 -1.000019 2.313123 0.043623 -0.007603 155946.000000 0 0 1
14.176510 -24.682820 -26.410130 38.829241 -1.049453 2.318778 0.068364 -0.020373 786942.000000 0 0 1
13.069510 -24.291720 -25.573970 37.615524 -1.077195 2.318393 0.065206 -0.022276 798705.000000 0 0 1
13.245110 -24.682720 -24.046640 36.917618 -1.078288 2.280171 0.056586 -0.019397 -322817.000000 0 0 1
14.171410 -23.830220 -23.374640 36.264060 -1.034296 2.271254 0.031850 -0.013226 56533.200000 0 0 1
14.644310 -24.491120 -22.192540 36.149407 -1.031890 2.231803 0.023825 -0.022717 -133417.000000 0 0 1
15.881710 -23.835620 -21.599240 35.873286 -0.983047 2.216923 0.030457 -0.025907 -259658.000000 0 0 1
15.576810 -22.560620 -21.072640 34.578530 -0.966514 2.226118 0.032959 -0.036684 707698.000000 0 0 1
16.788410 -21.903920 -20.672140 34.481441 -0.916846 2.213691 0.035506 -0.030206 132537.000000 0 0 1
16.477710 -20.545220 -20.064940 33.109255 -0.894824 2.221846 0.040665 -0.018106 266464.000000 0 0 1
15.800510 -20.437220 -18.806940 31.953671 -0.912659 2.200084 0.035575 -0.023824 183094.000000 0 0 1
14.398410 -20.404720 -18.912740 31.326643 -0.956294 2.218964 0.048501 -0.023837 -252354.000000 0 0 1
13.698510 -20.514420 -17.513240 30.252342 -0.982044 2.188182 0.051151 -0.020094 -53587.500000 0 0 1
13.838010 -19.341520 -16.720740 29.071774 -0.949772 2.183588 0.053988 -0.016400 8513.820000 0 0 1
12.821510 -19.342320 -15.759940 28.051598 -0.985424 2.167380 0.048360 -0.017324 -139594.000000 0 0 1
12.728610 -18.112120 -14.792340 26.624795 -0.958215 2.159863 0.047802 -0.018376 -176900.000000 0 0 1
12.333810 -16.913920 -15.485740 26.038658 -0.940734 2.207715 0.061798 -0.024116 269667.000000 0 0 1
12.410110 -15.744820 -14.690440 24.853958 -0.903290 2.203182 0.050325 -0.019675 -6569.330000 0 1 0
11.020610 -15.163720 -14.338540 23.600550 -0.942326 2.223770 0.044651 -0.008663 288621.000000 0 1 0
10.292910 -14.618520 -15.457340 23.634180 -0.957324 2.283689 0.052718 -0.000539 -421042.000000 0 1 0
9.117510 -13.988920 -15.089440 22.505778 -0.993180 2.305638 0.046835 -0.003084 -191123.000000 0 1 0
8.295610 -13.384420 -16.268140 22.640941 -1.015948 2.372479 0.043742 0.000937 479059.000000 0 1 0
8.849310 -12.125420 -16.764040 22.502647 -0.940339 2.411302 0.045240 0.001569 1182140.000000 0 1 0
9.905710 -12.366720 -17.770340 23.808482 -0.895448 2.413413 0.059938 0.003262 978825.000000 0 1 0
10.152610 -11.179920 -18.700840 24.037211 -0.833518 2.462265 0.059847 0.000206 -167797.000000 0 1 0
9.282310 -11.086620 -19.791740 24.510965 -0.873749 2.510638 0.056294 0.001608 -124594.000000 0 1 0
9.417510 -9.877820 -20.504440 24.631136 -0.809250 2.554329 0.046244 -0.007177 27889.200000 0 1 0
9.170110 -10.039220 -22.037840 25.894850 -0.830612 2.588780 0.042527 -0.000934 99873.400000 0 0 1
10.136210 -10.809920 -22.722440 27.127595 -0.817551 2.563696 0.038948 -0.003502 -530140.000000 0 0 1
9.972210 -10.650820 -24.121140 28.190678 -0.818292 2.597587 0.032509 0.004131 349530.000000 0 0 1
10.957110 -11.558120 -24.902340 29.559684 -0.812085 2.572597 0.065659 0.005143 243032.000000 0 0 1
10.736110 -12.979620 -24.768840 29.953798 -0.879718 2.544371 0.062662 -0.002324 359387.000000 0 0 1
11.891010 -13.674320 -25.276100 31.100874 -0.855040 2.519590 0.062220 -0.017960 567095.000000 0 0 1
11.853210 -15.193620 -25.013740 31.575811 -0.908281 2.485170 0.055957 -0.013387 49318.700000 0 0 1
10.737410 -15.857520 -25.582940 31.956841 -0.975593 2.499003 0.062464 -0.016040 -147831.000000 0 0 1
10.420110 -17.048720 -24.920240 31.941445 -1.022185 2.465758 0.069221 -0.016097 -617699.000000 0 0 1
9.272810 -17.762720 -25.557590 32.475985 -1.089674 2.476677 0.073611 -0.019817 -727451.000000 0 0 1
9.582110 -18.463620 -26.757510 33.892277 -1.092086 2.480769 0.067609 -0.025574 206196.000000 0 0 1
8.621710 -19.489920 -27.081930 34.461889 -1.154308 2.474868 0.069333 -0.021518 330789.000000 0 0 1
8.938010 -20.311620 -28.362190 36.011994 -1.156252 2.477662 0.061067 -0.025361 379096.000000 0 0 1
9.889910 -21.378220 -28.187110 36.733524 -1.137500 2.445479 0.059337 -0.023575 405189.000000 0 0 1
9.903010 -22.191720 -29.300300 38.066384 -1.151067 2.449192 0.066177 -0.021126 -115217.000000 0 0 1
10.540110 -23.524820 -29.020840 38.816494 -1.149572 2.415301 0.059743 -0.020866 -124518.000000 0 0 1
10.405010 -24.406320 -30.140480 40.154467 -1.167804 2.419786 0.054024 -0.012690 34755.700000 0 0 1
11.047310 -25.675720 -30.051390 41.041097 -1.164476 2.392382 0.058665 -0.009717 -14206.800000 0 0 1
10.589810 -26.705420 -28.964370 40.795321 -1.193275 2.360284 0.057421 -0.014292 -195967.000000 0 0 1
11.053610 -26.465320 -27.623220 39.820067 -1.175156 2.337411 0.063793 -0.017545 -271564.000000 0 0 1
10.314310 -27.007620 -26.529820 39.238092 -1.205987 2.313286 0.059025 -0.015247 363755.000000 0 0 1
9.212210 -26.053620 -25.993620 37.938426 -1.230930 2.325610 0.055599 -0.019166 348980.000000 0 0 1
9.784110 -24.963420 -25.308200 36.870125 -1.197259 2.327344 0.068205 -0.018081 -1061950.000000 0 0 1
8.860710 -23.994620 -25.096800 35.834388 -1.217051 2.346691 0.063430 -0.015316 -645789.000000 0 0 1
9.454710 -22.583320 -24.860040 34.891539 -1.174309 2.363844 0.070620 -0.013980 49927.000000 0 0 1
10.245710 -22.389320 -23.726940 34.193916 -1.141627 2.337679 0.067989 -0.011144 58737.900000 0 0 1
11.082710 -21.248420 -23.767540 33.752300 -1.090036 2.352057 0.070526 -0.012817 502921.000000 0 0 1
12.040910 -21.123420 -22.508340 33.133182 -1.052708 2.317645 0.062981 -0.012624 335965.000000 0 0 1
11.486510 -20.521820 -21.354040 31.766020 -1.060520 2.308012 0.057277 -0.017449 -302856.000000 0 0 1
11.239910 -19.137520 -21.398840 30.830027 -1.039750 2.337953 0.062956 -0.016401 -214714.000000 0 0 1
12.354010 -18.090920 -21.191240 30.479035 -0.971650 2.339595 0.074214 -0.013980 -619241.000000 0 0 1
13.254710 -18.014520 -22.213540 31.522240 -0.936459 2.352788 0.074966 -0.018161 -501301.000000 0 0 1
14.422410 -17.336220 -21.787840 31.356983 -0.876891 2.338983 0.078332 -0.017718 -105588.000000 0 0 1
15.488910 -17.110620 -22.876540 32.496395 -0.835104 2.351770 0.054421 -0.010652 71282.800000 0 0 1
16.728510 -17.586720 -22.371440 33.009348 -0.810403 2.315468 0.060092 -0.010224 1010030.000000 0 0 1
17.842910 -17.283020 -23.258340 34.029731 -0.769460 2.323304 0.048829 -0.003850 -8857.620000 0 0 1
19.152210 -17.686220 -22.631940 34.522662 -0.745624 2.285730 0.026501 -0.000773 -1067500.000000 0 0 1
19.401510 -19.035820 -22.536440 35.308245 -0.775885 2.263054 0.023075 0.001458 -966626.000000 0 0 1
20.573210 -19.229920 -21.863440 35.651883 -0.751663 2.230962 0.011172 -0.002077 -980601.000000 0 0 1
20.937710 -20.728720 -21.663540 36.570158 -0.780382 2.204810 0.016916 -0.004063 -56487.200000 0 0 1
20.034910 -21.473220 -20.865740 36.026045 -0.820036 2.188525 0.011003 -0.009281 284427.000000 0 0 1
20.425910 -22.812320 -20.881740 37.063011 -0.840534 2.169306 0.020235 -0.007602 -283107.000000 0 0 1
-16.690064 13.225097 28.594663 35.652716 -0.670086 0.640105 0.014179 -0.011019 -405234.000000 0 0 1
-17.865464 13.952597 28.379333 36.321293 -0.663036 0.673984 0.011413 -0.010386 -279093.000000 0 0 1
-18.173664 13.945097 27.000443 35.408639 -0.654497 0.703569 0.016064 -0.000378 -136576.000000 0 0 1
-19.421764 14.691697 26.515093 36.001403 -0.647620 0.742912 0.026685 -0.004611 -227293.000000 0 0 1
-19.349964 16.084297 26.705753 36.692274 -0.693496 0.755644 0.037868 -0.005647 -4667.720000 0 0 1
-20.425564 16.801297 26.133913 37.181564 -0.688348 0.791368 0.035194 -0.003876 -725634.000000 0 0 1
-20.183064 18.283997 26.459463 37.970565 -0.736070 0.799812 0.031252 0.000095 374107.000000 0 0 1
-18.953864 18.867197 26.078983 37.354162 -0.783107 0.797980 0.019654 -0.005689 -625964.000000 0 0 1
-17.862564 18.634897 26.890733 37.275221 -0.806556 0.764959 0.042526 -0.003036 -24661.000000 0 0 1
-16.573364 19.423197 26.393033 36.722325 -0.864403 0.768838 0.045759 -0.000805 713674.000000 0 0 1
-16.706864 20.838097 26.446693 37.586875 -0.894992 0.790324 0.053778 -0.002234 123747.000000 0 0 1
-15.728764 21.515997 25.677523 37.009017 -0.939549 0.804019 0.064452 -0.002811 120854.000000 0 0 1
-15.994864 23.036397 25.540213 37.931699 -0.963886 0.832105 0.056729 0.001675 28678.300000 0 0 1
-15.835164 23.718697 26.774213 39.117611 -0.982131 0.816942 0.056765 0.003286 95752.600000 0 0 1
-15.762664 25.089597 26.492783 39.746912 -1.009860 0.841243 0.057447 0.003053 -96170.300000 0 0 1
-15.121264 25.919497 27.605963 40.774528 -1.042677 0.827064 0.047590 0.003170 1334740.000000 0 0 1
-13.677364 25.844097 27.701643 40.278638 -1.084042 0.812411 0.045102 -0.001943 972567.000000 0 0 1
-13.125364 26.723297 28.635293 41.308471 -1.114247 0.804868 0.067797 0.000263 -1790430.000000 0 0 1
-11.661664 26.749997 28.758473 40.970801 -1.159688 0.792698 0.074229 -0.000484 -1695440.000000 0 0 1
-11.085764 27.313897 27.599893 40.381892 -1.185244 0.818288 0.059346 0.008245 231822.000000 0 0 1
-9.665464 27.405397 27.691053 40.140645 -1.231732 0.809514 0.037975 0.005991 348343.000000 0 0 1
-9.022064 28.004697 26.423273 39.545544 -1.259133 0.839046 0.039615 0.001113 2003230.000000 0 0 1
-7.551264 27.852697 26.461483 39.153600 -1.306046 0.828696 0.024649 -0.006793 2428740.000000 0 0 1
-6.959364 28.313797 25.221083 38.551354 -1.329780 0.857645 0.039969 -0.011589 -124782.000000 0 0 1
-5.445764 28.099897 25.144813 38.098848 -1.379369 0.849992 0.038597 -0.014924 61123.900000 0 0 1
-4.669164 28.931797 26.080143 39.230394 -1.410791 0.843578 0.055803 -0.013301 556625.000000 0 0 1
-3.267064 28.926597 25.952803 38.999612 -1.458330 0.842682 0.050455 -0.011682 403726.000000 0 0 1
-2.694064 29.826797 24.783243 38.872933 -1.480717 0.879489 0.044296 -0.013169 -267375.000000 0 0 1
-3.120764 29.371297 23.523883 37.759573 -1.464941 0.898235 0.046093 -0.008478 85009.300000 0 0 1
-2.463564 30.067497 22.462383 37.612261 -1.489044 0.930779 0.040874 -0.013694 -245243.000000 0 0 1
-2.785164 29.443297 21.103483 36.332105 -1.476483 0.951025 0.038929 -0.009266 1264070.000000 0 0 1
-4.158664 29.499897 20.651783 36.249615 -1.430747 0.964643 0.033374 0.000261 1275250.000000 0 0 1
-5.014364 28.546897 21.297683 35.967492 -1.396917 0.937088 0.038754 -0.001636 -827772.000000 0 0 1
-6.496364 28.604897 20.974483 36.060669 -1.347478 0.950048 0.025088 -0.007482 -804368.000000 0 0 1
-6.862264 28.546697 19.612583 35.308044 -1.334885 0.981867 0.023868 -0.011828 -78587.500000 0 0 1
-7.725164 27.524997 19.212683 34.444605 -1.297176 0.979082 0.004717 -0.011464 -1436320.000000 0 0 1
-7.131564 26.156797 18.934183 33.068724 -1.304619 0.961158 -0.004119 -0.009692 -295171.000000 0 0 1
-6.160564 26.177597 17.909983 32.310782 -1.339665 0.983270 0.001564 -0.013570 -675446.000000 0 0 1
-4.887264 26.400597 18.414983 32.557464 -1.387749 0.969618 0.015983 -0.011052 -1728610.000000 0 0 1
-3.883564 26.721597 17.302683 32.070371 -1.426473 1.000927 0.017711 -0.009749 -371594.000000 0 0 1
-3.489164 25.549797 16.611383 30.674166 -1.435073 0.998525 0.022451 -0.015323 293768.000000 0 0 1
-2.551464 25.983397 15.618083 30.423205 -1.472914 1.031700 0.034105 -0.021273 464560.000000 0 0 1
-1.834464 24.916697 14.720083 28.998067 -1.497305 1.038373 0.039318 -0.017098 -300568.000000 0 0 1
-0.846464 24.237797 15.402883 28.730404 -1.535887 1.004965 0.028269 -0.013071 -692921.000000 0 0 1
-0.236464 23.299397 14.537783 27.463885 -1.560648 1.012972 0.022064 -0.023228 -691260.000000 0 0 1
1.081336 22.806597 15.123983 27.386950 1.523419 0.985756 0.015347 -0.017096 -1105570.000000 0 0 1
2.085536 23.740497 15.010183 28.164983 1.483174 1.008728 0.032778 -0.021321 -549761.000000 0 0 1
3.235536 23.349897 15.750783 28.350900 1.433106 0.981753 0.036277 -0.018117 499501.000000 0 0 1
4.403136 24.383197 15.612083 29.285919 1.392141 1.008546 0.033634 -0.013851 932573.000000 0 0 1
5.670536 23.741797 15.733583 29.040894 1.336347 0.998251 0.038490 -0.009358 -237797.000000 0 0 1
6.770436 24.578897 15.726083 29.954477 1.302005 1.018082 0.048962 -0.010318 -421284.000000 0 0 1
8.122836 23.842797 15.860083 29.765780 1.242446 1.008856 0.058280 -0.009879 358866.000000 0 0 1
8.676936 23.346597 14.589283 28.865204 1.214959 1.040918 0.046824 -0.008082 175065.000000 0 0 1
9.616936 24.219197 14.007683 29.584965 1.192811 1.077567 0.041049 -0.008575 -435094.000000 0 0 1
10.143936 23.604897 12.683283 28.652335 1.164919 1.112232 0.038322 -0.003837 14336.700000 0 0 1
11.021336 22.517497 12.928283 28.207234 1.115619 1.094679 0.035197 -0.007415 142260.000000 0 0 1
11.655636 22.030297 11.750083 27.554533 1.084162 1.130254 0.052029 -0.005297 373930.000000 0 0 1
12.800936 20.990297 11.956583 27.338918 1.023166 1.118150 0.026879 -0.004151 93641.000000 0 0 1
12.378036 19.724897 12.499983 26.429849 1.010377 1.078161 0.035034 0.003933 -37028.600000 0 0 1
13.434236 18.856597 12.840183 26.474898 0.951769 1.064439 0.031085 -0.002336 -247299.000000 0 0 1
14.126236 19.063197 14.203483 27.653118 0.933066 1.031386 0.035210 0.003627 -207505.000000 0 0 1
15.115836 18.077497 14.438283 27.635998 0.874387 1.021081 0.031433 0.005362 390882.000000 0 0 1
15.594436 17.997297 15.809383 28.583662 0.856808 0.984726 0.031250 0.002993 145520.000000 0 0 1
16.810136 17.037597 15.890383 28.729160 0.792118 0.984704 0.028535 0.001889 104252.000000 0 0 1
17.213236 16.841797 17.236283 29.614710 0.774492 0.949589 0.035425 -0.000637 41131.200000 0 0 1
18.242436 15.890397 17.378683 29.787746 0.716599 0.947867 0.029917 -0.000619 68115.600000 0 0 1
18.641636 15.753297 18.904983 30.871918 0.701619 0.911744 0.031913 -0.005134 205431.000000 0 0 1
19.371536 16.811997 19.545883 32.248119 0.714778 0.919637 0.026314 0.005229 979068.000000 0 0 1
18.452236 17.733697 20.138183 32.565556 0.765544 0.904105 0.024582 0.012656 -100328.000000 0 0 1
19.143336 18.878697 20.792983 33.988537 0.778438 0.912507 0.009525 0.011268 -509334.000000 0 0 1
18.284336 19.858597 21.372583 34.430628 0.826647 0.901106 0.022738 -0.003712 517138.000000 0 0 1
19.036136 20.853797 22.058883 35.830848 0.830934 0.907599 0.005738 0.003488 310710.000000 0 0 1
18.065036 21.976997 22.556783 36.306231 0.882785 0.900405 0.026370 -0.008119 200706.000000 0 0 1
17.152236 21.486697 23.490283 36.161730 0.897110 0.863752 0.026840 -0.013406 -376761.000000 0 0 1
16.408936 22.552497 24.019763 36.807843 0.941794 0.859823 0.027656 -0.020767 121966.000000 0 0 1
15.720636 22.041497 25.351123 37.089694 0.951247 0.818238 0.037102 -0.017203 778438.000000 0 0 1
14.504336 21.307897 25.194093 36.043648 0.973140 0.796814 0.037862 -0.013501 593480.000000 0 0 1
13.888836 20.926897 26.437853 36.466352 0.984862 0.759772 0.035497 -0.013490 130564.000000 0 0 1
12.892936 19.744897 26.362433 35.370420 0.992332 0.729775 0.051608 -0.013726 -267343.000000 0 0 1
13.325536 18.404697 26.328663 34.777885 0.944125 0.712007 0.038566 -0.012349 -354591.000000 0 0 1
14.037136 17.916297 25.194503 33.952877 0.906207 0.734683 0.038727 -0.015396 -293132.000000 0 0 1
13.396936 17.755497 23.803703 32.578395 0.924407 0.751509 0.061987 -0.013978 -843674.000000 0 0 1
13.091936 18.926297 23.057183 32.576636 0.965641 0.784442 0.066625 -0.011731 413639.000000 0 0 1
14.157636 19.493897 22.269883 32.808510 0.942663 0.824691 0.058627 -0.010035 449536.000000 0 0 1
14.722036 18.531097 21.214383 31.783485 0.899449 0.839996 0.055629 -0.007894 -47185.900000 0 0 1
13.662636 17.981097 20.420283 30.446271 0.921032 0.835646 0.065295 -0.004664 619655.000000 0 0 1
14.128136 16.922397 19.556583 29.469165 0.875147 0.845137 0.053065 -0.004045 171365.000000 0 0 1
13.051936 16.378197 18.578383 27.995619 0.897943 0.845152 0.052339 0.001051 -21403.600000 0 0 1
12.823636 17.143097 17.416283 27.598158 0.928554 0.887869 0.058515 0.000239 210067.000000 0 0 1
11.855236 16.347597 16.723583 26.219626 0.943359 0.879123 0.046130 -0.002713 194936.000000 0 0 1
11.307136 16.888497 15.393583 25.495785 0.980823 0.922575 0.038731 0.000436 -234460.000000 0 0 1
10.276636 17.800797 15.645483 25.831352 1.047225 0.920179 0.049959 0.003311 1248.970000 0 0 1
9.825936 18.390197 14.396483 25.337859 1.080084 0.966503 0.041239 0.002210 -168222.000000 0 0 1
8.850036 19.563597 14.483183 25.900194 1.145971 0.977385 0.050824 0.000321 -138767.000000 0 0 1
7.554336 19.193797 14.920983 25.457918 1.195835 0.944555 0.034807 -0.004440 -211842.000000 0 0 1
6.823836 20.376697 15.129083 26.280481 1.247651 0.957364 0.040597 -0.006863 209268.000000 0 0 1
5.393336 20.162497 15.656683 26.091111 1.309422 0.927199 0.033850 -0.009389 -88140.500000 0 0 1
4.379836 19.565197 14.931983 24.998880 1.350569 0.930658 0.023846 -0.011790 -1365340.000000 0 1 0
3.247436 19.372097 15.683183 25.135358 1.404706 0.897010 0.011308 -0.009341 -301269.000000 0 0 1
2.108236 18.680597 14.861583 23.964057 1.458415 0.901848 0.003605 -0.013239 226030.000000 0 1 0
1.392836 19.649297 14.108183 24.229645 1.500030 0.949279 0.003769 -0.015588 67193.800000 0 1 0
0.399936 18.967397 13.337883 23.190973 1.549714 0.958030 0.004018 -0.021368 234340.000000 0 1 0
-0.433764 19.944197 12.432883 23.506079 -1.549051 1.013466 0.012352 -0.026926 815812.000000 0 1 0
-1.530164 20.501897 13.186583 24.424479 -1.496299 1.000487 0.015868 -0.023493 357284.000000 0 1 0
-2.661264 20.689497 12.370683 24.252246 -1.442870 1.035514 0.019433 -0.026902 1005480.000000 0 1 0
-3.996564 21.290897 12.952783 25.239838 -1.385243 1.031901 0.020837 -0.025403 952279.000000 0 0 1
-4.754964 20.386197 13.737383 25.038419 -1.341649 0.990045 0.022029 -0.028724 135858.000000 0 0 1
-5.766964 21.161597 14.381783 26.227977 -1.304737 0.990421 0.016023 -0.020780 -203478.000000 0 0 1
-6.512264 20.385497 15.477983 26.411097 -1.261587 0.944632 0.013194 -0.018519 -802702.000000 0 0 1
-7.431264 19.419097 14.995783 25.635884 -1.205311 0.945974 0.026990 -0.016711 398508.000000 0 0 1
-8.224664 18.763197 16.006883 25.998519 -1.157681 0.907542 0.019395 -0.001628 542492.000000 0 0 1
-9.265564 19.699797 16.743683 27.464224 -1.131159 0.915172 0.017225 0.007941 -325372.000000 0 0 1
-10.353964 20.150197 15.958583 27.711214 -1.096139 0.957105 0.016481 -0.005780 270580.000000 0 0 1
-11.494764 19.414197 16.424283 27.906948 -1.036220 0.941548 0.009995 0.005579 -169610.000000 0 0 1
-12.629764 19.228697 15.410483 27.690011 -0.989643 0.980586 0.009143 -0.001197 -282667.000000 0 0 1
-13.120264 20.555497 15.109183 28.687231 -1.002701 1.016098 0.000943 0.002228 -272356.000000 0 0 1
-14.071264 20.382297 14.100483 28.500213 -0.966565 1.053249 0.010311 -0.012878 -530883.000000 0 0 1
-15.068164 21.539497 13.965483 29.766327 -0.960366 1.082445 0.002623 -0.016132 -555064.000000 0 0 1
-16.065664 21.533197 14.938983 30.740159 -0.929803 1.063317 0.001230 -0.016797 -1397450.000000 0 0 1
-16.910664 22.540397 14.651283 31.760040 -0.927143 1.091323 0.016070 -0.027373 -321809.000000 0 0 1
-18.272264 22.463497 15.429083 32.810684 -0.887926 1.081227 0.067575 -0.036469 -123344.000000 0 0 1
-19.011464 21.252097 15.137783 32.283740 -0.840990 1.082754 0.060864 -0.036121 295433.000000 0 0 1
-20.198264 21.054397 15.871883 33.214066 -0.806149 1.072572 0.061412 -0.028836 293395.000000 0 0 1
-21.304564 22.117697 15.860283 34.563356 -0.804122 1.094067 0.062459 -0.029786 -1038340.000000 0 0 1
-22.137064 22.207397 14.722883 34.640748 -0.786984 1.131816 0.072260 -0.031754 655776.000000 0 0 1
-22.985064 23.367197 14.547283 35.860320 -0.793642 1.153090 0.084522 -0.040928 275468.000000 0 0 1
-22.326464 24.605697 13.923183 36.024525 -0.833924 1.173972 0.076749 -0.039322 -72085.200000 0 0 1
-21.271564 25.174897 14.687383 36.082878 -0.869241 1.151579 0.056822 -0.045521 96502.000000 0 0 1
-20.730464 26.244997 13.965683 36.243514 -0.902255 1.175232 0.041687 -0.030677 1138410.000000 0 0 1
-19.197864 26.554097 14.281683 35.744154 -0.944819 1.159767 0.045569 -0.025144 874080.000000 0 0 1
-18.354864 25.938497 13.378583 34.477430 -0.954968 1.172294 0.044846 -0.019327 -1225160.000000 0 0 1
-17.084964 26.476397 13.589783 34.315854 -0.997739 1.163617 0.003864 -0.014715 -1137870.000000 0 0 1
-16.030664 25.824097 12.712383 32.946485 -1.015249 1.174668 0.012537 -0.020173 -1036270.000000 0 0 1
-14.801664 26.444497 12.839483 32.912809 -1.060517 1.170050 0.004714 -0.017849 -1003890.000000 0 0 1
-13.837964 26.022697 11.913483 31.789953 -1.082061 1.186663 0.002020 -0.017179 -708038.000000 0 0 1
-12.434564 26.406097 12.390683 31.708507 -1.130701 1.169330 0.003796 -0.012450 -1355140.000000 0 0 1
-11.481264 25.725297 11.573483 30.455802 -1.151022 1.180990 0.008672 -0.013689 -180134.000000 0 0 1
-10.157064 26.045897 11.897583 30.382679 -1.198968 1.168436 0.019553 -0.013415 -353557.000000 0 0 1
-9.752464 27.389197 11.304583 31.194107 -1.228724 1.199960 0.022266 -0.018010 -1247570.000000 0 0 1
-8.477364 27.823397 11.708483 31.354357 -1.275047 1.188099 0.032816 -0.024490 116105.000000 0 0 1
-8.173464 29.124797 11.207083 32.259232 -1.297198 1.215992 0.036019 -0.027784 119528.000000 0 0 1
-6.874164 29.701497 11.837883 32.704259 -1.343359 1.200419 0.031180 -0.029402 747810.000000 0 0 1
-5.670064 29.038097 11.471383 31.732528 -1.377960 1.200918 0.053518 -0.028547 -274422.000000 0 0 1
-4.549064 29.573897 12.086683 32.270688 -1.418172 1.186895 0.056512 -0.031677 -486551.000000 0 0 1
-3.256464 29.167397 11.356383 31.469176 -1.459609 1.201592 0.061980 -0.031376 -282877.000000 0 0 1
-3.111064 30.000697 10.190883 31.836687 -1.467466 1.244963 0.075144 -0.034586 618050.000000 0 0 1
-1.981064 29.674697 9.362983 31.179765 -1.504136 1.265799 0.073810 -0.029746 665508.000000 0 0 1
-1.836664 30.641997 8.114483 31.751381 -1.510929 1.312366 0.069377 -0.035953 90105.700000 0 0 1
-2.911464 30.453797 7.216183 31.432208 -1.475483 1.339151 0.075874 -0.030483 101560.000000 0 0 1
-2.973764 31.495697 6.244883 32.246252 -1.476657 1.375903 0.066683 -0.019506 -37739.500000 0 0 1
10.774236 -34.249620 -26.502040 44.625987 -1.266018 2.206657 0.081507 -0.034387 -45591.900000 0 0 1
11.303036 -34.133520 -25.199500 43.907523 -1.251019 2.182084 0.057643 -0.028273 -220330.000000 0 0 1
12.512736 -33.443720 -25.223150 43.717940 -1.212777 2.185788 0.054150 -0.026340 -477649.000000 0 0 1
13.202036 -33.244320 -23.857340 42.995944 -1.192774 2.159008 0.035210 -0.017496 -735140.000000 0 0 1
12.728036 -32.171920 -23.072440 41.585728 -1.194067 2.158938 0.035607 -0.020949 347179.000000 0 0 1
13.389936 -31.999620 -21.831540 40.986366 -1.174495 2.132529 0.017280 -0.006431 319243.000000 0 0 1
14.933736 -31.865120 -21.701040 41.344135 -1.132538 2.123380 0.000728 0.003484 -264120.000000 0 0 1
15.626736 -33.037820 -21.934740 42.624233 -1.128985 2.111346 0.014299 0.004396 -320225.000000 0 0 1
17.000436 -32.704920 -21.853940 42.851153 -1.091424 2.105977 0.010202 -0.000106 -590036.000000 0 0 1
17.914836 -33.907920 -21.795240 44.110326 -1.084736 2.087604 0.003226 0.006637 -286071.000000 0 0 1
19.303036 -33.625920 -21.834540 44.497829 -1.049675 2.083675 0.011440 0.008695 166370.000000 0 0 1
20.008836 33.970797 -21.680140 44.993300 1.038504 2.073564 0.016188 0.011538 -1461700.000000 0 0 1
21.500436 34.086797 -21.545940 45.699081 1.008069 2.061758 0.039871 0.014306 -1146920.000000 0 0 1
22.185036 -34.175220 -22.684440 46.633735 -0.995015 2.078805 0.030648 0.009565 611561.000000 0 0 1
23.592736 -34.239620 -22.404440 47.232697 -0.967459 2.065012 0.031001 0.009014 698113.000000 0 0 1
24.357536 -33.828720 -23.698540 47.950940 -0.946757 2.087739 0.038126 -0.003659 -244678.000000 0 0 1
24.398836 -32.451020 -24.119640 47.224241 -0.926102 2.106850 0.041944 -0.005059 -456003.000000 0 0 1
23.186736 -31.782120 -24.321540 46.252191 -0.940510 2.124506 0.025648 -0.001757 -461959.000000 0 0 1
23.289736 -30.289520 -24.100340 45.174032 -0.915306 2.133529 0.019608 -0.006065 -245639.000000 0 0 1
24.047336 -29.611320 -25.074240 45.648901 -0.888721 2.152304 0.015697 -0.005946 13032.100000 0 0 1
24.171036 -28.272420 -24.580040 44.584157 -0.863445 2.154739 0.024317 -0.002760 -64377.000000 0 0 1
24.754336 -27.344720 -25.660570 44.933013 -0.835078 2.178623 0.011114 -0.001389 -159481.000000 0 0 1
23.967336 -27.083320 -26.771760 44.996295 -0.846360 2.208033 0.003808 -0.001924 -479810.000000 0 0 1
24.714836 -26.358120 -27.727690 45.545564 -0.817562 2.225331 -0.002354 -0.001025 -514054.000000 0 0 1
23.850936 -25.978220 -28.915800 45.605466 -0.828064 2.257566 -0.007566 0.002017 -74024.500000 0 0 1
23.108036 -24.804920 -28.726420 44.435038 -0.820799 2.273760 0.001320 0.002562 50883.300000 0 0 1
21.746736 -25.031520 -28.371600 43.639949 -0.855503 2.278551 -0.003055 0.000447 -278838.000000 0 0 1
20.997936 -23.752820 -28.057930 42.336240 -0.846881 2.295268 0.003976 0.003324 -383484.000000 0 0 1
20.719236 -23.055120 -29.258910 42.625217 -0.838710 2.327354 0.014135 0.003419 -61404.800000 0 0 1
20.225336 -21.802720 -28.965040 41.513809 -0.822912 2.343007 0.019593 0.010615 -170716.000000 0 0 1
19.096536 -21.310420 -29.897900 41.384733 -0.840133 2.378118 0.029401 0.001708 -8558.140000 0 0 1
17.952436 -22.134320 -29.981530 41.365568 -0.889343 2.381532 0.027134 -0.004029 -989641.000000 0 0 1
16.940536 -21.377220 -30.476790 40.899902 -0.900672 2.411564 0.020546 -0.007692 -1294780.000000 0 0 1
15.609236 -22.143520 -30.428510 40.741599 -0.956781 2.414133 0.037324 -0.013722 -713593.000000 0 0 1
15.521736 -23.208520 -31.371130 41.996517 -0.981322 2.414325 0.035261 -0.007525 -6222.400000 0 0 1
14.880436 -24.299020 -30.768240 41.935120 -1.021318 2.394563 0.042671 -0.016404 -288077.000000 0 0 1
15.100736 -25.682720 -31.400620 43.285485 -1.039267 2.382456 0.054345 -0.018851 -301958.000000 0 0 1
14.323536 -26.676120 -30.838320 43.217832 -1.078034 2.365356 0.060798 -0.021773 -226842.000000 0 0 1
14.719836 -27.923320 -31.319610 44.466879 -1.085664 2.352283 0.079372 -0.026033 311794.000000 0 0 1
14.140436 -29.130120 -30.463640 44.458398 -1.118878 2.325698 0.079572 -0.029238 95530.100000 0 0 1
14.629936 -29.292220 -29.133590 43.827334 -1.107591 2.297936 0.085906 -0.032311 -156838.000000 0 0 1
14.380536 -28.177520 -28.269260 42.425505 -1.098899 2.300068 0.063682 -0.030364 4029.860000 0 0 1
15.228336 -28.243820 -26.967570 41.914978 -1.076303 2.269711 0.041923 -0.017860 -436684.000000 0 0 1
15.005036 -29.395020 -26.123370 42.090958 -1.098814 2.240356 0.044783 -0.021824 65197.600000 0 0 1
15.766136 -29.309420 -24.929940 41.582629 -1.077275 2.213707 0.044418 -0.019992 -879227.000000 0 0 1
15.273136 -28.282120 -23.796040 39.992481 -1.075641 2.208078 0.038074 -0.022393 122881.000000 0 0 1
14.069736 -28.520120 -23.128140 39.322583 -1.112502 2.199583 0.035114 -0.023430 307236.000000 0 0 1
12.888936 -28.540720 -23.960140 39.430770 -1.146614 2.223896 0.048177 -0.019675 -320997.000000 0 0 1
11.641936 -28.258620 -23.103540 38.312633 -1.180007 2.218086 0.037334 -0.017751 -355980.000000 0 0 1
11.584736 -26.957920 -22.573340 37.020146 -1.164923 2.226552 0.034005 -0.017757 178295.000000 0 0 1
10.347336 -26.904520 -21.885440 36.192444 -1.203641 2.220181 0.036542 -0.021433 -24518.800000 0 0 1
9.813236 -25.462520 -21.564740 34.780419 -1.202940 2.239571 0.048414 -0.022794 141173.000000 0 0 1
10.595636 -24.779620 -20.574540 33.905881 -1.166730 2.222842 0.033312 -0.014966 435398.000000 0 0 1
10.030536 -23.480220 -20.352340 32.651954 -1.167071 2.243767 0.043884 -0.018733 -133075.000000 0 0 1
10.668736 -22.716720 -19.181840 31.588198 -1.131728 2.223387 0.024880 -0.012758 -100031.000000 0 0 1
9.985536 -23.101220 -18.040040 30.964824 -1.162800 2.192718 0.026201 -0.015286 124156.000000 0 0 1
10.301236 -22.248920 -16.979440 29.823334 -1.137185 2.176492 0.019673 -0.014456 -345626.000000 0 0 1
9.455236 -22.512220 -15.724140 29.042212 -1.173164 2.142926 0.003453 -0.008274 11027.200000 0 0 1
9.894136 -23.626220 -14.967540 29.666807 -1.174208 2.099624 0.009298 -0.005186 -65040.800000 0 0 1
9.166836 -23.729920 -13.767840 28.925653 -1.202157 2.066867 0.009058 -0.004471 -80322.700000 0 0 1
9.073636 -25.189720 -13.367040 29.925418 -1.225053 2.033846 0.011874 0.005673 -544234.000000 0 0 1
10.256736 -25.753020 -12.936340 30.590318 -1.191780 2.007428 0.009946 0.002769 -1089430.000000 0 0 1
10.112136 -27.110820 -13.177740 31.794727 -1.213787 1.998149 0.005141 -0.012000 -212373.000000 0 0 1
11.347336 -27.931120 -12.818540 32.760105 -1.184904 1.972824 0.024144 -0.012184 -283203.000000 0 0 1
12.615236 -27.673720 -13.344640 33.212323 -1.143083 1.984276 0.033488 -0.005715 -96734.300000 0 0 1
12.887536 -28.208620 -14.625040 34.288578 -1.142248 2.011447 0.032648 -0.011134 -148548.000000 0 0 1
14.253136 -27.743920 -15.195440 34.695509 -1.096218 2.024131 0.016888 -0.008870 -439854.000000 0 0 1
15.355436 -28.283620 -14.547240 35.318193 -1.073413 1.995324 0.058124 -0.011793 -898114.000000 0 0 1
16.441336 -27.964220 -15.378440 35.900021 -1.039290 2.013483 0.070764 -0.017598 -543687.000000 0 0 1
17.760236 -28.659120 -15.067940 36.929852 -1.016013 1.991075 0.058993 -0.017303 -271878.000000 0 0 1
17.949336 -29.905320 -15.693840 38.246613 -1.030226 1.993615 0.056939 -0.010608 656975.000000 0 0 1
19.337636 -30.226320 -15.868540 39.234999 -1.001652 1.987172 0.066680 -0.004973 739591.000000 0 0 1
19.604536 -31.328720 -16.925240 40.648373 -1.011644 2.000258 0.049531 -0.005158 -322812.000000 0 0 1
19.334136 -32.656820 -16.580540 41.414864 -1.036251 1.982698 0.042255 0.005563 46873.200000 0 0 1
19.613236 -33.538120 -17.668340 42.680848 -1.041625 1.997601 0.029809 0.006943 41133.200000 0 0 1
19.504236 33.682597 -17.343640 42.611435 1.045916 1.989984 0.017557 0.008783 -498220.000000 0 0 1
20.353836 33.303697 -16.321340 42.306040 1.022212 1.966863 0.047544 -0.002601 -221575.000000 0 0 1
20.162936 31.951597 -15.933440 41.003939 1.007861 1.969890 0.039951 -0.010284 -605753.000000 0 0 1
21.087836 31.422597 -14.798640 40.633437 0.979728 1.943568 0.046501 -0.009738 48404.100000 0 0 1
22.444536 31.348597 -15.262640 41.466130 0.949435 1.947734 0.041871 -0.005683 677685.000000 0 0 1
23.375436 30.876497 -14.299840 41.282617 0.922791 1.924515 0.039447 -0.009599 166011.000000 0 0 1
23.095136 29.565597 -13.434640 39.849710 0.907656 1.914666 0.040035 -0.004632 -1390140.000000 0 0 1
23.539136 28.354697 -13.996640 39.420625 0.877930 1.933773 0.035041 0.006004 74302.000000 0 0 1
23.252336 27.208497 -13.225840 38.156209 0.863639 1.924765 0.016288 0.007062 729382.000000 0 0 1
21.725436 26.927797 -12.972740 36.951222 0.891921 1.929518 0.012786 0.000729 106185.000000 0 0 1
20.979136 26.599997 -14.141540 36.710586 0.902990 1.966239 0.017941 -0.005858 708241.000000 0 0 1
19.559836 26.618897 -13.956040 35.859781 0.937088 1.970542 0.031419 -0.011915 563861.000000 0 0 1
18.970136 28.034797 -14.009140 36.634300 0.975904 1.963194 0.040683 -0.013880 -830650.000000 0 0 1
18.991536 28.823997 -15.186440 37.711128 0.988204 1.985266 0.042846 -0.013530 268246.000000 0 0 1
18.222436 28.308497 -16.296740 37.403368 0.998856 2.021615 0.029109 -0.005896 20344.000000 0 0 1
18.231936 29.201997 -17.563340 38.647523 1.012673 2.042550 0.020880 0.000028 237953.000000 0 0 1
17.311136 30.302397 -17.569540 39.071722 1.051763 2.037197 0.026715 -0.004083 332814.000000 0 0 1
17.380436 30.917397 -18.782440 40.134088 1.058667 2.057814 0.013304 0.005167 -480001.000000 0 0 1
16.298336 31.943397 -19.080540 40.621218 1.099002 2.059768 0.010535 0.005852 -354634.000000 0 0 1
16.406236 33.150697 -18.347040 41.288584 1.111238 2.031257 0.026634 -0.005395 271731.000000 0 0 1
15.287236 33.988597 -18.657840 41.677804 1.148129 2.034953 0.014767 -0.000228 393532.000000 0 0 1
15.258436 -33.523020 -17.722240 40.874081 -1.143657 2.019260 0.017938 0.002695 -243638.000000 0 0 1
14.444436 -32.466420 -18.136140 39.895234 -1.152188 2.042713 -0.000367 0.007388 -307079.000000 0 0 1
14.155636 -31.672520 -17.068740 38.663580 -1.150492 2.028031 0.009984 0.004488 -356511.000000 0 0 1
13.072336 -30.666620 -17.468040 37.635887 -1.167848 2.053451 0.005318 0.002763 -405363.000000 0 0 1
11.782036 -31.203520 -17.427140 37.632183 -1.209760 2.052276 0.003920 0.006073 -379797.000000 0 0 1
10.792036 -30.251520 -17.804840 36.723764 -1.228127 2.076967 -0.011583 0.012899 -72964.200000 0 0 1
9.442936 -30.905320 -18.062240 37.020972 -1.274261 2.080470 0.008336 0.002768 -1537360.000000 0 0 1
8.890236 -31.607520 -16.952340 36.952042 -1.296611 2.047402 0.007625 0.004937 -22665.500000 0 0 1
7.811536 -32.452020 -17.257540 37.576274 -1.334580 2.047966 0.023752 0.004318 975415.000000 0 0 1
6.444436 -31.796020 -17.744140 36.977995 -1.370825 2.071288 0.026930 0.010081 317469.000000 0 0 1
6.544436 -31.313520 -19.072540 37.244167 -1.364765 2.108418 0.023154 0.008764 -75528.300000 0 0 1
6.640536 -32.258520 -20.148740 38.609332 -1.367779 2.119829 0.038474 -0.006559 -1191850.000000 0 0 1
6.975936 -31.636620 -21.560040 38.914968 -1.353767 2.157993 0.044023 -0.004802 457723.000000 0 0 1
8.326136 -31.196120 -21.801040 38.959053 -1.309979 2.164686 0.034382 -0.017631 1585620.000000 0 0 1
9.301836 -32.300020 -21.821340 40.074759 -1.290401 2.146608 0.035268 -0.016847 170996.000000 0 0 1
9.182736 -33.418620 -22.926840 41.554383 -1.302636 2.155235 0.046913 -0.025076 -765829.000000 0 0 1
8.135336 -34.354320 -22.814440 42.034529 -1.338273 2.144510 0.064406 -0.030261 -192250.000000 0 0 1
8.089336 33.581497 -23.918340 42.014775 1.334413 2.176431 0.078762 -0.042566 -861094.000000 0 0 1
7.011336 32.513397 -23.826540 40.914348 1.358404 2.192415 0.078972 -0.050598 627792.000000 0 0 1
5.642636 32.925797 -23.936940 41.096527 1.401071 2.192544 0.074538 -0.046821 823423.000000 0 0 1
5.110136 33.531297 -22.761940 40.848100 1.419561 2.161847 0.062238 -0.040086 -917987.000000 0 0 1
3.823436 34.345497 -22.962240 41.490918 1.459930 2.157271 0.069209 -0.028771 -474058.000000 0 0 1
2.743736 33.485497 -23.186740 40.821949 1.489041 2.174866 0.074599 -0.026605 136614.000000 0 0 1
1.537936 34.244397 -23.201740 41.392810 1.525916 2.165817 0.065051 -0.018537 270453.000000 0 0 1
0.190736 33.563897 -22.919240 40.643119 1.565114 2.169914 0.053039 -0.018315 -102070.000000 0 0 1
-0.018164 33.567197 -21.528740 39.877860 -1.570255 2.141075 0.038354 -0.009216 19021.700000 0 0 1
-1.304864 33.096797 -21.186540 39.318827 -1.531391 2.139855 0.030280 0.001818 117034.000000 0 0 1
-1.665064 33.293997 -19.687440 38.715087 -1.520827 2.104263 0.036511 0.002182 282336.000000 0 0 1
-0.864164 32.464697 -18.823340 37.536935 -1.544184 2.096084 0.038601 -0.010734 207868.000000 0 0 1
-1.157664 32.726097 -17.466040 37.113342 -1.535437 2.060782 0.011235 -0.002176 -126557.000000 0 0 1
-0.552664 31.789897 -16.413340 35.781290 -1.553413 2.047343 -0.010694 0.001350 1200880.000000 0 0 1
0.854536 32.000397 -16.160640 35.859754 1.544099 2.038303 -0.010339 -0.001797 963132.000000 0 0 1
1.458136 31.049997 -15.295940 34.643820 1.523870 2.028088 0.012134 -0.000698 -16812.100000 0 0 1
2.336636 31.753997 -14.236640 34.877760 1.497343 1.991263 0.018852 -0.003468 477081.000000 0 0 1
3.495336 32.405197 -14.809240 35.799829 1.463348 1.997275 0.019158 -0.010749 247928.000000 0 0 1
4.190536 33.073997 -13.812040 36.086318 1.444766 1.963568 0.025388 -0.013089 -1428790.000000 0 0 1
5.492436 33.591197 -14.359940 36.942432 1.408722 1.970029 0.033563 -0.027651 -948299.000000 0 0 1
6.329336 32.448697 -14.472140 36.089074 1.378158 1.983417 0.028336 -0.016307 211364.000000 0 0 1
7.525336 32.764297 -15.217440 36.901224 1.345031 1.995865 0.020084 -0.002612 1341020.000000 0 0 1
8.601036 31.589897 -15.244240 36.114904 1.304968 2.006561 0.017071 -0.007458 720492.000000 0 0 1
9.110436 31.322397 -13.938940 35.473746 1.287746 1.974619 0.013306 -0.011399 -153769.000000 0 0 1
10.053336 30.273897 -13.944240 34.814081 1.250175 1.982896 0.019881 -0.012038 -183686.000000 0 0 1
9.490536 28.864697 -13.788140 33.366957 1.253137 1.996792 0.028851 -0.016533 -482835.000000 0 0 1
8.676436 28.502597 -14.851140 33.290163 1.275300 2.033213 0.029484 -0.019608 -397870.000000 0 0 1
8.143236 27.225897 -14.562640 31.931681 1.280166 2.044355 0.024764 -0.015622 -278820.000000 0 0 1
7.399736 26.644297 -15.766340 31.831622 1.299900 2.088981 0.030898 -0.010562 -272715.000000 0 0 1
8.205536 25.969297 -16.686540 31.940191 1.264753 2.120496 0.039584 -0.009792 -78369.700000 0 0 1
7.464636 24.916497 -17.409840 31.299443 1.279719 2.160644 0.029255 -0.002040 153327.000000 0 0 1
8.311936 23.964297 -18.205940 31.222301 1.236934 2.193344 0.041416 0.002209 -503018.000000 0 0 1
7.615836 23.078097 -19.042340 30.874103 1.252046 2.235434 0.046596 -0.008678 -193850.000000 0 0 1
8.532236 22.203597 -19.696740 30.883010 1.203921 2.262416 0.044296 -0.004630 152476.000000 0 0 1
7.934936 21.259997 -20.795240 30.779745 1.213576 2.312594 0.030082 -0.011048 -80441.800000 0 0 1
7.033236 20.276597 -20.340940 29.569590 1.236917 2.329389 0.038196 -0.008009 26593.000000 0 0 1
6.505336 19.459997 -21.352540 29.613204 1.248183 2.376110 0.034362 -0.001382 95535.000000 0 0 1
24.992336 -13.068303 -9.731840 29.834646 -0.481793 1.903069 0.048817 -0.010185 -100531.000000 0 0 1
25.445636 -12.303103 -8.665340 29.562389 -0.450365 1.868285 0.066024 -0.020167 178037.000000 0 0 1
24.365136 -12.073703 -7.788640 28.285987 -0.460067 1.849754 0.054848 -0.013786 -495565.000000 0 0 1
24.661036 -11.511303 -6.395740 27.956793 -0.436721 1.801613 0.037791 -0.011384 -453834.000000 0 0 1
24.973336 -10.142403 -6.201740 27.658586 -0.385779 1.796944 0.047822 -0.016546 583887.000000 0 0 1
26.199536 -9.588903 -6.658140 28.682635 -0.350853 1.805065 0.054608 -0.018182 -400796.000000 0 0 1
26.290736 -8.081703 -6.336540 28.225315 -0.298229 1.797225 0.065545 -0.015748 -230384.000000 0 0 1
26.591336 -7.741803 -5.017840 28.146285 -0.283309 1.750032 0.071748 -0.021437 -238361.000000 0 0 1
27.974236 -7.778103 -4.845440 29.436967 -0.271195 1.736153 0.072857 -0.020372 -787486.000000 0 0 1
28.566736 -7.670203 -3.427640 29.776486 -0.262314 1.686164 0.072754 -0.012107 -126762.000000 0 0 1
28.728236 -6.372203 -2.916640 29.570649 -0.218276 1.669590 0.073099 -0.017179 586632.000000 0 0 1
29.697836 -6.453303 -1.870940 30.448431 -0.213972 1.632281 0.076575 -0.012350 4139.500000 0 0 1
30.024536 -5.112503 -1.254740 30.482533 -0.168660 1.611971 0.073120 -0.020370 -131986.000000 0 0 1
28.972336 -4.555503 -0.503740 29.332620 -0.155959 1.587971 0.078789 -0.024625 -6520.880000 0 0 1
29.382436 -3.296603 -0.030640 29.566807 -0.111729 1.571833 0.076310 -0.017222 125349.000000 0 0 1
30.034336 -3.245403 1.407160 30.241925 -0.107639 1.524249 0.076103 -0.007673 152667.000000 0 0 1
29.037536 -3.266503 2.429960 29.321549 -0.112021 1.487828 0.078579 -0.010790 1046910.000000 0 0 1
29.630336 -2.975403 3.695460 30.007770 -0.100082 1.447333 0.065495 -0.007997 117750.000000 0 0 1
29.010936 -3.914903 4.736760 29.654641 -0.134135 1.410378 0.065852 -0.014682 -91831.200000 0 0 1
29.394736 -5.252703 4.454560 30.190801 -0.176829 1.422709 0.065757 -0.017012 131160.000000 0 0 1
29.019136 -6.094903 5.470460 30.152678 -0.207021 1.388361 0.063934 -0.016519 -131453.000000 0 0 1
29.773936 -7.469003 5.448360 31.176239 -0.245785 1.395134 0.050460 -0.010965 -353489.000000 0 0 1
31.163436 -7.371503 5.452260 32.484241 -0.232274 1.402155 0.047301 -0.012030 -558969.000000 0 0 1
31.805536 -8.622403 5.486060 33.407107 -0.264735 1.405831 0.048763 -0.009998 -371718.000000 0 0 1
33.320936 -8.667603 5.424360 34.854494 -0.254485 1.414532 0.080248 -0.008173 -285753.000000 0 0 1
34.037336 -8.209403 4.273960 35.273237 -0.236668 1.449331 0.074637 -0.000760 587059.000000 0 0 1
35.397436 -7.949603 4.622360 36.572406 -0.220916 1.444068 0.090020 -0.001934 824697.000000 0 0 1
-35.317939 -7.504103 3.423860 36.268322 0.209359 1.476252 0.080483 -0.000817 214655.000000 0 0 1
-35.054239 -8.612903 2.576660 36.188685 0.240930 1.499535 0.098999 0.000203 395096.000000 0 0 1
-33.948439 -8.394403 1.705360 35.012437 0.242407 1.522070 0.099283 -0.009079 128983.000000 0 0 1
-33.638039 -9.678203 0.874260 35.013563 0.280149 1.545825 0.100963 -0.007070 -245551.000000 0 0 1
-32.958039 -10.652903 1.599360 34.673832 0.312627 1.524654 0.099036 -0.007922 86922.400000 0 0 1
-32.886739 -11.784503 0.780760 34.943120 0.344082 1.548451 0.102200 -0.021922 -112673.000000 0 0 1
-32.376739 -13.031003 1.518660 34.933745 0.382643 1.527310 0.075934 -0.022533 -7162.710000 0 0 1
-31.050039 -13.004303 1.968860 33.720812 0.396622 1.512376 0.070046 -0.017126 -193790.000000 0 0 1
-30.277439 -14.055003 1.423960 33.410987 0.434606 1.528164 0.078175 -0.021261 485736.000000 0 0 1
-28.978839 -14.355603 2.244460 32.417495 0.459947 1.501505 0.072257 -0.015473 500433.000000 0 0 1
-28.165739 -13.212303 2.356860 31.199817 0.438616 1.495183 0.057418 -0.010946 114661.000000 0 0 1
-26.882139 -13.466503 2.883060 30.204438 0.464404 1.475199 0.055332 -0.011101 106725.000000 0 0 1
-26.041839 -12.198703 3.245660 28.939938 0.438072 1.458408 0.033541 -0.001496 -620858.000000 0 0 1
-24.929839 -12.632603 3.959560 28.226895 0.469014 1.430056 0.025552 0.003884 -390448.000000 0 0 1
-24.341139 -11.507903 4.597360 27.314073 0.441632 1.401677 0.023971 0.002995 -445618.000000 0 0 1
-23.139339 -11.886803 5.460560 26.580873 0.474552 1.363891 0.025382 0.015726 -309450.000000 0 0 1
-23.358439 -12.581503 6.694360 27.362846 0.494070 1.323636 0.024338 0.012423 62339.200000 0 0 1
-22.112739 -13.166303 7.017160 26.675181 0.537043 1.304604 0.026561 0.015119 328756.000000 0 0 1
-21.488639 -12.638803 8.356260 26.293117 0.531670 1.247376 0.030272 0.009552 -338250.000000 0 0 1
-21.210739 -11.234703 8.356260 25.415371 0.487101 1.235777 0.032098 0.003721 176101.000000 0 0 1
-22.257439 -10.365803 8.734760 26.060305 0.435852 1.229005 0.031153 0.005040 -832663.000000 0 0 1
-22.580539 -10.242103 10.235160 26.824241 0.425828 1.179309 0.026140 0.010903 -300052.000000 0 0 1
-23.239239 -11.325803 10.910960 28.060383 0.453482 1.171426 0.021515 -0.000993 724325.000000 0 0 1
-24.609039 -11.465803 10.548260 29.126194 0.436012 1.200215 0.029556 -0.000033 -62592.600000 0 0 1
-25.547239 -11.119403 11.725860 30.229097 0.410519 1.172444 0.029503 -0.006914 -525812.000000 0 0 1
-25.640639 -12.071803 12.745960 31.074592 0.440022 1.148153 0.032091 -0.006702 99336.500000 0 0 1
-26.707739 -11.744903 13.601060 32.190602 0.414303 1.134576 0.027475 -0.007525 -243423.000000 0 0 1
-26.710339 -12.575703 14.875760 33.058716 0.440031 1.104053 0.024883 -0.009909 -106258.000000 0 0 1
-27.026739 -13.955103 14.588160 33.734314 0.476637 1.123596 0.018059 -0.004624 244733.000000 0 0 1
-26.751839 -14.771103 15.696160 34.354269 0.504495 1.096299 0.006736 -0.000225 -601381.000000 0 0 1
-26.793939 -16.275303 15.423360 34.938241 0.545861 1.113586 0.006282 -0.002534 -276278.000000 0 0 1
-27.987139 -16.994003 15.633360 36.283302 0.545702 1.125340 -0.004904 0.000698 -312604.000000 0 0 1
-27.752339 -18.384003 15.640360 36.780222 0.585064 1.131571 -0.005315 -0.000070 -320545.000000 0 0 1
-28.844839 -19.319703 16.187060 38.305307 0.590155 1.134506 -0.013273 0.012555 -428006.000000 0 0 1
-28.869339 -19.240703 17.615760 38.909618 0.587870 1.100966 -0.012368 0.020182 70926.900000 0 0 1
-29.392339 -20.380503 18.318460 40.185077 0.606279 1.097467 -0.003306 0.024739 8985.690000 0 0 1
-28.409039 -21.583703 18.501460 40.189970 0.649711 1.092407 -0.012550 0.023354 418739.000000 0 0 1
-27.270939 -21.268703 19.290160 39.600153 0.662366 1.062003 -0.003670 0.025418 601351.000000 0 0 1
-26.422439 -22.423803 19.493060 39.761182 0.703719 1.058416 0.010744 0.022921 482777.000000 0 0 1
-25.030539 -22.152403 20.105060 39.006028 0.724474 1.029281 0.027744 0.021836 141900.000000 0 0 1
-24.148139 -21.577603 19.161060 37.628071 0.729241 1.036515 0.030855 0.016418 2197840.000000 0 0 1
-22.754239 -21.617803 19.674360 37.042749 0.759792 1.010868 0.041195 0.021695 2254770.000000 0 0 1
-21.594939 -21.474103 18.685160 35.729731 0.782593 1.020478 0.039710 0.004977 -19084.500000 0 0 1
-21.324539 -22.592303 17.845960 35.827732 0.814258 1.049385 0.038843 -0.002404 484996.000000 0 0 1
-20.110139 -22.463003 17.113360 34.668015 0.840608 1.054531 0.032643 -0.006074 192423.000000 0 0 1
-19.885439 -23.534403 16.038760 34.735293 0.869240 1.090838 0.028419 0.001377 -741682.000000 0 0 1
-19.797739 -24.865503 16.522760 35.822413 0.898381 1.091403 0.042555 -0.007505 -26413.000000 0 0 1
-18.609639 -25.186953 17.195760 35.726676 0.934463 1.068643 0.048155 -0.008224 698123.000000 0 0 1
-17.215339 -25.170863 16.431460 34.640050 0.970931 1.076572 0.032576 -0.010255 649021.000000 0 0 1
-16.620439 -23.905903 16.401760 33.417793 0.963269 1.057778 0.032637 -0.008676 -220099.000000 0 0 1
-15.498339 -23.966703 15.534660 32.495030 0.996772 1.072349 0.037817 -0.009553 -148807.000000 0 0 1
-14.734239 -22.655803 15.287860 31.049990 0.994174 1.055994 0.041595 -0.002503 -68537.500000 0 0 1
-15.454639 -21.553703 14.722760 30.334265 0.948732 1.064032 0.035911 0.005302 194626.000000 0 0 1
-16.422839 -20.902703 15.557060 30.800239 0.904848 1.041304 0.030009 0.005140 321075.000000 0 0 1
-15.832439 -19.849903 16.513060 30.288049 0.897516 0.994168 0.039181 0.000855 -114704.000000 0 0 1
-15.187739 -18.766103 15.848460 28.879192 0.890400 0.989886 0.034915 0.000245 121376.000000 0 0 1
-15.203739 -17.632003 16.682360 28.641619 0.859216 0.949055 0.023285 -0.006057 -353731.000000 0 0 1
-14.655039 -16.313903 16.094660 27.202053 0.838912 0.937667 0.026383 -0.006121 -217635.000000 0 0 1
-15.475139 -15.641203 15.200660 26.742984 0.790735 0.966239 0.015612 -0.003539 -357745.000000 0 0 1
-15.276939 -15.988903 13.893060 26.116029 0.808166 1.009866 0.023038 -0.010020 -166316.000000 0 0 1
-16.190739 -15.310703 12.859760 25.728021 0.757469 1.047388 0.017810 -0.004655 -292297.000000 0 0 1
-17.564839 -15.569703 12.994560 26.829048 0.725258 1.065180 0.009133 -0.009384 -275579.000000 0 0 1
-18.279539 -14.786203 12.078460 26.432225 0.680140 1.096222 0.019693 -0.008528 903078.000000 0 0 1
-19.847339 -15.020203 12.055560 27.656100 0.647830 1.119748 0.019848 -0.010383 1238440.000000 0 0 1
-20.312839 -16.185603 11.362560 28.349478 0.672797 1.158403 0.022509 -0.013641 32973.200000 0 0 1
-20.451739 -15.998903 9.963960 27.812210 0.663840 1.204394 0.024185 -0.006808 -371115.000000 0 0 1
-21.108639 -17.236403 9.321660 28.802110 0.684755 1.241217 0.015873 0.006356 -136963.000000 0 0 1
-20.419939 -18.430303 9.455360 29.087004 0.734230 1.239709 0.016266 0.013164 -687426.000000 0 0 1
-21.230639 -19.474103 9.056860 30.199460 0.742272 1.266207 0.023163 -0.005642 -328084.000000 0 0 1
-20.663139 -20.906603 9.146060 30.784765 0.791255 1.269145 0.030379 0.001046 -497971.000000 0 0 1
-19.640739 -21.155803 8.242060 30.020962 0.822518 1.292681 0.044838 -0.001874 -842905.000000 0 0 1
-19.165039 -22.465103 8.269460 30.665347 0.864504 1.297748 0.036033 -0.006973 -521182.000000 0 0 1
-17.863639 -22.650803 7.518060 29.810899 0.903012 1.315852 0.035021 -0.014623 -545095.000000 0 0 1
-16.756539 -22.012303 8.101660 28.826376 0.920143 1.285908 0.020480 -0.011505 -690583.000000 0 0 1
-15.578339 -22.385703 7.444360 28.270529 0.962823 1.304328 0.033950 -0.012178 -284569.000000 0 0 1
-14.324239 -21.718803 8.021660 27.225672 0.987750 1.271722 -0.006581 -0.007866 308845.000000 0 0 1
-13.093039 -22.063703 7.409960 26.704721 1.035229 1.289629 0.017919 -0.004954 -234769.000000 0 0 1
-11.956039 -21.783503 8.162860 26.155308 1.068831 1.253402 0.017155 -0.003570 341690.000000 0 0 1
-10.625839 -22.290803 7.544160 25.820586 1.125969 1.274295 0.010225 -0.000761 202457.000000 0 0 1
-10.534539 -23.659303 7.638660 27.001634 1.151891 1.283984 0.012473 0.004507 -555356.000000 0 0 1
-9.289439 -24.258803 7.364060 27.000233 1.205091 1.294556 0.028729 0.005739 -51912.000000 0 0 1
-9.396439 -25.798703 7.442060 28.447326 1.221509 1.306108 0.006671 0.013077 524376.000000 0 0 1
-10.189939 -26.303693 6.309060 28.905420 1.201203 1.350759 0.009728 -0.000311 347634.000000 0 0 1
-10.300639 -27.728993 6.218560 30.226986 1.215119 1.363588 0.020159 0.009256 805785.000000 0 0 1
-9.011239 -28.454803 5.680060 30.383240 1.264102 1.382743 0.019175 0.003921 1001120.000000 0 0 1
-7.813539 -28.289703 6.436360 30.046387 1.301317 1.354909 0.011718 0.007922 353606.000000 0 0 1
-6.754939 -29.178043 6.069660 30.558602 1.343297 1.370843 0.006092 0.011326 589168.000000 0 0 1
-6.858839 -30.613963 6.647660 32.069452 1.350393 1.361993 0.010358 0.010724 -310904.000000 0 0 1
-6.822239 -30.582203 8.059960 32.353934 1.351311 1.319026 0.014353 0.005786 4466.780000 0 0 1
-6.814639 -31.928033 8.519760 33.740552 1.360514 1.315525 0.032182 -0.000090 -290554.000000 0 0 1
-6.951939 -32.061323 10.039760 34.308230 1.357269 1.273816 0.032544 0.005749 -209216.000000 0 0 1
-5.865039 -31.488483 10.747460 33.785072 1.386647 1.247058 0.027782 0.011206 169824.000000 0 0 1
-6.001039 -31.652903 12.187760 34.445032 1.383431 1.209131 0.024332 0.004845 -196233.000000 0 0 1
-5.209039 -30.732683 13.186860 33.845607 1.402897 1.170579 0.026897 0.000609 219889.000000 0 0 1
-5.556039 -29.370593 12.966960 32.582869 1.383835 1.161495 0.033010 0.008331 38055.000000 0 0 1
-4.999039 -28.531133 13.960660 32.154563 1.397344 1.121676 0.026592 0.002312 386321.000000 0 0 1
-5.812039 -28.473523 15.348260 32.864728 1.369442 1.084886 0.024951 0.017830 428107.000000 0 0 1
-6.026039 -29.639943 16.108860 34.268567 1.370222 1.081418 0.017364 0.001403 -167195.000000 0 0 1
-4.871039 -30.176503 16.701460 34.832271 1.410759 1.070732 0.018267 0.001218 -1798.360000 0 0 1
-5.162039 -31.597003 17.223560 36.354755 1.408856 1.077237 0.008264 0.007252 64549.600000 0 0 1
-5.543039 -32.519913 16.191560 36.748287 1.401968 1.114521 -0.000947 0.010501 170359.000000 0 0 1
-6.079039 -33.710853 16.645360 38.084699 1.392385 1.118467 0.000046 0.006224 -312873.000000 0 0 1
-5.587039 33.854000 15.849760 37.795810 -1.407237 1.138065 0.005601 -0.008268 -369860.000000 0 0 1
-6.229039 33.734394 14.627960 37.293264 -1.388203 1.167729 0.014229 -0.013929 449218.000000 0 0 1
-5.528039 32.787163 13.800160 36.000024 -1.403764 1.177389 0.019467 -0.024160 851850.000000 0 0 1
-4.309039 33.199931 12.902960 35.878819 -1.441727 1.202929 0.043908 -0.025096 493119.000000 0 0 1
-4.722039 33.840512 11.730460 36.125913 -1.432153 1.240091 0.035276 -0.021290 246092.000000 0 0 1
-3.650039 -34.346451 10.985160 36.244657 1.464922 1.262870 0.045003 -0.027748 -433406.000000 0 0 1
-4.042039 -34.015393 9.544960 35.559686 1.452521 1.299043 0.031903 -0.022021 -1199670.000000 0 0 1
-4.222039 33.694096 8.622960 35.035313 -1.446141 1.322119 0.037880 -0.028668 375073.000000 0 0 1
-5.059039 32.541115 8.871260 34.105972 -1.416565 1.307662 0.062365 -0.031845 -447897.000000 0 0 1
-6.498039 32.834404 9.267360 34.730485 -1.375418 1.300687 0.048653 -0.022818 -1146640.000000 0 0 1
-7.367839 33.197325 8.242560 34.989816 -1.352396 1.332991 0.045625 -0.013675 -447203.000000 0 0 1
-8.683239 33.481879 8.712360 35.669876 -1.317045 1.324050 0.031038 -0.010600 74789.100000 0 0 1
-9.529139 33.642294 7.473260 35.755532 -1.294778 1.360234 0.034987 -0.021909 -555639.000000 0 0 1
-9.114939 -33.965303 6.793060 35.817168 1.308613 1.379981 0.031724 -0.006669 94275.500000 0 0 1
-9.623839 -33.988473 5.488060 35.748473 1.294869 1.416668 0.023811 0.002375 -739412.000000 0 0 1
-9.431039 -32.598583 4.687160 34.257576 1.289177 1.433545 0.020602 0.000102 399579.000000 0 0 1
-10.421439 -31.566533 4.871160 33.597330 1.251921 1.425297 0.043728 -0.005743 -70964.100000 0 0 1
-11.672039 -31.926173 4.351760 34.270319 1.220297 1.443469 0.049988 -0.003965 -245519.000000 0 0 1
-12.821239 -31.041673 4.942360 33.946966 1.179105 1.424686 0.050872 -0.013100 53897.200000 0 0 1
-13.230039 -31.403233 6.210260 34.637614 1.172068 1.390529 0.035511 0.005054 -388175.000000 0 0 1
-14.110939 -30.417973 6.660060 34.186665 1.136442 1.374728 0.033872 0.003124 -88697.700000 0 0 1
33.038470 -12.535303 -12.665840 37.537951 -0.362636 1.914965 0.046736 -0.021183 194792.000000 0 0 1
31.966690 -12.867503 -11.771840 36.414531 -0.382684 1.899983 0.066578 -0.026833 449027.000000 0 0 1
31.903860 -14.229103 -11.431240 36.755909 -0.419522 1.887046 0.069431 -0.028886 -374047.000000 0 0 1
32.886190 -14.884503 -10.438240 37.576678 -0.425019 1.852284 0.069587 -0.028388 873740.000000 0 0 1
34.191350 -14.926403 -11.070140 38.915214 -0.411617 1.859248 0.069197 -0.029686 546237.000000 0 0 1
35.158280 -15.380903 -10.165740 39.699107 -0.412390 1.829750 0.045489 -0.026515 35764.700000 0 0 1
-34.992064 -15.443803 -10.673540 39.709949 0.415639 1.842930 0.014744 -0.025657 209401.000000 0 0 1
-34.480835 -14.131403 -10.868740 38.816930 0.388955 1.854590 0.019281 -0.012658 993428.000000 0 0 1
-33.059674 -14.158403 -11.123440 37.644831 0.404635 1.870758 0.017864 -0.014211 1257440.000000 0 0 1
-32.364214 -12.768803 -11.344740 36.594915 0.375786 1.885998 0.015493 -0.022476 -262246.000000 0 0 1
-32.321494 -11.984803 -10.177940 35.943079 0.355083 1.857892 0.031028 -0.022161 212802.000000 0 0 1
-32.071684 -10.658203 -10.408940 35.362922 0.320842 1.869568 0.030004 -0.017643 -376624.000000 0 0 1
-32.661334 -9.586003 -9.434340 35.322245 0.285480 1.841172 0.037608 -0.022280 -360292.000000 0 0 1
-32.091224 -9.555803 -8.144340 34.459981 0.289410 1.809396 0.045452 -0.014935 238126.000000 0 0 1
-32.564544 -8.502303 -7.289340 34.436509 0.255390 1.784085 0.067909 -0.022901 -342402.000000 0 0 1
-32.046674 -8.667303 -5.825740 33.705351 0.264139 1.744512 0.063463 -0.011817 792199.000000 0 0 1
-30.653794 -8.317103 -5.718940 32.272830 0.264945 1.748943 0.066260 -0.024909 911137.000000 0 0 1
-30.054404 -8.414503 -4.454440 31.526387 0.272986 1.712563 0.077311 -0.022645 378264.000000 0 0 1
-29.255934 -9.776703 -4.214040 31.132808 0.322511 1.706570 0.069665 -0.017659 552336.000000 0 0 1
-30.156354 -10.899303 -4.165340 32.334974 0.346818 1.699974 0.093031 -0.018916 780762.000000 0 0 1
-30.468904 -11.265903 -2.850240 32.609792 0.354161 1.658312 0.075362 -0.020688 -177094.000000 0 0 1
-31.229484 -12.613103 -2.699240 33.788414 0.383851 1.650768 0.081684 -0.020869 90906.100000 0 0 1
-32.639524 -12.498503 -2.771640 35.060421 0.365701 1.649932 0.087253 -0.022413 327121.000000 0 0 1
-33.227634 -13.792103 -2.538340 36.065786 0.393438 1.641235 0.090663 -0.030058 780913.000000 0 0 1
-34.789768 -13.762203 -2.426840 37.491542 0.376692 1.635572 0.080723 -0.022885 829738.000000 0 0 1
-35.283726 -13.206203 -1.175240 37.692523 0.358144 1.601981 0.091692 -0.011614 616649.000000 0 0 1
34.908230 -13.148003 -1.081340 37.317875 -0.360212 1.599777 0.099234 -0.020810 409465.000000 0 0 1
34.410190 -12.120403 -0.050140 36.482432 -0.338663 1.572171 0.091702 -0.015930 62102.000000 0 0 1
34.784590 -12.573203 1.271060 37.009036 -0.346847 1.536445 0.096692 -0.012320 277679.000000 0 0 1
34.855820 -11.502503 2.181260 36.769466 -0.318750 1.511439 0.079660 -0.003431 -197675.000000 0 0 1
35.159300 -11.952503 3.621460 37.311575 -0.327696 1.473583 0.092213 -0.012808 -140877.000000 0 0 1
34.088630 -12.450103 4.374060 36.553689 -0.350176 1.450848 0.086455 -0.022359 -331909.000000 0 0 1
34.570610 -12.916503 5.598860 37.327073 -0.357566 1.420233 0.081287 -0.021825 -639392.000000 0 0 1
33.612630 -12.992203 6.788860 36.670081 -0.368838 1.384589 0.077490 -0.033347 -269292.000000 0 0 1
33.048170 -11.722903 7.111060 35.779536 -0.340875 1.370718 0.082024 -0.024042 148519.000000 0 0 1
32.422650 -11.743303 8.368460 35.484708 -0.347497 1.332721 0.056674 -0.012942 -722653.000000 0 0 1
31.884270 -10.431603 8.868760 34.699855 -0.316194 1.312344 0.039522 -0.021206 321238.000000 0 0 1
30.597790 -10.094203 8.339760 33.281666 -0.318657 1.317516 0.042341 -0.019218 652395.000000 0 0 1
29.932850 -9.081803 9.076060 32.570378 -0.294579 1.288398 0.037816 -0.006023 -821603.000000 0 0 1
28.415370 -9.090503 9.139060 31.202450 -0.309626 1.273542 0.034174 -0.005709 -412076.000000 0 0 1
27.849580 -8.689103 7.872360 30.217109 -0.302430 1.307229 0.048887 -0.011584 93267.900000 0 0 1
27.393500 -9.805603 7.136460 29.958016 -0.343743 1.330268 0.056933 -0.022294 -407927.000000 0 0 1
26.465810 -9.477303 5.922260 28.728584 -0.343869 1.363162 0.070739 -0.017136 103690.000000 0 0 1
25.197110 -8.999203 6.336760 27.496082 -0.343032 1.338245 0.075073 -0.013275 415044.000000 0 0 1
24.354410 -8.539503 5.277960 26.342309 -0.337240 1.369070 0.089163 -0.015275 102122.000000 0 0 1
24.560810 -7.115403 4.712260 26.001303 -0.281986 1.388558 0.077803 -0.008037 -185281.000000 0 0 1
25.860910 -6.768803 4.244260 27.066900 -0.255996 1.413340 0.087601 -0.011599 439144.000000 0 0 1
25.817010 -5.558703 3.500260 26.639613 -0.212074 1.439022 0.071133 -0.015521 -334577.000000 0 0 1
26.550310 -5.656803 2.184560 27.233999 -0.209921 1.490496 0.067332 -0.022559 -362494.000000 0 0 1
25.776510 -6.160003 1.095860 26.524988 -0.234578 1.529470 0.074504 -0.028412 -215924.000000 0 0 1
26.260410 -5.889703 -0.191340 26.913460 -0.220630 1.577906 0.068221 -0.031230 -1172530.000000 0 0 1
25.347110 -6.121003 -1.382240 26.112320 -0.236951 1.623755 0.075369 -0.032297 -1273810.000000 0 0 1
24.420810 -5.158603 -1.553040 25.007980 -0.208178 1.632938 0.074641 -0.028253 -1076050.000000 0 0 1
23.791710 -5.310203 -2.813440 24.538931 -0.219596 1.685701 0.066815 -0.025844 -264537.000000 0 1 0
22.596310 -4.366203 -3.009340 23.210193 -0.190874 1.700818 0.040560 -0.022067 -463323.000000 0 1 0
22.796110 -2.983903 -2.947840 23.178785 -0.130155 1.698320 0.024558 -0.021982 78553.100000 0 1 0
23.570710 -2.399603 -3.981640 24.024777 -0.101455 1.737295 0.033981 -0.022585 -683407.000000 0 1 0
22.746010 -1.852303 -5.118440 23.388254 -0.081255 1.791429 0.043455 -0.011400 -481263.000000 0 1 0
22.132810 -0.628903 -4.753240 22.646194 -0.028407 1.782260 0.024291 -0.002622 390628.000000 0 1 0
21.794810 0.118697 -5.879540 22.574251 0.005446 1.834288 0.066082 0.005056 -694171.000000 0 1 0
21.379310 1.558097 -5.577340 22.149702 0.072750 1.825338 0.057690 0.017020 -220681.000000 0 1 0
22.419710 2.445497 -5.170040 23.137700 0.108648 1.796145 0.050268 0.007459 427472.000000 0 1 0
22.656910 2.393197 -3.779940 23.094391 0.105237 1.735210 0.041449 0.004628 -516830.000000 0 1 0
23.801310 3.258397 -3.287440 24.247201 0.136054 1.706795 0.040722 -0.011301 -665582.000000 0 1 0
23.519410 4.667497 -3.318640 24.206643 0.195908 1.708326 0.025407 -0.004392 58959.500000 0 1 0
24.551210 5.419497 -2.778340 25.295297 0.217258 1.680855 0.029217 -0.010868 -713539.000000 0 0 1
24.352610 6.904397 -2.942840 25.482948 0.276268 1.686537 0.022286 -0.009838 -132217.000000 0 0 1
23.287710 7.279797 -2.101940 24.489407 0.302978 1.656733 0.028144 -0.012260 230292.000000 0 1 0
22.653710 8.486797 -2.491840 24.319243 0.358448 1.673440 0.030400 -0.007228 -319856.000000 0 1 0
21.613210 8.931597 -1.457440 23.431355 0.391874 1.633037 0.027197 -0.000249 -181735.000000 0 1 0
22.236010 9.207597 -0.215540 24.067955 0.392589 1.579752 0.025329 -0.004926 673255.000000 0 1 0
21.225610 9.706197 0.627660 23.348035 0.428897 1.543910 0.023425 0.000568 130149.000000 0 1 0
21.782810 10.453097 1.902860 24.235902 0.447421 1.492201 0.037494 0.001482 -604064.000000 0 1 0
22.443610 11.677797 1.681260 25.355733 0.479769 1.504441 0.030793 -0.005440 -96066.500000 0 0 1
21.787610 12.814997 1.234560 25.307079 0.531682 1.521994 0.026882 -0.003750 -603536.000000 0 0 1
20.719310 13.428597 2.208260 24.788978 0.575052 1.481596 0.014613 0.001781 183501.000000 0 1 0
19.447410 12.802297 2.251060 23.391619 0.582190 1.474414 0.058809 -0.004194 1207800.000000 0 1 0
18.480710 13.645097 2.956460 23.161735 0.635999 1.442803 0.050812 -0.008410 353186.000000 0 1 0
18.466110 13.561997 4.486160 23.346319 0.633459 1.377437 0.029605 -0.002983 -516514.000000 0 1 0
18.044210 12.355797 5.087860 22.453186 0.600419 1.342212 0.030964 -0.001676 343118.000000 0 1 0
18.339210 12.293597 6.441760 22.999031 0.590545 1.286910 0.039010 -0.014867 -356597.000000 0 1 0
18.351210 10.869597 7.045860 22.462395 0.534746 1.251737 0.023105 -0.023572 -349586.000000 0 1 0
19.356610 10.053297 6.510760 22.762626 0.479025 1.280717 0.013707 -0.023203 155379.000000 0 1 0
19.393010 8.854097 7.261560 22.521415 0.428297 1.242502 0.022938 -0.018681 44280.500000 0 1 0
20.405110 7.908997 6.564660 22.847659 0.369770 1.279365 0.038509 -0.020661 159881.000000 0 1 0
19.998010 7.723997 5.221160 22.064475 0.368587 1.331898 0.025375 -0.020992 523670.000000 0 1 0
20.973010 6.996297 4.555860 22.573684 0.321978 1.367579 0.032079 -0.019611 -501714.000000 0 1 0
20.565510 6.723097 3.125360 21.861110 0.315960 1.427340 0.028197 -0.012152 -243405.000000 0 1 0
21.487210 5.891097 2.466360 22.416248 0.267592 1.460548 0.023321 -0.014150 302793.000000 0 1 0
21.178910 5.704197 1.072860 21.959853 0.263091 1.521921 0.028555 -0.000766 -48025.600000 0 1 0
22.176110 4.786197 0.327260 22.689086 0.212566 1.556372 0.032010 0.000055 126446.000000 0 1 0
22.034510 3.400097 0.707260 22.306513 0.153100 1.539085 0.026773 -0.001971 970222.000000 0 1 0
23.247010 2.700897 0.398560 23.406776 0.115664 1.553768 0.038660 -0.004782 526877.000000 0 1 0
23.237410 1.174397 0.369660 23.270004 0.050496 1.554910 0.062746 -0.007731 -383625.000000 0 1 0
22.223410 0.664997 -0.469540 22.238315 0.029914 1.591912 0.037305 -0.011349 433648.000000 0 1 0
22.229410 -0.727703 -0.749240 22.253934 -0.032724 1.604470 0.037181 -0.015839 -1165250.000000 0 1 0
21.878710 -1.776903 0.405360 21.954490 -0.081038 1.552332 0.042091 -0.015038 -537398.000000 0 1 0
22.847510 -2.085403 1.349260 22.982126 -0.091023 1.512053 0.039149 -0.007251 494733.000000 0 1 0
24.034910 -2.683903 0.787460 24.197114 -0.111206 1.538247 0.042097 -0.010826 489942.000000 0 1 0
25.301510 -2.243603 1.593560 25.450729 -0.088443 1.508142 0.072534 -0.012623 12679.600000 0 0 1
25.509410 -0.872903 1.653660 25.577853 -0.034205 1.506099 0.074598 -0.013177 147466.000000 0 0 1
26.305310 -0.500103 2.753060 26.453710 -0.019009 1.466537 0.084013 -0.013894 -225421.000000 0 0 1
26.017410 0.890597 3.445260 26.259638 0.034217 1.439217 0.075502 -0.011733 -128752.000000 0 0 1
26.142110 2.090597 2.675360 26.361678 0.079801 1.469135 0.088194 -0.019042 316108.000000 0 0 1
27.477590 2.505097 2.459060 27.700910 0.090917 1.481907 0.106537 -0.026521 155906.000000 0 0 1
27.667770 3.655797 1.438060 27.945275 0.131371 1.519314 0.109231 -0.034028 -182971.000000 0 0 1
27.178380 3.358497 0.153160 27.385531 0.122949 1.565204 0.102609 -0.018825 354967.000000 0 0 1
27.702110 4.159697 -0.860440 28.025887 0.149045 1.601503 0.104480 -0.016204 -876496.000000 0 0 1
29.050640 3.863197 -1.497840 29.344633 0.132206 1.621862 0.109881 -0.019720 -1224160.000000 0 0 1
30.068970 4.347297 -0.713740 30.389988 0.143583 1.594284 0.131969 -0.024697 -801029.000000 0 0 1
31.348930 4.219797 -1.286940 31.657832 0.133803 1.611459 0.107310 -0.020593 -3656.510000 0 0 1
32.505300 4.426897 -0.303440 32.806768 0.135357 1.580046 0.066236 -0.011865 -203158.000000 0 0 1
32.404960 3.357797 0.660460 32.585157 0.103251 1.550526 0.051866 -0.018963 249397.000000 0 0 1
31.820380 3.853797 1.844460 32.105924 0.120524 1.513315 0.063790 -0.008363 -205287.000000 0 0 1
31.927080 2.875497 3.061960 32.202213 0.089822 1.475567 0.070013 -0.006900 171080.000000 0 0 1
31.015210 1.740097 3.157460 31.224041 0.056046 1.469500 0.083419 -0.009285 533565.000000 0 0 1
31.391670 0.647797 3.945860 31.645322 0.020633 1.445781 0.077591 -0.008496 923025.000000 0 0 1
32.746710 -0.071503 3.472160 32.930351 -0.002183 1.465160 0.067393 -0.007173 1003090.000000 0 0 1
33.899070 0.531297 4.010260 34.139587 0.015672 1.453058 0.067309 -0.008784 -491351.000000 0 0 1
34.953670 -0.392003 3.969360 35.180514 -0.011214 1.457727 0.062168 -0.012904 -684947.000000 0 0 1
-35.282683 0.252097 4.274660 35.541582 -0.007145 1.450232 0.066001 -0.023300 153591.000000 0 0 1
-34.797947 1.299297 3.446860 34.992373 -0.037321 1.472133 0.058308 -0.020033 222770.000000 0 0 1
-34.591424 0.944997 2.094260 34.667645 -0.027312 1.510350 0.067568 -0.026554 -881443.000000 0 0 1
-34.736218 2.178897 1.156660 34.823703 -0.062645 1.537575 0.051664 -0.020862 273238.000000 0 0 1
-33.706584 3.129597 1.359760 33.878860 -0.092583 1.530650 0.056008 -0.024658 314214.000000 0 0 1
-32.513884 2.859597 0.659460 32.646054 -0.087724 1.550595 0.061272 -0.017649 -9834.680000 0 0 1
-31.273974 3.663997 1.192560 31.510451 -0.116626 1.532941 0.046740 -0.021059 278103.000000 0 0 1
-30.802304 3.198197 2.428760 31.062989 -0.103459 1.492528 0.045363 -0.026719 234084.000000 0 0 1
-29.767844 4.037797 2.912360 30.181289 -0.134820 1.474150 0.041252 -0.015422 -658182.000000 0 0 1
-29.896644 4.092497 4.465860 30.504127 -0.136043 1.423866 0.042676 -0.015880 -515249.000000 0 0 1
-31.023974 4.799897 4.867260 31.768164 -0.153499 1.416979 0.028208 0.000472 677941.000000 0 0 1
-32.322034 4.170697 4.889960 32.954823 -0.128327 1.421863 0.037272 0.003117 534663.000000 0 0 1
-32.530614 3.102697 6.013260 33.226900 -0.095090 1.388818 0.038872 0.010510 -697943.000000 0 0 1
-32.550324 3.725897 7.279860 33.561917 -0.113970 1.352150 0.028103 0.010404 204175.000000 0 0 1
-32.566974 2.894397 8.454960 33.770871 -0.088642 1.317742 0.039322 0.008538 87888.700000 0 0 1
-33.690524 1.832497 8.731460 34.851799 -0.054339 1.317567 0.041518 0.007523 -172048.000000 0 0 1
-33.819144 0.799697 7.781160 34.711965 -0.023642 1.344712 0.053701 -0.004189 813961.000000 0 0 1
-34.836718 -0.217603 8.023560 35.749431 0.006246 1.344429 0.062581 -0.001303 528792.000000 0 0 1
-34.713678 -1.174503 9.291060 35.954732 0.033821 1.309420 0.066305 0.006662 603221.000000 0 0 1
-33.479264 -1.933903 9.314160 34.804521 0.057700 1.299881 0.054843 -0.012400 1057510.000000 0 0 1
-33.405634 -2.772203 10.442560 35.109380 0.082796 1.268797 0.050647 -0.001294 -258570.000000 0 0 1
-32.075834 -3.535103 10.498960 33.935001 0.109768 1.256251 0.051572 -0.002704 -255291.000000 0 0 1
-31.992224 -4.454603 9.398660 33.640463 0.138351 1.287642 0.059072 -0.009656 371539.000000 0 0 1
-30.771644 -5.155603 9.573160 32.636172 0.166002 1.273088 0.060151 -0.018102 136511.000000 0 0 1
-30.694714 -6.431403 8.706260 32.547310 0.206540 1.300003 0.073460 -0.009760 412940.000000 0 0 1
-31.648634 -7.429103 9.103660 33.759506 0.230563 1.297754 0.067086 -0.010755 336175.000000 0 0 1
-31.548274 -8.603603 8.283560 33.733262 0.266238 1.322698 0.077261 -0.006707 -738246.000000 0 0 1
-32.661824 -9.579703 8.544960 35.093900 0.285298 1.324835 0.080470 -0.006226 -1228810.000000 0 0 1
-33.900424 -9.038803 8.259860 36.043918 0.260566 1.339581 0.087541 -0.015273 -978395.000000 0 0 1
-34.876043 -10.060403 8.308160 37.236751 0.280838 1.345785 0.092164 -0.018673 75734.000000 0 0 1
7.201236 -23.826603 10.562160 27.039305 -1.277290 1.169489 0.073180 -0.017401 146846.000000 0 0 1
6.771336 -24.557603 9.429160 27.163135 -1.301749 1.216286 0.071798 -0.023705 -186859.000000 0 0 1
5.624636 -25.347113 9.716760 27.722339 -1.352430 1.212688 0.065022 -0.015900 452026.000000 0 0 1
5.268236 -26.317703 8.579860 28.177824 -1.373229 1.261394 0.054167 -0.005157 94536.700000 0 0 1
4.678736 -25.660933 7.420660 27.119001 -1.390448 1.293628 0.068703 -0.002991 -77686.000000 0 0 1
4.698936 -26.588943 6.340360 27.735393 -1.395877 1.340155 0.055869 -0.001431 -371281.000000 0 0 1
4.024536 -26.076773 5.020760 26.858946 -1.417670 1.382760 0.055161 -0.004075 534895.000000 0 0 1
2.644836 -25.805653 5.182860 26.453523 -1.468662 1.373597 0.051803 -0.006536 183245.000000 0 0 1
1.782936 -26.925063 4.919960 27.428887 -1.504674 1.390449 0.050856 -0.005909 335812.000000 0 0 1
0.256036 -26.723923 5.053460 27.198733 -1.561216 1.383913 0.056656 -0.013759 326549.000000 0 0 1
-0.180664 -26.806113 6.443860 27.570340 1.564057 1.334890 0.045449 -0.008289 -69163.900000 0 0 1
-1.580264 -26.746173 6.669160 27.610373 1.511781 1.326838 0.025354 -0.007594 573467.000000 0 0 1
-2.309764 -28.101123 6.764560 28.995989 1.488786 1.335334 0.027428 -0.001767 -371158.000000 0 0 1
-1.838564 -28.825603 7.870360 29.937239 1.507100 1.304774 0.020967 0.001129 -106063.000000 0 0 1
-2.338364 -30.146213 7.895960 31.250732 1.493384 1.315363 0.026751 0.004581 -186359.000000 0 0 1
-2.188664 -30.841133 9.261360 32.275974 1.499949 1.279762 0.028665 0.004627 840395.000000 0 0 1
-0.821764 -31.201483 9.487960 32.622526 1.544465 1.275691 0.040476 0.001032 334386.000000 0 0 1
-0.633964 -31.621833 10.819260 33.427513 1.550751 1.241198 0.041677 0.003835 -158396.000000 0 0 1
0.826336 -31.638583 11.296160 33.604850 -1.544684 1.227974 0.041170 -0.005663 -410339.000000 0 0 1
1.470536 -32.774143 10.737760 34.519652 -1.525958 1.254486 0.052506 -0.012095 -600410.000000 0 0 1
2.815836 -32.921573 11.083060 34.851013 -1.485472 1.247164 0.052872 -0.008434 -309032.000000 0 0 1
3.146336 -33.463073 12.484360 35.854371 -1.477048 1.215150 0.046245 -0.005285 -580334.000000 0 0 1
2.809436 -32.672063 13.617860 35.507784 -1.485018 1.177194 0.023494 0.000933 144926.000000 0 0 1
3.379036 -33.185263 14.810560 36.497017 -1.469323 1.152940 0.018488 0.005022 -341272.000000 0 0 1
3.263336 -32.051633 15.884560 35.920409 -1.469331 1.112729 0.017082 0.010271 64292.000000 0 0 1
3.919636 -30.811733 15.728960 34.815609 -1.444264 1.102038 0.003583 0.002194 379345.000000 0 0 1
5.344636 -30.829253 15.828760 35.065048 -1.399140 1.102450 0.007287 0.006029 634309.000000 0 0 1
5.993236 -29.495713 15.227560 33.731210 -1.370335 1.102420 0.006219 0.002403 -210119.000000 0 0 1
5.974436 -29.331553 13.812860 32.967089 -1.369859 1.138464 0.009604 0.007490 900194.000000 0 0 1
4.664136 -29.252443 13.168660 32.417174 -1.412683 1.152478 0.002261 0.019119 791768.000000 0 0 1
4.784236 -29.303583 11.593360 31.874674 -1.408960 1.198541 0.006955 0.001454 166953.000000 0 0 1
5.205436 -30.504943 11.003460 32.843937 -1.401782 1.229167 0.015700 -0.007323 -1208360.000000 0 0 1
6.496236 -30.839343 11.327660 33.490029 -1.363184 1.225751 0.016473 -0.006468 -1400980.000000 0 0 1
7.059836 -32.198183 10.779360 34.680814 -1.354950 1.254745 0.008082 -0.006652 153795.000000 0 0 1
6.760636 -33.278953 11.675160 35.909668 -1.370373 1.239652 0.005420 -0.006160 156043.000000 0 0 1
6.987436 34.255086 11.008660 36.652773 1.369574 1.265737 0.017460 -0.009577 -50752.500000 0 0 1
6.696136 33.078908 11.909760 35.789590 1.371066 1.231555 0.020332 -0.009453 100365.000000 0 0 1
5.367136 32.910138 12.354560 35.560069 1.409135 1.215970 0.026695 -0.005074 -198363.000000 0 0 1
5.156636 31.651695 12.947060 34.583913 1.409297 1.187083 0.037549 -0.005934 986003.000000 0 0 1
3.847436 31.407715 13.800360 34.520969 1.448904 1.159533 0.051507 -0.008833 921131.000000 0 0 1
4.011936 32.043685 15.101460 35.650350 1.446242 1.133381 0.057450 -0.005773 342381.000000 0 0 1
3.019136 31.666115 16.053960 35.631274 1.475741 1.103406 0.053306 -0.001269 132934.000000 0 0 1
3.516336 31.837145 17.472860 36.486563 1.460795 1.071412 0.046717 -0.001213 -291734.000000 0 0 1
3.621036 33.148374 17.845860 37.820647 1.461991 1.079403 0.040698 0.004898 -66878.800000 0 0 1
4.368136 33.187281 19.025160 38.502376 1.439928 1.053963 0.037097 0.003908 -97886.100000 0 0 1
4.528736 -34.144312 19.566260 39.612902 -1.438931 1.054185 0.023652 -0.001685 -156893.000000 0 0 1
3.315636 -33.523333 19.851160 39.100842 -1.472212 1.038293 0.013936 0.004347 -420811.000000 0 0 1
3.647936 -32.536123 20.789760 38.782997 -1.459143 1.005041 0.012850 -0.000745 488930.000000 0 0 1
2.376036 -31.860073 21.350160 38.425761 -1.496357 0.981687 0.011391 -0.002348 395463.000000 0 0 1
1.405936 -32.726373 21.923960 39.416394 -1.527862 0.980973 0.028369 -0.002624 -343274.000000 0 0 1
0.523536 -31.997113 22.703860 39.237158 -1.554436 0.953746 0.018672 0.001486 -948022.000000 0 0 1
-0.533664 -32.818933 23.398160 40.309317 1.554537 0.951496 0.028413 -0.004519 264775.000000 0 0 1
-1.690964 -33.037733 22.539760 40.029888 1.519658 0.972696 0.017917 -0.007910 658953.000000 0 0 1
-2.326564 -34.306922 22.703360 41.204616 1.503084 0.987245 0.029752 -0.012901 24617.300000 0 0 1
-3.713464 -34.059441 23.324860 41.447369 1.462196 0.973077 0.047837 -0.007372 -525067.000000 0 0 1
-4.589764 -33.529163 22.388460 40.577258 1.434753 0.986336 0.034926 -0.010194 -967755.000000 0 0 1
-5.807364 -33.137743 22.974560 40.738997 1.397309 0.971641 0.044797 -0.008721 497880.000000 0 0 1
-6.914764 -32.863013 21.875360 40.078959 1.363410 0.993445 0.035495 -0.006987 669261.000000 0 0 1
-7.509064 -34.063850 21.342560 40.892992 1.353826 1.021705 0.015157 0.003331 78023.300000 0 0 1
-8.654964 -33.642443 20.633560 40.403789 1.318993 1.034816 0.027258 -0.010364 420841.000000 0 0 1
-9.915064 34.199450 20.777660 41.226473 -1.288614 1.042586 0.048163 -0.015985 488768.000000 0 0 1
-10.539464 -34.272915 22.000160 42.068041 1.272459 1.020469 0.065564 -0.018339 -990210.000000 0 0 1
-11.730264 33.814291 22.171660 42.102112 -1.236884 1.016181 0.046224 -0.015631 -556166.000000 0 0 1
-12.043564 33.701656 23.689560 42.919044 -1.227581 0.986084 0.045036 -0.013145 -66055.600000 0 0 1
-12.540864 -33.904263 24.336760 43.578093 1.216513 0.978264 0.045519 -0.010145 239561.000000 0 0 1
-11.532764 -32.937303 24.599560 42.696709 1.233994 0.956790 0.046381 -0.006775 182236.000000 0 0 1
-12.029164 -31.653573 25.335060 42.290835 1.207627 0.928460 0.041464 -0.008990 -183099.000000 0 0 1
-12.388864 -31.961243 26.647660 43.417770 1.201006 0.909995 0.035542 -0.005871 -252070.000000 0 0 1
-13.393464 -31.042313 26.941060 43.229976 1.163468 0.897964 0.040042 -0.010903 -442629.000000 0 0 1
-13.912964 -31.051513 28.390260 44.314489 1.149556 0.875446 0.042096 -0.013355 41154.300000 0 0 1
-13.059964 -30.447663 29.351960 44.262404 1.165600 0.845797 0.044752 -0.006564 264680.000000 0 0 1
-13.826964 -30.154803 30.480060 45.050318 1.140869 0.827691 0.048524 -0.005299 -21719.300000 0 0 1
-13.032564 -29.339103 31.501360 44.977399 1.152772 0.794864 0.045430 -0.005180 5844.210000 0 0 1
-13.856764 -28.888803 32.584260 45.697996 1.123554 0.776979 0.043546 -0.004617 616527.000000 0 0 1
-13.190364 -28.580123 33.813560 46.197034 1.138402 0.749628 0.044939 -0.009510 -19670.300000 0 0 1
-12.472664 -29.644423 -33.985762 46.790930 1.172537 2.383767 0.046177 -0.001508 718337.000000 0 0 1
-11.106864 -29.784603 34.345460 46.798458 1.213863 0.746748 0.043135 -0.004669 124176.000000 0 0 1
-10.546264 -30.824543 -33.685662 46.862564 1.241142 2.372897 0.050715 -0.002766 -294021.000000 0 0 1
-9.117264 -31.280023 -33.992262 47.085435 1.287181 2.377380 0.055907 -0.003439 87044.700000 0 0 1
-8.092164 -30.430853 -33.517462 45.988479 1.310891 2.387398 0.048500 -0.011778 -216271.000000 0 0 1
-6.867664 -31.103323 -33.355262 46.121090 1.353482 2.379236 0.046224 -0.012967 310344.000000 0 0 1
-5.927064 -30.340053 -32.348862 44.744807 1.377872 2.378878 0.033365 -0.014669 77757.000000 0 0 1
-6.213564 -30.601293 -30.991162 43.994313 1.370471 2.352424 0.040849 -0.018183 128092.000000 0 0 1
-5.613464 -29.648323 -30.120662 42.635528 1.383676 2.355292 0.029170 -0.019063 -435933.000000 0 0 1
-6.290764 -29.724273 -28.815062 41.873785 1.362237 2.329720 0.019700 -0.014864 -324450.000000 0 0 1
-5.940164 -30.880453 -28.086262 42.163088 1.380758 2.299809 0.014084 -0.013150 405414.000000 0 0 1
-7.036364 -31.145013 -27.212462 41.952834 1.348604 2.276598 0.013870 -0.016911 90050.000000 0 0 1
-6.960464 -32.416813 -26.387262 42.374348 1.359290 2.243008 0.015826 -0.010849 9705.260000 0 0 1
-5.952164 -32.328303 -25.405662 41.545097 1.388719 2.228777 -0.000441 -0.010779 -160499.000000 0 0 1
-5.689564 -33.598653 -24.838162 42.168411 1.403049 2.200646 -0.000769 -0.010297 -45346.700000 0 0 1
-4.884964 -33.383713 -23.542562 41.141067 1.425500 2.180031 0.017868 -0.010941 24911.000000 0 0 1
-5.635964 -32.775923 -22.494562 40.150100 1.400507 2.165498 0.023594 -0.009221 181015.000000 0 0 1
-5.491364 -31.319633 -22.417462 38.905232 1.397228 2.184876 0.025757 -0.002865 -52359.200000 0 0 1
-6.063364 -30.743103 -21.120262 37.788467 1.376069 2.163864 0.035672 -0.017703 995631.000000 0 0 1
-7.483464 -30.627833 -20.862962 37.806475 1.331156 2.155360 0.059763 -0.030230 1197920.000000 0 0 1
-7.841664 -29.439913 -20.158462 36.531681 1.310479 2.155327 0.050200 -0.035664 -201658.000000 0 0 1
-7.970664 -28.146593 -20.981262 35.999660 1.294838 2.192989 0.055308 -0.046110 -810358.000000 0 0 1
-6.771264 -27.748283 -21.594362 35.806894 1.331449 2.218151 0.052029 -0.035858 -547458.000000 0 0 1
-7.004464 -27.267663 -22.909762 36.296627 1.319355 2.253872 0.053388 -0.047174 -1274790.000000 0 0 1
-5.955064 -27.598823 -23.984162 37.045888 1.358282 2.274988 0.045794 -0.036653 582580.000000 0 0 1
-4.649664 -27.011753 -23.930362 36.385662 1.400332 2.288540 0.050482 -0.028596 795039.000000 0 0 1
-3.917264 -27.444693 -22.758462 35.867864 1.429021 2.258169 0.041205 -0.024483 -893673.000000 0 0 1
-2.381364 -27.192683 -22.898462 35.629376 1.483445 2.268794 0.049675 -0.021506 338631.000000 0 0 1
-1.964064 -25.864913 -23.039762 34.694119 1.495006 2.297062 0.046670 -0.021702 -109906.000000 0 0 1
-2.372464 -24.990203 -22.001062 33.379418 1.476144 2.290445 0.061236 -0.027974 -1207570.000000 0 0 1
-2.284964 -23.446303 -22.296962 32.436163 1.473648 2.328714 0.065634 -0.023136 216648.000000 0 0 1
-3.140164 -22.921903 -23.313262 32.844823 1.434650 2.360011 0.060062 -0.029441 26678.600000 0 0 1
-4.514564 -23.098403 -23.055362 32.946429 1.377780 2.345890 0.061574 -0.033428 -562869.000000 0 0 1
-5.391764 -23.183903 -24.334262 34.039988 1.342293 2.367239 0.050661 -0.028856 44538.800000 0 0 1
-5.530864 -21.990803 -25.002162 33.753429 1.324399 2.404952 0.060423 -0.025365 -28186.000000 0 0 1
-6.011664 -22.227903 -26.294462 34.951659 1.306660 2.422357 0.048800 -0.025529 -246855.000000 0 0 1
-6.000364 -20.986603 -27.148162 34.834818 1.292312 2.464408 0.066886 -0.015706 -18631.400000 0 0 1
-6.012664 -21.283003 -28.556562 36.119185 1.295461 2.482618 0.066295 -0.018971 72673.300000 0 0 1
-4.824364 -21.796503 -29.124762 36.696236 1.352971 2.487617 0.057380 -0.022837 -5500.890000 0 0 1
-5.139564 -22.265303 -30.566062 38.163372 1.343937 2.499638 0.069767 -0.029513 154458.000000 0 0 1
-5.378064 -21.122803 -31.410062 38.232033 1.321484 2.534945 0.088891 -0.029437 -666483.000000 0 0 1
-6.141964 -21.576203 -32.440262 39.441435 1.293468 2.536575 0.087578 -0.028153 -537103.000000 0 0 1
-6.336064 -20.642303 -33.714162 40.036172 1.272980 2.571948 0.067440 -0.017671 64187.100000 0 0 1
-5.263964 -20.600303 34.114460 40.197987 1.320621 0.557348 0.074189 -0.016684 -283961.000000 0 0 1
-5.738364 -20.380403 32.787760 39.029820 1.296339 0.573385 0.071571 -0.017613 729173.000000 0 0 1
-4.575164 -20.778103 31.847560 38.300506 1.354063 0.588962 0.048146 -0.019604 -535676.000000 0 0 1
-4.321064 -22.166303 31.702960 38.924212 1.378272 0.618965 0.054687 -0.017346 364139.000000 0 0 1
-3.272864 -22.551103 30.796460 38.310388 1.426672 0.637028 0.047004 -0.010526 663425.000000 0 0 1
-1.847864 -22.169503 31.263860 38.370958 1.487637 0.618448 0.026578 -0.014500 -925713.000000 0 0 1
-1.499664 -20.819303 31.141560 37.489854 1.498888 0.590493 0.026419 -0.014199 -285469.000000 0 0 1
-0.324764 -20.546103 31.881760 37.930126 1.554991 0.572518 0.032777 -0.012747 -1355.980000 0 0 1
-0.479964 -20.179803 33.397960 39.024077 1.547016 0.543644 0.017889 -0.009845 -580170.000000 0 0 1
-1.169564 -18.980303 33.471560 38.496300 1.509254 0.516658 0.010390 -0.009991 -603732.000000 0 0 1
-1.528864 -18.739603 -33.927862 38.789302 1.489392 2.635552 0.019718 -0.014884 394388.000000 0 0 1
-2.705164 -17.694803 -33.863962 38.303941 1.419092 2.655330 0.019489 -0.016608 564187.000000 0 0 1
-2.387564 -16.341503 -34.251262 38.024914 1.425718 2.692309 0.030743 -0.015184 -86282.700000 0 0 1
-3.361864 -15.411903 -33.783262 37.284550 1.356026 2.704752 0.046061 -0.019480 180827.000000 0 0 1
-3.136964 -13.968403 -34.167662 37.045728 1.349886 2.744813 0.048500 -0.021135 -988420.000000 0 0 1
-2.165664 -13.376503 -33.392362 36.037075 1.410288 2.756095 0.051307 -0.017919 -667344.000000 0 0 1
-2.077264 -11.970403 -33.473362 35.609992 1.398974 2.793424 0.040044 -0.014499 -186510.000000 0 0 1
-1.515164 -11.426203 33.927360 35.831824 1.438961 0.327499 0.038312 -0.016614 -908528.000000 0 0 1
-2.349864 -11.442403 32.826660 34.843078 1.368248 0.341872 0.042138 -0.014098 -474192.000000 0 0 1
-1.679764 -11.020803 31.678360 33.582707 1.419543 0.338380 0.043755 -0.008396 57593.100000 0 0 1
-0.771264 -12.114803 31.032960 33.322784 1.507219 0.372876 0.043213 -0.011171 -70306.200000 0 0 1
-1.397464 -13.186303 30.396460 33.162875 1.465212 0.411352 0.040732 -0.015128 -584499.000000 0 0 1
-0.483464 -14.157303 30.029260 33.202702 1.536660 0.440773 0.034740 -0.017433 -404204.000000 0 0 1
-0.929364 -15.581503 30.404960 34.177603 1.511222 0.474292 0.021839 -0.019883 -100349.000000 0 0 1
-1.982264 -16.161003 29.694060 33.865094 1.448749 0.501559 0.025248 -0.013637 -71228.300000 0 0 1
-2.311764 -17.391703 30.256660 34.975435 1.438648 0.525480 0.025300 -0.009070 -175423.000000 0 0 1
-2.861164 -18.405903 29.275260 34.698766 1.416582 0.566662 0.026868 -0.001219 762702.000000 0 0 1
-4.157664 -18.180303 28.673160 34.204674 1.345972 0.576672 0.040895 -0.002725 738183.000000 0 0 1
-4.566564 -19.188303 27.816360 34.099771 1.337156 0.616798 0.044262 -0.004062 -391708.000000 0 0 1
-3.953264 -19.296203 26.434860 32.966249 1.368720 0.640367 0.038406 -0.011367 -828814.000000 0 0 1
-4.541464 -20.095603 25.448660 32.742823 1.348537 0.680547 0.058796 -0.012050 -462730.000000 0 0 1
-4.421464 -21.482003 25.692960 33.780971 1.367809 0.706598 0.055306 -0.017103 -91421.300000 0 0 1
-29.010174 -33.757920 -0.162740 44.510829 0.860894 1.574453 0.013960 -0.006928 -694949.000000 0 0 1
-28.234004 -32.694520 0.259060 43.199048 0.858477 1.564799 0.016567 -0.011485 -408779.000000 0 0 1
-28.677464 -32.061120 1.440260 43.039363 0.841049 1.537326 0.017339 -0.014346 232624.000000 0 0 1
-27.746424 -30.873020 1.860060 41.550779 0.838685 1.526015 0.034303 -0.012951 651576.000000 0 0 1
-26.370494 -31.148020 2.050960 40.863291 0.868269 1.520584 0.042589 -0.006956 -132138.000000 0 0 1
-25.653594 -29.930820 2.170360 39.480012 0.862197 1.515795 0.052325 -0.012112 -673478.000000 0 0 1
-24.216764 -30.170320 2.574160 38.772751 0.894430 1.504356 0.030659 -0.015124 -853488.000000 0 0 1
-23.990164 -30.886720 3.749660 39.288388 0.910416 1.475211 0.031128 -0.010961 -1134130.000000 0 0 1
-22.645264 -31.095220 3.973060 38.671772 0.941358 1.467877 0.019589 -0.001866 -1060920.000000 0 0 1
-22.407364 -31.741520 5.294860 39.212876 0.956100 1.435354 0.028903 -0.003577 -127382.000000 0 0 1
-22.647664 -30.813020 6.355160 38.765281 0.936963 1.406113 0.024008 -0.003691 -250051.000000 0 0 1
-22.335664 -31.477420 7.596460 39.337210 0.953671 1.376464 0.029136 -0.012161 -254653.000000 0 0 1
-22.896964 -30.756620 8.841160 39.349800 0.930853 1.344180 0.027414 -0.017251 -552032.000000 0 0 1
-22.265764 -29.512120 9.110260 38.075272 0.924446 1.329183 0.039895 -0.013803 -127876.000000 0 0 1
-22.823464 -28.936120 10.266060 38.257046 0.902951 1.299122 0.028949 -0.013563 232928.000000 0 0 1
-21.970464 -27.824120 10.973960 37.112138 0.902417 1.270611 0.032974 -0.020231 727907.000000 0 0 1
-20.688864 -28.204220 11.455460 36.806721 0.937914 1.254306 0.031006 -0.014617 -171215.000000 0 0 1
-19.993564 -27.093320 12.006460 35.748366 0.935051 1.228278 0.031800 -0.019891 -220381.000000 0 0 1
-18.640764 -27.567620 12.536660 35.561491 0.976234 1.210518 0.041300 -0.012848 -497626.000000 0 0 1
-18.675064 -28.624120 13.526560 36.756851 0.992719 1.193938 0.054462 -0.020066 80695.000000 0 0 1
-17.525264 -28.674620 14.371960 36.550266 1.022199 1.166675 0.069828 -0.019345 504840.000000 0 0 1
-17.704264 -29.910420 15.195760 37.933960 1.036347 1.158642 0.094607 -0.039836 84073.700000 0 0 1
-17.762064 -31.206120 14.586560 38.756685 1.053343 1.184929 0.097307 -0.035248 -73886.400000 0 0 1
-17.809364 -32.200820 15.568260 39.955438 1.065598 1.170555 0.112299 -0.037440 162891.000000 0 0 1
-17.703464 -33.632420 15.040360 40.874990 1.086267 1.193982 0.094246 -0.039874 161631.000000 0 0 1
-17.794164 34.192997 16.091360 41.769908 -1.090959 1.175330 0.101927 -0.035575 41719.800000 0 0 1
-17.239664 32.928097 15.784260 40.380794 -1.088483 1.169203 0.081413 -0.034300 -4915.080000 0 0 1
-17.492064 31.879297 16.867460 40.084575 -1.068954 1.136473 0.078621 -0.039529 973660.000000 0 0 1
-18.881364 31.448897 16.884660 40.381070 -1.030096 1.139407 0.079165 -0.037849 1294140.000000 0 0 1
-19.079664 30.337797 17.764160 39.999762 -1.009392 1.110619 0.073324 -0.031489 -285349.000000 0 0 1
-19.523664 30.802797 19.177760 41.204032 -1.005874 1.086671 0.055956 -0.031222 162362.000000 0 0 1
-18.626864 31.685597 19.892060 41.792717 -1.039347 1.074730 0.061448 -0.026137 435265.000000 0 0 1
-19.215864 31.973297 21.152560 42.883237 -1.029644 1.054964 0.053246 -0.021553 261180.000000 0 0 1
-18.498764 33.147897 21.898760 43.824001 -1.061780 1.047546 0.041772 -0.010283 -121436.000000 0 0 1
-17.236864 32.793197 22.392360 43.288810 -1.086861 1.027129 0.030650 -0.011735 -625494.000000 0 0 1
-16.916664 33.468297 23.604260 44.310965 -1.102796 1.009014 0.033306 -0.013317 -116442.000000 0 0 1
-17.598264 32.845297 24.845160 44.786097 -1.078926 0.982732 0.020046 -0.011535 322297.000000 0 0 1
-18.941764 33.286897 25.057460 45.767721 -1.053448 0.991432 0.004140 -0.013671 641005.000000 0 0 1
-19.645664 32.159697 25.607760 45.562656 -1.022416 0.973953 0.017610 -0.009093 131920.000000 0 0 1
-21.189564 32.308097 25.590060 46.342874 -0.990313 0.985808 0.070526 -0.014603 83824.200000 0 0 1
-21.687864 32.144097 24.262260 45.741270 -0.977248 1.011696 0.057532 -0.008070 226743.000000 0 0 1
-23.088764 32.351797 24.243060 46.555943 -0.950949 1.023091 0.040757 -0.011481 31447.900000 0 0 1
-23.678164 31.922997 22.871160 45.856550 -0.932611 1.048635 0.029662 -0.013404 -195694.000000 0 0 1
-23.270964 32.763797 21.809560 45.723748 -0.953215 1.073575 0.032389 -0.015580 115055.000000 0 0 1
-23.521164 32.162297 20.536060 44.826201 -0.939353 1.094910 0.022862 -0.012442 -23692.000000 0 0 1
-23.095564 33.116797 19.373360 44.782301 -0.961819 1.123408 0.033525 -0.019220 -169700.000000 0 0 1
-21.723664 33.392297 19.454660 44.333361 -0.994028 1.116504 0.052394 -0.025246 -548448.000000 0 0 1
-21.316864 34.117897 18.304760 44.198460 -1.012341 1.143788 0.064394 -0.025799 556758.000000 0 0 1
-19.931064 -33.957820 18.517860 43.511976 1.040038 1.131193 0.076225 -0.033796 553999.000000 0 0 1
-20.133564 -32.871820 19.391960 43.150494 1.021246 1.104699 0.075147 -0.035063 -12676.200000 0 0 1
-18.891564 -32.318820 19.659460 42.283469 1.041824 1.087225 0.081414 -0.033878 -642952.000000 0 0 1
-19.111464 -31.270620 20.786560 42.132895 1.022209 1.054851 0.062843 -0.025925 50454.200000 0 0 1
-19.688864 -30.084920 20.262660 41.271409 0.991304 1.057604 0.085462 -0.029106 232526.000000 0 0 1
-20.038364 -29.241520 21.325560 41.368854 0.970024 1.029208 0.083747 -0.023958 64793.500000 0 0 1
-20.900164 -28.014420 20.868360 40.707654 0.929828 1.032540 0.069249 -0.022864 -82774.900000 0 0 1
-20.086464 -27.023520 20.263360 39.298097 0.931600 1.029051 0.061664 -0.010766 618645.000000 0 0 1
-20.726564 -25.744520 20.008860 38.635803 0.892962 1.026421 0.055696 0.007559 -399109.000000 0 0 1
-21.876264 -25.595620 19.013560 38.668103 0.863587 1.056742 0.045470 0.002494 -102966.000000 0 0 1
-23.163564 -25.927420 19.534860 39.879727 0.841639 1.058885 0.045943 0.001241 121038.000000 0 0 1
-24.018564 -26.090020 18.424160 39.962861 0.826714 1.091638 0.044787 -0.001888 445819.000000 0 0 1
-25.524814 -26.132620 18.891760 41.125766 0.797164 1.093516 0.027845 0.001527 920196.000000 0 0 1
-26.145574 -27.341720 19.326760 42.481577 0.807758 1.098486 0.023132 -0.003958 144011.000000 0 0 1
-26.073174 -28.476420 18.440860 42.787641 0.829426 1.125212 0.027343 -0.005766 -284092.000000 0 0 1
-27.070064 -29.554320 19.008860 44.357446 0.829243 1.127922 0.032447 -0.016924 704257.000000 0 0 1
-28.449114 -29.226820 19.021660 45.004252 0.798881 1.134414 0.023649 -0.019656 355028.000000 0 0 1
-29.117724 -29.582420 17.823560 45.173452 0.793314 1.165209 0.022842 -0.015020 367475.000000 0 0 1
-30.652814 -29.283720 17.773260 45.967598 0.762560 1.173803 0.023689 -0.012894 656967.000000 0 0 1
-30.917024 -27.951220 17.649260 45.261788 0.735060 1.170233 0.029381 -0.008992 114250.000000 0 0 1
-32.285134 -27.681420 17.931260 46.153234 0.708777 1.171776 0.021856 0.007945 171492.000000 0 0 1
-32.660174 -26.395120 17.234260 45.391729 0.679706 1.181348 0.017707 0.006681 -320522.000000 0 0 1
-32.893074 -26.445620 15.817360 45.072320 0.677168 1.212229 0.043247 -0.012201 -29656.300000 0 0 1
-33.457624 -25.297320 15.288660 44.644262 0.647394 1.221267 0.041065 -0.012189 214265.000000 0 0 1
-32.478224 -24.098620 14.944660 43.115211 0.638357 1.216829 0.025979 -0.009782 594773.000000 0 0 1
-31.786604 -23.474720 16.031060 42.643236 0.636107 1.185391 0.014300 -0.002598 321051.000000 0 0 1
-31.279644 -22.186020 15.641060 41.415920 0.616927 1.183530 0.009124 0.002304 -300734.000000 0 0 1
-32.241574 -21.010220 15.827860 41.610932 0.577534 1.180592 0.010572 0.004285 -361777.000000 0 0 1
-32.526644 -20.666920 17.171160 42.189488 0.566032 1.151628 0.006764 0.010753 108269.000000 0 0 1
-33.390364 -19.558020 17.277760 42.378693 0.529867 1.150863 0.009058 0.006372 -77343.500000 0 0 1
-33.688664 -19.198120 18.724260 43.059167 0.517970 1.120925 0.000675 0.007163 -325086.000000 0 0 1
-34.616690 -20.046020 19.347260 44.435061 0.524899 1.120308 0.014638 0.003840 48256.200000 0 0 1
-34.917383 -19.603820 20.632560 45.047042 0.511580 1.095027 0.011114 0.007132 981624.000000 0 0 1
35.259130 -19.961520 21.241860 45.748062 -0.515148 1.087927 0.027320 -0.000270 1055920.000000 0 0 1
34.949880 -21.304920 21.557760 46.261547 -0.547437 1.086035 0.029374 -0.005999 325426.000000 0 0 1
35.630578 -21.684420 22.757460 47.514778 -0.546712 1.071332 0.028830 0.003702 199307.000000 0 0 1
35.025920 -23.052020 23.332960 47.985808 -0.582077 1.063007 0.025552 0.007278 556958.000000 0 0 1
33.779670 -22.909820 24.003860 47.350937 -0.595954 1.039171 0.042968 -0.010809 418202.000000 0 0 1
33.401050 -24.106720 24.592760 47.974660 -0.625165 1.032563 0.037443 -0.012760 -345602.000000 0 0 1
32.538820 -23.992920 25.848760 47.985346 -0.635364 1.001926 0.036848 -0.014232 760545.000000 0 0 1
31.158730 -23.618620 25.689660 46.783163 -0.648608 0.989483 0.049005 -0.012405 804268.000000 0 0 1
30.433390 -23.773320 26.892260 47.059065 -0.663147 0.962515 0.035088 -0.013372 -119582.000000 0 0 1
29.078730 -24.429020 26.609460 46.372545 -0.698718 0.959635 0.034237 -0.015257 193275.000000 0 0 1
28.067660 -23.642320 25.947860 44.944903 -0.700026 0.955346 0.037388 -0.018767 1174810.000000 0 0 1
26.874630 -24.387120 25.648060 44.438726 -0.736911 0.955555 0.032000 -0.008394 1202730.000000 0 0 1
25.661710 -23.563820 25.103660 42.941480 -0.742806 0.946407 0.035133 -0.008804 154529.000000 0 0 1
25.698610 -23.102920 23.784960 41.951017 -0.732260 0.967974 0.041535 -0.008975 -16660.200000 0 0 1
26.512810 -21.963920 23.559560 41.718051 -0.691836 0.970687 0.050590 -0.005796 -53930.400000 0 0 1
26.447310 -21.314620 22.226760 40.593129 -0.678345 0.991363 0.057110 -0.008722 -351778.000000 0 0 1
25.340810 -20.483520 22.094560 39.368780 -0.679794 0.974937 0.040542 -0.013771 -270585.000000 0 0 1
25.199910 -19.953920 20.778260 38.274410 -0.669736 0.996938 0.025752 -0.011600 201360.000000 0 0 1
24.211710 -18.734320 20.834060 37.030254 -0.658542 0.973242 0.032016 -0.007132 99691.700000 0 0 1
24.767610 -17.516020 21.384660 37.115349 -0.615552 0.956764 0.038262 -0.025305 237798.000000 0 0 1
24.816210 -17.542620 22.823760 38.006734 -0.615343 0.926646 0.039641 -0.021197 -141133.000000 0 0 1
25.222010 -16.174920 23.431060 38.036725 -0.570236 0.907127 0.050171 -0.012410 -130189.000000 0 0 1
24.184610 -15.238120 23.316260 36.888259 -0.562240 0.886564 0.024836 -0.002564 -203408.000000 0 0 1
24.349410 -14.188920 24.252660 37.180785 -0.527618 0.860194 0.031246 -0.002659 307464.000000 0 0 1
23.076610 -13.309120 24.164060 35.966157 -0.523138 0.834085 0.017536 -0.006057 902348.000000 0 0 1
21.865110 -13.952120 24.597460 35.746045 -0.567964 0.811906 0.027912 0.001457 1094710.000000 0 0 1
20.716910 -13.236420 24.083860 34.415484 -0.568546 0.795683 0.026363 0.002460 -438688.000000 0 0 1
19.459210 -13.892620 24.528860 34.253916 -0.620018 0.772613 0.028811 0.002316 -1347690.000000 0 0 1
19.196110 -15.116520 23.822560 34.124979 -0.667059 0.798059 0.014385 0.004648 1155340.000000 0 0 1
17.915210 -15.623920 24.308060 33.999168 -0.717187 0.774229 0.018681 0.014389 1149500.000000 0 0 1
17.326810 -16.766420 23.477860 33.653248 -0.768963 0.798698 0.017234 0.006204 -101462.000000 0 0 1
17.937710 -18.022520 23.709060 34.766251 -0.787757 0.820362 0.003900 0.005979 281941.000000 0 0 1
17.442410 -18.990020 22.739860 34.379642 -0.827852 0.848067 0.011338 0.003118 136689.000000 0 0 1
17.898210 -20.389220 23.162060 35.672780 -0.850367 0.864143 -0.002957 0.004050 -296343.000000 0 0 1
17.382810 -20.867020 24.388560 36.502007 -0.876238 0.839086 0.004263 0.002743 186987.000000 0 0 1
17.689810 -22.244520 24.792360 37.714840 -0.898962 0.853482 0.022103 -0.000738 -182979.000000 0 0 1
17.000010 -23.315520 23.869760 37.448355 -0.940787 0.879671 0.014031 0.003088 62298.900000 0 0 1
17.582310 -23.642520 22.619460 37.144937 -0.931357 0.916058 0.016904 0.004977 -881071.000000 0 0 1
18.806810 -24.277920 22.766960 38.228890 -0.911707 0.932854 0.027447 -0.004944 -486399.000000 0 0 1
19.661810 -24.217620 21.431360 37.846837 -0.888853 0.968828 0.028133 0.006439 -64291.800000 0 0 1
19.133710 -25.031020 20.438860 37.555264 -0.918143 0.995320 0.040042 -0.007069 -107004.000000 0 0 1
20.110510 -25.457120 19.530460 37.867354 -0.902198 1.028902 0.029954 -0.011195 -210489.000000 0 0 1
19.481610 -26.120920 18.301660 37.373605 -0.929973 1.059057 0.031625 -0.020837 87370.000000 0 0 1
19.072210 -27.442520 18.576160 38.234995 -0.963442 1.063470 0.049848 -0.027012 140545.000000 0 0 1
18.359810 -28.022820 17.469960 37.783073 -0.990793 1.090124 0.053957 -0.027873 115617.000000 0 0 1
17.552610 -29.265620 17.895560 38.533385 -1.030547 1.087820 0.053242 -0.021813 517801.000000 0 0 1
16.448010 -28.922320 18.747960 38.190623 -1.053713 1.057668 0.064364 -0.027431 464770.000000 0 0 1
15.661510 -30.057420 19.065160 38.887167 -1.090448 1.058398 0.082201 -0.031123 168109.000000 0 0 1
14.382610 -29.764420 19.888960 38.579151 -1.120667 1.029163 0.071516 -0.020174 -128043.000000 0 0 1
13.432810 -29.059020 19.125260 37.291321 -1.137794 1.032282 0.068101 -0.017498 -177798.000000 0 0 1
12.306110 -28.750920 19.951860 37.096260 -1.166366 1.002923 0.028042 -0.012204 237327.000000 0 0 1
11.192510 -28.106920 19.089660 35.772704 -1.191832 1.007900 0.021186 -0.016994 -360549.000000 0 0 1
10.607410 -29.074120 18.268360 35.938205 -1.220962 1.037555 0.027497 -0.014407 -35882.300000 0 0 1
9.960210 -28.420420 17.177860 34.669943 -1.233712 1.052422 0.023297 -0.011036 -43619.400000 0 0 1
9.986610 -29.287420 15.964260 34.818716 -1.242174 1.094494 0.020874 -0.011270 9260.990000 0 0 1
9.043010 -30.331020 15.908360 35.423477 -1.281043 1.105049 0.009066 -0.009691 -22550.400000 0 0 1
9.465610 -31.188220 14.890060 35.833179 -1.276132 1.142262 0.009510 -0.010235 -428475.000000 0 0 1
8.415610 -32.168420 14.371660 36.223947 -1.314920 1.162829 0.003593 -0.007874 -545245.000000 0 0 1
8.136410 -33.115920 15.377060 37.407477 -1.329874 1.147170 0.007529 -0.006617 -120069.000000 0 0 1
7.264010 -34.114120 14.899760 37.928115 -1.360997 1.167076 0.007777 -0.005595 62173.400000 0 0 1
6.991910 33.483697 15.804760 37.680701 1.364939 1.137969 0.027214 -0.007157 -246088.000000 0 0 1
8.157910 32.742097 15.910760 37.306149 1.326612 1.130186 0.024417 -0.010698 -595256.000000 0 0 1
7.931510 31.847097 16.941960 36.934760 1.326712 1.094265 0.031943 -0.017385 51453.200000 0 0 1
9.109910 30.981197 17.436760 36.699669 1.284810 1.075695 0.039338 -0.018607 32711.200000 0 0 1
9.605010 30.115797 16.382960 35.603636 1.262059 1.092634 0.033036 -0.017239 -951762.000000 0 0 1
10.751110 29.457397 16.726660 35.540200 1.220847 1.080780 0.047803 -0.020275 -1156250.000000 0 0 1
11.505910 28.729197 15.673260 34.690112 1.189863 1.102006 0.042342 -0.016329 -315779.000000 0 0 1
10.767210 27.737897 14.994960 33.319253 1.200524 1.103987 0.042960 -0.016908 -499546.000000 0 0 1
11.601810 27.086797 14.107760 32.669948 1.166117 1.124279 0.032180 -0.008743 -279352.000000 0 0 1
-9.008864 -9.436403 19.080583 23.114367 0.808573 0.599734 0.022234 -0.015620 -51136.100000 0 1 0
-9.560764 -9.496303 17.801783 22.326922 0.782016 0.647949 0.032233 -0.020099 -40943.500000 0 1 0
-9.601064 -10.852103 17.399683 22.642825 0.846488 0.694394 0.037836 -0.023592 93106.400000 0 1 0
-9.943664 -10.998503 15.942383 21.771612 0.835725 0.749168 0.037065 -0.024426 -126780.000000 0 1 0
-11.327664 -10.870803 15.700283 22.203360 0.764820 0.785389 0.044700 -0.025231 -111844.000000 0 1 0
-11.723664 -11.255403 14.433083 21.735737 0.765023 0.844607 0.043539 -0.028226 -96.621600 0 1 0
-11.824464 -12.806003 14.182483 22.471192 0.825228 0.887773 0.030512 -0.023310 147596.000000 0 1 0
-10.541364 -13.398803 13.911583 22.004100 0.904194 0.886372 0.036141 -0.017808 858391.000000 0 1 0
-10.590764 -14.776803 14.003683 22.948231 0.948940 0.914446 0.042957 -0.018266 84182.700000 0 1 0
-10.126564 -15.244103 15.407683 23.923350 0.984438 0.871024 0.036414 -0.023932 -30364.100000 0 1 0
-11.134064 -14.920203 16.319983 24.757255 0.929705 0.851042 0.050992 -0.019880 -269338.000000 0 1 0
-10.703364 -15.109703 17.663883 25.590582 0.954470 0.808963 0.063647 -0.022203 -437388.000000 0 0 1
-11.744964 -14.704003 18.710083 26.537126 0.896812 0.788298 0.045179 -0.022008 -666942.000000 0 0 1
-12.130064 -13.330703 18.639783 25.928509 0.832520 0.768590 0.051078 -0.019257 1016670.000000 0 0 1
-13.374164 -13.112103 17.915583 25.918403 0.775504 0.807606 0.053148 -0.026375 604338.000000 0 0 1
-14.652364 -13.354303 18.704583 27.256019 0.739083 0.814468 0.033692 -0.018872 -946653.000000 0 0 1
-14.948064 -14.700603 18.950483 28.260806 0.777052 0.835837 0.033805 -0.012132 -216493.000000 0 0 1
-15.912464 -14.848503 19.973283 29.540084 0.750824 0.828283 0.039610 -0.012178 -129504.000000 0 0 1
-16.421064 -16.300403 20.152883 30.683760 0.781711 0.854238 0.040937 -0.004019 -56254.400000 0 0 1
-17.495764 -16.744903 19.357983 31.003629 0.763473 0.896461 0.024450 0.001046 -147450.000000 0 0 1
-17.806564 -18.020103 19.737983 32.115196 0.791358 0.908918 0.029815 -0.002168 117606.000000 0 0 1
-19.065564 -18.590403 19.028783 32.729091 0.772780 0.950345 0.035319 -0.000015 2539.020000 0 0 1
-18.868964 -18.802303 17.654283 31.956816 0.783629 0.985505 0.036659 -0.003533 33726.900000 0 0 1
-19.332964 -17.711303 16.893283 31.190331 0.741650 0.998434 0.031458 -0.003985 -607911.000000 0 0 1
-19.009964 -17.710203 15.383883 30.194269 0.750017 1.036196 0.031336 -0.009881 -113972.000000 0 0 1
-19.674864 -18.715803 14.659583 30.859114 0.760422 1.075777 0.028266 -0.012801 118915.000000 0 0 1
-19.021664 -18.877603 13.417083 29.970080 0.781597 1.106624 0.021612 -0.017895 174670.000000 0 0 1
-19.486564 -20.111303 12.635283 30.721996 0.801174 1.146941 0.021711 -0.009731 -409356.000000 0 0 1
-18.951664 -21.223803 13.216183 31.373283 0.841893 1.135967 0.017347 -0.000208 -244587.000000 0 0 1
-18.380164 -21.973603 12.137983 31.112703 0.874212 1.170024 0.018104 -0.006106 -231690.000000 0 0 1
-17.762664 -23.287203 12.796583 31.961830 0.919176 1.158875 0.018735 -0.003315 -93577.900000 0 0 1
-17.608364 -24.409203 11.927183 32.374702 0.945864 1.193498 0.029516 -0.012788 551226.000000 0 0 1
-16.743464 -24.306503 10.757083 31.414399 0.967595 1.221299 0.030355 -0.010967 344257.000000 0 0 1
-16.838564 -25.609803 9.936283 32.220008 0.989164 1.257298 0.037529 -0.009475 -323912.000000 0 0 1
-18.114864 -25.630833 9.335183 32.744977 0.955547 1.281699 0.035113 -0.008334 -333681.000000 0 0 1
-18.256764 -26.670043 8.366083 33.385505 0.970520 1.317506 0.051301 -0.007913 -79672.700000 0 0 1
-19.564064 -26.671743 7.578683 33.934804 0.937931 1.345566 0.046446 -0.013333 -128239.000000 0 0 1
-19.569564 -25.623233 6.597083 32.909564 0.918558 1.368968 0.047583 -0.016324 -428890.000000 0 0 1
-20.709664 -25.590403 5.795183 33.426682 0.890426 1.396546 0.048566 -0.017303 -325850.000000 0 0 1
-20.730264 -24.335003 4.883483 32.338593 0.865217 1.419205 0.045299 -0.020007 598189.000000 0 0 1
-21.871064 -24.182703 4.031383 32.854202 0.835550 1.447781 0.040892 -0.017836 327869.000000 0 0 1
-21.552564 -23.072603 3.208283 31.735644 0.819447 1.469529 0.037478 -0.015151 296780.000000 0 0 1
-22.239164 -22.888503 1.827283 31.965653 0.799786 1.513601 0.026309 -0.007588 19334.900000 0 0 1
-21.767464 -23.876303 0.900583 32.321995 0.831567 1.542930 0.032748 -0.009539 138823.000000 0 0 1
-21.919864 -23.370103 -0.385917 32.043581 0.817408 1.582840 0.014285 0.000592 -539375.000000 0 0 1
-21.126964 -24.183403 -1.412617 32.143134 0.852752 1.614758 0.015776 0.000888 -418486.000000 0 0 1
-19.748564 -24.138603 -1.079917 31.206476 0.885097 1.605409 0.015010 0.000052 -119877.000000 0 0 1
-18.917764 -24.618403 -2.122517 31.119972 0.915598 1.639054 0.019423 0.000664 -94043.200000 0 0 1
-18.922064 -26.128263 -2.551517 32.361101 0.944013 1.649723 0.023400 0.004690 -720644.000000 0 0 1
-20.025764 -26.724153 -3.190317 33.546828 0.927711 1.666041 0.033544 0.008738 -501884.000000 0 0 1
-19.606364 -27.929143 -3.831117 34.338375 0.958727 1.682599 0.039784 0.016949 -178520.000000 0 0 1
-20.668664 -28.751613 -4.566617 35.702982 0.947518 1.699053 0.035430 0.017275 -98866.600000 0 0 1
-21.048064 -28.314283 -5.839817 35.760636 0.931550 1.734834 0.033977 0.023788 -549661.000000 0 0 1
-22.048564 -29.085583 -6.425117 37.059310 0.922158 1.745051 0.032843 0.005119 -308545.000000 0 0 1
-22.596564 -28.347643 -7.630317 37.046124 0.897812 1.778249 0.027938 0.022836 -1070580.000000 0 0 1
-21.558864 -28.194643 -8.503117 36.496925 0.917989 1.805939 0.048044 0.018234 -807572.000000 0 0 1
-21.840964 -28.002203 -9.873417 36.859672 0.908387 1.841973 0.038984 0.010119 371103.000000 0 0 1
-22.742764 -26.817803 -10.426617 36.676180 0.867437 1.859061 0.034343 0.016217 793859.000000 0 0 1
-22.028764 -25.551463 -10.535217 35.343097 0.859300 1.873481 0.023715 0.017025 456223.000000 0 0 1
-21.989864 -24.796803 -9.399217 34.449686 0.845321 1.847139 0.006513 0.028706 109729.000000 0 0 1
-21.586964 -23.360703 -9.694717 33.252173 0.824840 1.866645 0.009199 0.017178 -150252.000000 0 0 1
-22.642664 -22.680603 -10.288817 33.659467 0.786235 1.881442 0.007271 0.016637 -210667.000000 0 0 1
-22.252064 -21.322203 -10.501517 32.558755 0.764062 1.899209 0.019174 0.013734 526079.000000 0 0 1
-23.458764 -20.394103 -10.835917 32.918842 0.715627 1.906221 0.027579 0.016966 -76254.300000 0 0 1
-24.052064 -20.624903 -12.091317 33.912953 0.708838 1.935358 0.016835 0.021427 920769.000000 0 0 1
-25.199524 -19.765303 -12.334917 34.319577 0.665127 1.938436 0.020680 0.011481 622119.000000 0 0 1
-25.023264 -18.203603 -12.235617 33.275295 0.628923 1.947340 0.027460 0.014051 -1227880.000000 0 0 1
-24.264464 -17.591903 -13.298317 32.788481 0.627313 1.988408 0.036775 0.026566 731057.000000 0 0 1
-23.762364 -16.315303 -12.963217 31.605127 0.601678 1.993428 0.040665 -0.001034 309164.000000 0 0 1
-22.691964 -16.218603 -11.831117 30.297585 0.620543 1.971968 0.018761 -0.000570 -466170.000000 0 0 1
-23.334764 -16.330003 -10.581617 30.383397 0.610601 1.926521 0.046833 -0.007454 415659.000000 0 0 1
-22.407464 -16.539403 -9.517517 29.431776 0.635855 1.900091 0.022698 -0.003508 -28556.000000 0 0 1
-23.089764 -16.931603 -8.177217 29.777227 0.632724 1.848984 0.015389 -0.008090 244161.000000 0 0 1
-23.687264 -18.240303 -8.123317 30.980371 0.656208 1.836106 0.028306 -0.002804 153557.000000 0 0 1
-24.535664 -18.459603 -7.042617 31.501654 0.645009 1.796265 0.042545 -0.000211 -115562.000000 0 0 1
-24.621564 -19.984503 -6.908717 32.455079 0.681814 1.785308 0.051690 0.002740 105363.000000 0 0 1
-25.303734 -20.722403 -7.916617 33.650702 0.686187 1.808281 0.040188 -0.010346 176736.000000 0 0 1
-25.359984 -22.041603 -7.482717 34.423133 0.715506 1.789920 0.052087 0.002944 146910.000000 0 0 1
-25.560874 -22.996203 -8.664617 35.457851 0.732630 1.817660 0.030529 0.016492 38318.600000 0 0 1
-25.974474 -24.255903 -8.193417 36.471279 0.751198 1.797384 0.038590 0.014863 -170425.000000 0 0 1
-26.092954 -25.253703 -9.133117 37.443365 0.769055 1.817200 0.021772 0.025571 -73837.700000 0 0 1
-26.686504 -26.541903 -8.526117 38.591926 0.782682 1.793564 0.033988 0.019822 -162396.000000 0 0 1
-25.929164 -27.192343 -7.501717 38.314760 0.809173 1.767861 0.040489 0.011669 306190.000000 0 0 1
-26.625134 -28.283833 -6.888817 39.450333 0.815597 1.746316 0.033917 0.008238 12205.100000 0 0 1
-25.866864 -28.750803 -5.655517 39.085652 0.838151 1.716002 0.047055 0.004472 -197983.000000 0 0 1
-26.018714 -27.894823 -4.541517 38.415101 0.820183 1.689296 0.035089 0.003704 191391.000000 0 0 1
-25.270744 -28.291863 -3.387817 38.085658 0.841742 1.659867 0.042677 0.004989 -29026.900000 0 0 1
-25.749534 -29.531283 -2.640117 39.269650 0.853702 1.638078 0.037460 0.012047 -261488.000000 0 0 1
-25.611044 -30.767753 -3.289017 40.167124 0.876610 1.652771 0.031244 0.002826 -205664.000000 0 0 1
-25.876254 -31.832163 -2.391217 41.092396 0.888241 1.629020 0.022078 -0.001698 -471013.000000 0 0 1
-24.825164 -32.134063 -1.336217 40.628466 0.913019 1.603691 0.029686 -0.010040 -626896.000000 0 0 1
-23.629664 -32.552243 -1.971317 40.272765 0.942899 1.619765 0.033721 -0.006787 -88599.600000 0 0 1
-22.466264 -32.527783 -1.168017 39.549386 0.966353 1.600334 0.032767 0.004718 388634.000000 0 0 1
-21.716564 -31.162783 -1.216417 38.002735 0.962171 1.602810 0.050583 0.002125 -433893.000000 0 0 1
-22.333064 -30.160723 -0.425117 37.531529 0.933423 1.582124 0.042643 0.001335 -97881.600000 0 0 1
-22.134164 -28.905763 -0.987917 36.420328 0.917300 1.597925 0.037933 -0.003629 -89864.600000 0 0 1
-22.899064 -27.755983 -0.298617 35.984037 0.880988 1.579095 0.025457 0.006119 -26855.100000 0 0 1
-24.318064 -27.857513 -0.288117 36.979620 0.853132 1.578588 0.027860 0.003528 127418.000000 0 0 1
-24.940864 -26.617163 0.013583 36.476297 0.817900 1.570424 0.038251 -0.013085 -15135.200000 0 0 1
-24.577364 -25.859953 1.312483 35.700232 0.810822 1.534024 0.040050 -0.005905 -849589.000000 0 0 1
-25.022264 -26.442413 2.513983 36.491574 0.812986 1.501850 0.016309 -0.004900 -68067.600000 0 0 1
-24.542964 -25.742083 3.662383 35.755069 0.809240 1.468187 0.027198 -0.010531 -170645.000000 0 0 1
-25.406374 -24.503703 4.015983 35.525250 0.767314 1.457508 0.035728 -0.010068 -203813.000000 0 0 1
-25.375454 -23.426203 3.088183 34.673297 0.745477 1.481613 0.039447 -0.010622 70321.800000 0 0 1
-26.191904 -22.358003 3.560883 34.620457 0.706593 1.467759 0.023398 -0.011811 50082.300000 0 0 1
-26.105094 -21.184103 2.554783 33.716006 0.681710 1.494950 0.025960 -0.005545 732975.000000 0 0 1
-24.820564 -20.572303 2.726383 32.352947 0.692081 1.486426 0.025998 -0.005055 503221.000000 0 0 1
-24.589364 -19.710903 1.674883 31.558862 0.675717 1.517700 0.020396 -0.011013 -390549.000000 0 0 1
-23.283864 -18.927303 1.808983 30.060831 0.682554 1.510583 0.035766 -0.010370 -882965.000000 0 0 1
-22.157164 -19.722103 1.586183 29.705508 0.727319 1.517374 0.035409 -0.013978 -1131070.000000 0 0 1
-21.039364 -18.893403 1.704783 28.328816 0.731710 1.510582 0.021919 -0.005645 -1071610.000000 0 0 1
-19.775064 -19.715803 1.515083 27.965363 0.783898 1.516593 0.014236 -0.015961 -881411.000000 0 0 1
-19.492364 -19.912803 0.132483 27.865562 0.796067 1.566042 -0.008641 -0.006202 844527.000000 0 0 1
-18.467064 -20.924803 -0.085617 27.908550 0.847709 1.573864 0.005870 0.001449 777909.000000 0 0 1
-18.385364 -21.311303 -1.576517 28.190045 0.858973 1.626750 0.016511 -0.001238 -178093.000000 0 0 1
-17.761164 -20.273903 -2.282417 27.049945 0.851366 1.655275 0.005366 0.001111 -53935.900000 0 0 1
-17.542864 -20.629403 -3.621517 27.321049 0.866081 1.703742 0.013939 0.004470 -229059.000000 0 0 1
-16.699564 -19.629003 -4.396417 26.143865 0.865861 1.739762 0.014804 0.010515 -1140110.000000 0 0 1
-15.372564 -19.536503 -4.044417 25.186266 0.904117 1.732075 0.031712 0.006440 -1101390.000000 0 0 1
-14.752264 -18.836103 -5.092917 24.461518 0.906389 1.780532 0.038883 0.003240 -517815.000000 0 1 0
-13.244764 -18.565903 -5.147817 23.379832 0.951139 1.792797 0.054911 -0.005163 -215636.000000 0 1 0
-12.496664 -19.775703 -5.106517 23.944134 1.007236 1.785715 0.053277 -0.005782 95389.100000 0 1 0
-11.220664 -19.494903 -5.675017 23.198283 1.048534 1.817935 0.052845 -0.015038 307545.000000 0 1 0
-10.322664 -20.726003 -5.867717 23.886287 1.108707 1.818989 0.055250 -0.017942 161459.000000 0 1 0
-10.817664 -21.666503 -6.840517 25.164496 1.107724 1.846093 0.065189 -0.019713 -859859.000000 0 0 1
-9.833364 -22.558603 -7.136617 25.622586 1.159727 1.853058 0.065880 -0.015806 -629063.000000 0 0 1
-10.084364 -23.631703 -8.229817 26.979282 1.167461 1.880779 0.064496 -0.012571 -205185.000000 0 0 1
-10.570164 -23.133903 -9.430817 27.126484 1.142209 1.925872 0.053689 -0.009875 -252839.000000 0 0 1
-10.447964 -24.032803 -10.487117 28.226144 1.160707 1.951463 0.064542 -0.007380 -89100.700000 0 0 1
-11.108964 -23.634303 -11.826317 28.667946 1.131406 1.996023 0.087706 -0.017976 -36820.700000 0 0 1
-10.419164 -22.666303 -12.609817 27.952241 1.139925 2.038816 0.062022 -0.012820 38480.800000 0 0 1
-11.305864 -22.077903 -13.580317 28.278638 1.097524 2.071716 0.066703 -0.020886 61965.200000 0 0 1
-10.751164 -20.833003 -14.298017 27.459695 1.094380 2.118457 0.049099 -0.017875 -199010.000000 0 0 1
-10.567364 -19.757903 -13.395017 26.104988 1.079665 2.109613 0.049791 -0.023206 -313221.000000 0 0 1
-10.253564 -18.558403 -14.083817 25.453954 1.066034 2.157124 0.035496 -0.014388 -104791.000000 0 0 1
-9.864664 -17.496103 -12.999317 23.925038 1.057404 2.145201 0.031260 -0.016190 -93502.100000 0 1 0
-10.965064 -17.156803 -12.133817 23.702701 1.002116 2.108211 0.029002 -0.022133 489280.000000 0 1 0
-10.664664 -16.070603 -11.261017 22.334051 0.984911 2.099261 0.036739 -0.027612 155962.000000 0 1 0
-10.415564 -14.668003 -11.879117 21.558008 0.953332 2.154395 0.039867 -0.020986 308580.000000 0 1 0
-11.614064 -14.126403 -12.418917 22.105910 0.882693 2.167346 0.043008 -0.006989 319642.000000 0 1 0
-11.522864 -14.016503 -13.862517 22.834363 0.882729 2.223190 0.047652 -0.015193 470196.000000 0 1 0
-12.768664 -13.242303 -14.435117 23.383113 0.803605 2.236142 0.047722 -0.014384 329896.000000 0 1 0
-12.802464 -11.820303 -14.087217 22.406971 0.745531 2.250674 0.032921 -0.003786 -25009.700000 0 1 0
-13.863264 -11.232203 -14.833117 23.202884 0.680938 2.264357 0.022559 -0.002665 76702.000000 0 1 0
-14.096164 -9.855803 -14.243217 22.331770 0.610178 2.262436 0.017484 -0.005850 330125.000000 0 1 0
-13.112064 -8.812003 -14.460617 21.416981 0.591722 2.312024 0.016601 0.000983 671569.000000 0 1 0
-13.134364 -8.246703 -15.766417 22.115595 0.560662 2.364435 0.020043 0.009983 -153158.000000 0 1 0
-12.042964 -7.180403 -15.869517 21.176231 0.537644 2.417955 0.013412 0.014132 920453.000000 0 1 0
-10.683764 -7.637503 -15.741417 20.500402 0.620636 2.446289 0.011763 0.002598 652905.000000 0 1 0
-9.798364 -6.598803 -15.473417 19.467377 0.592691 2.489537 0.007540 0.007759 -66802.000000 0 1 0
11.330836 21.643297 15.893183 29.144698 1.088505 0.994026 0.065367 -0.002848 -43066.200000 0 0 1
12.292836 21.942097 16.909383 30.306710 1.060125 0.978893 0.071095 -0.005349 319033.000000 0 0 1
12.712236 20.722997 17.478083 29.942060 1.020556 0.947481 0.062701 -0.006399 96703.800000 0 0 1
13.918836 20.782897 18.460883 31.088052 0.980679 0.934991 0.057104 -0.012033 -468437.000000 0 0 1
15.108636 21.108597 17.861583 31.509997 0.949573 0.968114 0.043039 -0.007883 -1263650.000000 0 0 1
16.239036 20.808497 18.606483 32.293978 0.908119 0.956774 0.043158 -0.004467 258430.000000 0 0 1
17.586836 21.278397 17.968383 32.938272 0.880098 0.993791 0.024982 0.001136 -333561.000000 0 0 1
17.816336 22.667697 18.182583 34.085960 0.904663 1.008142 0.027868 -0.003869 -671204.000000 0 0 1
19.046736 23.177097 17.841683 34.903891 0.882909 1.034255 0.021337 -0.003206 -123078.000000 0 0 1
20.362336 22.707997 18.553683 35.700378 0.839806 1.024290 0.018687 -0.005261 60628.800000 0 0 1
20.736236 21.403997 18.214083 34.926714 0.801243 1.022195 0.022374 -0.003406 353140.000000 0 0 1
21.859036 20.959297 18.970083 35.734768 0.764388 1.011184 0.024036 -0.005251 51343.400000 0 0 1
22.285736 19.543397 18.800183 35.100502 0.719931 1.005566 0.019421 -0.004500 -278248.000000 0 0 1
22.596036 19.276797 17.410783 34.428347 0.706294 1.040591 0.022181 0.001423 167132.000000 0 0 1
22.434436 17.950897 16.886783 33.327197 0.674832 1.039447 0.019063 0.011333 -290412.000000 0 0 1
23.318136 16.811697 17.478783 33.643372 0.624662 1.024494 0.004022 0.012784 681792.000000 0 0 1
24.697136 16.923997 17.097183 34.477295 0.600766 1.051929 0.023525 0.003838 341609.000000 0 0 1
25.498736 16.321397 18.035883 35.240128 0.569375 1.033518 0.009599 -0.006946 -1054690.000000 0 0 1
26.928336 16.088497 17.560383 35.949159 0.538547 1.060451 0.023287 -0.009347 -1648850.000000 0 0 1
27.631336 17.248797 17.088283 36.783436 0.558058 1.087653 0.024962 -0.011301 81346.900000 0 0 1
29.002436 17.098297 16.866683 37.656049 0.532698 1.106365 0.036261 -0.015196 -354633.000000 0 0 1
29.499936 15.856797 16.101183 37.160898 0.493211 1.122664 0.036053 -0.018771 -1650420.000000 0 0 1
29.432736 15.886497 14.663383 36.519605 0.494944 1.157619 0.045115 -0.021003 196519.000000 0 0 1
29.766736 14.631897 14.152883 36.061823 0.456866 1.167490 0.066247 -0.027035 31352.400000 0 0 1
29.020236 14.558997 12.799283 34.899285 0.464994 1.195284 0.051935 -0.014983 -279632.000000 0 0 1
29.597836 15.424797 11.860283 35.420652 0.480421 1.229360 0.047861 -0.009220 479354.000000 0 0 1
28.677636 15.820497 10.855283 34.504088 0.504122 1.250752 0.032913 -0.003330 910719.000000 0 0 1
27.420836 16.696997 11.207783 34.004505 0.546950 1.234920 0.024152 -0.007427 132474.000000 0 0 1
27.712636 18.037197 11.455583 34.993729 0.576983 1.237287 0.010028 -0.005790 -117229.000000 0 0 1
28.095836 18.451797 12.763983 35.955028 0.581102 1.207884 0.014277 -0.010756 -164933.000000 0 0 1
27.142336 18.351497 14.006083 35.632207 0.594519 1.166824 0.009194 -0.010294 -461665.000000 0 0 1
26.222836 19.402097 14.019683 35.505352 0.637001 1.164880 0.020019 -0.005979 -91226.500000 0 0 1
25.331036 19.403197 15.116783 35.308109 0.653653 1.128364 0.028112 -0.007839 -124193.000000 0 0 1
25.842736 20.073797 16.450783 36.625573 0.660413 1.104970 0.020441 -0.007622 -138306.000000 0 0 1
26.002036 21.465197 16.396583 37.492779 0.690109 1.118173 0.001967 -0.007415 -17226.000000 0 0 1
24.837936 22.118697 16.846083 37.282038 0.727553 1.101952 0.015539 -0.011836 -101818.000000 0 0 1
24.768036 23.569597 16.328083 37.889151 0.760610 1.125258 0.014730 -0.005298 -242245.000000 0 0 1
24.574336 23.729097 14.957683 37.292094 0.767901 1.158084 0.033731 -0.018258 204520.000000 0 0 1
25.013436 25.001897 14.468983 38.211494 0.785167 1.182453 0.026500 -0.012892 -289245.000000 0 0 1
24.611936 25.351297 13.053383 37.667313 0.800195 1.216912 0.036080 -0.018122 -549790.000000 0 0 1
23.348636 25.908797 12.808683 37.154904 0.837327 1.218837 0.049695 -0.013731 -211204.000000 0 0 1
23.083336 25.909597 11.400283 36.525526 0.843021 1.253374 0.048514 -0.030534 116775.000000 0 0 1
22.401836 24.650697 10.776283 35.008962 0.833157 1.257901 0.054640 -0.029702 314675.000000 0 0 1
20.968436 24.636497 10.902583 34.139400 0.865657 1.245748 0.057309 -0.027582 1048590.000000 0 0 1
20.370636 23.319197 10.712083 32.764256 0.852784 1.237728 0.062176 -0.024108 309389.000000 0 0 1
20.401436 22.790297 9.289783 31.967426 0.840650 1.275941 0.050414 -0.009622 -113639.000000 0 0 1
19.390736 23.509097 8.581683 31.659494 0.881104 1.296300 0.050238 0.001285 212149.000000 0 0 1
19.694936 23.609497 7.186783 31.574495 0.875549 1.341170 0.054768 -0.017277 146505.000000 0 0 1
18.541036 24.105397 6.276683 31.052165 0.915142 1.367260 0.048704 -0.011487 -31528.500000 0 0 1
17.568436 23.110697 5.923183 29.628337 0.920808 1.369524 0.050589 0.002853 606887.000000 0 0 1
16.687036 23.623497 4.916883 29.337732 0.955805 1.402406 0.063607 -0.009849 687042.000000 0 0 1
15.376536 24.360897 5.353683 29.301077 1.007753 1.387051 0.023625 -0.004139 120242.000000 0 0 1
15.668936 25.446097 6.235483 30.527048 1.018862 1.365088 0.031735 -0.018529 -35367.100000 0 0 1
14.537636 26.198697 6.596783 30.679507 1.064200 1.354082 0.019257 -0.022797 -89051.400000 0 0 1
14.159436 27.394597 5.741383 31.367452 1.093744 1.386722 0.021116 -0.023957 -395782.000000 0 0 1
13.657136 27.215097 4.405183 30.766614 1.105692 1.427122 0.011009 -0.002092 439891.000000 0 0 1
13.906936 28.365097 3.588683 31.794029 1.114952 1.457682 0.005894 -0.002953 -212007.000000 0 0 1
13.345736 28.219697 2.174383 31.291979 1.129044 1.501253 0.008503 0.001940 132917.000000 0 0 1
14.039336 27.182797 1.497583 30.630870 1.094053 1.521886 0.021321 -0.003243 742485.000000 0 0 1
13.291936 26.950997 0.284283 30.051832 1.112612 1.561336 0.006035 0.006612 10768.100000 0 0 1
14.136736 26.393397 -0.840517 29.952716 1.079063 1.598861 0.000911 -0.004667 754.584000 0 0 1
14.776636 27.439697 -1.582517 31.205614 1.076815 1.621531 0.023830 -0.003925 -528295.000000 0 0 1
15.785936 26.953797 -2.396617 31.328050 1.040983 1.647372 0.039951 -0.012140 -436830.000000 0 0 1
15.811936 27.589397 -3.797717 32.025222 1.050379 1.689661 0.036526 -0.015818 -514764.000000 0 0 1
14.852436 27.001597 -4.649117 31.165613 1.067909 1.720530 0.063408 -0.022140 -166411.000000 0 0 1
14.883636 27.650597 -5.893217 31.950089 1.076999 1.756309 0.072416 -0.020419 -480511.000000 0 0 1
13.616636 27.268197 -6.615017 31.188553 1.107661 1.784517 0.086523 -0.032902 -340387.000000 0 0 1
13.564036 25.938797 -7.043317 30.106687 1.088978 1.806930 0.078987 -0.028616 56686.200000 0 0 1
12.260136 25.622697 -7.530517 29.386089 1.124507 1.829949 0.055212 -0.032564 584170.000000 0 0 1
11.882736 24.238997 -8.051417 28.170086 1.114993 1.860653 0.065733 -0.023259 225807.000000 0 0 1
12.557836 23.821097 -9.274617 28.480914 1.085647 1.902488 0.060728 -0.025600 15839.800000 0 0 1
12.007936 22.630897 -9.736017 27.406898 1.082970 1.933967 0.065411 -0.014309 -335646.000000 0 0 1
12.510836 22.004697 -11.051717 27.620068 1.053821 1.982459 0.061139 -0.010919 -224774.000000 0 0 1
11.672936 20.998297 -11.634517 26.693593 1.063435 2.021784 0.062294 -0.005844 -183027.000000 0 0 1
11.941636 20.552897 -12.955717 27.071662 1.044450 2.069823 0.059442 -0.007625 1012400.000000 0 0 1
13.376836 19.942197 -13.245817 27.424125 0.979951 2.074872 0.047681 0.002368 1382010.000000 0 0 1
14.486136 20.776597 -13.006317 28.472433 0.961930 2.045195 0.038466 -0.008336 230285.000000 0 0 1
15.721036 20.213497 -13.442517 28.921233 0.909771 2.054202 0.041507 0.000301 958454.000000 0 0 1
16.963236 21.147097 -13.545517 30.305645 0.894743 2.034164 0.039338 0.000293 118756.000000 0 0 1
16.989236 22.244697 -14.467917 31.508433 0.918557 2.047864 0.043540 -0.006454 -205043.000000 0 0 1
15.954336 23.174297 -14.306217 31.563535 0.967864 2.041206 0.046642 -0.007399 -14236.700000 0 0 1
16.471036 24.556997 -14.839317 33.083931 0.979988 2.035922 0.053690 -0.016188 142434.000000 0 0 1
16.638736 24.673797 -16.248317 33.906513 0.977494 2.070550 0.040101 -0.013311 -269345.000000 0 0 1
15.449136 24.798297 -16.983917 33.794745 1.013642 2.097355 0.037838 -0.006676 -104044.000000 0 0 1
15.722136 24.771497 -18.509817 34.690431 1.005262 2.133614 0.019030 0.006321 95941.300000 0 0 1
16.228936 23.514697 -18.919617 34.267642 0.966704 2.155693 0.008692 0.015388 52105.500000 0 0 1
16.177336 23.396697 -20.313817 34.953724 0.965841 2.190954 0.003336 0.027353 -296028.000000 0 0 1
16.515936 21.973897 -20.777317 34.457586 0.926262 2.218031 0.008090 0.026095 37308.100000 0 0 1
15.503936 20.968297 -20.568617 33.213093 0.934115 2.238638 0.018246 0.016967 469875.000000 0 0 1
15.685336 19.951797 -21.512217 33.269798 0.904551 2.273914 0.015009 0.012706 315595.000000 0 0 1
14.468336 18.975097 -21.606717 32.190640 0.919349 2.306638 0.017012 0.009207 -592776.000000 0 0 1
14.347836 18.106197 -20.482417 30.874329 0.900690 2.296167 0.021867 0.007194 -133140.000000 0 0 1
13.600336 16.942097 -20.735117 30.032464 0.894378 2.332871 0.019562 -0.002924 -94194.700000 0 0 1
12.094536 17.187897 -20.931217 29.661717 0.957614 2.354157 0.029838 -0.008207 -1421760.000000 0 0 1
11.296236 17.366297 -19.833117 28.680059 0.994092 2.334401 0.029070 -0.006476 -613680.000000 0 0 1
10.020136 17.757097 -20.296217 28.768978 1.057049 2.353910 0.030703 -0.003897 459433.000000 0 0 1
8.825936 17.263997 -19.420317 27.442512 1.098202 2.356995 0.042314 -0.010003 166817.000000 0 0 1
8.769336 15.837397 -19.424317 26.552373 1.065109 2.391385 0.047418 -0.013451 1104120.000000 0 0 1
7.536836 15.292697 -18.842117 25.410547 1.112894 2.406111 0.056138 -0.010710 1454350.000000 0 0 1
7.158236 15.488097 -17.353917 24.336802 1.137863 2.364668 0.044441 -0.011802 -134517.000000 0 1 0
6.746136 16.799497 -17.055717 24.872293 1.188939 2.326405 0.058703 -0.010483 -464501.000000 0 1 0
6.390136 16.828197 -15.712017 23.893295 1.207887 2.288413 0.045527 -0.020608 -192151.000000 0 1 0
6.089036 18.248097 -15.138417 24.479401 1.248733 2.237520 0.039120 -0.017261 -59192.000000 0 1 0
7.266736 18.995897 -14.918217 25.223060 1.205430 2.203654 0.041844 -0.016241 16428.500000 0 0 1
7.742136 19.753597 -16.054217 26.606074 1.197261 2.218560 0.049209 -0.007850 255200.000000 0 0 1
9.039836 20.585397 -15.858517 27.513084 1.157012 2.185112 0.039097 0.005916 174176.000000 0 0 1
8.970536 21.842897 -15.123817 28.041265 1.181113 2.140451 0.042450 -0.005576 -45470.300000 0 0 1
8.408236 21.693997 -13.788417 27.045303 1.201039 2.105780 0.027796 -0.009350 63902.200000 0 0 1
8.265436 22.998297 -12.992517 27.677511 1.225778 2.059436 0.039457 -0.013721 403463.000000 0 0 1
7.050336 23.635997 -13.423417 28.081235 1.280911 2.069196 0.030943 -0.010699 486407.000000 0 0 1
6.487836 24.567597 -12.527917 28.330330 1.312609 2.028856 0.015378 -0.014374 228319.000000 0 0 1
5.905136 24.131897 -11.115617 27.217201 1.330810 1.991501 0.005071 -0.009510 -441193.000000 0 0 1
6.809636 23.625797 -10.170317 26.607984 1.290173 1.963003 0.003121 -0.006235 -78147.300000 0 0 1
6.059336 23.098397 -9.061017 25.541213 1.314250 1.933454 0.010636 -0.013827 243606.000000 0 0 1
6.850336 22.909697 -7.771817 25.143239 1.280244 1.885045 0.000829 -0.023481 -105015.000000 0 0 1
7.236536 24.079097 -7.129917 26.134385 1.278852 1.847117 0.005289 -0.024526 552102.000000 0 0 1
8.266336 23.925497 -6.133817 26.045834 1.238133 1.808530 0.023176 -0.023146 502763.000000 0 0 1
8.460536 25.263297 -5.360617 27.176296 1.247642 1.769352 0.020657 -0.022634 -189914.000000 0 0 1
8.964336 26.284397 -6.154217 28.444740 1.242115 1.788878 0.038065 -0.020780 -66627.700000 0 0 1
9.014836 27.462097 -5.361517 29.396937 1.253615 1.754206 0.025095 -0.018544 -5123.780000 0 0 1
9.274136 28.691497 -6.179917 30.779912 1.258160 1.772948 0.031383 -0.013467 -220010.000000 0 0 1
10.534636 28.851897 -6.769917 31.452223 1.220709 1.787738 0.043990 -0.017172 -635536.000000 0 0 1
10.613436 30.009397 -7.575917 32.720078 1.230855 1.804454 0.043959 -0.012186 -143635.000000 0 0 1
11.863736 30.215697 -8.453217 33.543904 1.196655 1.825547 0.043589 -0.016389 660562.000000 0 0 1
13.017336 30.431397 -7.631617 33.967081 1.166590 1.797408 0.055448 -0.015374 -262572.000000 0 0 1
14.112536 30.914597 -8.353117 34.995008 1.142550 1.811818 0.056735 -0.015693 48511.700000 0 0 1
15.366036 31.211897 -7.522317 35.593298 1.113317 1.783743 0.056021 -0.013019 -115093.000000 0 0 1
16.174536 30.153897 -7.079117 34.942625 1.078455 1.774801 0.053401 -0.017454 367352.000000 0 0 1
17.375736 30.761997 -6.542117 35.930711 1.056628 1.753894 0.047155 -0.009817 992819.000000 0 0 1
18.531936 29.765997 -6.281717 35.621724 1.013934 1.748068 0.034254 -0.014631 -68996.200000 0 0 1
18.249336 28.908097 -5.206217 34.580646 1.007688 1.721924 0.040042 -0.016202 62215.100000 0 0 1
19.297736 27.976997 -4.956917 34.346558 0.966968 1.715623 0.028840 -0.014696 -204402.000000 0 0 1
19.424536 26.749897 -5.895817 33.580206 0.942732 1.747285 0.029445 -0.004813 -248615.000000 0 0 1
19.898436 27.040997 -7.192917 34.335133 0.936405 1.781851 0.018619 -0.001680 122775.000000 0 0 1
20.004136 25.875197 -7.928917 33.653514 0.912674 1.808637 0.015456 -0.003038 -705899.000000 0 0 1
20.631736 26.167397 -9.346617 34.608676 0.903137 1.844258 0.017503 -0.007486 -1013240.000000 0 0 1
21.991436 26.345497 -9.378117 35.576081 0.875233 1.837556 0.012788 -0.005924 -1208920.000000 0 0 1
22.648936 25.099497 -9.412717 35.093565 0.836676 1.842339 0.024538 -0.003111 -964137.000000 0 0 1
24.175036 25.159197 -9.320817 36.115027 0.805344 1.831838 0.014956 -0.000793 119614.000000 0 0 1
24.868436 25.644497 -10.491817 37.231137 0.800761 1.856468 0.025038 -0.000852 895466.000000 0 0 1
26.284736 25.761997 -10.369317 38.237293 0.775355 1.845419 0.027130 0.002913 1175390.000000 0 0 1
27.142236 25.951697 -11.694917 39.331446 0.762979 1.872705 0.021713 -0.000574 503048.000000 0 0 1
26.792536 27.115897 -12.384317 40.080958 0.791396 1.884919 0.028621 -0.002444 -281645.000000 0 0 1
27.505236 27.181897 -13.560517 40.979033 0.779486 1.908068 0.015201 -0.000739 -254745.000000 0 0 1
27.054136 28.260697 -14.610017 41.761775 0.807207 1.928199 0.018262 -0.004329 -92601.900000 0 0 1
27.423336 29.585297 -14.285417 42.794887 0.823303 1.911140 0.027143 -0.008488 33262.600000 0 0 1
27.528336 30.344597 -15.430817 43.780292 0.834023 1.930995 0.025981 -0.001012 -105969.000000 0 0 1
28.028636 31.812197 -15.245017 45.055864 0.848541 1.915968 0.029643 -0.005239 -767190.000000 0 0 1
29.288836 31.964597 -14.721017 45.785148 0.829054 1.898135 0.018034 -0.008898 -851033.000000 0 0 1
29.816936 33.260297 -14.825317 47.064712 0.839934 1.891251 0.028132 -0.012117 -16275.300000 0 0 1
15.035136 -32.462420 -28.909170 45.995697 -1.137057 2.250444 0.064799 -0.027551 381484.000000 0 0 1
16.155436 -32.969920 -28.185180 46.286262 -1.115176 2.225510 0.043618 -0.017868 389396.000000 0 0 1
16.335136 -32.195520 -26.994880 45.078950 -1.101268 2.212843 0.040443 -0.022745 -97969.600000 0 0 1
17.485536 -32.674520 -26.051870 45.299759 -1.079431 2.183522 0.009334 -0.013521 1671980.000000 0 0 1
18.878036 -32.639020 -26.448090 46.056349 -1.046419 2.182490 0.006137 -0.014295 1584200.000000 0 0 1
19.213336 -33.439420 -27.602130 47.425991 -1.049284 2.191988 0.007323 -0.010826 592077.000000 0 0 1
20.762636 -33.310620 -27.944550 48.182801 -1.013418 2.189487 0.008538 -0.009386 1473380.000000 0 0 1
21.067536 -31.992120 -28.544060 47.771332 -0.988453 2.211194 -0.001703 -0.008556 -22127.300000 0 0 1
22.420236 -31.650520 -28.388340 48.065791 -0.954476 2.202616 -0.010047 -0.003347 -229862.000000 0 0 1
22.945236 -30.306520 -28.991830 47.806853 -0.922763 2.222368 -0.018492 0.008688 -180227.000000 0 0 1
23.369236 -30.469820 -30.350320 48.945613 -0.916527 2.239644 -0.021436 0.003549 15021.000000 0 0 1
23.989736 -29.301120 -30.800920 48.813520 -0.884738 2.253627 -0.018463 -0.006735 -241884.000000 0 0 1
24.225936 -29.196420 -32.334570 49.848283 -0.878172 2.276618 -0.015065 0.002808 291924.000000 0 0 1
25.385936 -29.943620 -32.668990 51.071802 -0.867586 2.264862 -0.007374 -0.002937 192055.000000 0 0 1
25.353636 -30.050020 -34.087939 52.036508 -0.869963 2.285081 -0.002305 -0.001195 247796.000000 0 0 1
26.409536 -31.049920 34.099390 53.144421 -0.865983 0.874167 0.003209 -0.001247 141030.000000 0 0 1
27.736336 -30.676520 34.349331 53.760857 -0.835690 0.877692 0.008967 -0.012483 -1008390.000000 0 0 1
28.682536 -31.514720 33.818863 54.402030 -0.832412 0.899953 0.014611 -0.001074 -217017.000000 0 0 1
30.073436 -30.833020 33.839082 54.773809 -0.797869 0.904859 0.026093 -0.008697 -65977.300000 0 0 1
30.185336 -29.902720 32.777864 53.662981 -0.780695 0.913714 0.021561 -0.010622 -627229.000000 0 0 1
31.425036 -29.297820 32.640203 53.956260 -0.750381 0.921108 0.023655 -0.020999 -761074.000000 0 0 1
31.320736 -28.163220 31.541863 52.621712 -0.732366 0.928035 0.020647 -0.018288 -1178610.000000 0 0 1
32.562836 -27.597320 31.346843 52.958237 -0.703047 0.937362 0.022508 -0.026603 -614726.000000 0 0 1
32.495736 -26.449820 30.507243 51.829120 -0.683188 0.941455 0.003843 -0.015267 -147676.000000 0 0 1
33.339236 -26.530820 29.207723 51.657334 -0.672165 0.969863 0.008346 -0.009705 29255.900000 0 0 1
32.918736 -27.569220 28.330993 51.442689 -0.697188 0.987559 -0.001156 -0.016996 -200271.000000 0 0 1
31.817136 -27.259720 27.548663 50.143307 -0.708407 0.989152 0.004595 -0.021989 -600937.000000 0 0 1
31.252536 -28.392720 26.663143 49.937869 -0.737488 1.007559 -0.005656 -0.018549 119914.000000 0 0 1
29.919636 -28.047120 26.317143 48.727996 -0.753106 1.000261 0.003040 -0.012251 146731.000000 0 0 1
29.497436 -28.977020 25.301503 48.476102 -0.776499 1.021675 -0.001857 -0.005673 822930.000000 0 0 1
28.160036 -28.653820 24.511163 47.061939 -0.794089 1.022976 0.000716 -0.000823 1472380.000000 0 0 1
27.015736 -28.752120 25.370463 46.906234 -0.816524 0.999318 0.001760 -0.003732 1152440.000000 0 0 1
25.803136 -28.320620 24.723953 45.597513 -0.831878 0.997718 0.004619 0.001715 473583.000000 0 0 1
24.565336 -28.142120 25.567613 45.267400 -0.853155 0.970590 0.018186 -0.004215 -613602.000000 0 0 1
24.673936 -27.085220 26.524783 45.232470 -0.831951 0.944176 0.010359 -0.006717 209771.000000 0 0 1
23.553236 -27.040620 27.413343 45.138026 -0.854218 0.918110 0.014542 -0.013079 74985.100000 0 0 1
23.543836 -25.835120 28.381103 45.025022 -0.831767 0.888804 0.011888 -0.001966 -163147.000000 0 0 1
22.469436 -25.756820 29.311393 45.027181 -0.853459 0.861933 0.034157 -0.006110 224260.000000 0 0 1
22.361836 -24.545320 30.096713 44.814468 -0.831914 0.834451 0.026848 -0.004924 -608166.000000 0 0 1
21.731936 -23.281720 29.463363 43.386695 -0.819814 0.824277 0.031596 -0.006608 -352929.000000 0 0 1
22.540536 -22.708420 28.455113 42.818705 -0.789108 0.843907 0.040157 -0.011278 314607.000000 0 0 1
22.075136 -21.417520 28.076663 41.645177 -0.770279 0.830932 0.045603 -0.004363 131854.000000 0 0 1
22.676236 -20.183920 28.869343 41.893212 -0.727314 0.810526 0.041379 -0.004381 78675.700000 0 0 1
22.374536 -20.093720 30.251163 42.655718 -0.731743 0.782443 0.038180 0.004008 628479.000000 0 0 1
23.344336 -19.262320 30.928283 43.273013 -0.689883 0.774566 0.051635 -0.000619 402578.000000 0 0 1
22.964036 -18.813020 32.382553 43.930700 -0.686362 0.741986 0.072779 -0.009890 -145431.000000 0 0 1
22.847836 -19.891720 33.325800 45.036797 -0.716342 0.737773 0.033456 -0.002060 506026.000000 0 0 1
22.248536 -19.596620 -34.128151 45.207914 -0.722108 2.426321 0.034774 0.000223 -230958.000000 0 0 1
22.060036 -20.745420 -33.119850 44.876966 -0.754696 2.400919 0.020818 0.005557 166507.000000 0 0 1
23.257436 -21.231120 -32.510000 45.261119 -0.739883 2.372118 0.017746 0.008948 396581.000000 0 0 1
23.006736 -22.364820 -31.753820 45.142000 -0.771251 2.350995 0.005197 0.010879 -380318.000000 0 0 1
24.073936 -22.536320 -30.670460 45.034622 -0.752421 2.319981 -0.012025 0.006693 108775.000000 0 0 1
25.267936 -23.084620 -31.196260 46.309555 -0.740275 2.309928 0.005203 0.004723 49345.700000 0 0 1
26.159136 -23.552420 -30.172740 46.361742 -0.733009 2.279449 -0.000411 -0.000180 -63709.400000 0 0 1
27.305836 -24.426420 -30.680160 47.786304 -0.729796 2.267937 0.002576 0.006813 -327579.000000 0 0 1
28.246336 -23.671920 -31.436250 48.440201 -0.697517 2.277027 0.020738 0.000952 71686.800000 0 0 1
28.006836 -23.664720 -32.849910 49.229243 -0.701562 2.301353 0.019756 -0.000463 -246265.000000 0 0 1
28.594536 -24.886520 -33.570370 50.635522 -0.716176 2.295589 0.016080 -0.011899 -7868.970000 0 0 1
27.882936 -26.081820 -33.230020 50.615745 -0.752035 2.286986 0.013589 -0.010389 102876.000000 0 0 1
28.328436 -27.248020 -33.855710 51.876430 -0.765960 2.281836 0.013434 -0.014631 -126410.000000 0 0 1
27.868236 -27.407820 33.414983 51.423616 -0.777069 0.863477 0.007532 -0.008730 -221312.000000 0 0 1
28.336436 -26.399720 32.537563 50.582525 -0.750030 0.872052 -0.002975 -0.012632 169837.000000 0 0 1
27.879436 -26.601220 31.170913 49.563229 -0.761941 0.890643 0.000076 -0.008017 217151.000000 0 0 1
28.818136 -25.865220 30.115553 49.055490 -0.731450 0.909795 -0.000562 -0.016404 105086.000000 0 0 1
28.917536 -24.408720 30.024253 48.305954 -0.701047 0.900085 0.000974 -0.013099 194137.000000 0 0 1
29.221936 -23.728320 31.255363 48.927011 -0.682018 0.877838 -0.001235 -0.003954 -1887090.000000 0 0 1
29.756736 -22.312620 31.078893 48.468690 -0.643395 0.874715 0.009299 -0.008063 -149635.000000 0 0 1
31.033236 -22.183820 30.514833 48.850165 -0.620617 0.896098 0.009938 -0.007582 220632.000000 0 0 1
32.059436 -22.732120 31.358083 50.278087 -0.616782 0.897338 0.008746 -0.011606 -84653.000000 0 0 1
33.556836 -22.370520 31.009763 50.873439 -0.587988 0.915307 0.006762 -0.022018 950691.000000 0 0 1
33.985136 -22.961220 29.784323 50.688391 -0.594179 0.942711 0.014621 -0.022508 75276.800000 0 0 1
35.111036 -22.249420 29.324533 50.869930 -0.564822 0.956405 0.006025 -0.025828 -91652.800000 0 0 1
35.527636 -22.620920 27.891983 50.516152 -0.566978 0.985868 0.009397 -0.022356 -119427.000000 0 0 1
-35.535739 -23.911220 27.686993 51.001027 0.592291 0.996944 0.008484 -0.015585 275536.000000 0 0 1
-34.923039 -24.124120 26.455913 50.015069 0.604511 1.013423 0.002315 -0.002367 -525930.000000 0 0 1
-34.778639 -25.615020 26.061043 50.446614 0.634815 1.027914 0.002834 -0.012560 -352205.000000 0 0 1
35.571036 -26.213320 25.887663 51.211403 -0.635083 1.040828 0.010756 -0.014927 -80668.800000 0 0 1
35.555936 -27.551520 25.525233 51.718936 -0.659234 1.054644 0.006288 -0.004941 51026.700000 0 0 1
-35.562339 -28.574320 26.607813 52.812379 0.676871 1.042784 0.014876 -0.009647 -698974.000000 0 0 1
-35.506939 -29.953620 26.127953 53.297579 0.700766 1.058445 0.018328 -0.009258 1364440.000000 0 0 1
-34.362039 -30.730420 26.633453 53.239546 0.729664 1.046901 0.026367 -0.010373 2684470.000000 0 0 1
-32.891939 -30.160020 26.380403 51.840448 0.742097 1.036917 0.027157 -0.007384 474121.000000 0 0 1
-32.468739 -30.129120 25.048713 50.886353 0.748040 1.056126 0.020710 -0.006925 -247805.000000 0 0 1
-31.216739 -29.486320 25.045143 49.711035 0.756900 1.042787 0.010046 -0.007800 -202985.000000 0 0 1
-30.666539 -29.449820 23.612683 48.634219 0.765162 1.063843 0.005945 -0.002896 -420651.000000 0 0 1
-30.484139 -30.720120 23.082983 49.049287 0.789254 1.080817 0.014498 -0.007837 404001.000000 0 0 1
-29.940339 -30.669420 21.792683 48.082827 0.797427 1.100408 0.015811 -0.009024 -1069530.000000 0 0 1
-30.110539 -31.969120 20.991183 48.675445 0.815328 1.124921 0.022438 -0.003787 -103946.000000 0 0 1
-29.202739 -33.032620 21.183583 48.915213 0.846859 1.122903 0.038087 -0.017350 367078.000000 0 0 1
-27.831739 -32.693620 21.029183 47.809047 0.865554 1.115356 0.050837 -0.016008 -312651.000000 0 0 1
-26.861439 -33.873420 21.152683 48.128801 0.900342 1.115753 0.048146 -0.006022 -357057.000000 0 0 1
-26.800639 33.911097 20.080583 47.659905 -0.901985 1.135884 0.041111 -0.008643 338367.000000 0 0 1
-27.933439 33.042297 20.018683 47.674082 -0.868988 1.137453 0.041751 -0.008005 421701.000000 0 0 1
-28.158139 31.979297 21.092283 47.544091 -0.848853 1.111144 0.045138 -0.002640 -31412.900000 0 0 1
-27.505939 30.787497 20.728683 46.196590 -0.841633 1.105480 0.039052 -0.004994 -52321.800000 0 0 1
-27.385739 29.830697 21.779783 45.980519 -0.828104 1.077338 0.042335 -0.005600 245504.000000 0 0 1
-26.341139 28.675597 21.467083 44.463256 -0.827805 1.066941 0.034398 -0.007433 182871.000000 0 0 1
-25.015139 29.140497 21.435283 43.981781 -0.861427 1.061724 0.033926 -0.003398 -538252.000000 0 0 1
-24.188839 28.096997 20.993983 42.606202 -0.860005 1.055555 0.022762 -0.010141 180775.000000 0 0 1
-22.691439 28.424397 21.262283 42.129947 -0.897088 1.041781 0.015260 -0.009982 122068.000000 0 0 1
-22.250339 28.500397 22.580983 42.629227 -0.907933 1.012542 0.018947 -0.005444 1054380.000000 0 0 1
-20.901739 28.985997 22.714983 42.344317 -0.946051 1.004589 0.038836 -0.006317 744292.000000 0 0 1
-20.332939 28.975597 24.166753 42.860770 -0.958913 0.971764 0.035460 -0.004640 -507771.000000 0 0 1
-20.207339 27.674297 24.788173 42.292514 -0.940098 0.944544 0.043748 -0.006026 316854.000000 0 0 1
-20.014039 27.767597 26.185233 43.096028 -0.946267 0.917758 0.043109 -0.008322 378014.000000 0 0 1
-18.560239 28.119897 26.660243 42.964865 -0.987396 0.901400 0.058032 -0.001750 14664.300000 0 0 1
-18.075639 29.389397 26.246713 43.351532 -1.019392 0.920479 0.032668 -0.006016 677751.000000 0 0 1
-16.763739 29.693697 26.748973 43.338737 -1.056847 0.905608 0.040580 -0.002039 540902.000000 0 0 1
-16.589939 29.937697 28.285073 44.401995 -1.064773 0.880167 0.039997 0.006787 -558840.000000 0 0 1
-16.705539 28.759197 29.099943 44.192455 -1.044557 0.851996 0.055113 0.002253 260168.000000 0 0 1
-16.695739 29.082397 30.489863 45.322900 -1.049651 0.832910 0.054554 0.010546 -119985.000000 0 0 1
-16.497739 27.898697 31.433813 45.150828 -1.036766 0.800712 0.061312 0.003683 -785873.000000 0 0 1
-15.220839 27.352697 31.417083 44.349488 -1.063003 0.783571 0.062934 0.008216 -377882.000000 0 0 1
-15.000639 26.253197 32.353643 44.283267 -1.051684 0.751587 0.067832 0.003353 -62933.900000 0 0 1
-15.130639 26.468497 33.868192 45.569419 -1.051486 0.732923 0.075021 -0.000048 415377.000000 0 0 1
-16.500139 26.408197 34.261240 46.297732 -1.012333 0.737696 0.084369 -0.002757 135636.000000 0 0 1
-16.805839 27.118397 -33.320340 46.131212 -1.016002 2.377911 0.082511 -0.004447 393951.000000 0 0 1
-18.223039 26.713497 -32.828730 46.080534 -0.972140 2.363738 0.060762 -0.006463 -125615.000000 0 0 1
-19.245439 26.800997 -33.755580 47.202961 -0.948035 2.367586 0.041864 -0.005719 417324.000000 0 0 1
-20.403239 26.065297 -33.245290 46.914189 -0.906648 2.358366 0.046026 -0.008667 1706000.000000 0 0 1
-21.710139 26.115597 -34.122011 48.142145 -0.877254 2.358558 0.048260 -0.014661 239894.000000 0 0 1
-21.566639 25.456697 33.344291 47.169959 -0.867936 0.785695 0.041200 -0.013272 -83578.500000 0 0 1
-21.847539 24.122897 33.408642 46.640824 -0.834854 0.772317 0.029424 -0.013493 -203557.000000 0 0 1
-22.338439 23.516397 32.035123 45.588111 -0.811081 0.791600 0.027254 -0.005997 209628.000000 0 0 1
-23.743339 23.508897 31.879323 46.181226 -0.780437 0.808880 0.022141 -0.008661 -159709.000000 0 0 1
-23.954439 23.155097 30.513963 45.178264 -0.768432 0.829272 0.032939 -0.002915 -634949.000000 0 0 1
-25.351139 22.648097 30.263213 45.513499 -0.729143 0.843399 0.030392 -0.006378 -720873.000000 0 0 1
-25.560039 21.374297 30.895083 45.438775 -0.696451 0.823132 0.025538 -0.005629 -39582.400000 0 0 1
-26.779739 20.824497 30.460253 45.592116 -0.660946 0.839139 0.035031 -0.009862 -285575.000000 0 0 1
-27.221339 19.495897 31.023623 45.645991 -0.621515 0.823501 0.049040 -0.013145 -330099.000000 0 0 1
-27.778639 19.534197 32.360503 46.908845 -0.612877 0.809502 0.054387 -0.007589 226827.000000 0 0 1
-28.093739 18.233097 32.874120 46.929860 -0.575678 0.794706 0.042802 -0.000961 277020.000000 0 0 1
-29.014739 17.215197 32.131103 46.589976 -0.535498 0.809781 0.028166 -0.005814 113745.000000 0 0 1
-30.390239 17.540697 32.055173 47.526590 -0.523473 0.830552 0.027094 -0.008914 306280.000000 0 0 1
-31.106339 16.460297 31.410033 47.171346 -0.486704 0.842136 0.023709 0.000067 761408.000000 0 0 1
-32.653639 16.662997 31.476483 48.318574 -0.471850 0.861320 0.012390 -0.000316 263513.000000 0 0 1
-33.099039 16.436797 32.770317 49.392391 -0.460919 0.845351 0.020108 -0.003468 443228.000000 0 0 1
-34.497439 16.683997 32.878300 50.491699 -0.450466 0.861681 0.024459 -0.011523 197322.000000 0 0 1
-34.944239 17.117497 34.268725 51.850304 -0.455496 0.848757 0.032314 -0.010513 -412157.000000 0 0 1
35.263736 17.225497 34.361962 52.163140 0.454386 0.851653 0.021924 -0.016539 -230838.000000 0 0 1
34.932436 17.788397 -33.143510 51.334144 0.470999 2.272661 0.015351 -0.017328 16073.200000 0 0 1
33.409036 17.986297 -33.023760 50.301484 0.493868 2.286988 0.016293 -0.017481 -177429.000000 0 0 1
32.722236 16.780597 -32.884460 49.332756 0.473850 2.300414 0.023931 -0.007456 1251990.000000 0 0 1
31.370536 17.035897 -32.356830 48.179837 0.497495 2.307142 0.023399 -0.005587 1417130.000000 0 0 1
30.490736 15.784897 -32.580100 47.331922 0.477703 2.329984 0.022720 0.001537 -234444.000000 0 0 1
30.139436 15.560097 -33.951350 47.991628 0.476579 2.356670 0.027343 -0.012300 394472.000000 0 0 1
29.367736 14.354097 -34.167213 47.285330 0.454624 2.378317 0.025229 -0.014581 462923.000000 0 0 1
30.257636 13.094397 34.352616 47.613968 0.408428 0.764856 0.031696 -0.008344 -49603.300000 0 0 1
30.829736 12.664397 -33.171170 47.023250 0.389769 2.353813 0.032453 -0.000443 266181.000000 0 0 1
31.788136 11.635297 -33.435790 47.579594 0.350880 2.350029 0.031327 0.001112 19297.500000 0 0 1
16.764736 -21.019303 10.402560 28.828470 -0.897528 1.201624 0.011993 -0.026683 -540220.000000 0 0 1
16.692136 -22.265403 10.945660 29.902893 -0.927494 1.196046 0.034233 -0.031344 505876.000000 0 0 1
18.002236 -22.840403 11.029160 31.103165 -0.903307 1.208311 0.021669 -0.025551 366874.000000 0 0 1
18.092536 -24.156803 11.852060 32.424717 -0.927960 1.196599 0.041285 -0.025543 27427.100000 0 0 1
17.400836 -25.316143 11.390260 32.763306 -0.968617 1.215730 0.036798 -0.025948 -786346.000000 0 0 1
16.052936 -25.360803 11.683660 32.208306 -1.006478 1.199576 0.048085 -0.023192 -1121470.000000 0 0 1
15.227736 -26.221613 10.743760 32.169633 -1.044665 1.230282 0.057892 -0.011497 -253192.000000 0 0 1
15.173836 -25.888583 9.393660 31.443677 -1.040645 1.267418 0.053687 -0.023918 -29498.300000 0 0 1
14.313336 -26.704123 8.656260 31.510515 -1.078767 1.292508 0.056449 -0.011962 -266090.000000 0 0 1
13.985936 -26.224753 7.234460 30.588911 -1.080857 1.332028 0.063225 -0.019107 -71545.600000 0 0 1
13.330136 -24.963803 7.247360 29.213151 -1.080337 1.320093 0.070183 -0.030045 71749.200000 0 0 1
13.041336 -24.460103 5.952360 28.351431 -1.080968 1.359273 0.062985 -0.010301 -89885.600000 0 0 1
12.309036 -23.138103 6.057460 26.899386 -1.081892 1.343659 0.064103 -0.011950 -381308.000000 0 0 1
11.706536 -22.631303 4.905360 25.947666 -1.093427 1.380604 0.062700 -0.010856 21314.900000 0 0 1
10.984336 -21.460803 5.284260 24.680865 -1.097728 1.355022 0.061733 -0.008828 -8157.500000 0 1 0
10.204436 -20.922203 4.069960 23.631201 -1.117011 1.397705 0.039791 -0.004027 29857.000000 0 1 0
11.063936 -20.263803 3.140860 23.300158 -1.071033 1.435585 0.027960 -0.001912 544700.000000 0 1 0
10.290636 -19.670203 2.035660 22.292554 -1.088794 1.479353 0.016545 0.009414 221790.000000 0 1 0
11.043536 -19.272803 0.751860 22.225343 -1.050458 1.536961 0.010761 0.011797 -388494.000000 0 1 0
11.781936 -18.107903 0.907960 21.622547 -0.993963 1.528793 0.011966 0.007241 -492781.000000 0 1 0
12.491936 -17.845903 -0.299340 21.785644 -0.960078 1.584537 0.021896 0.006610 -439691.000000 0 1 0
13.637136 -16.864103 0.018260 21.688010 -0.890804 1.569954 0.020849 0.012372 -538137.000000 0 1 0
14.541136 -17.447403 0.894460 22.730080 -0.876003 1.531435 0.020243 -0.003175 -72243.000000 0 1 0
15.768436 -16.720803 1.017960 23.005761 -0.814703 1.526534 0.020680 -0.011514 555923.000000 0 1 0
16.912236 -17.488703 1.677560 24.386321 -0.802154 1.501951 0.008083 0.001252 -212535.000000 0 1 0
17.375136 -18.585703 0.911060 25.458863 -0.819049 1.535003 0.017307 0.001437 -123082.000000 0 0 1
18.642436 -19.031303 1.325760 26.673742 -0.795720 1.521073 0.020155 0.006280 146561.000000 0 0 1
18.920736 -20.411903 0.639060 27.839691 -0.823292 1.547839 0.002523 0.008488 204589.000000 0 0 1
18.243336 -21.508603 1.296560 28.233320 -0.867355 1.524857 0.013146 0.011178 255132.000000 0 0 1
18.378936 -22.681703 0.587660 29.199148 -0.889808 1.550669 0.017657 0.010836 -588031.000000 0 0 1
17.374836 -23.713503 1.033760 29.415706 -0.938461 1.535646 0.022181 0.010061 -366502.000000 0 0 1
17.608136 -24.209403 2.362660 30.028716 -0.941965 1.492035 0.020129 0.011086 715837.000000 0 0 1
16.473036 -25.023103 2.713960 30.081259 -0.988599 1.480453 0.028972 0.011619 452790.000000 0 0 1
16.763236 -25.910893 3.949160 31.112317 -0.996563 1.443521 0.043549 -0.003560 275524.000000 0 0 1
17.666636 -26.998283 3.892860 32.498794 -0.991361 1.450723 0.042133 0.000543 1354840.000000 0 0 1
19.068636 -26.602573 3.949960 32.968347 -0.948886 1.450697 0.045854 0.009718 1123990.000000 0 0 1
20.090836 -27.759393 3.891860 34.487275 -0.944309 1.457706 0.054456 0.004896 9360.340000 0 0 1
20.290836 -28.323163 2.602160 34.938386 -0.949145 1.496249 0.034636 0.009605 -45840.300000 0 0 1
21.055336 -29.549373 2.671160 36.381694 -0.951699 1.497310 0.034508 0.010626 329056.000000 0 0 1
20.321836 -30.876293 3.109660 37.094372 -0.988699 1.486867 0.044291 0.003843 187195.000000 0 0 1
20.244236 -30.905883 4.506760 37.219800 -0.990894 1.449413 0.063120 0.002546 -26787.800000 0 0 1
19.426136 -31.998913 4.921760 37.756177 -1.025182 1.440068 0.059841 -0.011626 -90678.200000 0 0 1
19.347236 -32.257223 6.429260 38.159918 -1.030539 1.401507 0.064615 -0.018099 646112.000000 0 0 1
20.532536 -32.841753 7.005260 39.360379 -1.012056 1.391866 0.054637 -0.036142 781270.000000 0 0 1
20.159936 -33.526823 8.162460 39.963691 -1.029416 1.365102 0.047778 -0.030739 -2718.120000 0 0 1
21.289936 34.337930 8.674260 41.323088 1.015792 1.359310 0.058966 -0.029518 -158735.000000 0 0 1
22.382536 -33.707773 9.172660 41.488909 -0.984630 1.347867 0.074460 -0.029508 237929.000000 0 0 1
23.445636 34.208382 9.666660 42.583513 0.969952 1.341795 0.091420 -0.031138 173377.000000 0 0 1
24.476036 -33.771063 10.433560 42.993257 -0.943643 1.325670 0.081582 -0.021308 -755605.000000 0 0 1
25.201436 -32.822213 9.695960 42.502019 -0.915990 1.340640 0.062134 -0.019799 -31777.500000 0 0 1
25.786336 -31.915073 10.616060 42.381691 -0.891216 1.317613 0.044788 -0.006458 -31932.000000 0 0 1
26.459336 -30.774553 9.832460 41.759392 -0.860652 1.333110 0.039250 -0.011242 -62750.600000 0 0 1
25.537436 -29.787423 9.314760 40.326368 -0.862066 1.337707 0.039196 -0.012546 398903.000000 0 0 1
26.035836 -29.001853 8.228260 39.833108 -0.839237 1.362730 0.037728 -0.010823 -305388.000000 0 0 1
25.741136 -27.481523 8.388460 38.577278 -0.818087 1.351600 0.028368 0.000996 132231.000000 0 0 1
26.441236 -26.988183 9.549560 38.970438 -0.795635 1.323229 0.023755 -0.009015 179404.000000 0 0 1
26.182336 -25.605533 9.608360 37.861307 -0.774261 1.314212 0.031699 -0.013493 -132999.000000 0 0 1
27.197036 -24.911703 10.539560 38.358233 -0.741569 1.292449 0.047012 -0.024493 880639.000000 0 0 1
28.553536 -25.113213 10.095160 39.343235 -0.721380 1.311302 0.012311 -0.011665 638464.000000 0 0 1
29.399836 -24.119003 10.714160 39.507845 -0.687044 1.296166 0.036579 -0.019735 527889.000000 0 0 1
30.634236 -23.833003 9.837560 40.040554 -0.661173 1.322565 0.042074 -0.019619 155534.000000 0 0 1
30.289736 -22.895203 8.826660 38.981641 -0.647249 1.342384 0.025702 -0.017172 162575.000000 0 0 1
31.360436 -22.716303 7.892060 39.519513 -0.626890 1.369744 0.034278 -0.020089 -235403.000000 0 0 1
31.078036 -21.772203 6.692260 38.531279 -0.611105 1.396227 0.041811 -0.011805 -482748.000000 0 0 1
30.935936 -20.417103 7.119260 37.743530 -0.583359 1.381038 0.041644 -0.009605 -150113.000000 0 0 1
30.821136 -19.515403 6.020560 36.973511 -0.564462 1.407234 0.033189 -0.011506 -202296.000000 0 0 1
30.464736 -18.147903 6.541960 36.058893 -0.537253 1.388362 0.048177 -0.018799 420426.000000 0 0 1
31.494336 -17.497803 7.308060 36.762400 -0.507122 1.370671 0.057379 -0.020735 469641.000000 0 0 1
31.087236 -16.177403 7.508160 35.839881 -0.479824 1.359741 0.062161 -0.018759 47567.500000 0 0 1
31.486936 -15.624703 8.859060 36.249709 -0.460626 1.323906 0.063389 -0.029106 856875.000000 0 0 1
32.895736 -15.323603 8.857160 37.354940 -0.435934 1.331408 0.062307 -0.020601 872095.000000 0 0 1
33.484036 -15.087403 10.151960 38.103447 -0.423340 1.301107 0.063954 -0.029271 -236138.000000 0 0 1
35.004236 -15.144503 10.094360 39.453119 -0.408330 1.312062 0.061529 -0.035197 -508171.000000 0 0 1
35.616736 -14.146603 9.262760 39.426856 -0.378081 1.333644 0.072191 -0.028638 496063.000000 0 0 1
-34.660739 -14.612103 9.018460 38.680912 0.398966 1.335480 0.071887 -0.027408 991963.000000 0 0 1
-33.756139 -13.682503 8.147060 37.323751 0.385096 1.350744 0.076275 -0.021098 -42490.500000 0 0 1
-34.244939 -13.582103 6.837060 37.469117 0.377586 1.387296 0.076434 -0.021381 -319556.000000 0 0 1
-33.318539 -12.958803 6.013360 36.252118 0.370933 1.404150 0.061115 -0.012772 -180024.000000 0 0 1
-32.161939 -13.810403 5.420960 35.418983 0.405593 1.417140 0.048043 -0.010261 -186652.000000 0 0 1
-31.238139 -14.194803 6.390860 34.902103 0.426512 1.386649 0.048220 -0.009066 -814292.000000 0 0 1
-30.370439 -15.153003 5.944560 34.457435 0.462799 1.397410 0.039431 -0.002079 -421779.000000 0 0 1
-29.784839 -15.891403 7.159860 34.509953 0.490118 1.361806 0.030336 -0.007610 -277448.000000 0 0 1
-30.732239 -16.798903 7.620660 35.843383 0.500246 1.356551 0.036348 -0.016780 -142197.000000 0 0 1
-30.398339 -17.237803 8.910360 36.063768 0.515850 1.321139 0.023102 -0.010891 -190343.000000 0 0 1
-31.515839 -18.026603 9.613060 37.558187 0.519566 1.311965 -0.000579 -0.014407 -1191920.000000 0 0 1
-32.665639 -17.247403 9.735260 38.200682 0.485795 1.313109 0.027983 -0.018176 642458.000000 0 0 1
-33.742839 -17.794403 10.571660 39.585097 0.485290 1.300454 0.055719 -0.026522 1448350.000000 0 0 1
-34.363039 -19.241103 10.207960 40.684652 0.510440 1.317182 0.054086 -0.024626 -341062.000000 0 0 1
-33.458939 -20.340103 10.404960 40.515226 0.546217 1.311070 0.047822 -0.014549 -119407.000000 0 0 1
-33.225139 -20.668503 11.749360 40.855162 0.556493 1.279091 0.038572 -0.029159 -201135.000000 0 0 1
-34.297639 -21.498403 12.489660 42.361550 0.559906 1.271514 0.034041 -0.035996 -22033.300000 0 0 1
-34.419739 -22.900303 12.234060 43.113971 0.587073 1.283082 0.052757 -0.038349 -86694.100000 0 0 1
-35.513239 -23.158803 11.379960 43.897879 0.577862 1.308564 0.051307 -0.026243 -73266.700000 0 0 1
-35.799439 -24.631503 11.430060 44.932805 0.602655 1.313589 0.045596 -0.018766 -45305.900000 0 0 1
35.375336 -25.052293 12.737060 45.180355 -0.616198 1.285006 0.080187 -0.015420 272458.000000 0 0 1
34.667336 -26.296753 12.710060 45.330883 -0.648948 1.286602 0.047946 -0.004501 44392.800000 0 0 1
33.700836 -26.399863 13.906460 45.012095 -0.664511 1.256708 0.053408 -0.009649 -189819.000000 0 0 1
32.651336 -25.470733 13.763360 43.638263 -0.662478 1.249922 0.039478 -0.007861 -168572.000000 0 0 1
31.828236 -25.460023 14.941660 43.410858 -0.674692 1.219418 0.030555 0.005831 -330263.000000 0 0 1
31.629336 -24.045503 15.532460 42.659798 -0.650015 1.198129 0.060114 -0.002919 -624502.000000 0 0 1
32.718936 -23.320203 16.029160 43.258463 -0.619227 1.191202 0.064952 -0.012660 -292920.000000 0 0 1
33.581936 -22.829403 14.973960 43.279874 -0.597048 1.217513 0.054687 -0.015628 241626.000000 0 0 1
34.765036 -22.064703 15.608060 44.034877 -0.565531 1.208473 0.047218 -0.014050 -111693.000000 0 0 1
34.505736 -20.707403 15.964460 43.293259 -0.540504 1.193131 0.057187 -0.007618 428207.000000 0 0 1
33.656736 -20.504903 17.110560 42.965081 -0.547183 1.161195 0.060429 -0.012396 390222.000000 0 0 1
33.939736 -19.172103 17.815660 42.858756 -0.514201 1.142103 0.051044 -0.008017 -369117.000000 0 0 1
33.702836 -18.072903 17.000060 41.851081 -0.492220 1.152501 0.053792 -0.018317 185130.000000 0 0 1
33.588736 -16.801203 17.576860 41.466005 -0.463810 1.133065 0.051063 -0.018647 113367.000000 0 0 1
34.907836 -16.103303 18.038060 42.464632 -0.432219 1.132079 0.040327 -0.016878 132336.000000 0 0 1
35.372836 -16.658503 19.277660 43.593249 -0.440131 1.112728 0.031162 -0.004220 449385.000000 0 0 1
-35.254439 -15.761103 19.805760 43.399953 0.420412 1.096903 0.005819 -0.000776 145194.000000 0 0 1
-34.991539 -15.886603 21.330660 43.952122 0.426186 1.064072 0.005604 0.001787 -108771.000000 0 0 1
-34.273639 -17.006803 21.819960 44.045707 0.460608 1.052508 0.001130 0.009163 256480.000000 0 0 1
-33.872839 -16.846503 23.168460 44.361598 0.461522 1.021293 0.003069 0.007631 168816.000000 0 0 1
-32.864739 -17.967203 23.572060 44.255547 0.500307 1.009085 -0.004985 0.016655 -483432.000000 0 0 1
-33.405539 -19.273203 23.583060 45.205609 0.523296 1.021972 -0.004932 0.016931 690371.000000 0 0 1
-32.475439 -20.272103 24.060360 45.216293 0.558045 1.009697 -0.020376 0.020832 957152.000000 0 0 1
-31.271639 -20.655803 23.117560 44.034068 0.583741 1.018090 -0.022967 0.029358 311161.000000 0 0 1
-30.351139 -19.675003 22.773760 42.742736 0.575141 1.008879 -0.017427 0.036681 909524.000000 0 0 1
-29.126439 -20.291903 22.270760 41.905817 0.608497 1.010487 -0.018232 0.026947 1215460.000000 0 0 1
-27.847739 -19.433503 22.387260 40.673665 0.609281 0.987939 0.000014 0.034244 -35819.100000 0 0 1
-27.615339 -19.238503 23.793960 41.217465 0.608481 0.955404 0.006709 0.030336 -442365.000000 0 0 1
-26.574539 -18.348503 23.873460 40.159877 0.604291 0.934202 0.028195 0.024846 -1033620.000000 0 0 1
-26.157839 -17.984903 25.300060 40.592885 0.602323 0.897887 0.026687 0.012186 -384389.000000 0 0 1
-25.275239 -16.830603 25.358760 39.562275 0.587467 0.875018 0.023830 0.007770 608622.000000 0 0 1
-24.854139 -16.559703 26.683360 40.049390 0.587732 0.841612 0.018987 0.001563 558973.000000 0 0 1
-23.697939 -17.375903 27.366160 40.154963 0.632678 0.820967 0.023059 0.002162 -333202.000000 0 0 1
-24.059939 -18.758003 27.525360 41.090008 0.662200 0.836750 0.032624 0.003208 -82832.100000 0 0 1
-23.176439 -19.380503 28.428660 41.484213 0.696437 0.815796 0.037891 -0.008170 -434589.000000 0 0 1
-23.708039 -20.661403 29.022060 42.793044 0.716841 0.825492 0.029707 0.003035 343086.000000 0 0 1
-24.755839 -20.342203 29.975560 43.876998 0.687841 0.818698 0.027643 -0.009408 730390.000000 0 0 1
-25.224139 -21.510303 30.644060 45.144310 0.706098 0.824666 0.022021 -0.003708 -370290.000000 0 0 1
-26.488839 -21.235103 31.476060 46.296118 0.675754 0.823190 0.031234 -0.012858 -739565.000000 0 0 1
-26.221039 -20.454103 32.673360 46.620400 0.662466 0.794224 0.034920 -0.017843 404529.000000 0 0 1
-27.343739 -20.368203 33.521560 47.814629 0.640226 0.793895 0.027053 -0.015844 -107735.000000 0 0 1
-28.514139 -19.462303 33.100060 47.827307 0.598918 0.806437 0.030384 -0.015046 -510488.000000 0 0 1
-29.187239 -19.878703 31.946460 47.619681 0.597911 0.835419 0.034367 -0.020340 387209.000000 0 0 1
-30.588739 -19.764403 32.182160 48.600350 0.573652 0.847073 0.028274 -0.022735 -186522.000000 0 0 1
-31.519139 -20.376203 31.184460 48.796683 0.573890 0.877509 0.022595 -0.004868 -870242.000000 0 0 1
-31.791339 -19.604903 30.073060 47.952376 0.552590 0.892915 0.016857 -0.014204 595747.000000 0 0 1
-32.752239 -20.224903 29.213860 48.323964 0.553197 0.921606 0.010107 -0.013464 212509.000000 0 0 1
-33.169639 -19.403103 28.016160 47.556393 0.529292 0.940834 0.005220 -0.006808 -418529.000000 0 0 1
-34.332639 -19.915803 27.432360 48.248354 0.525646 0.966035 -0.004322 -0.007335 -116571.000000 0 0 1
-34.780339 -18.935303 26.532860 47.667707 0.498553 0.980483 0.005890 0.001494 -207961.000000 0 0 1
35.492636 -19.278503 25.824060 47.940275 -0.497584 1.001937 -0.000625 0.001643 228083.000000 0 0 1
34.401436 -19.526603 26.713460 47.732127 -0.516263 0.976828 0.009511 -0.011852 314397.000000 0 0 1
33.387836 -20.109803 25.914660 46.805142 -0.542116 0.984030 0.050336 -0.022455 555675.000000 0 0 1
31.963836 -20.207703 26.576760 46.220799 -0.563764 0.958197 0.043030 -0.026232 464233.000000 0 0 1
31.305936 -18.997103 26.777060 45.364771 -0.545420 0.939414 0.034450 -0.035065 -303637.000000 0 0 1
30.071236 -19.300703 27.350660 44.998388 -0.570612 0.917491 0.032724 -0.026573 -751890.000000 0 0 1
-29.044464 -5.721503 33.885158 44.994671 0.194501 0.718046 0.017026 -0.012721 -205236.000000 0 0 1
-29.980924 -5.425203 32.885369 44.830080 0.179018 0.747257 0.022640 -0.003386 273776.000000 0 0 1
-29.572144 -4.313403 32.146693 43.892220 0.144839 0.748955 0.035708 -0.009356 215057.000000 0 0 1
-30.373954 -4.241503 30.779013 43.450145 0.138746 0.783602 0.020491 -0.009314 513007.000000 0 0 1
-29.977094 -5.252003 29.863393 42.638386 0.173440 0.794856 0.031397 -0.009389 153476.000000 0 0 1
-28.768614 -4.971903 29.175453 41.274205 0.171133 0.785735 0.021045 -0.011203 243962.000000 0 0 1
-28.417454 -6.065203 28.217503 40.503899 0.210277 0.800063 0.015332 -0.006572 -332733.000000 0 0 1
-29.348764 -5.991303 27.185353 40.451070 0.201375 0.833816 0.026856 0.004121 -89780.200000 0 0 1
-29.058034 -6.893803 26.147783 39.693833 0.232936 0.851658 0.037876 0.003955 87870.600000 0 0 1
-29.845944 -6.559703 24.858563 39.392363 0.216346 0.887890 0.025130 0.006800 -293220.000000 0 0 1
-29.300494 -5.554003 24.134453 38.364537 0.187331 0.890424 0.034407 0.009480 -178363.000000 0 0 1
-30.113714 -5.136603 23.044383 38.265703 0.168948 0.924517 0.038045 0.007961 154588.000000 0 0 1
-29.638874 -3.786203 22.388483 37.336877 0.127056 0.927752 0.030994 0.005987 654784.000000 0 0 1
-28.404694 -3.822103 21.671583 35.931777 0.133755 0.923375 0.038012 0.007494 371761.000000 0 0 1
-27.960254 -2.579003 21.154783 35.156108 0.091978 0.925120 0.045609 0.008314 -171990.000000 0 0 1
-26.560404 -2.555903 20.541883 33.674273 0.095934 0.914714 0.034400 0.009610 -385596.000000 0 0 1
-26.397264 -3.291903 19.392483 32.919911 0.124066 0.940876 0.046601 0.000336 -1096440.000000 0 0 1
-25.146144 -3.075903 18.868583 31.588181 0.121716 0.930628 0.041507 -0.000052 -1093930.000000 0 0 1
-24.943764 -3.968503 17.626283 30.799776 0.157776 0.961505 0.051106 -0.003132 640196.000000 0 0 1
-25.919094 -3.624903 16.596983 30.990308 0.138953 1.005633 0.043521 -0.001314 941615.000000 0 0 1
-25.469654 -4.182703 15.363783 30.037379 0.162770 1.033880 0.053072 -0.008762 -339356.000000 0 0 1
-26.583854 -4.305103 14.335783 30.508194 0.160550 1.081619 0.061363 -0.012886 -249706.000000 0 0 1
-26.941424 -3.034103 13.787283 30.416037 0.112146 1.100344 0.060970 -0.013626 -194687.000000 0 0 1
-28.094834 -3.112303 13.000383 31.112957 0.110329 1.139725 0.061714 -0.018766 -112530.000000 0 0 1
-28.530704 -1.841003 12.250883 31.104252 0.064438 1.165963 0.062553 -0.005174 -278983.000000 0 0 1
-27.853504 -1.702103 11.059883 30.017259 0.061033 1.193454 0.069303 -0.011599 122526.000000 0 0 1
-28.358924 -0.592303 10.286283 30.172620 0.020883 1.222907 0.068295 -0.005354 227187.000000 0 0 1
-29.639824 -0.747703 9.413483 31.107747 0.025221 1.263368 0.069581 -0.002395 165592.000000 0 0 1
-29.561654 -1.522903 8.251683 30.729479 0.051471 1.298933 0.067234 -0.013499 -36376.100000 0 0 1
-30.782224 -1.570803 7.537883 31.730623 0.050985 1.330945 0.068158 -0.016324 -72439.000000 0 0 1
-30.624384 -2.394603 6.269983 31.351232 0.078034 1.369447 0.072422 -0.021094 -280337.000000 0 0 1
-30.157804 -1.645003 5.162983 30.640750 0.054492 1.401488 0.076513 -0.034037 201947.000000 0 0 1
-31.019304 -0.634803 4.682083 31.377095 0.020462 1.421017 0.075262 -0.027406 -279757.000000 0 0 1
-30.682934 -0.184503 3.249583 30.855085 0.006013 1.465283 0.058686 -0.024711 -101953.000000 0 0 1
-31.142494 -1.115603 2.235883 31.242578 0.035807 1.499170 0.058016 -0.039899 505085.000000 0 0 1
-30.613814 -0.739903 1.006083 30.639277 0.024164 1.537954 0.053926 -0.042128 -650347.000000 0 0 1
-31.476654 -1.369503 -0.084717 31.506547 0.043481 1.573485 0.050651 -0.036963 81650.900000 0 0 1
-32.797114 -0.838003 -0.038417 32.807841 0.025546 1.571967 0.063264 -0.030310 388038.000000 0 0 1
-33.530084 -1.276803 -1.157517 33.574345 0.038061 1.605279 0.058978 -0.032314 53217.500000 0 0 1
-35.062470 -1.038603 -1.193817 35.098158 0.029613 1.604817 0.061525 -0.025681 463203.000000 0 0 1
-35.767629 -1.985103 -0.359217 35.824475 0.055443 1.580824 0.069368 -0.020993 40873.600000 0 0 1
34.490900 -1.626403 -0.212717 34.529880 -0.047120 1.576957 0.085425 -0.020666 -182881.000000 0 0 1
33.729160 -2.679403 0.609883 33.840913 -0.079272 1.552773 0.082949 -0.024432 -566561.000000 0 0 1
34.098750 -2.780403 1.929083 34.266263 -0.081360 1.514470 0.080974 -0.018662 96095.000000 0 0 1
33.492700 -3.902803 2.518583 33.813253 -0.116004 1.496242 0.068631 -0.012150 -226573.000000 0 0 1
33.696410 -3.951103 4.021383 34.164759 -0.116723 1.452817 0.074577 0.003730 -107891.000000 0 0 1
33.012740 -2.956503 4.722683 33.479630 -0.089318 1.429263 0.070713 -0.009093 31447.600000 0 0 1
33.264400 -3.116703 6.082483 33.959251 -0.093422 1.390713 0.076089 -0.008690 90257.500000 0 0 1
32.529710 -2.082503 7.038283 33.347508 -0.063931 1.358138 0.080004 -0.013007 1390470.000000 0 0 1
31.096170 -2.287803 7.081483 31.974259 -0.073440 1.347470 0.077645 -0.010899 1477850.000000 0 0 1
30.482340 -1.277803 7.921083 31.520618 -0.041895 1.316775 0.095345 -0.011409 578225.000000 0 0 1
28.931710 -1.394003 8.039583 30.060306 -0.048145 1.300052 0.071017 -0.009273 -740920.000000 0 0 1
28.172380 -1.025803 6.943283 29.033505 -0.036396 1.329309 0.071541 -0.011516 191578.000000 0 0 1
26.785510 -1.150203 7.220983 27.765610 -0.042915 1.307702 0.072425 -0.001966 120756.000000 0 0 1
26.207310 -2.590603 7.240083 27.312142 -0.098530 1.302503 0.075449 -0.008816 -1281160.000000 0 0 1
26.584870 -3.455103 8.323783 28.070953 -0.129241 1.269743 0.067734 -0.009376 459625.000000 0 0 1
26.059010 -4.747103 8.117383 27.703770 -0.180192 1.273427 0.062151 -0.010548 -338031.000000 0 0 1
26.439110 -5.740903 9.222483 28.583889 -0.213818 1.242272 0.044126 -0.008720 -451152.000000 0 0 1
25.731610 -5.633403 10.440583 28.334727 -0.215529 1.193430 0.045143 -0.003359 357503.000000 0 0 1
26.329510 -6.404203 11.420483 29.405515 -0.238600 1.171925 0.032767 -0.002759 -207982.000000 0 0 1
25.386010 -6.559103 12.643883 29.109090 -0.252845 1.121466 0.037322 -0.002846 322143.000000 0 0 1
24.317510 -7.434403 12.370083 28.277740 -0.296698 1.118036 0.060777 -0.014051 3249.160000 0 0 1
23.124610 -7.144403 13.058683 27.501259 -0.299650 1.076015 0.070107 -0.014132 -31464.400000 0 0 1
22.004210 -8.147003 12.902983 26.777712 -0.354598 1.068026 0.080828 -0.017745 -331046.000000 0 0 1
22.369210 -9.320103 13.591983 27.784669 -0.394776 1.059636 0.067825 -0.021895 160917.000000 0 0 1
21.394810 -10.338103 13.550283 27.353691 -0.450122 1.052532 0.087348 -0.030658 -189287.000000 0 0 1
21.681410 -11.493503 14.503083 28.504799 -0.487443 1.037013 0.059274 -0.020629 -255074.000000 0 0 1
21.589010 -11.101603 15.817283 28.974426 -0.474963 0.993327 0.070644 -0.030648 346031.000000 0 0 1
21.856610 -12.185003 16.721183 30.096240 -0.508581 0.981723 0.051377 -0.028558 -174318.000000 0 0 1
21.470110 -11.760703 18.181483 30.493377 -0.501130 0.931982 0.056308 -0.027457 721036.000000 0 0 1
20.068610 -11.686803 18.482483 29.680509 -0.527335 0.898589 0.071279 -0.029057 590275.000000 0 0 1
19.790010 -11.861403 19.887083 30.460358 -0.539951 0.859411 0.066531 -0.025416 201873.000000 0 0 1
20.241410 -10.850503 20.971583 31.100729 -0.492074 0.830764 0.059969 -0.023422 -104113.000000 0 0 1
19.421210 -9.688703 21.087683 30.261274 -0.462745 0.799795 0.064006 -0.020595 -71587.400000 0 0 1
19.647110 -8.590603 20.170683 29.439155 -0.412196 0.815966 0.072131 -0.016485 -1516330.000000 0 0 1
20.593710 -7.504603 20.688283 30.140089 -0.349456 0.814264 0.067678 -0.010759 367285.000000 0 0 1
21.925110 -7.954203 20.892683 31.312681 -0.348023 0.840316 0.067460 -0.008130 342816.000000 0 0 1
22.674110 -8.193003 19.695983 31.131532 -0.346739 0.885800 0.073569 -0.021641 -601036.000000 0 0 1
24.061510 -8.782803 20.068483 32.539789 -0.349988 0.906206 0.066359 -0.022041 -18436.300000 0 0 1
23.793710 -10.047903 20.672583 33.082573 -0.399575 0.895821 0.052681 -0.023772 376617.000000 0 0 1
24.929510 -10.921603 20.671083 34.176827 -0.412913 0.921247 0.051784 -0.028108 189144.000000 0 0 1
24.746010 -12.458703 20.806783 34.648326 -0.466414 0.926653 0.052163 -0.034061 -196722.000000 0 0 1
24.007310 -13.190803 19.812683 33.806665 -0.502420 0.944611 0.050437 -0.028218 338587.000000 0 0 1
24.131010 -14.584403 20.008083 34.573600 -0.543637 0.953651 0.040531 -0.028440 -303571.000000 0 0 1
23.266410 -15.355703 18.997683 33.734780 -0.583369 0.972606 0.034958 -0.007515 -559282.000000 0 0 1
23.701810 -15.257903 17.631583 33.248340 -0.571965 1.011842 0.025383 -0.011826 129054.000000 0 0 1
22.741210 -15.622603 16.677483 32.239212 -0.601930 1.027098 0.015955 -0.001853 -409655.000000 0 0 1
22.169810 -17.061003 16.691283 32.575715 -0.655903 1.032837 0.018361 -0.008435 -862682.000000 0 0 1
23.182610 -17.943603 16.371883 33.577445 -0.658692 1.061474 0.048944 -0.011060 -209035.000000 0 0 1
22.852910 -19.293403 16.691583 34.250545 -0.701142 1.061758 0.037689 -0.002363 124623.000000 0 0 1
24.085110 -20.225603 16.541383 35.535684 -0.698516 1.086612 0.040018 -0.010219 162562.000000 0 0 1
24.405610 -20.490603 15.176383 35.296192 -0.698417 1.126334 0.040756 -0.019870 -423049.000000 0 0 1
25.396610 -21.450103 15.103483 36.513147 -0.701354 1.144342 0.041629 -0.021815 -703996.000000 0 0 1
26.130510 -21.437203 13.740383 36.485001 -0.687051 1.184669 0.030750 -0.032397 -189413.000000 0 0 1
25.294810 -21.701903 12.634383 35.643058 -0.709096 1.208449 0.043739 -0.032447 23207.100000 0 0 1
26.029310 -21.623303 11.445283 35.722356 -0.693199 1.244649 0.027564 -0.032334 -470389.000000 0 0 1
25.194410 -21.469203 10.149783 34.622291 -0.705736 1.273269 0.025870 -0.028086 128644.000000 0 0 1
24.589110 -22.645903 9.613183 34.783250 -0.744282 1.290777 0.018295 -0.027517 1302350.000000 0 0 1
23.271910 -22.956003 10.157083 34.230486 -0.778565 1.269534 0.010399 -0.015765 1177890.000000 0 0 1
22.368210 -23.780503 9.184583 33.914682 -0.815992 1.296557 0.012957 -0.011863 -20866.000000 0 0 1
22.782110 -25.160433 9.080283 35.135786 -0.834965 1.309396 0.009923 -0.008824 92006.900000 0 0 1
22.382910 -25.832723 7.880483 35.077432 -0.856826 1.344203 0.022597 -0.001647 -329744.000000 0 0 1
20.913210 -26.259543 7.733883 34.449076 -0.898252 1.344364 0.031399 0.003469 -457829.000000 0 0 1
20.031510 -25.202233 7.588583 33.075678 -0.899215 1.339303 0.019058 -0.004401 -1193530.000000 0 0 1
18.725110 -25.678463 7.781283 32.719437 -0.940731 1.330677 0.045981 -0.018454 6225.960000 0 0 1
17.739310 -24.460303 7.754383 31.194871 -0.943338 1.319584 0.045123 -0.024790 90736.400000 0 0 1
17.542610 -23.858103 6.487183 30.315603 -0.936777 1.355140 0.055533 -0.018033 -376600.000000 0 0 1
16.578810 -22.877503 6.658183 29.027030 -0.943700 1.339357 0.049822 -0.019443 -440797.000000 0 0 1
16.301410 -22.172703 5.307583 28.027400 -0.936834 1.380275 0.049016 -0.007907 -144058.000000 0 0 1
15.323610 -21.162803 5.489183 26.698471 -0.944090 1.363720 0.053664 -0.010654 -197323.000000 0 0 1
15.011510 -20.764303 4.225583 25.968389 -0.944835 1.407349 0.047466 -0.004514 -24585.400000 0 0 1
14.161210 -19.497803 4.109783 24.445746 -0.942638 1.401876 0.039035 0.004442 180165.000000 0 1 0
14.888810 -18.312403 4.475783 24.021935 -0.888151 1.383380 0.019037 0.000403 157739.000000 0 1 0
14.079110 -17.176103 4.441683 22.648805 -0.884163 1.373406 -0.001040 0.012619 -352493.000000 0 1 0
14.948210 -15.927903 4.405983 22.283621 -0.817117 1.371762 -0.013558 0.006947 -237038.000000 0 1 0
15.606710 -15.758103 5.670483 22.891954 -0.790225 1.320484 0.003171 -0.001363 1103380.000000 0 1 0
16.651810 -14.737503 5.753783 22.969170 -0.724488 1.317599 0.015890 -0.005947 1387610.000000 0 1 0
18.035410 -15.097803 5.146083 24.076998 -0.696969 1.355400 0.028520 -0.017423 38697.000000 0 1 0
19.026510 -14.103403 5.333683 24.276783 -0.637878 1.349286 0.051173 -0.017402 -238590.000000 0 1 0
20.294910 -14.673903 5.137183 25.565552 -0.626018 1.368477 0.072136 -0.022252 -493072.000000 0 0 1
21.386110 -13.615803 5.291583 25.898970 -0.566944 1.365031 0.077620 -0.024208 -326686.000000 0 0 1
21.489310 -12.934903 6.596283 25.934785 -0.541832 1.313630 0.083192 -0.022871 -643677.000000 0 0 1
22.600710 -12.119603 6.619583 26.485765 -0.492224 1.318189 0.091642 -0.016331 -624523.000000 0 0 1
22.748910 -11.437403 7.898883 26.659322 -0.465859 1.269991 0.091756 -0.012322 -199992.000000 0 0 1
23.292110 -12.211003 8.899683 27.763921 -0.482863 1.244488 0.088550 -0.014862 117626.000000 0 0 1
23.295910 -11.597003 10.127083 27.923963 -0.461896 1.199669 0.089106 -0.023350 -50765.300000 0 0 1
23.670610 -12.638403 11.179383 29.068980 -0.490420 1.176042 0.069028 -0.020930 -111249.000000 0 0 1
22.597510 -13.513303 11.493183 28.728906 -0.538947 1.159218 0.076038 -0.018191 251504.000000 0 0 1
22.998610 -14.590903 12.312883 29.890426 -0.565348 1.146221 0.061439 -0.024422 -16295.900000 0 0 1
21.776610 -15.498303 12.598483 29.548941 -0.618532 1.130332 0.057526 -0.030864 -256549.000000 0 0 1
20.992510 -14.954403 13.622183 29.152761 -0.618979 1.084597 0.043245 -0.026032 -855516.000000 0 0 1
19.870410 -15.804903 13.664883 28.833265 -0.671929 1.077050 0.032346 -0.024149 -558553.000000 0 0 1
18.686710 -14.959803 14.197883 27.831074 -0.675081 1.035443 0.027005 -0.025122 -766105.000000 0 0 1
18.877510 -14.341503 15.420183 28.281109 -0.649689 0.994113 0.031630 -0.020766 -15157.800000 0 0 1
18.405710 -12.997403 15.646383 27.431951 -0.614849 0.963839 0.060019 -0.040598 1119310.000000 0 0 1
16.843210 -12.748803 15.803283 26.381233 -0.647909 0.928501 0.057901 -0.040137 1297500.000000 0 0 1
16.100110 -13.087203 14.608583 25.375167 -0.682536 0.957332 0.056149 -0.042502 727171.000000 0 0 1
14.712310 -12.749303 14.708583 24.399573 -0.714038 0.923764 0.065714 -0.042482 845171.000000 0 1 0
14.269610 -11.262703 14.419683 23.203394 -0.668169 0.900208 0.055132 -0.043405 -371235.000000 0 1 0
14.671410 -10.425903 15.434283 23.710057 -0.617823 0.861949 0.048537 -0.034821 100092.000000 0 1 0
14.401310 -9.049003 15.196183 22.808028 -0.561002 0.841608 0.045014 -0.029243 -778590.000000 0 1 0
14.987610 -8.084203 16.278983 23.558185 -0.494663 0.807909 0.049940 -0.021152 1109550.000000 0 1 0
16.414510 -7.896903 16.328783 24.462754 -0.448408 0.839956 0.057796 -0.038199 928744.000000 0 1 0
17.174510 -8.912903 16.925883 25.707764 -0.478701 0.852111 0.072566 -0.031725 542556.000000 0 0 1
18.685710 -8.876003 16.485583 26.452100 -0.443461 0.897938 0.069247 -0.027184 1070550.000000 0 0 1
19.326810 -7.631203 16.884483 26.773991 -0.376059 0.888432 0.077302 -0.033718 -8237.930000 0 0 1
20.627610 -7.611403 16.374283 27.414392 -0.353492 0.930681 0.080203 -0.022795 -498001.000000 0 0 1
21.360310 -6.271403 16.373783 27.635016 -0.285576 0.936636 0.080533 -0.004960 -130131.000000 0 0 1
21.897110 -5.931103 17.646283 28.741132 -0.264515 0.909712 0.079232 -0.004739 582988.000000 0 0 1
22.598410 -4.670003 17.529583 28.979015 -0.203783 0.921148 0.083544 -0.009047 -45131.800000 0 0 1
-5.680064 -33.247120 -6.528640 34.354873 1.401586 1.761994 0.016870 -0.013393 -27973.900000 0 0 1
-6.355764 -31.991720 -6.496640 33.257664 1.374681 1.767403 0.020035 -0.013777 37319.500000 0 0 1
-5.806464 -31.139720 -5.509540 32.152017 1.386449 1.743005 0.026708 -0.016735 -594155.000000 0 0 1
-6.494964 -29.723920 -5.520140 30.921965 1.355668 1.750277 0.038718 -0.017775 2414810.000000 0 0 1
-7.939764 -29.608420 -5.238540 31.098886 1.308801 1.740051 0.037613 -0.015143 2002420.000000 0 0 1
-8.694464 -30.190420 -6.286340 32.040182 1.290396 1.768279 0.026868 -0.009675 -843687.000000 0 0 1
-10.215564 -30.015920 -6.063140 32.281185 1.242755 1.759741 0.040863 -0.004599 752161.000000 0 0 1
-11.102964 -30.639220 -7.001740 33.332596 1.223138 1.782429 0.031982 -0.001169 -300958.000000 0 0 1
-12.441364 -30.598420 -6.599740 33.683934 1.184612 1.768003 0.040379 0.000261 -470948.000000 0 0 1
-13.409864 -31.135120 -7.627940 34.747743 1.164109 1.792122 0.040834 -0.005574 -400376.000000 0 0 1
-13.618064 -30.176920 -8.627640 34.213073 1.146883 1.825722 0.054997 -0.006957 418325.000000 0 0 1
-14.621564 -30.676620 -9.526440 35.293034 1.126014 1.844111 0.061273 -0.007430 271158.000000 0 0 1
-14.715164 -29.844120 -10.853640 35.000129 1.112710 1.886098 0.074546 -0.004233 -489285.000000 0 0 1
-15.128764 -28.486620 -10.702540 33.983987 1.082593 1.891178 0.082612 -0.011831 446286.000000 0 0 1
-14.104164 -27.587320 -10.274840 32.642917 1.098185 1.891005 0.077315 -0.008944 -237635.000000 0 0 1
-14.517264 -26.159920 -9.877840 31.506572 1.064166 1.889691 0.080091 -0.000389 -210601.000000 0 0 1
-15.004064 -25.357720 -10.891240 31.412657 1.036505 1.924863 0.087793 -0.010548 59228.600000 0 0 1
-15.420664 -24.108120 -10.457340 30.468907 1.001734 1.921132 0.065002 0.005159 -290843.000000 0 0 1
-16.125264 -23.294020 -11.554340 30.596377 0.965291 1.958040 0.083835 -0.005246 1071980.000000 0 0 1
-17.551164 -23.563520 -11.603140 31.589804 0.930603 1.946908 0.087771 -0.005126 1050340.000000 0 0 1
-18.141964 -22.860520 -12.672940 31.817254 0.899974 1.980463 0.095280 -0.009614 -359355.000000 0 0 1
-19.524464 -23.336320 -13.127740 33.137986 0.874101 1.978120 0.075627 -0.000033 -264550.000000 0 0 1
-19.650564 -24.579520 -13.800540 34.362078 0.896379 1.984083 0.105810 -0.005095 -13132.500000 0 0 1
-19.490464 -25.652920 -12.901840 34.704582 0.921068 1.951703 0.114443 -0.009759 -1161410.000000 0 0 1
-19.524664 -27.067320 -13.488140 35.996976 0.945893 1.954872 0.105108 -0.011555 388739.000000 0 0 1
-18.422064 -27.561820 -14.259840 36.088356 0.981601 1.977013 0.107401 -0.016017 272056.000000 0 0 1
-17.188064 -27.551420 -13.602940 35.207247 1.013022 1.967486 0.106420 -0.016097 -562176.000000 0 0 1
-16.262964 -28.774220 -13.926640 35.866294 1.056364 1.969575 0.083948 -0.016521 193696.000000 0 0 1
-15.855264 -28.858720 -15.326840 36.319790 1.068406 2.006443 0.099652 -0.017782 491779.000000 0 0 1
-14.970264 -29.919120 -15.688540 36.951222 1.106863 2.009288 0.089926 -0.018823 296231.000000 0 0 1
-15.653464 -31.334420 -15.694140 38.382064 1.107500 1.992037 0.086622 -0.023961 37477.900000 0 0 1
-16.026664 -31.672920 -14.345140 38.285910 1.102356 1.954853 0.078099 -0.024452 75922.900000 0 0 1
-16.370264 -33.018620 -14.284540 39.525472 1.110523 1.940566 0.069678 -0.017297 -488797.000000 0 0 1
-17.073364 -33.461220 -12.956440 39.736914 1.098988 1.902924 0.083720 -0.017026 -46216.900000 0 0 1
-18.409764 -33.102420 -12.725440 39.957808 1.063247 1.894913 0.093891 -0.018408 -74539.700000 0 0 1
-18.815264 -31.737020 -12.572040 38.978312 1.035651 1.899207 0.098560 -0.015452 -430435.000000 0 0 1
-18.201664 -30.871520 -11.434240 37.617724 1.038063 1.879642 0.106216 -0.019011 -464176.000000 0 0 1
-18.699264 -31.140320 -10.145040 37.713444 1.030021 1.843154 0.094891 -0.019207 212741.000000 0 0 1
-18.330564 -30.058520 -9.268840 36.406533 1.023181 1.828223 0.092751 -0.009009 -48268.200000 0 0 1
-18.638864 -30.339520 -7.750440 36.441228 1.019897 1.785117 0.073135 -0.003233 212677.000000 0 0 1
-17.880464 -31.437620 -7.234040 36.883144 1.053664 1.768210 0.081500 -0.011140 194358.000000 0 0 1
-18.168564 -31.756920 -5.879240 37.056230 1.051134 1.730127 0.073803 -0.013115 -159248.000000 0 0 1
-17.254264 -32.923720 -5.448740 37.568201 1.088080 1.716346 0.080414 -0.018460 538814.000000 0 0 1
-15.945764 -32.590620 -4.987340 36.623619 1.115766 1.707399 0.072786 -0.008961 499287.000000 0 0 1
-15.883964 -32.255420 -3.629540 36.137045 1.113212 1.671404 0.060887 -0.013235 -47588.200000 0 0 1
-14.644364 -31.365220 -3.327940 34.775129 1.133979 1.666642 0.059697 -0.010388 445642.000000 0 0 1
-13.392964 -32.010220 -3.526840 34.877848 1.174532 1.672089 0.044226 -0.015965 -381231.000000 0 0 1
-12.456764 -31.189520 -2.876140 33.708001 1.190816 1.656225 0.051438 -0.006707 -337615.000000 0 0 1
-11.012564 -31.697920 -2.829240 33.675500 1.236420 1.654910 0.045968 -0.010926 -395232.000000 0 0 1
-10.826764 -32.874520 -2.055340 34.672429 1.252648 1.630110 0.042219 -0.011000 600585.000000 0 0 1
-9.476164 -33.336420 -1.930040 34.710800 1.293843 1.626428 0.017283 -0.006777 1182680.000000 0 0 1
-8.491664 -32.656020 -0.925940 33.754724 1.316397 1.598231 0.008199 -0.005433 154871.000000 0 0 1
-8.771564 -32.980020 0.422260 34.129172 1.310848 1.558424 0.016186 -0.002947 -511406.000000 0 0 1
-7.709664 -32.696120 1.261460 33.616461 1.339229 1.533262 0.018781 -0.000786 -66213.200000 0 0 1
-6.870364 -33.920920 1.779960 34.655432 1.370959 1.519412 0.016765 -0.003128 600255.000000 0 0 1
-7.640364 34.039797 2.738560 34.994038 -1.350002 1.492458 0.031684 -0.009799 548294.000000 0 0 1
-6.884664 33.008397 3.382360 33.887952 -1.365171 1.470820 0.032376 -0.009515 -162258.000000 0 0 1
-6.212964 33.547797 4.701160 34.440624 -1.387674 1.433868 0.032461 -0.008649 -47151.700000 0 0 1
-5.105764 34.353597 4.356460 35.003103 -1.423253 1.446013 0.027329 -0.003090 -9530.240000 0 0 1
-4.456464 -33.860920 5.551860 34.601230 1.439938 1.409647 0.018323 -0.009968 731272.000000 0 0 1
-3.428364 -32.759720 5.138660 33.337048 1.466524 1.416037 0.027074 -0.004791 309497.000000 0 0 1
-3.998264 -31.625720 4.488860 32.191958 1.445039 1.430900 0.021599 0.006406 22998.200000 0 0 1
-4.062564 -31.736220 3.056360 32.140838 1.443478 1.475560 0.006980 0.007301 -25294.100000 0 0 1
-4.556064 -30.416320 2.421660 30.850846 1.422112 1.492220 0.025053 0.006727 243727.000000 0 0 1
-3.671064 -29.338120 2.711260 29.690957 1.446314 1.479353 0.042444 0.001966 56529.200000 0 0 1
-4.022364 -28.168220 2.016660 28.525339 1.428957 1.500040 0.041164 0.001355 333343.000000 0 0 1
-3.083764 -26.970120 2.395560 27.251343 1.456951 1.482777 0.046949 -0.006364 237836.000000 0 0 1
-3.237764 -25.772620 1.624660 26.025960 1.445823 1.508331 0.055107 -0.011951 -543013.000000 0 0 1
-3.072664 -24.573520 2.402760 24.881166 1.446402 1.474076 0.046612 -0.014119 428648.000000 0 1 0
-4.259264 -24.127020 3.332660 24.725717 1.396062 1.435600 0.032505 -0.011718 386117.000000 0 1 0
-4.431064 -24.915320 4.465760 25.697286 1.394792 1.396126 0.044795 -0.012236 89743.000000 0 0 1
-5.273864 -24.300420 5.458560 25.458200 1.357083 1.354706 0.016524 -0.003589 -3333.350000 0 0 1
-5.674264 -25.309220 6.514160 26.743003 1.350246 1.324737 0.014170 -0.001640 -913513.000000 0 0 1
-4.747664 -25.766120 7.410160 27.227628 1.388580 1.295164 0.009559 -0.007518 -883118.000000 0 0 1
-5.372664 -26.660520 8.286360 28.430839 1.371938 1.275047 0.010636 -0.004334 230987.000000 0 0 1
-4.515064 -26.957420 9.560060 28.956572 1.404848 1.234332 0.012375 0.000537 334615.000000 0 0 1
-4.244164 -25.923520 10.498260 28.288784 1.408517 1.190592 0.009471 -0.003880 19986.200000 0 0 1
-5.400964 -25.484920 11.189060 28.352189 1.361958 1.165114 0.022352 0.000940 377752.000000 0 0 1
-4.988464 -24.703720 12.466660 28.117187 1.371544 1.111428 0.005229 0.000665 77814.300000 0 0 1
-4.338364 -25.376420 13.507560 29.072982 1.401473 1.087604 0.018566 0.005226 -452757.000000 0 0 1
-3.681264 -24.461420 14.362960 28.604325 1.421425 1.044742 0.013437 0.002012 -405739.000000 0 0 1
-2.651464 -25.117920 15.252660 29.505658 1.465625 1.027524 0.018618 0.000634 -71088.700000 0 0 1
-3.206964 -25.858620 16.331460 30.751739 1.447407 1.010928 0.017821 0.006530 351335.000000 0 0 1
-2.100064 -26.560420 16.870860 31.535569 1.491893 1.006314 0.021638 0.016738 680747.000000 0 0 1
-2.441164 -27.061420 18.302860 32.760868 1.480832 0.978002 0.033290 0.001075 149038.000000 0 0 1
-2.591364 -25.953120 19.118860 32.338993 1.471278 0.938249 0.042274 0.001913 -110552.000000 0 0 1
-2.415964 -26.250520 20.522560 33.408115 1.479020 0.909299 0.048321 -0.006986 95359.000000 0 0 1
-2.608164 -25.081820 21.468160 33.117701 1.467182 0.865528 0.054683 -0.015579 -185829.000000 0 0 1
-2.226364 -25.331620 22.798760 34.153055 1.483133 0.839887 0.033443 -0.022687 -99880.300000 0 0 1
-2.301464 -24.145320 23.631360 33.863467 1.475766 0.798416 0.038438 -0.024660 691585.000000 0 0 1
-1.286264 -22.964420 23.288560 32.731882 1.514844 0.779173 0.032974 -0.025464 513719.000000 0 0 1
-1.639064 -22.272720 22.121960 31.434722 1.497338 0.790144 0.044619 -0.013249 -521751.000000 0 0 1
-0.713264 -21.279220 21.823960 30.489329 1.537290 0.773041 0.062904 -0.016986 -678024.000000 0 0 1
-1.404764 -20.082220 21.278860 29.292641 1.500959 0.757693 0.051420 -0.006609 -943333.000000 0 0 1
-2.017964 -19.227420 22.244560 29.471789 1.466227 0.715486 0.044580 -0.025332 969395.000000 0 0 1
-3.378364 -19.553320 22.602160 30.076624 1.399708 0.720485 0.069574 -0.032301 667272.000000 0 0 1
-4.518164 -19.332320 21.580860 29.323812 1.341207 0.743727 0.063640 -0.026659 -530084.000000 0 0 1
-4.634164 -20.239020 20.477260 29.161818 1.345705 0.792322 0.050243 -0.017235 -314527.000000 0 0 1
-5.073864 -21.555420 20.784160 30.370406 1.339618 0.817077 0.057244 -0.014026 13308.900000 0 0 1
-5.338564 -22.408620 19.575060 30.229613 1.336919 0.866437 0.030115 -0.002273 154401.000000 0 0 1
-5.987864 -23.651120 19.615060 31.304642 1.322832 0.893631 0.028053 -0.008363 -161055.000000 0 0 1
-5.637864 -24.267820 18.408960 30.977450 1.342527 0.934439 0.033996 -0.005225 -54194.400000 0 0 1
-6.242864 -25.642820 18.207560 32.063107 1.331987 0.966885 0.013679 -0.000480 -655338.000000 0 0 1
-7.623464 -25.553820 18.072260 32.213685 1.280873 0.975189 0.031160 -0.005446 -1367930.000000 0 0 1
-8.104564 -26.842020 18.022360 33.331419 1.277565 0.999525 0.054041 -0.009175 262110.000000 0 0 1
-9.640464 -26.875420 18.241860 33.882034 1.226384 1.002267 0.043424 -0.012560 -49295.500000 0 0 1
-10.471864 -26.428120 17.189160 33.220065 1.193536 1.026948 0.064184 -0.010732 221012.000000 0 0 1
-11.866464 -26.522220 17.436060 33.885946 1.150093 1.030312 0.064431 -0.007896 700939.000000 0 0 1
-12.500164 -25.475720 18.395160 33.817870 1.114641 0.995662 0.062901 -0.021784 -809352.000000 0 0 1
-12.637864 -24.152420 17.845660 32.581016 1.088719 0.991145 0.058513 -0.018126 -108523.000000 0 0 1
-12.677664 -23.092620 18.792060 32.359447 1.068727 0.951173 0.057647 -0.014990 683443.000000 0 0 1
-11.319564 -22.706720 19.491660 31.994570 1.108340 0.915723 0.052214 -0.015394 883892.000000 0 0 1
-10.752964 -23.688420 20.375960 33.044625 1.144676 0.906355 0.054429 -0.017502 195573.000000 0 0 1
-9.331764 -23.618120 20.374760 32.558076 1.194512 0.894643 0.062191 -0.021770 529999.000000 0 0 1
-8.711764 -24.542420 21.451160 33.739850 1.229703 0.881776 0.058340 -0.025665 56215.000000 0 0 1
-8.733964 -24.026220 22.790560 34.248373 1.222130 0.842701 0.066730 -0.031021 404694.000000 0 0 1
-7.875664 -24.780420 23.665760 35.159117 1.263074 0.832398 0.063141 -0.030537 480889.000000 0 0 1
-7.777864 -24.168120 25.087660 35.692911 1.259440 0.791365 0.071212 -0.031296 -177087.000000 0 0 1
-6.695264 -24.821120 25.675060 36.333501 1.307326 0.786044 0.081056 -0.031986 -436121.000000 0 0 1
-6.630364 -24.427320 27.025260 37.027293 1.305750 0.752659 0.073557 -0.030252 -227286.000000 0 0 1
-5.352964 -24.955120 27.714160 37.676079 1.359495 0.744259 0.074821 -0.026810 -161116.000000 0 0 1
-4.186764 -24.438120 27.115460 36.742331 1.401123 0.740710 0.076310 -0.024683 -205215.000000 0 0 1
-3.081964 -24.693220 27.995360 37.456559 1.446628 0.726643 0.068955 -0.016681 543115.000000 0 0 1
-1.791464 -24.068920 27.399360 36.513658 1.496503 0.722150 0.054378 -0.013162 -407167.000000 0 0 1
-1.833464 -22.641420 27.254460 35.479587 1.489994 0.694814 0.056035 -0.014857 119944.000000 0 0 1
-0.583464 -22.035520 26.946160 34.813792 1.544324 0.685649 0.056629 -0.021573 71500.400000 0 0 1
0.356736 -21.742420 28.088260 35.521972 -1.554390 0.658797 0.049472 -0.016859 -472381.000000 0 0 1
0.867336 -22.961420 28.629960 36.710403 -1.533041 0.676311 0.053685 -0.011556 -61960.400000 0 0 1
1.724436 -22.715220 29.755860 37.474873 -1.495026 0.653400 0.045846 -0.019676 143331.000000 0 0 1
2.380736 -24.060320 30.161460 38.655926 -1.472169 0.675724 0.060119 -0.027767 -551759.000000 0 0 1
3.273336 -24.551420 29.174160 38.270336 -1.438252 0.703909 0.045231 -0.032326 195649.000000 0 0 1
4.033636 -25.629120 29.701760 39.437502 -1.414692 0.717982 0.034331 -0.020103 -55751.800000 0 0 1
5.304036 -25.311120 30.612260 40.073633 -1.364232 0.701461 0.027179 -0.020788 642066.000000 0 0 1
6.445436 -24.777620 29.979460 39.423878 -1.316305 0.706807 0.021747 -0.018793 -101935.000000 0 0 1
7.043236 -25.623220 29.079260 39.392385 -1.302544 0.740406 0.017202 -0.017750 -818266.000000 0 0 1
8.351436 -25.040520 28.447760 38.807850 -1.248881 0.748014 0.018178 -0.012320 445436.000000 0 0 1
8.059036 -23.983220 27.614360 37.452581 -1.246622 0.741709 0.025611 -0.012820 1007090.000000 0 0 1
9.239336 -23.810520 26.805060 37.024552 -1.200646 0.761241 0.008503 -0.005078 880864.000000 0 0 1
8.928536 -22.770220 25.720160 35.492652 -1.197106 0.760253 0.017126 -0.001014 222710.000000 0 0 1
8.076236 -23.180320 24.669660 34.801508 -1.235539 0.782905 0.012851 0.000316 -26554.700000 0 0 1
7.580636 -22.064620 23.948160 33.433933 -1.239866 0.772335 0.009645 0.005527 -93636.600000 0 0 1
6.872736 -22.636820 22.709760 32.793190 -1.276032 0.805827 0.022272 0.000496 -1159070.000000 0 0 1
7.682936 -23.338120 21.838660 32.872822 -1.252769 0.844189 0.004349 0.002774 -630955.000000 0 0 1
7.133036 -23.544020 20.589460 32.080009 -1.276621 0.873932 0.021183 -0.003052 -726252.000000 0 0 1
8.062236 -24.344120 19.689560 32.331326 -1.250987 0.916006 0.018079 -0.010372 646553.000000 0 0 1
9.222036 -23.531920 19.398160 31.860412 -1.197297 0.916188 0.005955 -0.005886 285846.000000 0 0 1
10.133136 -24.227620 18.581660 32.170423 -1.174659 0.955010 0.018327 -0.011982 545816.000000 0 0 1
11.187136 -23.441220 17.741660 31.454878 -1.125520 0.971532 0.022156 -0.015736 647250.000000 0 0 1
10.569136 -22.631320 16.780660 30.091092 -1.133884 0.979230 0.033523 -0.011439 -15149.400000 0 0 1
11.532336 -22.375320 15.786360 29.712942 -1.094901 1.010667 0.026726 -0.022135 236813.000000 0 0 1
-12.344064 22.652097 11.279760 28.155398 -1.071845 1.158597 0.027036 -0.019133 -157720.000000 0 0 1
-13.326664 21.670597 11.031560 27.729228 -1.019446 1.161644 0.013554 -0.024532 -338998.000000 0 0 1
-12.831864 20.546697 10.359260 26.346495 -1.012541 1.166694 0.040163 -0.027344 122415.000000 0 0 1
-13.773164 19.777797 9.352160 25.851968 -0.962494 1.200643 0.046223 -0.023724 -366999.000000 0 0 1
-13.973264 20.533897 8.180460 26.149818 -0.973280 1.252625 0.049318 -0.019159 750203.000000 0 0 1
-15.028164 20.070897 7.313360 26.118420 -0.928093 1.286994 0.060605 -0.018284 176169.000000 0 0 1
-16.479064 20.079397 7.746560 27.106290 -0.883563 1.280971 0.043155 -0.018866 -1134880.000000 0 0 1
-16.951064 19.203597 8.743060 27.065806 -0.847620 1.241867 0.039407 -0.027351 444259.000000 0 0 1
-18.371064 19.167197 8.783060 27.964614 -0.806604 1.251311 0.061490 -0.027943 217409.000000 0 0 1
-18.907464 17.935497 9.535660 27.750731 -0.759023 1.220029 0.039103 -0.022283 -249742.000000 0 0 1
-18.832164 16.691297 8.874660 26.683505 -0.725205 1.231748 0.038426 -0.022637 49876.900000 0 0 1
-19.263064 15.641797 9.727160 26.652376 -0.682021 1.197202 0.039350 -0.021857 -512014.000000 0 0 1
-18.253364 15.097697 10.777960 26.024800 -0.691059 1.143796 0.039973 -0.010415 -373323.000000 0 0 1
-17.224564 14.364597 10.200360 24.638884 -0.695108 1.143959 0.022077 0.001589 -761975.000000 0 1 0
-16.417764 13.615397 11.027160 24.010837 -0.692358 1.093637 0.013234 -0.001123 -133560.000000 0 1 0
-17.055464 12.442197 11.884660 24.226892 -0.630261 1.058068 0.006335 0.000968 -243718.000000 0 1 0
-17.881364 11.590497 11.113960 24.033371 -0.575101 1.090053 -0.006493 -0.001588 -280087.000000 0 1 0
-18.763164 10.882497 11.928160 24.754113 -0.525578 1.068014 0.009215 0.004215 -259554.000000 0 1 0
-19.742564 10.006597 11.132660 24.775733 -0.469116 1.104773 0.017734 0.000912 -478174.000000 0 1 0
-19.147464 9.028697 10.342160 23.560625 -0.440617 1.116356 0.007377 0.001277 117948.000000 0 1 0
-18.720664 9.416697 9.014660 22.812312 -0.466053 1.164547 0.026752 -0.000409 -159250.000000 0 1 0
-19.826064 9.725997 7.963060 23.475054 -0.456072 1.224715 0.048509 -0.011450 -70359.400000 0 1 0
-20.367064 8.535197 7.483560 23.316745 -0.396836 1.244062 0.036961 -0.013453 251172.000000 0 1 0
-21.183764 8.803197 6.352660 23.803455 -0.393851 1.300642 0.045806 -0.014300 13394.600000 0 1 0
-21.502564 7.535297 5.591160 23.460649 -0.337064 1.330160 0.057290 -0.011279 42597.200000 0 1 0
-22.398764 6.587197 6.142060 24.141680 -0.286024 1.313551 0.054204 -0.008862 360662.000000 0 1 0
-22.113464 5.354897 5.568560 23.424114 -0.237582 1.330771 0.055910 -0.011118 -435982.000000 0 1 0
-23.071264 4.190697 5.863860 24.170851 -0.179682 1.325751 0.070680 -0.009035 -456595.000000 0 1 0
-24.180664 4.237597 5.011660 25.055508 -0.173486 1.369416 0.070654 -0.012945 -232690.000000 0 0 1
-24.957964 3.079997 5.098060 25.658850 -0.122787 1.370779 0.077791 -0.019008 245762.000000 0 0 1
-26.136944 2.915597 4.074460 26.612813 -0.111092 1.417090 0.081241 -0.025261 -37789.300000 0 0 1
-25.714624 2.754897 2.747560 26.007315 -0.106726 1.464953 0.078101 -0.024820 474146.000000 0 0 1
-26.735404 2.578397 1.760060 26.917054 -0.096144 1.505361 0.075230 -0.020476 2405.670000 0 0 1
-26.140874 2.714697 0.302560 26.283197 -0.103478 1.559285 0.079224 -0.020696 90253.000000 0 0 1
-25.744464 4.043897 -0.058440 26.060199 -0.155805 1.573039 0.082297 -0.028662 471609.000000 0 0 1
-25.429684 4.239797 -1.418740 25.819712 -0.165207 1.625772 0.093813 -0.027257 -18530.800000 0 0 1
-26.629984 4.696297 -2.296440 27.138255 -0.174559 1.655518 0.085341 -0.032576 661458.000000 0 0 1
-27.732304 3.794397 -2.385840 28.092177 -0.135978 1.655828 0.066516 -0.028955 -811221.000000 0 0 1
-28.915064 4.443997 -2.451540 29.357113 -0.152498 1.654401 0.057471 -0.017569 -1993230.000000 0 0 1
-30.094704 3.511997 -2.568240 30.407585 -0.116173 1.655358 0.044415 -0.014698 -913808.000000 0 0 1
-30.138524 2.933997 -3.849440 30.524698 -0.097045 1.697242 0.051335 -0.019658 15879.100000 0 0 1
-31.006614 1.852097 -3.846740 31.299166 -0.059661 1.694010 0.058493 -0.022959 -461730.000000 0 0 1
-31.218124 1.226797 -5.267840 31.683220 -0.039277 1.737838 0.060022 -0.022997 -771419.000000 0 0 1
-30.084744 0.611897 -5.822940 30.649191 -0.020336 1.761945 0.067485 -0.022893 -73027.800000 0 0 1
-30.171674 -0.088903 -7.027340 30.979370 0.002947 1.799628 0.070006 -0.015749 -433635.000000 0 0 1
-30.457114 0.808997 -8.256140 31.566662 -0.026556 1.835420 0.066218 -0.013022 -1353410.000000 0 0 1
-31.790724 1.138297 -8.294040 32.874564 -0.035791 1.825846 0.063059 -0.016836 -895076.000000 0 0 1
-32.138114 1.926997 -9.407940 33.542228 -0.059888 1.855091 0.080216 -0.013108 249007.000000 0 0 1
-33.684544 2.123997 -9.441340 35.047094 -0.062972 1.843556 0.091234 -0.014985 386771.000000 0 0 1
-34.131235 2.876497 -8.332740 35.251241 -0.084079 1.809436 0.062130 -0.015160 -109294.000000 0 0 1
-35.535991 2.960897 -8.342040 36.621895 -0.083129 1.800602 0.075494 -0.019020 -253310.000000 0 0 1
35.795174 3.682197 -6.967140 36.652341 0.102508 1.762047 0.086873 -0.018115 -153024.000000 0 0 1
34.414860 3.604597 -6.666540 35.239445 0.104359 1.761122 0.107609 -0.026723 274857.000000 0 0 1
34.113420 4.304397 -5.483340 34.818390 0.125516 1.728939 0.106664 -0.030425 -679808.000000 0 0 1
32.713280 4.029197 -4.965240 33.332367 0.122550 1.720314 0.119171 -0.031106 -437036.000000 0 0 1
32.562740 2.726697 -4.340340 32.963699 0.083542 1.702850 0.121765 -0.029497 -558824.000000 0 0 1
31.264920 2.254397 -4.502040 31.667742 0.071982 1.713444 0.124475 -0.031680 -479000.000000 0 0 1
31.067240 0.924497 -3.763840 31.308059 0.029749 1.691307 0.129565 -0.024112 206912.000000 0 0 1
32.005610 -0.003403 -4.284240 32.291079 -0.000106 1.703864 0.105707 -0.024702 364803.000000 0 0 1
31.854850 -1.246803 -3.653440 32.087904 -0.039120 1.684901 0.102013 -0.021052 -38825.000000 0 0 1
32.939920 -2.202403 -4.169840 33.275764 -0.066762 1.696438 0.102290 -0.023606 42033.700000 0 0 1
32.830180 -3.463103 -3.558040 33.203515 -0.105097 1.678161 0.083541 -0.017348 -544897.000000 0 0 1
34.005820 -4.190003 -3.610940 34.452733 -0.122596 1.675798 0.093139 -0.013647 -713457.000000 0 0 1
33.891620 -5.619703 -3.077240 34.491917 -0.164319 1.660131 0.084827 -0.000942 -90905.900000 0 0 1
33.475370 -5.757603 -1.735640 34.011216 -0.170329 1.621850 0.077424 0.006921 202456.000000 0 0 1
33.809310 -7.057003 -1.200740 34.558827 -0.205775 1.605548 0.087740 0.000186 -154645.000000 0 0 1
33.261720 -7.212303 0.244560 34.035557 -0.213529 1.563611 0.072691 -0.000485 103038.000000 0 0 1
31.854570 -7.376303 0.272560 32.698589 -0.227551 1.562461 0.057218 0.005644 147633.000000 0 0 1
31.364240 -7.771103 1.552360 32.349890 -0.242878 1.522791 0.051717 -0.000077 -900308.000000 0 0 1
31.466050 -9.295403 1.897360 32.865130 -0.287241 1.513032 0.054802 0.002225 365770.000000 0 0 1
30.393380 -10.041003 1.324160 32.036427 -0.319079 1.529452 0.056458 -0.007100 1352030.000000 0 0 1
29.052220 -9.693203 1.700160 30.673771 -0.322033 1.515341 0.045947 -0.016562 -1580340.000000 0 0 1
27.998870 -10.689203 1.309960 29.998529 -0.364695 1.527115 0.058352 -0.021188 1001010.000000 0 0 1
26.667790 -10.349503 1.902560 28.668850 -0.370197 1.504384 0.083974 -0.029495 2318090.000000 0 0 1
25.953610 -9.256203 1.455460 27.593215 -0.342582 1.518025 0.085949 -0.028897 -1411430.000000 0 0 1
25.278210 -9.512603 0.148660 27.009250 -0.359924 1.565292 0.082399 -0.020428 -1113040.000000 0 0 1
26.158510 -9.660603 -0.963640 27.902034 -0.353773 1.605340 0.073628 -0.021577 666135.000000 0 0 1
25.469810 -9.791203 -2.237540 27.378558 -0.367007 1.652614 0.067569 -0.021607 -144784.000000 0 0 1
24.807510 -11.161803 -2.440940 27.312206 -0.422801 1.660287 0.062191 -0.010568 -207298.000000 0 0 1
23.463410 -11.123203 -2.027840 26.045525 -0.442686 1.648733 0.049222 -0.005283 -197778.000000 0 0 1
22.947210 -12.437103 -1.746640 26.159257 -0.496671 1.637616 0.033190 -0.000126 -185591.000000 0 0 1
21.425310 -12.533303 -1.643740 24.876283 -0.529300 1.636921 0.034647 0.002079 -417505.000000 0 1 0
20.681410 -12.341003 -2.840140 24.250515 -0.538004 1.688182 0.035413 0.004499 240240.000000 0 1 0
19.325410 -12.554103 -2.495440 23.179823 -0.576105 1.678661 0.040131 0.003194 -291428.000000 0 1 0
18.311510 -12.101303 -3.527940 22.230593 -0.583970 1.730168 0.024346 0.010082 -396029.000000 0 1 0
18.354210 -12.809203 -4.720440 22.874336 -0.609308 1.778654 0.025917 0.010151 222933.000000 0 1 0
17.546910 -12.251503 -5.728540 22.154221 -0.609526 1.832344 0.026702 0.006080 -417191.000000 0 1 0
17.519010 -13.058903 -7.056140 22.961702 -0.640559 1.883151 0.022503 0.001580 -47711.900000 0 1 0
16.776010 -14.279603 -7.033640 23.126038 -0.705186 1.879836 0.020851 0.000600 442825.000000 0 1 0
16.777110 -14.845903 -8.314240 23.895582 -0.724404 1.926170 0.026281 -0.004409 -106075.000000 0 1 0
15.841710 -16.049903 -8.628340 24.145546 -0.791926 1.936222 0.023261 -0.009595 -22288.300000 0 1 0
14.456510 -15.708003 -8.589040 23.010946 -0.826863 1.953316 0.035479 -0.003673 1032940.000000 0 1 0
13.642810 -16.632903 -9.350340 23.456525 -0.883841 1.980813 0.034717 -0.002681 41478.500000 0 1 0
13.790810 -16.383503 -10.900440 24.029673 -0.871111 2.041624 0.041394 -0.011422 -896853.000000 0 1 0
13.031510 -15.346003 -11.514440 23.192722 -0.866779 2.090321 0.036781 -0.003430 311217.000000 0 1 0
13.364910 -14.033103 -11.086840 22.326370 -0.809782 2.090451 0.036360 0.003425 -180071.000000 0 1 0
13.386710 -12.946603 -12.185340 22.255359 -0.768687 2.150199 0.048473 0.006874 -512961.000000 0 1 0
14.591310 -12.737103 -12.844340 23.240421 -0.717653 2.156364 0.059663 -0.004927 -487178.000000 0 1 0
14.263910 -12.256503 -14.171540 23.548111 -0.709849 2.216565 0.070190 -0.003598 93024.300000 0 1 0
15.396910 -11.936703 -15.201540 24.711060 -0.659476 2.233400 0.077118 -0.011823 230872.000000 0 1 0
16.156610 -13.116703 -15.389140 25.882611 -0.681923 2.207533 0.075432 -0.013101 -165093.000000 0 0 1
17.228610 -12.957703 -16.277540 27.012689 -0.644846 2.217537 0.072712 -0.016242 405186.000000 0 0 1
18.295810 -14.130703 -16.299640 28.285892 -0.657650 2.184925 0.062738 -0.016910 349563.000000 0 0 1
19.407010 -13.877403 -15.474640 28.437278 -0.620770 2.146193 0.051082 -0.018892 343904.000000 0 0 1
20.319510 -14.998603 -15.511040 29.638369 -0.635866 2.121566 0.029863 -0.017607 349886.000000 0 0 1
21.499210 -14.871803 -14.542240 29.914265 -0.605159 2.078453 0.018687 -0.021596 80133.100000 0 0 1
22.371810 -13.762603 -14.730040 30.114468 -0.551504 2.081894 0.035832 -0.016531 181261.000000 0 0 1
23.144010 -13.548603 -13.564640 30.053440 -0.529618 2.039075 0.020592 -0.015288 -35804.000000 0 0 1
23.707310 -12.094203 -13.463340 29.825623 -0.471732 2.039132 0.028760 -0.020401 465723.000000 0 0 1
22.735510 -11.098803 -13.033540 28.459796 -0.454139 2.046499 0.021454 -0.006751 700605.000000 0 0 1
23.236510 -9.795303 -13.133240 28.431766 -0.398943 2.050957 0.027540 -0.013952 345428.000000 0 0 1
24.229310 -9.329203 -11.995140 28.600295 -0.367542 2.003587 0.031176 -0.018112 300136.000000 0 0 1
25.459610 -9.995303 -11.997840 29.867139 -0.374106 1.984176 0.040773 -0.015474 -577461.000000 0 0 1
26.253410 -9.725603 -10.903040 30.045052 -0.354777 1.942163 0.049582 -0.016846 -75832.100000 0 0 1
27.655630 -10.371803 -11.135040 31.565761 -0.358801 1.931312 0.071022 -0.016813 639281.000000 0 0 1
28.433310 -9.811003 -12.235040 32.471604 -0.332261 1.957127 0.049468 -0.014106 681315.000000 0 0 1
29.557640 -10.645203 -12.523540 33.820311 -0.345689 1.950124 0.040544 -0.014272 104238.000000 0 0 1
30.375100 -10.045303 -13.652640 34.784326 -0.319386 1.974138 0.018478 -0.010360 -478492.000000 0 0 1
29.938450 -10.592503 -14.884740 35.072316 -0.340064 2.009097 0.005769 -0.009378 130033.000000 0 0 1
30.568290 -10.016603 -15.972940 35.915004 -0.316654 2.031683 -0.005807 0.000175 -360571.000000 0 0 1
30.199260 -10.745603 -17.316340 36.432388 -0.341853 2.066102 -0.029054 0.007170 225614.000000 0 0 1
28.949350 -10.428003 -17.907340 35.601698 -0.345746 2.097852 -0.034555 0.004563 221308.000000 0 0 1
28.934420 -9.207403 -18.609140 35.612877 -0.308084 2.120623 -0.040321 0.008666 429404.000000 0 0 1
27.507840 -9.021503 -19.242240 34.761078 -0.316908 2.157426 -0.048568 0.002882 689522.000000 0 0 1
27.304490 -9.798503 -20.407640 35.468543 -0.344546 2.183856 -0.055233 0.012295 104053.000000 0 0 1
25.997310 -9.541403 -20.874940 34.679412 -0.351752 2.216725 -0.008956 0.015921 -106889.000000 0 0 1
25.648610 -10.058003 -22.268440 35.424540 -0.373717 2.250569 0.009210 -0.003624 -158439.000000 0 0 1
25.370710 -11.437703 -22.257840 35.635732 -0.423538 2.245407 -0.004046 -0.000491 123039.000000 0 0 1
24.813010 -11.724603 -23.535440 36.153405 -0.441422 2.279682 0.018167 -0.010805 -987463.000000 0 0 1
24.985110 -13.171103 -24.066540 37.107034 -0.485137 2.276502 0.006894 -0.000414 868022.000000 0 0 1
26.177810 -13.506903 -24.806440 38.510695 -0.476340 2.270700 0.004874 0.004894 1332220.000000 0 0 1
27.407060 -13.259603 -24.082140 38.818983 -0.450606 2.240011 -0.026345 0.008738 -654285.000000 0 0 1
28.635130 -13.713303 -24.822240 40.300979 -0.446624 2.234351 -0.028627 0.018116 -712776.000000 0 0 1
28.832870 -13.089103 -26.066370 41.013591 -0.426146 2.259523 -0.022028 0.009804 -1033480.000000 0 0 1
30.124750 -13.315903 -26.474710 42.257828 -0.416202 2.247856 -0.037721 0.007341 -882722.000000 0 0 1
30.553160 -12.613703 -27.803740 43.193159 -0.391530 2.270129 -0.024043 -0.004707 -14611.400000 0 0 1
30.359600 -13.364603 -28.984210 44.049998 -0.414683 2.288935 -0.005635 -0.003634 93774.500000 0 0 1
31.418060 -13.124803 -29.888240 45.306311 -0.395711 2.291206 -0.010243 -0.001655 87839.800000 0 0 1
31.433010 -14.041403 -31.145390 46.424459 -0.420114 2.306195 -0.000884 -0.005787 19305.800000 0 0 1
31.820710 -15.363303 -30.827840 46.892903 -0.449800 2.288172 0.005646 -0.009446 -120431.000000 0 0 1
31.996200 -16.191103 -31.968290 48.040401 -0.468462 2.298887 -0.011597 -0.008589 -213120.000000 0 0 1
30.702840 -16.750903 -32.582590 47.800442 -0.499445 2.320795 -0.002994 -0.007503 -139095.000000 0 0 1
30.030230 -15.889503 -33.470580 47.692460 -0.486669 2.348718 0.000960 -0.012882 81002.100000 0 0 1
28.839390 -16.533703 -33.914650 47.489759 -0.520558 2.366201 0.006931 -0.014087 674570.000000 0 0 1
27.881890 -15.612003 33.962132 46.632186 -0.510438 0.754961 0.028082 -0.011801 144003.000000 0 0 1
27.230590 -14.536703 -34.145364 46.029627 -0.490350 2.406566 0.036441 -0.022742 225223.000000 0 0 1
28.127990 -13.458903 -33.965690 46.108502 -0.446290 2.398895 0.034135 -0.023177 -317837.000000 0 0 1
27.396330 -12.148703 -33.604110 45.026504 -0.417388 2.413310 0.041299 -0.026003 132947.000000 0 0 1
26.643300 -11.687503 34.017933 44.762517 -0.413388 0.707538 0.076355 -0.030403 -92659.100000 0 0 1
26.180210 -10.386303 34.355733 44.425162 -0.377679 0.686705 0.053515 -0.025434 35222.300000 0 0 1
20.332236 -29.689920 9.084260 37.113541 -0.970331 1.323514 0.040167 -0.013328 171566.000000 0 0 1
20.902736 -29.200820 7.868560 36.763113 -0.949527 1.355093 0.036234 -0.013507 919149.000000 0 0 1
22.145536 -29.869220 7.564960 37.945009 -0.932811 1.370085 0.045198 -0.017172 850319.000000 0 0 1
22.784436 -29.560320 6.190460 37.832061 -0.914130 1.406427 0.035018 -0.010767 -2536.580000 0 0 1
23.339136 -28.274820 6.039960 37.157258 -0.880735 1.407521 0.026653 0.007072 -23278.800000 0 0 1
24.109236 -28.130820 4.887560 37.369594 -0.862229 1.439631 0.013168 0.011648 -161772.000000 0 0 1
24.193136 -26.671020 4.439760 36.281712 -0.834075 1.448120 0.001985 0.009393 -128406.000000 0 0 1
24.959236 -25.867420 5.285860 36.332178 -0.803265 1.424791 0.009803 0.004217 -47974.900000 0 0 1
24.795436 -24.460420 5.038960 35.192569 -0.778597 1.427120 0.010391 0.008341 23000.400000 0 0 1
25.516736 -23.641320 6.132960 35.321792 -0.747266 1.396281 0.000370 0.004319 -549883.000000 0 0 1
26.768136 -23.213720 5.703660 35.887904 -0.714404 1.411190 0.002077 0.005046 -410494.000000 0 0 1
27.544836 -22.571620 6.722360 36.240670 -0.686489 1.384224 0.015047 -0.001253 135380.000000 0 0 1
27.215336 -21.088220 6.772560 35.089245 -0.659226 1.376568 0.009734 -0.002455 -122281.000000 0 0 1
27.555136 -20.395520 5.558460 34.729803 -0.637181 1.410056 0.008545 0.006984 120665.000000 0 0 1
26.706136 -19.266620 5.438960 33.376678 -0.624965 1.407109 0.031029 -0.001646 14252.400000 0 0 1
26.940436 -18.405520 4.161760 32.891800 -0.599357 1.443927 0.041931 0.001463 -769397.000000 0 0 1
28.178436 -17.810020 4.042460 33.579198 -0.563649 1.450118 0.053379 0.000417 -895897.000000 0 0 1
28.307736 -17.363020 2.654060 33.314357 -0.550190 1.491045 0.051145 0.006831 -171873.000000 0 0 1
29.573836 -16.540820 2.448860 33.973628 -0.509960 1.498653 0.062486 -0.013150 -290902.000000 0 0 1
29.514136 -15.412720 3.317560 33.461057 -0.481261 1.471486 0.077554 -0.020599 -484653.000000 0 0 1
30.725236 -14.785320 3.587160 34.285763 -0.448504 1.465979 0.068354 -0.022980 -337715.000000 0 0 1
30.468136 -13.553420 4.527760 33.652683 -0.418554 1.435843 0.086143 -0.028955 289392.000000 0 0 1
29.879236 -13.847620 5.775860 33.434800 -0.433985 1.397175 0.071700 -0.028613 -42099.500000 0 0 1
29.603936 -12.622920 6.467760 32.826255 -0.403050 1.372469 0.052244 -0.029822 -355260.000000 0 0 1
28.916536 -12.869620 7.845860 32.609058 -0.418739 1.327809 0.069255 -0.017132 -1404750.000000 0 0 1
27.610336 -13.312720 7.751560 31.617176 -0.449278 1.323102 0.055474 -0.020493 -1199150.000000 0 0 1
27.000936 -13.216520 8.998460 31.379918 -0.455199 1.279955 0.062915 -0.005793 -85009.700000 0 0 1
27.293336 -14.419320 9.929660 32.425933 -0.486038 1.259570 0.054031 -0.014659 177406.000000 0 0 1
28.412136 -14.307920 10.820560 33.601348 -0.466511 1.242926 0.056301 -0.008506 394305.000000 0 0 1
28.657436 -15.576320 11.370860 34.542247 -0.497866 1.235354 0.050808 -0.015862 78887.100000 0 0 1
29.427136 -15.523820 12.711960 35.616559 -0.485432 1.205837 0.055836 -0.014912 -27279.900000 0 0 1
30.779836 -15.164220 12.605460 36.554746 -0.457764 1.218730 0.055680 -0.013553 -172766.000000 0 0 1
31.414836 -15.425020 13.858660 37.641541 -0.456430 1.193751 0.061685 -0.010908 268763.000000 0 0 1
32.962436 -15.349520 13.893060 38.924890 -0.435806 1.205828 0.063244 -0.018301 -89038.600000 0 0 1
33.466836 -14.089420 13.635660 38.787525 -0.398475 1.211573 0.054908 -0.016690 -323827.000000 0 0 1
34.835536 -14.134720 13.939460 40.095055 -0.385458 1.215722 0.050739 -0.020688 -107542.000000 0 0 1
35.587836 -12.739920 13.927760 40.283770 -0.343771 1.217768 0.050639 -0.023433 -50749.400000 0 0 1
-34.960439 -12.662220 13.005360 39.391668 0.347490 1.234328 0.066584 -0.025640 332734.000000 0 0 1
-34.250939 -11.406520 13.220860 38.445112 0.321476 1.219741 0.069377 -0.020339 553866.000000 0 0 1
-33.120839 -11.205320 12.130360 37.009388 0.326229 1.236860 0.068630 -0.025450 540748.000000 0 0 1
-31.924839 -11.900220 12.383760 36.251456 0.356803 1.222170 0.044295 -0.019257 -108588.000000 0 0 1
-31.935639 -13.274620 12.065660 36.628960 0.393940 1.235126 0.037421 -0.022666 -593421.000000 0 0 1
-30.691339 -14.123320 12.363660 35.976194 0.431281 1.219982 0.018123 -0.011988 -169200.000000 0 0 1
-29.541339 -13.883820 11.601560 34.641700 0.439344 1.229296 0.022990 -0.010480 158975.000000 0 0 1
-28.548539 -14.866820 11.915960 34.322464 0.480114 1.216237 0.024205 -0.007747 689730.000000 0 0 1
-27.180639 -14.867820 11.172760 32.934325 0.500537 1.224684 0.027072 -0.004531 438611.000000 0 0 1
-27.292939 -14.983920 9.760460 32.629572 0.502078 1.267016 0.025371 0.004724 907047.000000 0 0 1
-25.982539 -14.836620 9.171960 31.294448 0.518840 1.273343 0.021428 0.006211 735434.000000 0 0 1
-25.976439 -14.686620 7.662160 30.808779 0.514576 1.319458 0.033599 0.005121 -201321.000000 0 0 1
-26.192439 -15.876520 6.973960 31.412479 0.544929 1.346918 0.041030 0.005349 214094.000000 0 0 1
-26.097739 -15.623420 5.588460 30.925946 0.539427 1.389094 0.044132 0.003878 -257017.000000 0 0 1
-26.425339 -16.702820 4.586460 31.596176 0.563671 1.425123 0.039197 -0.000218 1234690.000000 0 0 1
-27.840739 -17.028020 4.506060 32.944875 0.548922 1.433590 0.024583 -0.007106 1304960.000000 0 0 1
-28.133939 -17.815020 3.370960 33.470238 0.564490 1.469910 0.032632 -0.010585 265091.000000 0 0 1
-29.605639 -18.300920 3.305060 34.961993 0.553663 1.476122 0.040822 -0.011804 504374.000000 0 0 1
-30.615039 -17.330020 3.010860 35.308292 0.515091 1.485419 0.055969 -0.016391 -206771.000000 0 0 1
-31.848239 -17.962220 3.150860 36.699858 0.513524 1.484836 0.070248 -0.018041 -266675.000000 0 0 1
-33.042839 -17.141420 2.578460 37.313616 0.478546 1.501639 0.074913 -0.026953 193341.000000 0 0 1
-33.154939 -17.023020 1.154460 37.287611 0.474340 1.539830 0.076100 -0.023284 112869.000000 0 0 1
-34.306939 -16.351620 0.671060 38.010418 0.444775 1.553141 0.091137 -0.026543 183394.000000 0 0 1
-34.905739 -16.997720 -0.577840 38.828688 0.453162 1.585679 0.089416 -0.028577 316160.000000 0 0 1
-33.877039 -16.971120 -1.621940 37.924970 0.464417 1.613576 0.093300 -0.031423 1194710.000000 0 0 1
-34.169939 -17.931120 -2.629240 38.678452 0.483261 1.638826 0.084528 -0.026909 275400.000000 0 0 1
-32.965339 -18.229120 -3.567640 37.838372 0.505127 1.665223 0.066021 -0.026766 139070.000000 0 0 1
-33.337239 -19.201020 -4.508440 38.734696 0.522558 1.687454 0.061271 -0.030722 -519098.000000 0 0 1
-32.284339 -19.819720 -5.130040 38.228486 0.550586 1.705397 0.057850 -0.026123 -1225270.000000 0 0 1
-32.797339 -20.947420 -6.003740 39.376449 0.568385 1.723864 0.061883 -0.021575 -261951.000000 0 0 1
-33.381539 -21.999220 -5.274640 40.325112 0.582693 1.701975 0.069877 -0.024141 2703.420000 0 0 1
-33.747239 -22.999820 -6.224140 41.311109 0.598223 1.722037 0.041226 -0.020303 -70710.300000 0 0 1
-34.280839 -24.329220 -5.601240 42.408263 0.617209 1.703262 0.033791 -0.016648 -260780.000000 0 0 1
-33.304639 -25.159220 -5.017840 42.040029 0.646965 1.690440 0.037830 -0.013839 -128280.000000 0 0 1
-33.928639 -26.280720 -4.393140 43.140798 0.659053 1.672806 0.013885 -0.002091 963903.000000 0 0 1
-32.836639 -27.289920 -3.837840 42.868562 0.693408 1.660442 0.019570 0.003778 717445.000000 0 0 1
-31.962939 -27.814020 -4.864440 42.648704 0.716103 1.685103 0.011025 0.004106 646984.000000 0 0 1
-31.110239 -28.902120 -4.534640 42.705298 0.748620 1.677181 0.008913 0.009388 478152.000000 0 0 1
-30.086939 -28.780120 -3.351740 41.770245 0.763202 1.651125 0.016252 0.011227 -440217.000000 0 0 1
-30.662739 -28.748920 -2.026640 42.081008 0.753196 1.618975 0.007863 0.003612 -204757.000000 0 0 1
-29.791739 -28.684020 -0.901440 41.365847 0.766457 1.592590 0.020649 -0.000604 64964.800000 0 0 1
-30.585139 -28.548320 0.441760 41.840799 0.750967 1.560238 0.014766 -0.000615 182622.000000 0 0 1
-31.063639 -29.817820 0.804960 43.066228 0.764938 1.552104 0.005750 0.004695 160837.000000 0 0 1
-31.914239 -29.753020 1.970460 43.676579 0.750366 1.525666 0.018797 0.004961 70458.100000 0 0 1
-32.614339 -31.044520 2.330260 45.087553 0.760743 1.519090 -0.000388 -0.002593 -922925.000000 0 0 1
-33.584339 -30.905520 3.369360 45.764742 0.743883 1.497106 -0.002135 -0.004138 250016.000000 0 0 1
-34.056539 -32.112120 3.898060 46.970533 0.756021 1.487711 0.013422 0.003212 -45699.900000 0 0 1
-34.887239 -32.940420 2.908760 48.069237 0.756704 1.510247 0.007306 0.008975 -1048660.000000 0 0 1
-35.649939 -33.961920 3.494160 49.361314 0.761154 1.499950 0.017718 0.010613 287099.000000 0 0 1
35.050536 34.190997 2.562960 49.031960 0.772985 1.518501 0.008633 0.015296 -158548.000000 0 0 1
33.747436 33.627097 3.122760 47.743300 0.783612 1.505342 0.014828 0.013242 -68920.600000 0 0 1
32.896236 -34.309120 3.926860 47.693797 -0.806418 1.488368 0.019582 0.006043 520377.000000 0 0 1
32.419336 -33.008520 3.510060 46.399313 -0.794403 1.495075 0.014022 0.008404 -13581.700000 0 0 1
31.462136 -33.007920 2.277660 45.657163 -0.809370 1.520889 0.021819 0.000243 -635015.000000 0 0 1
31.983236 -33.526620 1.096160 46.348281 -0.808953 1.547144 0.024433 0.009583 -660506.000000 0 0 1
31.223736 -33.046120 0.037560 45.463932 -0.813746 1.569970 0.030821 0.012259 -671109.000000 0 0 1
31.638136 -33.634120 -1.353040 46.195848 -0.815968 1.600090 0.044889 0.000818 1162380.000000 0 0 1
32.928336 -33.415320 -1.961040 46.954282 -0.792738 1.612573 0.023492 0.002360 773595.000000 0 0 1
34.062736 -33.798820 -1.197540 48.000670 -0.781509 1.595747 0.012327 0.016586 23611.800000 0 0 1
35.407736 -33.575920 -1.941340 48.834608 -0.758850 1.610560 0.001811 0.010090 -94725.700000 0 0 1
35.775036 34.116297 -2.769840 49.512089 0.761670 1.626768 0.010235 -0.001525 -222269.000000 0 0 1
-34.886739 -34.206020 -3.676040 48.996424 0.775546 1.645894 0.002505 0.005375 -672050.000000 0 0 1
-33.977439 33.548797 -4.389140 47.950523 -0.779050 1.662459 0.013085 -0.001204 202572.000000 0 0 1
-32.915539 33.029597 -3.590140 46.768324 -0.787128 1.647636 0.023842 -0.001961 -114617.000000 0 0 1
-32.245639 32.032897 -4.273740 45.652520 -0.782088 1.664548 0.038998 -0.006032 20284.200000 0 0 1
-30.967639 31.566097 -3.548240 44.362182 -0.794968 1.650865 0.053271 -0.007981 -264802.000000 0 0 1
-29.821739 32.379297 -3.533040 44.161492 -0.826493 1.650885 0.027375 -0.015942 -112827.000000 0 0 1
-28.653839 31.695497 -3.107340 42.840432 -0.835756 1.643393 0.022478 -0.018225 360673.000000 0 0 1
-28.453239 31.244697 -1.611340 42.289648 -0.832124 1.608908 0.024763 -0.010291 -1030070.000000 0 0 1
-29.418239 30.376297 -1.143140 42.301997 -0.801419 1.597823 0.025523 -0.003947 -714657.000000 0 0 1
-29.564539 30.312697 0.270560 42.343769 -0.797892 1.564407 0.013190 -0.003783 448673.000000 0 0 1
-30.982139 29.727897 0.573860 42.941473 -0.764742 1.557432 0.012832 -0.006615 379124.000000 0 0 1
-31.163539 28.438397 0.136560 42.189184 -0.739708 1.567559 0.019380 -0.010074 4032.920000 0 0 1
-32.435339 28.321597 -0.484340 43.062729 -0.717793 1.582044 0.028474 -0.006500 322165.000000 0 0 1
-32.698739 26.889997 -1.010940 42.347390 -0.688225 1.594671 0.036350 -0.007301 -108981.000000 0 0 1
-32.966139 25.955297 -0.052840 41.957676 -0.666969 1.572056 0.045835 -0.009290 -242645.000000 0 0 1
-33.236739 24.704797 -0.610240 41.417149 -0.639198 1.585531 0.042637 -0.002152 -16902.700000 0 0 1
-33.173739 23.519897 0.373660 40.667212 -0.616735 1.561608 0.056169 -0.013046 -640538.000000 0 0 1
-31.915239 23.126897 0.804860 39.421868 -0.627069 1.550378 0.058965 -0.024979 -713287.000000 0 0 1
-31.634039 23.640097 2.095460 39.546903 -0.641770 1.517785 0.055276 -0.025906 273314.000000 0 0 1
-30.119539 23.540097 2.511360 38.309656 -0.663393 1.505195 0.052623 -0.032355 1176810.000000 0 0 1
-29.188139 24.263097 1.694660 37.993647 -0.693517 1.526178 0.071850 -0.027971 431508.000000 0 0 1
-29.155439 25.688997 2.026860 38.911083 -0.722277 1.518683 0.029880 -0.021987 -422327.000000 0 0 1
-28.632939 26.600797 0.886960 39.092637 -0.748623 1.548106 0.024797 -0.018105 -700907.000000 0 0 1
-27.313939 26.369197 0.561060 37.969733 -0.767802 1.556019 0.029730 -0.020787 -1205280.000000 0 0 1
-26.792139 27.345997 -0.301140 38.284631 -0.795628 1.578662 0.029579 -0.022479 1434760.000000 0 0 1
-25.543339 26.878097 -1.197540 37.098900 -0.810855 1.603082 0.027255 -0.021257 933419.000000 0 0 1
-25.969939 26.035497 -2.318140 36.846419 -0.786659 1.633751 0.047969 -0.032176 509310.000000 0 0 1
-24.892139 25.444397 -3.091240 35.729423 -0.796369 1.657423 0.040869 -0.021620 1168910.000000 0 0 1
-23.882639 24.537297 -2.310540 34.319062 -0.798918 1.638173 0.035313 -0.028194 462454.000000 0 0 1
-24.496439 23.321297 -1.882940 33.874827 -0.760828 1.626410 0.029618 -0.026375 486092.000000 0 0 1
-23.462139 22.502597 -1.318340 32.535778 -0.764526 1.611327 0.019730 -0.040156 -307992.000000 0 0 1
-23.832339 20.988497 -1.223940 31.780425 -0.722034 1.609318 0.022667 -0.037206 75142.800000 0 0 1
-24.678339 20.712597 -0.099140 32.218658 -0.698251 1.573873 0.015492 -0.036719 1276260.000000 0 0 1
-26.030439 21.216697 -0.077540 33.581811 -0.683864 1.573105 0.011337 -0.032009 1048200.000000 0 0 1
-27.080239 20.688897 -1.121840 34.097336 -0.652392 1.603703 0.013688 -0.035892 -239210.000000 0 0 1
-27.345139 19.331097 -0.808540 33.497786 -0.615362 1.594936 0.004113 -0.026201 350045.000000 0 0 1
-28.434139 18.891397 -1.615840 34.175958 -0.586426 1.618094 0.032318 -0.027084 211664.000000 0 0 1
-28.585839 17.396197 -1.541340 33.498561 -0.546690 1.616825 0.011388 -0.013830 -332660.000000 0 0 1
-29.166939 16.994797 -0.355740 33.758851 -0.527582 1.581334 0.029376 -0.022129 97188.900000 0 0 1
-29.267339 15.575297 -0.274840 33.154827 -0.489054 1.579086 0.035657 -0.021813 223841.000000 0 0 1
-27.943439 14.843197 0.119460 31.641279 -0.488285 1.567021 0.030352 -0.017863 121708.000000 0 0 1
-27.553739 15.081197 1.488260 31.446239 -0.500797 1.523452 0.049956 -0.014114 577040.000000 0 0 1
-26.397339 14.429597 2.020060 30.151508 -0.500253 1.503749 0.034924 -0.019172 244202.000000 0 0 1
-26.389939 12.899797 2.079660 29.447557 -0.454660 1.500115 0.046578 -0.014448 -456565.000000 0 0 1
-26.382639 12.274897 0.798460 29.109350 -0.435475 1.543363 0.040742 -0.017418 278168.000000 0 0 1
-26.002639 10.983197 1.013660 28.245271 -0.399656 1.534901 0.062071 -0.013532 -151993.000000 0 0 1
-25.838739 10.191297 -0.281540 27.777369 -0.375686 1.580932 0.060144 -0.015376 316782.000000 0 0 1
-27.113139 9.776397 -0.772540 28.832222 -0.346067 1.597594 0.048929 -0.018219 505139.000000 0 0 1
-26.996739 8.900797 -1.823240 28.484597 -0.318476 1.634848 0.061173 -0.027137 94357.800000 0 0 1
-28.321439 8.524697 -2.549740 29.686285 -0.292372 1.656792 0.062978 -0.033861 251391.000000 0 0 1
-28.092239 7.719697 -3.714640 29.369476 -0.268179 1.697616 0.064140 -0.032395 1200340.000000 0 0 1
-29.313639 7.713097 -4.489640 30.642098 -0.257291 1.717844 0.059436 -0.033110 779329.000000 0 0 1
-10.985864 18.314797 -20.082340 29.315890 -1.030498 2.325445 0.099187 -0.018969 398205.000000 0 0 1
-11.434564 17.270097 -20.961740 29.468628 -0.985961 2.362176 0.099024 -0.027354 -35831.200000 0 0 1
-10.626864 17.229497 -22.113540 29.979901 -1.018128 2.400323 0.097098 -0.031143 49319.200000 0 0 1
-10.871164 16.042197 -23.031340 30.099450 -0.975221 2.442109 0.091901 -0.027297 -306053.000000 0 0 1
-10.286964 14.905897 -22.503140 28.885960 -0.966727 2.463920 0.078265 -0.023335 -181953.000000 0 0 1
-10.333664 13.812797 -23.383040 29.057607 -0.928498 2.505989 0.053126 -0.018195 -127970.000000 0 0 1
-9.649064 12.523597 -22.804340 27.748565 -0.914322 2.535395 0.038345 -0.019065 177525.000000 0 0 1
-8.239164 12.603397 -22.932340 27.433951 -0.991806 2.560587 0.042992 -0.019727 52323.000000 0 0 1
-7.592064 11.502297 -22.311340 26.224762 -0.987390 2.588252 0.024009 -0.017885 414297.000000 0 0 1
-6.045264 11.573197 -22.254940 25.802451 -1.089429 2.611011 0.026002 -0.009751 456297.000000 0 0 1
-5.396464 11.111597 -23.461340 26.514598 -1.118686 2.656960 0.021012 -0.012083 -1711090.000000 0 0 1
-4.070264 11.055897 -23.167040 25.990607 -1.218042 2.671137 0.026915 -0.011830 -1567400.000000 0 0 1
-3.170564 10.738197 -24.365740 26.815119 -1.283693 2.710852 0.042388 -0.012567 -155452.000000 0 0 1
-3.090264 9.358397 -24.667640 26.563542 -1.251857 2.761493 0.036103 -0.019104 -97244.700000 0 0 1
-2.910164 9.055097 -26.058930 27.740434 -1.259838 2.791627 0.044575 -0.018940 -158848.000000 0 0 1
-2.339064 7.666097 -26.427200 27.615886 -1.274651 2.847124 0.044686 -0.003993 103782.000000 0 0 1
-0.975264 7.405797 -26.158320 27.203946 -1.439860 2.863437 0.037836 -0.007310 154509.000000 0 0 1
-0.798864 6.052697 -25.818090 26.530117 -1.439570 2.909389 0.034639 -0.005916 690084.000000 0 0 1
0.558136 5.615597 -25.131060 25.756875 1.471731 2.920703 0.011012 0.001059 777161.000000 0 0 1
0.786936 6.271997 -23.888440 24.710621 1.445980 2.882909 0.005238 -0.008099 -341408.000000 0 1 0
1.840336 5.721097 -23.173540 23.940149 1.259574 2.887844 0.014295 -0.001632 -423493.000000 0 1 0
2.008036 6.391697 -21.762840 22.770753 1.266397 2.842949 0.016833 -0.003681 219185.000000 0 1 0
2.584436 7.683497 -21.915140 23.366403 1.246323 2.787297 0.014455 -0.005876 54430.400000 0 1 0
2.389436 8.371197 -20.735840 22.489139 1.292755 2.744109 0.020547 -0.003233 -58116.000000 0 1 0
3.013736 9.768797 -20.678440 23.067507 1.271554 2.682447 0.017141 -0.005268 -233727.000000 0 1 0
2.747236 10.531997 -19.445240 22.284246 1.315635 2.631297 0.018957 -0.010490 139381.000000 0 1 0
3.439936 11.783197 -19.481840 23.026484 1.286754 2.579351 0.025682 -0.011472 42785.000000 0 1 0
4.688536 11.720297 -18.589140 22.470066 1.190259 2.545053 0.029871 -0.018515 367105.000000 0 1 0
5.707936 10.846997 -19.110840 22.703790 1.086391 2.571307 0.036563 -0.016236 248176.000000 0 1 0
6.697136 10.577897 -18.112240 22.018101 1.006375 2.536777 0.038035 -0.017104 617717.000000 0 1 0
7.786836 9.533297 -18.518640 22.236425 0.885893 2.554955 0.051258 -0.024548 215053.000000 0 1 0
7.230636 8.249397 -18.718640 21.696131 0.851115 2.611507 0.045514 -0.022015 319715.000000 0 1 0
6.714436 8.056497 -20.062040 22.637938 0.876008 2.659903 0.039993 -0.013830 291606.000000 0 1 0
6.219436 6.624697 -20.383640 22.317275 0.816940 2.722251 0.042702 -0.011126 418788.000000 0 1 0
7.380836 5.802497 -20.467640 22.518214 0.666243 2.711524 0.040152 -0.006045 616276.000000 0 1 0
7.082836 4.506397 -20.940740 22.560779 0.566643 2.760321 0.032761 0.003672 6644.090000 0 1 0
7.294636 4.289797 -22.461840 24.003090 0.531605 2.781288 0.032696 0.000079 -1078010.000000 0 1 0
6.373436 4.935497 -23.231340 24.590139 0.658926 2.807603 0.034340 -0.001577 -717848.000000 0 1 0
6.554836 4.659397 -24.617840 25.898144 0.617960 2.825843 0.024640 -0.001745 -261070.000000 0 0 1
5.444836 5.320397 -25.470240 26.583566 0.773839 2.851159 0.013650 -0.011527 -102385.000000 0 0 1
5.365636 6.748097 -25.559520 26.974356 0.899030 2.816274 0.012747 -0.014561 125861.000000 0 0 1
5.003136 7.445397 -24.373540 25.971807 0.979126 2.788945 0.028464 -0.014675 -960031.000000 0 0 1
4.834136 8.959097 -24.398940 26.437522 1.075990 2.746317 0.037531 -0.018918 407066.000000 0 0 1
3.727236 9.444397 -25.129650 27.103288 1.194910 2.757612 0.044690 -0.016784 555336.000000 0 0 1
2.428436 9.274097 -24.550440 26.355839 1.314695 2.769309 0.032482 -0.011204 724331.000000 0 0 1
1.309736 9.899097 -25.466310 27.353984 1.439252 2.767914 0.035993 -0.005232 316189.000000 0 0 1
1.328136 11.320497 -25.478320 27.911689 1.454009 2.720931 0.050118 -0.020554 285097.000000 0 0 1
0.325936 11.700497 -26.424170 28.900599 1.542947 2.724603 0.063648 -0.024093 345345.000000 0 0 1
0.354136 13.170797 -26.833720 29.893876 1.543915 2.685165 0.056427 -0.022447 -249106.000000 0 0 1
0.055336 14.015297 -25.709540 29.281599 1.566848 2.642485 0.046207 -0.018989 77559.600000 0 0 1
-0.231364 15.376397 -25.989660 30.198502 -1.555751 2.607297 0.045060 -0.031389 -198975.000000 0 0 1
-0.664564 16.128097 -24.715340 29.519573 -1.529614 2.563036 0.047865 -0.022588 130802.000000 0 0 1
-1.830764 15.483597 -24.204840 28.791800 -1.453104 2.569344 0.037734 -0.022888 -195756.000000 0 0 1
-2.197764 16.013997 -22.977340 28.093352 -1.434408 2.528535 0.031944 -0.023552 -59493.100000 0 0 1
-3.343964 15.076497 -22.437440 27.238237 -1.352530 2.538786 0.027782 -0.021792 480071.000000 0 0 1
-4.644864 15.270197 -22.932140 27.939877 -1.275511 2.533549 0.026912 -0.021346 -483788.000000 0 0 1
-4.887264 14.914697 -24.252540 28.888046 -1.254141 2.567224 0.029459 -0.022155 -326785.000000 0 0 1
-6.383064 15.079297 -24.643940 29.588046 -1.170367 2.555127 0.018556 -0.023390 384230.000000 0 0 1
-6.781364 16.438797 -24.726340 30.456737 -1.179542 2.518112 0.033633 -0.019167 -392695.000000 0 0 1
-8.059764 16.368497 -25.304940 31.196594 -1.113251 2.516902 0.051715 -0.021019 -406568.000000 0 0 1
-8.768364 17.653797 -25.757950 32.434746 -1.109805 2.488399 0.055437 -0.023531 -39070.400000 0 0 1
-9.115264 18.475997 -24.660840 32.134211 -1.112477 2.445623 0.058508 -0.025871 676314.000000 0 0 1
-10.096564 19.458297 -25.117790 33.338706 -1.092157 2.424032 0.060549 -0.019643 962857.000000 0 0 1
-10.558564 20.535397 -24.044640 33.336624 -1.095882 2.376428 0.046084 -0.016369 -172900.000000 0 0 1
-9.736264 21.634697 -24.022840 33.763172 -1.147917 2.362441 0.065654 -0.012079 -437118.000000 0 0 1
-10.399864 22.792997 -24.412540 34.980709 -1.142737 2.343238 0.054171 -0.022101 -164383.000000 0 0 1
-10.271364 23.264297 -25.913530 36.307568 -1.155027 2.365595 0.035664 -0.011045 -110136.000000 0 0 1
-10.953464 22.426797 -26.798510 36.621029 -1.116464 2.391725 0.034421 -0.010454 -54912.500000 0 0 1
-10.970764 22.989597 -28.070020 37.905214 -1.125550 2.404658 0.053811 -0.008857 -156326.000000 0 0 1
-11.546264 22.122997 -29.229700 38.433300 -1.089773 2.434926 0.045671 -0.007947 78928.100000 0 0 1
-10.705464 21.030997 -29.587860 37.846417 -1.099949 2.468324 0.048707 -0.009378 104945.000000 0 0 1
-10.659364 19.884497 -28.713550 36.516889 -1.078715 2.475608 0.053840 -0.011283 206305.000000 0 0 1
-9.516964 18.989597 -29.269330 36.164500 -1.106215 2.513822 0.041649 -0.015879 -1487370.000000 0 0 1
-8.252164 19.538097 -29.227130 36.111779 -1.171162 2.513844 0.031924 -0.013848 -894529.000000 0 0 1
-7.255064 18.728397 -29.836010 35.966322 -1.201214 2.549105 0.034998 -0.015685 310562.000000 0 0 1
-6.903064 17.382497 -29.130250 34.617553 -1.192769 2.570828 0.049367 -0.031849 -1674550.000000 0 0 1
-7.983264 16.522597 -29.075040 34.381487 -1.120701 2.578596 0.039538 -0.026567 -640624.000000 0 0 1
-7.583264 15.314297 -28.563300 33.285067 -1.111016 2.602435 0.020785 -0.012369 902034.000000 0 0 1
-8.802764 14.307197 -28.417400 33.011107 -1.019226 2.607721 0.034206 -0.013644 1887210.000000 0 0 1
-9.774364 14.496497 -27.322320 32.437567 -0.977557 2.572341 0.056726 -0.031293 1297810.000000 0 0 1
-11.035464 13.909597 -27.649440 32.859548 -0.900111 2.570745 0.088408 -0.025402 460052.000000 0 0 1
-12.135164 14.335497 -26.675780 32.624621 -0.868331 2.528127 0.079931 -0.020627 -92030.400000 0 0 1
-12.508364 15.718297 -26.714370 33.424267 -0.898632 2.496844 0.064214 -0.022606 -591604.000000 0 0 1
-13.518364 16.020797 -25.797060 33.240042 -0.869912 2.459228 0.064884 -0.028051 -92001.700000 0 0 1
-14.418064 17.190797 -26.258640 34.538678 -0.872894 2.434521 0.050334 -0.026137 41363.700000 0 0 1
-13.765064 18.438397 -26.411260 35.028647 -0.929511 2.424912 0.044124 -0.014812 -202242.000000 0 0 1
-14.702064 19.376797 -26.869110 36.243069 -0.921721 2.405889 0.027045 -0.013430 -307548.000000 0 0 1
-14.220464 20.857497 -26.870480 36.868408 -0.972396 2.387395 0.031055 -0.011825 91653.300000 0 0 1
-15.215664 21.835297 -27.159020 38.025110 -0.962196 2.366333 0.014333 -0.010062 148766.000000 0 0 1
-14.681564 23.105597 -27.293680 38.656978 -1.004745 2.354698 0.014455 -0.004520 -298494.000000 0 0 1
-14.359264 23.877597 -25.986200 38.100009 -1.029370 2.321362 -0.005226 -0.000876 142747.000000 0 0 1
-13.811264 25.151097 -26.345250 38.953830 -1.068620 2.313551 0.015014 -0.010091 139602.000000 0 0 1
-13.662364 25.900297 -25.162990 38.609088 -1.085393 2.280669 0.031114 -0.021445 -284091.000000 0 0 1
-13.160564 27.321097 -25.495020 39.618668 -1.121896 2.269872 0.038668 -0.016012 -273491.000000 0 0 1
-14.101164 28.250597 -25.948780 40.869038 -1.107832 2.258708 0.049489 -0.019395 -101206.000000 0 0 1
-14.879564 28.894997 -24.927340 40.959670 -1.095258 2.225069 0.050901 -0.022531 126741.000000 0 0 1
-16.310364 29.321397 -25.302450 42.023640 -1.063159 2.216926 0.045219 -0.021200 242001.000000 0 0 1
-17.222264 28.208497 -25.296200 41.619988 -1.022667 2.224071 0.033702 -0.018427 -62638.900000 0 0 1
-18.443664 28.657197 -25.854010 42.776554 -0.998936 2.219805 0.026750 -0.014441 -442679.000000 0 0 1
-19.552264 27.638997 -25.646070 42.472651 -0.955111 2.219088 0.018903 -0.012352 -621485.000000 0 0 1
-19.794164 27.498897 -24.279540 41.683262 -0.946894 2.192569 0.026001 -0.016100 -537444.000000 0 0 1
-20.827364 26.622397 -23.961740 41.433032 -0.906926 2.187470 0.029590 -0.024068 -622913.000000 0 0 1
-21.279264 26.870697 -22.504840 41.003772 -0.901006 2.151782 0.032145 -0.021050 340762.000000 0 0 1
-22.249964 27.926497 -22.423640 42.163607 -0.898051 2.131550 0.027261 -0.013453 268894.000000 0 0 1
-22.477264 28.392797 -21.116040 41.919751 -0.901165 2.098702 0.012022 -0.013044 686249.000000 0 0 1
-23.874964 29.138997 -21.061240 43.158671 -0.884369 2.080588 0.005368 -0.007324 1160790.000000 0 0 1
-24.992164 28.251497 -21.148340 43.243585 -0.846537 2.081798 0.017544 -0.005295 -18798.200000 0 0 1
-26.154064 29.028097 -21.298140 44.500295 -0.837434 2.069864 0.023894 -0.004934 -286294.000000 0 0 1
-27.444974 28.231197 -21.488940 44.855341 -0.799519 2.070394 0.016959 -0.004438 -196653.000000 0 0 1
-27.556044 27.633997 -22.812740 45.203921 -0.786811 2.099788 0.017129 -0.000519 -152423.000000 0 0 1
-28.904014 27.255797 -22.978940 45.895013 -0.756058 2.095186 0.025380 -0.003446 -105065.000000 0 0 1
-29.246754 26.745297 -24.376640 46.528530 -0.740753 2.122228 0.027435 0.004571 524882.000000 0 0 1
-28.567674 25.486797 -24.771140 45.599323 -0.728464 2.145082 0.035858 0.000213 249600.000000 0 0 1
-28.714714 25.239997 -26.129210 46.306888 -0.721086 2.170335 0.052946 -0.003035 -88537.000000 0 0 1
-28.649674 23.765997 -26.515700 45.702394 -0.692494 2.189748 0.052765 -0.016509 257434.000000 0 0 1
-27.355424 23.230297 -26.758740 44.766015 -0.704031 2.211484 0.042051 -0.019264 311849.000000 0 0 1
-27.537074 21.907097 -27.257340 44.510380 -0.672021 2.229866 0.056641 -0.028312 -11155.900000 0 0 1
-26.365754 20.940297 -27.010190 43.164794 -0.671209 2.246884 0.050988 -0.016950 -128047.000000 0 0 1
-26.410014 20.461097 -25.666550 42.129765 -0.659152 2.225881 0.055992 -0.021478 411921.000000 0 0 1
-25.753714 19.189297 -25.478330 40.995466 -0.640363 2.241441 0.029116 -0.027547 237253.000000 0 0 1
-26.759144 18.004197 -25.451600 41.085117 -0.592253 2.238882 0.032858 -0.016960 177711.000000 0 0 1
-27.449314 17.772697 -26.661650 42.192146 -0.574597 2.254812 0.035915 -0.019692 280683.000000 0 0 1
-28.333624 16.680697 -26.486520 42.220560 -0.532087 2.248925 0.016801 -0.015589 239624.000000 0 0 1
-29.240384 16.277797 -27.711220 43.449723 -0.507964 2.262405 0.005879 -0.012200 757124.000000 0 0 1
-30.515744 16.901397 -27.864810 44.646562 -0.505801 2.244801 0.007917 -0.017757 525228.000000 0 0 1
-31.145764 16.263297 -28.979740 45.545349 -0.481224 2.260467 0.013523 -0.010893 491285.000000 0 0 1
-32.482074 16.862097 -29.515000 47.016494 -0.478826 2.249466 0.026216 -0.018364 804627.000000 0 0 1
-33.625304 16.509997 -28.746570 47.218708 -0.456421 2.225339 0.017032 -0.012945 -276426.000000 0 0 1
-34.826234 16.947897 -29.285520 48.556560 -0.452904 2.218205 0.016994 -0.007334 -784437.000000 0 0 1
35.558110 16.650297 -28.449620 48.487034 0.437931 2.197832 0.015536 -0.003103 -554202.000000 0 0 1
35.417330 17.448397 -27.290620 47.995956 0.457751 2.175602 0.011781 -0.005011 -230361.000000 0 0 1
34.313750 16.966797 -26.574560 46.599494 0.459206 2.177638 0.016941 0.001230 -318815.000000 0 0 1
33.831300 18.002597 -25.550690 46.059615 0.489019 2.158836 0.017109 -0.000598 -57498.200000 0 0 1
33.057950 19.028197 -26.172730 46.259184 0.522286 2.172181 0.019836 -0.008381 304676.000000 0 0 1
32.632880 19.911597 -25.154870 45.761818 0.547864 2.152791 0.026239 -0.005929 -393337.000000 0 0 1
32.061910 21.291597 -25.679970 46.268337 0.586208 2.159186 0.027737 -0.008375 955369.000000 0 0 1
30.752670 21.269397 -26.279500 45.702583 0.605085 2.183414 0.023589 -0.009179 1066330.000000 0 0 1
29.714540 21.409897 -25.297060 44.511558 0.624365 2.175266 0.028518 0.000760 -742385.000000 0 0 1
28.331500 21.189097 -25.846600 43.814364 0.642155 2.201746 0.012688 0.002381 -874783.000000 0 0 1
27.951950 19.873697 -26.062200 43.075673 0.618067 2.220604 0.019916 -0.003611 -1171930.000000 0 0 1
26.798680 19.878597 -26.797790 42.795437 0.638216 2.247445 0.025158 -0.003958 -1240960.000000 0 0 1
26.311510 18.419597 -27.018950 41.971428 0.610765 2.270180 0.034890 -0.005738 -65365.100000 0 0 1
27.032010 17.531397 -27.876060 42.604626 0.575350 2.284048 0.032289 -0.014436 -294150.000000 0 0 1
28.159150 16.957897 -27.287720 42.721513 0.542047 2.263649 0.031628 -0.008507 -533194.000000 0 0 1
28.816740 15.814797 -28.087080 43.236517 0.501926 2.277874 0.022290 -0.003382 -272771.000000 0 0 1
28.019830 14.712297 -28.444720 42.551905 0.483500 2.302948 0.033755 0.001059 -34540.000000 0 0 1
27.429390 13.905597 -27.414060 41.197909 0.469200 2.298857 0.041795 -0.005709 -155614.000000 0 0 1
28.383250 13.020997 -26.586140 41.011926 0.430112 2.276085 0.031215 -0.003443 185126.000000 0 0 1
29.197860 13.736297 -25.653290 41.222472 0.439734 2.242491 0.028049 -0.007656 206785.000000 0 0 1
29.988660 12.910397 -24.810140 41.006598 0.406528 2.220597 0.025663 -0.010463 -17931.200000 0 0 1
-14.467564 -31.710120 -23.836040 42.225572 1.142762 2.170615 0.067418 -0.009881 333438.000000 0 0 1
-13.591364 -30.750020 -24.424940 41.555584 1.154619 2.199090 0.051399 -0.018684 406564.000000 0 0 1
-14.094364 -30.318420 -25.679040 42.157689 1.135639 2.225745 0.040596 -0.017823 5171.160000 0 0 1
-13.207664 -29.271620 -26.360870 41.547149 1.146936 2.258133 0.037569 -0.016869 -233399.000000 0 0 1
-13.486264 -27.979220 -25.900340 40.441856 1.121644 2.265860 0.029268 -0.002386 206796.000000 0 0 1
-12.691464 -26.994120 -26.553720 39.935646 1.131307 2.298173 0.018014 -0.001145 -121545.000000 0 0 1
-13.202164 -25.531320 -26.372110 39.008122 1.093565 2.313208 0.015355 0.010951 -176062.000000 0 0 1
-12.925964 -25.070320 -25.071740 37.738490 1.094756 2.297426 0.006668 -0.009743 353524.000000 0 0 1
-13.348464 -23.681620 -24.955940 36.902568 1.057523 2.313478 0.014933 -0.006933 -175430.000000 0 0 1
-13.155364 -23.113420 -23.565240 35.533285 1.053358 2.295866 0.004356 -0.003056 -620071.000000 0 0 1
-11.796564 -22.947120 -23.318840 34.777831 1.095951 2.305691 -0.001547 -0.017219 -723096.000000 0 0 1
-11.539564 -22.458620 -22.003640 33.491959 1.096158 2.287606 -0.010176 -0.012561 84302.900000 0 0 1
-10.066764 -22.021720 -21.919140 32.661056 1.142030 2.306500 0.000271 -0.018359 -175340.000000 0 0 1
-9.700464 -20.935220 -22.738940 32.395090 1.136891 2.348894 0.005335 -0.008707 -568111.000000 0 0 1
-8.339964 -20.726920 -22.472340 31.688583 1.188245 2.359105 0.020727 -0.005478 -401826.000000 0 0 1
-7.778264 -19.582820 -23.301740 31.415909 1.192707 2.406424 0.024884 0.006522 -261341.000000 0 0 1
-8.307664 -18.334820 -22.964540 30.537731 1.145360 2.421896 0.004147 0.007385 -319572.000000 0 0 1
-8.536864 -17.428320 -24.031440 30.889067 1.115320 2.462259 -0.001464 0.005578 295552.000000 0 0 1
-7.315164 -16.782620 -24.808140 30.831992 1.159749 2.505837 0.016982 -0.002798 452310.000000 0 0 1
-6.688164 -17.609420 -25.718830 31.879169 1.207819 2.509444 0.013110 -0.005249 -33548.400000 0 0 1
-5.684164 -16.854020 -26.398320 31.831415 1.245517 2.548680 0.019290 -0.009384 -66786.400000 0 0 1
-5.391764 -17.555120 -27.740240 33.268217 1.272808 2.556817 0.037430 -0.002942 538878.000000 0 0 1
-6.368564 -17.363920 -28.806930 34.233077 1.219260 2.570839 0.058751 -0.007183 595416.000000 0 0 1
-5.940364 -18.024120 -29.942260 35.449905 1.252429 2.576681 0.062046 -0.018519 -265949.000000 0 0 1
-6.818264 -17.788220 -31.214710 36.568670 1.204767 2.593638 0.063835 -0.014614 182258.000000 0 0 1
-6.725664 -16.589220 -32.015800 36.680352 1.185623 2.631773 0.061310 -0.013260 -188840.000000 0 0 1
-6.829264 -15.343820 -31.401600 35.610843 1.152039 2.650459 0.047890 -0.011625 -85076.900000 0 0 1
-7.265264 -14.265820 -32.479550 36.210756 1.099754 2.683638 0.051665 -0.013901 16622.000000 0 0 1
-6.407464 -14.023620 -33.572620 36.943718 1.142215 2.711076 0.056284 -0.015497 241248.000000 0 0 1
-7.088964 -13.204920 34.142316 37.287009 1.078111 0.413643 0.060544 -0.007294 141736.000000 0 0 1
-7.545164 -11.783820 -34.295241 37.039863 1.001271 2.754210 0.045429 -0.008024 279884.000000 0 0 1
-6.519964 -10.777320 -34.156261 36.404817 1.026730 2.788289 0.036616 -0.012614 268259.000000 0 0 1
-6.039064 -10.379220 33.298680 35.397748 1.043835 0.346107 0.028889 -0.013973 -240672.000000 0 0 1
-4.875764 -9.388120 33.338667 34.976800 1.091785 0.307262 0.037748 -0.014518 -291063.000000 0 0 1
-4.600164 -8.769220 32.070703 33.564724 1.087678 0.299486 0.036578 -0.008697 -379743.000000 0 0 1
-3.673964 -7.738620 32.210583 33.330255 1.127546 0.259935 0.032674 -0.017468 -961026.000000 0 0 1
-3.746564 -6.681720 31.078103 32.008289 1.059761 0.241672 0.027631 -0.008898 243589.000000 0 0 1
-4.902264 -5.865020 31.007573 31.935877 0.874576 0.241701 0.018178 -0.009137 741209.000000 0 0 1
-6.129264 -6.503120 30.593213 31.871666 0.814985 0.284196 0.014044 -0.006417 342702.000000 0 0 1
-7.327664 -5.526520 30.488463 31.839966 0.646183 0.292406 0.006820 -0.008448 -273649.000000 0 0 1
-8.367164 -6.278620 29.940753 31.715598 0.643749 0.336128 0.007159 -0.000751 -401473.000000 0 0 1
-9.614964 -5.569420 29.966803 31.960526 0.525019 0.355079 0.005095 -0.004938 828124.000000 0 0 1
-10.676264 -6.341320 29.119733 31.656813 0.535970 0.403081 0.017543 0.001028 -37481.400000 0 0 1
-10.338264 -6.287320 27.779993 30.300794 0.546398 0.410786 0.009613 0.006967 -32320.000000 0 0 1
-11.263664 -6.928620 26.955193 30.024296 0.551470 0.456095 0.020635 0.003785 -261253.000000 0 0 1
-11.051364 -6.538920 25.504713 28.554868 0.534283 0.466423 0.009720 0.004843 -404659.000000 0 0 1
-9.951064 -7.152720 24.921023 27.771252 0.623225 0.457029 0.013213 0.006469 -476862.000000 0 0 1
-9.574164 -6.647320 23.618383 26.337796 0.606889 0.458429 0.010542 0.002489 -283244.000000 0 0 1
-10.523464 -6.829920 22.429883 25.700015 0.575685 0.509973 0.018458 -0.002959 531688.000000 0 0 1
-11.727564 -6.056920 22.575783 26.151253 0.476736 0.529069 0.017965 0.001656 -6149.160000 0 0 1
-12.516964 -6.097420 21.454483 25.576312 0.453301 0.575644 0.025210 -0.001763 588674.000000 0 0 1
-13.643464 -4.954920 21.365683 25.829978 0.348361 0.596750 0.020071 0.010605 1051870.000000 0 0 1
-13.181064 -3.706920 20.913683 24.997277 0.274150 0.579679 0.010196 0.008613 -466232.000000 0 1 0
-14.245664 -2.803920 20.910583 25.456893 0.194342 0.606915 0.013571 0.008071 -121254.000000 0 0 1
-14.001464 -1.453920 20.264783 24.674203 0.103470 0.607120 0.007844 0.006861 -94154.700000 0 1 0
-13.132064 -0.650920 21.073083 24.838471 0.049527 0.557831 0.001457 0.008042 102384.000000 0 1 0
-13.037264 0.760080 20.827983 24.583589 -0.058235 0.560045 0.009992 -0.002752 119645.000000 0 1 0
-12.409164 1.152080 19.401283 23.059150 -0.092576 0.570983 0.020265 -0.015004 37460.900000 0 1 0
-13.180464 0.838080 18.288883 22.559039 -0.063500 0.625429 0.021629 -0.010760 -42710.200000 0 1 0
-14.401164 1.524080 18.056383 23.146259 -0.105438 0.675972 0.014079 -0.013359 82607.100000 0 1 0
-15.426864 0.740080 17.246683 23.151327 -0.047937 0.730330 0.020178 -0.006960 -257393.000000 0 1 0
-15.858564 -0.448920 17.923483 23.936308 0.028300 0.724548 0.009508 -0.000399 226730.000000 0 1 0
-16.787064 -1.185920 17.160583 24.035339 0.070528 0.775640 0.011745 0.006012 -42818.300000 0 1 0
-16.723964 -2.649920 17.427483 24.298770 0.157144 0.770996 0.013390 0.008527 -354336.000000 0 1 0
-17.272464 -3.031920 18.628183 25.583975 0.173765 0.755222 0.014180 0.010105 -301543.000000 0 0 1
-17.421464 -4.441120 18.778183 25.997137 0.249606 0.763649 0.021581 0.011057 -105315.000000 0 0 1
-18.092664 -4.889520 20.079783 27.467246 0.263944 0.750945 0.018482 0.010206 -140184.000000 0 0 1
-17.374164 -4.481320 21.225383 27.793177 0.252428 0.701786 0.018222 0.011219 290760.000000 0 0 1
-18.135564 -4.667320 22.434583 29.223160 0.251891 0.695554 0.019410 0.009816 60115.200000 0 0 1
-18.217564 -6.107420 23.032783 29.994821 0.323474 0.695253 0.028901 0.010586 737460.000000 0 0 1
-17.030564 -6.613620 23.667413 29.898604 0.370413 0.657391 0.003281 0.006826 83137.900000 0 0 1
-16.140064 -7.264120 22.857183 28.908821 0.422910 0.658903 0.022533 0.010914 -507819.000000 0 0 1
-14.998864 -7.926720 23.665013 29.117549 0.486177 0.621956 0.031935 0.011275 251708.000000 0 0 1
-15.494964 -9.090220 24.314843 30.231401 0.530550 0.636315 0.022590 -0.000549 398271.000000 0 0 1
-14.517564 -9.510820 25.245673 30.635916 0.579970 0.602265 0.039242 0.008944 181094.000000 0 0 1
-15.111564 -10.405720 26.355143 32.112800 0.603029 0.608152 0.024660 -0.000787 -110875.000000 0 0 1
-15.240764 -11.781520 26.064593 32.410617 0.658076 0.636469 0.022453 -0.008408 -180733.000000 0 0 1
-14.332864 -12.566020 26.777853 32.869275 0.719808 0.618624 0.042119 -0.009583 -255482.000000 0 0 1
-14.667064 -14.073820 26.595493 33.474101 0.764760 0.652597 0.023028 -0.013150 425768.000000 0 0 1
-15.699564 -14.611120 27.439583 34.826597 0.749504 0.663419 0.019527 -0.015543 344775.000000 0 0 1
-15.890564 -16.027220 27.319253 35.436188 0.789680 0.690477 0.035086 -0.005322 -480691.000000 0 0 1
-14.910564 -16.978920 27.983083 35.967507 0.850168 0.679304 0.035041 -0.008079 -115089.000000 0 0 1
-13.589464 -16.903720 27.491113 35.016718 0.893662 0.667962 0.040903 -0.012159 -253305.000000 0 0 1
-12.696164 -17.728920 28.157833 35.614193 0.949328 0.658951 0.046547 -0.006240 -363534.000000 0 0 1
-11.316964 -17.802120 27.483623 34.645904 1.004533 0.654632 0.051141 -0.018384 -238055.000000 0 0 1
-10.391964 -18.623420 28.134473 35.304012 1.061828 0.648617 0.054701 -0.014728 -355478.000000 0 0 1
-9.501364 -19.271320 27.277653 34.723624 1.112739 0.667188 0.051400 -0.023975 -79320.300000 0 0 1
-8.361164 -20.019020 28.020493 35.437526 1.175158 0.658843 0.059595 -0.020638 133159.000000 0 0 1
-8.859164 -21.067820 28.811743 36.775731 1.172737 0.670607 0.053947 -0.014363 354934.000000 0 0 1
-7.815364 -21.529120 29.644603 37.461786 1.222575 0.657816 0.063272 -0.018364 225584.000000 0 0 1
-8.232464 -22.801420 30.329663 38.827396 1.224311 0.674305 0.061450 -0.018745 49633.600000 0 0 1
-8.313564 -23.887920 29.459283 38.827792 1.235883 0.709456 0.066502 -0.021587 55279.000000 0 0 1
-8.722664 -25.070720 30.137123 40.160578 1.235974 0.722106 0.056228 -0.026486 -307782.000000 0 0 1
-8.832164 -26.232420 29.212253 40.243045 1.246029 0.758461 0.059843 -0.024120 234762.000000 0 0 1
-10.012364 -26.136120 28.394673 39.869809 1.204956 0.778191 0.047397 -0.023282 613283.000000 0 0 1
-10.119664 -27.259320 27.548013 40.054602 1.215329 0.812395 0.050221 -0.019725 408431.000000 0 0 1
-11.439164 -27.449820 26.708593 39.971190 1.175951 0.839015 0.040651 -0.012341 473904.000000 0 0 1
-11.555764 -26.776520 25.463553 38.715762 1.163380 0.853028 0.042795 -0.012777 226678.000000 0 0 1
-11.934964 -25.394720 25.589093 37.975477 1.131453 0.831413 0.035734 -0.006859 -349958.000000 0 0 1
-12.118764 -24.751420 24.180733 36.663402 1.115488 0.850599 0.043960 -0.024986 -1041070.000000 0 0 1
-13.183864 -25.279220 23.530683 36.966827 1.090074 0.880799 0.034903 -0.016240 -809000.000000 0 0 1
-13.104564 -24.763620 22.187483 35.738647 1.084073 0.901000 0.046221 -0.021515 -484185.000000 0 0 1
-14.495464 -24.882120 21.588183 35.990110 1.043295 0.927500 0.048795 -0.019903 -810171.000000 0 0 1
-14.764864 -26.189620 21.157983 36.763537 1.057444 0.957562 0.065072 -0.018976 435898.000000 0 0 1
-15.966164 -26.211320 20.383383 36.843371 1.023689 0.984543 0.063609 -0.022512 398429.000000 0 0 1
-16.329564 -27.647520 19.926483 37.790273 1.037292 1.015387 0.068562 -0.024791 192518.000000 0 0 1
-15.400464 -28.159820 18.979583 37.287724 1.070340 1.036770 0.060053 -0.024946 166674.000000 0 0 1
-15.598364 -29.542020 18.640383 38.255768 1.084996 1.061851 0.080643 -0.020576 -26916.700000 0 0 1
-14.485764 -29.995920 17.686783 37.714916 1.120902 1.082684 0.074794 -0.025217 1218.700000 0 0 1
-14.608764 -29.445820 16.402183 36.735595 1.110255 1.107954 0.082425 -0.029529 -289463.000000 0 0 1
-13.404964 -29.501620 15.683683 36.000230 1.144305 1.120030 0.074982 -0.023936 -158648.000000 0 0 1
-13.528864 -28.820420 14.277183 34.892474 1.131911 1.149245 0.059598 -0.009814 -83187.600000 0 0 1
-13.589764 -27.398320 14.296983 33.760233 1.110348 1.133506 0.049521 -0.010661 -113086.000000 0 0 1
-14.055664 -26.701920 13.169683 32.924076 1.086259 1.159278 0.044639 -0.008559 -150484.000000 0 0 1
-13.385364 -27.010020 11.836483 32.385359 1.110699 1.196639 0.030862 0.003859 -111996.000000 0 0 1
-13.944664 -26.471920 10.667183 31.764839 1.085961 1.228324 0.018504 0.007642 -671803.000000 0 0 1
-13.103664 -26.636520 9.543883 31.181660 1.113615 1.259730 0.022205 0.003611 -15945.100000 0 0 1
-13.512364 -25.932120 8.226283 30.376481 1.090438 1.296561 0.033386 -0.004780 122262.000000 0 0 1
-14.334664 -26.777520 7.420583 31.266328 1.079290 1.331175 0.034809 -0.006865 -59703.400000 0 0 1
-14.865964 -26.067120 6.339483 30.670518 1.052505 1.362599 0.048796 -0.011929 197192.000000 0 0 1
-15.722564 -26.865420 5.332083 31.581338 1.041305 1.401147 0.049004 -0.007452 373131.000000 0 0 1
-14.937664 -27.506020 4.361283 31.602781 1.073290 1.432351 0.061205 -0.010873 -137875.000000 0 0 1
-15.777064 -27.926020 3.310883 32.245004 1.056541 1.467936 0.064995 -0.007232 -380277.000000 0 0 1
-15.174564 -29.058820 2.488583 32.876671 1.089546 1.495029 0.065323 -0.008503 132178.000000 0 0 1
-13.938964 -28.655820 1.897783 31.922599 1.118066 1.511312 0.062482 0.000599 35800.600000 0 0 1
-13.499064 -29.735320 1.146783 32.676125 1.144642 1.535694 0.059494 -0.006251 -867349.000000 0 0 1
-12.159464 -29.741720 0.430683 32.134218 1.182697 1.557393 0.034045 0.002601 -429605.000000 0 0 1
-11.989964 -28.868220 -0.692317 31.266798 1.177141 1.592940 0.052895 0.002515 -177763.000000 0 0 1
-11.923764 -27.466320 -0.330417 29.944684 1.161224 1.581831 0.054094 -0.008291 -354107.000000 0 0 1
-11.580764 -26.534920 -1.529817 28.992351 1.159280 1.623587 0.061161 -0.007618 275032.000000 0 0 1
-10.300064 -26.784620 -2.071417 28.771478 1.203678 1.642854 0.057906 -0.011988 -260365.000000 0 0 1
-10.037664 -26.022920 -3.235517 28.078740 1.202657 1.686283 0.071493 -0.018212 1097840.000000 0 0 1
-8.662264 -26.402920 -3.915817 28.062121 1.253781 1.710794 0.064546 -0.019618 1041620.000000 0 0 1
-8.202364 -25.528120 -4.919517 27.261059 1.259908 1.752250 0.067165 -0.019280 -305388.000000 0 0 1
-6.820564 -25.751720 -5.083017 27.120255 1.311883 1.759336 0.052125 -0.017436 125088.000000 0 0 1
-6.067064 -24.852220 -6.080717 26.294814 1.331354 1.804160 0.048983 -0.013448 -527006.000000 0 0 1
-6.383064 -24.890320 -7.447317 26.753207 1.319759 1.852894 0.051791 -0.009302 -245272.000000 0 0 1
-5.931264 -23.699220 -8.045317 25.720810 1.325561 1.888930 0.033541 -0.010784 -264294.000000 0 0 1
-6.294464 -23.591120 -9.518517 26.206171 1.310055 1.942514 0.042845 -0.014638 -116818.000000 0 0 1
-5.501764 -24.433520 -10.349817 27.099539 1.349317 1.962668 0.029866 -0.015752 49165.900000 0 0 1
-5.786864 -24.455820 -11.761917 27.747390 1.338445 2.008535 0.019280 -0.010557 -709595.000000 0 0 1
-7.112364 -25.073520 -12.180717 28.768681 1.294397 2.007994 0.024672 -0.012453 -413315.000000 0 0 1
-7.307864 -25.142120 -13.629117 29.517519 1.287928 2.050741 0.031414 -0.012891 -1390360.000000 0 0 1
-8.461964 -25.797320 -13.877517 30.490852 1.253838 2.043322 0.043464 -0.010159 -2073870.000000 0 0 1
-8.716064 -25.967820 -15.376517 31.412334 1.246963 2.082319 0.042197 -0.019409 362426.000000 0 0 1
-7.785264 -26.663320 -16.260017 32.185884 1.286710 2.100400 0.033502 -0.026698 1554090.000000 0 0 1
-6.418564 -26.202120 -16.253117 31.494649 1.330563 2.113041 0.045625 -0.023348 344257.000000 0 0 1
-5.429564 -27.040720 -17.012417 32.405294 1.372639 2.123498 0.035248 -0.021281 -483546.000000 0 0 1
-5.532764 -26.744520 -18.362717 32.910032 1.366799 2.162730 0.062859 -0.028859 422042.000000 0 0 1
-4.574364 -27.511220 -19.095617 33.799921 1.406031 2.171182 0.057823 -0.030463 279320.000000 0 0 1
-24.706464 14.216597 -5.515040 29.033372 -0.522150 1.761913 0.026168 -0.015367 -20557.100000 0 0 1
-24.863264 13.156397 -4.596140 28.502582 -0.486695 1.732757 0.012331 -0.010916 783121.000000 0 0 1
-23.734364 12.307597 -4.800340 27.163215 -0.478382 1.748451 0.041480 -0.011112 -91241.800000 0 0 1
-24.017164 10.943397 -4.106340 26.710375 -0.427542 1.725144 0.057675 -0.028542 -30620.200000 0 0 1
-24.492564 9.905097 -4.983040 26.885449 -0.384304 1.757218 0.059861 -0.030443 -441230.000000 0 0 1
-25.848284 9.990397 -5.249340 28.204564 -0.368816 1.758005 0.052386 -0.029790 -1341280.000000 0 0 1
-26.245854 9.501197 -6.640440 28.691690 -0.347332 1.804355 0.075058 -0.025740 -350388.000000 0 0 1
-25.762184 10.216297 -7.725540 28.770590 -0.377539 1.842655 0.095609 -0.022472 -79036.400000 0 0 1
-26.053334 9.453797 -8.908140 29.111947 -0.348088 1.881781 0.100966 -0.022513 -501034.000000 0 0 1
-26.605074 10.402897 -10.066240 30.288272 -0.372734 1.909588 0.070423 -0.014206 -222063.000000 0 0 1
-25.691794 11.267997 -10.672040 30.015471 -0.413320 1.934300 0.078043 -0.008802 -294904.000000 0 0 1
-26.310684 12.000197 -11.704240 31.196892 -0.427912 1.955380 0.061973 -0.009231 -148149.000000 0 0 1
-25.478264 13.084097 -12.432340 31.223367 -0.474421 1.980322 0.056861 -0.004597 -164648.000000 0 0 1
-25.247454 14.277597 -11.651340 31.257598 -0.514670 1.952770 0.059732 -0.005340 399854.000000 0 0 1
-24.488364 15.225897 -12.408140 31.392194 -0.556266 1.977149 0.049649 -0.004320 114269.000000 0 0 1
-24.331264 16.652097 -11.734440 31.733261 -0.600173 1.949572 0.057682 -0.001610 -48551.800000 0 0 1
-23.419564 16.772897 -10.657440 30.714607 -0.621510 1.925148 0.056432 -0.000159 91626.000000 0 0 1
-23.242764 18.149797 -10.369640 31.259729 -0.662973 1.908928 0.026182 0.002451 -128949.000000 0 0 1
-22.172264 18.459497 -9.298640 30.312160 -0.694275 1.882586 0.026713 -0.003952 -257704.000000 0 0 1
-22.419064 17.983597 -7.982040 29.828463 -0.676054 1.841696 0.037462 -0.012327 178536.000000 0 0 1
-23.261864 18.873197 -7.257840 30.821878 -0.681615 1.808506 0.018654 -0.013050 -216637.000000 0 0 1
-23.633664 18.341397 -5.852140 30.482856 -0.659979 1.763977 0.011781 -0.014351 -289961.000000 0 0 1
-22.650764 18.388597 -4.857140 29.576840 -0.681914 1.735765 0.027039 -0.025136 -216377.000000 0 0 1
-23.142364 17.905797 -3.576540 29.478437 -0.658512 1.692423 0.011573 -0.016733 980481.000000 0 0 1
-21.953664 17.596297 -2.563740 28.251829 -0.675667 1.661667 0.022171 -0.027134 498116.000000 0 0 1
-21.130064 18.697497 -2.197940 28.300300 -0.724396 1.648540 0.037818 -0.034790 235784.000000 0 0 1
-20.195764 18.191997 -1.257140 27.210257 -0.733247 1.617014 0.060283 -0.045937 -363063.000000 0 0 1
-19.467864 19.327197 -0.550040 27.437945 -0.781772 1.590844 0.063794 -0.046207 -227361.000000 0 0 1
-20.245164 20.007397 0.414360 28.466372 -0.779491 1.556240 0.049748 -0.044585 237083.000000 0 0 1
-19.694564 21.282897 0.730960 29.006411 -0.824140 1.545594 0.057599 -0.040846 202107.000000 0 0 1
-20.679064 22.014597 1.661460 30.249407 -0.816670 1.515843 0.036370 -0.036529 210094.000000 0 0 1
-20.475764 21.798397 3.061060 30.063219 -0.816675 1.468799 0.037344 -0.028235 531697.000000 0 0 1
-21.706764 22.027097 3.748360 31.151675 -0.792723 1.450178 0.023549 -0.019189 413696.000000 0 0 1
-21.630464 21.745297 5.286660 31.123684 -0.788046 1.400109 0.035195 -0.017118 -392801.000000 0 0 1
-20.964764 22.713597 6.041960 31.494986 -0.825416 1.377761 0.029643 -0.008167 51434.600000 0 0 1
-20.267064 22.087097 7.123560 30.811343 -0.828344 1.337486 0.031901 -0.008408 210300.000000 0 0 1
-21.069864 21.953797 8.446660 31.579336 -0.805941 1.300025 0.029140 -0.028666 266222.000000 0 0 1
-22.215564 21.057497 8.435560 31.750719 -0.758643 1.301886 0.038272 -0.029059 1347130.000000 0 0 1
-22.747064 20.658897 9.696560 32.221767 -0.737327 1.265127 0.060603 -0.030579 -45105.900000 0 0 1
-23.248864 21.794397 10.618760 33.589634 -0.753119 1.249147 0.059047 -0.027121 -886638.000000 0 0 1
-24.471564 22.327597 10.169060 34.652400 -0.739618 1.272953 0.072319 -0.023986 53611.900000 0 0 1
-25.109724 23.132597 11.104860 35.901716 -0.744438 1.256326 0.085660 -0.024788 -117457.000000 0 0 1
-26.421534 23.798097 10.625460 37.112630 -0.733206 1.280430 0.081816 -0.031988 185304.000000 0 0 1
-27.233204 24.154897 11.727260 38.244413 -0.725567 1.259136 0.075164 -0.021037 116445.000000 0 0 1
-27.324434 25.567997 11.770860 39.228821 -0.752203 1.266045 0.062033 -0.019473 -202780.000000 0 0 1
-27.673664 26.071497 13.201760 40.247250 -0.755597 1.236593 0.063087 -0.020750 -254115.000000 0 0 1
-26.716134 25.987397 14.223360 39.892363 -0.771572 1.206231 0.058273 -0.020618 -323411.000000 0 0 1
-27.213804 26.476497 15.448060 40.990714 -0.771666 1.184384 0.048448 -0.015605 -689135.000000 0 0 1
-26.170684 26.609497 16.503760 40.808629 -0.793712 1.154454 0.045974 -0.020123 -600662.000000 0 0 1
-25.621094 25.370497 16.949060 39.841853 -0.780484 1.131383 0.055747 -0.019523 287100.000000 0 0 1
-24.537864 25.597497 17.842660 39.695078 -0.806530 1.104599 0.048033 -0.019496 211866.000000 0 0 1
-23.867564 24.285397 18.368260 38.688941 -0.794075 1.076096 0.060073 -0.013494 -25599.400000 0 0 1
-22.814064 24.421297 19.311660 38.598206 -0.819411 1.046822 0.053683 -0.021106 537043.000000 0 0 1
-22.411964 23.092497 19.729160 37.746514 -0.800352 1.020811 0.053499 -0.024625 -1275170.000000 0 0 1
-21.021064 22.904697 20.260160 37.107741 -0.828254 0.993235 0.051331 -0.021102 -1689940.000000 0 0 1
-20.093864 22.865697 19.202560 35.990858 -0.849831 1.008016 0.050387 -0.028206 -340897.000000 0 0 1
-18.823364 22.559297 19.734260 35.393248 -0.875432 0.979339 0.043403 -0.022385 -261537.000000 0 0 1
-18.524164 20.979997 19.602660 34.169712 -0.847485 0.959798 0.044276 -0.010075 -386048.000000 0 0 1
-18.942164 20.169597 20.697460 34.554350 -0.816771 0.928566 0.056654 -0.014982 414736.000000 0 0 1
-18.122764 20.359397 21.831260 34.921964 -0.843454 0.895480 0.046155 -0.008142 204009.000000 0 0 1
-19.071364 20.284097 23.055960 36.148843 -0.816203 0.879150 0.033588 -0.006205 -201629.000000 0 0 1
-19.976264 21.337297 23.082860 37.244461 -0.818330 0.902351 0.029726 -0.009433 -688716.000000 0 0 1
-20.668064 21.227297 24.257160 38.290689 -0.798746 0.884728 0.029971 0.002741 -819641.000000 0 0 1
-21.681964 22.350497 24.431560 39.579710 -0.800580 0.905522 0.029167 -0.002819 -952493.000000 0 0 1
-21.091664 23.600197 24.590760 40.081581 -0.841469 0.910289 0.031780 -0.009174 -27602.700000 0 0 1
-22.010364 24.689997 24.787960 41.333946 -0.842715 0.927670 0.017109 -0.010659 11091.500000 0 0 1
-22.925064 25.150797 23.626660 41.428737 -0.831661 0.963930 0.015694 -0.016165 -15644.000000 0 0 1
-23.889264 24.150497 23.399760 41.249149 -0.790836 0.967599 0.017962 -0.012852 -69164.200000 0 0 1
-24.859364 24.558197 22.429760 41.523333 -0.779304 1.000154 0.021743 -0.017095 641464.000000 0 0 1
-25.981924 23.521397 22.116960 41.442448 -0.735735 1.007851 0.025943 -0.009177 52988.100000 0 0 1
-26.909514 23.329697 23.140160 42.471917 -0.714263 0.994605 0.027221 -0.011980 -65402.700000 0 0 1
-27.964054 22.528697 22.679760 42.472368 -0.678165 1.007485 0.041276 -0.013593 -704443.000000 0 0 1
-29.405464 22.913697 22.912360 43.757229 -0.661949 1.019696 0.049817 -0.005894 -1397480.000000 0 0 1
-29.901304 23.889197 22.010960 44.150471 -0.674091 1.048878 0.047936 -0.012781 -253147.000000 0 0 1
-31.287094 24.034897 22.105960 45.224242 -0.655051 1.060074 0.055607 -0.013344 -43604.600000 0 0 1
-32.185204 22.945397 21.423160 44.959209 -0.619343 1.074124 0.057959 -0.023687 -918462.000000 0 0 1
-32.165664 21.656497 22.078360 44.621607 -0.592567 1.053202 0.050303 -0.020284 226904.000000 0 0 1
-32.758924 20.570697 21.402160 44.208067 -0.560712 1.065435 0.030213 -0.002208 147136.000000 0 0 1
-34.276552 20.561497 21.061860 45.180296 -0.540324 1.085836 0.044185 -0.010374 330287.000000 0 0 1
-34.872546 19.645397 20.148460 44.810675 -0.513034 1.104439 0.045449 -0.003133 -543174.000000 0 0 1
35.376890 19.854297 19.994460 45.227159 0.511418 1.112869 0.066297 -0.006261 -612993.000000 0 0 1
34.805690 19.094497 18.771360 43.913550 0.501770 1.129113 0.060280 -0.013011 -240324.000000 0 0 1
35.048240 17.703597 18.793560 43.531533 0.467736 1.124394 0.060179 -0.006329 354279.000000 0 0 1
34.407870 17.012097 17.728260 42.280068 0.459177 1.138116 0.062118 -0.018921 44607.000000 0 0 1
34.770260 15.521797 17.618360 41.955975 0.419865 1.137434 0.068525 -0.025347 50787.100000 0 0 1
33.957160 14.966097 16.600360 40.652734 0.415122 1.150156 0.079780 -0.027838 620179.000000 0 0 1
34.433010 13.615697 16.377060 40.487375 0.376557 1.154367 0.080708 -0.032015 80015.100000 0 0 1
33.534790 12.852997 15.415060 39.082039 0.366004 1.165351 0.074771 -0.031565 -292659.000000 0 0 1
33.587780 13.294397 14.040660 38.755904 0.376890 1.200079 0.070306 -0.033369 212161.000000 0 0 1
32.714480 12.524297 13.229560 37.444846 0.365623 1.209692 0.068789 -0.028371 -186960.000000 0 0 1
32.699150 12.856197 11.689660 37.029237 0.374601 1.249615 0.080363 -0.026976 -272147.000000 0 0 1
33.924020 12.423797 11.163660 37.812924 0.351055 1.271096 0.087381 -0.034220 65097.000000 0 0 1
33.852900 12.561197 9.741560 37.399205 0.355305 1.307282 0.083931 -0.036612 -836236.000000 0 0 1
35.178350 12.479097 9.027260 38.402287 0.340890 1.333505 0.076631 -0.031998 -1227960.000000 0 0 1
-35.693613 11.307997 9.328360 38.586567 -0.306804 1.326626 0.074488 -0.026062 1584970.000000 0 0 1
-34.257557 11.368897 9.094360 37.222835 -0.320429 1.323976 0.065442 -0.016050 1661330.000000 0 0 1
-33.897014 11.114297 7.595560 36.472287 -0.316838 1.361005 0.078314 -0.024714 -499525.000000 0 0 1
-34.341541 12.164297 6.794560 37.060459 -0.340425 1.386416 0.063662 -0.026479 -18.909700 0 0 1
-34.019154 11.730997 5.490760 36.401478 -0.332066 1.419379 0.065009 -0.036058 -196281.000000 0 0 1
-34.808906 12.489497 4.433260 37.246494 -0.344494 1.451489 0.100119 -0.036711 -852272.000000 0 0 1
35.494520 12.010797 4.369960 37.725545 0.326290 1.454700 0.097131 -0.047074 -310142.000000 0 0 1
34.491380 13.011497 4.235760 37.106550 0.360732 1.456396 0.082322 -0.042046 284709.000000 0 0 1
33.979490 13.722297 5.489460 37.054573 0.383813 1.422104 0.091449 -0.036465 -475446.000000 0 0 1
33.037920 14.796897 5.273260 36.582231 0.421086 1.426144 0.074053 -0.027989 635336.000000 0 0 1
32.370320 15.279297 6.421860 36.366672 0.441011 1.393279 0.058848 -0.019872 572255.000000 0 0 1
31.116020 14.449597 6.851160 34.984796 0.434746 1.373690 0.081570 -0.032554 -113058.000000 0 0 1
31.477560 13.333597 7.658960 35.032574 0.400676 1.350392 0.089078 -0.030472 63255.100000 0 0 1
30.711620 12.147497 7.479060 33.862983 0.376651 1.348098 0.093831 -0.016669 -277151.000000 0 0 1
31.031210 11.298197 6.194660 33.599986 0.349173 1.385371 0.101764 -0.033066 -243243.000000 0 0 1
30.465360 11.904597 5.055460 33.097058 0.372514 1.417450 0.103170 -0.041159 152972.000000 0 0 1
30.614310 11.092797 3.948960 32.800616 0.347626 1.450111 0.119517 -0.047018 12029.700000 0 0 1
29.721620 11.451797 2.716360 31.967123 0.367772 1.485720 0.094441 -0.052177 115622.000000 0 0 1
28.354350 11.116197 2.810360 30.584917 0.373630 1.478779 0.076546 -0.048830 36787.700000 0 0 1
27.687150 11.400997 1.626660 29.986781 0.390620 1.516524 0.074231 -0.042913 -1169300.000000 0 0 1
26.271710 10.888097 1.659160 28.486948 0.392894 1.512521 0.098224 -0.033157 -984162.000000 0 0 1
26.234310 9.468197 1.455260 27.928544 0.346360 1.518666 0.055493 -0.039862 161695.000000 0 0 1
25.008810 8.841297 1.779260 26.585238 0.339814 1.503820 0.048694 -0.036571 -931281.000000 0 0 1
25.060410 7.315697 1.749660 26.164955 0.284030 1.503876 0.054454 -0.028122 136170.000000 0 0 1
25.737610 6.704497 2.849260 26.748703 0.254831 1.464074 0.073444 -0.017008 1199670.000000 0 0 1
27.159930 6.883597 2.882560 28.166556 0.248220 1.468277 0.106654 -0.032123 70768.300000 0 0 1
27.793340 6.119497 4.077460 28.749673 0.216721 1.428490 0.110408 -0.037927 -668493.000000 0 0 1
29.186730 6.217397 4.150960 30.128918 0.209884 1.432583 0.136512 -0.041647 -195912.000000 0 0 1
29.688790 5.514397 5.223160 30.644971 0.183647 1.399519 0.119660 -0.024829 -1568500.000000 0 0 1
31.158260 5.584497 5.449760 32.120456 0.177347 1.400305 0.119634 -0.028686 -1249820.000000 0 0 1
31.558610 6.912597 5.885560 32.838540 0.215634 1.390595 0.115225 -0.040383 423339.000000 0 0 1
32.912940 6.929197 6.342160 34.227159 0.207501 1.384423 0.068954 -0.022852 520135.000000 0 0 1
33.308150 8.156197 7.169760 35.033725 0.240146 1.364687 0.085690 -0.035726 -70088.100000 0 0 1
32.686750 8.006997 8.450260 34.697875 0.240231 1.324784 0.080674 -0.031146 246163.000000 0 0 1
33.083950 8.986697 9.354960 35.536232 0.265233 1.304405 0.075158 -0.022506 -307220.000000 0 0 1
32.291950 8.867997 10.682160 35.149964 0.268012 1.262010 0.073854 -0.018996 321177.000000 0 0 1
30.986090 9.423097 10.636360 34.089070 0.295221 1.253481 0.065098 -0.014340 852436.000000 0 0 1
30.156070 9.194097 11.805460 33.664356 0.295931 1.212498 0.057620 -0.017804 -7174.130000 0 0 1
28.693140 9.604897 11.753260 32.460583 0.323021 1.200300 0.057816 -0.018620 -616777.000000 0 0 1
28.531850 11.034897 11.753060 32.771479 0.369038 1.203989 0.059759 -0.009443 146365.000000 0 0 1
28.665560 11.715097 10.522360 32.705931 0.387968 1.243244 0.072108 -0.017177 428.385000 0 0 1
27.462490 11.625797 9.530760 31.307873 0.400458 1.261466 0.059036 -0.019167 159755.000000 0 0 1
27.524300 12.662697 8.616460 31.498800 0.431184 1.293716 0.048049 -0.013698 -310960.000000 0 0 1
26.332810 12.777597 7.889560 30.313842 0.451766 1.307502 0.037832 -0.007574 -147782.000000 0 0 1
26.074910 14.110597 7.099360 30.486240 0.496028 1.335768 0.017634 -0.005651 -74070.900000 0 0 1
25.932410 15.240197 7.912060 31.102318 0.531318 1.313581 0.019073 -0.001353 253879.000000 0 0 1
25.955910 16.454597 7.170660 31.557589 0.565005 1.341570 0.005251 0.007211 -592046.000000 0 0 1
25.756210 17.709597 8.109460 32.292035 0.602345 1.316950 0.028326 -0.006733 497866.000000 0 0 1
24.434010 18.240297 8.198760 31.574499 0.641265 1.308122 0.021730 -0.008212 317359.000000 0 0 1
23.466910 17.493997 8.891060 30.590632 0.640599 1.275894 0.025111 -0.009112 -1084800.000000 0 0 1
22.158310 18.236097 8.915560 30.050510 0.688604 1.269576 0.030161 -0.005077 -1097480.000000 0 0 1
21.533110 18.429597 7.674660 29.363673 0.707894 1.306359 0.031006 -0.002175 17797.800000 0 0 1
20.328110 19.151797 7.786160 28.993925 0.755612 1.298915 0.050658 -0.014762 -194619.000000 0 0 1
19.737110 19.609297 6.488560 28.568855 0.782150 1.341677 0.048845 -0.007583 -334585.000000 0 0 1
20.528710 20.508297 5.758360 29.583389 0.784901 1.374897 0.038785 0.005151 -230970.000000 0 0 1
19.908510 20.842097 4.554460 29.180214 0.808304 1.414075 0.040055 -0.000331 -73097.400000 0 0 1
17.609936 16.852697 32.945979 40.982444 0.763429 0.636965 0.042710 -0.008471 -153762.000000 0 0 1
17.050736 17.771197 32.089123 40.450647 0.806085 0.654601 0.033872 -0.013644 132607.000000 0 0 1
16.277736 17.169897 31.054033 39.040018 0.812065 0.651061 0.033400 -0.016255 -35482.100000 0 0 1
15.987136 18.017897 29.748753 38.278211 0.845047 0.680637 0.031215 -0.014227 -686946.000000 0 0 1
17.101136 18.178997 28.940623 38.216285 0.815940 0.711650 0.023669 -0.002578 -960666.000000 0 0 1
16.780436 18.604797 27.684273 37.338190 0.836910 0.735573 0.033706 -0.015266 -1110120.000000 0 0 1
17.846336 18.892197 26.662693 37.233130 0.813858 0.772596 0.023077 -0.010784 -848088.000000 0 0 1
18.636536 20.022297 27.045553 38.466541 0.821229 0.791059 0.031456 -0.010338 186978.000000 0 0 1
19.520636 20.357297 25.993503 38.355403 0.806376 0.826164 0.016169 -0.007241 -476008.000000 0 0 1
20.225436 21.653697 26.384593 39.674899 0.819489 0.843276 0.031684 -0.015417 -653631.000000 0 0 1
19.393536 22.838397 26.359613 39.906526 0.866788 0.849267 0.023841 -0.018976 501124.000000 0 0 1
19.995736 24.116397 26.704863 41.165274 0.878541 0.864891 0.029438 -0.024772 -391007.000000 0 0 1
19.099236 25.328097 26.434783 41.292748 0.924694 0.876064 0.034363 -0.024634 -51891.200000 0 0 1
18.779736 25.656197 25.067793 40.488433 0.938930 0.903156 0.044084 -0.022830 191639.000000 0 0 1
17.793336 26.636097 24.946123 40.600413 0.981860 0.909133 0.045043 -0.027043 -363018.000000 0 0 1
17.884736 27.342797 23.524783 40.260499 0.991549 0.946762 0.031469 -0.025457 341575.000000 0 0 1
19.078336 28.123097 23.464683 41.297492 0.974724 0.966496 0.045398 -0.022946 442006.000000 0 0 1
18.987036 29.071597 22.413883 41.328531 0.992236 0.997583 0.050739 -0.020699 224367.000000 0 0 1
20.200136 30.032497 22.231283 42.476185 0.978691 1.019981 0.046476 -0.016511 912404.000000 0 0 1
21.318836 29.462997 21.521083 42.257756 0.944420 1.036447 0.032719 -0.009748 903973.000000 0 0 1
22.440836 30.359497 21.554883 43.473016 0.934262 1.052015 0.022081 -0.015707 974192.000000 0 0 1
23.363436 30.319797 20.293983 43.324196 0.914262 1.083293 0.008302 -0.012938 629497.000000 0 0 1
22.841836 31.258997 19.363083 43.287450 0.939744 1.107036 0.014933 -0.009993 465530.000000 0 0 1
23.578236 31.126797 18.175883 43.071724 0.922519 1.135156 0.023536 0.009800 304285.000000 0 0 1
22.914036 32.044997 17.067183 42.932780 0.950036 1.161970 0.008055 -0.009876 190914.000000 0 0 1
23.104436 33.438397 17.250983 44.153570 0.966167 1.169400 0.029388 -0.011838 91994.500000 0 0 1
22.861736 34.330197 16.172483 44.303167 0.983299 1.197119 0.037095 -0.010709 -24109.900000 0 0 1
23.736536 34.138197 14.890883 44.165349 0.963227 1.226895 0.022094 -0.003254 174274.000000 0 0 1
23.325136 33.017797 14.168983 42.836865 0.955760 1.233681 0.038168 -0.005644 309295.000000 0 0 1
22.271536 33.166097 13.219583 42.080502 0.979445 1.251235 0.036105 -0.005820 212578.000000 0 0 1
21.901036 31.876697 12.401783 40.615064 0.968811 1.260491 0.046743 -0.022294 190852.000000 0 0 1
22.937336 31.384497 11.560483 40.555552 0.939665 1.281735 0.063057 -0.036616 95309.500000 0 0 1
22.438736 30.270597 10.842183 39.209168 0.932905 1.290624 0.061289 -0.036290 -1620920.000000 0 0 1
23.467936 29.624797 9.946883 39.080853 0.900847 1.313444 0.061112 -0.034332 309451.000000 0 0 1
24.532736 28.866597 10.567783 39.329551 0.866380 1.298755 0.055449 -0.029837 602830.000000 0 0 1
25.334636 29.600897 11.450883 40.610092 0.862902 1.284948 0.043250 -0.025010 -1844770.000000 0 0 1
26.783736 29.077297 11.470983 41.163590 0.826433 1.288389 0.044416 -0.027520 -118845.000000 0 0 1
26.919036 27.898997 12.204683 40.644099 0.803273 1.265808 0.039009 -0.023936 -648.331000 0 0 1
27.992936 28.107797 13.117083 41.781702 0.787446 1.251453 0.033535 -0.011762 180864.000000 0 0 1
28.397936 26.928197 14.007083 41.566440 0.758839 1.227088 0.020824 -0.020164 -82523.900000 0 0 1
29.261836 27.280897 15.063083 42.748086 0.750378 1.210696 0.002733 -0.015421 -30762.300000 0 0 1
29.440336 26.162097 15.939783 42.488415 0.726508 1.186231 0.017843 -0.018778 398571.000000 0 0 1
30.678036 26.249697 16.917083 43.776434 0.707766 1.174025 0.022915 -0.017449 904568.000000 0 0 1
31.930636 26.121097 16.256483 44.341295 0.685655 1.195421 0.038066 -0.016118 762419.000000 0 0 1
33.037836 26.294597 17.162183 45.578997 0.672232 1.184741 0.030050 -0.015167 1086360.000000 0 0 1
34.403336 26.461397 16.419383 46.404646 0.655646 1.209133 0.043506 -0.022093 405024.000000 0 0 1
34.632336 27.694497 15.754783 47.059505 0.674541 1.229420 0.043211 -0.015759 -2030280.000000 0 0 1
-35.647839 27.897797 15.654283 47.896890 -0.664037 1.237846 0.044098 -0.010324 -1762470.000000 0 0 1
-35.404139 29.011397 14.601083 48.044831 -0.686480 1.262007 0.026157 -0.011696 -27046.900000 0 0 1
-35.748039 30.313397 15.015683 49.216817 -0.703317 1.260761 0.022738 -0.008407 -19599.800000 0 0 1
-35.780239 31.253997 13.942283 49.511868 -0.717979 1.285341 0.009741 0.011346 100898.000000 0 0 1
34.828936 32.382297 14.278383 49.654206 0.749012 1.279122 -0.009475 0.007908 -540030.000000 0 0 1
34.678536 33.358397 13.343283 49.934224 0.765997 1.300292 -0.032259 0.008027 926989.000000 0 0 1
33.480136 34.142397 13.546583 49.700429 0.795191 1.294739 -0.029103 0.014737 2258470.000000 0 0 1
32.044836 33.530797 13.236283 48.232614 0.808055 1.292804 0.003350 0.018603 914628.000000 0 0 1
31.609536 32.502097 14.170283 47.501010 0.799319 1.267869 -0.001903 -0.004080 -228057.000000 0 0 1
30.652536 31.667397 13.595083 46.121885 0.801681 1.271588 0.017585 -0.000747 -843610.000000 0 0 1
30.038036 30.731397 14.634683 45.396876 0.796807 1.242562 0.032601 -0.002395 -411148.000000 0 0 1
29.050436 31.356897 15.398083 45.434390 0.823561 1.225040 -0.002211 0.001675 -252298.000000 0 0 1
28.456336 30.519097 16.341883 44.813340 0.820361 1.197523 -0.001565 -0.002716 420579.000000 0 0 1
27.424036 31.173297 17.329783 44.990817 0.849295 1.175388 -0.017504 0.000575 555072.000000 0 0 1
26.992436 30.331297 18.363683 44.562361 0.843578 1.146050 -0.038333 0.006802 526175.000000 0 0 1
28.034136 30.294397 19.362483 45.591326 0.824129 1.132170 -0.037671 0.004186 788583.000000 0 0 1
27.831136 29.117497 20.371683 45.137636 0.807982 1.102548 -0.021827 0.002780 25955.900000 0 0 1
26.724236 29.300197 21.220083 44.977531 0.831345 1.079473 -0.017463 -0.007223 -44667.100000 0 0 1
26.872936 28.441297 22.347483 45.060760 0.813744 1.051878 -0.019056 -0.004418 -157176.000000 0 0 1
25.746236 28.504197 23.412283 44.983251 0.836192 1.023399 -0.003189 -0.003950 360393.000000 0 0 1
24.594336 27.754297 22.962483 43.617175 0.845689 1.016371 0.008152 -0.009433 681171.000000 0 0 1
23.528436 27.839497 23.900493 43.587366 0.869127 0.990424 0.019128 -0.013466 621.390000 0 0 1
23.480236 26.721497 24.948503 43.448679 0.849873 0.959162 0.019343 -0.015125 -807442.000000 0 0 1
24.525336 26.623597 25.873523 44.494350 0.826398 0.950223 0.005892 -0.013495 -207738.000000 0 0 1
24.306236 25.539197 26.778873 44.273601 0.810129 0.921219 0.023874 -0.019104 -192669.000000 0 0 1
25.495636 25.158897 27.740303 45.304767 0.778751 0.911825 0.026095 -0.025093 338478.000000 0 0 1
25.982036 26.230897 28.577173 46.688124 0.790164 0.912100 0.040816 -0.022473 365501.000000 0 0 1
26.730136 27.206097 27.863133 47.233739 0.794222 0.939863 0.009388 -0.010086 -996880.000000 0 0 1
26.895836 28.439197 28.749393 48.566465 0.813282 0.937308 -0.011506 -0.002213 -175804.000000 0 0 1
27.584136 28.212997 30.000933 49.567265 0.796668 0.920708 -0.003354 0.004850 444684.000000 0 0 1
27.750836 29.497897 30.570643 50.742478 0.815906 0.924209 0.010302 0.002418 -514679.000000 0 0 1
29.238436 29.780097 30.742033 51.834476 0.794576 0.935916 -0.000094 0.002106 -765591.000000 0 0 1
29.822636 29.952397 29.514113 51.552096 0.787569 0.961232 -0.018533 0.000635 -161524.000000 0 0 1
31.239436 30.052297 29.521163 52.445610 0.766032 0.972917 -0.001270 -0.009007 466782.000000 0 0 1
31.852036 30.502497 28.178893 52.335500 0.763759 1.002226 -0.005087 0.002503 -341091.000000 0 0 1
31.492936 31.851697 27.964713 52.804931 0.791062 1.012685 -0.012009 -0.000423 234535.000000 0 0 1
31.920236 32.296597 26.695093 52.674468 0.791259 1.039335 -0.003549 -0.002735 -69066.800000 0 0 1
31.708136 33.781097 26.303353 53.276963 0.817041 1.054446 -0.009932 -0.004261 -280532.000000 0 0 1
32.647636 -34.128920 26.921453 54.363737 -0.807577 1.052720 0.005485 -0.002717 291817.000000 0 0 1
32.430236 -32.849720 26.436043 53.194818 -0.791824 1.050697 0.002151 -0.009752 -592641.000000 0 0 1
33.347636 -31.858420 27.099023 53.491876 -0.762564 1.039559 0.005109 -0.008409 -341359.000000 0 0 1
33.009836 -31.572120 28.426943 53.800921 -0.763140 1.014113 0.010561 -0.011248 292966.000000 0 0 1
34.070636 -30.780020 28.908803 54.258057 -0.734700 1.008888 0.016126 -0.016745 -109941.000000 0 0 1
33.936436 -30.426320 30.417283 54.796475 -0.730916 0.982318 0.019270 -0.015669 -553527.000000 0 0 1
33.944136 -31.438420 31.392433 55.911210 -0.747093 0.974636 0.029823 -0.013609 1024560.000000 0 0 1
32.813536 -32.343920 31.412213 55.763648 -0.778191 0.972410 0.021853 -0.018249 426151.000000 0 0 1
33.000236 -33.212820 32.693869 57.105131 -0.788609 0.961219 0.037749 -0.016473 -433607.000000 0 0 1
33.020036 -32.457020 33.906544 57.388454 -0.776800 0.938715 0.020185 -0.017304 94090.600000 0 0 1
33.281136 -33.185220 -33.620920 57.786322 -0.783955 2.191754 0.024202 -0.018516 -156410.000000 0 0 1
32.408536 34.346897 -33.170730 57.708924 0.814427 2.183148 0.018015 -0.013392 102350.000000 0 0 1
32.673636 33.212297 -33.937640 57.640147 0.793574 2.200351 0.018513 -0.015820 42095.200000 0 0 1
31.733936 32.178397 -33.697830 56.374069 0.792352 2.211493 0.019869 -0.011260 -28972.800000 0 0 1
31.787736 31.042097 34.030015 55.965291 0.773531 0.917187 0.012619 0.000780 -340554.000000 0 0 1
32.984636 30.312397 34.027370 56.255573 0.743206 0.921192 0.017782 -0.007122 -341976.000000 0 0 1
33.014136 29.399797 32.942955 55.131838 0.727554 0.930379 0.014822 -0.008547 -376959.000000 0 0 1
34.343136 28.653997 32.791784 55.459928 0.695335 0.938164 0.014953 -0.008583 -347676.000000 0 0 1
34.547936 27.575797 33.631180 55.543143 0.673636 0.920407 0.012322 -0.005247 306050.000000 0 0 1
-35.718739 27.137997 33.548683 56.016188 -0.649724 0.928656 0.008766 -0.010232 246046.000000 0 0 1
-35.332739 25.854797 34.352371 55.650322 -0.631720 0.905503 0.018529 -0.016113 86284.600000 0 0 1
-35.793039 24.692597 33.678598 55.001036 -0.603896 0.911796 0.012016 -0.013433 164991.000000 0 0 1
35.533136 23.657197 -34.109594 54.641844 0.587387 2.244954 0.019046 -0.021335 -141177.000000 0 0 1
35.114236 22.410897 33.889881 53.700856 0.568055 0.887843 0.010212 -0.026037 118055.000000 0 0 1
-35.387739 21.848197 33.175785 53.200267 -0.553112 0.897455 0.022819 -0.025433 675476.000000 0 0 1
35.720736 20.886997 32.271443 52.475553 0.529116 0.908435 0.023079 -0.023431 90175.900000 0 0 1
-34.866039 20.074897 31.433173 51.055720 -0.522414 0.907568 0.018660 -0.026226 70934.900000 0 0 1
-34.124139 20.857297 30.507973 50.301293 -0.548627 0.919139 0.007506 -0.018186 105081.000000 0 0 1
-32.983239 20.250797 29.955933 48.942280 -0.550630 0.912125 0.023028 -0.011093 -222207.000000 0 0 1
-33.188839 19.365497 28.690703 47.954957 -0.528195 0.929438 0.019280 -0.013404 -345294.000000 0 0 1
-34.192339 18.388797 28.966783 48.439017 -0.493432 0.929786 0.011410 -0.013804 558307.000000 0 0 1
-34.311639 17.470997 27.910993 47.555734 -0.470969 0.943558 0.008201 -0.018455 -296133.000000 0 0 1
-35.161939 16.289397 28.376003 48.030240 -0.433833 0.938753 0.017401 -0.016112 -453558.000000 0 0 1
-34.430539 15.234197 28.960123 47.499805 -0.416567 0.915128 0.006289 -0.012856 127571.000000 0 0 1
-35.200339 14.080497 29.063263 47.770257 -0.380515 0.916758 0.001506 -0.005165 42578.800000 0 0 1
-34.296539 12.925297 29.580673 47.099173 -0.360408 0.891751 -0.004718 0.005082 -186516.000000 0 0 1
-34.116439 12.995097 31.002793 47.895481 -0.363937 0.866758 -0.002703 0.002100 -106794.000000 0 0 1
-33.184839 12.061097 31.451713 47.285450 -0.348608 0.843107 0.012884 0.001881 778446.000000 0 0 1
-31.687639 12.556197 31.447533 46.375768 -0.377269 0.825618 0.008421 0.005989 -68870.800000 0 0 1
-31.199439 12.701497 30.131213 45.195387 -0.386618 0.841040 0.020783 0.007147 1493310.000000 0 0 1
-29.757739 12.884497 29.997893 44.174731 -0.408610 0.824296 0.032189 0.004788 2354200.000000 0 0 1
-28.767639 11.713497 30.403433 43.464374 -0.386677 0.796095 0.034132 0.001673 165761.000000 0 0 1
-28.734739 10.629397 29.477563 42.515832 -0.354305 0.804694 0.021284 -0.001077 1439440.000000 0 0 1
-27.411139 10.016497 29.597203 41.565552 -0.350343 0.778367 0.028368 -0.007130 1302380.000000 0 0 1
-27.152939 9.010097 28.409603 40.318351 -0.320395 0.788892 0.036589 -0.007274 56422.600000 0 0 1
-27.839139 7.786797 28.445473 40.556094 -0.272737 0.793456 0.043213 -0.009861 -595392.000000 0 0 1
-29.204139 7.819597 28.170723 41.323328 -0.261620 0.820692 0.047681 -0.005244 -959357.000000 0 0 1
-29.917039 6.456797 28.166373 41.594038 -0.212563 0.826882 0.051128 -0.005209 -121856.000000 0 0 1
-30.137839 5.941197 29.492633 42.584064 -0.194638 0.805744 0.050686 -0.011229 -210283.000000 0 0 1
-30.952139 4.812297 29.443593 42.989746 -0.154241 0.816333 0.067257 -0.010946 -441952.000000 0 0 1
-31.462239 4.606497 30.869873 44.317506 -0.145381 0.800202 0.059395 -0.015758 -829712.000000 0 0 1
-32.691939 5.229197 31.020023 45.369033 -0.158610 0.817939 0.057454 -0.014925 -863391.000000 0 0 1
-33.131739 5.004297 32.382513 46.598092 -0.149909 0.802471 0.061728 -0.017993 -796664.000000 0 0 1
-34.603939 5.246897 32.562183 47.804375 -0.150481 0.821457 0.040329 -0.013715 -906429.000000 0 0 1
-34.865139 6.675197 32.788069 48.323841 -0.189168 0.825068 0.027766 -0.010788 -74326.900000 0 0 1
35.374736 7.001097 32.741252 48.707051 0.195387 0.833610 0.012257 -0.007541 48289.100000 0 0 1
35.172936 8.483697 33.022275 48.985499 0.236679 0.831019 0.005891 -0.002316 -199015.000000 0 0 1
35.476336 8.702497 -34.351717 50.143238 0.240554 2.325499 0.007476 -0.005141 181903.000000 0 0 1
35.228436 10.042597 -34.055180 50.016514 0.277705 2.319758 0.014645 -0.009571 -289440.000000 0 0 1
35.189336 10.127897 -32.501150 48.961090 0.280238 2.296706 0.015834 -0.009869 424920.000000 0 0 1
34.055536 9.483297 -31.878490 47.602001 0.271585 2.304585 0.028312 -0.005771 569781.000000 0 0 1
34.118436 9.544797 -30.490070 46.742006 0.272781 2.281419 0.031713 0.005042 363664.000000 0 0 1
32.879036 8.981697 -29.725330 45.224961 0.266668 2.287996 0.027909 0.002735 361128.000000 0 0 1
32.918236 7.534797 -29.752720 45.006752 0.225018 2.293043 0.014426 0.002915 269903.000000 0 0 1
31.755536 6.973197 -29.147750 43.664984 0.216159 2.301685 0.017888 0.006284 3916.520000 0 0 1
34.837140 5.925397 -19.569140 40.394157 0.168476 2.076536 0.041832 -0.016118 -455758.000000 0 0 1
34.228790 7.012697 -18.913240 39.730324 0.202081 2.066943 0.036196 -0.007213 502188.000000 0 0 1
34.792160 8.348597 -19.165640 40.589595 0.235504 2.062560 0.021882 -0.005563 1551340.000000 0 0 1
-35.295749 8.664997 -18.737440 40.889653 -0.240736 2.046815 0.026112 -0.002241 2887280.000000 0 0 1
-34.212618 7.999197 -19.472840 40.170660 -0.229682 2.076877 0.034649 -0.011284 1281710.000000 0 0 1
-33.990644 8.542397 -20.775740 40.742703 -0.246217 2.105894 0.026027 -0.009394 -593007.000000 0 0 1
-33.019194 7.696397 -21.618740 40.210342 -0.229000 2.138433 0.012900 0.001063 -162937.000000 0 0 1
-33.546014 6.507297 -22.251540 40.777580 -0.191602 2.147998 0.012685 -0.002397 812250.000000 0 0 1
-34.561083 6.718697 -23.257840 42.196404 -0.192006 2.154575 0.024556 -0.005955 657169.000000 0 0 1
-34.474841 5.573797 -24.316940 42.554617 -0.160290 2.179042 0.039501 -0.013786 -950713.000000 0 0 1
-33.341024 5.644797 -25.065140 42.092147 -0.167714 2.208663 0.024123 -0.005494 -1047080.000000 0 0 1
-32.992954 4.370497 -25.581380 41.976699 -0.131701 2.226123 0.029542 -0.008655 275972.000000 0 0 1
-31.698204 4.350997 -26.447990 41.511486 -0.136411 2.261558 0.041134 -0.008765 132882.000000 0 0 1
-30.491304 4.499197 -25.755850 40.166232 -0.146500 2.266898 0.038461 -0.008058 -623423.000000 0 0 1
-29.435644 4.078097 -26.585760 39.873433 -0.137666 2.300641 0.044875 -0.008334 287906.000000 0 0 1
-28.058194 4.461697 -25.939020 38.470791 -0.157696 2.310748 0.021027 -0.004550 323707.000000 0 0 1
-27.847544 5.833397 -25.883040 38.463567 -0.206490 2.308950 0.009193 -0.001071 -563533.000000 0 0 1
-26.544784 6.087297 -25.483200 37.297107 -0.225424 2.322999 0.011673 0.003834 -723820.000000 0 0 1
-26.185614 7.590297 -25.683890 37.456124 -0.282133 2.326370 0.010454 -0.001765 -145782.000000 0 0 1
-26.978944 8.438797 -24.876740 37.655397 -0.303151 2.292470 0.012902 -0.000267 85420.300000 0 0 1
-26.582204 9.846897 -24.991540 37.790899 -0.354760 2.293362 0.001830 -0.001049 537675.000000 0 0 1
-25.275774 10.263797 -24.212740 36.475568 -0.385730 2.296694 0.024844 -0.006454 601373.000000 0 0 1
-25.378514 10.426097 -22.820940 35.687081 -0.389802 2.264609 0.012696 -0.000769 92646.000000 0 0 1
-24.049964 10.513597 -22.358340 34.479441 -0.412122 2.276348 0.036601 -0.009962 -271828.000000 0 0 1
-23.897964 10.929797 -20.897540 33.574996 -0.428952 2.242619 0.049745 -0.018711 -832972.000000 0 0 1
-24.201064 12.286797 -20.548640 34.042672 -0.469786 2.218823 0.040579 -0.019053 634092.000000 0 0 1
-25.571344 12.658897 -20.570440 35.175053 -0.459674 2.195432 0.020943 -0.002329 40575.000000 0 0 1
-26.555814 12.014497 -19.570440 35.107856 -0.424868 2.162093 0.017931 -0.000999 -698647.000000 0 0 1
-26.363424 12.402497 -18.216040 34.360969 -0.439724 2.129559 0.021658 -0.009607 -76510.900000 0 0 1
-27.251214 11.742697 -17.355440 34.376313 -0.406862 2.100023 0.015109 -0.010821 -823267.000000 0 0 1
-26.629044 11.185297 -16.056940 33.046062 -0.397663 2.078184 0.043214 -0.010537 -334292.000000 0 0 1
-25.902604 10.016297 -16.245940 32.174550 -0.368980 2.100099 0.060888 -0.012183 568801.000000 0 0 1
-24.506364 10.306897 -16.380740 31.226954 -0.398121 2.123007 0.062380 -0.004317 -37283.300000 0 0 1
-23.663464 9.003597 -16.238840 30.078634 -0.363571 2.141090 0.048978 -0.003101 5855.550000 0 0 1
-22.272664 9.258397 -16.188440 29.049184 -0.393954 2.161899 0.050139 0.004899 456326.000000 0 0 1
-21.519064 8.084197 -15.910740 27.956681 -0.359363 2.176233 0.059501 0.006044 250776.000000 0 0 1
-19.983464 8.268897 -15.929140 26.859840 -0.392335 2.205634 0.063460 0.001719 29514.600000 0 0 1
-19.471464 8.700897 -17.155840 27.370904 -0.420234 2.248224 0.065566 -0.005959 579807.000000 0 0 1
-18.105664 9.096097 -16.994140 26.445318 -0.465557 2.268702 0.068247 -0.008559 314068.000000 0 0 1
-17.466764 9.476597 -18.384540 27.071850 -0.497106 2.317335 0.062779 -0.002603 -288981.000000 0 0 1
-17.287064 8.475797 -19.324240 27.278343 -0.455855 2.358039 0.089570 -0.016452 -175942.000000 0 0 1
-16.298364 7.539597 -19.036340 26.169915 -0.433281 2.385341 0.085832 -0.016441 -891498.000000 0 0 1
-16.022764 6.597697 -20.232740 26.638738 -0.390612 2.433376 0.081345 -0.022717 -158179.000000 0 0 1
-17.039664 5.785097 -20.753540 27.468653 -0.327297 2.427267 0.079731 -0.016249 -352988.000000 0 0 1
-17.902164 6.409597 -21.669840 28.829713 -0.343815 2.421356 0.075564 -0.016605 -52639.700000 0 0 1
-18.872064 5.389997 -22.341640 29.738119 -0.278201 2.420795 0.064070 -0.017825 236542.000000 0 0 1
-19.828264 4.762997 -21.504940 29.636272 -0.235746 2.382744 0.063936 -0.019842 449810.000000 0 0 1
-20.584164 3.772397 -22.162940 30.481711 -0.181256 2.384870 0.035533 -0.003957 -43118.500000 0 0 1
-21.486464 3.003097 -21.141140 30.292483 -0.138867 2.343258 0.042017 -0.007924 -49435.200000 0 0 1
-22.029764 1.806097 -21.571840 30.885543 -0.081801 2.344018 0.041179 -0.005040 205590.000000 0 0 1
-22.814064 1.208597 -20.560440 30.735548 -0.052927 2.303587 0.045590 -0.005636 -449294.000000 0 0 1
-23.292864 -0.169003 -20.883840 31.284514 0.007255 2.301704 0.040228 0.006163 431223.000000 0 0 1
-22.219864 -1.139603 -20.750640 30.423841 0.051243 2.321361 0.027492 -0.003177 777640.000000 0 0 1
-22.573164 -2.504503 -21.077640 30.985273 0.110499 2.318896 0.036206 -0.009300 -214646.000000 0 0 1
-23.175464 -2.833503 -22.521840 32.440162 0.121659 2.338185 0.038466 -0.009403 917930.000000 0 0 1
-22.239764 -2.783403 -23.625440 32.565562 0.124507 2.382518 0.018317 -0.009199 607274.000000 0 0 1
-21.140764 -3.683303 -23.621840 31.913789 0.172496 2.404129 0.005186 -0.018753 -175042.000000 0 0 1
-20.309964 -3.448803 -24.867740 32.292311 0.168204 2.449767 0.021422 -0.017664 -527245.000000 0 0 1
-21.036464 -3.775203 -26.006780 33.662109 0.177570 2.453696 0.025466 -0.017908 215567.000000 0 0 1
-20.203564 -3.796103 -27.144880 34.050534 0.185727 2.493429 0.030812 -0.021824 -349180.000000 0 0 1
-21.046964 -3.946903 -28.371610 35.545759 0.185375 2.495050 0.032273 -0.026195 -319836.000000 0 0 1
-21.863164 -5.092303 -28.368830 36.176235 0.228837 2.472177 0.036242 -0.022202 -100391.000000 0 0 1
-22.538364 -5.247403 -29.589400 37.563888 0.228746 2.477877 0.009694 -0.020486 -749652.000000 0 0 1
-22.213364 -6.568903 -30.372530 38.197835 0.287524 2.490031 0.013161 -0.018593 787491.000000 0 0 1
-20.993964 -6.465303 -31.143710 38.111380 0.298744 2.527291 -0.005296 -0.023028 367422.000000 0 0 1
-20.348264 -7.645403 -31.440390 38.223058 0.359408 2.536678 -0.003921 -0.019591 -364109.000000 0 0 1
-18.935964 -7.331703 -31.999280 37.898265 0.369410 2.576141 0.013325 -0.018542 -284066.000000 0 0 1
-18.815164 -6.867403 -33.333750 38.888436 0.349969 2.600533 0.018063 -0.025129 196906.000000 0 0 1
-19.277164 -7.757503 -34.333751 40.132211 0.382590 2.597343 0.003967 -0.022041 -570158.000000 0 0 1
-19.242564 -7.100003 32.948578 38.811018 0.353477 0.556803 0.011645 -0.020207 -548176.000000 0 0 1
-17.966564 -6.828103 32.463803 37.726899 0.363186 0.534556 0.021652 -0.019008 -451921.000000 0 0 1
-17.396764 -5.623403 32.918182 37.654704 0.312643 0.506986 0.035618 -0.017131 -595313.000000 0 0 1
-16.070164 -5.429903 32.171223 36.369240 0.325843 0.485220 0.035422 -0.019913 -428975.000000 0 0 1
-16.283164 -5.412603 30.781963 35.241551 0.320915 0.508540 0.036574 -0.010143 -440307.000000 0 0 1
-15.148164 -4.977403 30.113923 34.074767 0.317468 0.486958 0.037320 -0.007388 -602573.000000 0 0 1
-15.221864 -4.920103 28.594173 32.764909 0.312627 0.510076 0.029935 0.005015 199589.000000 0 0 1
-16.044364 -3.848203 28.079053 32.567829 0.235401 0.531256 0.023976 -0.003649 451726.000000 0 0 1
-16.478864 -4.139903 26.741193 31.682537 0.246131 0.566032 0.027523 -0.000101 403863.000000 0 0 1
-15.454464 -3.732403 25.611823 30.145261 0.236972 0.555544 0.029682 0.004597 579773.000000 0 0 1
-15.262764 -2.314403 25.488883 29.799187 0.150491 0.544561 0.026100 0.013029 20559.300000 0 0 1
-14.442764 -1.951203 24.384233 28.407595 0.134286 0.538712 0.018535 0.012872 244072.000000 0 0 1
-14.156764 -0.393203 24.357923 28.175823 0.027768 0.526647 0.022027 0.014435 518901.000000 0 0 1
-15.345564 0.328897 24.010283 28.497161 -0.021429 0.568796 0.016782 0.008747 218162.000000 0 0 1
-15.403864 1.658797 24.424253 28.923602 -0.107274 0.565277 0.015358 0.005790 -228448.000000 0 0 1
-16.219064 2.584997 23.507883 28.676834 -0.158051 0.609819 0.016893 0.007884 -93332.200000 0 0 1
-15.483564 2.860097 22.330283 27.323295 -0.182659 0.614153 0.019075 0.006822 406342.000000 0 0 1
-16.154964 3.813497 21.495683 27.158608 -0.231814 0.657558 0.008636 0.003347 -214558.000000 0 0 1
-15.297464 4.502097 20.397383 25.890819 -0.286222 0.663530 0.010651 0.000384 239865.000000 0 0 1
-14.458564 5.470997 21.059383 26.124308 -0.361741 0.633227 0.035596 0.004249 788658.000000 0 0 1
-13.303664 5.724897 20.232983 24.882434 -0.406372 0.621264 0.037746 0.003496 807646.000000 0 1 0
-12.269864 6.723697 20.848283 25.107938 -0.501295 0.591068 0.037576 0.005044 187871.000000 0 0 1
-12.628564 8.059797 20.648083 25.510474 -0.568049 0.627673 0.038168 0.004411 274847.000000 0 0 1
-11.609764 9.021297 20.945083 25.590368 -0.660586 0.612044 0.045486 0.006239 133326.000000 0 0 1
-12.044764 10.481197 20.913383 26.311621 -0.716098 0.652062 0.039806 0.013760 -313651.000000 0 0 1
-12.448864 10.949697 19.665483 25.721612 -0.721415 0.700452 0.039703 0.013456 269761.000000 0 0 1
-13.014764 12.244397 19.776683 26.653828 -0.754909 0.734773 0.025874 0.020869 -457486.000000 0 0 1
-13.630964 12.714097 18.423283 26.208182 -0.750610 0.791247 0.025757 0.012633 -508361.000000 0 0 1
-12.768064 13.176797 17.419883 25.300272 -0.801151 0.811342 0.022856 0.009326 -140249.000000 0 0 1
-12.169964 14.397097 17.727383 25.877491 -0.869033 0.816124 0.032083 -0.000342 -813056.000000 0 0 1
-13.085764 15.643497 17.497683 26.872386 -0.874193 0.861711 0.029641 0.012232 -31941.600000 0 0 1
-13.212364 16.101597 16.158983 26.361729 -0.883643 0.910981 0.024346 -0.002771 -148101.000000 0 0 1
-13.965864 15.275597 15.352383 25.769845 -0.830159 0.932597 0.047841 -0.008868 -1009240.000000 0 0 1
-14.287864 15.896797 13.948883 25.522981 -0.838651 0.992590 0.033470 -0.016278 -281042.000000 0 0 1
-15.449364 16.670297 13.915683 26.650101 -0.823392 1.021412 0.020150 -0.012099 -350898.000000 0 0 1
-15.718064 17.187797 12.583883 26.473232 -0.830033 1.075442 0.020533 -0.015082 -215482.000000 0 0 1
-16.823164 18.236297 12.681783 27.864117 -0.825683 1.098279 0.025110 -0.016266 486041.000000 0 0 1
-18.099464 17.703197 13.090183 28.501696 -0.774331 1.093615 0.028889 -0.013795 741870.000000 0 0 1
-19.087864 18.723797 13.103683 29.776394 -0.775770 1.115120 0.028935 -0.022180 852407.000000 0 0 1
-20.555364 18.199297 13.268583 30.492503 -0.724678 1.120600 0.038533 -0.013254 902293.000000 0 0 1
-21.009764 17.561597 12.059083 29.920584 -0.696238 1.155964 0.046608 -0.015400 -630127.000000 0 0 1
-22.327964 17.130097 12.167383 30.659802 -0.654421 1.162712 0.050979 -0.008434 -384415.000000 0 0 1
-22.902464 16.410397 10.888883 30.205824 -0.621737 1.202004 0.057460 -0.008142 -77637.100000 0 0 1
-22.320864 15.140497 10.561383 28.965470 -0.596021 1.197572 0.045692 -0.002102 204998.000000 0 0 1
-22.948464 14.483897 9.438283 28.731455 -0.563009 1.236081 0.048262 -0.006482 289578.000000 0 0 1
-22.163664 13.198897 8.963183 27.308928 -0.537119 1.236384 0.070020 -0.003083 -362962.000000 0 0 1
-22.219664 12.093797 9.819183 27.136502 -0.498444 1.200551 0.051514 -0.001370 759687.000000 0 0 1
-23.448864 11.355697 9.976183 27.898482 -0.450989 1.205112 0.055622 0.003273 760568.000000 0 0 1
-24.171064 10.726197 8.752983 27.855096 -0.417654 1.251148 0.055938 -0.005966 -121008.000000 0 0 1
-24.610364 11.763097 7.880383 28.392621 -0.445871 1.289553 0.057408 -0.012548 -169878.000000 0 0 1
-25.802824 11.496197 7.194183 29.149692 -0.419139 1.321418 0.066958 -0.014741 -413764.000000 0 0 1
-26.287314 12.703097 6.332083 29.874518 -0.450150 1.357220 0.051334 -0.007461 -248583.000000 0 0 1
-25.447804 12.932597 5.179583 29.011565 -0.470187 1.391299 0.049792 -0.019906 1045100.000000 0 0 1
-24.192164 13.586497 5.305583 28.248946 -0.511711 1.381859 0.051125 -0.021795 -115318.000000 0 0 1
-24.277864 15.099397 5.593783 29.132403 -0.556397 1.377584 0.041695 -0.017982 -720457.000000 0 0 1
-23.012064 15.690897 5.766083 28.443050 -0.598444 1.366658 0.051071 -0.025755 213398.000000 0 0 1
-23.086964 17.087197 5.996183 29.341684 -0.637150 1.364989 0.041856 -0.031566 137133.000000 0 0 1
-21.675564 17.726997 6.201183 28.679805 -0.685521 1.352854 0.055861 -0.024089 400907.000000 0 0 1
-20.929864 17.842197 4.999683 27.953534 -0.705929 1.390972 0.048204 -0.036976 202868.000000 0 0 1
-19.674064 18.412297 5.314183 27.464924 -0.752281 1.376078 0.068945 -0.029572 -116148.000000 0 0 1
-18.839064 18.857297 4.089583 26.967252 -0.785882 1.418559 0.053475 -0.026534 -846228.000000 0 0 1
-17.521664 19.132397 4.426183 26.318215 -0.829314 1.401814 0.051713 -0.029242 -248781.000000 0 0 1
-16.907464 20.081597 3.500183 26.483659 -0.871001 1.438245 0.062306 -0.033041 296574.000000 0 0 1
-17.227564 21.576697 3.757983 27.865127 -0.897011 1.435521 0.055234 -0.027116 -285172.000000 0 0 1
-16.512664 21.963797 4.914783 27.914720 -0.926136 1.393810 0.050051 -0.021662 118282.000000 0 0 1
-16.731764 23.303697 5.285183 29.171003 -0.948100 1.388611 0.029130 -0.022035 -19583.200000 0 0 1
-15.959864 23.788797 6.547683 29.385308 -0.979870 1.346088 0.019493 -0.004928 165263.000000 0 0 1
-16.635064 23.388897 7.753883 29.730264 -0.952568 1.306938 0.023036 -0.010519 725584.000000 0 0 1
-15.809364 23.650497 8.895483 29.806235 -0.981555 1.267735 0.023041 -0.019802 285344.000000 0 0 1
-16.253464 22.853997 10.131983 29.818407 -0.952602 1.224103 0.016671 -0.017037 -108524.000000 0 0 1
-17.445864 23.392897 10.635283 31.059541 -0.930004 1.221309 0.017195 -0.020300 -311186.000000 0 0 1
-18.288164 22.439397 11.267483 31.063478 -0.886974 1.199607 0.020522 -0.022593 104646.000000 0 0 1
-19.542364 23.071197 11.906883 32.495508 -0.868020 1.195642 0.030084 -0.030133 576029.000000 0 0 1
-20.552464 23.638297 11.034483 33.210431 -0.855115 1.232098 0.047630 -0.022459 799360.000000 0 0 1
-20.124264 24.879397 10.443483 33.660611 -0.890669 1.255332 0.027446 -0.016601 -694573.000000 0 0 1
-21.280264 25.638797 9.805583 34.732507 -0.878027 1.284588 0.038759 -0.011034 -377156.000000 0 0 1
-22.148664 26.162897 10.760483 35.928380 -0.868298 1.266630 0.058698 -0.027604 173675.000000 0 0 1
-22.967264 27.252297 10.243883 37.082612 -0.870518 1.290912 0.059157 -0.021950 469831.000000 0 0 1
-23.970764 27.759697 11.330683 38.387273 -0.858511 1.271165 0.055181 -0.026788 -302452.000000 0 0 1
-23.390864 28.287297 12.515283 38.780614 -0.879865 1.242194 0.049044 -0.022782 -119258.000000 0 0 1
-24.269464 28.812997 13.466483 40.006773 -0.870784 1.227487 0.041671 -0.020124 -337415.000000 0 0 1
8.818136 -32.518920 28.010643 43.815931 -1.305995 0.877235 0.032498 -0.017781 -841629.000000 0 0 1
10.142636 -32.812220 27.739523 44.147434 -1.271001 0.891381 0.031734 -0.020290 -635181.000000 0 0 1
10.410836 -32.412420 26.413013 43.088255 -1.260006 0.910947 0.034812 -0.025433 -880658.000000 0 0 1
11.888036 -32.562320 26.111733 43.398763 -1.220746 0.925206 0.012649 -0.017103 -1165320.000000 0 0 1
12.299436 -33.863220 26.055473 44.462135 -1.222403 0.944664 0.019504 -0.025658 801696.000000 0 0 1
13.726036 -33.891720 25.838123 44.773445 -1.185990 0.955640 0.026688 -0.020197 1154120.000000 0 0 1
14.411936 33.464897 25.780213 44.634321 1.164143 0.955026 0.041622 -0.018667 8609.800000 0 0 1
14.326336 32.792397 24.525793 43.383173 1.158907 0.969964 0.022717 -0.020082 125161.000000 0 0 1
15.194736 31.683397 24.562463 42.872278 1.123617 0.960730 0.023756 -0.023733 -440659.000000 0 0 1
15.443436 31.057797 23.151483 41.702250 1.109353 0.982239 0.033910 -0.028414 -567936.000000 0 0 1
14.339336 30.423197 22.580883 40.510292 1.130347 0.979532 0.030855 -0.021811 -565196.000000 0 0 1
14.327636 29.005497 22.773283 39.562892 1.111990 0.957431 0.034395 -0.017881 -247683.000000 0 0 1
13.997636 28.437197 24.200023 39.877927 1.113384 0.918702 0.032226 -0.028514 216545.000000 0 0 1
15.025936 28.724597 25.171533 41.042506 1.088837 0.910559 0.035494 -0.021236 648038.000000 0 0 1
14.670936 28.276397 26.459723 41.411447 1.092190 0.877668 0.026937 -0.017764 -113717.000000 0 0 1
15.683836 28.789297 27.537923 42.815225 1.071970 0.872151 0.022189 -0.020171 314919.000000 0 0 1
15.664836 30.200997 27.707883 43.877262 1.092312 0.887328 0.024985 -0.019405 -79786.000000 0 0 1
16.550236 30.681497 28.682473 45.143647 1.076112 0.882322 0.034577 -0.021668 -196190.000000 0 0 1
16.316536 32.173697 29.050013 46.317161 1.101454 0.892846 0.040489 -0.020469 -16415.700000 0 0 1
16.940836 33.013697 28.097093 46.543987 1.096688 0.922703 0.035008 -0.024077 -52158.300000 0 0 1
16.740736 -34.362620 28.510093 47.685084 -1.117458 0.929939 0.052717 -0.018970 -426096.000000 0 0 1
17.518136 -33.356920 27.729143 46.781135 -1.087214 0.936337 0.038936 -0.022450 -941574.000000 0 0 1
17.107336 -33.400020 26.393193 45.878349 -1.097440 0.957842 0.043169 -0.022728 -134604.000000 0 0 1
17.361836 -32.184620 25.699613 44.696233 -1.076093 0.958212 0.050969 -0.028354 963113.000000 0 0 1
18.878036 -31.808120 25.395023 44.866958 -1.035172 0.969142 0.039678 -0.020043 1360580.000000 0 0 1
19.617836 -31.552920 26.599213 45.694249 -1.014542 0.949471 0.041946 -0.020298 417185.000000 0 0 1
20.557436 -30.457320 26.440353 45.269733 -0.977075 0.947072 0.042207 -0.023789 240611.000000 0 0 1
20.857036 -29.651320 27.791373 45.679067 -0.957785 0.916747 0.047041 -0.016609 -396609.000000 0 0 1
19.806336 -28.822020 28.193803 44.920934 -0.968716 0.892289 0.043324 -0.019126 -16067.500000 0 0 1
20.137136 -28.128720 29.350883 45.367427 -0.949484 0.867206 0.051333 -0.018222 144430.000000 0 0 1
18.839236 -27.553520 29.971703 44.859962 -0.971072 0.839121 0.041049 -0.016137 64111.500000 0 0 1
18.173936 -26.616620 29.185293 43.480084 -0.971705 0.834925 0.068537 -0.023667 -388265.000000 0 0 1
16.951836 -26.313020 29.812083 43.226150 -0.998483 0.809753 0.048685 -0.013037 -636471.000000 0 0 1
16.051436 -25.578220 28.846063 41.761098 -1.010370 0.808284 0.041951 -0.003057 -1142020.000000 0 0 1
15.569536 -26.335620 27.727103 41.288831 -1.036875 0.834511 0.033778 -0.004876 110099.000000 0 0 1
14.688336 -25.690420 26.867753 39.970252 -1.051413 0.833629 0.032409 -0.018966 49492.400000 0 0 1
13.243736 -25.424120 27.376723 39.639215 -1.090559 0.808412 0.022514 -0.009440 560100.000000 0 0 1
12.338936 -26.560620 27.500083 40.174251 -1.135903 0.816851 0.021813 -0.014066 949702.000000 0 0 1
11.589036 -26.868520 26.339583 39.369998 -1.163581 0.837898 0.007676 -0.013422 87506.900000 0 0 1
10.652936 -28.132220 26.379603 40.009877 -1.208809 0.850873 0.030638 -0.014811 -343411.000000 0 0 1
9.483636 -27.962920 27.103183 40.080504 -1.243820 0.828179 0.014197 -0.024689 -1050750.000000 0 0 1
8.769136 -29.131420 26.981003 40.663397 -1.278404 0.845282 0.015608 -0.029302 -264843.000000 0 0 1
7.253336 -28.961520 27.356063 40.493638 -1.325397 0.829066 0.011616 -0.018995 563830.000000 0 0 1
6.341336 -28.585020 26.334733 39.380631 -1.352490 0.838306 0.020107 -0.025602 218142.000000 0 0 1
6.652436 -27.389020 25.641613 38.103879 -1.332523 0.832621 0.029042 -0.024295 -948547.000000 0 0 1
5.622936 -27.093420 24.514243 36.967809 -1.366163 0.845812 0.020448 -0.023543 -462989.000000 0 0 1
5.478236 -27.990120 23.416683 36.902560 -1.377519 0.883364 -0.002037 -0.019434 -58289.500000 0 0 1
4.747936 -29.183420 23.746773 37.922607 -1.409516 0.894139 0.001135 -0.014912 721252.000000 0 0 1
3.223636 -29.094620 24.143383 37.944587 -1.460448 0.881130 0.015228 -0.017051 228572.000000 0 0 1
2.359536 -28.834620 23.062883 36.998639 -1.489148 0.897784 0.014606 -0.011603 77121.300000 0 0 1
1.068036 -28.373920 23.408683 36.799273 -1.533173 0.881340 0.032370 -0.010692 267167.000000 0 0 1
0.879936 -26.862020 23.779983 35.886348 -1.538050 0.846449 0.035135 -0.013935 -149217.000000 0 0 1
1.605736 -26.578420 24.979333 36.509696 -1.510455 0.817313 0.029058 -0.017700 225198.000000 0 0 1
1.397136 -25.257520 25.405393 35.851475 -1.515537 0.783243 0.037906 -0.018566 -131958.000000 0 0 1
2.578236 -24.758320 26.277583 36.195760 -1.467034 0.758331 0.041688 -0.013465 -277249.000000 0 0 1
3.698536 -24.449320 25.500073 35.520447 -1.420661 0.770018 0.029437 -0.015709 181763.000000 0 0 1
4.690036 -23.578520 26.088153 35.475833 -1.374448 0.744572 0.026005 -0.012167 707868.000000 0 0 1
4.268736 -22.063320 26.325753 34.612967 -1.379681 0.706598 0.034869 -0.009360 -224350.000000 0 0 1
4.251436 -21.332020 25.123383 33.231222 -1.374076 0.713589 0.038556 -0.012171 -161932.000000 0 0 1
3.562036 -20.172420 25.356943 32.597380 -1.396019 0.679507 0.051566 -0.014561 -280042.000000 0 0 1
3.795236 -19.119720 24.233903 31.100636 -1.374845 0.677393 0.052689 -0.013108 -89669.900000 0 0 1
5.121036 -18.667120 24.105533 30.915418 -1.303049 0.676569 0.048211 -0.007088 -316399.000000 0 0 1
5.355536 -17.739820 23.013483 29.546630 -1.277603 0.677907 0.041074 -0.005690 -759725.000000 0 0 1
6.831036 -17.477420 22.856083 29.572348 -1.198203 0.687418 0.051993 -0.008158 -2189310.000000 0 0 1
7.439936 -18.531320 22.180583 29.845280 -1.189016 0.732977 0.044843 -0.008296 -26059.500000 0 0 1
8.811036 -18.394520 21.832383 29.877176 -1.124087 0.751394 0.018170 -0.000448 210678.000000 0 0 1
9.775136 -18.423420 22.997283 31.045945 -1.082983 0.736610 0.008085 0.003047 -1209710.000000 0 0 1
9.633836 -17.314420 23.927953 31.066813 -1.063049 0.691627 0.031709 0.009070 -235249.000000 0 0 1
10.808236 -17.259320 24.705113 32.016319 -1.011316 0.689379 0.023904 0.015259 -112049.000000 0 0 1
10.686336 -16.317220 25.975283 32.483300 -0.990976 0.644084 0.023943 -0.002814 -142424.000000 0 0 1
10.675736 -14.946820 25.657703 31.554658 -0.950572 0.621305 0.035159 -0.002507 183100.000000 0 0 1
10.607936 -14.206520 26.871473 32.193626 -0.929414 0.583239 0.028874 -0.008140 -101195.000000 0 0 1
10.955636 -12.702520 26.807383 31.623025 -0.859103 0.559129 0.034473 -0.004294 -341888.000000 0 0 1
9.976736 -12.007520 26.091893 30.405635 -0.877511 0.539186 0.038933 -0.004320 -62600.200000 0 0 1
10.238336 -10.643120 25.940823 29.850055 -0.804781 0.517542 0.043383 -0.001102 -326545.000000 0 0 1
9.207236 -9.937420 25.037523 28.467579 -0.823520 0.495965 0.029367 -0.000574 45570.800000 0 0 1
8.032336 -9.583420 25.767603 28.641398 -0.873223 0.451800 0.035806 -0.006132 -142684.000000 0 0 1
7.105736 -9.079520 24.839453 27.384806 -0.906749 0.434567 0.030367 -0.004126 259325.000000 0 0 1
5.627936 -9.164620 25.335313 27.523481 -1.020078 0.401443 0.028667 -0.007659 -299824.000000 0 0 1
5.268336 -8.147120 26.282573 28.016148 -0.996780 0.353629 0.036603 -0.004623 1063380.000000 0 0 1
3.917536 -8.163020 26.797163 28.285507 -1.123347 0.325842 0.036439 -0.004821 2010460.000000 0 0 1
2.691136 -8.204620 25.808933 27.215051 -1.253851 0.322856 0.027643 -0.006306 30652.300000 0 0 1
2.572036 -7.076920 24.967173 26.077919 -1.222199 0.292914 0.036275 -0.008540 -50606.600000 0 0 1
1.462436 -7.134720 24.086593 25.163603 -1.368622 0.293630 0.028810 -0.013140 90338.700000 0 0 1
1.326436 -5.919020 23.190283 23.970470 -1.350341 0.255836 0.027830 -0.021913 -106506.000000 0 1 0
1.267236 -4.726620 23.928043 24.423310 -1.308851 0.201729 0.029868 -0.018343 167845.000000 0 1 0
1.904236 -3.638920 23.205583 23.566224 -1.088685 0.175171 0.031272 -0.025301 -761750.000000 0 1 0
1.011836 -2.818920 22.248183 22.448870 -1.226176 0.133814 0.027110 -0.025337 111845.000000 0 1 0
0.069736 -1.936920 22.809183 22.891381 -1.534808 0.084770 0.031575 -0.019395 -83156.800000 0 1 0
-1.036864 -2.573920 23.431483 23.595223 1.187849 0.117878 0.026671 -0.014374 -251459.000000 0 1 0
-2.157164 -1.524920 23.760833 23.907235 0.615348 0.110725 0.023795 -0.025517 308819.000000 0 1 0
-1.735464 -0.529920 24.724553 24.791050 0.296356 0.073260 0.023997 -0.015923 498354.000000 0 1 0
-2.794064 0.297080 25.231043 25.387016 -0.105927 0.110906 0.014520 -0.013709 339327.000000 0 0 1
-2.259164 1.187080 26.388463 26.511581 -0.483800 0.096411 0.044976 -0.015460 -206631.000000 0 0 1
-2.520164 0.800080 27.728923 27.854704 -0.307407 0.095068 0.058895 -0.003595 -196957.000000 0 0 1
-1.913364 -0.359920 28.239223 28.306257 0.185936 0.068835 0.055160 -0.009331 -192370.000000 0 0 1
-0.432264 -0.179920 28.755783 28.759594 0.394417 0.016281 0.080092 -0.016811 1221900.000000 0 0 1
0.584036 0.119080 27.805273 27.811661 0.201134 0.021433 0.053821 -0.013726 103055.000000 0 0 1
0.930936 -0.883920 26.905833 26.936440 -0.759498 0.047676 0.050998 -0.015349 169272.000000 0 0 1
2.342536 -1.553920 27.110013 27.255365 -0.585703 0.103322 0.072921 -0.017228 590690.000000 0 0 1
2.287036 -2.244920 28.359043 28.539543 -0.776105 0.112528 0.072619 -0.018559 397098.000000 0 0 1
3.501936 -2.939920 28.626403 28.989267 -0.698374 0.158388 0.069659 -0.002059 380901.000000 0 0 1
3.986836 -4.126620 27.787793 28.374025 -0.802625 0.203629 0.075234 -0.008777 -413832.000000 0 0 1
4.702336 -3.730920 26.639953 27.307852 -0.670715 0.221624 0.076875 -0.008550 -227415.000000 0 0 1
5.117536 -4.809420 25.877493 26.813510 -0.754370 0.265004 0.060429 -0.009409 652655.000000 0 0 1
6.372436 -4.454320 24.940623 26.124386 -0.610053 0.302189 0.051189 -0.005513 725135.000000 0 0 1
7.546036 -4.250620 25.723763 27.142631 -0.512991 0.324766 0.042347 -0.005726 -269003.000000 0 0 1
8.425536 -5.304320 25.870873 27.720525 -0.561867 0.367371 0.029288 -0.005662 -318080.000000 0 0 1
9.295636 -5.669620 24.644843 26.942934 -0.547684 0.416018 0.018212 -0.008591 -873182.000000 0 0 1
8.555536 -5.998620 23.459683 25.681459 -0.611490 0.419022 0.022083 -0.007835 -520916.000000 0 0 1
9.247936 -5.841520 22.284783 24.824569 -0.563372 0.456296 0.026824 -0.006417 -291735.000000 0 1 0
9.441636 -4.374920 21.777283 24.135750 -0.433912 0.445760 0.027578 -0.007121 1110840.000000 0 1 0
8.170636 -3.747920 21.477783 23.283070 -0.430070 0.396383 0.031245 -0.009213 599195.000000 0 1 0
8.253236 -2.573920 20.703383 22.435931 -0.302309 0.395568 0.028870 -0.008897 -498065.000000 0 1 0
6.851436 -2.039920 20.498083 21.708865 -0.289379 0.335559 0.028788 -0.004224 -171965.000000 0 1 0
6.260836 -1.360920 21.614283 22.543899 -0.214041 0.288175 0.038993 -0.004675 965256.000000 0 1 0
4.949836 -0.798920 21.421183 22.000141 -0.160023 0.229923 0.032989 0.000127 863735.000000 0 1 0
4.387236 -0.112920 22.700783 23.121119 -0.025733 0.190972 0.041260 -0.007026 -317802.000000 0 1 0
3.097736 0.405080 22.575883 22.791019 0.130029 0.137509 0.043961 -0.005117 -552796.000000 0 1 0
2.551036 0.711080 23.867963 24.014434 0.271841 0.110504 0.050467 -0.002537 -162494.000000 0 1 0
1.084936 1.118080 23.732063 23.783145 0.800442 0.065553 0.040587 -0.006939 -451723.000000 0 1 0
0.969036 2.443080 23.178083 23.326620 1.193185 0.112911 0.043066 -0.007824 1365130.000000 0 1 0
-0.448564 2.756080 23.108683 23.276778 -1.409457 0.120252 0.014449 -0.008687 1309770.000000 0 1 0
-0.659164 4.152080 22.582383 22.970378 -1.413355 0.184059 0.013582 -0.004251 -98760.900000 0 1 0
-0.467564 5.271080 23.492083 24.080715 -1.482324 0.221560 0.018920 -0.004082 -132464.000000 0 1 0
-1.208564 6.428080 23.135183 24.041995 -1.384953 0.275526 0.013910 -0.006621 -43213.800000 0 1 0
-1.094864 7.703080 24.058613 25.285431 -1.429609 0.312782 0.025835 -0.002433 -305218.000000 0 0 1
0.025836 8.498080 23.803193 25.274691 1.567756 0.342911 0.016862 0.005289 -490692.000000 0 0 1
-0.036764 9.714080 24.432773 26.293061 -1.567012 0.378424 0.039271 -0.002931 -658502.000000 0 0 1
0.622036 10.917080 23.737583 26.135080 1.513880 0.431677 0.045170 -0.007427 1942820.000000 0 0 1
2.082836 11.059080 23.726213 26.259753 1.384640 0.442883 0.038617 -0.005028 1399830.000000 0 0 1
2.611836 11.430080 25.034693 27.644244 1.346148 0.437999 0.054529 -0.012518 -717376.000000 0 0 1
3.977336 12.150080 24.905483 27.995119 1.254440 0.474248 0.046833 -0.016077 -205008.000000 0 0 1
5.055936 11.360080 24.506983 27.481013 1.152057 0.469535 0.037442 -0.010000 -411588.000000 0 0 1
4.976536 10.947080 23.166583 26.101629 1.144124 0.478790 0.028679 -0.008227 -1417820.000000 0 0 1
6.189136 10.233080 22.537883 25.514260 1.026843 0.487846 0.045939 -0.009199 554435.000000 0 0 1
7.255136 11.078080 22.064683 25.733462 0.990978 0.540539 0.033111 -0.014371 283962.000000 0 0 1
8.184636 10.368080 21.295583 25.059672 0.902548 0.555200 0.038694 -0.022253 -395882.000000 0 0 1
9.146836 11.325080 20.603183 25.227231 0.891401 0.615120 0.031686 -0.027262 -681120.000000 0 0 1
8.578836 12.160080 19.553183 24.572157 0.956394 0.650559 0.029097 -0.025613 414934.000000 0 1 0
9.411136 13.269080 19.209183 25.172021 0.953887 0.702675 0.043976 -0.017217 1449170.000000 0 0 1
10.863436 12.991080 18.594083 25.149996 0.874355 0.738725 0.046995 -0.017384 1210660.000000 0 0 1
11.816936 12.637080 19.609983 26.151237 0.818924 0.722933 0.039845 -0.021696 4193.230000 0 0 1
13.006036 12.398080 18.864683 26.052746 0.761471 0.761074 0.037074 -0.024882 -136681.000000 0 0 1
14.202136 12.043080 19.767883 27.157055 0.703318 0.755528 0.046484 -0.016152 -108512.000000 0 0 1
14.705136 13.156080 20.498183 28.451695 0.729856 0.766337 0.044399 -0.012369 -168298.000000 0 0 1
15.923336 12.800080 21.103083 29.372347 0.677088 0.769199 0.038740 -0.006430 -6953.960000 0 0 1
16.741636 13.979080 21.691383 30.760577 0.695715 0.788136 0.032287 0.000954 -153855.000000 0 0 1
16.123136 14.592080 22.796783 31.505200 0.735593 0.761810 0.038608 -0.004638 -236820.000000 0 0 1
16.689836 15.789080 23.132983 32.603382 0.757672 0.781969 0.030522 0.000572 -334149.000000 0 0 1
-20.952164 13.081997 -24.876040 35.056372 -0.558149 2.359728 0.023759 -0.006006 14885.300000 0 0 1
-20.833464 13.012097 -26.262330 35.959114 -0.558295 2.389614 0.021792 -0.017542 -398333.000000 0 0 1
-21.790464 13.716297 -26.957080 37.277946 -0.561802 2.379130 0.010664 -0.019961 -556361.000000 0 0 1
-21.330164 13.802097 -28.429910 38.127858 -0.574312 2.412301 0.016315 -0.009214 319010.000000 0 0 1
-20.104764 14.424697 -28.780780 37.955325 -0.622359 2.431468 0.035189 -0.012313 -67614.100000 0 0 1
-19.988864 14.860497 -30.124930 39.088367 -0.639289 2.450716 0.028765 -0.018259 -672981.000000 0 0 1
-18.571264 15.236897 -30.520290 38.839966 -0.687090 2.474778 0.031634 -0.022298 -694814.000000 0 0 1
-17.691464 14.150697 -30.602140 38.075203 -0.674656 2.504332 0.031061 -0.024101 -1056320.000000 0 0 1
-16.375464 14.579197 -30.679050 37.708261 -0.727434 2.521096 0.040291 -0.022694 176597.000000 0 0 1
-15.439464 14.048497 -29.497740 36.136602 -0.738262 2.525745 0.067167 -0.020569 633302.000000 0 0 1
-15.933164 14.625197 -28.237360 35.568393 -0.742622 2.487975 0.070216 -0.024613 114100.000000 0 0 1
-16.569764 13.560897 -27.556340 34.897090 -0.685868 2.481028 0.067468 -0.020639 177411.000000 0 0 1
-17.381064 13.973397 -26.296060 34.479559 -0.677141 2.438207 0.057580 -0.026689 652655.000000 0 0 1
-16.500764 14.475997 -25.248720 33.456353 -0.720127 2.425957 0.097402 -0.029884 866622.000000 0 0 1
-17.304064 14.961097 -24.193440 33.295459 -0.712909 2.384199 0.077558 -0.027010 339229.000000 0 0 1
-16.462164 15.482297 -22.959140 32.215314 -0.754734 2.364104 0.095155 -0.025286 223179.000000 0 0 1
-15.835764 16.683597 -23.257040 32.710912 -0.811464 2.361697 0.077460 -0.029320 -510337.000000 0 0 1
-15.134364 17.273597 -22.230140 31.962560 -0.851312 2.339920 0.081209 -0.028868 -555418.000000 0 0 1
-14.822964 18.762497 -22.511740 32.840981 -0.902163 2.326055 0.079866 -0.031705 281839.000000 0 0 1
-15.954964 19.616897 -22.497540 33.845573 -0.887981 2.297904 0.047237 -0.031901 45182.800000 0 0 1
-16.835964 19.474697 -23.561640 34.897914 -0.857942 2.311977 0.026538 -0.026071 -834025.000000 0 0 1
-18.068564 20.364097 -23.501140 35.964886 -0.845056 2.282925 0.012971 -0.029013 -517886.000000 0 0 1
-17.748664 21.720197 -23.616940 36.667996 -0.885685 2.270610 0.004569 -0.022491 -99567.800000 0 0 1
-18.907264 22.469597 -23.872940 37.845537 -0.871281 2.253379 0.014783 -0.033573 -118079.000000 0 0 1
-18.590964 23.944997 -24.205940 38.793226 -0.910610 2.244613 0.005942 -0.029830 -129800.000000 0 0 1
-17.972164 24.577897 -23.112640 38.226507 -0.939415 2.220089 0.004066 -0.023313 -55418.500000 0 0 1
-17.111064 25.655797 -23.417840 38.722134 -0.982599 2.220269 0.010401 -0.010766 22102.100000 0 0 1
-15.964464 25.799397 -22.342140 37.678167 -1.016674 2.205542 0.005983 -0.026208 109076.000000 0 0 1
-14.966364 24.793497 -22.382840 36.601927 -1.027704 2.228778 0.025321 -0.042634 -33464.200000 0 0 1
-15.392964 23.554697 -21.900440 35.656646 -0.991965 2.232173 0.031684 -0.024404 -1211970.000000 0 0 1
-14.260964 22.524197 -21.825640 34.453927 -1.006365 2.256830 0.068650 -0.030801 -162943.000000 0 0 1
-13.507764 22.830397 -20.673640 33.631624 -1.036534 2.232812 0.079626 -0.037725 153947.000000 0 0 1
-12.546764 21.800997 -20.345240 32.351716 -1.048576 2.250904 0.074269 -0.033081 571545.000000 0 0 1
-11.815664 22.163397 -18.994240 31.489796 -1.081008 2.218287 0.070472 -0.035783 82298.300000 0 0 1
-12.586064 21.971497 -17.825240 30.966028 -1.050590 2.184181 0.083828 -0.032048 72708.100000 0 0 1
-13.586164 22.968897 -17.643940 31.991604 -1.036648 2.154979 0.066655 -0.040572 -398299.000000 0 0 1
-14.161464 22.979697 -16.248440 31.505957 -1.018507 2.112651 0.074118 -0.035264 95856.600000 0 0 1
-13.304764 23.371297 -15.148640 30.866091 -1.053273 2.083788 0.066825 -0.039278 -181951.000000 0 0 1
-14.031264 23.498297 -13.953440 30.720430 -1.032498 2.042278 0.058474 -0.026138 -145723.000000 0 0 1
-13.244164 23.979597 -12.691440 30.191085 -1.066182 2.004650 0.064876 -0.013383 -98584.600000 0 0 1
-12.781264 25.306197 -12.874240 31.136962 -1.103105 1.997060 0.058137 -0.019444 167662.000000 0 0 1
-11.943264 25.674697 -11.799340 30.676637 -1.135394 1.965610 0.032009 -0.007087 -222423.000000 0 0 1
-11.560064 27.151097 -11.853540 31.801314 -1.168275 1.952754 0.040182 -0.012521 -324214.000000 0 0 1
-10.940564 27.357697 -13.075940 32.235380 -1.190369 1.988475 0.041163 -0.019327 -57545.700000 0 0 1
-10.892264 28.778297 -13.291240 33.518486 -1.208970 1.978535 0.033898 -0.003227 -1074870.000000 0 0 1
-10.224264 29.196597 -14.627440 34.218984 -1.233955 2.012484 0.061553 -0.020398 199904.000000 0 0 1
-8.813264 29.228797 -14.690940 33.879491 -1.277939 2.019306 0.044591 -0.017210 235947.000000 0 0 1
-8.124364 27.984197 -14.566440 32.577627 -1.288244 2.034351 0.044776 -0.014682 -249910.000000 0 0 1
-6.649264 27.936897 -15.002140 32.399802 -1.337134 2.052209 0.053736 -0.015265 406882.000000 0 0 1
-5.709764 28.687797 -14.258740 32.540787 -1.374333 2.024370 0.046394 -0.013100 -115934.000000 0 0 1
-4.469864 28.734197 -14.947740 32.696616 -1.416474 2.045601 0.055605 -0.015723 527394.000000 0 0 1
-3.419164 29.665197 -14.272940 33.097302 -1.456044 2.016665 0.035574 -0.004183 102735.000000 0 0 1
-3.397764 31.061497 -14.518940 34.455203 -1.461841 2.005769 0.025506 0.001881 -118516.000000 0 0 1
-4.536064 31.766997 -14.051740 35.030978 -1.428963 1.983539 0.023004 0.005288 120518.000000 0 0 1
-4.476164 33.291997 -14.274040 36.498512 -1.437146 1.972607 0.025551 0.000567 -37524.600000 0 0 1
-3.618064 33.981597 -13.400740 36.707209 -1.464725 1.944505 0.008835 -0.001138 -169604.000000 0 0 1
-3.363364 -33.474020 -13.850940 36.382287 1.470656 1.961356 0.007704 -0.004290 83577.800000 0 0 1
-2.566264 -32.656020 -12.818440 35.175471 1.492373 1.943800 0.013948 -0.011741 -341620.000000 0 0 1
-3.221964 -32.367620 -11.637140 34.546590 1.471580 1.914369 0.022277 -0.008193 -614039.000000 0 0 1
-2.336164 -31.922920 -10.662240 33.737425 1.497745 1.892345 0.012944 -0.013487 -485420.000000 0 0 1
-2.822464 -31.865620 -9.202640 33.287725 1.482453 1.850902 0.016484 -0.015977 -899786.000000 0 0 1
-1.845564 -31.317920 -8.395540 32.476196 1.511934 1.832280 0.025393 -0.023571 -566192.000000 0 0 1
-2.147164 -31.404920 -7.008640 32.249037 1.502532 1.789873 0.017078 -0.023373 271315.000000 0 0 1
-0.935364 -31.002620 -6.100840 31.611036 1.540635 1.765012 0.022993 -0.020731 584671.000000 0 0 1
-1.200464 -30.852020 -4.686340 31.228994 1.531906 1.721429 0.030426 -0.015757 570782.000000 0 0 1
0.058436 -30.495420 -4.093940 30.769050 -1.568880 1.704246 0.036870 -0.017960 761668.000000 0 0 1
0.033336 -30.612220 -2.574340 30.720292 -1.569707 1.654694 0.047245 -0.010551 -221828.000000 0 0 1
0.029236 -31.914820 -1.969740 31.975561 -1.569880 1.632437 0.044519 -0.006294 195088.000000 0 0 1
1.115936 -32.785220 -2.240440 32.880626 -1.536772 1.638988 0.035221 -0.006365 827102.000000 0 0 1
2.558836 -32.547420 -1.688640 32.691493 -1.492339 1.622473 0.036405 -0.007581 54311.800000 0 0 1
2.654836 -32.805320 -0.292740 32.913871 -1.490045 1.579691 0.054023 -0.006755 398172.000000 0 0 1
3.931436 -32.457920 0.252260 32.696122 -1.450259 1.563081 0.045293 -0.007882 602675.000000 0 0 1
4.208436 -30.935220 0.439860 31.223265 -1.435586 1.556708 0.043025 -0.014487 -441327.000000 0 0 1
4.518136 -30.260220 -0.789040 30.605834 -1.422582 1.596580 0.029883 -0.017883 116698.000000 0 0 1
4.482136 -28.917520 -0.512240 29.267301 -1.417023 1.588299 0.039492 -0.007865 -259580.000000 0 0 1
4.175736 -28.147720 -1.796640 28.512433 -1.423520 1.633851 0.021180 -0.003855 576632.000000 0 0 1
2.818436 -28.425920 -2.197340 28.649691 -1.471969 1.647569 0.038446 -0.006396 817309.000000 0 0 1
2.270136 -27.422020 -3.059940 27.685446 -1.488200 1.681548 0.025536 -0.002647 74876.800000 0 0 1
2.818436 -27.411620 -4.487240 27.919094 -1.468337 1.732219 0.007114 -0.005938 -277808.000000 0 0 1
2.427936 -28.511320 -5.301640 29.101506 -1.485844 1.753997 0.002000 -0.010511 -253973.000000 0 0 1
2.946236 -28.294720 -6.537640 29.189248 -1.467044 1.796687 0.012422 -0.016064 -582248.000000 0 0 1
2.268436 -29.161820 -7.632040 30.229217 -1.493165 1.826031 0.011364 -0.019120 -148181.000000 0 0 1
1.033436 -28.661820 -8.085140 29.798279 -1.534756 1.845570 0.014287 -0.017521 -469089.000000 0 0 1
0.716536 -28.983720 -9.410740 30.481658 -1.546079 1.884659 0.002764 -0.010441 675297.000000 0 0 1
-0.668464 -28.354220 -9.804340 30.008894 1.547225 1.903621 0.009970 -0.016137 276687.000000 0 0 1
-0.650064 -26.941420 -9.573440 28.599186 1.546672 1.912131 0.005984 -0.013581 -270141.000000 0 0 1
-1.894364 -26.271020 -9.573440 28.025093 1.498812 1.919418 0.029846 -0.015881 866835.000000 0 0 1
-2.965064 -26.607520 -8.462440 28.077831 1.459817 1.876949 0.043888 -0.018315 359314.000000 0 0 1
-2.659564 -26.233920 -7.117140 27.312003 1.469763 1.834426 0.045855 -0.022548 -580017.000000 0 0 1
-1.671064 -27.010720 -6.500940 27.832242 1.509008 1.806550 0.026835 -0.020819 -38657.500000 0 0 1
-1.357164 -26.716220 -5.020240 27.217662 1.520041 1.756306 0.040413 -0.013175 8662.210000 0 0 1
-2.420364 -26.932520 -4.120540 27.353202 1.481169 1.722014 0.049281 -0.017561 -85951.300000 0 0 1
-2.011064 -26.650020 -2.812140 26.873334 1.495477 1.675632 0.047541 -0.012671 -310317.000000 0 0 1
-3.138064 -26.921320 -1.822040 27.164771 1.454756 1.637920 0.046075 -0.007025 -446791.000000 0 0 1
-4.184864 -26.012620 -1.970940 26.420713 1.411285 1.645464 0.043036 -0.009566 -486930.000000 0 0 1
-5.085264 -26.021620 -0.864640 26.527952 1.377804 1.603396 0.051640 -0.010437 -195551.000000 0 0 1
-6.168764 -24.966120 -1.072040 25.739271 1.328563 1.612458 0.055102 -0.017157 -131026.000000 0 0 1
-5.681064 -23.620720 -0.953440 24.313000 1.334767 1.610022 0.038797 -0.021856 104827.000000 0 1 0
-6.387064 -22.977020 0.084860 23.848380 1.299665 1.567238 0.044591 -0.017050 296726.000000 0 1 0
-5.702564 -21.616220 0.459660 22.360490 1.312863 1.550238 0.023791 -0.017944 -42163.100000 0 1 0
-4.802364 -21.721220 1.509360 22.296912 1.353206 1.503051 0.030669 -0.016707 -370241.000000 0 1 0
-4.209364 -20.416620 1.729460 20.917652 1.367472 1.488022 0.014085 -0.010923 506406.000000 0 1 0
-3.210464 -20.441520 2.959760 20.902703 1.415013 1.428722 0.015058 0.000100 629229.000000 0 1 0
-3.849664 -20.624720 4.224560 21.402007 1.386267 1.372101 0.005577 0.016260 -194476.000000 0 1 0
-2.924964 -20.440120 5.256860 21.307006 1.428662 1.321502 0.012307 0.010673 -350126.000000 0 1 0
-1.981964 -21.530720 5.714160 22.364072 1.479002 1.312425 0.015368 -0.008385 -336605.000000 0 1 0
-0.984564 -21.684920 4.749060 22.220682 1.525424 1.355412 0.039917 -0.010583 -1033540.000000 0 1 0
-0.236064 -22.819820 5.018460 23.366319 1.560452 1.354337 0.042334 -0.015212 -365364.000000 0 1 0
0.789836 -23.191720 3.887960 23.528620 -1.536753 1.404791 0.043066 -0.019394 1451440.000000 0 1 0
1.961536 -22.346520 3.802660 22.752468 -1.483243 1.402877 0.029011 -0.022270 459386.000000 0 1 0
2.974036 -22.734220 4.690860 23.402859 -1.440717 1.368990 0.049046 -0.022412 -921949.000000 0 1 0
4.251236 -21.910620 4.650560 22.798596 -1.379151 1.365370 0.050969 -0.020417 -144056.000000 0 1 0
4.942836 -21.895220 3.392360 22.701110 -1.348769 1.420799 0.026675 -0.007070 -570684.000000 0 1 0
6.092236 -21.134420 3.642160 22.294492 -1.290143 1.406695 0.049127 -0.003711 -202225.000000 0 1 0
6.847136 -20.685520 2.388560 21.919837 -1.251137 1.461612 0.053098 0.001312 -336882.000000 0 1 0
7.467536 -21.830620 1.794860 23.142204 -1.241206 1.493160 0.040010 0.006504 -290065.000000 0 1 0
7.138936 -21.974520 0.404160 23.108598 -1.256679 1.553306 0.033339 0.003254 -370165.000000 0 1 0
8.106936 -22.795020 -0.425840 24.197452 -1.229101 1.588396 0.022782 0.007864 -207472.000000 0 1 0
9.268436 -22.039420 -0.750640 23.920773 -1.172710 1.602182 0.015933 0.008626 -798118.000000 0 1 0
10.043036 -22.860220 -1.557340 25.017545 -1.156856 1.633086 0.012953 0.009165 -92938.000000 0 0 1
11.432636 -22.248920 -1.878340 25.084811 -1.096129 1.645746 0.017389 0.015044 241006.000000 0 0 1
11.284936 -21.152320 -2.739740 24.130408 -1.080703 1.684581 0.019790 0.021203 465038.000000 0 1 0
12.536136 -21.002320 -3.433640 24.699029 -1.032665 1.710267 0.014619 0.020190 715896.000000 0 1 0
12.577936 -19.768320 -4.385240 23.837392 -1.004136 1.755815 0.017840 -0.001145 -160654.000000 0 1 0
12.700736 -18.569620 -3.668340 22.794653 -0.970922 1.732429 0.036129 0.004050 179755.000000 0 1 0
12.850236 -17.439720 -4.526140 22.130484 -0.935773 1.776770 0.045955 -0.006959 -842554.000000 0 1 0
13.438636 -16.178820 -3.796640 21.372076 -0.877655 1.749389 0.070441 -0.002442 -791712.000000 0 1 0
14.762836 -16.234620 -3.440940 22.211355 -0.832843 1.726341 0.053708 0.004174 -1043970.000000 0 1 0
15.666136 -16.119120 -4.511040 22.926040 -0.799649 1.768854 0.044298 0.001206 -396985.000000 0 1 0
17.116036 -15.824120 -4.022840 23.654697 -0.746198 1.741692 0.039507 0.003530 284761.000000 0 1 0
17.771936 -16.794320 -3.194840 24.659641 -0.757123 1.700719 0.036478 -0.001899 157696.000000 0 1 0
19.129236 -16.413020 -3.158440 25.402571 -0.709124 1.695454 0.014627 0.009075 -518681.000000 0 0 1
19.902436 -17.453120 -2.357140 26.575825 -0.719924 1.659608 0.027710 0.001176 -49846.700000 0 0 1
21.306536 -17.316520 -2.489840 27.568635 -0.682457 1.661234 0.015505 0.007545 304558.000000 0 0 1
22.000436 -17.987620 -1.456940 28.455163 -0.685383 1.622020 0.010849 0.012000 44813.700000 0 0 1
23.530836 -17.820920 -1.472340 29.554242 -0.648184 1.620635 0.026846 0.009445 109765.000000 0 0 1
24.005236 -16.544120 -0.930140 29.168895 -0.603433 1.602690 0.032949 -0.000915 -608383.000000 0 0 1
25.375336 -16.545620 -0.744840 30.302145 -0.577805 1.595379 0.050348 -0.002483 -806892.000000 0 0 1
25.905036 -15.238520 -0.119240 30.054910 -0.531732 1.574764 0.040720 0.000019 141695.000000 0 0 1
25.292336 -15.006520 1.152960 29.431738 -0.535495 1.531612 0.049251 0.003041 402620.000000 0 0 1
25.922236 -13.912520 1.853260 29.478044 -0.492576 1.507886 0.040846 -0.007976 730844.000000 0 0 1
25.017836 -13.255220 2.996560 28.470552 -0.487226 1.465350 0.052954 -0.016789 273031.000000 0 0 1
24.742736 -13.990320 4.157560 28.726596 -0.514614 1.425558 0.074224 -0.014079 136667.000000 0 0 1
25.826836 -14.320320 5.015960 29.954246 -0.506272 1.402550 0.086433 -0.019805 407472.000000 0 0 1
25.304036 -15.147120 6.222960 30.140582 -0.539393 1.362836 0.083035 -0.013199 336507.000000 0 0 1
24.670336 -16.348720 5.902860 30.178633 -0.585243 1.373930 0.072301 -0.018905 130784.000000 0 0 1
23.645136 -16.661120 6.845060 29.724404 -0.613828 1.338427 0.061567 -0.017008 427623.000000 0 0 1
22.961036 -18.065120 6.821660 30.001546 -0.666623 1.341413 0.052819 -0.013744 37000.500000 0 0 1
23.870136 -19.109020 7.066360 31.382662 -0.675071 1.343681 0.062070 -0.010032 -288385.000000 0 0 1
23.201736 -20.340920 7.090860 31.659973 -0.719791 1.344911 0.033086 -0.001796 31591.100000 0 0 1
1.332636 23.139097 -2.613640 23.324341 1.513267 1.683088 0.003807 -0.010777 145626.000000 0 1 0
2.044436 24.278097 -2.195540 24.462750 1.486785 1.660668 0.013843 -0.010653 -72187.300000 0 1 0
2.761036 24.888597 -3.251540 25.251497 1.460312 1.699921 0.022722 -0.008998 528689.000000 0 0 1
3.852436 25.926897 -2.788840 26.359494 1.423287 1.676795 0.016575 -0.008723 563199.000000 0 0 1
5.044536 25.353097 -2.297140 25.951951 1.374390 1.659427 0.010570 -0.009972 -351577.000000 0 0 1
5.898936 26.300597 -1.720040 27.008839 1.350159 1.634524 0.006417 -0.007147 540510.000000 0 0 1
7.092836 25.622897 -0.930940 26.602779 1.300742 1.605798 -0.005534 -0.017858 1063040.000000 0 0 1
8.129236 25.198897 -1.828140 26.540742 1.258734 1.639731 0.006186 -0.022705 -281975.000000 0 0 1
9.133836 24.462097 -1.195940 26.139079 1.213440 1.616565 0.005586 -0.015547 -607389.000000 0 0 1
10.174836 24.134297 -2.240140 26.287066 1.171816 1.656118 0.015209 -0.013879 -1055440.000000 0 0 1
11.139636 25.153997 -2.520140 27.625462 1.153898 1.662149 0.014909 -0.014034 239633.000000 0 0 1
11.837036 24.925997 -3.733040 27.845221 1.127440 1.705265 0.038767 -0.022162 405909.000000 0 0 1
12.871336 23.742097 -3.766040 27.267958 1.074014 1.709351 0.032200 -0.015338 -387936.000000 0 0 1
12.381236 22.396797 -3.902740 25.887119 1.065796 1.722133 0.037026 -0.024377 -306416.000000 0 0 1
12.085636 21.990097 -5.196040 25.624711 1.068265 1.774987 0.053871 -0.029181 -347950.000000 0 0 1
11.141436 20.805697 -5.188840 24.164699 1.079154 1.787210 0.048304 -0.034376 451369.000000 0 1 0
9.820336 21.145797 -4.754240 23.794675 1.136023 1.771953 0.028456 -0.032788 180409.000000 0 1 0
8.905036 20.087197 -4.826240 22.496394 1.153512 1.787011 0.001074 -0.025156 -645593.000000 0 1 0
7.466136 20.579297 -4.699740 22.390583 1.222766 1.782267 -0.000580 -0.020390 -403252.000000 0 1 0
7.059336 20.895697 -3.364040 22.311010 1.244998 1.722153 -0.012042 -0.024282 -845532.000000 0 1 0
5.993336 21.757397 -3.449440 22.829872 1.302001 1.722470 -0.004209 0.001585 -599728.000000 0 1 0
5.667236 22.357697 -2.052840 23.155957 1.322545 1.659566 -0.000153 -0.003133 186369.000000 0 1 0
4.900636 21.554697 -1.169240 22.135680 1.347239 1.623642 -0.011760 0.000762 -163340.000000 0 1 0
4.828536 22.129497 0.116260 22.650451 1.355969 1.565663 0.015961 -0.002206 261209.000000 0 1 0
4.009436 21.216097 1.058960 21.617580 1.384018 1.521791 0.001658 -0.006105 142075.000000 0 1 0
3.457136 21.901797 2.155260 22.277470 1.414241 1.473899 0.009489 0.000913 46123.500000 0 1 0
3.051236 20.920797 3.075260 21.364621 1.425970 1.426353 0.010886 -0.007166 -14730.300000 0 1 0
2.108236 21.462597 4.194760 21.970065 1.472882 1.378686 0.013394 -0.012430 -315954.000000 0 1 0
0.823636 21.734597 3.739960 22.069400 1.532919 1.400511 0.014070 -0.006830 -974544.000000 0 1 0
-0.095164 22.108297 4.721460 22.607036 -1.566492 1.360398 0.014632 -0.021196 384916.000000 0 1 0
-1.498664 22.261897 4.057360 22.678189 -1.503578 1.390918 0.008221 -0.018701 341506.000000 0 1 0
-2.541964 22.427997 4.997160 23.118137 -1.457939 1.352919 0.029059 -0.024552 -866012.000000 0 1 0
-3.751164 22.599997 4.332760 23.315315 -1.406315 1.383877 0.031914 -0.024325 -881631.000000 0 1 0
-4.861564 22.950597 5.303360 24.051827 -1.362055 1.348472 0.051195 -0.030932 -831654.000000 0 1 0
-4.864764 24.295597 5.775160 25.441982 -1.373177 1.341807 0.060369 -0.021361 41444.300000 0 0 1
-6.071264 24.456497 6.492360 26.021746 -1.327468 1.318635 0.070262 -0.025022 133765.000000 0 0 1
-6.406464 25.871097 6.887560 27.528076 -1.328049 1.317908 0.079078 -0.026503 379251.000000 0 0 1
-5.464264 26.473597 7.824360 28.141254 -1.367250 1.289045 0.073312 -0.034334 481379.000000 0 0 1
-5.817064 27.712297 8.429660 29.544354 -1.363891 1.281454 0.090186 -0.032839 -167565.000000 0 0 1
-5.991564 29.063097 7.575560 30.625995 -1.367488 1.320845 0.088037 -0.030481 710046.000000 0 0 1
-7.152364 29.000497 6.727760 30.617771 -1.328993 1.349255 0.079119 -0.032947 229117.000000 0 0 1
-7.241364 30.141397 5.892760 31.554173 -1.335018 1.382943 0.079629 -0.029364 791940.000000 0 0 1
-8.744564 30.315197 5.465160 32.021033 -1.289965 1.399283 0.061998 -0.028059 1463560.000000 0 0 1
-9.731764 30.757397 6.391260 32.887276 -1.264359 1.375213 0.055825 -0.016151 202437.000000 0 0 1
-10.243764 29.749297 7.255660 32.289317 -1.239176 1.344153 0.045227 -0.016834 130661.000000 0 0 1
-11.263064 30.265097 8.339260 33.352301 -1.214529 1.318079 0.024003 -0.015109 470564.000000 0 0 1
-10.664064 31.055997 9.373460 34.147606 -1.240030 1.292728 0.032711 -0.020738 64064.200000 0 0 1
-11.567464 31.109797 10.467760 34.802295 -1.214810 1.265288 0.033121 -0.010009 217967.000000 0 0 1
-10.892964 31.444697 11.852960 35.325888 -1.237317 1.228627 0.033989 -0.019064 17787.500000 0 0 1
-10.400364 32.807297 11.830060 36.392811 -1.263805 1.239715 0.021101 -0.011963 209374.000000 0 0 1
-9.633364 33.077997 12.983960 36.817643 -1.287403 1.210388 0.021691 -0.016213 23653.000000 0 0 1
-9.099264 -34.237320 12.997960 37.735099 1.311031 1.219140 0.007283 -0.020499 206402.000000 0 0 1
-10.072164 -33.231320 13.235260 37.161018 1.276505 1.206641 0.009898 0.000225 52981.000000 0 0 1
-9.448964 -32.007120 13.267960 35.913472 1.283736 1.192387 0.011299 0.009324 109496.000000 0 0 1
-10.323664 -30.947020 14.049860 35.520342 1.248813 1.164136 0.027192 0.008937 273898.000000 0 0 1
-10.368864 -31.137920 15.465460 36.280351 1.249348 1.130424 0.036745 -0.008204 412892.000000 0 0 1
-9.164564 -30.767020 16.148760 35.935793 1.281295 1.104727 0.032009 -0.007491 393590.000000 0 0 1
-9.030664 -31.089920 17.676460 36.886221 1.288106 1.071035 0.020400 -0.021378 238939.000000 0 0 1
-9.693964 -30.215920 18.628960 36.796915 1.260347 1.039949 0.060864 -0.026208 -195033.000000 0 0 1
-10.690164 -30.782720 19.393560 37.920518 1.236548 1.033952 0.052049 -0.027261 -489372.000000 0 0 1
-11.089064 -29.881220 20.568960 37.933320 1.215445 0.997696 0.060608 -0.034110 229047.000000 0 0 1
-10.118564 -29.825620 21.620960 38.202341 1.243724 0.969200 0.051207 -0.023298 388098.000000 0 0 1
-10.485964 -28.952520 22.682760 38.245411 1.223314 0.935912 0.034504 -0.018163 50603.800000 0 0 1
-9.401064 -28.853620 23.775960 38.551364 1.255824 0.906209 0.061240 -0.025634 131667.000000 0 0 1
-9.268464 -30.092820 24.418760 39.846683 1.272020 0.911175 0.058976 -0.019018 -194195.000000 0 0 1
-8.155564 -29.975820 25.262460 40.040666 1.305155 0.888058 0.070661 -0.024023 -110821.000000 0 0 1
-8.012064 -31.209520 26.205760 41.532749 1.319504 0.887998 0.075111 -0.023546 -44608.200000 0 0 1
-7.618164 -32.440320 25.642260 42.046835 1.340140 0.914925 0.092194 -0.019152 265220.000000 0 0 1
-7.795664 -33.546120 26.527060 43.471824 1.342463 0.914467 0.094019 -0.016895 -363080.000000 0 0 1
-7.657564 33.843797 25.775060 43.224931 -1.348281 0.931911 0.080259 -0.016631 1604800.000000 0 0 1
-6.267864 33.507897 25.403060 42.513301 -1.385877 0.930377 0.078108 -0.009852 1973590.000000 0 0 1
-6.095864 32.212897 24.776060 41.093594 -1.383771 0.923643 0.065488 -0.006597 -408366.000000 0 0 1
-6.881164 31.860097 23.528160 40.199385 -1.358083 0.945563 0.062946 -0.007999 1193730.000000 0 0 1
-8.180264 31.205897 23.737360 40.052304 -1.314426 0.936440 0.058087 -0.007450 1519530.000000 0 0 1
-8.899664 31.136497 22.531360 39.450573 -1.292392 0.962916 0.038573 -0.002621 172527.000000 0 0 1
-9.930464 29.967797 22.630460 38.843542 -1.250813 0.948866 0.036505 -0.012162 310029.000000 0 0 1
-9.245064 28.727697 22.716760 37.773046 -1.259446 0.925542 0.029803 -0.007614 404439.000000 0 0 1
-10.163664 27.668097 22.874260 37.310260 -1.218756 0.910840 0.020300 -0.003020 -177135.000000 0 0 1
-9.570464 26.329597 22.380260 35.856904 -1.222157 0.896747 0.007143 -0.003731 343514.000000 0 0 1
-8.339464 25.917797 22.989960 35.634494 -1.259492 0.869563 0.003710 -0.012797 734023.000000 0 0 1
-8.052564 24.587597 22.601260 34.354195 -1.254300 0.852784 0.016936 -0.013555 21257.800000 0 0 1
-6.722564 24.080797 23.230960 34.128510 -1.298560 0.822091 0.024813 -0.015853 -423033.000000 0 0 1
-5.664564 24.742597 22.666560 34.030227 -1.345735 0.841867 0.011525 -0.015397 -963128.000000 0 0 1
-4.432464 24.461897 23.297560 34.070625 -1.391543 0.817836 0.061733 -0.005923 -31562.400000 0 0 1
-3.254664 25.137597 22.598660 33.958667 -1.442039 0.842666 0.046568 -0.010086 -377703.000000 0 0 1
-2.988964 24.610397 21.308860 32.690566 -1.449937 0.860794 0.048867 -0.008268 -1289.680000 0 0 1
-1.962464 25.247697 20.587660 32.636624 -1.493224 0.888194 0.055020 -0.010064 -74536.100000 0 0 1
-1.318764 24.382097 19.500360 31.248838 -1.516762 0.896901 0.042293 -0.016254 -359004.000000 0 0 1
-0.508064 23.345297 19.984160 30.734796 -1.549037 0.862932 0.055280 -0.013439 -144873.000000 0 0 1
-0.132264 22.633697 18.822860 29.438102 -1.564953 0.877073 0.032974 -0.011205 -444092.000000 0 0 1
1.019636 21.616997 18.964360 28.774662 1.523663 0.851222 0.031171 -0.004070 -592778.000000 0 0 1
2.256136 22.226897 19.093160 29.388329 1.469638 0.863626 0.031385 -0.010198 -786481.000000 0 0 1
3.270336 21.276497 19.370060 28.958309 1.418283 0.838075 0.039584 -0.001928 -448023.000000 0 0 1
4.661336 21.888797 19.349960 29.584937 1.360975 0.857873 0.032105 -0.003722 -762816.000000 0 0 1
5.640836 20.885397 19.410360 29.065116 1.307005 0.839516 0.047750 -0.007463 -102266.000000 0 0 1
6.905936 21.455097 19.099360 29.543167 1.259390 0.867822 0.071037 -0.008397 269660.000000 0 0 1
8.010936 20.436097 18.722660 28.850428 1.197206 0.864585 0.061377 0.002999 -116134.000000 0 0 1
8.557836 19.701597 19.780760 29.200479 1.161014 0.826557 0.060987 -0.005634 49895.400000 0 0 1
9.538436 18.798597 19.273960 28.563168 1.101245 0.830125 0.052382 -0.003289 454954.000000 0 0 1
10.278836 18.025397 20.460860 29.141315 1.052545 0.792418 0.065650 -0.005687 -118349.000000 0 0 1
9.572236 16.897197 20.931160 28.552696 1.055375 0.747970 0.059927 -0.008858 -385091.000000 0 0 1
10.112636 16.184997 21.957860 29.092390 1.012330 0.715504 0.065934 -0.014748 -966711.000000 0 0 1
9.102136 15.266597 22.554660 28.716382 1.033166 0.667408 0.042423 -0.009130 -195622.000000 0 0 1
8.142036 15.882697 23.457160 29.475264 1.097091 0.650427 0.050872 -0.003723 136785.000000 0 0 1
7.080436 15.041997 23.798860 29.030674 1.130853 0.609764 0.035773 -0.005153 -229527.000000 0 0 1
7.398436 13.798197 24.605260 29.164121 1.078619 0.566690 0.049020 0.001688 -634152.000000 0 0 1
7.715636 14.244697 25.969360 30.608007 1.074387 0.557747 0.048908 -0.006812 -127736.000000 0 0 1
8.084036 13.151497 26.792360 30.921580 1.019649 0.522726 0.055725 -0.013811 -199419.000000 0 0 1
9.025736 13.651197 27.942060 32.381752 0.986610 0.529825 0.021285 -0.005122 775956.000000 0 0 1
10.402336 13.832997 27.611960 32.588046 0.926020 0.559909 0.038056 -0.006434 460256.000000 0 0 1
10.679236 15.005697 26.835860 32.548125 0.952275 0.601482 0.035669 -0.004356 -1291790.000000 0 0 1
11.927036 14.835897 26.025660 32.244271 0.893663 0.631504 0.043949 -0.009450 -907241.000000 0 0 1
11.747936 13.961397 24.898360 30.868478 0.871282 0.632427 0.047028 -0.010767 539385.000000 0 0 1
12.973536 13.592697 24.243060 30.672464 0.808700 0.659359 0.052457 -0.009588 162416.000000 0 0 1
12.892236 12.392897 23.253060 29.334254 0.765652 0.655582 0.041887 -0.008743 -9946.670000 0 0 1
12.353236 11.189097 23.762160 29.024793 0.735990 0.611679 0.038559 -0.004595 868598.000000 0 0 1
10.931936 11.191697 23.974060 28.627205 0.797139 0.578183 0.044476 -0.005863 480150.000000 0 0 1
10.447136 9.975997 24.798560 28.698985 0.762333 0.527453 0.039032 -0.007342 -27178.000000 0 0 1
10.446736 8.826197 24.001660 27.624550 0.701512 0.517916 0.040726 -0.007521 127334.000000 0 0 1
10.317736 7.639797 24.791060 27.918074 0.637363 0.477834 0.039485 -0.004901 47221.100000 0 0 1
10.400636 6.343597 23.925260 26.848325 0.547685 0.470974 0.046282 -0.009651 -297959.000000 0 0 1
11.669836 6.148297 23.364460 26.830666 0.484899 0.513945 0.041907 -0.011034 -47718.600000 0 0 1
11.777436 4.890997 22.601060 25.950680 0.393614 0.513718 0.044741 -0.014428 -193545.000000 0 0 1
11.848736 3.577797 23.451860 26.517597 0.293250 0.485614 0.035597 -0.011124 350255.000000 0 0 1
13.108136 3.218797 24.062360 27.589510 0.240793 0.511204 0.025684 -0.003875 730981.000000 0 0 1
13.029636 2.021797 24.846060 28.128025 0.153941 0.487897 0.026208 -0.005875 102436.000000 0 0 1
14.407936 1.474697 25.321560 29.170958 0.101998 0.519555 0.012446 0.002881 316422.000000 0 0 1
15.222036 0.919097 24.327760 28.712280 0.060306 0.559926 0.006049 -0.004912 -211760.000000 0 0 1
16.580736 1.133897 24.628360 29.711322 0.068280 0.593619 0.021521 -0.006648 5050.310000 0 0 1
17.527636 0.230097 23.793660 29.553498 0.013127 0.634944 0.037820 -0.006314 133669.000000 0 0 1
17.328036 -1.136803 24.181860 29.771052 -0.065511 0.622779 0.035689 -0.007266 283641.000000 0 0 1
18.192436 -2.023503 23.461660 29.757500 -0.110772 0.662546 0.039321 -0.003062 20201.500000 0 0 1
18.132336 -3.526903 23.850160 30.167048 -0.192110 0.659003 0.039314 0.004736 -492263.000000 0 0 1
16.974836 -4.203103 23.469360 29.268105 -0.242726 0.640370 0.030200 0.006245 -198847.000000 0 0 1
17.101236 -5.604503 23.613160 29.689124 -0.316695 0.651216 0.050803 0.003140 -549396.000000 0 0 1
16.104336 -6.276903 22.736660 28.560547 -0.371652 0.649996 0.045124 -0.001167 -424873.000000 0 0 1
16.542236 -6.457403 21.379060 27.792226 -0.372167 0.693136 0.041067 -0.005391 914017.000000 0 0 1
15.582936 -7.318003 20.689660 26.915481 -0.439047 0.694006 0.049284 -0.012842 724797.000000 0 0 1
15.859836 -8.870803 20.688760 27.536346 -0.509974 0.720728 0.057388 -0.018392 -79124.500000 0 0 1
15.704336 -9.380803 22.016060 28.623985 -0.538460 0.693291 0.041598 -0.014120 -255295.000000 0 0 1
16.557336 -10.451403 22.339760 29.705927 -0.563063 0.719659 0.039902 -0.014606 -336931.000000 0 0 1
16.330436 -11.201503 23.652060 30.847638 -0.601219 0.697052 0.042684 -0.005811 273255.000000 0 0 1
15.222236 -12.098403 23.513660 30.511965 -0.671553 0.690956 0.046722 -0.012991 319166.000000 0 0 1
15.091236 -12.993303 24.600960 31.650886 -0.710836 0.680498 0.047662 -0.000936 129023.000000 0 0 1
14.014736 -14.068303 24.330660 31.405588 -0.787306 0.684518 0.045746 -0.003432 258639.000000 0 0 1
14.396736 -14.835903 23.184560 31.062740 -0.800420 0.728193 0.044103 -0.007441 756305.000000 0 0 1
13.328536 -15.740303 22.881460 30.805328 -0.868176 0.733589 0.038965 -0.001339 167235.000000 0 0 1
13.605736 -16.518403 21.624060 30.423242 -0.881787 0.780198 0.026695 -0.009126 -132793.000000 0 0 1
14.594336 -17.514803 21.651560 31.441263 -0.876103 0.811191 0.034312 -0.004599 -76513.700000 0 0 1
14.600536 -18.210603 20.441860 31.026945 -0.894983 0.851518 0.022068 -0.003272 19984.900000 0 0 1
-23.700464 -32.587520 26.253113 48.092457 0.941991 0.993347 0.038014 -0.016237 -392357.000000 0 0 1
-24.394364 -33.268220 27.255623 49.444195 0.938093 0.986947 0.042220 -0.009976 582957.000000 0 0 1
-25.740284 -33.577020 26.864583 50.116707 0.916753 1.005057 0.040591 -0.014198 555331.000000 0 0 1
-26.491684 -34.339520 27.937353 51.589802 0.913700 0.998542 0.040211 -0.010138 -391383.000000 0 0 1
-27.039044 -33.721220 29.107323 52.110141 0.894934 0.978132 0.041568 -0.010798 514714.000000 0 0 1
-26.061204 -33.333220 30.052173 51.898199 0.907228 0.953221 0.026302 -0.005995 126519.000000 0 0 1
-26.795964 -32.627320 31.213843 52.505902 0.883217 0.934174 0.014679 -0.007766 155699.000000 0 0 1
-27.214444 -31.316120 30.840823 51.696051 0.855361 0.931564 0.023539 -0.008432 229598.000000 0 0 1
-28.078804 -30.653420 31.734203 52.298289 0.829207 0.918777 0.011440 0.000851 -39491.000000 0 0 1
-28.260814 -29.207020 31.219513 51.248235 0.801862 0.915767 0.015298 -0.008643 -244490.000000 0 0 1
-28.835204 -29.010220 29.957893 50.700466 0.788424 0.938647 -0.000573 -0.005413 122869.000000 0 0 1
-29.543524 -27.784220 29.855183 50.359852 0.754719 0.936219 0.008562 -0.005027 -293776.000000 0 0 1
-30.431754 -27.741820 28.634843 50.156300 0.739191 0.963180 0.005488 -0.012790 -231784.000000 0 0 1
-29.754174 -27.570920 27.367353 48.933000 0.747331 0.977277 0.010723 -0.008043 330257.000000 0 0 1
-29.179394 -26.297720 27.119363 47.733290 0.733501 0.966548 0.002745 -0.000920 -68458.000000 0 0 1
-28.147744 -26.166720 25.981633 46.390063 0.748941 0.976327 0.013958 0.002360 -241264.000000 0 0 1
-28.631664 -26.604520 24.718313 46.244650 0.748715 1.006866 0.001732 -0.003805 187166.000000 0 0 1
-27.616544 -26.553920 23.710203 45.055054 0.765784 1.016612 0.015608 0.013806 164556.000000 0 0 1
-28.109614 -26.983120 22.305083 44.897170 0.764954 1.050884 0.000195 0.022765 -93609.300000 0 0 1
-28.787614 -25.938720 21.659383 44.392261 0.733388 1.061104 -0.009403 0.009167 95053.200000 0 0 1
-29.358394 -26.184620 20.384383 44.306576 0.728319 1.092716 -0.012421 0.028895 174428.000000 0 0 1
-29.874274 -24.933120 19.570783 43.556266 0.695486 1.104790 -0.017465 0.026714 8979.380000 0 0 1
-31.035764 -24.344220 20.089583 44.265687 0.665151 1.099725 -0.007054 0.019293 69947.300000 0 0 1
-31.766894 -23.540120 19.151683 43.932446 0.637733 1.119720 -0.000150 0.018286 766622.000000 0 0 1
-33.272334 -23.284020 19.501783 45.050120 0.610593 1.123099 0.009301 0.018687 237483.000000 0 0 1
-34.105466 -24.314120 19.109083 46.038205 0.619338 1.142776 0.011853 0.014970 -307764.000000 0 0 1
-35.451167 -23.883720 19.190283 46.855995 0.592861 1.148826 0.017711 0.010663 254578.000000 0 0 1
35.136830 -24.837520 18.520583 46.845610 -0.615328 1.164343 0.036472 0.000147 181086.000000 0 0 1
34.951990 -26.087920 19.194883 47.651492 -0.641189 1.156203 0.033047 0.008675 -112246.000000 0 0 1
33.980650 -26.881820 18.563583 47.137283 -0.669286 1.166013 0.037807 0.007942 -201274.000000 0 0 1
33.704560 -28.159820 19.387383 48.008785 -0.696010 1.155097 0.019878 0.011494 397759.000000 0 0 1
32.635300 -28.086620 20.349983 47.623973 -0.710628 1.129286 0.018326 0.008954 247199.000000 0 0 1
32.873590 -27.184720 21.443283 47.744071 -0.690958 1.105005 0.015163 0.006192 -279928.000000 0 0 1
31.709250 -27.049220 22.448883 47.340143 -0.706256 1.076737 0.019821 -0.002602 -81455.800000 0 0 1
30.602970 -26.423320 21.854783 45.960474 -0.712236 1.075250 0.034041 -0.000395 -153517.000000 0 0 1
29.827750 -25.672120 22.789683 45.476610 -0.710661 1.045893 0.043284 -0.006255 20850.600000 0 0 1
28.936740 -24.587420 22.143783 43.957062 -0.704317 1.042851 0.053069 -0.008520 20166.000000 0 0 1
29.651620 -23.512620 21.568183 43.557415 -0.670435 1.052770 0.051978 -0.002686 281921.000000 0 0 1
30.459450 -22.761420 22.483583 44.174335 -0.641751 1.036804 0.062264 -0.017304 553377.000000 0 0 1
31.410890 -21.709720 21.803383 43.969802 -0.604763 1.051958 0.067697 -0.014168 475642.000000 0 0 1
30.691070 -20.562820 21.368383 42.677619 -0.590302 1.046397 0.068987 -0.020138 806839.000000 0 0 1
31.560730 -19.643120 20.656783 42.528044 -0.556721 1.063608 0.061390 -0.020672 -387326.000000 0 0 1
30.696680 -18.554020 20.003183 41.069029 -0.543671 1.062073 0.064968 -0.021235 172500.000000 0 0 1
30.099860 -17.669320 20.962183 40.713874 -0.530823 1.029945 0.062074 -0.013319 1178820.000000 0 0 1
28.864380 -18.207920 21.513483 40.342418 -0.562766 1.008333 0.074038 -0.030561 378216.000000 0 0 1
28.883310 -18.140620 23.051983 41.166996 -0.560801 0.976456 0.060010 -0.029267 -63824.500000 0 0 1
28.883390 -16.839220 23.521283 40.878604 -0.527831 0.957711 0.060971 -0.019971 112235.000000 0 0 1
29.223360 -16.745120 24.883693 41.876031 -0.520333 0.934497 0.055272 -0.021574 -66109.400000 0 0 1
29.107870 -15.314920 25.363893 41.534828 -0.484343 0.913895 0.060943 -0.017279 240500.000000 0 0 1
27.785580 -14.895020 25.670393 40.655493 -0.492086 0.887423 0.061764 -0.022579 379216.000000 0 0 1
27.770430 -13.581020 26.251753 40.556077 -0.454846 0.866766 0.047141 -0.019450 -11607.800000 0 0 1
28.132770 -12.375120 25.322443 39.822386 -0.414409 0.881642 0.057931 -0.031743 204319.000000 0 0 1
27.154730 -12.096220 24.304423 38.397954 -0.419068 0.885424 0.052614 -0.015455 392903.000000 0 0 1
27.456420 -11.023020 23.443183 37.748441 -0.381776 0.900731 0.052532 -0.008915 261236.000000 0 0 1
28.574030 -11.306420 22.352183 37.999084 -0.376784 0.941929 0.060708 -0.024538 231270.000000 0 0 1
28.300090 -12.315320 21.376983 37.543809 -0.410452 0.965036 0.063723 -0.032619 -111538.000000 0 0 1
28.372860 -13.664220 21.770683 38.284366 -0.448815 0.965924 0.068658 -0.037261 -375775.000000 0 0 1
27.788140 -14.645820 20.765783 37.654993 -0.485055 0.986665 0.073052 -0.045182 116415.000000 0 0 1
28.442460 -14.630420 19.453283 37.435984 -0.475091 1.024365 0.061473 -0.035368 -39001.300000 0 0 1
27.909860 -15.673420 18.741083 37.092379 -0.511685 1.041120 0.063161 -0.034767 -222433.000000 0 0 1
28.314270 -15.740320 17.256683 36.704886 -0.507373 1.081339 0.069400 -0.026566 -84212.000000 0 0 1
27.821320 -16.914120 16.546083 36.522406 -0.546248 1.100625 0.064654 -0.029417 1831680.000000 0 0 1
26.383310 -16.883320 16.259983 35.291820 -0.569259 1.091979 0.045002 -0.018960 1416100.000000 0 0 1
25.940810 -15.953820 15.067283 33.977537 -0.551382 1.111354 0.051319 -0.016118 -644507.000000 0 0 1
26.076910 -16.504920 13.749983 33.785791 -0.564283 1.151656 0.055257 -0.016130 587953.000000 0 0 1
25.165810 -17.579520 13.460083 33.519119 -0.609751 1.157572 0.028377 -0.017495 198805.000000 0 0 1
25.519310 -18.149320 12.105483 33.573438 -0.618203 1.201920 0.051821 -0.020332 -241222.000000 0 0 1
25.217210 -17.153820 11.130683 32.466187 -0.597343 1.220859 0.045562 -0.023273 -79577.700000 0 0 1
25.204510 -17.610520 9.787983 32.267667 -0.609856 1.262603 0.046790 -0.034008 -255935.000000 0 0 1
26.553610 -17.924920 9.106283 33.306476 -0.593782 1.293861 0.056596 -0.026688 135794.000000 0 0 1
27.270580 -18.928620 9.824383 34.619296 -0.606758 1.283059 0.046745 -0.019521 -840118.000000 0 0 1
28.629930 -18.961220 9.479683 35.623941 -0.584964 1.301447 0.043957 -0.009815 -262987.000000 0 0 1
29.437140 -19.976020 10.289183 37.033146 -0.596218 1.289254 0.048839 -0.019571 -278412.000000 0 0 1
29.558410 -19.618720 11.625983 37.333058 -0.585965 1.254117 0.055756 -0.026982 135944.000000 0 0 1
29.908350 -20.676920 12.581083 38.475032 -0.604892 1.237676 0.028698 -0.017913 92570.900000 0 0 1
29.825450 -20.208320 14.059283 38.672950 -0.595501 1.198728 0.050366 -0.011782 42600.100000 0 0 1
29.663130 -21.096620 15.132883 39.420462 -0.618208 1.176797 0.061620 -0.012276 58016.100000 0 0 1
29.280530 -20.296120 16.237483 39.152749 -0.606121 1.143160 0.081139 -0.025954 85405.400000 0 0 1
29.057130 -20.973320 17.661283 39.951444 -0.625205 1.112893 0.073124 -0.019366 333791.000000 0 0 1
27.904660 -21.818320 17.655583 39.578135 -0.663599 1.108400 0.044190 -0.016389 221174.000000 0 0 1
27.656310 -22.379220 18.901183 40.285924 -0.680320 1.082439 0.043630 -0.016214 12984.000000 0 0 1
26.345410 -23.190720 18.949283 39.886908 -0.721799 1.075747 0.045950 -0.007059 195385.000000 0 0 1
25.132010 -22.471720 18.989783 38.693772 -0.729572 1.057822 0.046832 -0.010376 -42384.100000 0 0 1
24.058210 -23.325420 18.654983 38.352067 -0.769934 1.062816 0.042251 -0.006472 742130.000000 0 0 1
22.731810 -22.962720 19.439883 37.708497 -0.790451 1.029170 0.028205 0.002601 380561.000000 0 0 1
22.107110 -21.808220 18.917083 36.361777 -0.778592 1.023657 0.019688 0.003360 -288369.000000 0 0 1
20.982610 -21.281120 19.558583 35.716861 -0.792461 0.991302 0.010927 0.002407 -130527.000000 0 0 1
21.178510 -20.649120 20.952883 36.248293 -0.772742 0.954474 0.003855 0.007503 -598707.000000 0 0 1
21.465810 -21.609520 21.950283 37.544204 -0.788734 0.946346 0.016990 0.002819 -81307.100000 0 0 1
21.942810 -21.044520 23.149283 38.213192 -0.764505 0.920034 0.016788 -0.004307 -144897.000000 0 0 1
22.249710 -22.145220 24.195933 39.634625 -0.783045 0.914137 0.024928 -0.009130 -387498.000000 0 0 1
21.203910 -22.946520 24.702283 39.829027 -0.824848 0.901788 0.017162 0.001510 -247347.000000 0 0 1
21.612210 -23.936820 25.595463 41.172645 -0.836389 0.899934 0.020920 0.006372 -723082.000000 0 0 1
20.459110 -24.710920 26.203153 41.422337 -0.879251 0.885910 0.037814 -0.001245 -531395.000000 0 0 1
20.006310 -25.821520 25.447893 41.407712 -0.911616 0.908957 0.040859 -0.000248 134100.000000 0 0 1
18.925910 -26.465020 26.099693 41.710686 -0.949989 0.894727 0.043517 -0.012578 -589457.000000 0 0 1
18.167710 -27.364720 25.162153 41.376654 -0.984705 0.917101 0.049200 -0.018494 -782765.000000 0 0 1
17.304610 -26.609020 24.368333 40.016311 -0.994190 0.916048 0.053319 -0.019277 131616.000000 0 0 1
16.675710 -27.353120 23.328083 39.629180 -1.023315 0.941397 0.062174 -0.019874 -12701.400000 0 0 1
15.661110 -26.631020 22.421583 38.173407 -1.039189 0.943002 0.054563 -0.016750 827472.000000 0 0 1
14.353410 -26.477620 23.000183 37.895820 -1.074042 0.918602 0.034614 -0.020411 229690.000000 0 0 1
13.616010 -25.528720 22.308983 36.534942 -1.080818 0.913953 0.003257 -0.009212 -381362.000000 0 0 1
12.295410 -25.219020 23.015483 36.288959 -1.117162 0.883786 0.010568 -0.006212 17625.900000 0 0 1
11.300610 -26.219320 22.913783 36.608714 -1.163852 0.894498 0.005096 -0.012022 -108562.000000 0 0 1
10.010910 -25.659120 22.869483 35.799749 -1.198810 0.877837 -0.001927 -0.013189 421380.000000 0 0 1
8.782110 -26.587520 22.676883 36.031413 -1.251770 0.890061 -0.000968 -0.011429 202289.000000 0 0 1
8.787510 -27.332220 21.473283 35.852091 -1.259727 0.928618 0.001875 -0.012320 80724.500000 0 0 1
7.484110 -27.842420 21.263183 35.823668 -1.308201 0.935332 -0.002056 -0.007934 -140940.000000 0 0 1
7.251010 -28.677020 19.990483 35.701093 -1.323136 0.976483 0.002917 -0.006852 -110149.000000 0 0 1
7.664410 -30.008020 20.213283 36.983797 -1.320730 0.992564 0.012677 -0.012552 -38501.100000 0 0 1
7.474010 -30.817520 19.087383 37.012276 -1.332866 1.028967 0.002299 -0.007837 -41099.400000 0 0 1
8.372510 -32.070420 19.142783 38.276062 -1.315430 1.047054 0.005859 -0.012583 -243466.000000 0 0 1
7.835910 -33.153220 19.856883 39.431374 -1.338701 1.043058 0.016860 -0.017091 107628.000000 0 0 1
8.764410 -34.216220 19.909083 40.545483 -1.320040 1.057524 0.021821 -0.018490 -78186.900000 0 0 1
8.388510 33.436197 20.875983 40.300782 1.324989 1.026280 0.029931 -0.023712 41943.300000 0 0 1
7.491210 32.436597 20.404483 39.046050 1.343827 1.020928 0.030064 -0.020957 103305.000000 0 0 1
7.450110 31.409897 21.408083 38.734891 1.337910 0.985217 0.031056 -0.027231 -209624.000000 0 0 1
6.629110 30.195897 20.930083 37.333707 1.354688 0.975660 0.041567 -0.022953 -133517.000000 0 0 1
5.252210 30.423197 21.067483 37.376403 1.399843 0.971989 0.046492 -0.023113 -455566.000000 0 0 1
4.506610 29.228397 21.093783 36.325699 1.417815 0.951227 0.057294 -0.022738 639470.000000 0 0 1
3.029410 29.270697 21.580683 36.492149 1.467667 0.938029 0.061494 -0.014220 569851.000000 0 0 1
2.849210 29.113697 22.999583 37.211640 1.473242 0.904505 0.052826 -0.023226 279647.000000 0 0 1
1.486610 28.737597 23.174783 36.947667 1.519112 0.892801 0.060648 -0.013259 465102.000000 0 0 1
1.309210 28.274397 24.647393 37.531980 1.524526 0.854357 0.061807 -0.010023 -37879.300000 0 0 1
1.688610 29.343797 25.579773 38.964530 1.513314 0.854642 0.060431 -0.014131 332227.000000 0 0 1
1.757010 28.969997 26.942943 39.601389 1.510221 0.822551 0.049721 -0.010945 135593.000000 0 0 1
3.002510 28.199897 27.485613 39.493141 1.464724 0.801042 0.031748 -0.011773 -79945.200000 0 0 1
3.035210 26.882497 26.989083 38.213764 1.458366 0.786586 0.047238 -0.014878 164514.000000 0 0 1
4.048810 26.149797 27.633903 38.260127 1.417185 0.763726 0.021965 -0.007482 -237498.000000 0 0 1
4.304510 24.700797 27.118123 36.933058 1.398263 0.746234 0.020274 -0.002335 -118939.000000 0 0 1
3.225510 23.776797 27.124723 36.214508 1.435962 0.724242 0.037865 0.002810 43345.500000 0 0 1
3.660410 22.555697 26.558343 35.035748 1.409916 0.710500 0.026259 0.010624 718110.000000 0 0 1
2.550710 21.437697 26.647583 34.295403 1.452371 0.680908 0.038094 0.011825 277393.000000 0 0 1
3.058010 20.129097 26.785293 33.644968 1.420029 0.649947 0.045286 0.010230 83155.700000 0 0 1
3.666310 19.578897 25.629363 32.459810 1.385682 0.660685 0.052838 0.011095 -148208.000000 0 0 1
4.196610 18.130397 25.764753 31.782783 1.343334 0.625533 0.050420 0.001121 13857.400000 0 0 1
5.255810 17.828997 26.650683 32.492393 1.284126 0.609013 0.042877 0.000600 322518.000000 0 0 1
6.497410 17.885297 25.951343 32.180311 1.222338 0.632697 0.050948 0.001194 -70286.100000 0 0 1
7.814310 17.679497 26.737313 32.992605 1.154616 0.625956 0.036055 -0.005489 427570.000000 0 0 1
8.406710 18.755197 27.447343 34.289748 1.149412 0.642745 0.034450 -0.003034 277217.000000 0 0 1
8.823110 19.911897 26.698993 34.455292 1.153689 0.684258 0.027962 -0.012178 -235899.000000 0 0 1
9.379410 21.120297 27.564123 35.969726 1.152864 0.697711 0.021213 -0.012924 277909.000000 0 0 1
10.460610 20.770097 28.419823 36.722032 1.104243 0.685792 0.032729 -0.026926 143167.000000 0 0 1
10.690310 21.853397 29.356443 38.126820 1.115840 0.692005 0.038611 -0.033274 -240090.000000 0 0 1
11.853510 21.475697 30.272263 38.963074 1.066457 0.680994 0.039325 -0.035920 459851.000000 0 0 1
13.137110 21.527097 29.643633 38.919719 1.022867 0.704924 0.029810 -0.030736 574878.000000 0 0 1
14.228710 21.613997 30.551833 40.037926 0.988601 0.702743 0.025261 -0.017955 -750826.000000 0 0 1
15.548410 21.646897 29.876233 40.036614 0.947911 0.728427 0.017134 -0.023919 -1321480.000000 0 0 1
15.871610 22.875197 29.363423 40.464716 0.964220 0.758810 0.015377 -0.028126 -149222.000000 0 0 1
17.185610 22.956997 28.861103 40.685774 0.928192 0.782198 0.037534 -0.021618 -126752.000000 0 0 1
-8.364364 16.808297 4.335760 19.268634 -1.109044 1.343836 0.006507 -0.012080 -261375.000000 0 1 0
-8.247064 18.143997 4.726560 20.483142 -1.144178 1.337944 0.011472 -0.013003 -22036.900000 0 1 0
-6.976764 18.521497 5.189760 20.461054 -1.210549 1.314354 0.007144 -0.005554 -610946.000000 0 1 0
-6.972864 19.987597 5.800060 21.949159 -1.235138 1.303370 0.015776 -0.005875 -75161.200000 0 1 0
-7.211764 21.125297 4.943960 22.863300 -1.241821 1.352835 0.025993 -0.012175 -81893.300000 0 1 0
-8.537664 21.132197 4.448160 23.221706 -1.186836 1.378053 0.022380 -0.022177 -66294.800000 0 1 0
-8.770264 22.239497 3.410760 24.148418 -1.195165 1.429081 0.047531 -0.026625 -41645.700000 0 1 0
-8.025464 22.207197 2.226360 23.717596 -1.224011 1.476788 0.025204 -0.025023 -129913.000000 0 1 0
-8.518364 21.173897 1.308360 22.860627 -1.188304 1.513533 0.036354 -0.026830 -585124.000000 0 1 0
-7.757564 21.086297 -0.074840 22.468141 -1.218268 1.574127 0.018471 -0.016586 73454.600000 0 1 0
-6.436564 20.617997 -0.085340 21.599501 -1.268201 1.574747 0.005799 -0.009061 -510836.000000 0 1 0
-5.539264 21.622097 0.342860 22.322995 -1.320005 1.555437 0.006336 -0.012182 -24975.900000 0 1 0
-4.092064 21.406997 -0.227140 21.795782 -1.381919 1.581218 0.004267 -0.002930 567217.000000 0 1 0
-3.996964 21.644997 -1.628140 22.071078 -1.388193 1.644631 0.005826 -0.005698 -324567.000000 0 1 0
-2.691964 21.757397 -2.136340 22.027142 -1.447696 1.667936 -0.001569 0.006611 -233200.000000 0 1 0
-2.729964 22.141597 -3.600240 22.597893 -1.448120 1.730796 0.013627 0.004420 -39174.700000 0 1 0
-1.486264 22.209397 -4.269840 22.664903 -1.503975 1.760319 0.009704 0.003244 1957.600000 0 1 0
-1.649864 22.574397 -5.600640 23.317218 -1.497840 1.813361 0.018067 -0.005555 -242992.000000 0 1 0
-0.362764 23.086097 -6.242640 23.917986 -1.555084 1.834856 0.006947 -0.008318 -454419.000000 0 1 0
0.711336 22.213297 -6.130040 23.054587 1.538784 1.839926 0.008200 -0.003445 -90548.200000 0 1 0
1.891336 22.673197 -6.779440 23.740510 1.487572 1.860391 0.009248 -0.010386 519710.000000 0 1 0
3.128636 21.757297 -6.750440 22.994277 1.427978 1.868756 0.004657 -0.004245 -44597.200000 0 1 0
3.060136 20.848897 -7.833640 22.481256 1.425060 1.926715 0.011042 -0.009696 -185355.000000 0 1 0
3.909636 19.743797 -7.728640 21.560025 1.375307 1.937426 0.011032 -0.012264 -82478.000000 0 1 0
3.762936 18.794197 -8.911240 21.137449 1.373191 2.005989 0.010093 -0.014002 -479633.000000 0 1 0
4.163736 19.359897 -10.149740 22.252181 1.358953 2.044430 0.014958 -0.015060 -29813.900000 0 1 0
3.412036 18.905897 -11.251240 22.263543 1.392244 2.100602 0.021037 -0.017865 -212629.000000 0 1 0
3.853736 19.406197 -12.657340 23.487444 1.374764 2.139925 0.024288 -0.012816 -121860.000000 0 1 0
3.897736 20.831397 -12.796340 24.756530 1.385826 2.114007 0.055988 -0.016109 17202.000000 0 1 0
3.964736 21.123797 -14.179840 25.748821 1.385264 2.153997 0.058026 -0.013642 -95376.000000 0 0 1
4.136836 22.593797 -14.646140 27.241558 1.389706 2.138431 0.050340 -0.012062 193330.000000 0 0 1
3.025236 23.479797 -14.515440 27.769604 1.442658 2.120823 0.062236 -0.016214 83301.700000 0 0 1
3.314536 24.765097 -15.130740 29.210195 1.437748 2.115302 0.055837 -0.015824 -388460.000000 0 0 1
2.010436 25.366297 -15.664340 29.880804 1.491705 2.122604 0.058715 -0.017490 -10774.100000 0 0 1
1.111036 25.723097 -14.640040 29.618287 1.527631 2.087815 0.065881 -0.019931 -221571.000000 0 0 1
1.382836 27.055597 -14.156040 30.566502 1.519730 2.052312 0.046342 -0.014618 -1011990.000000 0 0 1
0.619336 27.431997 -12.882040 30.312456 1.548223 2.009731 0.047882 -0.015574 308367.000000 0 0 1
-0.803964 27.407097 -13.000840 30.344970 -1.541471 2.013556 0.046994 -0.016089 965581.000000 0 0 1
-1.573764 26.193297 -13.187940 29.368134 -1.510786 2.036505 0.045331 -0.014535 -3515.920000 0 0 1
-1.436464 25.051997 -12.156340 27.882658 -1.513520 2.021926 0.069226 -0.018932 -12864.800000 0 0 1
-2.142264 25.354497 -10.921440 27.689667 -1.486504 1.976236 0.051570 -0.010566 312490.000000 0 0 1
-2.430364 24.162197 -10.184340 26.333234 -1.470548 1.967899 0.076181 -0.013495 626088.000000 0 0 1
-3.361764 24.342697 -8.897740 26.134999 -1.433563 1.918195 0.054959 -0.012121 511961.000000 0 0 1
-2.771764 24.851997 -7.716040 26.169481 -1.459725 1.870094 0.042521 -0.016391 -106946.000000 0 0 1
-2.313464 26.214497 -7.791840 27.445669 -1.482773 1.858656 0.032537 -0.013307 81940.800000 0 0 1
-2.126864 26.826297 -6.345940 27.648594 -1.491679 1.802382 0.026155 -0.010750 806739.000000 0 0 1
-1.046664 26.117397 -5.694440 26.751460 -1.530742 1.785302 0.019114 -0.009843 393661.000000 0 0 1
-0.849564 26.432697 -4.327040 26.797995 -1.538667 1.732975 0.022532 -0.013695 798138.000000 0 0 1
-1.890964 25.794897 -3.259240 26.068662 -1.497620 1.696150 0.016758 -0.011417 2294650.000000 0 0 1
-3.260864 26.300797 -3.234640 26.698840 -1.447442 1.692247 0.011618 -0.006900 1202920.000000 0 0 1
-3.993164 25.820297 -2.124140 26.213452 -1.417360 1.651918 0.007480 -0.007540 -46637.700000 0 0 1
-4.992564 24.729597 -2.653140 25.367653 -1.371588 1.675575 0.016388 -0.009256 -76038.600000 0 0 1
-6.157264 25.361597 -3.183340 26.291751 -1.332625 1.692172 0.019490 -0.011754 38227.400000 0 0 1
-7.126664 24.420997 -3.652440 25.700482 -1.286856 1.713395 0.012858 -0.009563 758350.000000 0 0 1
-8.480764 25.134597 -3.938340 26.817566 -1.245378 1.718186 0.014312 -0.006811 190319.000000 0 0 1
-9.064264 25.643597 -2.756440 27.337757 -1.231033 1.671797 0.018934 -0.011093 -1283200.000000 0 0 1
-10.341764 26.125697 -2.963140 28.253926 -1.193876 1.675865 0.023330 -0.009860 -371685.000000 0 0 1
-11.066064 26.458697 -1.579140 28.723059 -1.174666 1.625802 0.021515 -0.010435 114433.000000 0 0 1
-11.573764 25.386397 -0.834040 27.912664 -1.143043 1.600681 0.022280 -0.013474 -62453.900000 0 0 1
-10.578864 24.514997 -0.326140 26.702132 -1.163411 1.583011 0.036642 -0.017603 61890.700000 0 0 1
-11.110964 23.050997 -0.100640 25.589297 -1.121639 1.574729 0.037931 -0.021983 -660683.000000 0 0 1
-12.061064 23.080697 0.896160 26.057455 -1.089264 1.536398 0.049601 -0.024439 -616645.000000 0 0 1
-12.646064 21.796697 1.060760 25.221899 -1.045076 1.528727 0.056446 -0.029498 -153903.000000 0 0 1
-13.614064 21.708097 2.257560 25.723157 -1.010658 1.482920 0.067168 -0.028107 -143393.000000 0 0 1
-13.024064 21.720497 3.558760 25.574813 -1.030656 1.431192 0.064139 -0.028657 233685.000000 0 0 1
-12.786064 23.049797 4.085960 26.673426 -1.064340 1.417006 0.053571 -0.025693 -107578.000000 0 0 1
-12.540764 23.094097 5.583060 26.865939 -1.073321 1.361459 0.052911 -0.021861 99456.300000 0 0 1
-11.210864 22.728497 5.957760 26.033881 -1.112562 1.339904 0.045479 -0.016884 449719.000000 0 0 1
-11.163964 22.199097 7.240260 25.881565 -1.104830 1.287267 0.036948 -0.020997 -32057.400000 0 0 1
-9.796864 22.109197 7.956860 25.457942 -1.153685 1.252921 0.038209 -0.021453 -83804.500000 0 0 1
-9.352664 23.323497 8.567060 26.549056 -1.189430 1.242228 0.042785 -0.028060 102668.000000 0 0 1
-8.169064 23.032597 9.278260 26.140395 -1.229964 1.207947 0.050875 -0.023697 -285112.000000 0 0 1
-8.314364 22.644597 10.800760 26.430340 -1.218910 1.149822 0.043258 -0.026739 163440.000000 0 0 1
-9.076664 21.434397 11.097160 25.786939 -1.170229 1.125927 0.052019 -0.027018 362704.000000 0 0 1
-8.790164 20.877797 12.347560 25.799451 -1.172294 1.071739 0.039900 -0.022381 93039.800000 0 0 1
-9.804964 19.751497 12.776560 25.485280 -1.110020 1.045660 0.041458 -0.022916 235291.000000 0 0 1
-9.802264 18.650897 11.905160 24.200686 -1.086906 1.056486 0.054285 -0.025927 -52131.900000 0 1 0
-10.458764 17.561097 12.519060 23.968829 -1.033645 1.021244 0.045823 -0.024716 -120194.000000 0 1 0
-10.493064 16.338397 11.686960 22.663466 -0.999900 1.029002 0.044037 -0.031245 -149267.000000 0 1 0
-10.916564 15.166397 12.401260 22.427266 -0.946914 0.984890 0.040631 -0.023662 48081.300000 0 1 0
-11.354064 14.209297 11.453460 21.494201 -0.896630 1.008816 0.034097 -0.015990 -39326.800000 0 1 0
-11.787564 12.854197 11.954760 21.144582 -0.828657 0.969900 0.025736 -0.021399 59481.700000 0 1 0
-12.926964 12.935197 12.787660 22.314793 -0.785717 0.960564 0.038888 -0.016997 99572.800000 0 1 0
-13.141564 11.661497 13.344960 22.063073 -0.725796 0.921213 0.020868 -0.005797 253245.000000 0 1 0
-14.041964 11.576397 14.620160 23.343925 -0.689451 0.894006 0.023221 -0.006552 294538.000000 0 1 0
-15.294264 12.207597 14.461460 24.332567 -0.673631 0.934370 0.028598 -0.007282 -153746.000000 0 1 0
-16.047064 12.140297 15.649960 25.491496 -0.647676 0.909768 0.015901 -0.002710 -158005.000000 0 0 1
-16.987164 13.351797 15.844060 26.793068 -0.666142 0.938065 0.023052 0.006427 122809.000000 0 0 1
-18.122564 13.282097 14.979260 27.004068 -0.632470 0.982789 0.014191 0.010333 110142.000000 0 0 1
-18.835464 14.496497 14.952560 28.080282 -0.655952 1.009253 0.026178 0.002795 -285585.000000 0 0 1
-20.069264 14.357797 14.042560 28.392168 -0.620995 1.053430 0.033188 0.004954 -500227.000000 0 0 1
-20.906964 13.367297 14.583260 28.782934 -0.568867 1.039486 0.036603 0.010265 -597967.000000 0 0 1
-22.033664 13.217197 13.760460 29.146645 -0.540319 1.079112 0.025960 0.010685 -146089.000000 0 0 1
-22.984664 12.131797 14.326460 29.676974 -0.485656 1.067008 0.023991 0.010863 79073.200000 0 0 1
-23.661864 12.539397 15.497960 30.940380 -0.487313 1.046161 0.041179 0.007405 612241.000000 0 0 1
-24.710464 11.658497 15.939460 31.632167 -0.440838 1.042688 0.025453 0.007047 253668.000000 0 0 1
-25.373134 12.176097 17.204160 32.985397 -0.447424 1.022107 0.029648 0.004791 424688.000000 0 0 1
-26.318504 13.264497 16.878760 33.963261 -0.466842 1.050691 0.032858 0.005921 1045840.000000 0 0 1
-27.008274 13.647597 18.077260 35.248988 -0.467888 1.032301 0.022952 0.006185 -91979.300000 0 0 1
-28.152844 14.620297 17.766660 36.359180 -0.478983 1.060263 0.012960 0.000302 -249751.000000 0 0 1
-27.731234 15.934397 17.524060 36.469427 -0.521534 1.069556 0.027386 0.007795 693251.000000 0 0 1
-28.864104 16.811997 17.300960 37.617855 -0.527418 1.092899 0.028455 0.006282 834721.000000 0 0 1
-28.479194 18.361197 17.308860 38.049898 -0.572657 1.098538 0.040225 0.003783 -8724.240000 0 0 1
-27.982034 18.770597 18.592060 38.483689 -0.590865 1.066587 0.041751 -0.002284 53792.300000 0 0 1
-28.900834 18.798797 19.665860 39.691297 -0.576698 1.052420 0.031722 -0.008774 -784556.000000 0 0 1
-28.200794 19.010297 20.987860 39.964565 -0.593135 1.017891 0.029658 -0.013826 214684.000000 0 0 1
-27.586164 17.917597 21.675060 39.393464 -0.576033 0.988169 0.028574 -0.013275 69287.500000 0 0 1
-26.435714 17.376297 21.068960 38.008996 -0.581493 0.983256 0.043683 -0.004214 -518541.000000 0 0 1
-26.116224 16.042697 21.670160 37.536931 -0.550854 0.955375 0.029742 -0.003775 -539900.000000 0 0 1
-27.054264 15.062997 21.327060 37.598811 -0.508026 0.967661 0.006032 -0.002339 -135252.000000 0 0 1
-26.820994 13.797697 21.907160 37.278222 -0.475130 0.942625 0.007975 0.006052 -502610.000000 0 0 1
-28.029484 12.839197 22.054560 37.906472 -0.429537 0.949838 0.006677 -0.001353 -474785.000000 0 0 1
-28.549484 12.682597 20.816060 37.539708 -0.418047 0.983025 0.006618 -0.010433 -497468.000000 0 0 1
-29.642164 11.794497 20.866860 38.120781 -0.378691 0.991556 0.025930 -0.017058 -302209.000000 0 0 1
-30.338984 11.632897 19.476760 37.883010 -0.366141 1.030804 0.039681 -0.008532 -627682.000000 0 0 1
-29.562744 11.120297 18.427060 36.567382 -0.359787 1.042664 0.050054 -0.015689 104114.000000 0 0 1
-28.955514 9.855497 18.628760 35.813173 -0.328067 1.023752 0.066518 -0.018037 -169985.000000 0 0 1
-28.091294 9.514397 17.397660 34.384926 -0.326569 1.040293 0.074302 -0.016918 -469051.000000 0 0 1
-28.840244 9.223897 16.251260 34.364858 -0.309546 1.078213 0.064803 -0.009137 600106.000000 0 0 1
-29.575364 10.303397 15.621160 34.998326 -0.335229 1.108125 0.053551 -0.004779 -44448.600000 0 0 1
-28.769634 11.382397 14.854460 34.320633 -0.376741 1.123184 0.052871 -0.002436 -246341.000000 0 0 1
-28.142174 10.876797 13.703260 33.137080 -0.368810 1.144466 0.046904 -0.009574 721834.000000 0 0 1
-27.161644 11.809797 13.205460 32.428543 -0.410139 1.151391 0.024985 -0.003545 253051.000000 0 0 1
-27.055994 11.709497 11.667560 31.706011 -0.408448 1.193948 0.042497 -0.003885 -582571.000000 0 0 1
-26.502894 10.521997 11.107060 30.602004 -0.377929 1.199362 0.049790 0.003115 395663.000000 0 0 1
-27.358824 9.387997 11.008460 30.948764 -0.330553 1.207134 0.046310 0.000770 -681223.000000 0 0 1
-26.808114 8.176797 10.259360 29.846097 -0.296049 1.219897 0.047217 -0.007249 -389572.000000 0 0 1
-26.623914 8.304497 8.864560 29.263936 -0.302355 1.263044 0.052877 -0.004386 296049.000000 0 0 1
-26.097494 7.120697 8.288060 28.292676 -0.266366 1.273496 0.053073 -0.016314 -36769.500000 0 0 1
-25.572054 7.504497 6.863160 27.520000 -0.285450 1.318748 0.064438 -0.013160 -102624.000000 0 0 1
-26.592914 7.975497 6.017560 28.407793 -0.291375 1.357351 0.061232 -0.015838 249502.000000 0 0 1
-26.017354 8.580497 4.882760 27.827487 -0.318566 1.394418 0.074200 -0.017519 308771.000000 0 0 1
-27.123764 8.659097 3.809560 28.726143 -0.309017 1.437788 0.067931 -0.012781 -202816.000000 0 0 1
-27.483264 7.352597 3.298460 28.640362 -0.261408 1.455372 0.053084 -0.016264 226479.000000 0 0 1
-26.479444 6.450397 2.770460 27.394234 -0.238946 1.469490 0.066315 -0.020368 320045.000000 0 0 1
-25.639164 6.930897 1.534660 26.603745 -0.264014 1.513078 0.089562 -0.018705 213566.000000 0 0 1
-24.644164 7.861697 1.941260 25.940501 -0.308803 1.495891 0.089333 -0.015600 1056430.000000 0 0 1
-23.411364 7.655897 1.196260 24.660409 -0.316054 1.522268 0.088935 -0.010273 659337.000000 0 1 0
-22.299664 8.540297 1.770860 23.944679 -0.365747 1.496772 0.092188 -0.009043 -32372.700000 0 1 0
-22.723964 9.901397 1.788760 24.851879 -0.410920 1.498757 0.080537 -0.007307 755168.000000 0 1 0
-21.557064 10.660297 2.027560 24.134207 -0.459250 1.486685 0.093311 -0.007392 302510.000000 0 1 0
-21.906164 12.074897 2.443560 25.132731 -0.503772 1.473416 0.087415 -0.012918 1371740.000000 0 0 1
-20.697764 12.865197 2.719760 24.521579 -0.556132 1.459655 0.076031 -0.015894 1652260.000000 0 1 0
-21.060864 14.080197 3.299360 25.547950 -0.589304 1.441291 0.064329 -0.025905 -214528.000000 0 0 1
-19.766364 14.805097 3.729060 24.976108 -0.642864 1.420931 0.034539 -0.022573 79912.400000 0 1 0
-19.015664 13.948297 4.574260 24.022372 -0.632868 1.379210 0.020387 -0.020180 -51523.800000 0 1 0
-18.520864 14.646097 5.669860 24.283284 -0.669099 1.335133 0.039745 -0.021914 -222877.000000 0 1 0
-18.038064 13.755397 6.896960 23.709719 -0.651501 1.275638 0.024186 -0.012635 45845.500000 0 1 0
-16.894664 12.976097 6.615860 22.306465 -0.654959 1.269677 0.030954 -0.007234 312615.000000 0 1 0
-16.553564 12.195797 7.746160 21.971822 -0.634965 1.210502 0.017190 -0.002564 -241725.000000 0 1 0
10.063636 -33.563820 -14.163940 37.794497 -1.279490 1.954936 0.003980 0.012881 -266452.000000 0 0 1
11.143236 -33.097220 -13.382240 37.398958 -1.246035 1.936733 0.012613 0.005631 114266.000000 0 0 1
11.732236 -31.916020 -13.907440 36.738190 -1.218532 1.959031 0.013225 -0.013312 -78955.000000 0 0 1
13.138236 -31.664320 -13.340140 36.785890 -1.177492 1.941899 0.031654 -0.015991 -506702.000000 0 0 1
14.174236 -32.504320 -13.736440 38.028010 -1.159585 1.940371 0.038351 -0.009886 636989.000000 0 0 1
15.424736 -31.785720 -13.551040 37.840258 -1.119000 1.937041 0.044351 -0.015121 558775.000000 0 0 1
16.665036 -32.420120 -14.145140 39.100800 -1.095985 1.940952 0.057932 -0.013122 -521684.000000 0 0 1
16.875936 -33.619320 -13.433940 39.944044 -1.105573 1.913802 0.068180 -0.022808 17312.400000 0 0 1
17.777936 34.250797 -14.120440 41.092079 1.092024 1.921575 0.060924 -0.007476 288231.000000 0 0 1
17.832336 32.795397 -13.598040 39.729548 1.072768 1.920123 0.064219 -0.014938 -197055.000000 0 0 1
18.513236 32.704397 -12.318340 39.548186 1.055693 1.887543 0.053453 -0.020561 346339.000000 0 0 1
18.336936 31.377397 -11.851540 38.226212 1.041927 1.886028 0.039778 -0.015967 122791.000000 0 0 1
19.040036 31.164797 -10.462240 37.989815 1.022367 1.849798 0.035765 -0.016930 972252.000000 0 0 1
20.433336 30.873697 -10.649540 38.524266 0.986145 1.850881 0.030777 -0.022718 786656.000000 0 0 1
21.106836 30.832997 -9.376540 38.523911 0.970513 1.816661 0.019727 -0.024461 -89858.000000 0 0 1
22.341036 29.949197 -9.353940 38.517171 0.929883 1.816100 0.023107 -0.008951 -582410.000000 0 0 1
23.397636 30.318497 -10.190440 39.629606 0.913534 1.830860 0.032962 -0.019359 -678066.000000 0 0 1
24.451336 29.424997 -10.122340 39.574740 0.877454 1.829448 0.031058 -0.005771 -261963.000000 0 0 1
25.656036 29.828197 -11.015140 40.856907 0.860452 1.843777 0.016010 -0.010458 -55291.800000 0 0 1
26.247236 31.063197 -10.649940 42.038801 0.869234 1.826923 0.024245 -0.021181 414535.000000 0 0 1
27.341636 31.370597 -11.528040 43.180726 0.853913 1.841046 0.028551 -0.013372 574900.000000 0 0 1
28.023036 32.716797 -11.312340 44.538168 0.862521 1.827602 0.028660 -0.018614 -127305.000000 0 0 1
27.164636 33.788597 -11.642340 44.890209 0.893646 1.833147 0.036777 -0.011652 -91737.900000 0 0 1
27.791736 -33.707520 -11.516440 45.179706 -0.881296 1.828544 0.044590 -0.013178 151153.000000 0 0 1
26.835236 -32.485120 -11.711440 43.732948 -0.880355 1.841899 0.036033 -0.005369 -44769.100000 0 0 1
25.890336 -32.410320 -10.689440 42.836929 -0.896769 1.822999 0.051861 -0.012175 -654642.000000 0 0 1
24.700936 -31.730420 -11.014640 41.692662 -0.909327 1.838157 0.055397 -0.016115 98925.400000 0 0 1
24.706836 -30.187920 -10.894840 40.502294 -0.884915 1.843144 0.045407 -0.018960 -320094.000000 0 0 1
25.531536 -29.597120 -11.912840 40.862753 -0.859012 1.866625 0.034494 -0.009385 254185.000000 0 0 1
26.046636 -28.348920 -11.506540 40.180704 -0.827698 1.861232 0.031898 -0.014246 -100096.000000 0 0 1
26.909736 -27.622420 -12.566040 40.559060 -0.798466 1.885801 0.024835 -0.005713 569741.000000 0 0 1
28.163436 -28.246420 -12.851840 41.907149 -0.786869 1.882493 0.013759 0.002223 372371.000000 0 0 1
28.105736 -29.291920 -13.765440 42.865327 -0.806061 1.897721 0.018909 0.001718 -976824.000000 0 0 1
29.485136 -29.840420 -14.073240 44.247938 -0.791387 1.894473 0.030408 0.003544 -426274.000000 0 0 1
30.077136 -30.621320 -13.025640 44.854951 -0.794363 1.865436 0.040744 -0.001424 -115917.000000 0 0 1
30.965236 -31.543020 -13.546940 46.231240 -0.794641 1.868186 0.014569 -0.001720 -877788.000000 0 0 1
31.732036 -32.438220 -12.624240 47.101291 -0.796403 1.842137 -0.000937 0.005261 -354618.000000 0 0 1
32.444836 -33.396120 -13.351340 48.437862 -0.799845 1.850050 0.002471 0.000652 -663535.000000 0 0 1
33.274936 -34.220220 -12.626140 49.372707 -0.799402 1.829400 -0.001054 0.000871 -640497.000000 0 0 1
32.751636 33.366497 -11.754840 48.209636 0.794697 1.817107 0.003788 -0.012217 -323850.000000 0 0 1
32.250136 33.715197 -10.505840 47.824245 0.807604 1.792279 0.006837 -0.011389 -134967.000000 0 0 1
31.628636 32.687897 -9.794040 46.527330 0.801866 1.782884 0.017007 -0.014699 -502403.000000 0 0 1
30.962736 33.117297 -8.483540 46.123929 0.819008 1.755779 0.014833 -0.016985 499668.000000 0 0 1
29.795936 33.889897 -8.799840 45.975647 0.849594 1.763387 0.017172 -0.012020 370262.000000 0 0 1
29.030636 34.260097 -7.644040 45.551766 0.867837 1.739404 0.026030 -0.014208 829417.000000 0 0 1
28.103436 -33.254120 -7.779640 44.228525 -0.869147 1.747613 0.018760 -0.011936 183578.000000 0 0 1
28.875036 -32.038020 -7.927440 43.852557 -0.837278 1.752571 0.009384 -0.010346 156470.000000 0 0 1
28.182236 -30.881220 -8.324040 42.628369 -0.831063 1.767329 0.020583 -0.005402 353124.000000 0 0 1
27.102836 -30.307620 -7.327540 41.313537 -0.841163 1.749104 0.033895 -0.012207 569312.000000 0 0 1
26.436936 -29.161520 -7.833640 40.133175 -0.834364 1.767249 0.032228 -0.023305 -78379.300000 0 0 1
25.414236 -28.782120 -6.922040 39.015490 -0.847461 1.749158 0.041310 -0.027695 -323196.000000 0 0 1
24.433536 -27.851620 -7.625040 37.826600 -0.850679 1.773766 0.082835 -0.028866 -1001150.000000 0 0 1
23.409536 -28.594020 -8.215440 37.856542 -0.884765 1.789552 0.093129 -0.028347 -518331.000000 0 0 1
22.606436 -27.729520 -8.952440 36.879851 -0.886827 1.815992 0.106448 -0.033009 359048.000000 0 0 1
21.347836 -28.468220 -9.566640 36.846848 -0.927370 1.833438 0.100135 -0.030660 625093.000000 0 0 1
21.700736 -29.353620 -10.635540 38.021989 -0.934187 1.854300 0.110084 -0.032618 880757.000000 0 0 1
20.537436 -30.002020 -11.233040 38.053760 -0.970525 1.870449 0.096849 -0.031040 1387250.000000 0 0 1
20.040236 -31.342120 -10.546440 38.667388 -1.001907 1.847044 0.091808 -0.041366 490149.000000 0 0 1
21.080136 -32.301820 -10.680740 40.023217 -0.992596 1.840933 0.074028 -0.034560 305506.000000 0 0 1
20.688036 -33.648420 -10.317140 40.824678 -1.019544 1.826285 0.054763 -0.032130 -41736.500000 0 0 1
21.797936 34.080897 -10.606640 41.822941 1.001771 1.827205 0.052407 -0.024693 483802.000000 0 0 1
22.820536 34.298797 -9.627540 42.306901 0.983709 1.800372 0.053305 -0.018960 492472.000000 0 0 1
24.044436 33.611797 -9.906640 42.497404 0.949838 1.806073 0.045371 -0.019212 545783.000000 0 0 1
25.131636 33.907997 -8.836240 43.121115 0.932970 1.777175 0.034177 -0.018142 -457109.000000 0 0 1
24.961236 33.381597 -7.537740 42.358138 0.928734 1.749702 0.025703 -0.023991 -58103.000000 0 0 1
25.728536 32.221097 -7.425540 41.896245 0.896971 1.748974 0.036326 -0.023291 -197493.000000 0 0 1
25.598436 31.554597 -5.957440 41.066575 0.889238 1.716378 0.039283 -0.023760 46162.100000 0 0 1
26.417336 32.181797 -4.931340 41.926863 0.883454 1.688687 0.030013 -0.013634 230776.000000 0 0 1
27.329136 31.260697 -4.343140 41.748961 0.852401 1.675015 0.039982 -0.010482 166596.000000 0 0 1
26.797736 30.091997 -3.483440 40.444793 0.843240 1.657031 0.042198 -0.003450 -289852.000000 0 0 1
26.145736 30.446797 -2.234940 40.194551 0.861253 1.626428 0.038271 -0.000376 240829.000000 0 0 1
25.614836 29.324897 -1.553140 38.967700 0.852825 1.610664 0.028481 0.007485 -148202.000000 0 0 1
24.247836 28.799297 -2.013440 37.701605 0.870989 1.624226 0.005101 0.008736 -276815.000000 0 0 1
23.221436 29.710997 -1.628740 37.744287 0.907390 1.613962 0.010481 -0.001628 -675557.000000 0 0 1
21.959436 29.122697 -1.689140 36.513032 0.924720 1.617074 0.031501 0.000619 -283646.000000 0 0 1
20.987336 29.738697 -0.662040 36.404624 0.956239 1.588983 0.021074 -0.006434 -249283.000000 0 0 1
21.109736 29.276797 0.685860 36.100169 0.946089 1.551796 0.037701 -0.014945 -15147.000000 0 0 1
20.269036 30.004397 1.556360 36.242516 0.976679 1.527840 0.030140 -0.010983 140935.000000 0 0 1
19.417336 29.125097 2.552160 35.097261 0.982779 1.498015 0.032415 -0.022330 303702.000000 0 0 1
18.389136 28.374697 1.902460 33.865958 0.995770 1.514591 0.048133 -0.007996 -14246.600000 0 0 1
17.625336 27.572097 2.763960 32.840714 1.002019 1.486534 0.043686 -0.010104 -304790.000000 0 0 1
17.276336 26.184997 2.038260 31.436927 0.987577 1.505914 0.049129 0.004218 856281.000000 0 0 1
18.372136 25.332097 1.614560 31.334603 0.943323 1.519247 0.050355 -0.002062 725201.000000 0 0 1
19.153636 24.690497 2.596260 31.356387 0.911018 1.487903 0.064194 -0.000834 339387.000000 0 0 1
20.440036 23.953497 2.071360 31.557180 0.864377 1.505111 0.064760 0.006547 322979.000000 0 0 1
20.249436 22.833797 1.200460 30.542807 0.845312 1.531482 0.055782 0.005964 1116240.000000 0 0 1
21.474236 22.083697 0.975360 30.818563 0.799389 1.539143 0.038818 -0.001077 995373.000000 0 0 1
21.302136 21.087097 -0.181040 29.974647 0.780325 1.576836 0.060395 -0.009335 -92324.100000 0 0 1
21.168736 21.669497 -1.433340 30.327165 0.797087 1.618077 0.046116 -0.002599 285549.000000 0 0 1
21.445336 20.733297 -2.451340 29.929603 0.768518 1.652792 0.063196 -0.012852 115600.000000 0 0 1
21.142236 21.269397 -3.856040 30.236575 0.788396 1.698674 0.050103 -0.014471 -219762.000000 0 0 1
22.028336 22.331197 -4.050040 31.628038 0.792225 1.699201 0.042103 -0.008560 136303.000000 0 0 1
21.822936 22.875597 -5.327640 32.061148 0.808944 1.737742 0.024938 -0.004124 -204937.000000 0 0 1
22.612736 24.154897 -5.640240 33.564970 0.818361 1.739637 0.020378 0.004949 -212691.000000 0 0 1
22.230036 25.327797 -4.911240 34.055720 0.850443 1.715513 0.029911 0.001709 77223.600000 0 0 1
22.717736 25.414197 -3.564040 34.273595 0.841362 1.674973 0.037484 -0.001794 -23912.800000 0 0 1
21.706236 25.042897 -2.419840 33.228948 0.856651 1.643684 0.032684 -0.003304 -1411750.000000 0 0 1
20.700436 26.038397 -2.427640 33.352655 0.899114 1.643648 0.031745 -0.009599 279986.000000 0 0 1
19.638636 25.828897 -1.510740 32.482153 0.920713 1.617323 0.036571 0.001234 -46520.100000 0 0 1
18.808136 24.580197 -1.754840 31.000186 0.917654 1.627434 0.046339 -0.004692 -1493440.000000 0 0 1
18.127436 24.606297 -3.034140 30.712861 0.935862 1.669748 0.038354 -0.011177 360554.000000 0 0 1
17.524736 23.503297 -3.642740 29.543035 0.930099 1.694414 0.046958 -0.011771 131253.000000 0 0 1
17.049136 23.930197 -5.043740 29.812190 0.951762 1.740798 0.052177 -0.015468 -222702.000000 0 0 1
16.306136 22.970297 -5.720740 28.744591 0.953471 1.771154 0.058552 -0.017567 -71665.400000 0 0 1
15.930536 23.467097 -6.984140 29.210697 0.974409 1.812230 0.053988 -0.015031 265789.000000 0 0 1
15.143636 22.388797 -7.812740 28.135864 0.976090 1.852174 0.069060 -0.025359 -623304.000000 0 0 1
15.940436 21.287897 -8.051040 27.786531 0.928062 1.864758 0.044270 -0.017061 -278434.000000 0 0 1
15.279736 20.227997 -8.656440 26.787612 0.923864 1.899853 0.051946 -0.015457 -320539.000000 0 0 1
16.165436 18.990797 -8.939540 26.493151 0.865592 1.914980 0.041706 -0.011132 281811.000000 0 0 1
17.146836 19.146997 -9.967640 27.567650 0.840453 1.940748 0.039546 -0.013585 284308.000000 0 0 1
17.836036 17.978197 -10.224540 27.310821 0.789368 1.954521 0.031448 -0.012954 100146.000000 0 0 1
19.221336 18.205197 -10.920340 28.638135 0.758255 1.962022 0.019661 -0.013731 117311.000000 0 0 1
19.252636 18.743797 -12.199240 29.509581 0.772007 1.996980 0.021951 -0.009079 173383.000000 0 0 1
20.542436 19.175197 -12.605140 30.798854 0.750988 1.992453 0.018696 -0.004484 150280.000000 0 0 1
20.792036 19.293597 -14.125640 31.687306 0.748035 2.032844 0.024491 -0.004745 -133096.000000 0 0 1
21.083636 18.146697 -14.873140 31.544137 0.710674 2.061790 0.021974 -0.003402 242850.000000 0 0 1
21.053436 18.571797 -16.210940 32.418411 0.722852 2.094457 0.029557 -0.004966 -1071.980000 0 0 1
21.089736 17.438997 -17.228340 32.337459 0.690927 2.132664 0.028253 -0.008620 -46921.300000 0 0 1
22.280836 16.672997 -17.137640 32.682154 0.642419 2.122775 0.030857 -0.007604 201658.000000 0 0 1
22.413836 15.658897 -18.138240 32.811230 0.609803 2.156524 0.040129 -0.014365 -399409.000000 0 0 1
23.317436 16.178997 -19.274540 34.307006 0.606592 2.167387 0.046041 -0.008769 -1174820.000000 0 0 1
24.645436 16.215797 -18.869340 35.020017 0.581953 2.139827 0.054458 -0.005648 -896430.000000 0 0 1
25.389236 16.846797 -19.834840 36.357238 0.585836 2.147846 0.064209 -0.006258 -303898.000000 0 0 1
26.849036 17.208197 -19.466240 37.362110 0.569969 2.118837 0.054089 -0.008091 161128.000000 0 0 1
26.892736 18.259997 -18.532240 37.417785 0.596488 2.088952 0.052542 -0.010803 44770.200000 0 0 1
28.172136 18.640497 -18.078140 38.313921 0.584531 2.062176 0.042463 -0.017363 -254915.000000 0 0 1
28.072436 19.880297 -17.105740 38.417368 0.616194 2.032262 0.034487 -0.017016 30477.400000 0 0 1
27.459336 19.573897 -15.868340 37.268710 0.619286 2.010622 0.030704 -0.010621 496481.000000 0 0 1
26.071936 19.875897 -15.903840 36.438019 0.651357 2.022460 0.036853 -0.007652 314150.000000 0 0 1
25.138136 19.338097 -14.784440 34.992393 0.655722 2.007003 0.026887 -0.003911 250531.000000 0 0 1
25.497836 19.910197 -13.514340 35.059848 0.662960 1.966508 0.029068 -0.008053 378165.000000 0 0 1
24.647636 19.453897 -12.494540 33.794579 0.668170 1.949504 0.027696 -0.011665 -70798.100000 0 0 1
25.243136 19.825097 -11.113740 33.967125 0.665754 1.904126 0.035945 -0.017579 -101430.000000 0 0 1
25.115036 21.235697 -10.903840 34.649871 0.701897 1.890922 0.031084 -0.015082 -18258.000000 0 0 1
25.608136 21.741797 -9.711640 34.968533 0.703924 1.852222 0.027458 -0.012613 165575.000000 0 0 1
24.764136 21.468497 -8.387340 33.830552 0.714235 1.821331 0.036940 -0.010988 -274581.000000 0 0 1
24.758536 20.091897 -8.033840 32.881788 0.681722 1.817620 0.044713 -0.016901 47339.800000 0 0 1
24.072736 19.826597 -6.837640 31.927165 0.688974 1.786632 0.049836 -0.016774 306366.000000 0 0 1
22.562636 19.489297 -7.089340 30.645782 0.712444 1.804243 0.054188 -0.022296 526888.000000 0 0 1
21.816336 20.632397 -7.524540 30.955888 0.757514 1.816329 0.050290 -0.018543 36238.400000 0 0 1
20.690736 20.306897 -8.318640 30.160842 0.776036 1.850228 0.035843 -0.016336 204414.000000 0 0 1
19.698436 21.498697 -8.362040 30.333910 0.829069 1.850079 0.029760 -0.015537 -178454.000000 0 0 1
20.202336 22.597897 -9.132740 31.657642 0.841311 1.863440 0.030460 -0.011747 167641.000000 0 0 1
19.807736 22.672897 -10.509140 31.888065 0.852742 1.906637 0.036840 -0.003547 450896.000000 0 0 1
18.286436 22.882297 -10.819340 31.225813 0.896573 1.924620 0.035731 -0.010693 337162.000000 0 0 1
17.886736 24.155397 -10.369340 31.795310 0.933412 1.903001 0.047723 -0.015836 519839.000000 0 0 1
16.540136 24.480297 -10.714340 31.427029 0.976600 1.918700 0.059907 -0.016879 544035.000000 0 0 1
16.242536 25.900897 -10.178940 32.222465 1.010686 1.892197 0.058890 -0.017806 -79234.000000 0 0 1
16.997736 26.866297 -10.858040 33.594910 1.006694 1.899911 0.088582 -0.013798 -58525.100000 0 0 1
16.932136 28.095797 -10.154840 34.339363 1.028425 1.871006 0.086147 -0.021180 47258.500000 0 0 1
19.691636 28.912397 34.226087 48.939884 0.972882 0.796309 -0.001582 0.000884 -281818.000000 0 0 1
18.399036 29.403397 34.055393 48.609197 1.011661 0.794564 0.010260 -0.004306 -409728.000000 0 0 1
17.402436 28.389697 34.066651 47.637762 1.020884 0.774003 0.011425 -0.002373 -94464.300000 0 0 1
16.009436 29.007097 33.940793 47.430909 1.066484 0.773337 0.022548 -0.010420 -551679.000000 0 0 1
15.551236 29.245497 32.666914 46.521686 1.082074 0.792332 0.030560 -0.014750 34760.200000 0 0 1
14.259436 29.844097 32.684311 46.500170 1.125068 0.791350 0.053415 -0.015032 255380.000000 0 0 1
13.650836 29.898997 31.242843 45.347663 1.142496 0.810740 0.053292 -0.017077 -82292.300000 0 0 1
13.221736 28.696397 30.664433 44.029592 1.139042 0.800357 0.042719 -0.015292 -418477.000000 0 0 1
11.934536 28.273497 30.980633 43.607607 1.171376 0.780672 0.048899 -0.010213 -794457.000000 0 0 1
11.688036 26.723297 30.911473 42.500164 1.158493 0.756379 0.038211 -0.015904 12245.000000 0 0 1
11.880936 26.107397 29.625993 41.236541 1.143727 0.769239 0.031753 -0.014148 -52358.900000 0 0 1
13.159036 25.535297 29.589973 41.240491 1.094962 0.770593 0.021983 -0.014045 -337377.000000 0 0 1
13.377336 24.676497 28.333933 39.883510 1.074032 0.780705 0.027714 -0.014285 -304538.000000 0 0 1
13.241536 25.497697 27.174873 39.546739 1.091810 0.813226 0.009134 -0.015043 120349.000000 0 0 1
13.187536 24.836297 25.905093 38.233841 1.082674 0.826379 0.030348 -0.015194 436612.000000 0 0 1
11.926036 23.961797 25.564293 37.012581 1.108982 0.808351 0.032258 -0.015005 170737.000000 0 0 1
12.115236 23.438797 24.251673 35.837129 1.093730 0.827499 0.048243 -0.021625 -452030.000000 0 0 1
11.236536 22.465097 23.839943 34.630669 1.107007 0.811508 0.068138 -0.024472 -604633.000000 0 0 1
11.328936 22.056997 22.377383 33.400646 1.096311 0.836630 0.080299 -0.021782 168424.000000 0 0 1
10.707036 23.085997 21.552583 33.348429 1.136535 0.868091 0.078846 -0.025197 361575.000000 0 0 1
10.775336 22.637097 20.201383 32.196924 1.126530 0.892545 0.086542 -0.017882 -580871.000000 0 0 1
10.242036 23.644797 19.159783 32.110326 1.162032 0.931431 0.071826 -0.018620 -161280.000000 0 0 1
8.889636 24.011097 19.125683 31.958569 1.216214 0.929228 0.069727 -0.017496 -225095.000000 0 0 1
8.424236 24.769597 20.265583 33.093724 1.242965 0.911742 0.056229 -0.019820 -22654.100000 0 0 1
7.078536 25.486397 19.920383 33.113196 1.299887 0.925313 0.060867 -0.018618 256053.000000 0 0 1
7.122736 26.586497 19.019583 33.456236 1.309035 0.966125 0.055593 -0.022129 429710.000000 0 0 1
5.856936 26.924097 18.428483 33.148449 1.356598 0.981305 0.050922 -0.023271 611160.000000 0 0 1
5.955936 28.076697 17.404583 33.566257 1.361764 1.025684 0.051830 -0.015319 146119.000000 0 0 1
6.189436 27.724897 16.036683 32.621377 1.351153 1.056870 0.046293 -0.011014 5398.970000 0 0 1
6.892336 28.718997 15.287483 33.256462 1.335259 1.093156 0.038730 -0.008570 248511.000000 0 0 1
7.607336 28.047897 14.095083 32.299032 1.305942 1.119210 0.035500 -0.009466 433346.000000 0 0 1
6.753136 28.005997 12.923083 31.574464 1.334181 1.149122 0.037682 -0.014169 389560.000000 0 0 1
6.680936 26.666797 12.289183 30.112738 1.325315 1.150418 0.017578 -0.011202 39369.900000 0 0 1
6.003336 26.910097 10.890183 29.644383 1.351302 1.194627 0.012689 -0.014971 -185222.000000 0 0 1
6.721436 27.606897 9.886783 30.084331 1.331973 1.235938 0.005847 -0.015142 -74810.600000 0 0 1
6.767636 29.042297 10.062183 31.472265 1.341855 1.245367 0.005776 -0.011649 -476831.000000 0 0 1
7.244736 29.958397 8.970683 32.100855 1.333525 1.287572 0.002117 -0.010620 -185065.000000 0 0 1
6.413536 30.039997 7.800083 31.691894 1.360454 1.322119 0.020082 -0.015763 64652.300000 0 0 1
6.398336 28.780197 7.075083 30.319882 1.352037 1.335277 0.022896 -0.008146 -100201.000000 0 0 1
4.963736 28.299397 6.780783 29.520731 1.397162 1.339031 0.025308 -0.006765 15390.400000 0 0 1
4.226036 29.278997 6.045983 30.193923 1.427450 1.369195 0.012216 -0.010166 -429548.000000 0 0 1
2.896236 28.814097 5.992883 29.572877 1.470618 1.366735 0.044545 -0.016193 -314991.000000 0 0 1
1.939536 29.747297 5.251083 30.269413 1.505688 1.396436 0.055837 -0.017781 -470007.000000 0 0 1
2.126436 29.854297 3.830483 30.174052 1.499689 1.443507 0.044982 -0.024310 377147.000000 0 0 1
1.310736 30.960297 3.332083 31.166662 1.528486 1.463680 0.040424 -0.026191 699748.000000 0 0 1
-0.111164 30.532497 2.922383 30.672236 -1.567155 1.475374 0.048216 -0.014832 -352524.000000 0 0 1
-0.149464 29.970197 1.620883 30.014369 -1.565809 1.516766 0.038284 -0.007260 209492.000000 0 0 1
-1.025364 28.824897 1.523683 28.883346 -1.535239 1.518019 0.032627 -0.007899 436648.000000 0 0 1
-1.183664 28.258597 0.091583 28.283525 -1.528934 1.567558 0.023185 -0.013060 -247538.000000 0 0 1
-2.063964 28.971697 -0.732917 29.054369 -1.499676 1.596025 0.023253 -0.016779 16579.300000 0 0 1
-1.489164 30.088097 -1.442117 30.159425 -1.521343 1.618631 0.025186 -0.013590 164965.000000 0 0 1
-2.628464 31.030797 -1.922317 31.201194 -1.486293 1.632446 0.025544 -0.013126 404598.000000 0 0 1
-3.713364 30.595497 -2.731017 30.940782 -1.450017 1.659177 0.018443 -0.011218 280353.000000 0 0 1
-3.430764 29.848897 -3.903717 30.297951 -1.456361 1.700000 0.015582 -0.008124 -334735.000000 0 0 1
-4.742064 29.459697 -4.630717 30.196101 -1.411198 1.724759 0.022044 -0.004836 184338.000000 0 0 1
-5.373364 30.513097 -5.311817 31.434655 -1.396483 1.740591 0.019217 -0.005219 -204953.000000 0 0 1
-6.354664 29.993697 -6.182217 31.276564 -1.362017 1.769770 0.018029 -0.003160 -116377.000000 0 0 1
-7.053964 31.079597 -7.014217 32.632791 -1.347613 1.787431 0.020980 0.005946 354752.000000 0 0 1
-7.957364 31.957397 -6.301717 33.530681 -1.326760 1.759859 0.017438 -0.000618 792454.000000 0 0 1
-8.500264 33.035697 -7.066417 34.835988 -1.318954 1.775062 0.014820 -0.001774 -298033.000000 0 0 1
-9.358164 34.107397 -6.392017 35.940892 -1.303013 1.749596 0.016946 -0.012757 470748.000000 0 0 1
-10.680564 33.574797 -6.249417 35.782631 -1.262806 1.746346 0.017958 -0.014164 -5747.970000 0 0 1
-11.546464 -34.234320 -5.701517 36.576178 1.245500 1.727315 0.020619 -0.011875 940742.000000 0 0 1
-13.066764 34.232197 -6.001217 37.129480 -1.206156 1.733138 0.036132 -0.014602 899291.000000 0 0 1
-13.430364 -34.339320 -7.346817 37.597065 1.197979 1.767471 0.032964 -0.013068 797461.000000 0 0 1
-14.770964 33.946797 -7.597817 37.792767 -1.160384 1.773215 0.051593 -0.023652 360024.000000 0 0 1
-15.197564 33.986097 -9.082717 38.321228 -1.150298 1.810089 0.068152 -0.021593 384316.000000 0 0 1
-16.533864 33.569297 -9.371217 38.575719 -1.113143 1.816182 0.094334 -0.031939 711370.000000 0 0 1
-17.487764 -34.146620 -9.182817 39.447911 1.097486 1.805735 0.093929 -0.028222 254454.000000 0 0 1
-18.965764 34.094197 -9.477317 40.148899 -1.063148 1.809100 0.087365 -0.030078 1377430.000000 0 0 1
-19.574864 33.234597 -8.478217 39.491695 -1.038511 1.787164 0.071985 -0.025344 310524.000000 0 0 1
-19.752464 33.948497 -7.269717 39.943825 -1.043840 1.753815 0.057698 -0.015554 -845758.000000 0 0 1
-20.193464 32.984897 -6.154817 39.161987 -1.021452 1.728614 0.053566 -0.019087 -442930.000000 0 0 1
-20.057164 33.581197 -4.882417 39.418583 -1.032384 1.694976 0.053667 -0.023879 -362184.000000 0 0 1
-21.171064 33.287797 -4.118917 39.664303 -1.004325 1.674828 0.036059 -0.016195 -152688.000000 0 0 1
-22.428364 34.183797 -4.270217 41.107156 -0.990137 1.674864 0.034627 -0.012531 -100212.000000 0 0 1
-23.164464 34.092297 -5.464317 41.578070 -0.973987 1.702601 0.031962 -0.013475 -229162.000000 0 0 1
-23.908464 -33.529320 -5.676717 41.569882 0.951358 1.707783 0.029485 -0.016595 -373811.000000 0 0 1
-24.297864 -33.287920 -7.126317 41.824111 0.940264 1.742020 0.054524 -0.012726 -23704.600000 0 0 1
-23.280464 -32.740320 -7.966417 40.955737 0.952683 1.766557 0.065567 -0.005642 171662.000000 0 0 1
-23.553364 -32.771420 -9.370917 41.431160 0.947619 1.798951 0.045118 -0.002613 516643.000000 0 0 1
-24.737564 -31.886520 -9.917217 41.557773 0.910987 1.811758 0.050768 -0.004774 -74044.700000 0 0 1
-26.013624 -32.351720 -9.545517 42.596471 0.893568 1.796807 0.051421 -0.003085 283708.000000 0 0 1
-27.086814 -31.689020 -10.246117 42.928690 0.863540 1.811800 0.014435 0.003676 681987.000000 0 0 1
-27.411684 -30.203720 -10.006317 41.997518 0.833820 1.811370 0.008629 0.007217 -437608.000000 0 0 1
-26.483474 -29.334020 -10.674717 40.936643 0.836423 1.834608 0.023208 0.015112 455117.000000 0 0 1
-26.775334 -29.215420 -12.070617 41.426551 0.828951 1.866459 0.011173 0.008366 -212318.000000 0 0 1
-25.618184 -28.538220 -12.817717 40.435322 0.839265 1.893354 0.029105 0.009813 232315.000000 0 0 1
-24.479364 -29.425520 -12.917017 40.397399 0.876899 1.896261 0.035448 0.005132 961721.000000 0 0 1
-23.418564 -28.754820 -13.632217 39.510836 0.887323 1.923062 0.046240 0.004009 380892.000000 0 0 1
-22.144864 -29.631220 -13.676717 39.439280 0.928994 1.924931 0.066580 -0.006054 -269852.000000 0 0 1
-22.237264 -30.794020 -14.465817 40.645141 0.945372 1.934679 0.071415 -0.004416 -40407.400000 0 0 1
-22.812764 -31.872720 -13.770817 41.544289 0.949581 1.908661 0.065403 -0.002444 -166181.000000 0 0 1
-22.754164 -33.280520 -14.501017 42.844189 0.971088 1.916075 0.061708 -0.002830 37897.400000 0 0 1
-23.355464 -34.280420 -13.695317 43.682796 0.972727 1.889691 0.053298 -0.015184 248.555000 0 0 1
-23.576364 33.281997 -14.433117 43.264896 -0.954467 1.910915 0.054986 -0.022325 -235699.000000 0 0 1
-24.170164 32.106497 -13.614817 42.430971 -0.925498 1.897444 0.035841 -0.016860 -207618.000000 0 0 1
-23.428264 31.637897 -12.499217 41.304607 -0.933395 1.878227 0.045981 -0.015437 -11262.200000 0 0 1
-23.332664 32.534097 -11.374317 41.620377 -0.948636 1.847605 0.062731 -0.019805 109708.000000 0 0 1
-22.552564 32.037897 -10.111517 40.463413 -0.957435 1.823366 0.059890 -0.023322 55497.500000 0 0 1
-23.140164 30.940697 -9.455417 39.776864 -0.928649 1.810805 0.043306 -0.017536 -173875.000000 0 0 1
-22.424264 30.569497 -8.320917 38.814681 -0.937906 1.786849 0.036246 -0.012053 -444805.000000 0 0 1
-22.948664 29.365397 -7.566317 38.029159 -0.907446 1.771094 0.032530 -0.021895 -272067.000000 0 0 1
-22.943264 28.245497 -8.432617 37.353856 -0.888612 1.798509 0.036714 -0.020105 178017.000000 0 0 1
-23.404564 27.044897 -7.921817 36.632708 -0.857431 1.788768 0.037798 -0.019288 -122903.000000 0 0 1
-22.341264 26.363597 -7.003717 35.259373 -0.867797 1.770760 0.048784 -0.015373 -62724.700000 0 0 1
-22.546364 26.653597 -5.631117 35.361876 -0.868685 1.730720 0.045997 -0.019534 825836.000000 0 0 1
-21.441164 26.391897 -4.720717 34.329884 -0.888531 1.708744 0.042810 -0.013977 522138.000000 0 0 1
-20.352664 27.484697 -4.694417 34.520676 -0.933397 1.707208 0.035092 -0.021983 -518140.000000 0 0 1
-19.639264 27.478597 -5.883117 34.283890 -0.950265 1.743250 0.033894 -0.013445 -708522.000000 0 0 1
-18.598664 28.411597 -5.807917 34.450850 -0.991183 1.740191 0.033275 -0.011487 -302091.000000 0 0 1
-17.486464 28.231997 -6.860817 33.910071 -1.016245 1.774527 0.034810 0.000635 -308435.000000 0 0 1
-17.702564 28.614397 -8.276817 34.650689 -1.016770 1.811993 0.049098 -0.004173 3583.120000 0 0 1
-18.010864 30.013797 -8.431117 36.004208 -1.030313 1.807161 0.061845 -0.014386 -99147.000000 0 0 1
-17.931164 30.576697 -9.828417 36.783949 -1.040413 1.841275 0.063053 -0.015359 -1488760.000000 0 0 1
-16.680764 30.625397 -10.354817 36.378360 -1.072054 1.859430 0.052369 -0.014252 -1380090.000000 0 0 1
-16.635364 31.380997 -11.547917 37.347781 -1.083352 1.885148 0.062812 -0.018748 105157.000000 0 0 1
-15.166964 31.669497 -11.983117 37.102412 -1.124159 1.899667 0.060697 -0.018459 406697.000000 0 0 1
-14.987964 32.302297 -13.222217 37.985583 -1.136369 1.926324 0.060413 -0.021915 -192325.000000 0 0 1
-15.271564 31.427397 -14.295317 37.752590 -1.118467 1.959142 0.059512 -0.029270 -351994.000000 0 0 1
-14.686364 31.767997 -15.661917 38.343065 -1.137760 1.991571 0.064558 -0.019884 -954249.000000 0 0 1
-13.317764 31.623397 -15.777617 37.766855 -1.172203 2.001779 0.071259 -0.034530 -1150220.000000 0 0 1
-12.988764 32.097597 -17.021617 38.583665 -1.186275 2.027689 0.067003 -0.035028 -681951.000000 0 0 1
-11.493064 32.126697 -17.299817 38.255704 -1.227241 2.040044 0.073785 -0.035105 -888198.000000 0 0 1
-10.964764 30.848997 -17.422817 37.086942 -1.229289 2.059841 0.078970 -0.048661 433045.000000 0 0 1
-9.685764 30.685897 -18.048117 36.894076 -1.265051 2.081954 0.074485 -0.043613 536009.000000 0 0 1
-9.636464 30.855397 -19.568817 37.786977 -1.268084 2.115158 0.065066 -0.044283 -493906.000000 0 0 1
-10.377964 29.884597 -20.233917 37.552666 -1.236557 2.139825 0.064619 -0.043822 274666.000000 0 0 1
-9.906064 29.731697 -21.587717 38.054349 -1.249182 2.174003 0.051305 -0.041504 -250079.000000 0 0 1
-11.063964 29.195597 -22.484117 38.475054 -1.208558 2.194914 0.062587 -0.032388 160593.000000 0 0 1
-11.984064 30.226997 -22.687817 39.648786 -1.193338 2.180006 0.067480 -0.034084 24661.500000 0 0 1
-13.171164 30.230197 -21.909917 39.590263 -1.159901 2.157257 0.068903 -0.040395 86705.100000 0 0 1
-13.980264 31.543597 -22.089517 40.968196 -1.153608 2.140268 0.093582 -0.039922 -120140.000000 0 0 1
-14.645964 31.757797 -23.284517 42.014649 -1.138687 2.158198 0.072766 -0.031273 71188.000000 0 0 1
-15.381064 33.006297 -23.211317 43.182845 -1.134714 2.138281 0.064691 -0.021042 471231.000000 0 0 1
-15.846864 33.450997 -24.643517 44.467913 -1.128382 2.158182 0.054230 -0.011810 -2425.490000 0 0 1
-14.775764 33.704397 -25.519517 44.783428 -1.157637 2.177111 0.065010 -0.010919 -192163.000000 0 0 1
-15.102764 33.533497 -26.909017 45.570650 -1.147628 2.202462 0.075115 -0.010785 115959.000000 0 0 1
-15.664564 -33.929520 -27.552017 46.429566 1.138272 2.206092 0.066467 -0.005539 204256.000000 0 0 1
-16.886164 -33.511820 -26.973917 46.214466 1.104044 2.194035 0.054425 -0.005324 -221063.000000 0 0 1
-17.369564 -32.446920 -27.727317 46.079372 1.079292 2.216461 0.041713 0.001685 -89856.500000 0 0 1
-18.866164 -32.109620 -27.550817 46.325019 1.039578 2.207724 0.029684 -0.002278 87520.800000 0 0 1
-19.708964 -33.171320 -27.943017 47.640235 1.034684 2.197579 0.024287 0.006339 -507395.000000 0 0 1
-21.057264 -32.762220 -27.812717 47.857274 0.999549 2.190949 0.028079 0.004727 87655.000000 0 0 1
-22.036964 -33.898520 -28.133417 49.256742 0.994360 2.178713 0.013630 0.013839 -202820.000000 0 0 1
-21.875464 33.697797 -27.326917 48.588454 -0.995008 2.168101 0.034119 0.011792 -308765.000000 0 0 1
-23.153164 33.155297 -27.092217 48.675774 -0.961196 2.161066 0.021005 0.007464 59680.600000 0 0 1
-23.197464 31.626597 -26.814217 47.511749 -0.937952 2.170467 0.037676 0.002677 -11415.400000 0 0 1
-22.575864 31.235097 -25.620817 46.278799 -0.944950 2.157500 0.034204 -0.002584 -329782.000000 0 0 1
-22.855464 29.882297 -25.340517 45.359296 -0.917859 2.163568 0.030073 -0.007791 -87639.800000 0 0 1
30.498770 9.755597 -26.617850 41.639603 0.309584 2.264311 0.022432 -0.000483 -3337.470000 0 0 1
30.334130 8.371397 -26.407670 41.080467 0.269270 2.268981 0.011204 -0.002637 171783.000000 0 0 1
28.982700 8.000397 -26.611160 40.151676 0.269333 2.295303 0.015960 -0.009313 177524.000000 0 0 1
28.699410 6.632297 -25.984190 39.278768 0.227108 2.293657 0.008718 -0.010163 -6444.650000 0 0 1
28.844990 6.692697 -24.575840 38.481132 0.227989 2.263534 0.006332 -0.000152 -106061.000000 0 0 1
28.333100 5.541497 -24.061140 37.582059 0.193146 2.265593 0.012268 -0.004360 -307171.000000 0 0 1
28.474500 5.368097 -22.531140 36.705120 0.186336 2.231714 0.013390 -0.000408 493645.000000 0 0 1
29.813100 4.976197 -22.200840 37.502810 0.165388 2.204307 0.023612 -0.005399 853636.000000 0 0 1
29.848290 4.717897 -20.817040 36.695069 0.156766 2.174017 0.020501 -0.010382 -155924.000000 0 0 1
31.294780 4.491297 -20.318140 37.581402 0.142543 2.141998 0.029296 -0.012752 -79606.000000 0 0 1
31.766550 3.205997 -20.493740 37.939234 0.100583 2.141439 0.038484 -0.009421 267713.000000 0 0 1
32.827940 2.855497 -19.628540 38.355014 0.086765 2.108028 0.043327 -0.008717 -143612.000000 0 0 1
33.190850 1.340297 -19.481340 38.509109 0.040360 2.101209 0.051110 -0.008144 -706406.000000 0 0 1
32.277930 0.584397 -18.807740 37.362245 0.018103 2.098313 0.052280 -0.004438 -592601.000000 0 0 1
32.697260 -0.767703 -18.838540 37.743751 -0.023475 2.093376 0.052597 0.002347 451478.000000 0 0 1
31.556920 -1.736103 -18.363240 36.552179 -0.054960 2.097150 0.029818 0.009665 494639.000000 0 0 1
31.493940 -1.911203 -16.964540 35.823408 -0.060610 2.064125 0.032768 0.007099 1216170.000000 0 0 1
30.148390 -1.747403 -16.442440 34.385064 -0.057895 2.069384 0.029734 0.005594 901095.000000 0 0 1
30.047780 -2.075403 -14.948840 33.625053 -0.068961 2.031495 0.033434 -0.002921 -234168.000000 0 0 1
30.012020 -3.463303 -14.722740 33.607661 -0.114889 2.024255 0.032937 -0.005608 799126.000000 0 0 1
29.003280 -3.812603 -13.766440 32.330188 -0.130705 2.010651 0.040131 -0.011811 201190.000000 0 0 1
29.082040 -5.318603 -13.433140 32.473094 -0.180884 1.997278 0.039947 -0.004979 -297206.000000 0 0 1
28.501820 -6.007803 -14.479840 32.528652 -0.207745 2.032128 0.016766 -0.002894 379394.000000 0 0 1
27.843460 -7.126303 -13.887140 31.920136 -0.250563 2.020900 0.017651 -0.009409 -70020.400000 0 0 1
27.222440 -8.264803 -14.786240 32.062456 -0.294759 2.050110 0.002159 0.000502 528698.000000 0 0 1
25.844210 -8.033703 -15.091540 30.987387 -0.301382 2.079473 0.016148 -0.002374 574063.000000 0 0 1
25.493710 -8.713203 -16.285640 31.481283 -0.329332 2.114503 0.010250 -0.004532 517251.000000 0 0 1
24.056710 -8.415503 -16.826140 30.539564 -0.336514 2.154313 0.012444 -0.003461 397812.000000 0 0 1
23.921110 -7.171403 -17.403040 30.438697 -0.291268 2.179422 0.015494 -0.000615 1031520.000000 0 0 1
22.679710 -6.993303 -18.144440 29.874675 -0.299100 2.223519 0.054334 -0.009193 949360.000000 0 0 1
22.542410 -7.455803 -19.612140 30.795864 -0.319420 2.261193 0.037537 -0.001151 -20329.800000 0 0 1
23.512110 -6.950703 -20.519940 31.971855 -0.287436 2.267656 0.031843 0.004287 388299.000000 0 0 1
23.081310 -7.182803 -21.817140 32.562664 -0.301696 2.305012 0.039571 -0.007861 -373656.000000 0 0 1
23.637510 -6.253003 -22.846840 33.463562 -0.258613 2.322299 0.044031 -0.012687 -406518.000000 0 0 1
23.551410 -6.691703 -24.211540 34.433217 -0.276836 2.350607 0.059369 -0.020669 169661.000000 0 0 1
23.675710 -5.570403 -25.108730 34.957359 -0.231077 2.372105 0.049542 -0.022325 -173673.000000 0 0 1
23.566210 -6.016303 -26.599640 36.043071 -0.249955 2.400892 0.064770 -0.026822 -304898.000000 0 0 1
22.329410 -6.528403 -27.006230 35.644902 -0.284440 2.430496 0.103889 -0.025982 -488291.000000 0 0 1
22.314410 -6.652803 -28.407080 36.730843 -0.289749 2.454960 0.088843 -0.026382 970176.000000 0 0 1
20.971610 -7.247903 -29.011890 36.524379 -0.332754 2.488677 0.075234 -0.030626 852768.000000 0 0 1
20.547010 -8.414603 -28.389010 36.040547 -0.388694 2.477857 0.079704 -0.030855 191864.000000 0 0 1
19.816410 -9.213303 -29.336920 36.581825 -0.435203 2.501354 0.053527 -0.028937 133624.000000 0 0 1
19.780710 -10.674703 -28.737580 36.483890 -0.494864 2.477828 0.061212 -0.023593 526007.000000 0 0 1
18.640810 -10.895203 -27.870930 35.255836 -0.528930 2.482476 0.073989 -0.015722 952940.000000 0 0 1
18.691610 -12.156603 -27.157450 35.138104 -0.576641 2.454160 0.073198 -0.022662 -229691.000000 0 0 1
18.635410 -13.444603 -28.046420 36.257930 -0.624980 2.455181 0.051759 -0.014829 -368767.000000 0 0 1
17.483110 -13.477003 -28.843570 36.321347 -0.656717 2.488357 0.051940 -0.013779 160076.000000 0 0 1
17.730910 -14.365003 -29.914480 37.624654 -0.680910 2.489930 0.032477 -0.012430 -754161.000000 0 0 1
16.493610 -14.802203 -30.660100 37.831020 -0.731405 2.515714 0.024941 -0.017438 -1065970.000000 0 0 1
15.540110 -15.532903 -29.957180 37.151025 -0.785166 2.508771 0.045581 -0.024966 -53109.100000 0 0 1
14.530210 -15.956003 -30.850060 37.649000 -0.832133 2.531182 0.039007 -0.033395 -289210.000000 0 0 1
13.289810 -16.505903 -30.116080 36.824477 -0.892920 2.528422 0.054115 -0.038301 -100173.000000 0 0 1
13.541310 -17.785703 -29.562790 37.062877 -0.920065 2.494167 0.045040 -0.035700 -233251.000000 0 0 1
12.597110 -18.062003 -28.590050 36.087589 -0.961793 2.485268 0.052712 -0.035316 -288274.000000 0 0 1
12.884310 -19.421703 -27.994540 36.426669 -0.985060 2.447318 0.058192 -0.026151 578703.000000 0 0 1
13.985210 -19.432303 -27.074850 36.142053 -0.946978 2.417534 0.048458 -0.021850 417393.000000 0 0 1
13.959610 -20.522203 -26.174470 36.071240 -0.973469 2.382750 0.053457 -0.012304 -852500.000000 0 0 1
15.046110 -20.399103 -25.148640 35.706622 -0.935287 2.352251 0.041254 0.001307 -685173.000000 0 0 1
16.290910 -20.824603 -25.657400 36.842367 -0.906947 2.341179 0.042102 -0.003811 -40150.800000 0 0 1
17.323510 -20.567003 -24.738640 36.539101 -0.870792 2.314537 0.046339 -0.005760 -90409.200000 0 0 1
18.753210 -21.029403 -25.095980 37.732305 -0.842552 2.298432 0.027887 0.001887 -41288.800000 0 0 1
19.114410 -22.364603 -25.243940 38.765869 -0.863596 2.279948 0.016366 0.001689 252153.000000 0 0 1
18.596610 -23.307203 -24.285740 38.455906 -0.897343 2.254311 0.023708 -0.009607 -764095.000000 0 0 1
19.176610 -24.694703 -24.403840 39.662553 -0.910520 2.233546 0.011225 -0.010209 -612933.000000 0 0 1
20.453010 -24.756103 -23.829640 39.988023 -0.880294 2.209206 0.021640 -0.006131 -241567.000000 0 0 1
20.855910 -26.094603 -23.577540 40.887622 -0.896518 2.185409 0.017872 -0.012999 -55294.800000 0 0 1
20.826610 -26.387913 -22.083840 40.221457 -0.902646 2.152031 0.024315 -0.011847 -91617.800000 0 0 1
19.524310 -26.632783 -21.589740 39.454032 -0.938204 2.149827 0.020254 -0.012329 318037.000000 0 0 1
19.627510 -26.840983 -20.204740 38.908983 -0.939403 2.116807 0.011678 -0.011502 -571370.000000 0 0 1
18.290010 -27.269813 -19.639140 38.260462 -0.980003 2.109823 0.015476 -0.016213 -1242250.000000 0 0 1
18.036510 -28.653973 -19.921640 39.284062 -1.008997 2.102633 0.018429 -0.013428 1334080.000000 0 0 1
16.762810 -29.169183 -19.416440 38.843676 -1.049206 2.094235 0.017235 -0.003139 1790350.000000 0 0 1
15.482110 -28.581353 -20.078940 38.206717 -1.074359 2.124139 0.019934 -0.007333 -236396.000000 0 0 1
14.766910 -27.644603 -19.298040 36.806250 -1.080188 2.122706 0.023570 -0.005959 797926.000000 0 0 1
13.516810 -27.213343 -19.879640 36.310745 -1.109794 2.150154 0.013603 0.007812 815827.000000 0 0 1
12.702910 -26.273213 -18.947440 34.794412 -1.120441 2.146654 0.012490 -0.005822 -573269.000000 0 0 1
12.116610 -26.970473 -17.861240 34.543342 -1.148562 2.114218 0.012998 -0.007460 95251.800000 0 0 1
11.203410 -26.130003 -17.185140 33.220814 -1.165748 2.114490 0.019520 -0.010900 -316568.000000 0 0 1
9.722510 -26.252823 -17.528640 33.030154 -1.216116 2.130206 0.019449 -0.005974 -945891.000000 0 0 1
9.071110 -27.261753 -16.701440 33.232909 -1.249579 2.097350 0.014443 0.004534 586817.000000 0 0 1
7.657410 -27.198823 -16.893440 32.921121 -1.296365 2.109646 0.008529 0.015060 656613.000000 0 0 1
6.983810 -27.839083 -18.127640 33.947009 -1.325005 2.134119 0.020341 0.011286 -249983.000000 0 0 1
7.340310 -27.316253 -19.430840 34.316400 -1.308282 2.172716 0.036645 -0.001258 -84042.700000 0 0 1
6.761510 -28.187213 -20.357640 35.421328 -1.335366 2.183068 0.035047 0.000229 -14095.900000 0 0 1
6.654910 -27.568213 -21.767440 35.750743 -1.333930 2.225428 0.040389 -0.009281 -970220.000000 0 0 1
5.537610 -26.777703 -21.914740 35.042350 -1.366872 2.246413 0.050226 -0.012561 -686952.000000 0 0 1
5.488610 -25.931923 -23.047440 35.125118 -1.362220 2.286505 0.053212 -0.011168 -576831.000000 0 0 1
4.103210 -25.307473 -23.219340 34.589626 -1.410061 2.306731 0.036993 -0.010951 -929997.000000 0 0 1
3.101710 -26.270993 -23.170340 35.166039 -1.453274 2.290131 0.032333 -0.008258 -1017610.000000 0 0 1
2.016610 -25.678373 -23.826040 35.087401 -1.492424 2.317262 0.034811 -0.013100 165583.000000 0 0 1
1.084810 -26.685093 -24.607140 36.315042 -1.530166 2.315293 0.029097 -0.015617 412424.000000 0 0 1
1.749710 -27.110813 -25.766230 37.442706 -1.506347 2.329734 0.030817 -0.015015 66202.300000 0 0 1
0.991410 -28.034713 -26.506860 38.594580 -1.535447 2.327877 0.032799 -0.020768 -65303.400000 0 0 1
1.794310 -28.762223 -27.625110 39.920317 -1.508493 2.335061 0.025356 -0.016698 -571209.000000 0 0 1
2.334410 -27.906473 -28.628670 40.047739 -1.487339 2.367225 0.028673 -0.015809 212345.000000 0 0 1
2.944110 -28.625793 -29.678400 41.338979 -1.468309 2.371617 0.042162 -0.018875 716204.000000 0 0 1
4.370910 -29.247213 -29.449510 41.734613 -1.422447 2.354119 0.049717 -0.020968 123899.000000 0 0 1
4.466910 -30.281483 -28.493040 41.818355 -1.424340 2.320405 0.046339 -0.024563 -425129.000000 0 0 1
5.676710 -30.988463 -28.592760 42.544750 -1.389617 2.307788 0.048613 -0.021063 -61246.400000 0 0 1
5.825710 -32.091623 -27.515750 42.672328 -1.391218 2.271577 0.049180 -0.026138 -171809.000000 0 0 1
4.923010 -33.157013 -27.657090 43.457314 -1.423397 2.260644 0.045544 -0.025511 -98407.900000 0 0 1
5.297010 -34.253973 -26.849670 43.844016 -1.417372 2.229878 0.047334 -0.035668 -84668.200000 0 0 1
4.150910 33.539335 -26.481390 42.934614 1.447660 2.235447 0.069691 -0.041170 -130040.000000 0 0 1
3.605410 32.749679 -27.560460 42.954853 1.461148 2.267398 0.050914 -0.034311 39559.300000 0 0 1
2.255110 32.491455 -27.225040 42.449770 1.501501 2.267049 0.029540 -0.032849 -41441.400000 0 0 1
1.288010 32.747282 -28.396270 43.363482 1.531485 2.284771 0.018009 -0.014306 -302237.000000 0 0 1
1.382210 31.798375 -29.449310 43.362530 1.527356 2.317389 0.018467 -0.009427 217926.000000 0 0 1
0.571810 32.112915 -30.606350 44.365695 1.552992 2.332099 0.018452 -0.005247 436991.000000 0 0 1
0.382510 30.895815 -31.619030 44.209283 1.558416 2.367724 0.012302 -0.001820 -98234.600000 0 0 1
1.504710 30.721905 -32.458080 44.717184 1.521857 2.383069 0.021427 -0.003295 -45390.200000 0 0 1
1.399710 29.672675 -33.343270 44.656472 1.523660 2.413825 0.016833 -0.001588 -484703.000000 0 0 1
2.606010 29.452625 -34.264119 45.257908 1.482545 2.429637 0.022395 0.001495 -368842.000000 0 0 1
2.750510 30.481475 33.490690 45.368623 1.480805 0.740412 0.021503 -0.002334 -130933.000000 0 0 1
3.408110 30.120285 32.252823 44.261624 1.458126 0.754395 0.006625 0.004055 119996.000000 0 0 1
2.689810 29.167385 31.202743 42.796993 1.478837 0.753809 0.014227 -0.005675 67459.700000 0 0 1
2.544710 27.789065 31.455403 42.049376 1.479479 0.725664 0.018739 -0.011168 -496274.000000 0 0 1
3.777910 27.136185 31.520553 41.763505 1.432465 0.715540 0.014318 -0.007397 -720177.000000 0 0 1
3.676210 25.675515 31.916333 41.126620 1.428583 0.682417 0.019917 -0.012107 -399197.000000 0 0 1
2.903010 24.995235 30.998523 39.926152 1.455172 0.681869 0.028153 -0.000427 -185569.000000 0 0 1
2.864610 23.596915 31.287723 39.293027 1.449990 0.649698 0.025155 -0.002473 -104749.000000 0 0 1
2.063910 22.694015 30.297573 37.910697 1.480101 0.644862 0.025242 0.010681 -473711.000000 0 0 1
0.732410 22.455915 30.599663 37.962401 1.538192 0.633346 0.019660 0.003147 -1195470.000000 0 0 1
0.082810 22.035115 29.445823 36.777842 1.567038 0.642433 0.035241 0.008170 530242.000000 0 0 1
-1.405490 21.611315 29.718333 36.772322 -1.505853 0.629756 0.033059 0.006098 730430.000000 0 0 1
-2.224490 22.737215 30.132843 37.814250 -1.473272 0.648708 0.042018 -0.000233 657117.000000 0 0 1
-3.521390 22.175015 30.378953 37.775816 -1.413311 0.636484 0.021644 -0.003171 937889.000000 0 0 1
-4.689390 23.216015 30.398883 38.536552 -1.371489 0.661889 0.003184 -0.009692 143560.000000 0 0 1
-5.025790 23.696515 31.682133 39.881586 -1.361803 0.652769 -0.002062 -0.008197 -59962.200000 0 0 1
-4.334790 24.868945 31.968943 40.734115 -1.398225 0.668391 0.012476 -0.011858 -149076.000000 0 0 1
-4.397790 25.284425 33.475371 42.181076 -1.398586 0.654075 0.019036 -0.011528 -960923.000000 0 0 1
-5.654790 25.735935 33.817717 42.871354 -1.354510 0.661912 0.018636 -0.008567 -769625.000000 0 0 1
-5.856190 25.962705 -33.560480 42.832964 -1.348947 2.471107 0.017047 -0.005494 -83160.100000 0 0 1
-7.347090 26.227975 -33.268050 42.995925 -1.297672 2.455534 0.026898 0.002777 -198148.000000 0 0 1
-7.745590 27.559175 -33.599570 44.141062 -1.296811 2.435937 0.037361 0.009381 -617789.000000 0 0 1
-9.036890 27.886935 -33.202680 44.291810 -1.257420 2.418306 0.043386 0.011974 -445376.000000 0 0 1
-9.194490 28.335675 -31.765690 43.548917 -1.257031 2.388278 0.049842 0.005539 -335348.000000 0 0 1
-8.735590 29.654025 -31.533650 44.159289 -1.284316 2.366118 0.045927 0.010272 98180.600000 0 0 1
-8.732090 30.069645 -30.203060 43.504687 -1.288174 2.338171 0.049716 0.007510 -104018.000000 0 0 1
-8.257790 31.504895 -29.843430 44.174425 -1.314452 2.312550 0.033841 0.010737 -77664.500000 0 0 1
-6.876890 31.678125 -30.055140 44.205278 -1.357027 2.318422 0.009390 0.006209 -275047.000000 0 0 1
-6.432490 32.938521 -29.669850 44.795347 -1.377936 2.294737 0.011764 0.006348 486160.000000 0 0 1
-4.874890 33.066411 -29.534600 44.603191 -1.424423 2.294498 0.021211 -0.000180 598784.000000 0 0 1
-4.367390 34.290681 -28.974430 45.104794 -1.444115 2.268396 0.018283 -0.003217 -135304.000000 0 0 1
-4.258790 -33.308323 -29.874550 44.945193 1.443627 2.297873 0.019732 -0.012010 234246.000000 0 0 1
-3.064190 -33.442293 -30.879310 45.621354 1.479425 2.314286 0.020461 -0.021817 -255504.000000 0 0 1
-3.234490 34.348007 -31.913450 46.996976 -1.476905 2.317268 0.017751 -0.009478 108066.000000 0 0 1
-3.966090 -34.147202 -33.097270 47.719917 1.455168 2.337234 0.028421 -0.009162 -90979.100000 0 0 1
-3.302090 -33.098353 -34.004920 47.568259 1.471359 2.367228 0.024209 -0.014584 -107992.000000 0 0 1
-3.295690 -31.817403 -33.469020 46.296695 1.467583 2.378822 0.021965 -0.009261 -6075.140000 0 0 1
-2.499590 -30.950603 -34.232305 46.217296 1.490211 2.404881 0.019250 -0.019136 -24865.800000 0 0 1
31.915670 19.705997 11.968583 39.372367 0.553144 1.261924 0.046308 -0.009986 167966.000000 0 0 1
32.783500 18.961797 12.806783 39.979011 0.524382 1.244710 0.040646 -0.014226 493439.000000 0 0 1
32.243800 17.624497 12.976383 38.970143 0.500230 1.231331 0.047826 -0.012710 470228.000000 0 0 1
33.288070 16.727197 13.690183 39.690249 0.465644 1.218637 0.064542 -0.018204 343692.000000 0 0 1
34.500340 16.576197 12.993783 40.421308 0.447898 1.243527 0.065435 -0.010521 132563.000000 0 0 1
35.419950 15.657497 13.571483 41.035536 0.416226 1.233724 0.055365 -0.013932 100.493000 0 0 1
-34.976191 15.396397 12.652083 40.254915 -0.414672 1.251078 0.060404 -0.023381 333138.000000 0 0 1
-34.179081 14.271797 13.109383 39.290580 -0.395552 1.230621 0.065061 -0.029795 472132.000000 0 0 1
-34.737928 12.938797 12.888383 39.245975 -0.356550 1.236187 0.065231 -0.033783 -95712.500000 0 0 1
-33.968664 11.977697 13.782083 38.565285 -0.338998 1.205346 0.059225 -0.026605 19537.800000 0 0 1
-34.091141 12.255597 15.164183 39.272866 -0.345109 1.174371 0.060816 -0.027200 269150.000000 0 0 1
-33.525294 11.115697 15.817783 38.700211 -0.320155 1.149739 0.051840 -0.034660 -115273.000000 0 0 1
-33.170854 11.505097 17.307183 39.143472 -0.333860 1.112805 0.055351 -0.021266 246429.000000 0 0 1
-34.286930 11.864797 18.167283 40.576066 -0.333146 1.106567 0.066064 -0.020330 381803.000000 0 0 1
-33.957784 12.624697 19.285183 41.041837 -0.355941 1.081629 0.045245 -0.031008 -720724.000000 0 0 1
-35.035230 12.984697 20.321483 42.532721 -0.354924 1.072665 0.066820 -0.022534 -295774.000000 0 0 1
-35.363768 11.880097 21.148983 42.883707 -0.324095 1.055066 0.055866 -0.006309 447107.000000 0 0 1
35.121180 12.237597 21.949083 43.185858 0.335284 1.037648 0.049807 -0.015797 362618.000000 0 0 1
34.508560 10.988097 22.671983 42.727015 0.308266 1.011460 0.047721 -0.007827 127080.000000 0 0 1
35.312990 10.593897 23.772353 43.867558 0.291457 0.998086 0.049902 0.001834 71863.200000 0 0 1
34.797390 11.060597 24.992363 44.247185 0.307758 0.970563 0.044505 0.002396 -1159780.000000 0 0 1
-35.691716 11.359097 25.962163 45.573694 -0.308120 0.964687 0.021885 0.002652 232468.000000 0 0 1
-34.882373 12.521497 25.566883 45.024808 -0.344638 0.966917 0.040279 -0.005792 1519910.000000 0 0 1
-33.880754 12.260797 24.543093 43.595826 -0.347220 0.972823 0.025606 -0.008261 -507411.000000 0 0 1
-32.939654 13.387997 24.152443 42.983715 -0.386046 0.974118 0.023615 -0.009133 559964.000000 0 0 1
-31.951164 13.900197 25.096683 42.941074 -0.410348 0.946601 -0.006890 -0.009966 750260.000000 0 0 1
-32.471974 14.522997 26.228843 44.196140 -0.420562 0.935440 -0.013293 -0.008899 -773513.000000 0 0 1
-31.436744 14.929997 27.290533 44.226088 -0.443385 0.905784 -0.015548 -0.004604 -314047.000000 0 0 1
-30.529174 15.906897 26.828633 43.644420 -0.480337 0.908779 0.005534 -0.019606 -522287.000000 0 0 1
-30.027384 16.537497 27.955873 44.234189 -0.503417 0.886669 0.017865 -0.010523 -178253.000000 0 0 1
-29.339014 17.904697 27.737823 44.167214 -0.547936 0.891792 0.029941 -0.011566 132629.000000 0 0 1
-30.200304 18.848697 27.100563 44.741170 -0.557968 0.920128 0.023299 -0.025527 464444.000000 0 0 1
-29.676474 20.171997 27.219753 45.039067 -0.596992 0.921836 0.017216 -0.024745 131575.000000 0 0 1
-30.465334 21.174597 26.318823 45.488247 -0.607389 0.953803 0.021796 -0.017836 735792.000000 0 0 1
-31.756814 21.566297 26.818463 46.827667 -0.596566 0.960994 0.038112 -0.023390 1102200.000000 0 0 1
-32.523254 22.273997 25.851503 47.140145 -0.600495 0.990351 0.056363 -0.021364 -290747.000000 0 0 1
-32.496314 23.812897 26.112023 48.009398 -0.632394 0.995726 0.052322 -0.020191 -528752.000000 0 0 1
-33.369964 24.417497 25.207963 48.427369 -0.631699 1.023323 0.072837 -0.027604 -10667.300000 0 0 1
-33.638414 25.814997 25.435433 49.446115 -0.654561 1.030480 0.072778 -0.023581 -111439.000000 0 0 1
-34.625939 26.484497 24.482813 49.997924 -0.652953 1.059078 0.076518 -0.013562 -72565.600000 0 0 1
-34.353457 26.259797 23.147383 49.046287 -0.652654 1.079295 0.077810 -0.015281 -201135.000000 0 0 1
-35.499266 26.653597 22.453183 49.746935 -0.644026 1.102521 0.075241 -0.014864 -139309.000000 0 0 1
-35.394617 26.483297 20.877783 48.887890 -0.642367 1.129564 0.104868 -0.023219 61636.500000 0 0 1
-35.192396 25.166397 20.387183 47.827707 -0.620794 1.130439 0.080607 -0.022832 314573.000000 0 0 1
-34.773770 25.110397 19.005283 46.914261 -0.625410 1.153701 0.072498 -0.024860 -265294.000000 0 0 1
-34.766260 23.646697 18.397683 45.894813 -0.597288 1.158334 0.068172 -0.021383 412160.000000 0 0 1
35.612563 23.242497 17.806483 46.103570 0.578235 1.174258 0.059018 -0.022295 6134.840000 0 0 1
35.766003 22.934497 16.456983 45.563477 0.570191 1.201255 0.052488 -0.025817 -301049.000000 0 0 1
34.443890 22.856797 15.691183 44.215698 0.585873 1.208013 0.049738 -0.015445 -18683.000000 0 0 1
33.555650 21.834897 16.116783 43.156634 0.576872 1.188073 0.045375 -0.021028 -545558.000000 0 0 1
32.579590 21.633497 15.143183 41.937500 0.586168 1.201361 0.041890 -0.014905 -1308640.000000 0 0 1
31.520720 20.618497 15.571283 40.757123 0.579270 1.178782 0.030273 -0.014998 -66871.700000 0 0 1
30.648110 20.904397 16.630083 40.655382 0.598596 1.149384 0.015455 -0.013604 467554.000000 0 0 1
29.727030 21.987097 16.328783 40.419771 0.636833 1.154933 0.005797 -0.005252 -228618.000000 0 0 1
28.845390 22.411097 17.480483 40.495445 0.660520 1.124458 -0.006868 -0.005978 51774.400000 0 0 1
29.567530 23.234697 18.396483 41.863117 0.666033 1.115817 -0.018364 0.008743 45357.300000 0 0 1
28.633080 23.922497 19.197983 41.960716 0.696007 1.095589 -0.025170 0.013380 7354.700000 0 0 1
29.247220 24.759897 20.362683 43.394599 0.702501 1.082361 -0.017933 0.001178 17994.700000 0 0 1
30.065600 25.822697 19.973183 44.381077 0.709626 1.103988 -0.009310 0.001680 57971.700000 0 0 1
30.664520 26.374397 21.178483 45.655775 0.710326 1.088434 -0.001922 0.005502 185480.000000 0 0 1
31.798300 27.378197 20.830783 46.846762 0.710843 1.110004 0.026823 -0.004336 468248.000000 0 0 1
32.775210 27.730797 21.818183 48.158536 0.702220 1.100614 0.033949 0.001971 889521.000000 0 0 1
32.249430 28.519097 22.844183 48.736242 0.724089 1.082943 0.003672 0.015614 361103.000000 0 0 1
33.352190 28.614397 23.990223 50.066786 0.709089 1.071094 0.012682 0.007569 277962.000000 0 0 1
34.465780 29.398597 23.725363 51.137661 0.706221 1.088346 0.045575 -0.002536 -542078.000000 0 0 1
34.995270 29.762897 25.001393 52.302664 0.704775 1.072404 0.054875 -0.008269 340819.000000 0 0 1
-35.392251 30.719597 24.886323 53.062550 -0.714837 1.082638 0.061753 -0.006690 1030000.000000 0 0 1
-34.129355 30.182597 24.455263 51.709399 -0.724106 1.078176 0.062394 -0.005103 260485.000000 0 0 1
-33.173684 31.163797 24.632783 51.753740 -0.754169 1.074739 0.053021 -0.003210 -432840.000000 0 0 1
-31.718624 30.752397 24.313053 50.427231 -0.769933 1.067699 0.068317 -0.005147 -76768.000000 0 0 1
-31.334594 30.574997 22.972383 49.441052 -0.773129 1.087566 0.066394 -0.007723 140943.000000 0 0 1
-31.585344 29.317897 22.309783 48.527307 -0.748185 1.093098 0.078771 -0.010451 -149414.000000 0 0 1
-30.997314 27.978097 22.874483 47.611442 -0.734248 1.069639 0.080311 -0.012142 -736671.000000 0 0 1
-29.610844 27.869797 22.688583 46.565003 -0.755118 1.061864 0.039030 -0.009212 -19010.100000 0 0 1
-28.987744 26.917097 23.600283 46.062922 -0.748376 1.032879 0.042592 -0.016383 175719.000000 0 0 1
-28.914084 27.364297 25.092173 47.057902 -0.757867 1.008395 0.057900 -0.019155 -779964.000000 0 0 1
-30.150484 27.343197 25.762243 48.170482 -0.736609 1.006509 0.050221 -0.011966 180255.000000 0 0 1
-29.888374 27.898097 27.060643 49.029554 -0.750970 0.986125 0.054312 -0.013029 1801670.000000 0 0 1
-31.264834 27.930997 27.928353 50.374829 -0.729139 0.983141 0.034135 -0.014439 1786860.000000 0 0 1
-31.780714 26.674497 28.320013 50.235105 -0.698267 0.971878 0.030459 -0.020658 59008.300000 0 0 1
-32.682604 26.881597 29.394793 51.525011 -0.688314 0.963687 0.024581 -0.012375 11038.100000 0 0 1
-33.312084 25.608497 29.977343 51.615222 -0.655390 0.951104 0.028481 -0.004724 -113165.000000 0 0 1
-32.455674 25.004797 30.929753 51.334786 -0.656448 0.924153 0.029788 -0.009013 192123.000000 0 0 1
-32.874154 23.687197 31.293683 51.196562 -0.624380 0.913163 0.025030 -0.019215 -257867.000000 0 0 1
-31.945894 23.130697 32.389443 51.035726 -0.626691 0.883250 0.031641 -0.022958 150592.000000 0 0 1
-30.701154 22.714697 31.799763 49.696512 -0.636983 0.876455 0.035543 -0.014417 384623.000000 0 0 1
-29.967714 21.867897 32.657175 49.424284 -0.630392 0.848977 0.034189 -0.016276 61350.300000 0 0 1
-29.138904 22.551697 33.797690 49.999386 -0.658646 0.828527 0.034189 -0.017641 -564454.000000 0 0 1
-29.871624 23.032997 -33.782700 50.636980 -0.656848 2.301179 0.042993 -0.019758 120587.000000 0 0 1
-29.487734 22.531997 -32.496730 49.328033 -0.652473 2.290003 0.033356 -0.011437 -636340.000000 0 0 1
-28.054084 22.762297 -32.038440 48.286804 -0.681637 2.296287 0.052463 -0.020806 -718140.000000 0 0 1
-27.857284 24.153697 -31.869140 48.734705 -0.714310 2.283565 0.051157 -0.017799 105944.000000 0 0 1
-27.493854 24.508997 -30.550810 47.853474 -0.728063 2.263245 0.065272 -0.017970 -294800.000000 0 0 1
-28.232914 25.766897 -30.129230 48.670329 -0.739763 2.238325 0.037803 -0.007193 -590859.000000 0 0 1
-27.938414 27.010397 -30.725490 49.539603 -0.768511 2.239820 0.040489 -0.002672 107375.000000 0 0 1
-28.995204 27.596797 -31.484120 50.926956 -0.760693 2.237274 0.030160 0.000914 31014.200000 0 0 1
-28.727784 28.988897 -32.016830 51.872142 -0.789922 2.236008 0.032220 0.006513 -81328.200000 0 0 1
-28.858404 29.961597 -30.990560 51.874075 -0.804151 2.211075 0.027927 -0.000103 127438.000000 0 0 1
-28.744424 31.282597 -31.493950 52.883946 -0.827657 2.208721 0.040625 -0.012621 -88029.300000 0 0 1
-28.991304 32.380997 -30.469510 53.079334 -0.840574 2.182224 0.047409 -0.001439 551627.000000 0 0 1
-27.939044 32.411097 -29.491220 51.969236 -0.859365 2.174232 0.028492 0.005316 496007.000000 0 0 1
-28.328604 33.363997 -28.545540 52.254320 -0.866838 2.148714 0.026727 0.010217 -126926.000000 0 0 1
-27.312864 33.777197 -27.473290 51.397211 -0.890822 2.134746 0.032029 0.004582 -68576.500000 0 0 1
-26.084344 -34.380220 -27.796250 51.332485 0.921749 2.143010 0.009826 0.003743 64234.300000 0 0 1
-26.192554 -32.975720 -28.052240 50.600160 0.899542 2.158427 0.024071 0.015928 -344695.000000 0 0 1
-26.524964 -32.032320 -26.837770 49.496557 0.879173 2.143867 0.025457 0.013910 967138.000000 0 0 1
-27.932104 -31.887220 -26.590350 50.040423 0.851420 2.131022 0.014707 0.007708 550536.000000 0 0 1
-28.196764 -31.038420 -25.513520 49.085443 0.833334 2.117387 0.012147 0.009421 89514.000000 0 0 1
-29.700924 -30.740420 -25.312470 49.677354 0.802595 2.105443 0.001962 0.004875 43925.500000 0 0 1
-30.096384 -29.802220 -26.212160 49.810059 0.780487 2.124972 0.005161 -0.004387 255989.000000 0 0 1
-31.500174 -29.797220 -26.437690 50.784710 0.757623 2.118331 0.001462 -0.011185 176369.000000 0 0 1
-31.992244 -28.746020 -27.477390 51.037675 0.732003 2.139303 0.006904 -0.017361 383699.000000 0 0 1
-33.408964 -28.791320 -27.619050 52.037591 0.711296 2.130284 0.011923 -0.020946 268288.000000 0 0 1
-33.884874 -27.804820 -28.484070 52.274611 0.687157 2.147058 0.026862 -0.027417 -578353.000000 0 0 1
-35.337822 -28.070320 -28.866850 53.572377 0.671281 2.139854 0.015692 -0.029426 -345565.000000 0 0 1
35.390220 -27.703420 -27.847480 52.871819 -0.664164 2.125508 0.014317 -0.024719 -824347.000000 0 0 1
34.057800 -27.991820 -28.138380 52.299562 -0.687948 2.138887 0.029708 -0.022201 -238681.000000 0 0 1
32.975040 -27.519420 -27.148790 50.810713 -0.695458 2.134490 0.032471 -0.023724 -29110.400000 0 0 1
32.896120 -28.234120 -25.902840 50.500271 -0.709282 2.109385 0.020352 -0.017517 -82024.800000 0 0 1
31.946460 -27.627520 -25.071340 49.116476 -0.713028 2.106500 0.017322 -0.012694 -139363.000000 0 0 1
31.800230 -28.347620 -23.765040 48.781342 -0.728059 2.079648 0.009227 -0.011700 -92026.900000 0 0 1
31.264840 -29.674520 -23.791240 49.235053 -0.759307 2.075122 0.023784 -0.006662 -100720.000000 0 0 1
30.998910 -30.226520 -22.484740 48.786663 -0.772783 2.049782 0.033852 -0.015781 -326249.000000 0 0 1
32.042380 -30.384320 -21.352240 49.049354 -0.758844 2.021192 0.023389 -0.013370 -570374.000000 0 0 1
33.170650 -31.202120 -21.644740 50.421812 -0.754828 2.014484 0.017167 -0.008555 1014070.000000 0 0 1
34.267360 -31.072720 -20.718240 50.685416 -0.736545 1.991893 0.015258 -0.007535 1029200.000000 0 0 1
35.115160 -29.777920 -20.811940 50.526585 -0.703336 1.995335 0.005221 -0.013099 -969089.000000 0 0 1
34.459810 -28.692720 -20.282440 49.215120 -0.694331 1.995574 0.005915 -0.006061 -26692.900000 0 0 1
34.942860 -27.509020 -20.929840 49.150868 -0.666923 2.010674 -0.001726 -0.008094 535198.000000 0 0 1
33.941320 -26.353520 -20.574240 47.642634 -0.660211 2.017334 0.001093 -0.007844 1015390.000000 0 0 1
32.793220 -26.284320 -21.425340 47.173149 -0.675665 2.042254 0.013354 -0.005919 561540.000000 0 0 1
31.771530 -25.473920 -20.851440 45.750773 -0.675828 2.044024 0.024697 -0.005431 341241.000000 0 0 1
30.481840 -25.451620 -21.721640 45.263199 -0.695707 2.071333 0.023146 -0.006758 224807.000000 0 0 1
29.809460 -26.704620 -21.817140 45.582104 -0.730514 2.069894 0.036801 -0.007454 452012.000000 0 0 1
28.622440 -26.468920 -22.592140 45.058324 -0.746328 2.096010 0.037705 -0.010908 571880.000000 0 0 1
28.025790 -27.798820 -23.183040 45.778517 -0.781332 2.101821 0.043842 -0.006004 -110872.000000 0 0 1
27.472240 -28.577320 -22.144840 45.406840 -0.805112 2.080248 0.051320 -0.009507 -113131.000000 0 0 1
27.075670 -29.851320 -22.551240 46.181724 -0.834118 2.080954 0.052491 -0.012995 -61938.100000 0 0 1
26.243110 -30.616920 -21.456840 45.678141 -0.862169 2.059792 0.057522 -0.006286 210715.000000 0 0 1
26.918900 -30.930520 -20.248240 45.730903 -0.854633 2.029481 0.068877 -0.015004 269402.000000 0 0 1
28.041330 -31.796720 -20.296540 47.003161 -0.848075 2.017297 0.064543 -0.016500 291830.000000 0 0 1
28.857020 -32.076320 -19.011140 47.149139 -0.838182 1.985821 0.058964 -0.014144 -321203.000000 0 0 1
28.242620 -32.702420 -17.957540 46.792810 -0.858445 1.964669 0.058165 -0.015247 -361359.000000 0 0 1
27.664370 -31.808820 -17.000440 45.454740 -0.854972 1.954123 0.049949 -0.016003 60322.100000 0 0 1
27.137770 -32.561820 -15.770640 45.226583 -0.876005 1.926983 0.056156 -0.009431 -459941.000000 0 0 1
25.883210 -33.133620 -16.010140 44.990020 -0.907639 1.934630 0.048450 -0.001620 -215635.000000 0 0 1
25.498210 -33.939820 -14.887140 44.985520 -0.926478 1.908087 0.052625 -0.005426 -320219.000000 0 0 1
23.971410 -34.057320 -14.881740 44.226640 -0.957488 1.913981 0.050972 -0.007251 -341414.000000 0 0 1
23.258410 -32.975420 -14.368440 42.834379 -0.956505 1.912870 0.054814 -0.001874 -74514.500000 0 0 1
21.870610 -33.221920 -14.334040 42.278650 -0.988595 1.916690 0.063162 -0.014021 -53709.700000 0 0 1
-0.653364 -7.104103 -29.246880 30.104404 1.479084 2.902338 0.038136 -0.007175 89048.200000 0 0 1
0.089136 -8.305903 -29.271050 30.426802 -1.560065 2.865087 0.044298 -0.002515 44193.100000 0 0 1
-0.136764 -8.961603 -30.509650 31.798864 1.555536 2.855866 0.042462 -0.009887 -267832.000000 0 0 1
-0.031464 -10.503803 -30.478670 32.237868 1.567801 2.809710 0.050631 -0.004057 225479.000000 0 0 1
1.314936 -10.838903 -30.216280 32.128405 -1.450070 2.794851 0.017946 -0.004851 36164.200000 0 0 1
1.366636 -12.200003 -29.951400 32.369648 -1.459242 2.752603 0.029104 -0.009163 446503.000000 0 0 1
2.720336 -12.632903 -29.311130 32.033307 -1.358698 2.726355 0.028940 -0.003050 653674.000000 0 0 1
3.833436 -12.530603 -30.233080 32.950726 -1.273912 2.732605 0.037249 -0.004154 2080650.000000 0 0 1
5.168136 -12.703703 -29.661520 32.678731 -1.184423 2.708496 0.051046 -0.006081 1665420.000000 0 0 1
5.552036 -14.083003 -29.055890 32.762796 -1.195268 2.661292 0.051450 -0.018174 -1192090.000000 0 0 1
4.868736 -14.437103 -27.901150 31.790072 -1.245536 2.641772 0.049340 -0.007871 -289802.000000 0 0 1
5.525036 -15.456403 -27.182140 31.753663 -1.227492 2.598340 0.063656 -0.017382 -52126.700000 0 0 1
5.183736 -16.916803 -27.591040 32.776742 -1.273455 2.571382 0.049953 -0.012572 -371463.000000 0 0 1
5.718536 -17.337903 -28.811310 34.108592 -1.252203 2.576789 0.059429 -0.024191 -1794.160000 0 0 1
5.266036 -18.645103 -29.007680 34.882896 -1.295531 2.552730 0.051694 -0.019921 -269518.000000 0 0 1
5.500136 -19.071503 -30.413520 36.317432 -1.290020 2.563371 0.055586 -0.027560 -303769.000000 0 0 1
6.856836 -19.264003 -30.728670 36.910285 -1.228839 2.554443 0.050297 -0.026829 -122195.000000 0 0 1
6.972936 -19.857503 -32.016880 38.314786 -1.233099 2.560070 0.060174 -0.032471 -17112.200000 0 0 1
8.447736 -20.088803 -32.418350 39.062432 -1.172727 2.549745 0.055563 -0.029997 260444.000000 0 0 1
9.069036 -18.836703 -32.735700 38.841921 -1.122094 2.573248 0.057039 -0.030744 394588.000000 0 0 1
10.285036 -18.903903 -33.467840 39.789895 -1.072518 2.570136 0.048330 -0.029065 -18072.600000 0 0 1
10.634436 -17.493103 -34.050750 39.731013 -1.024572 2.600278 0.037274 -0.019257 47292.200000 0 0 1
9.747936 -17.197903 33.608413 38.991224 -1.055139 0.531697 0.061333 -0.023184 448254.000000 0 0 1
9.927636 -15.799603 33.258880 38.135790 -1.009794 0.511283 0.042761 -0.020138 250161.000000 0 0 1
8.924136 -15.346903 32.152223 36.727824 -1.044095 0.504495 0.062078 -0.029990 177505.000000 0 0 1
9.140736 -15.905303 30.849753 35.892046 -1.049190 0.536476 0.054239 -0.022733 -201117.000000 0 0 1
8.112136 -15.365403 30.067643 34.727014 -1.085041 0.523992 0.061007 -0.025682 -109430.000000 0 0 1
8.148236 -16.060903 28.717523 33.897529 -1.101299 0.560129 0.049108 -0.007507 -340325.000000 0 0 1
7.590736 -17.344103 28.838813 34.498033 -1.158256 0.580925 0.054015 -0.012618 362426.000000 0 0 1
7.679036 -18.028403 27.587603 33.838834 -1.168129 0.617610 0.041336 -0.007217 36176.300000 0 0 1
7.135436 -19.491903 27.736343 34.643230 -1.219876 0.642454 0.039377 -0.005018 -256990.000000 0 0 1
7.983136 -20.251303 28.562493 35.911860 -1.195297 0.651212 0.047712 -0.005485 5675.340000 0 0 1
7.418836 -21.356303 29.238013 36.959331 -1.236454 0.658214 0.032646 -0.010656 -328015.000000 0 0 1
7.956936 -21.502103 30.730513 38.340809 -1.216369 0.640981 0.034786 -0.013309 -159584.000000 0 0 1
7.300936 -20.746203 31.730473 38.607402 -1.232415 0.606101 0.058445 -0.021393 138338.000000 0 0 1
7.345536 -19.355503 31.575863 37.757482 -1.208081 0.580331 0.053000 -0.024157 -82081.500000 0 0 1
6.580236 -18.688703 32.747634 38.274987 -1.232255 0.544110 0.059567 -0.027489 727340.000000 0 0 1
5.163736 -18.803603 32.633243 38.015367 -1.302789 0.538610 0.068673 -0.029303 244563.000000 0 0 1
4.463536 -17.797103 33.391550 38.100598 -1.325064 0.502451 0.058554 -0.026016 1907180.000000 0 0 1
2.889536 -18.099803 33.412735 38.109882 -1.412488 0.501740 0.065428 -0.021766 1621460.000000 0 0 1
2.592936 -19.187703 34.239584 39.334976 -1.436475 0.514657 0.051274 -0.032446 -64174.600000 0 0 1
2.200936 -18.815003 -33.148050 38.179073 -1.454348 2.622411 0.043601 -0.033543 -341012.000000 0 0 1
2.061636 -19.964803 -32.163370 37.912083 -1.467898 2.583690 0.037089 -0.012146 -735028.000000 0 0 1
0.967036 -20.756803 -32.523490 38.594784 -1.524241 2.573059 0.024940 -0.013955 -11911.400000 0 0 1
0.253136 -21.449203 -31.494740 38.105787 -1.558995 2.543672 0.024903 -0.014731 606393.000000 0 0 1
-0.508164 -20.545703 -30.460260 36.745225 1.546068 2.548039 0.021978 -0.017389 -142334.000000 0 0 1
-1.702164 -19.976003 -30.963160 36.887061 1.485791 2.566983 0.025774 -0.020986 17986.800000 0 0 1
-2.453664 -18.996603 -30.239790 35.795757 1.442344 2.576963 0.041967 -0.010630 -9269.920000 0 0 1
-1.808964 -17.624903 -29.929330 34.780373 1.468518 2.607093 0.031637 -0.010467 -656437.000000 0 0 1
-2.706664 -16.611303 -29.548850 34.005822 1.409275 2.623843 0.040877 -0.007822 -480703.000000 0 0 1
-2.151964 -15.345003 -29.727180 33.523205 1.431466 2.661093 0.047487 -0.009928 -126591.000000 0 0 1
-3.155264 -14.205003 -29.504000 32.897170 1.352221 2.683404 0.047975 -0.007429 94607.000000 0 0 1
-3.313664 -13.999803 -28.118960 31.585610 1.338380 2.668681 0.041775 -0.008507 -444885.000000 0 0 1
-4.279564 -13.024603 -27.882370 31.070589 1.253334 2.684610 0.034828 -0.006889 -270274.000000 0 0 1
-4.314064 -12.744403 -26.331360 29.569773 1.244397 2.669200 0.023540 -0.005767 -330349.000000 0 0 1
-4.805464 -13.815703 -25.579330 29.466391 1.236059 2.622128 0.024387 -0.003789 168150.000000 0 0 1
-4.815064 -13.729003 -24.190240 28.228320 1.233478 2.600118 0.017777 -0.004710 -207559.000000 0 0 1
-5.627664 -12.659203 -23.444840 27.232086 1.152483 2.607885 0.012211 -0.008923 -104694.000000 0 0 1
-7.033664 -12.803503 -23.433940 27.614338 1.068449 2.584158 0.005716 -0.010736 -97982.900000 0 0 1
-7.633464 -11.643703 -22.834240 26.744122 0.990503 2.594046 0.003978 -0.011641 145263.000000 0 0 1
-9.158464 -11.758303 -23.051740 27.450280 0.909058 2.567644 0.022833 -0.013779 -120757.000000 0 0 1
-9.845764 -12.777403 -22.344140 27.558332 0.914266 2.516304 0.014620 -0.009310 60508.000000 0 0 1
-10.292964 -13.834503 -23.266840 28.960048 0.931142 2.503799 -0.005587 -0.005909 574309.000000 0 0 1
-11.185664 -14.998203 -22.636140 29.367669 0.929988 2.450868 -0.006003 -0.013572 296416.000000 0 0 1
-10.556164 -15.720403 -21.591740 28.718755 0.979459 2.421636 -0.000100 -0.007371 -52754.300000 0 0 1
-11.230464 -16.968003 -21.200440 29.385287 0.986128 2.376711 -0.005660 0.005724 559635.000000 0 0 1
-11.592164 -18.107003 -22.253240 30.942665 1.001339 2.373413 -0.013766 0.010754 427919.000000 0 0 1
-12.678264 -17.760603 -23.118240 31.790414 0.950841 2.385042 -0.013728 0.004348 8722.640000 0 0 1
-13.147564 -18.841203 -23.892940 33.146975 0.961542 2.375778 -0.001118 0.004805 102800.000000 0 0 1
-14.142964 -18.302103 -24.954240 34.025057 0.912893 2.394118 -0.005360 -0.002876 555808.000000 0 0 1
-15.339764 -17.839903 -24.319440 33.837932 0.860608 2.372732 0.015582 -0.004257 100933.000000 0 0 1
-16.328364 -17.600403 -25.288450 34.869691 0.822872 2.382161 0.036766 -0.016753 309425.000000 0 0 1
-17.272464 -16.377803 -25.034440 34.544082 0.758817 2.381410 0.027923 -0.015382 25762.400000 0 0 1
-17.905464 -16.466403 -23.814740 34.042472 0.743555 2.345577 0.042283 -0.017626 -102405.000000 0 0 1
-18.566764 -15.223103 -23.561240 33.639257 0.686765 2.346767 0.035131 -0.021683 30479.200000 0 0 1
-19.566464 -15.084603 -22.391040 33.342922 0.656770 2.307079 0.035167 -0.029954 112537.000000 0 0 1
-18.945864 -15.107303 -21.121940 32.145182 0.673149 2.287734 0.039774 -0.027148 -287792.000000 0 0 1
-19.876464 -14.962503 -20.073240 31.966940 0.645275 2.249697 0.030930 -0.028499 -123172.000000 0 0 1
-20.127964 -13.599103 -19.536340 31.172730 0.594184 2.248124 0.049368 -0.028572 -627413.000000 0 0 1
-21.246264 -12.955403 -20.048340 31.955940 0.547575 2.248973 0.049797 -0.035530 -417060.000000 0 0 1
-21.614464 -11.896103 -19.183140 31.252123 0.503133 2.231685 0.060269 -0.034452 396497.000000 0 0 1
-23.113764 -11.489203 -19.302240 32.230798 0.461302 2.212893 0.061215 -0.031422 427890.000000 0 0 1
-23.491364 -10.762103 -20.471140 32.965658 0.429594 2.240794 0.063657 -0.035238 -32125.400000 0 0 1
-24.891364 -10.892903 -20.608140 34.101771 0.412509 2.219700 0.061648 -0.036622 20539.600000 0 0 1
-25.522414 -10.004603 -21.684140 34.952648 0.373585 2.240031 0.070472 -0.028841 65908.500000 0 0 1
-25.127564 -10.444203 -22.993140 35.625276 0.393922 2.272365 0.051699 -0.025099 686959.000000 0 0 1
-26.129914 -9.916803 -23.843040 36.736983 0.362727 2.277092 0.044022 -0.017878 102730.000000 0 0 1
-26.069014 -10.482203 -25.263070 37.784822 0.382311 2.303126 0.025434 -0.013604 263192.000000 0 0 1
-25.016864 -9.943203 -26.070280 37.474928 0.378315 2.340152 0.008795 -0.008504 70175.300000 0 0 1
-24.106464 -10.946803 -26.368240 37.366270 0.426260 2.354164 0.017868 -0.014518 -9899.510000 0 0 1
-23.004864 -10.581703 -27.416960 37.321386 0.431120 2.395900 0.010402 -0.009671 463786.000000 0 0 1
-23.528964 -10.769603 -28.738100 38.671370 0.429253 2.408542 0.008882 0.001050 110374.000000 0 0 1
-22.569964 -10.603203 -29.752890 38.820943 0.439191 2.444035 0.001987 0.008145 190312.000000 0 0 1
-23.111064 -11.154203 -31.122460 40.337886 0.449659 2.452061 -0.006028 0.005484 237419.000000 0 0 1
-23.894764 -10.196503 -31.823110 41.080880 0.403331 2.456950 -0.008258 -0.002420 286120.000000 0 0 1
-23.128764 -9.420903 -32.757990 41.191978 0.386804 2.490219 -0.009572 -0.004047 -671849.000000 0 0 1
-24.026164 -8.538303 -33.605410 42.183916 0.341455 2.492513 -0.015823 -0.007849 404942.000000 0 0 1
-25.057994 -9.199703 34.329491 43.486222 0.351859 0.660910 0.000425 -0.017861 1864810.000000 0 0 1
-26.238114 -9.744303 -33.795760 43.881015 0.355593 2.449901 -0.000096 -0.016171 115052.000000 0 0 1
-27.206414 -8.739103 -33.111290 43.736923 0.310805 2.429591 0.007644 -0.004446 -1432110.000000 0 0 1
-28.522634 -9.167703 -33.147020 44.680111 0.310989 2.406657 0.016986 -0.008474 -855583.000000 0 0 1
-29.159484 -8.581303 -32.064110 44.181686 0.286209 2.382896 0.022951 -0.008554 -3727.100000 0 0 1
-30.657074 -8.961603 -31.934420 45.166068 0.284394 2.356106 0.027655 -0.009598 219442.000000 0 0 1
-30.799784 -10.323603 -31.533260 45.271955 0.323415 2.341346 0.020798 -0.009518 -244262.000000 0 0 1
-32.145084 -10.712103 -31.473540 46.245424 0.321669 2.319345 0.006843 -0.007548 -388143.000000 0 0 1
-32.419774 -12.247303 -31.503500 46.834909 0.361199 2.308581 0.018989 -0.011319 610050.000000 0 0 1
-33.822074 -12.596603 -31.418420 47.851063 0.356522 2.287082 0.009454 -0.008156 1127470.000000 0 0 1
-33.778444 -13.969603 -31.294400 48.119357 0.392146 2.278841 0.009944 -0.009854 298172.000000 0 0 1
-35.215404 -14.558103 -31.265850 49.291139 0.392006 2.257912 0.002069 -0.016752 415131.000000 0 0 1
-35.688977 -14.512803 -29.911160 48.775014 0.386223 2.230962 -0.001169 -0.011308 41296.300000 0 0 1
35.518040 -15.828803 -29.495290 48.806293 -0.419235 2.219726 -0.006537 -0.007305 39749.800000 0 0 1
35.522360 -16.030803 -27.963910 47.966706 -0.423924 2.193195 -0.003299 0.002448 351282.000000 0 0 1
-34.763103 -15.967403 -27.451180 47.085014 0.430578 2.193229 0.013299 -0.010444 324195.000000 0 0 1
-34.766575 -16.091203 -26.086550 46.348135 0.433476 2.168613 0.018234 -0.007219 -1218350.000000 0 0 1
-33.519514 -15.654803 -25.381220 44.864652 0.436930 2.172113 0.047421 -0.012939 -1142760.000000 0 0 1
-32.540024 -16.639303 -25.582800 44.611649 0.472685 2.181514 0.052014 -0.013784 -1235310.000000 0 0 1
-31.300744 -16.185603 -25.164900 43.301068 0.477234 2.190951 0.066730 -0.008843 88380.900000 0 0 1
-30.114074 -17.165203 -25.550710 43.062053 0.518073 2.206006 0.064651 -0.013389 581417.000000 0 0 1
-29.867244 -18.289503 -24.719040 42.867110 0.549458 2.185411 0.070215 -0.018960 503808.000000 0 0 1
-30.778114 -19.398403 -24.911940 44.093028 0.562377 2.171213 0.058252 -0.024386 330477.000000 0 0 1
-30.385164 -20.560803 -24.032440 43.858442 0.594898 2.150714 0.055982 -0.028064 233598.000000 0 0 1
-29.173814 -21.252903 -24.313540 43.519484 0.629594 2.163592 0.046148 -0.021198 274827.000000 0 0 1
-29.027034 -22.417603 -23.519240 43.569166 0.657622 2.141012 0.037688 -0.019680 -1541600.000000 0 0 1
-27.657594 -23.032403 -23.606540 43.043034 0.694405 2.151294 0.026054 -0.015089 -438969.000000 0 0 1
-26.611264 -22.246203 -22.995040 41.615199 0.696292 2.156233 0.033731 -0.015801 348943.000000 0 0 1
-26.609904 -22.021003 -21.567640 40.720691 0.691315 2.128982 0.045297 -0.020152 -905218.000000 0 0 1
-26.412544 -23.311103 -20.744040 40.882089 0.723105 2.102974 0.028928 -0.017688 -156139.000000 0 0 1
-26.397654 -22.919203 -19.380640 39.971680 0.714982 2.076999 0.028588 -0.011828 -136935.000000 0 0 1
-26.318324 -24.063503 -18.586940 40.214185 0.740673 2.051269 0.018180 0.008360 -307042.000000 0 0 1
-26.420984 -23.611603 -17.115940 39.351386 0.729306 2.020781 0.017060 0.015072 -28030.700000 0 0 1
-27.652654 -23.045703 -16.727240 39.693504 0.694777 2.005796 0.024412 0.007173 -125889.000000 0 0 1
-27.456584 -22.059003 -15.720040 38.569201 0.676819 1.990599 0.023967 0.009829 595850.000000 0 0 1
-28.824484 -21.505903 -15.210940 39.047758 0.640999 1.970936 0.022676 0.018166 397250.000000 0 0 1
-29.515874 -20.723803 -16.121640 39.504052 0.612150 1.991169 0.019197 0.013267 -529254.000000 0 0 1
-30.800554 -20.418803 -15.656040 40.133692 0.585416 1.971533 0.033789 0.014897 -315566.000000 0 0 1
-31.714474 -19.775503 -16.723540 40.945759 0.557555 1.991531 0.042268 -0.002735 -455989.000000 0 0 1
-32.466794 -20.730103 -17.404740 42.270023 0.568250 1.995171 0.022964 -0.007140 -402269.000000 0 0 1
-33.286784 -19.925803 -18.250640 42.873459 0.539397 2.010516 0.021615 0.001583 -12304.500000 0 0 1
-34.227467 -20.720103 -19.187640 44.373502 0.544355 2.017963 0.007469 -0.000005 877836.000000 0 0 1
-35.343270 -21.467803 -18.682040 45.376557 0.545849 1.995127 -0.003244 -0.002485 459762.000000 0 0 1
-35.000747 -22.475803 -17.742840 45.221923 0.570838 1.973982 0.007459 -0.008962 -556794.000000 0 0 1
35.682863 -23.706603 -17.755640 46.373834 -0.586411 1.963709 0.001192 -0.000488 44572.700000 0 0 1
34.318280 -23.413603 -17.516040 45.086060 -0.598713 1.969802 0.001323 -0.006329 -321950.000000 0 0 1
33.681770 -24.625303 -17.491840 45.241923 -0.631306 1.967770 -0.001184 -0.008694 -1300360.000000 0 0 1
32.267990 -24.646303 -16.957140 44.002363 -0.652275 1.966404 -0.003696 -0.007500 -724123.000000 0 0 1
31.316370 -24.253003 -17.949240 43.486761 -0.658967 1.996270 0.003597 -0.004846 118905.000000 0 0 1
30.036560 -24.448603 -17.366440 42.444344 -0.683196 1.992327 0.014646 -0.012614 -348530.000000 0 0 1
28.855680 -24.250803 -18.287740 41.895025 -0.698904 2.022516 0.034847 -0.008503 -481610.000000 0 0 1
28.609430 -22.867503 -18.395340 40.985493 -0.674314 2.036247 0.021067 0.000624 49079.300000 0 0 1
27.381720 -22.636803 -19.047540 40.311192 -0.690818 2.062936 0.024234 -0.006515 -101301.000000 0 0 1
34.126940 29.714097 -18.363440 48.834327 0.716386 1.956310 0.016458 -0.005625 -462878.000000 0 0 1
33.221480 29.893697 -19.404040 48.721829 0.732721 1.980417 0.009597 -0.008075 -449817.000000 0 0 1
33.627550 29.349797 -20.593340 49.155960 0.717577 2.003073 0.011414 -0.001415 -156521.000000 0 0 1
32.641410 29.641397 -21.752340 49.165418 0.737268 2.029105 0.003096 0.000711 -164988.000000 0 0 1
31.357860 29.078197 -21.578140 47.900658 0.747696 2.038096 0.007618 -0.003446 230663.000000 0 0 1
30.474290 29.237997 -22.680440 47.936888 0.764697 2.063638 0.013354 0.010053 30433.400000 0 0 1
29.646460 30.519997 -22.661240 48.206998 0.799916 2.060180 0.013005 0.011193 -1419970.000000 0 0 1
30.317700 31.739597 -22.809840 49.465683 0.808307 2.050058 0.019216 0.002547 -117585.000000 0 0 1
29.411440 32.850297 -22.887140 49.678929 0.840574 2.049581 0.023775 0.004902 -596454.000000 0 0 1
29.996000 34.268397 -22.824240 50.941427 0.851782 2.035378 0.028365 0.008650 -301979.000000 0 0 1
30.543960 -34.117320 -21.561440 50.614432 -0.840605 2.010857 0.035481 -0.001660 1151640.000000 0 0 1
31.858850 34.067497 -21.346840 51.295889 0.818887 2.000005 0.031019 -0.001778 468457.000000 0 0 1
32.152830 33.704197 -19.853740 50.635446 0.808950 1.973701 0.027317 -0.008605 -171278.000000 0 0 1
32.236660 -33.861120 -19.074240 50.493607 -0.809970 1.958167 0.039239 -0.009789 222512.000000 0 0 1
32.310870 -34.046120 -17.680840 50.157180 -0.811542 1.931047 0.019737 -0.022158 -153962.000000 0 0 1
32.024160 -32.657320 -17.021840 48.803590 -0.795187 1.927068 0.017921 -0.006138 115848.000000 0 0 1
33.117260 -31.787620 -17.215140 49.026184 -0.764915 1.929587 0.021582 -0.009848 656235.000000 0 0 1
34.183410 -31.885120 -16.232640 49.483987 -0.750626 1.905022 0.014869 -0.009176 1141230.000000 0 0 1
35.507640 -31.235420 -16.764840 50.174733 -0.721475 1.911477 -0.001147 -0.005604 190890.000000 0 0 1
-35.450406 -31.918720 -17.792040 50.912598 0.733023 1.927794 0.002624 -0.007890 175407.000000 0 0 1
-34.208499 -31.203620 -17.967240 49.665975 0.739493 1.940953 -0.010470 -0.001257 774292.000000 0 0 1
-33.101424 -31.912520 -18.782740 49.667943 0.767113 1.958611 -0.016830 -0.005588 -1167230.000000 0 0 1
-32.526934 -32.976320 -18.068840 49.718428 0.792259 1.942736 -0.001574 -0.010060 -47986.600000 0 0 1
-31.667414 -33.743520 -18.887640 49.981929 0.817127 1.958312 -0.002024 0.000617 847504.000000 0 0 1
-30.285904 -33.087520 -19.267740 48.818703 0.829577 1.976515 -0.000767 -0.002342 -1022420.000000 0 0 1
-30.491894 -32.189620 -20.340040 48.781600 0.812476 2.000896 -0.013384 -0.002851 -546027.000000 0 0 1
-29.381954 -31.510320 -20.862440 47.868997 0.820337 2.021749 0.005395 -0.000620 -298187.000000 0 0 1
-28.399244 -32.492520 -21.535240 48.229115 0.852519 2.033668 0.006090 0.014861 -849001.000000 0 0 1
-28.997944 -33.077520 -22.666440 49.485054 0.851023 2.046592 -0.000313 0.021129 -55031.100000 0 0 1
-28.263614 -34.133920 -23.278040 50.058201 0.879201 2.054453 0.002650 0.009108 219234.000000 0 0 1
-29.054984 33.876697 -24.437640 50.882423 -0.861867 2.071766 0.004666 0.001749 -112566.000000 0 0 1
-30.214884 33.218797 -23.949940 50.892311 -0.832718 2.060767 0.002839 -0.004606 -123742.000000 0 0 1
-30.939054 32.569297 -24.926240 51.374134 -0.811062 2.077377 0.012683 -0.002617 -339564.000000 0 0 1
-31.849544 33.392497 -25.838560 52.887461 -0.809043 2.081232 0.014436 -0.006629 -614290.000000 0 0 1
-31.161794 34.068097 -26.916440 53.443310 -0.829923 2.098609 0.010112 -0.006955 -180423.000000 0 0 1
-32.061904 -33.877220 -27.581980 54.188535 0.812921 2.104819 0.007745 -0.006295 -321901.000000 0 0 1
-31.404434 -33.086120 -28.736530 53.913987 0.811469 2.132947 0.017952 -0.006246 200001.000000 0 0 1
-31.179714 -33.779620 -29.958710 54.870407 0.825400 2.148367 0.026186 -0.003050 547793.000000 0 0 1
-32.399784 -33.887520 -30.684570 56.032605 0.807838 2.150313 0.017833 -0.002050 402091.000000 0 0 1
-32.116574 33.992997 -31.960900 56.643599 -0.813774 2.170316 0.029920 0.002320 141789.000000 0 0 1
-31.255074 -34.077020 -32.828010 56.708035 0.828565 2.188169 0.037530 -0.015510 -207964.000000 0 0 1
-31.355634 34.117697 -34.150051 57.562306 -0.827559 2.205913 0.023783 -0.019175 -19716.200000 0 0 1
-30.346274 -34.118320 33.505763 56.635610 0.843845 0.937751 0.031773 -0.020061 502650.000000 0 0 1
-29.037834 34.121297 33.416515 55.893848 -0.865712 0.929972 0.036630 -0.014086 46058.800000 0 0 1
-28.878194 32.724797 33.167033 54.817101 -0.847759 0.920969 0.037051 -0.016790 -438831.000000 0 0 1
-27.441084 32.156197 33.182376 53.741085 -0.864350 0.905301 0.024223 -0.010397 -356105.000000 0 0 1
-27.056934 31.818697 -34.190260 53.976671 -0.866101 2.256770 0.030896 -0.011101 246441.000000 0 0 1
-25.719204 31.398197 -34.003910 52.948939 -0.884499 2.268164 0.030881 -0.010725 -30998.100000 0 0 1
-25.394154 29.972197 34.103475 52.021560 -0.867897 0.855867 0.036832 -0.016689 -487176.000000 0 0 1
-25.712384 28.854397 -33.796140 51.340842 -0.842916 2.289315 0.036105 -0.011473 -57708.800000 0 0 1
-25.266004 27.625897 -34.212488 50.715436 -0.829986 2.311215 0.035179 -0.013448 -323515.000000 0 0 1
-25.143824 26.629497 -33.047290 49.330167 -0.814086 2.304898 0.045739 -0.020542 -159941.000000 0 0 1
-24.101664 26.741697 -32.093060 48.228343 -0.837276 2.298879 0.054815 -0.016823 -224399.000000 0 0 1
-24.138864 27.880797 -31.211910 48.313631 -0.857208 2.273164 0.044257 -0.011449 28799.900000 0 0 1
-22.955764 28.012997 -30.209190 47.162382 -0.884297 2.265992 0.059996 -0.012915 519136.000000 0 0 1
-21.703264 28.270297 -30.894940 47.167136 -0.916060 2.284992 0.055093 -0.013609 600177.000000 0 0 1
-20.582864 28.131497 -30.048550 46.021199 -0.939133 2.282241 0.049539 -0.012955 174330.000000 0 0 1
-20.436764 29.333797 -29.050120 46.065632 -0.962291 2.253154 0.034485 -0.002658 -913137.000000 0 0 1
-19.955464 30.425197 -29.798040 47.030164 -0.990294 2.256986 0.024898 0.008106 222219.000000 0 0 1
-19.548764 31.509897 -28.948860 47.043217 -1.015511 2.233648 0.030045 0.002517 110132.000000 0 0 1
-19.166764 32.753297 -29.802840 48.253006 -1.041341 2.236531 0.036683 0.004753 603301.000000 0 0 1
-17.952764 32.613497 -30.550910 48.159112 -1.067592 2.257995 0.046297 0.000936 320140.000000 0 0 1
-17.786764 33.715697 -31.443040 49.414390 -1.085351 2.260506 0.040319 0.011448 771905.000000 0 0 1
-16.284964 34.012097 -31.798420 49.327095 -1.124253 2.271354 0.050360 0.010651 -314191.000000 0 0 1
-15.547664 -34.155620 -30.749770 48.516848 1.143626 2.257247 0.063602 0.006876 322236.000000 0 0 1
-14.154764 -34.034520 -31.015100 48.173046 1.176663 2.270285 0.079591 0.008493 702053.000000 0 0 1
-13.368564 33.402197 -31.173480 47.604739 -1.190092 2.284767 0.090306 0.003356 -1273280.000000 0 0 1
-13.323764 32.790297 -29.936640 46.356539 -1.184843 2.272855 0.089379 -0.005819 -98060.800000 0 0 1
-12.645664 31.570297 -29.923720 45.299288 -1.189811 2.292385 0.083436 -0.001263 -225449.000000 0 0 1
-12.261564 31.116497 -28.501100 43.941951 -1.195427 2.276550 0.068436 -0.004940 578838.000000 0 0 1
-11.195064 31.857997 -27.864160 43.779822 -1.232870 2.260698 0.055528 -0.001340 428498.000000 0 0 1
-10.885364 31.208597 -26.632540 42.447142 -1.235197 2.249043 0.029754 -0.001786 445154.000000 0 0 1
-9.447464 31.528797 -26.121520 42.019679 -1.279665 2.241643 0.019907 -0.003433 814200.000000 0 0 1
-8.454164 30.722697 -26.756160 41.608282 -1.302266 2.269269 0.033272 -0.000533 -36721.500000 0 0 1
-7.159464 30.973597 -26.261000 41.234231 -1.343639 2.261233 0.037468 -0.007362 694287.000000 0 0 1
-6.039964 29.962497 -26.753600 40.620038 -1.371878 2.289794 0.014594 0.000925 406011.000000 0 0 1
-5.969964 28.737697 -26.037270 39.235636 -1.365970 2.296434 0.021571 -0.005813 57949.400000 0 0 1
-4.788964 28.037997 -26.411310 38.815213 -1.401626 2.319155 0.021494 -0.011529 364284.000000 0 0 1
-4.420464 26.887897 -25.474120 37.301881 -1.407850 2.322546 0.026671 -0.019291 -351007.000000 0 0 1
-5.306564 25.825297 -25.569100 36.727163 -1.368138 2.340873 0.038260 -0.013907 -339676.000000 0 0 1
-5.079064 24.971297 -24.526140 35.367981 -1.370137 2.337071 0.027530 -0.025008 147337.000000 0 0 1
-6.033764 23.724797 -24.525140 34.651909 -1.321753 2.357115 0.042171 -0.021163 380633.000000 0 0 1
-5.754164 22.869697 -25.635680 34.832765 -1.324306 2.397887 0.046723 -0.022360 727060.000000 0 0 1
-6.617464 21.701297 -25.530830 34.154947 -1.274819 2.415087 0.049326 -0.025607 194458.000000 0 0 1
-6.574864 20.778897 -26.835160 34.570467 -1.264344 2.459484 0.036206 -0.020346 604459.000000 0 0 1
-5.463764 19.910197 -27.173640 34.127341 -1.302969 2.491855 0.044264 -0.026950 219535.000000 0 0 1
-5.080664 19.013297 -26.169970 32.744250 -1.309681 2.496798 0.043490 -0.028929 218006.000000 0 0 1
-3.876964 18.064597 -26.482050 32.290238 -1.359387 2.532427 0.032205 -0.031242 236962.000000 0 0 1
-4.100164 17.403897 -27.706560 32.975149 -1.339426 2.568495 0.037845 -0.034825 -81789.500000 0 0 1
-3.135864 16.396697 -28.048100 32.640178 -1.381828 2.604719 0.035567 -0.032026 126423.000000 0 0 1
-2.796964 16.471397 -29.568460 33.962093 -1.402593 2.627280 0.046787 -0.030136 69365.700000 0 0 1
-2.027764 17.582497 -30.002250 34.833763 -1.455975 2.608615 0.054215 -0.038091 152666.000000 0 0 1
-1.891864 17.676597 -31.422290 36.102653 -1.464176 2.626728 0.059318 -0.034608 -101856.000000 0 0 1
-1.096564 18.923197 -31.962920 37.160706 -1.512913 2.606315 0.067929 -0.028724 -48621.100000 0 0 1
0.269536 18.880397 -31.599810 36.811547 1.556521 2.602980 0.070813 -0.036869 12482.200000 0 0 1
0.969336 20.072297 -31.969570 37.760960 1.522542 2.580417 0.069759 -0.022475 408384.000000 0 0 1
0.657436 21.375297 -31.166190 37.797711 1.540049 2.540207 0.064851 -0.023096 87572.100000 0 0 1
1.439736 21.283897 -29.956180 36.775669 1.503255 2.522776 0.068623 -0.041914 227587.000000 0 0 1
1.208036 22.437397 -29.123500 36.784159 1.517008 2.484449 0.069826 -0.035431 209289.000000 0 0 1
2.227936 22.557397 -27.937730 35.976612 1.472348 2.459972 0.066283 -0.023831 116249.000000 0 0 1
3.531636 22.600697 -28.474530 36.524825 1.415788 2.464813 0.053032 -0.024506 -555899.000000 0 0 1
4.552836 22.721397 -27.519170 35.976310 1.373039 2.441721 0.058058 -0.028084 -74053.900000 0 0 1
5.030536 24.182097 -27.390420 36.882451 1.365694 2.407802 0.063481 -0.029857 66234.700000 0 0 1
5.883636 24.658197 -28.481320 38.129115 1.336568 2.414290 0.055444 -0.030615 510959.000000 0 0 1
5.993736 26.067297 -28.369560 38.990522 1.344791 2.385615 0.046448 -0.031658 -224893.000000 0 0 1
6.861536 26.763397 -29.455740 40.385650 1.319824 2.388185 0.058233 -0.018318 434496.000000 0 0 1
8.260736 26.489597 -29.398490 40.425360 1.268505 2.385072 0.050708 -0.010264 426665.000000 0 0 1
8.959336 27.368597 -30.247240 41.763684 1.254433 2.380739 0.055368 -0.013258 -804735.000000 0 0 1
10.446736 27.361497 -29.945560 41.887019 1.206074 2.367295 0.052946 -0.007366 -628616.000000 0 0 1
11.120236 28.306397 -30.783330 43.272684 1.196467 2.362256 0.063091 -0.012981 -469022.000000 0 0 1
12.374336 28.621897 -30.265950 43.455321 1.162727 2.341283 0.049029 -0.014811 -519928.000000 0 0 1
13.149236 29.625897 -31.147340 44.952786 1.153075 2.336286 0.056451 -0.012303 -278714.000000 0 0 1
12.694936 30.960897 -30.990640 45.608753 1.181672 2.317862 0.066010 -0.010990 -3977.060000 0 0 1
13.455436 31.810097 -31.768410 46.927209 1.170627 2.314437 0.091600 -0.018994 -348967.000000 0 0 1
12.950536 33.259897 -31.769330 47.783129 1.199484 2.298109 0.098604 -0.024880 -468387.000000 0 0 1
11.843836 33.484997 -32.566300 48.188021 1.230824 2.312869 0.087313 -0.021423 -660033.000000 0 0 1
10.971036 -34.321920 -32.030110 48.210847 -1.261410 2.297454 0.080551 -0.013322 -842610.000000 0 0 1
9.767336 -34.179520 -32.931300 48.457310 -1.292449 2.318005 0.061953 -0.005618 -786847.000000 0 0 1
10.069336 -33.481420 -34.156065 48.877743 -1.278657 2.344523 0.047572 0.003999 395460.000000 0 0 1
8.932636 -33.449920 33.709443 48.322000 -1.309841 0.798754 0.057123 -0.003104 310189.000000 0 0 1
9.070036 -32.681020 32.408673 46.910944 -1.300077 0.808125 0.058155 -0.005516 -90366.400000 0 0 1
9.129836 -31.290720 32.475043 46.011862 -1.286903 0.787249 0.043113 -0.013013 97339.700000 0 0 1
9.415336 -30.848220 31.145973 44.836735 -1.274562 0.802859 0.050725 -0.013568 -266859.000000 0 0 1
9.071636 -29.339020 30.968833 43.613545 -1.270920 0.781193 0.037999 -0.028807 1048200.000000 0 0 1
7.671736 -28.992320 30.929493 43.081825 -1.312113 0.769980 0.029499 -0.012984 873995.000000 0 0 1
7.116236 -28.846020 32.242983 43.844539 -1.328928 0.744549 0.028217 -0.002163 730067.000000 0 0 1
5.542536 -28.652320 32.244213 43.489820 -1.379715 0.735613 0.019829 -0.006167 1605290.000000 0 0 1
4.705136 -29.805920 31.958763 43.953313 -1.414229 0.756698 0.029618 -0.015732 521396.000000 0 0 1
4.809036 -30.403520 30.662443 43.447511 -1.413922 0.787336 0.036920 -0.018825 -597779.000000 0 0 1
4.370336 -29.515120 29.481473 41.945195 -1.423793 0.791390 0.015361 -0.017900 -487958.000000 0 0 1
2.984836 -29.543920 29.263913 41.690875 -1.470108 0.792698 0.031405 -0.025220 -2125.460000 0 0 1
2.502836 -28.734320 28.178033 40.322783 -1.483913 0.797061 0.047905 -0.026031 371178.000000 0 0 1
1.174536 -29.277420 27.582123 40.240780 -1.530700 0.815606 0.040020 -0.022344 239551.000000 0 0 1
1.384136 -30.513320 26.934183 40.723810 -1.525466 0.848130 0.041456 -0.032005 73372.200000 0 0 1
0.949936 -31.600320 27.694473 42.029352 -1.540744 0.851399 0.066305 -0.037750 -696251.000000 0 0 1
1.184236 -32.988320 27.015183 42.655032 -1.534913 0.884933 0.067850 -0.042381 -193399.000000 0 0 1
2.516536 -33.407220 26.818263 42.913803 -1.495609 0.895750 0.057846 -0.036022 -50496.900000 0 0 1
3.121236 -32.759420 25.704103 41.756707 -1.475806 0.907690 0.052934 -0.040833 -636804.000000 0 0 1
4.642436 -32.666120 25.872443 41.928641 -1.429624 0.905797 0.044842 -0.025926 -84984.600000 0 0 1
5.335736 -32.405420 24.654873 41.066338 -1.407605 0.926836 0.039046 -0.040559 1119340.000000 0 0 1
6.708536 -32.010420 24.873893 41.089926 -1.364213 0.920588 0.035093 -0.036739 854004.000000 0 0 1
7.489336 -31.628420 23.588783 40.160650 -1.338287 0.943003 0.026057 -0.026726 312895.000000 0 0 1
8.792436 -31.113820 23.834773 40.168061 -1.295388 0.935549 0.018077 -0.020313 423353.000000 0 0 1
9.518236 -30.797420 22.664183 39.404861 -1.271049 0.957994 0.007615 -0.015641 -260775.000000 0 0 1
10.777436 -29.981620 22.940983 39.259895 -1.225712 0.946734 0.001039 -0.009964 -422883.000000 0 0 1
11.869136 -30.762320 23.329683 40.391470 -1.202562 0.955024 0.021852 -0.021478 279890.000000 0 0 1
13.101136 -30.022820 23.375183 40.241877 -1.159333 0.951003 0.047638 -0.021878 456294.000000 0 0 1
14.208536 -30.705620 24.198853 41.596900 -1.137403 0.949922 0.065686 -0.024156 -433962.000000 0 0 1
14.211536 -30.516320 25.592143 42.286775 -1.134961 0.920774 0.059375 -0.026696 75480.100000 0 0 1
14.560036 -29.179820 25.987343 41.698903 -1.107968 0.897951 0.045231 -0.023263 -326678.000000 0 0 1
-10.608064 -14.471803 25.965433 31.562126 0.938254 0.604693 0.052282 -0.021011 -1080460.000000 0 0 1
-9.314964 -14.384803 25.481373 30.708166 0.996141 0.592062 0.048793 -0.017231 -1435650.000000 0 0 1
-8.545564 -14.699003 26.595193 31.565672 1.044188 0.568823 0.058960 -0.019187 482358.000000 0 0 1
-6.987964 -14.573503 26.398153 30.952885 1.123684 0.549378 0.060865 -0.010733 904891.000000 0 0 1
-6.245464 -15.384303 25.499773 30.428950 1.185160 0.577170 0.056258 -0.013922 296956.000000 0 0 1
-6.623064 -15.233703 24.119873 29.286497 1.160685 0.603096 0.062096 -0.018738 -614867.000000 0 0 1
-6.074464 -16.329703 23.225283 29.033981 1.214668 0.643610 0.062979 -0.027115 -350237.000000 0 0 1
-6.693464 -17.587803 23.156883 29.839143 1.207148 0.682407 0.072190 -0.029293 -440871.000000 0 0 1
-6.893264 -18.288503 24.358613 31.230249 1.210345 0.676181 0.067905 -0.025326 -174297.000000 0 0 1
-7.463664 -19.747703 24.105353 32.042879 1.209441 0.719274 0.074626 -0.031198 -578539.000000 0 0 1
-8.795064 -19.679003 23.709113 32.042758 1.150501 0.737843 0.067966 -0.031120 -1194980.000000 0 0 1
-9.297564 -20.961203 23.504283 32.836992 1.153310 0.773046 0.065047 -0.034171 -877385.000000 0 0 1
-10.809464 -20.857403 23.521383 33.243514 1.092651 0.784774 0.041087 -0.028399 -783377.000000 0 0 1
-11.341664 -20.595003 24.813623 34.183378 1.067416 0.758458 0.039538 -0.025102 44934.000000 0 0 1
-12.745164 -20.778303 24.855003 34.813047 1.020591 0.775664 0.040459 -0.014740 269280.000000 0 0 1
-13.207364 -20.954003 26.383073 36.187998 1.008393 0.753855 0.038597 -0.018344 -170996.000000 0 0 1
-12.936964 -22.188903 27.020793 37.280500 1.042943 0.760057 0.040784 -0.015864 173873.000000 0 0 1
-12.123264 -22.080003 28.191493 37.805559 1.068674 0.729216 0.042631 -0.015136 242323.000000 0 0 1
-11.874564 -23.456103 28.818173 39.008731 1.102164 0.739565 0.039111 -0.016449 785988.000000 0 0 1
-12.980664 -23.880403 29.660723 40.230955 1.072903 0.741789 0.025507 -0.008347 648374.000000 0 0 1
-12.560664 -25.006803 30.397973 41.317638 1.105318 0.744076 0.033620 -0.003337 382391.000000 0 0 1
-13.600264 -25.512453 31.467553 42.732415 1.081034 0.743083 0.033719 -0.006159 407412.000000 0 0 1
-13.623464 -24.892203 32.758181 43.339577 1.070030 0.713846 0.055463 -0.017146 -400984.000000 0 0 1
-14.725164 -25.288353 33.515224 44.492712 1.043500 0.717770 0.042552 -0.010435 -468362.000000 0 0 1
-14.727664 -24.710003 -33.823190 44.401537 1.033308 2.436817 0.044077 -0.011928 -77447.200000 0 0 1
-14.673364 -23.304503 -33.672350 43.499823 1.008870 2.456057 0.054136 -0.016777 -170554.000000 0 0 1
-15.715064 -22.566003 -34.256669 43.928431 0.962488 2.465189 0.040626 -0.018901 -353140.000000 0 0 1
-15.677764 -21.113903 -33.877480 42.886744 0.932091 2.481489 0.036559 -0.022643 40419.400000 0 0 1
-15.893964 -20.891503 -32.495820 41.773811 0.920428 2.462112 0.034588 -0.017708 203464.000000 0 0 1
-16.337764 -19.527603 -32.345020 41.163699 0.874104 2.474729 0.026227 -0.020581 -281264.000000 0 0 1
-16.468464 -18.889303 -30.940570 39.816264 0.853758 2.460815 0.012045 -0.010920 29616.900000 0 0 1
-17.534064 -19.470103 -30.222750 39.999286 0.837670 2.427339 0.020452 -0.016616 6707.400000 0 0 1
-17.329564 -19.358403 -28.809010 38.794595 0.840642 2.407746 0.028117 -0.007363 452848.000000 0 0 1
-16.311764 -20.340903 -28.133740 38.357962 0.894886 2.394183 0.014366 -0.003820 997905.000000 0 0 1
-14.910764 -20.114103 -28.319120 37.800536 0.932881 2.417608 0.008946 0.001460 582131.000000 0 0 1
-14.219564 -21.235903 -27.745010 37.721945 0.980766 2.397221 -0.005393 0.004962 397204.000000 0 0 1
-12.686164 -21.040003 -27.900550 37.176083 1.028207 2.419611 0.017057 -0.002336 -57011.900000 0 0 1
-12.131164 -20.054103 -27.014280 35.764556 1.026766 2.426964 0.013413 -0.005839 -195375.000000 0 0 1
-10.736064 -20.186503 -26.944010 35.337482 1.081999 2.437929 -0.001281 -0.008311 -95903.600000 0 0 1
-10.138764 -21.262603 -25.994430 35.079954 1.125851 2.405362 0.006570 -0.012574 -589041.000000 0 0 1
-9.901864 -22.508703 -26.637810 36.252745 1.156363 2.396139 0.011625 -0.018124 290120.000000 0 0 1
-9.448364 -23.451803 -25.646660 36.014022 1.187806 2.363324 0.028047 -0.021655 -181508.000000 0 0 1
-9.570364 -24.931403 -25.998990 37.270822 1.204274 2.342796 0.027935 -0.019982 -409940.000000 0 0 1
-8.643964 -25.355243 -26.984300 38.023136 1.242239 2.359842 0.034886 -0.023283 106771.000000 0 0 1
-8.800964 -26.641633 -27.505240 39.290861 1.251737 2.346252 0.029465 -0.023897 -204370.000000 0 0 1
-8.592864 -27.867983 -26.603740 39.474305 1.271704 2.310340 0.028162 -0.027870 -322058.000000 0 0 1
-9.557464 -28.054253 -25.593610 39.158895 1.242450 2.283106 0.027269 -0.027754 -103168.000000 0 0 1
-9.322664 -29.251493 -24.867940 39.509193 1.262266 2.251605 0.058099 -0.028799 -140627.000000 0 0 1
-10.285464 -29.462633 -23.647540 39.154101 1.234922 2.219258 0.057319 -0.032249 120773.000000 0 0 1
-10.373264 -28.385063 -22.713940 37.805283 1.220426 2.215315 0.043702 -0.038630 -98358.600000 0 0 1
-11.312064 -27.370013 -23.077240 37.545164 1.178876 2.232742 0.037132 -0.026301 -106148.000000 0 0 1
-11.250664 -26.193353 -22.146840 36.099192 1.165100 2.231281 0.037471 -0.024418 -27076.800000 0 0 1
-11.801464 -26.547653 -20.880840 35.777952 1.152493 2.193980 0.034072 -0.029701 345551.000000 0 0 1
-11.804264 -25.513703 -19.916340 34.452144 1.137461 2.187179 0.027867 -0.021922 -148845.000000 0 0 1
-12.414264 -26.040413 -18.594240 34.321463 1.125937 2.143334 0.046679 -0.024703 739894.000000 0 0 1
-13.843564 -26.035043 -18.588440 34.856819 1.082090 2.133269 0.061483 -0.026674 515093.000000 0 0 1
-14.423064 -26.732543 -17.518340 35.064880 1.076025 2.093931 0.073138 -0.016215 71809.100000 0 0 1
-15.962364 -26.808563 -17.472740 35.760212 1.033751 2.081290 0.084767 -0.025050 -1022380.000000 0 0 1
-16.616964 -25.536433 -17.419140 35.095004 0.993918 2.090177 0.075638 -0.015796 1184140.000000 0 0 1
-18.024464 -25.559923 -17.090940 35.641144 0.956599 2.070913 0.092582 -0.012902 1449540.000000 0 0 1
-18.945664 -26.236863 -18.172240 37.115245 0.945391 2.082446 0.077462 -0.011081 -984890.000000 0 0 1
-18.788764 -27.664973 -18.358740 38.149858 0.974199 2.072850 0.081670 -0.014266 -59895.400000 0 0 1
-19.071964 -28.616743 -17.301340 38.496677 0.982936 2.036917 0.084877 -0.016070 -813453.000000 0 0 1
-20.519664 -29.027463 -17.022440 39.413369 0.955451 2.017389 0.066326 -0.004443 -331411.000000 0 0 1
-21.059964 -29.836803 -18.044540 40.735271 0.956163 2.029706 0.057751 -0.002431 -348107.000000 0 0 1
-22.263264 -30.409993 -17.604440 41.597318 0.938848 2.007783 0.056108 0.003877 -158656.000000 0 0 1
-22.760264 -31.401663 -18.701340 43.056174 0.943612 2.020110 0.035593 0.005045 81605.400000 0 0 1
-21.952364 -32.584193 -18.809140 43.559381 0.977932 2.017289 0.033660 0.002663 337411.000000 0 0 1
-22.365564 -33.440913 -19.871540 44.870828 0.981312 2.029583 0.019969 0.013514 60031.800000 0 0 1
-21.697964 33.921580 -19.880140 44.907630 -1.001731 2.029392 0.016871 0.009409 297755.000000 0 0 1
-22.331164 33.029042 -18.944040 44.141536 -0.976287 2.014365 0.015638 0.002570 240794.000000 0 0 1
-21.567364 31.868545 -18.729240 42.796493 -0.975838 2.023763 0.015252 -0.001512 83001.500000 0 0 1
-22.430264 30.737455 -18.068240 42.123262 -0.940390 2.014112 0.019057 -0.015425 596602.000000 0 0 1
-22.905664 30.860735 -16.687140 41.898867 -0.932289 1.980428 0.014882 -0.014038 3775.870000 0 0 1
-23.544264 29.652365 -16.274140 41.212168 -0.899719 1.976741 0.007915 -0.007004 -5317.000000 0 0 1
-22.671864 28.367995 -16.021040 39.691690 -0.896540 1.986285 0.009823 -0.018527 -74063.900000 0 0 1
-22.103264 27.876375 -17.214240 39.521850 -0.900398 2.021460 0.010142 -0.017611 4723.820000 0 0 1
-21.566764 26.564715 -17.043440 38.226800 -0.888867 2.032921 0.011286 -0.014768 -85969.600000 0 0 1
-21.117464 26.036905 -18.386840 38.235371 -0.889348 2.072461 0.021091 -0.019507 -931286.000000 0 0 1
-20.724464 24.714405 -18.329140 37.098013 -0.872983 2.087565 0.015802 -0.023404 73678.700000 0 0 1
-20.127464 24.205485 -19.553540 37.058889 -0.877126 2.126610 0.012246 -0.017716 -613971.000000 0 0 1
-18.706464 24.658585 -19.784340 36.734149 -0.921802 2.139549 0.013895 -0.024342 -1316830.000000 0 0 1
-17.771464 23.986785 -18.902440 35.334021 -0.933154 2.135262 0.030085 -0.032222 853435.000000 0 0 1
-16.571564 24.717145 -18.665940 35.127928 -0.980180 2.131014 0.040829 -0.043072 8798.080000 0 0 1
-16.623764 25.875755 -17.621340 35.445957 -0.999750 2.091087 0.038421 -0.038438 -392490.000000 0 0 1
-17.494764 26.872695 -18.100540 36.821706 -0.993702 2.084691 0.032582 -0.028380 -142290.000000 0 0 1
-17.363264 28.020595 -17.304540 37.230146 -1.016046 2.054204 0.035409 -0.034719 27201.700000 0 0 1
-18.301664 29.221615 -17.659940 38.739220 -1.011259 2.044143 0.036575 -0.024238 146718.000000 0 0 1
-18.140464 29.744495 -18.952140 39.661001 -1.023146 2.069006 0.018403 -0.022439 200422.000000 0 0 1
-18.819764 29.017855 -19.975240 39.940326 -0.995435 2.094542 0.015989 -0.019879 -296726.000000 0 0 1
-18.630864 29.540485 -21.457140 40.989733 -1.008116 2.121722 0.011756 -0.021669 -287131.000000 0 0 1
-19.119064 30.828515 -21.655840 42.248211 -1.015674 2.108990 0.020380 -0.016657 62806.700000 0 0 1
-19.585964 30.987065 -22.965040 43.257384 -1.007130 2.130450 0.019021 -0.014316 82609.300000 0 0 1
-20.433664 32.183975 -23.367940 44.714690 -1.005108 2.120695 0.018136 -0.006400 545613.000000 0 0 1
-19.582364 33.368967 -23.499440 45.267876 -1.040107 2.116617 0.005640 -0.001373 740675.000000 0 0 1
-20.274464 -34.339421 -24.145840 46.618358 1.037455 2.115246 0.012619 0.003805 -737391.000000 0 0 1
-19.556064 -33.037303 -24.215540 45.390477 1.036325 2.133522 0.019039 0.004822 -351749.000000 0 0 1
-19.375664 -32.236343 -23.035240 44.104653 1.029605 2.120326 0.027789 -0.000079 -110421.000000 0 0 1
-18.473364 -32.830543 -22.155840 43.703443 1.058264 2.102449 0.029729 -0.009604 -744358.000000 0 0 1
-18.308064 -31.988693 -20.850540 42.346271 1.050972 2.085621 0.046002 -0.014043 -205865.000000 0 0 1
-17.517864 -30.864513 -21.124940 41.300808 1.054562 2.107714 0.056529 -0.020735 -117982.000000 0 0 1
-17.241764 -30.211373 -19.895640 40.072958 1.052196 2.090342 0.062723 -0.016092 -954813.000000 0 0 1
-16.057964 -29.282973 -20.039340 38.947732 1.069204 2.111243 0.072393 -0.026813 -176881.000000 0 0 1
-14.873364 -30.080143 -20.122040 39.127080 1.111592 2.110957 0.067282 -0.028437 -69984.700000 0 0 1
-13.756664 -29.335953 -20.531840 38.358837 1.132308 2.135608 0.052815 -0.032265 -727055.000000 0 0 1
-12.472564 -30.182263 -20.627840 38.626954 1.178927 2.134153 0.071626 -0.036718 -222106.000000 0 0 1
-11.907664 -30.673193 -19.446440 38.220429 1.200494 2.104583 0.066174 -0.031519 -84417.400000 0 0 1
-11.277364 -29.685663 -18.642540 36.823386 1.207743 2.101649 0.039773 -0.027820 -1040610.000000 0 0 1
-10.488064 -30.396723 -17.521440 36.619135 1.238548 2.069717 0.043300 -0.010939 -694782.000000 0 0 1
-11.097164 -31.098353 -16.487340 36.906462 1.228040 2.033907 0.066418 -0.019246 -380970.000000 0 0 1
-11.507164 -32.401223 -16.869040 38.299067 1.229544 2.026902 0.073719 -0.015025 -543066.000000 0 0 1
-12.396764 -33.185853 -15.887240 38.825056 1.213292 1.992374 0.079035 -0.014511 -546341.000000 0 0 1
-11.824264 -33.444283 -14.648040 38.378358 1.230961 1.962404 0.068807 -0.014599 -266093.000000 0 0 1
-12.749664 -34.111960 -13.794540 38.941868 1.213114 1.932891 0.069432 -0.013629 -116210.000000 0 0 1
-12.349764 34.362692 -12.329540 38.539964 -1.225777 1.896437 0.049378 -0.007828 -95937.100000 0 0 1
-12.452064 -33.219643 -11.553240 37.310533 1.212166 1.885622 0.022519 -0.000933 217071.000000 0 0 1
-12.009164 -33.423943 -10.210540 36.954500 1.225862 1.850739 0.027592 -0.006306 716753.000000 0 0 1
-10.684664 -32.684073 -9.723540 35.734547 1.254840 1.846376 0.024853 -0.006543 704125.000000 0 0 1
-9.513664 -33.237343 -10.227940 36.053315 1.292016 1.858436 0.015120 -0.002003 -1375130.000000 0 0 1
-8.373564 -32.603883 -9.790440 35.056846 1.319402 1.853833 0.013061 -0.007146 -1523510.000000 0 0 1
-7.147664 -33.217973 -10.364040 35.523740 1.358853 1.866852 0.010207 -0.012377 -981629.000000 0 0 1
-6.768664 34.259367 -9.814640 36.274594 -1.375737 1.844776 0.005053 -0.000955 -742639.000000 0 0 1
-5.553964 33.855956 -10.341640 35.833250 -1.408198 1.863565 0.013135 0.000713 -476190.000000 0 0 1
-4.856764 32.769573 -9.484140 34.458409 -1.423658 1.849630 0.016618 -0.001024 424996.000000 0 0 1
-4.106064 33.313901 -8.356240 34.590497 -1.448161 1.814786 0.022628 -0.005250 524789.000000 0 0 1
-3.457464 32.305805 -7.575240 33.361705 -1.464179 1.799858 0.024389 -0.015460 -44913.300000 0 0 1
-3.043364 32.788948 -6.234240 33.514817 -1.478245 1.757901 0.024329 -0.013136 -314786.000000 0 0 1
-2.132264 33.894057 -6.242840 34.530084 -1.507969 1.752590 0.019880 -0.014258 243408.000000 0 0 1
-1.716664 34.343565 -4.949840 34.740874 -1.520853 1.713762 0.023227 -0.011331 208925.000000 0 0 1
-0.793564 33.390824 -4.122540 33.653710 -1.547035 1.693604 0.034792 -0.018617 -687864.000000 0 0 1
0.485336 33.401115 -4.686640 33.731804 1.556267 1.710186 0.038690 -0.018693 -593256.000000 0 0 1
1.382836 32.686485 -3.850040 32.941484 1.528516 1.687939 0.035252 -0.019277 14190.100000 0 0 1
2.871936 32.714765 -4.225640 33.111326 1.483234 1.698764 0.037767 -0.009535 -114174.000000 0 0 1
3.518336 33.908222 -3.848640 34.306825 1.467406 1.683216 0.032469 -0.007180 -1300170.000000 0 0 1
4.876036 33.730762 -4.019240 34.317551 1.427233 1.688185 0.034775 -0.005232 -739175.000000 0 0 1
5.712036 -33.883333 -3.415840 34.530791 -1.403787 1.669880 0.033982 -0.003922 -17562.100000 0 0 1
5.517036 -32.696663 -4.172340 33.420321 -1.403637 1.695967 0.033690 -0.003650 -155973.000000 0 0 1
5.887636 -31.527293 -3.518140 32.264713 -1.386176 1.680053 0.029333 -0.012407 -123027.000000 0 0 1
5.720436 -30.258813 -4.370740 31.103416 -1.383951 1.711786 0.026824 -0.008209 -754740.000000 0 0 1
6.602636 -30.135453 -5.403840 31.319990 -1.355106 1.744200 0.035304 -0.015921 -916967.000000 0 0 1
6.527636 -29.004393 -6.223040 30.374184 -1.349428 1.777137 0.025917 -0.010678 -257681.000000 0 0 1
6.896836 -27.593653 -5.635140 28.995358 -1.325871 1.766387 0.025301 -0.011425 115543.000000 0 0 1
6.177436 -27.206923 -4.498140 28.259699 -1.347528 1.730648 0.023238 -0.019731 -238771.000000 0 0 1
6.804636 -26.033023 -3.987240 27.201460 -1.315132 1.717908 0.014209 -0.012201 -25537.200000 0 0 1
5.852436 -25.290603 -3.043440 26.136719 -1.343392 1.687504 0.012019 -0.007805 -154156.000000 0 0 1
4.802636 -24.732803 -3.786240 25.477685 -1.379002 1.719959 0.020852 -0.011394 -326661.000000 0 0 1
3.885336 -24.001503 -2.994940 24.497706 -1.410310 1.693357 0.020111 -0.013045 530250.000000 0 1 0
2.801536 -23.168603 -3.745040 23.635949 -1.450461 1.729914 0.029743 -0.010832 724666.000000 0 1 0
1.856936 -24.006203 -4.391740 24.475158 -1.493598 1.751210 0.029095 -0.012335 -216242.000000 0 1 0
0.678636 -23.364003 -4.816340 23.864918 -1.541758 1.774009 0.024404 -0.005361 -17220.700000 0 1 0
-15.466064 23.103097 18.158383 33.206613 -0.980878 0.992223 -0.000135 -0.004730 -291722.000000 0 0 1
-15.411264 22.487897 19.462383 33.496223 -0.969995 0.950800 0.014856 0.002577 169195.000000 0 0 1
-14.849264 23.330997 20.437483 34.387887 -1.003998 0.934374 0.013484 0.007115 -803530.000000 0 0 1
-14.754764 22.815597 21.902083 34.899223 -0.996747 0.892354 0.026333 0.000282 -737582.000000 0 0 1
-13.727764 21.908297 22.135983 34.035669 -1.011046 0.862717 0.025296 0.002239 396201.000000 0 0 1
-12.378564 22.378397 22.150483 33.832904 -1.065539 0.857008 0.009211 -0.002391 239948.000000 0 0 1
-11.917264 23.527597 23.083683 35.048901 -1.101944 0.851821 0.032155 0.011206 -955697.000000 0 0 1
-11.951864 23.154697 24.448283 35.731017 -1.094293 0.817247 0.027931 0.006864 134887.000000 0 0 1
-11.820864 24.336197 25.260373 37.014453 -1.118628 0.819692 0.044765 0.004499 98474.300000 0 0 1
-11.264764 23.816997 26.622733 37.455496 -1.129004 0.780185 0.045293 -0.001403 -121266.000000 0 0 1
-9.966364 23.292197 26.629173 36.755513 -1.166485 0.760495 0.017067 -0.006744 -387662.000000 0 0 1
-9.639264 22.729297 27.896233 37.252331 -1.169697 0.724478 0.013950 -0.007869 167214.000000 0 0 1
-8.142564 22.213597 27.930163 36.603815 -1.219448 0.702793 0.002082 -0.009079 1243820.000000 0 0 1
-7.195664 23.191597 28.304893 37.293360 -1.269944 0.709052 0.008195 -0.008859 -146158.000000 0 0 1
-6.858964 24.059597 27.307543 37.035274 -1.293081 0.741674 -0.001631 -0.007241 -995662.000000 0 0 1
-5.933264 25.227797 27.692853 37.928083 -1.339807 0.752268 0.006500 -0.013316 157084.000000 0 0 1
-4.564764 24.881297 27.731473 37.535991 -1.389352 0.739513 0.015853 -0.014264 -268409.000000 0 0 1
-3.738964 25.955797 28.093363 38.430721 -1.427729 0.750991 0.028226 -0.007973 1222010.000000 0 0 1
-2.188664 25.650097 27.970533 38.014056 -1.485675 0.743957 0.031081 -0.002843 1031730.000000 0 0 1
-1.699564 25.505897 26.671113 36.943031 -1.504261 0.764176 0.032285 -0.010597 -839822.000000 0 0 1
-0.383664 25.066197 26.804113 36.700435 -1.555491 0.751964 0.047555 -0.002326 -386004.000000 0 0 1
0.321436 24.769397 25.508163 35.556894 1.557820 0.770748 0.047559 -0.010179 -178400.000000 0 0 1
-0.244464 23.615897 24.967243 34.367624 -1.560445 0.757617 0.049020 -0.001117 186438.000000 0 0 1
0.212236 23.422697 23.602983 33.253099 1.561735 0.781585 0.050487 -0.000788 284764.000000 0 0 1
-0.363864 22.134297 22.921683 31.866331 -1.554359 0.767992 0.037657 0.001963 95950.500000 0 0 1
0.413436 21.035297 23.297283 31.391369 1.551144 0.734515 0.043578 -0.004190 -169109.000000 0 0 1
0.212336 19.947997 22.467183 30.045665 1.560152 0.726102 0.040848 -0.001230 -114900.000000 0 0 1
1.152836 18.726297 22.697983 29.448288 1.509312 0.690741 0.047107 0.006173 208092.000000 0 0 1
2.397636 19.012297 22.073883 29.231360 1.445349 0.714923 0.045072 -0.005246 -247227.000000 0 0 1
3.219636 17.865397 22.111783 28.608904 1.392494 0.687400 0.036242 -0.000770 -1273760.000000 0 0 1
4.617836 18.159997 21.673283 28.650325 1.321788 0.712888 0.049026 -0.004844 -1520470.000000 0 0 1
5.438936 18.677297 22.670983 29.873013 1.287427 0.709156 0.043146 -0.000618 -360825.000000 0 0 1
6.665536 19.036897 22.040683 29.876822 1.233999 0.741112 0.053084 -0.006106 -1057860.000000 0 0 1
7.711936 19.479497 22.976183 31.093886 1.193829 0.739316 0.060077 -0.017205 -1324460.000000 0 0 1
7.524236 20.662897 23.791603 32.397682 1.221579 0.746071 0.045857 -0.017186 -30351.800000 0 0 1
7.308736 21.857897 23.079283 32.616539 1.248109 0.784708 0.052766 -0.019371 -330279.000000 0 0 1
5.873636 22.371697 23.254083 32.798549 1.314043 0.782721 0.037898 -0.009990 -394988.000000 0 0 1
5.636636 23.706197 22.816583 33.381910 1.337360 0.818248 0.036522 -0.012972 -290742.000000 0 0 1
4.447636 24.247997 23.298183 33.919790 1.389390 0.813635 0.031952 -0.008686 -955394.000000 0 0 1
4.267436 25.653197 22.758083 34.557602 1.405955 0.851899 0.042461 -0.008420 -25746.100000 0 0 1
3.928836 25.900597 21.415883 33.836618 1.420255 0.885477 0.043191 -0.015121 113145.000000 0 0 1
2.776036 25.206797 20.967883 32.905032 1.461108 0.879905 0.044181 -0.018280 -297072.000000 0 0 1
2.405136 25.518397 19.532583 32.225690 1.476823 0.919625 0.050728 -0.013524 -341880.000000 0 0 1
1.752036 26.747397 19.344683 33.056159 1.505387 0.945661 0.055319 -0.020543 191270.000000 0 0 1
1.373336 27.021797 17.983283 32.487875 1.520017 0.984190 0.059553 -0.014727 -161061.000000 0 0 1
0.401936 28.189797 17.829983 33.357675 1.556539 1.006869 0.051927 -0.006236 -128148.000000 0 0 1
0.838636 29.404497 18.393883 34.693842 1.542283 1.011987 0.052369 0.000153 -527687.000000 0 0 1
-0.230064 30.259297 18.426183 35.428833 -1.563193 1.023840 0.038351 0.004703 -558341.000000 0 0 1
0.244536 31.605497 18.972683 36.863667 1.563059 1.030172 0.031708 0.010458 -84650.600000 0 0 1
0.406636 31.692797 20.384483 37.684558 1.557966 0.999261 0.036365 0.003743 63354.400000 0 0 1
0.863736 32.949797 20.914883 39.036746 1.544589 1.005372 0.031098 0.001904 125828.000000 0 0 1
1.521236 32.774797 22.320083 39.682334 1.524415 0.973427 0.037696 -0.016922 61509.300000 0 0 1
0.580836 32.470197 23.320583 39.981254 1.552910 0.948026 0.045581 -0.012595 195961.000000 0 0 1
1.165536 32.583397 24.620463 40.855886 1.535041 0.924020 0.057014 -0.020476 78444.000000 0 0 1
0.191736 32.168497 25.771153 41.218943 1.564836 0.895375 0.060078 -0.020832 164169.000000 0 0 1
-0.893464 33.111497 25.822013 41.999356 -1.543819 0.908640 0.055934 -0.017762 597543.000000 0 0 1
-1.822164 32.809197 26.858963 42.440165 -1.515315 0.885546 0.050645 -0.017411 128118.000000 0 0 1
-1.358464 33.353597 28.191013 43.692575 -1.530090 0.869494 0.059579 -0.023064 848784.000000 0 0 1
-0.166264 32.693997 28.764043 43.546472 -1.565711 0.849263 0.062472 -0.024450 1335680.000000 0 0 1
0.295736 33.361197 29.936943 44.824965 1.561932 0.839462 0.043156 -0.022861 -1442550.000000 0 0 1
1.539636 32.747797 30.525903 44.795306 1.523816 0.821050 0.025903 -0.009511 -245168.000000 0 0 1
2.761736 32.977097 29.834943 44.556032 1.487244 0.837119 0.028730 -0.015933 165341.000000 0 0 1
2.862436 32.392497 28.535753 43.263803 1.482658 0.850542 0.037633 -0.018914 -509607.000000 0 0 1
4.262636 31.896097 27.992193 42.650838 1.437942 0.854878 0.019501 -0.012020 771760.000000 0 0 1
4.634936 30.807697 28.820133 42.440510 1.421469 0.824300 0.015609 -0.013111 474611.000000 0 0 1
6.030536 30.560197 28.608383 42.293411 1.375966 0.827897 0.005416 -0.016531 747807.000000 0 0 1
6.484136 29.234997 29.347053 41.928255 1.352536 0.795490 0.008207 -0.011275 14232.100000 0 0 1
6.636936 29.437797 30.717573 43.060447 1.349048 0.776516 0.015549 -0.009972 45860.300000 0 0 1
7.303536 28.363497 31.305483 42.870303 1.318774 0.752127 0.002176 -0.009663 -285140.000000 0 0 1
7.323936 28.486897 32.869082 44.108048 1.319148 0.729970 0.020470 -0.011985 -224623.000000 0 0 1
6.038436 28.438897 33.459169 44.325496 1.361573 0.715369 0.020911 -0.012335 -176887.000000 0 0 1
6.004636 28.364297 -33.836300 44.558772 1.362179 2.433130 0.033395 -0.012225 -340547.000000 0 0 1
6.117736 26.830497 -33.391240 43.269818 1.346615 2.452303 0.035129 -0.015681 -817617.000000 0 0 1
7.377636 26.365297 -33.720270 43.435182 1.297951 2.459627 0.028293 -0.016720 -668539.000000 0 0 1
7.580136 24.994297 -33.505820 42.483094 1.276338 2.479465 0.039025 -0.020348 -838711.000000 0 0 1
8.948136 24.455797 -33.847700 42.706228 1.220036 2.485809 0.027179 -0.014586 -1134750.000000 0 0 1
9.249536 24.284697 33.497429 42.395497 1.206881 0.659795 0.019945 -0.013946 897589.000000 0 0 1
10.461136 23.530697 33.255082 42.059833 1.152464 0.658908 0.028200 -0.021800 692133.000000 0 0 1
10.442136 22.045297 33.746899 41.639963 1.128436 0.625885 0.025572 -0.025787 -1075020.000000 0 0 1
9.872136 21.210197 32.740689 40.240331 1.135175 0.620430 0.017415 -0.030278 113747.000000 0 0 1
9.731036 19.869997 33.207973 39.903375 1.115394 0.587715 0.010235 -0.025445 771037.000000 0 0 1
8.443136 19.706497 34.123427 40.299390 1.166012 0.560954 0.032198 -0.028525 424360.000000 0 0 1
8.537536 20.385397 -33.369320 40.024560 1.174183 2.556609 0.035922 -0.020930 437663.000000 0 0 1
7.220936 20.803497 -32.988510 39.663197 1.236706 2.552987 0.041194 -0.019260 277277.000000 0 0 1
7.185936 21.304297 -31.545610 38.738047 1.245480 2.522373 0.046921 -0.022162 -114377.000000 0 0 1
7.649536 22.652297 -31.398480 39.465257 1.245127 2.490790 0.056199 -0.020629 62072.800000 0 0 1
7.655136 23.036197 -30.025210 38.610629 1.249968 2.461701 0.039290 -0.015122 532755.000000 0 0 1
9.083436 23.336997 -29.396460 38.617044 1.199610 2.436004 0.034778 -0.010910 1468200.000000 0 0 1
9.844036 22.114397 -29.243100 37.961961 1.151990 2.450149 0.028288 -0.006450 -720426.000000 0 0 1
11.212236 22.329597 -29.334520 38.533611 1.105451 2.436067 0.033249 -0.004355 -236976.000000 0 0 1
11.969736 20.922197 -29.248190 37.900785 1.051139 2.452313 0.030520 -0.014341 42171.000000 0 0 1
12.011536 20.131997 -30.462880 38.439060 1.032852 2.485690 0.027235 -0.010184 595682.000000 0 0 1
10.721536 19.648697 -30.860500 38.123393 1.071290 2.514079 0.032625 -0.014192 413997.000000 0 0 1
10.731836 18.453797 -31.940470 38.417555 1.044052 2.552424 0.031724 -0.022259 -496088.000000 0 0 1
11.317136 17.255497 -31.434040 37.602242 0.990315 2.560679 0.032761 -0.015896 285067.000000 0 0 1
11.390036 16.177297 -32.342800 37.914305 0.957340 2.592599 0.016451 -0.012759 -385465.000000 0 0 1
12.519036 16.209197 -33.374250 39.157437 0.913149 2.591181 0.010164 0.001400 -524916.000000 0 0 1
12.414136 17.330397 -34.234978 40.329730 0.949200 2.584653 0.015064 -0.012688 17777.300000 0 0 1
13.306536 17.313497 33.406039 39.909704 0.915520 0.578945 0.017083 -0.014271 -219686.000000 0 0 1
12.589536 16.959297 32.102363 38.427540 0.932217 0.581936 0.023836 -0.022132 -752134.000000 0 0 1
13.128436 17.572497 30.910363 37.902493 0.929153 0.617164 0.017862 -0.024112 -339115.000000 0 0 1
12.360436 17.352197 29.735153 36.579481 0.951845 0.621696 0.027138 -0.023669 -165301.000000 0 0 1
10.937636 17.953197 29.756393 36.433392 1.023617 0.615068 0.019627 -0.019810 -256541.000000 0 0 1
10.061836 17.106897 30.478973 36.371063 1.039118 0.577188 0.015935 -0.017668 755476.000000 0 0 1
8.730436 17.702897 30.587073 36.403051 1.112632 0.573082 0.021534 -0.020227 1000690.000000 0 0 1
7.834836 16.896197 31.493593 36.588421 1.136605 0.534049 0.026907 -0.014722 -423644.000000 0 0 1
8.161936 16.972197 32.881776 37.893058 1.122545 0.520135 0.037417 -0.014670 -111977.000000 0 0 1
7.634936 15.901197 33.585249 37.935594 1.123156 0.483608 0.040842 -0.011680 -330129.000000 0 0 1
7.749236 16.055597 -33.633210 38.066070 1.121125 2.654181 0.037637 -0.016214 -182306.000000 0 0 1
6.719636 16.855997 -33.104210 37.751382 1.191455 2.640172 0.041096 -0.022564 -107027.000000 0 0 1
6.893136 17.085497 -31.722850 36.684721 1.187320 2.615434 0.042280 -0.024267 -265856.000000 0 0 1
5.800036 17.917297 -31.039830 36.306211 1.257730 2.596242 0.052058 -0.032323 -666921.000000 0 0 1
5.858736 17.984897 -29.657800 35.176219 1.255878 2.573857 0.050600 -0.035808 104149.000000 0 0 1
5.124736 19.047197 -29.050880 35.114274 1.307966 2.545123 0.062813 -0.041798 -161252.000000 0 0 1
3.600136 18.977197 -29.004840 34.847894 1.383316 2.554089 0.078458 -0.046535 -1548500.000000 0 0 1
3.082036 17.927397 -28.186390 33.546432 1.400543 2.568486 0.087996 -0.041897 803844.000000 0 0 1
1.731236 17.579797 -28.532760 33.558379 1.472634 2.587242 0.076049 -0.039626 1506640.000000 0 0 1
0.590836 18.648097 -28.303290 33.899511 1.539123 2.558779 0.071907 -0.045327 -421433.000000 0 0 1
0.391036 18.976597 -26.924490 32.942257 1.550193 2.527547 0.070810 -0.039834 213941.000000 0 0 1
-0.588164 20.008597 -26.812280 33.460249 -1.541409 2.500290 0.074678 -0.041187 -51476.200000 0 0 1
-0.902664 20.569497 -25.400620 32.697255 -1.526941 2.460432 0.059412 -0.042422 -304449.000000 0 0 1
-1.769664 19.695397 -24.750440 31.680036 -1.481185 2.467483 0.052028 -0.038244 -270079.000000 0 0 1
-2.187164 20.316097 -23.511240 31.149733 -1.463553 2.426117 0.051890 -0.025204 156975.000000 0 0 1
-3.143464 19.364897 -22.730740 30.026108 -1.409872 2.429556 0.044851 -0.029525 496960.000000 0 0 1
-4.531164 19.638497 -22.893040 30.500710 -1.344036 2.419727 0.045796 -0.023057 -235397.000000 0 0 1
-5.236864 18.566197 -22.363340 29.533835 -1.295874 2.429829 0.039045 -0.029692 576664.000000 0 0 1
-6.791864 18.828297 -22.443640 30.072432 -1.224598 2.413311 0.084125 -0.029566 1048630.000000 0 0 1
-7.351064 19.736397 -21.457440 30.066347 -1.214252 2.365519 0.047199 -0.015992 310098.000000 0 0 1
-7.114664 21.122797 -21.781440 31.164437 -1.245908 2.344682 0.043131 -0.022490 -417535.000000 0 0 1
-7.762464 22.051197 -20.796340 31.288958 -1.232323 2.297827 0.052138 -0.030210 -255044.000000 0 0 1
-7.073564 22.086297 -19.583440 30.353763 -1.260849 2.272046 0.049093 -0.027569 -49323.100000 0 0 1
-7.464364 23.192897 -18.844440 30.801625 -1.259427 2.229131 0.062443 -0.027332 -95369.600000 0 0 1
-6.738164 23.436397 -17.466540 29.995793 -1.290839 2.192351 0.067603 -0.024569 -1562930.000000 0 0 1
-5.412064 23.634997 -17.606040 29.964582 -1.345692 2.198839 0.060320 -0.026211 -2170030.000000 0 0 1
-4.853064 24.036697 -16.352040 29.473789 -1.371572 2.158918 0.073677 -0.015247 -795338.000000 0 0 1
-3.396564 24.390697 -16.452940 29.616583 -1.432430 2.159798 0.075373 -0.018583 -861414.000000 0 0 1
-3.170564 25.570797 -17.211040 30.986094 -1.447434 2.159693 0.058402 -0.016908 34137.800000 0 0 1
-1.774264 25.786997 -17.401040 31.159484 -1.502100 2.163313 0.044775 -0.024851 584786.000000 0 0 1
-1.455364 27.259697 -16.961940 32.139020 -1.517458 2.126767 0.036038 -0.037471 -319093.000000 0 0 1
-2.173864 28.310097 -17.562440 33.386024 -1.494159 2.124736 0.034337 -0.036633 -178989.000000 0 0 1
-1.787064 28.605697 -18.898640 34.331299 -1.508405 2.153734 0.042405 -0.030967 -51948.400000 0 0 1
-2.942764 29.121197 -19.821540 35.349645 -1.470086 2.166061 0.051435 -0.025958 447551.000000 0 0 1
-3.563964 30.384097 -19.680340 36.375967 -1.454033 2.142453 0.037563 -0.006390 -511624.000000 0 0 1
-4.557464 30.356097 -18.714740 35.951420 -1.421776 2.118299 0.024578 -0.013114 -625824.000000 0 0 1
-4.868964 31.781997 -18.189640 36.941375 -1.418779 2.085632 0.043504 -0.009141 -14059.400000 0 0 1
-5.632064 32.626897 -19.051040 38.199171 -1.399861 2.092928 0.066165 -0.014926 202272.000000 0 0 1
-5.741664 33.885697 -18.492240 39.027812 -1.402948 2.064422 0.056731 -0.030113 -319108.000000 0 0 1
-6.783764 -33.933520 -19.056540 39.505126 1.373484 2.074168 0.044138 -0.016036 -113658.000000 0 0 1
-8.146364 -34.207020 -18.789740 39.869008 1.337002 2.061546 0.054901 -0.018701 493485.000000 0 0 1
-8.985364 -33.121820 -19.167240 39.308712 1.305890 2.080144 0.074181 -0.029176 -125129.000000 0 0 1
29.309936 -20.736103 -26.600040 44.683558 -0.615726 2.208433 0.011227 0.005024 129240.000000 0 0 1
28.849336 -22.009103 -26.206380 44.760017 -0.651705 2.196276 0.022197 -0.007962 -1643770.000000 0 0 1
27.526336 -22.182803 -26.500510 44.182043 -0.678313 2.214051 0.021613 -0.002511 -976232.000000 0 0 1
26.942936 -23.589303 -26.070570 44.295051 -0.719129 2.200080 0.009109 0.002812 162179.000000 0 0 1
27.240236 -24.726903 -26.840480 45.539669 -0.737072 2.201096 0.006909 0.016281 539063.000000 0 0 1
28.633936 -25.100963 -26.891460 46.616641 -0.719744 2.185681 0.018211 0.011850 789755.000000 0 0 1
28.898336 -26.490943 -27.382100 47.819068 -0.741962 2.180493 0.031011 0.000332 -173264.000000 0 0 1
28.264936 -27.466443 -26.580420 47.537677 -0.771072 2.164150 0.032595 -0.013192 -294355.000000 0 0 1
28.390836 -28.768743 -27.126450 48.677760 -0.792010 2.161886 0.030650 -0.004857 -367449.000000 0 0 1
27.371636 -29.236113 -28.143630 48.949163 -0.818323 2.183347 0.036898 -0.007050 -1023490.000000 0 0 1
27.208536 -28.469163 -29.319140 49.095922 -0.808036 2.210778 0.010422 -0.005023 -113019.000000 0 0 1
28.147436 -28.719553 -30.332160 50.369939 -0.795458 2.217035 0.005341 -0.000965 -513299.000000 0 0 1
28.459836 -30.203743 -30.823570 51.694494 -0.815117 2.209636 0.018407 -0.002996 -260052.000000 0 0 1
29.198836 -31.103373 -29.953730 52.126938 -0.816971 2.182949 0.026262 -0.012794 -24558.600000 0 0 1
30.417736 -30.751743 -29.388790 52.293492 -0.790858 2.167595 0.031906 -0.009163 -550158.000000 0 0 1
31.581036 -30.340453 -30.329940 53.271100 -0.765366 2.176512 0.028273 -0.015657 -634519.000000 0 0 1
31.496936 -29.003163 -30.862790 52.780225 -0.744202 2.195358 0.034099 -0.017970 422640.000000 0 0 1
32.714836 -28.651613 -31.535920 53.718615 -0.719282 2.198216 0.035791 -0.019833 277792.000000 0 0 1
32.644136 -27.298533 -32.242130 53.389179 -0.696455 2.219191 0.032921 -0.016160 -66226.300000 0 0 1
32.568436 -26.183593 -31.362900 52.248588 -0.677149 2.214626 0.030146 -0.010222 -676387.000000 0 0 1
31.274536 -26.039653 -30.881040 51.086189 -0.694314 2.219921 0.030480 -0.009450 -811690.000000 0 0 1
31.064536 -24.741703 -30.027160 49.787423 -0.672580 2.218187 0.031583 -0.008505 22142.800000 0 0 1
31.841736 -24.712203 -28.818440 49.548880 -0.659994 2.191511 0.030152 -0.017645 315263.000000 0 0 1
31.835036 -23.446703 -28.168460 48.545643 -0.634809 2.189828 0.023038 -0.013256 -364089.000000 0 0 1
32.870536 -23.407903 -27.042770 48.576881 -0.618817 2.161205 0.016007 -0.014975 -460040.000000 0 0 1
32.592936 -24.184803 -25.866460 48.127724 -0.638378 2.138212 0.018108 -0.014758 191384.000000 0 0 1
31.530236 -23.590203 -25.131390 46.714453 -0.642333 2.138834 0.022584 -0.005486 -132714.000000 0 0 1
31.892536 -22.391403 -24.248140 45.896416 -0.612127 2.127421 -0.007933 0.001104 -591569.000000 0 0 1
32.246336 -21.168903 -24.990440 45.961622 -0.580913 2.145664 -0.008352 -0.003805 9185.440000 0 0 1
32.500636 -20.123903 -24.094740 45.186494 -0.554407 2.133209 -0.026278 -0.002542 -94578.000000 0 0 1
33.007836 -18.872803 -24.897240 45.448569 -0.519401 2.150542 -0.025341 0.000232 33173.200000 0 0 1
32.034136 -18.502303 -25.850430 45.130541 -0.523772 2.180705 -0.034814 0.002945 339613.000000 0 0 1
32.186536 -17.123103 -26.189490 44.889454 -0.488915 2.193732 -0.036700 -0.001498 -456385.000000 0 0 1
31.235336 -16.879103 -27.340410 44.811252 -0.495431 2.227013 -0.027966 0.002609 1117120.000000 0 0 1
29.829536 -17.005803 -26.969110 43.661555 -0.518144 2.236593 -0.012589 0.006509 1377890.000000 0 0 1
29.057136 -17.011403 -28.160590 43.894462 -0.529650 2.267316 0.001981 -0.003285 1214030.000000 0 0 1
27.587336 -16.413403 -27.964370 42.573076 -0.536706 2.287437 0.009589 0.003534 1736840.000000 0 0 1
26.688636 -17.305003 -27.290150 41.910603 -0.575252 2.279897 0.003296 0.013591 300054.000000 0 0 1
26.515036 -16.965703 -25.931420 40.783829 -0.569208 2.259875 0.001828 0.010084 -140691.000000 0 0 1
25.848336 -18.081503 -25.082230 40.301308 -0.610406 2.242560 0.013684 0.007884 -294408.000000 0 0 1
25.587036 -17.592903 -23.761140 39.099851 -0.602336 2.223963 0.011326 0.014374 34116.100000 0 0 1
25.441936 -18.590803 -22.775840 38.879929 -0.631044 2.196662 0.014713 0.011527 -289139.000000 0 0 1
25.684436 -18.091003 -21.318840 37.966663 -0.613644 2.167012 0.005334 0.016857 300052.000000 0 0 1
24.660936 -17.334203 -20.663540 36.546111 -0.612670 2.171727 0.026509 0.011234 322899.000000 0 0 1
24.406236 -15.980203 -21.061240 35.980648 -0.579713 2.196107 0.012166 0.012479 1069580.000000 0 0 1
25.608836 -14.934403 -20.753840 36.187991 -0.527955 2.181569 -0.012895 0.005354 1220910.000000 0 0 1
25.730136 -14.567503 -19.401740 35.364948 -0.515169 2.151503 -0.017835 -0.004587 77491.500000 0 0 1
26.752836 -13.612103 -19.375040 35.726681 -0.470671 2.143984 -0.038930 0.001902 -413724.000000 0 0 1
26.926436 -12.768103 -18.097240 34.864989 -0.442783 2.116554 -0.020643 -0.002426 -402660.000000 0 0 1
27.212636 -13.450503 -16.911440 34.748242 -0.459056 2.079087 -0.024949 0.007344 244898.000000 0 0 1
26.973536 -12.538203 -15.822840 33.691845 -0.435121 2.059673 -0.027268 0.002720 -51145.700000 0 0 1
27.459736 -13.076403 -14.478940 33.684849 -0.444429 2.015107 -0.006410 -0.008466 -80181.700000 0 0 1
26.681236 -14.225103 -14.033640 33.334440 -0.489815 2.005339 0.031585 -0.016977 632672.000000 0 0 1
27.046036 -14.592303 -12.685340 33.246672 -0.494774 1.962271 0.043198 -0.022459 258301.000000 0 0 1
26.190836 -15.797803 -12.124040 32.901714 -0.542755 1.948183 0.058506 -0.043610 251158.000000 0 0 1
24.830136 -15.480703 -11.938240 31.602363 -0.557494 1.958177 0.042115 -0.031468 35673.700000 0 0 1
24.125236 -16.615503 -11.451440 31.452144 -0.603114 1.943453 0.018941 -0.032056 449702.000000 0 0 1
22.695536 -16.264503 -10.929940 29.984745 -0.621806 1.943910 0.038751 -0.036449 -45002.100000 0 0 1
22.659236 -15.651403 -9.664440 29.185763 -0.604477 1.908303 0.026220 -0.031776 613120.000000 0 0 1
21.325436 -15.665703 -9.179440 28.008044 -0.633573 1.904710 0.019481 -0.022201 20622.000000 0 0 1
21.277336 -15.441703 -7.659640 27.383230 -0.627790 1.854299 0.024715 -0.013779 -378278.000000 0 0 1
21.563336 -14.092803 -7.316040 26.778890 -0.578870 1.847516 0.033458 -0.009174 332143.000000 0 0 1
21.472336 -13.801003 -5.961440 26.211975 -0.571250 1.800236 0.023559 -0.003257 -306156.000000 0 0 1
22.284936 -14.620003 -4.908040 27.100769 -0.580616 1.752905 0.025729 -0.000519 478608.000000 0 0 1
23.691436 -14.542103 -5.169540 28.275095 -0.550514 1.754661 0.041490 0.003551 321313.000000 0 0 1
24.417136 -15.133603 -4.177240 29.028809 -0.554847 1.715197 0.034163 -0.006770 -30797.600000 0 0 1
25.954536 -14.997503 -4.395040 30.296524 -0.523964 1.716377 0.053905 -0.012062 83244.700000 0 0 1
26.455536 -13.725603 -4.103340 30.085294 -0.478588 1.707613 0.060202 -0.009857 -149773.000000 0 0 1
27.727336 -13.533603 -4.677040 31.206381 -0.454079 1.721238 0.069323 -0.017109 -197763.000000 0 0 1
28.439836 -12.321103 -4.079540 31.261421 -0.408824 1.701667 0.082342 -0.018558 -792249.000000 0 0 1
28.737836 -12.497503 -2.704140 31.454143 -0.410209 1.656873 0.081710 -0.017223 351028.000000 0 0 1
29.197636 -11.337803 -2.002040 31.385600 -0.370390 1.634628 0.080354 -0.021214 -1268840.000000 0 0 1
30.629036 -10.935503 -2.160640 32.594346 -0.342924 1.637134 0.083175 -0.009861 -1497280.000000 0 0 1
30.885636 -10.446303 -3.458940 32.787375 -0.326147 1.676489 0.092340 -0.018798 824888.000000 0 0 1
32.130836 -10.914303 -4.011440 34.170225 -0.327454 1.688463 0.104177 -0.018160 614181.000000 0 0 1
32.197936 -10.656403 -5.540240 34.365102 -0.319618 1.732720 0.109514 -0.024041 -49592.800000 0 0 1
31.065836 -11.231503 -6.172540 33.605551 -0.346917 1.755521 0.099525 -0.034545 404705.000000 0 0 1
31.284036 -11.280203 -7.566340 34.105474 -0.346063 1.794509 0.095989 -0.029500 224043.000000 0 0 1
30.100336 -11.856703 -8.387840 33.421063 -0.375242 1.824483 0.121865 -0.035016 169548.000000 0 0 1
29.935036 -13.245003 -8.071840 33.714849 -0.416565 1.812560 0.106357 -0.036291 474553.000000 0 0 1
28.651636 -13.738303 -8.436240 32.875938 -0.447109 1.830308 0.091592 -0.035392 319023.000000 0 0 1
28.559536 -15.267203 -8.318340 33.435450 -0.490923 1.822225 0.091172 -0.038494 43168.500000 0 0 1
29.134436 -15.962003 -9.430640 34.533141 -0.501210 1.847400 0.095577 -0.041626 384521.000000 0 0 1
28.926236 -17.380603 -9.381740 35.026126 -0.541051 1.841957 0.088979 -0.036540 -240344.000000 0 0 1
29.244836 -18.051403 -10.725240 36.002004 -0.553008 1.873295 0.079716 -0.038745 -499494.000000 0 0 1
30.532636 -17.743703 -11.180940 37.041790 -0.526436 1.877425 0.084935 -0.028078 -94445.100000 0 0 1
30.775236 -18.181803 -12.529140 37.877070 -0.533622 1.907931 0.056791 -0.011542 36397.500000 0 0 1
30.058336 -17.463103 -13.733840 37.377558 -0.526312 1.947046 0.041864 -0.014865 62857.000000 0 0 1
30.627636 -16.196603 -14.076940 37.397089 -0.486439 1.956723 0.041009 -0.012418 81304.600000 0 0 1
30.020736 -15.615003 -15.179440 37.087576 -0.479630 1.992468 0.020735 -0.011485 -1159510.000000 0 0 1
30.805936 -14.356603 -15.750240 37.459148 -0.436107 2.004753 0.009676 -0.004853 46863.300000 0 0 1
31.784836 -14.807003 -16.648540 38.816195 -0.435957 2.014079 -0.015558 -0.000330 -26269.000000 0 0 1
33.010036 -15.102403 -15.999640 39.670310 -0.429081 1.985933 0.004863 -0.003682 -837091.000000 0 0 1
34.092836 -15.582103 -16.974040 41.149014 -0.428701 1.995995 0.001361 -0.002574 -612687.000000 0 0 1
35.382336 -15.742903 -16.457040 42.078294 -0.418635 1.972628 0.017471 -0.001310 -401350.000000 0 0 1
-35.359439 -16.041103 -17.544440 42.607678 0.425892 1.995189 0.021330 -0.004352 71320.800000 0 0 1
-33.881139 -16.014903 -17.087240 41.187163 0.441553 1.998594 0.032762 -0.007429 -166157.000000 0 0 1
-33.416239 -16.839103 -16.028540 40.707671 0.466778 1.975501 0.033200 -0.007772 174270.000000 0 0 1
-33.893939 -16.633303 -14.675040 40.507069 0.456217 1.941513 0.027107 -0.006606 -499632.000000 0 0 1
-33.140139 -17.518103 -13.669140 39.899851 0.486270 1.920465 0.025202 -0.003131 -439955.000000 0 0 1
-31.850639 -17.054803 -13.363740 38.521669 0.491613 1.925076 0.032123 -0.001761 -341663.000000 0 0 1
-31.378239 -17.773703 -12.287540 38.098320 0.515373 1.899189 0.047341 0.008364 -30771.400000 0 0 1
-29.938039 -17.413103 -11.845440 36.603507 0.526809 1.900344 0.060155 0.006686 13792.100000 0 0 1
-29.779739 -16.123203 -11.420440 35.738172 0.496228 1.896060 0.051180 -0.006922 105518.000000 0 0 1
-28.505739 -15.908503 -10.852540 34.401093 0.509026 1.891749 0.061390 -0.010900 84515.400000 0 0 1
-28.575939 -16.043903 -9.295840 34.064699 0.511590 1.847190 0.058664 -0.008771 -121342.000000 0 0 1
-28.696739 -17.370203 -8.832340 34.687706 0.544309 1.828256 0.051905 -0.006412 23124.300000 0 0 1
-29.038839 -17.441403 -7.445140 34.682658 0.540878 1.787145 0.066041 -0.011622 -153338.000000 0 0 1
-29.244339 -18.923103 -7.048140 35.538591 0.574312 1.770444 0.068230 -0.022018 702415.000000 0 0 1
-30.379939 -19.654803 -7.572540 36.967490 0.574240 1.777100 0.057352 -0.017849 403821.000000 0 0 1
-30.201539 -20.022503 -8.930340 37.320028 0.585434 1.812432 0.061097 -0.010174 -778596.000000 0 0 1
-31.328039 -20.730903 -9.645440 38.784673 0.584582 1.822126 0.041826 -0.005456 -465626.000000 0 0 1
-32.470439 -19.896003 -9.797040 39.321270 0.549736 1.822603 0.029369 -0.007079 782503.000000 0 0 1
-33.569139 -20.765103 -10.177940 40.763550 0.553967 1.823149 0.009947 -0.010678 175791.000000 0 0 1
-34.895539 -20.099803 -10.508740 41.618917 0.522585 1.826059 0.014530 -0.016797 -453275.000000 0 0 1
-34.985039 -19.408903 -11.704240 41.685101 0.506504 1.855400 0.006800 -0.017590 535873.000000 0 0 1
35.250136 -19.351803 -12.079340 41.987793 -0.502064 1.862607 0.025678 -0.019598 319956.000000 0 0 1
34.973636 -19.045303 -13.525240 42.057233 -0.498658 1.898206 0.021528 -0.015709 -297618.000000 0 0 1
35.263736 -20.110203 -14.433140 43.084415 -0.518280 1.912398 0.012404 -0.006291 542217.000000 0 0 1
34.543036 -19.911603 -15.671940 42.840436 -0.522907 1.945311 0.007553 -0.006367 948790.000000 0 0 1
33.247736 -20.783303 -15.797340 42.271900 -0.558674 1.953800 0.004040 -0.008909 226834.000000 0 0 1
32.274436 -20.566803 -14.769040 41.021422 -0.567358 1.939099 0.018190 -0.002800 1682070.000000 0 0 1
31.006336 -21.277503 -14.908840 40.452422 -0.601425 1.948248 0.024514 -0.003758 2240360.000000 0 0 1
30.093836 -20.875103 -16.166040 40.034356 -0.606463 1.986468 0.015832 -0.005057 -136625.000000 0 0 1
29.556136 -19.597303 -16.280440 39.021432 -0.585497 2.001178 0.012281 0.001851 133400.000000 0 0 1
28.606836 -19.443803 -17.298440 38.673615 -0.596965 2.034533 0.004991 0.002667 -329333.000000 0 0 1
27.877436 -18.119703 -17.303840 37.481968 -0.576359 2.050659 0.003868 0.003006 49676.000000 0 0 1
26.895336 -18.062503 -16.262540 36.250287 -0.591400 2.036015 0.022030 -0.003127 458761.000000 0 0 1
26.306736 -16.780403 -16.113740 35.118070 -0.567804 2.047491 0.000112 0.002157 -1978410.000000 0 0 1
24.964436 -16.799203 -15.451840 33.825960 -0.592323 2.045196 0.009542 -0.012867 -729999.000000 0 0 1
23.884136 -17.413303 -16.137040 33.676091 -0.629973 2.070521 0.024787 -0.010507 478554.000000 0 0 1
23.443736 -16.682703 -17.250040 33.548251 -0.618473 2.110855 0.017114 -0.002761 -917112.000000 0 0 1
22.376236 -17.343603 -18.178940 33.644767 -0.659366 2.141614 0.025892 -0.001840 622177.000000 0 0 1
21.083736 -17.375703 -17.582540 32.489762 -0.689281 2.142626 0.034799 -0.006815 -213944.000000 0 0 1
20.227236 -18.070003 -18.423840 32.788777 -0.729129 2.167471 0.038145 -0.013151 -480210.000000 0 0 1
18.803836 -18.413203 -17.981540 31.874222 -0.774902 2.170188 0.040598 -0.007081 -531620.000000 0 0 1
18.032636 -17.273203 -17.880040 30.712136 -0.763891 2.192206 0.049442 -0.008313 -1060330.000000 0 0 1
16.716536 -17.635503 -17.670740 30.045109 -0.812143 2.199554 0.055480 -0.016124 -135469.000000 0 0 1
15.604536 -16.580603 -17.274240 28.580015 -0.815716 2.219830 0.062954 -0.003791 633293.000000 0 0 1
15.315136 -15.728903 -18.394940 28.641326 -0.798726 2.268229 0.074690 0.001296 685333.000000 0 0 1
14.096936 -15.019303 -18.177540 27.472277 -0.817066 2.293838 0.067763 0.000105 484631.000000 0 0 1
13.140736 -14.837903 -19.347740 27.697966 -0.845983 2.344131 0.070155 -0.005688 40000.400000 0 0 1
13.563836 -13.729003 -20.106840 27.870202 -0.791450 2.376684 0.079315 -0.014533 78081.500000 0 0 1
12.719336 -13.539303 -21.217940 28.200978 -0.816615 2.422469 0.068655 -0.001746 176803.000000 0 0 1
12.676336 -12.047203 -21.696740 27.867061 -0.759957 2.463196 0.061613 -0.006666 291974.000000 0 0 1
13.926836 -11.488403 -22.126540 28.557379 -0.689747 2.457211 0.063636 -0.003584 172652.000000 0 0 1
13.781936 -10.126903 -22.395340 28.178842 -0.633699 2.489404 0.042841 -0.004859 63086.800000 0 0 1
15.038736 -9.454503 -22.978840 29.044419 -0.561239 2.483503 0.052423 0.000069 50970.300000 0 0 1
15.283336 -9.930003 -24.303340 30.378242 -0.576184 2.498132 0.051843 -0.001128 -486258.000000 0 0 1
16.572736 -9.549703 -24.657640 31.206595 -0.522758 2.481837 0.071453 -0.015980 -620068.000000 0 0 1
22.322836 4.797997 -7.056340 23.898153 0.211716 1.870531 0.074523 0.005651 -226140.000000 0 1 0
22.333836 6.244197 -7.181940 24.276954 0.272624 1.871124 0.042441 -0.000285 737610.000000 0 1 0
21.686136 6.889597 -6.059340 23.547200 0.307612 1.831052 0.029126 -0.002649 -128881.000000 0 1 0
21.541836 8.399397 -6.302040 23.964897 0.371779 1.836895 0.026821 -0.001976 -721665.000000 0 1 0
20.418936 8.628197 -7.105640 23.278076 0.399801 1.880998 0.031123 0.000924 311247.000000 0 1 0
20.275736 10.002297 -7.427640 23.797505 0.458284 1.888218 0.030094 0.003095 2441.120000 0 1 0
19.625136 10.951297 -6.379240 23.361754 0.508983 1.847372 0.032596 -0.005267 -672160.000000 0 1 0
20.418536 11.129797 -5.280340 23.846823 0.499060 1.794074 0.035355 -0.009158 -393165.000000 0 1 0
19.830136 11.957897 -4.309540 23.554145 0.542635 1.754796 0.052264 -0.013897 -218003.000000 0 1 0
20.745036 12.367097 -3.157840 24.357207 0.537582 1.700809 0.044908 -0.020751 47955.900000 0 1 0
22.018336 12.914097 -3.534740 25.769661 0.530445 1.708397 0.048354 -0.030683 1003880.000000 0 0 1
22.899636 13.168297 -2.472640 26.531327 0.521867 1.664129 0.044347 -0.027154 -184948.000000 0 0 1
23.613836 11.933897 -1.861540 26.523508 0.467940 1.641039 0.022026 -0.027801 -824878.000000 0 0 1
24.831136 11.632297 -2.532140 27.537381 0.438096 1.662879 0.013813 -0.023766 260408.000000 0 0 1
25.520436 10.687197 -1.809740 27.726954 0.396582 1.636113 0.018135 -0.029544 -324207.000000 0 0 1
26.976136 10.327897 -2.213040 28.970242 0.365638 1.647261 0.037770 -0.029717 272087.000000 0 0 1
27.827536 11.448597 -2.062740 30.161184 0.390306 1.639240 0.041596 -0.038626 -99005.700000 0 0 1
29.185736 11.106697 -2.206940 31.305534 0.363629 1.641352 0.056015 -0.039562 -403565.000000 0 0 1
30.126436 12.244097 -1.884940 32.574116 0.386032 1.628695 0.058085 -0.041922 -1255650.000000 0 0 1
30.033136 12.596097 -0.525940 32.571882 0.397124 1.586944 0.072140 -0.041575 -162333.000000 0 0 1
30.984336 13.519897 -0.208040 33.806212 0.411442 1.576950 0.080266 -0.046019 117777.000000 0 0 1
32.506436 13.107497 -0.179540 35.050065 0.383286 1.575919 0.083383 -0.052342 472631.000000 0 0 1
33.457236 14.081397 0.240260 36.300552 0.398374 1.564178 0.080003 -0.053628 239426.000000 0 0 1
34.107936 14.734897 -0.838040 37.164106 0.407791 1.593348 0.079566 -0.036949 -423536.000000 0 0 1
33.401136 15.866797 -1.692140 37.016948 0.443479 1.616525 0.041848 -0.014855 321050.000000 0 0 1
32.380136 15.275997 -2.507240 35.890326 0.440810 1.640712 0.053936 -0.016713 89444.000000 0 0 1
31.858836 16.147797 -3.492140 35.887767 0.469116 1.668258 0.035704 -0.005832 448672.000000 0 0 1
30.424936 15.789097 -3.979740 34.508124 0.478694 1.686381 0.055037 -0.018428 22764.300000 0 0 1
30.479836 14.628197 -4.760840 34.141912 0.447463 1.710695 0.042338 -0.020999 1570380.000000 0 0 1
29.232636 14.394397 -5.473540 33.040964 0.457556 1.737223 0.032092 -0.025521 655780.000000 0 0 1
27.978036 13.845797 -4.815040 31.585775 0.459544 1.723836 0.042164 -0.031360 -509472.000000 0 0 1
26.886436 13.936697 -5.734240 30.821964 0.478223 1.757931 0.044873 -0.032915 1051630.000000 0 0 1
25.714736 13.377297 -5.092840 29.430201 0.479692 1.744720 0.036931 -0.020364 -480645.000000 0 0 1
24.565036 13.220897 -6.004440 28.535704 0.493738 1.782799 0.033819 -0.018960 -1276480.000000 0 0 1
24.898936 12.327997 -7.060840 28.666914 0.459737 1.819664 0.031524 -0.008349 126326.000000 0 0 1
23.912036 12.155097 -8.039140 28.002850 0.470286 1.861976 0.032760 -0.005035 -314393.000000 0 0 1
23.707436 13.303597 -9.064840 28.656579 0.511369 1.892651 0.028325 -0.005608 -358084.000000 0 0 1
23.049936 14.394597 -8.516840 28.478773 0.558237 1.874503 0.035353 -0.017303 -11503.200000 0 0 1
22.848536 15.439497 -9.474640 29.158231 0.594253 1.901743 0.037620 -0.023636 -794439.000000 0 0 1
21.818236 16.415497 -8.923540 28.725137 0.645019 1.886676 0.035146 -0.013815 -808597.000000 0 0 1
20.502436 15.980497 -8.982140 27.502818 0.662080 1.903490 0.026250 -0.013493 -488797.000000 0 0 1
19.998836 15.410897 -7.754740 26.411838 0.656549 1.868796 0.012844 -0.019139 1320020.000000 0 0 1
18.488536 14.912797 -7.883940 25.027465 0.678751 1.891265 0.000559 -0.014192 812369.000000 0 0 1
17.496536 15.889597 -7.790240 24.885657 0.737303 1.889190 0.017614 -0.016888 -641007.000000 0 1 0
16.221236 15.330597 -7.727040 23.619120 0.757178 1.904084 0.042051 -0.014594 -438395.000000 0 1 0
15.613236 15.415897 -6.337140 22.838178 0.779038 1.851967 0.045833 -0.016058 -815763.000000 0 1 0
16.220836 14.530697 -5.473740 22.454810 0.730492 1.817044 0.034388 -0.016759 355848.000000 0 1 0
15.885536 14.933497 -4.148140 22.193843 0.754517 1.758807 0.043598 -0.012190 -436814.000000 0 1 0
15.755236 13.832397 -3.125540 21.197445 0.720502 1.718785 0.042490 -0.003146 -553737.000000 0 1 0
16.879336 13.136397 -2.653440 21.552672 0.661339 1.694224 0.045940 -0.004696 313487.000000 0 1 0
16.492336 12.402497 -1.453840 20.686535 0.644790 1.641134 0.030823 -0.003743 189009.000000 0 1 0
16.513436 13.238497 -0.126940 21.165242 0.675765 1.576794 0.034900 -0.009335 -167694.000000 0 1 0
15.527536 14.263597 -0.051940 21.084527 0.742997 1.573260 0.036304 -0.011721 657369.000000 0 1 0
15.816036 15.054797 1.103260 21.863465 0.760744 1.520314 0.041915 -0.011411 -995495.000000 0 1 0
14.673736 15.965797 1.444060 21.732706 0.827543 1.504301 0.046077 -0.010054 -817145.000000 0 1 0
14.487936 17.015397 0.447960 22.352286 0.865455 1.550754 0.050648 -0.014317 442758.000000 0 1 0
13.556536 17.949597 1.001960 22.516031 0.923940 1.526282 0.038166 -0.014283 202731.000000 0 1 0
13.401136 19.235397 0.260160 23.444800 0.962294 1.559699 0.028324 -0.011550 67507.700000 0 1 0
12.641536 19.093697 -0.961840 22.919486 0.985977 1.612775 0.027547 -0.022806 216887.000000 0 1 0
12.270036 20.325497 -1.511540 23.790006 1.027678 1.634376 0.023376 -0.018502 137058.000000 0 1 0
10.752836 20.628997 -1.406440 23.305731 1.090295 1.631180 0.015224 -0.018889 184955.000000 0 1 0
10.318836 20.690397 -0.103740 23.121022 1.108169 1.575283 0.003949 -0.018089 -530349.000000 0 1 0
8.924036 20.530797 -0.012640 22.386429 1.160767 1.571361 0.005745 -0.020339 152189.000000 0 1 0
8.474336 20.517197 1.479060 22.247638 1.179103 1.504266 0.011290 -0.016233 137308.000000 0 1 0
8.197336 21.788297 2.034860 23.368074 1.210951 1.483607 0.003352 -0.005977 -214093.000000 0 1 0
7.451936 21.683897 3.199560 23.150809 1.239779 1.432147 0.014127 -0.010425 -41772.900000 0 1 0
6.996236 23.090297 3.797160 24.423914 1.276594 1.414694 0.003891 -0.004383 661219.000000 0 1 0
7.807336 23.631697 4.853060 25.356731 1.251710 1.378217 -0.003005 -0.003719 400828.000000 0 0 1
7.041636 24.686397 5.369560 26.226609 1.292932 1.364601 -0.002663 -0.007233 272656.000000 0 0 1
7.610436 25.154897 6.734160 27.129993 1.277008 1.319956 -0.006245 -0.007808 12066.200000 0 0 1
7.257636 24.259797 7.740860 26.478897 1.280108 1.274123 0.001388 -0.017143 -276410.000000 0 0 1
7.937836 24.424397 8.926660 27.189073 1.256568 1.236274 0.000278 -0.017288 -549626.000000 0 0 1
7.428636 23.434597 9.996460 26.538542 1.263822 1.184590 0.007824 -0.017938 -974184.000000 0 0 1
6.165636 23.775797 10.415360 26.679268 1.317062 1.169739 0.009055 -0.017623 -1183400.000000 0 0 1
5.767736 22.818797 11.371960 26.139736 1.323219 1.120708 0.009614 -0.016374 1091800.000000 0 0 1
4.303436 23.122897 11.884960 26.352234 1.386790 1.102907 0.023387 -0.019617 1134280.000000 0 0 1
3.260436 23.185297 10.947560 25.846422 1.431087 1.133423 0.018882 -0.020195 -285410.000000 0 0 1
2.017036 23.510897 11.520160 26.259186 1.485214 1.116634 0.022069 -0.019832 192644.000000 0 0 1
0.985836 23.795197 10.388160 25.982632 1.529390 1.159485 0.033766 -0.020246 -483628.000000 0 0 1
1.267436 25.009997 9.654860 26.838828 1.520162 1.202813 0.038986 -0.016148 371925.000000 0 0 1
0.305736 25.343997 8.654160 26.782572 1.558733 1.241765 0.031967 -0.015051 316515.000000 0 0 1
-1.055164 25.923297 9.069460 27.484283 -1.530115 1.234506 0.041254 -0.017182 135897.000000 0 0 1
-1.848264 25.027997 9.831660 26.953261 -1.497082 1.197414 0.035627 -0.017143 611635.000000 0 0 1
-3.236964 25.384997 9.748260 27.384386 -1.443966 1.206835 0.050541 -0.022578 660761.000000 0 0 1
-4.256964 24.435197 10.474460 26.924244 -1.398313 1.171213 0.051819 -0.029125 277931.000000 0 0 1
-4.503964 24.613097 11.822260 27.674105 -1.389808 1.129407 0.032439 -0.018038 67364.300000 0 0 1
-5.299664 25.754797 12.086560 28.939264 -1.367855 1.139936 0.044575 -0.019264 -387450.000000 0 0 1
-5.780764 25.855097 13.560560 29.762260 -1.350831 1.097717 0.018128 -0.016429 -203062.000000 0 0 1
-6.844164 24.947297 13.721260 29.282814 -1.303039 1.083117 0.030457 -0.025564 -97636.700000 0 0 1
-7.264464 24.959797 15.071260 30.048408 -1.287574 1.045388 0.009120 -0.005874 -277390.000000 0 0 1
-8.326964 23.909997 15.383660 29.625721 -1.235670 1.024803 0.011670 -0.017606 419151.000000 0 0 1
-9.585264 24.238697 14.775160 29.961594 -1.194216 1.055105 -0.001271 -0.005103 -101307.000000 0 0 1
-10.572464 23.352797 15.140860 29.772064 -1.145676 1.037286 -0.001835 -0.009917 -974820.000000 0 0 1
-11.986164 23.830297 14.870760 30.539986 -1.104768 1.062228 -0.002284 -0.015954 -625438.000000 0 0 1
-12.428864 24.851497 15.714860 31.922256 -1.107048 1.056083 0.010239 -0.014134 291404.000000 0 0 1
-13.845664 24.946397 15.713560 32.572092 -1.064110 1.067376 0.007848 -0.017072 253372.000000 0 0 1
-14.421864 26.307997 16.368060 34.176224 -1.069341 1.071360 0.025997 -0.021085 5354.570000 0 0 1
-15.757064 26.196597 16.801160 34.883030 -1.029280 1.068268 0.023064 -0.019878 -43791.200000 0 0 1
-16.018164 27.243497 17.718960 36.231910 -1.039275 1.059804 0.041580 -0.015744 -439338.000000 0 0 1
-17.168864 26.892197 18.639360 36.951129 -1.002596 1.042071 0.033117 -0.017135 382975.000000 0 0 1
-18.441764 27.079297 18.004460 37.383788 -0.972917 1.068304 0.032833 -0.024902 1293370.000000 0 0 1
-19.572564 26.489397 18.692360 37.870540 -0.934448 1.054588 0.034139 -0.017121 1076960.000000 0 0 1
-20.916064 26.673997 17.958660 38.360101 -0.905803 1.083589 0.035533 -0.027745 -96606.300000 0 0 1
-21.558764 27.965097 18.073060 39.666894 -0.914042 1.097727 0.031639 -0.029015 421042.000000 0 0 1
-22.109464 28.324197 16.808460 39.668790 -0.908006 1.133248 0.035835 -0.025783 -360970.000000 0 0 1
-22.935664 29.616997 16.869760 41.082844 -0.911856 1.147654 0.024721 -0.027488 280503.000000 0 0 1
-24.220064 29.432997 17.473360 41.931267 -0.882254 1.140968 0.019256 -0.020706 627073.000000 0 0 1
-25.113594 30.453197 17.027860 42.988811 -0.881197 1.163531 0.016374 -0.015131 -170399.000000 0 0 1
-26.477344 30.338797 17.701560 43.986789 -0.853258 1.156628 0.019219 -0.008763 -76715.400000 0 0 1
-27.320774 29.263497 17.301060 43.613114 -0.819718 1.162884 0.036567 -0.006404 698104.000000 0 0 1
-28.622634 29.242997 17.904660 44.665254 -0.796119 1.158337 0.054108 -0.008275 785554.000000 0 0 1
-28.986664 28.142997 18.940360 44.620536 -0.770632 1.132413 0.053127 -0.004454 -559972.000000 0 0 1
-29.070914 26.866097 18.372360 43.639992 -0.746002 1.136251 0.051057 -0.002960 129031.000000 0 0 1
-29.183004 25.911197 19.420260 43.591105 -0.726082 1.109053 0.053806 0.001380 -350417.000000 0 0 1
-29.159344 24.532597 18.782860 42.484251 -0.699438 1.112843 0.050328 -0.003438 -476556.000000 0 0 1
-30.263524 24.059997 18.070260 42.676676 -0.671695 1.133577 0.056798 0.000040 -469725.000000 0 0 1
-29.906864 22.975097 17.246260 41.469376 -0.655061 1.141887 0.058027 -0.003096 -323830.000000 0 0 1
-30.494794 21.603397 17.624260 41.318928 -0.616361 1.130130 0.048382 -0.003797 483760.000000 0 0 1
-31.842974 21.432997 17.177660 42.052591 -0.592432 1.150008 0.041531 -0.007091 393727.000000 0 0 1
-32.213624 20.084297 17.335660 41.732742 -0.557500 1.142417 0.037708 -0.000471 -291485.000000 0 0 1
-33.602744 19.751797 16.795060 42.442337 -0.531403 1.163950 0.040112 -0.016205 -392061.000000 0 0 1
-33.664164 19.977497 15.389860 42.062146 -0.535578 1.196214 0.033198 -0.009990 7052.920000 0 0 1
-34.921581 19.650197 14.826760 42.725635 -0.512538 1.216402 0.037096 -0.012866 194379.000000 0 0 1
-35.125832 19.953097 13.274860 42.522606 -0.516593 1.253306 0.043398 -0.007146 85037.400000 0 0 1
-35.042157 21.337197 13.043960 43.050827 -0.546939 1.262968 0.031956 -0.010116 -196727.000000 0 0 1
-35.305559 21.663597 11.718160 43.047756 -0.550362 1.295104 0.021691 -0.001535 245961.000000 0 0 1
-34.229364 21.337597 10.614360 41.708597 -0.557427 1.313478 0.036260 -0.004839 -21325.600000 0 0 1
-34.492456 20.167297 9.893260 41.162192 -0.529084 1.328072 0.053671 -0.007804 -257075.000000 0 0 1
-33.408554 19.637897 9.177260 39.824623 -0.531408 1.338265 0.074923 -0.014679 139334.000000 0 0 1
-32.463334 18.700697 9.992860 38.774237 -0.522628 1.310136 0.061448 -0.022463 391627.000000 0 0 1
-31.799824 19.239297 11.160460 38.806382 -0.544097 1.279083 0.059078 -0.013997 412861.000000 0 0 1
-31.360054 18.168597 11.971360 38.168893 -0.525101 1.251770 0.067395 -0.015779 -66666.200000 0 0 1
-30.953924 18.518697 13.428160 38.488999 -0.539144 1.214417 0.043882 -0.007164 50689.200000 0 0 1
-29.772444 19.284297 13.441260 37.933495 -0.574773 1.208591 0.048980 -0.003841 -270384.000000 0 0 1
-30.092644 20.655297 13.684960 38.980594 -0.601533 1.212082 0.054517 -0.002854 -127998.000000 0 0 1
-28.940844 21.654097 13.592760 38.616519 -0.642360 1.211096 0.058004 -0.013421 -45285.500000 0 0 1
-28.041194 21.637497 14.670460 38.336827 -0.657203 1.178109 0.063126 -0.000367 -1033180.000000 0 0 1
-27.048404 22.566197 14.652860 38.151747 -0.695302 1.176598 0.069781 -0.011913 -975850.000000 0 0 1
-26.349544 22.469797 16.021360 38.155921 -0.706093 1.137470 0.059861 -0.016203 -797963.000000 0 0 1
-25.524594 21.352597 16.132860 36.982530 -0.696634 1.119392 0.073966 -0.015276 -215368.000000 0 0 1
-25.195784 21.049097 17.495160 37.201783 -0.695969 1.081191 0.069512 -0.012384 170502.000000 0 0 1
-24.060264 19.992797 17.634560 35.910806 -0.693328 1.057484 0.076469 -0.018612 218590.000000 0 0 1
-23.478564 20.055497 18.933160 36.220581 -0.706930 1.020760 0.058692 -0.013289 773774.000000 0 0 1
-22.557164 18.939197 19.160260 35.137365 -0.698431 0.994054 0.052871 -0.013169 563891.000000 0 0 1
-22.139264 18.715997 20.622360 35.576921 -0.701803 0.952490 0.042858 -0.018018 -204240.000000 0 0 1
-23.070864 18.170497 21.513760 36.404308 -0.667131 0.938539 0.039215 -0.007663 -79747.700000 0 0 1
-22.839664 18.813597 22.770760 37.337772 -0.689041 0.914914 0.042023 -0.013483 -265900.000000 0 0 1
-23.645864 18.238697 23.926760 38.265740 -0.657011 0.895307 0.026135 -0.020474 22157.100000 0 0 1
-23.053164 17.063197 24.484360 37.710542 -0.637178 0.864171 0.034387 -0.008191 -139651.000000 0 0 1
-24.066064 16.254597 25.001760 38.320692 -0.594035 0.860003 0.036992 -0.001879 -302574.000000 0 0 1
20.512936 25.381497 33.956503 47.096125 0.891085 0.765546 0.019374 -0.008802 24409.800000 0 0 1
21.236936 24.528897 33.114975 46.360283 0.857205 0.775178 0.027505 -0.015481 -177953.000000 0 0 1
21.180936 23.236997 33.649673 46.053128 0.831654 0.751492 0.031024 -0.021356 92586.100000 0 0 1
20.103336 22.275297 33.068271 44.652475 0.836605 0.736879 0.026776 -0.026822 -97072.800000 0 0 1
20.435036 21.761897 31.833253 43.640885 0.816832 0.753299 0.027690 -0.020959 280032.000000 0 0 1
19.497736 20.783397 31.389043 42.395558 0.817305 0.737153 0.038577 -0.020425 -174872.000000 0 0 1
19.835336 20.078497 30.067643 41.238935 0.791490 0.753778 0.031650 -0.005444 -43525.600000 0 0 1
21.038336 19.328897 30.076643 41.482795 0.743076 0.759705 0.036624 -0.008886 70137.300000 0 0 1
21.208936 18.606997 28.861793 40.361397 0.720142 0.774052 0.027189 -0.002262 171025.000000 0 0 1
22.454236 17.683897 28.830883 40.597201 0.667105 0.781058 0.037034 -0.003239 -32978.500000 0 0 1
23.734236 18.243997 28.773893 41.522214 0.655349 0.805188 0.040184 -0.009654 -791497.000000 0 0 1
24.624236 17.462697 29.497303 42.206512 0.616852 0.796965 0.034149 -0.003391 -851200.000000 0 0 1
26.003136 18.106697 29.535433 43.316941 0.608257 0.820515 0.032199 -0.014692 -1122820.000000 0 0 1
26.784136 17.862497 28.437593 42.955272 0.588168 0.847275 0.030630 -0.012141 -706417.000000 0 0 1
28.084036 18.329797 28.708183 44.145830 0.578255 0.862813 0.045895 -0.018975 -683005.000000 0 0 1
29.062436 17.955097 27.658353 43.954467 0.553413 0.890208 0.047683 -0.002638 -921571.000000 0 0 1
28.937536 18.764497 26.500953 43.494687 0.575284 0.915629 0.042251 -0.009389 -139749.000000 0 0 1
29.999436 18.612097 25.602553 43.610400 0.555295 0.943356 0.050451 -0.004187 -397609.000000 0 0 1
30.210136 19.787497 24.598603 43.695407 0.579879 0.972838 0.054160 -0.004794 -115870.000000 0 0 1
29.116736 20.015597 23.739043 42.567013 0.602237 0.979200 0.035379 0.000407 -9598.420000 0 0 1
29.360636 21.042697 22.806183 42.719598 0.621845 1.007640 0.023655 -0.005159 -240053.000000 0 0 1
30.145336 20.539997 21.543583 42.364593 0.598110 1.037322 0.042237 -0.002380 37052.100000 0 0 1
29.482136 19.538497 20.789983 41.026486 0.585268 1.039391 0.032091 -0.003690 182509.000000 0 0 1
30.272836 19.128097 19.695183 40.868434 0.563515 1.067955 0.043424 0.001857 238148.000000 0 0 1
31.315436 18.021397 19.958583 41.276777 0.522195 1.066113 0.064637 -0.005541 -176272.000000 0 0 1
30.674936 16.798897 20.211383 40.393745 0.501031 1.046783 0.076535 -0.005913 -186421.000000 0 0 1
31.555336 15.734997 20.333483 40.703561 0.462565 1.047717 0.057759 -0.006173 -424078.000000 0 0 1
30.838436 14.372397 20.706083 39.828593 0.436125 1.024086 0.062047 -0.010983 297140.000000 0 0 1
30.420736 14.204597 22.033283 40.157904 0.436850 0.990028 0.047615 -0.015718 454140.000000 0 0 1
29.309536 14.921997 22.562083 39.884364 0.470915 0.969530 0.058162 -0.012415 -145901.000000 0 0 1
28.698436 14.240897 23.788523 39.903599 0.460624 0.932099 0.032243 -0.010112 38958.700000 0 0 1
28.030436 13.064997 23.351883 38.751902 0.436162 0.924042 0.036685 -0.006720 -193412.000000 0 0 1
27.464236 12.266097 24.302883 38.670034 0.420040 0.891214 0.027100 -0.000171 -334836.000000 0 0 1
26.937436 10.924997 23.788853 37.561823 0.385298 0.884954 0.027783 0.003876 -1037170.000000 0 0 1
25.630736 10.948397 23.342083 36.354571 0.403698 0.873605 0.009491 0.013051 -768822.000000 0 0 1
25.378936 9.750297 22.680683 35.405819 0.366802 0.875527 0.008122 0.015663 -1105580.000000 0 0 1
24.158936 9.725197 21.822183 33.977070 0.382703 0.873351 0.011000 0.007606 -461826.000000 0 0 1
22.952336 9.604397 22.597383 33.610949 0.396309 0.833455 0.008670 0.008825 1072130.000000 0 0 1
21.915036 9.078797 21.767383 32.194911 0.392749 0.828323 0.004036 0.018345 349664.000000 0 0 1
20.455636 9.047097 22.275383 31.567003 0.416415 0.787451 0.010125 0.005882 364.988000 0 0 1
20.186436 8.292097 23.382383 31.984166 0.389761 0.750920 0.030110 0.010571 -48885.200000 0 0 1
18.846936 8.364297 23.802883 31.491994 0.417687 0.713861 0.024652 0.002107 -197967.000000 0 0 1
18.560836 7.558097 25.072563 32.097708 0.386704 0.674319 0.026656 0.007753 -313802.000000 0 0 1
18.596736 6.178197 24.987573 31.755118 0.320748 0.665054 0.026330 0.006197 150651.000000 0 0 1
18.285336 5.544397 26.214653 32.439202 0.294404 0.629849 0.022155 -0.001096 -196079.000000 0 0 1
18.556536 4.054397 26.120403 32.296418 0.215109 0.628737 0.033822 -0.007848 440236.000000 0 0 1
19.931436 3.785497 25.860233 32.868583 0.187691 0.665227 0.046104 -0.002033 322267.000000 0 0 1
20.259936 2.427397 26.009373 33.058202 0.119244 0.665229 0.044111 -0.001829 -474797.000000 0 0 1
21.722136 2.108197 25.697753 33.714539 0.096750 0.704067 0.047193 -0.003792 -686756.000000 0 0 1
22.557836 2.646397 26.655743 35.019823 0.116782 0.705694 0.053426 -0.010315 -659676.000000 0 0 1
23.905836 2.543997 26.284843 35.620975 0.106018 0.740838 0.054470 -0.009211 -83850.800000 0 0 1
24.934736 2.916497 27.364433 37.135686 0.116436 0.742357 0.041665 -0.012632 -651891.000000 0 0 1
25.120636 2.032997 28.412433 37.979544 0.080753 0.725605 0.036194 -0.019976 324153.000000 0 0 1
25.988736 2.401897 29.499423 39.387808 0.092159 0.724323 0.024799 -0.006607 673513.000000 0 0 1
27.482936 2.690097 29.226673 40.208790 0.097572 0.757039 0.032619 -0.011056 -846200.000000 0 0 1
27.741936 3.869297 28.459603 39.931635 0.138581 0.777445 0.017072 0.008720 372336.000000 0 0 1
29.054636 3.989197 27.901763 40.479549 0.136447 0.810301 0.011040 0.012065 515340.000000 0 0 1
29.505236 2.830397 26.945443 40.057795 0.095636 0.832993 0.010523 0.016119 -854572.000000 0 0 1
28.795936 2.901897 25.757153 38.743488 0.100435 0.843554 0.003751 0.034546 -83487.600000 0 0 1
29.317236 1.972397 24.832243 38.471170 0.067177 0.869149 0.026033 0.021931 66190.700000 0 0 1
28.764436 2.227797 23.379283 37.134172 0.077295 0.889772 0.027659 0.016859 74516.400000 0 0 1
29.426336 3.235997 22.723483 37.319399 0.109529 0.916133 0.023358 0.023766 -702569.000000 0 0 1
30.763736 3.080097 22.329583 38.137969 0.099789 0.945306 0.012271 0.018840 -154768.000000 0 0 1
31.382536 4.328697 21.630983 38.360143 0.137068 0.971705 0.010678 0.018297 -425658.000000 0 0 1
30.990936 4.588297 20.330183 37.347114 0.146985 0.995173 0.012158 0.008920 -69650.100000 0 0 1
31.505936 5.818297 19.822983 37.675286 0.182616 1.016725 0.037541 0.007699 550702.000000 0 0 1
33.031336 6.114697 19.600683 38.892743 0.183046 1.042610 0.025537 0.000942 379017.000000 0 0 1
33.815336 6.120597 20.774483 40.156167 0.179062 1.027054 0.021790 0.001144 132327.000000 0 0 1
33.767536 7.361797 21.523883 40.715108 0.214655 1.013792 0.036464 -0.004398 -474098.000000 0 0 1
34.502736 7.371497 22.877983 42.049730 0.210485 0.995516 0.042538 0.000605 -304572.000000 0 0 1
33.933936 6.549597 23.869693 42.002041 0.190666 0.966360 0.040354 0.013972 -181576.000000 0 0 1
34.710736 6.209197 24.981843 43.214370 0.177012 0.954409 0.042297 0.008635 -297472.000000 0 0 1
33.942936 5.272097 25.981643 43.069289 0.154091 0.923224 0.041088 0.013890 138201.000000 0 0 1
34.039136 3.900697 25.678133 42.816407 0.114097 0.927637 0.041558 0.007002 106256.000000 0 0 1
33.303536 3.070497 26.569393 42.714003 0.091937 0.899464 0.022872 0.013471 -48112.100000 0 0 1
33.418736 1.593797 26.149283 42.463361 0.047656 0.907385 0.026411 0.018031 455509.000000 0 0 1
32.626336 1.233797 24.998703 41.120982 0.037798 0.917345 0.037430 0.009769 290435.000000 0 0 1
32.959836 -0.122503 24.747363 41.216474 -0.003717 0.926765 0.041049 0.000193 -976377.000000 0 0 1
32.005636 -0.766203 23.745433 39.859671 -0.023935 0.932627 0.052829 0.012595 72752.000000 0 0 1
30.713036 -1.086203 24.227943 39.133919 -0.035351 0.903196 0.053635 0.004048 -440115.000000 0 0 1
30.053236 -1.780203 23.222683 38.021824 -0.059166 0.913761 0.058889 -0.001649 -648706.000000 0 0 1
28.591336 -2.062303 23.554583 37.101697 -0.072006 0.882962 0.065374 0.003859 -726397.000000 0 0 1
27.843836 -0.895303 23.530883 36.466192 -0.032143 0.869407 0.050537 0.006208 -1325840.000000 0 0 1
26.503836 -1.257003 23.614383 35.520029 -0.047392 0.843545 0.047850 0.008099 -571105.000000 0 0 1
25.577736 -0.012503 23.700323 34.870131 -0.000489 0.823478 0.047748 0.006131 -209937.000000 0 0 1
25.571136 0.744197 22.501683 34.069965 0.029095 0.849372 0.041292 0.005999 410867.000000 0 0 1
24.670936 1.861397 22.535283 33.465786 0.075306 0.832021 0.034320 0.008883 323443.000000 0 0 1
24.762436 2.688897 21.254683 32.744006 0.108164 0.864374 0.029790 0.007265 -106150.000000 0 0 1
24.289436 2.152897 20.064283 31.578269 0.088404 0.882292 0.041956 0.004193 238851.000000 0 0 1
23.769636 3.185097 19.214683 30.730188 0.133205 0.895318 0.031514 0.003070 52176.400000 0 0 1
23.593536 2.737897 17.778783 29.668773 0.115528 0.928242 0.033184 0.003031 437413.000000 0 0 1
24.773236 2.803297 16.973183 30.160580 0.112679 0.973075 0.023698 -0.002546 658243.000000 0 0 1
24.446036 3.072197 15.578083 29.150021 0.125017 1.006986 0.016999 0.000031 51705.500000 0 0 1
23.809036 2.003197 14.653283 28.028587 0.083938 1.020667 0.020605 0.012248 -569981.000000 0 0 1
22.429336 1.839397 14.728683 26.895958 0.081825 0.991283 0.030205 0.007775 -385728.000000 0 0 1
22.127736 0.706797 13.921083 26.152109 0.031931 1.009467 0.040156 0.004328 668089.000000 0 0 1
20.578336 0.375197 13.907683 24.840135 0.018231 0.976546 0.055899 -0.017939 1068160.000000 0 1 0
19.739836 1.096097 13.005683 23.664537 0.055470 0.988929 0.068183 -0.011870 698669.000000 0 1 0
19.894536 0.841597 11.628683 23.059208 0.042278 1.042229 0.081429 -0.013804 -1270820.000000 0 1 0
19.680536 -0.619603 11.144983 22.625606 -0.031473 1.055741 0.081860 -0.008520 883630.000000 0 1 0
20.830736 -1.499803 11.267483 23.730258 -0.071875 1.076042 0.078030 -0.018871 1567640.000000 0 1 0
22.031436 -1.120903 10.589183 24.469805 -0.050834 1.123261 0.086131 -0.012772 -23504.500000 0 1 0
23.246836 -2.011203 10.947683 25.774252 -0.086300 1.132108 0.083973 -0.011690 -87983.200000 0 0 1
23.468536 -1.926903 12.287283 26.560543 -0.081922 1.089855 0.067657 -0.021115 209551.000000 0 0 1
24.448736 -2.864703 12.710883 27.704038 -0.116640 1.094141 0.045193 -0.012334 29100.700000 0 0 1
24.728036 -2.711803 14.194483 28.641106 -0.109229 1.052273 0.046112 -0.012372 120119.000000 0 0 1
25.516236 -1.524603 14.366183 29.322174 -0.059679 1.058772 0.042717 -0.007086 226462.000000 0 0 1
25.719036 -1.285203 15.754883 30.188357 -0.049929 1.021736 0.036438 -0.005777 -45943.400000 0 0 1
26.959536 -0.415303 16.048683 31.377528 -0.015403 1.033901 0.053500 -0.000612 -149942.000000 0 0 1
28.162836 -1.023803 15.646583 32.233663 -0.036337 1.063963 0.061022 -0.002534 -183207.000000 0 0 1
29.240636 -0.178803 15.998383 33.331592 -0.006115 1.070168 0.050024 0.000212 -521993.000000 0 0 1
30.575336 -0.884403 16.179283 34.603504 -0.028917 1.084266 0.054889 0.002516 -485231.000000 0 0 1
31.055636 -1.388703 14.958183 34.498235 -0.044687 1.122320 0.054024 0.006434 -171633.000000 0 0 1
32.079036 -2.341703 15.115983 35.539289 -0.072869 1.131468 0.050976 0.009758 -94510.500000 0 0 1
32.629436 -2.765203 13.719283 35.504157 -0.084544 1.174057 0.046027 0.000176 175586.000000 0 0 1
33.575836 -1.857203 13.149783 36.106824 -0.055257 1.198032 0.050396 -0.008351 324827.000000 0 0 1
33.894536 -2.225903 11.798583 35.958320 -0.065577 1.236485 0.064356 -0.009941 358658.000000 0 0 1
33.078136 -1.392103 10.725083 34.801270 -0.042060 1.257516 0.090513 -0.004455 234611.000000 0 0 1
33.654036 -0.082803 10.516983 35.259153 -0.002460 1.267910 0.068352 0.002560 343508.000000 0 0 1
32.793436 0.828397 9.890983 34.262621 0.025256 1.277947 0.064207 -0.003123 -353668.000000 0 0 1
33.530936 2.115597 9.378783 34.882101 0.063010 1.298576 0.064390 -0.006902 80847.600000 0 0 1
34.074436 1.998897 8.096283 35.080088 0.058596 1.337902 0.060626 -0.003862 100593.000000 0 0 1
34.581636 3.231297 7.673383 35.569813 0.093169 1.353360 0.056765 -0.000076 -197568.000000 0 0 1
34.784536 3.407297 6.171083 35.491631 0.097643 1.396034 0.050061 -0.007630 116548.000000 0 0 1
35.385436 4.615197 5.692483 36.136318 0.129694 1.412609 0.053088 0.001433 323796.000000 0 0 1
35.473936 4.646997 4.281883 36.032336 0.130256 1.451680 0.036613 -0.000641 79542.000000 0 0 1
-35.479139 5.978397 3.747183 36.173912 -0.166936 1.467022 0.030497 -0.015438 -46465.300000 0 0 1
35.277836 7.076397 3.902983 36.191634 0.197963 1.462744 0.059797 -0.023147 -68605.200000 0 0 1
35.740736 8.225597 3.256583 36.819370 0.226207 1.482233 0.052010 -0.025989 -139384.000000 0 0 1
34.611836 9.274797 3.106183 35.967338 0.261815 1.484327 0.094920 -0.041274 1107090.000000 0 0 1
33.446136 9.137097 2.290283 34.747316 0.266681 1.504836 0.106878 -0.048482 1433530.000000 0 0 1
32.471036 8.118997 2.578283 33.569835 0.245015 1.493917 0.114014 -0.044479 356006.000000 0 0 1
31.143636 8.087697 1.802583 32.227103 0.254078 1.514833 0.136961 -0.050486 161970.000000 0 0 1
31.369636 7.849797 0.417883 32.339573 0.245200 1.557874 0.139133 -0.054026 186360.000000 0 0 1
30.127036 7.645997 -0.206617 31.082829 0.248544 1.577444 0.142300 -0.048820 -290051.000000 0 0 1
30.322436 7.557797 -1.682617 31.295393 0.244270 1.624588 0.118619 -0.040577 -772471.000000 0 0 1
29.247036 7.054597 -2.406717 30.181927 0.236686 1.650621 0.099533 -0.034627 288172.000000 0 0 1
29.626336 6.954497 -3.771417 30.664448 0.230566 1.694098 0.116006 -0.033195 -643074.000000 0 0 1
28.566636 6.362597 -4.689817 29.640002 0.219151 1.729690 0.086506 -0.025820 -642109.000000 0 0 1
28.417836 5.010797 -4.485417 29.202747 0.174532 1.725002 0.084577 -0.029176 946754.000000 0 0 1
27.379936 4.515797 -5.334917 28.258001 0.163459 1.760729 0.046252 -0.020482 -44843.500000 0 0 1
27.274536 2.986697 -5.457417 27.975061 0.109070 1.767137 0.067291 -0.020046 -289114.000000 0 0 1
26.738936 2.294297 -4.315717 27.181977 0.085594 1.730242 0.061699 -0.019617 543093.000000 0 0 1
26.373736 0.976497 -4.513417 26.774959 0.037008 1.740174 0.059237 -0.017623 -306720.000000 0 0 1
26.195436 0.158297 -3.232917 26.394652 0.006043 1.693588 0.053724 -0.021109 604648.000000 0 0 1
27.495136 -0.080303 -2.679217 27.625480 -0.002921 1.667933 0.085489 -0.027008 1253160.000000 0 0 1
27.321736 -0.615303 -1.338517 27.361423 -0.022517 1.619736 0.078538 -0.021772 -141392.000000 0 0 1
28.289436 0.115497 -0.373717 28.292140 0.004083 1.584006 0.090929 -0.019945 -1201880.000000 0 0 1
29.595536 -0.128103 -0.711017 29.604353 -0.004328 1.594816 0.110513 -0.022190 -1211370.000000 0 0 1
30.432836 0.705597 0.052883 30.441060 0.023181 1.569059 0.105603 -0.015195 -153512.000000 0 0 1
-2.848164 -21.344503 -8.694340 23.222648 1.438142 1.954536 0.014925 0.004490 123126.000000 0 1 0
-3.173164 -21.926603 -7.458740 23.376862 1.427077 1.895539 0.022761 0.000430 -248035.000000 0 1 0
-2.345564 -22.993103 -7.056340 24.165603 1.469136 1.867113 0.027267 -0.001415 -106661.000000 0 1 0
-2.885264 -23.578503 -5.725540 24.434654 1.449033 1.807316 0.024766 0.000252 -792779.000000 0 1 0
-2.706864 -22.683803 -4.673040 23.317790 1.452028 1.772569 0.021445 -0.005915 -251938.000000 0 1 0
-3.039664 -23.347003 -3.521140 23.805892 1.441330 1.719251 0.028815 -0.008111 -164313.000000 0 1 0
-2.613464 -22.654803 -2.170240 22.908082 1.455944 1.665675 0.033710 -0.015901 1008950.000000 0 1 0
-1.266064 -22.969803 -1.772240 23.072832 1.515733 1.647683 0.033078 -0.008346 216598.000000 0 1 0
-1.087864 -22.606403 -0.409840 22.636273 1.522711 1.588903 0.037974 -0.016042 -734840.000000 0 1 0
0.309236 -22.512103 0.145260 22.514695 -1.557061 1.564344 0.049251 -0.019122 -839548.000000 0 1 0
1.037136 -21.460303 -0.448840 21.490037 -1.522506 1.591684 0.026043 -0.013578 440444.000000 0 1 0
2.351736 -21.255803 0.089660 21.385692 -1.460605 1.566604 0.025924 -0.012858 818199.000000 0 1 0
3.199336 -20.165603 -0.585540 20.426212 -1.413455 1.599466 0.026545 -0.006705 66360.100000 0 1 0
3.903636 -20.800403 -1.641140 21.227069 -1.385283 1.648187 0.018776 0.004787 -215317.000000 0 1 0
4.707436 -19.775603 -2.263340 20.453780 -1.337103 1.681680 0.027179 0.008230 407598.000000 0 1 0
5.650636 -20.390403 -3.343040 21.421347 -1.300458 1.727498 0.022802 0.011248 -144318.000000 0 1 0
6.682236 -21.259803 -2.916040 22.475203 -1.266260 1.700908 0.029931 0.004616 -127484.000000 0 1 0
7.290736 -22.114103 -3.870440 23.604420 -1.252331 1.735511 0.020984 0.007200 495798.000000 0 1 0
8.493136 -21.391503 -4.572840 23.465732 -1.192850 1.766924 0.027129 0.007034 -16659.700000 0 1 0
8.101036 -20.360003 -5.519740 22.596991 -1.192110 1.817562 0.024669 0.013764 -329816.000000 0 1 0
9.235436 -19.721003 -6.022740 22.593906 -1.132825 1.840623 0.029701 0.011031 -653341.000000 0 1 0
8.914536 -18.437803 -6.879440 21.604356 -1.120442 1.894867 0.021414 0.011502 -324292.000000 0 1 0
9.391036 -18.384803 -8.163840 22.200018 -1.098543 1.947374 0.009166 0.022981 -46761.700000 0 1 0
9.299636 -17.087403 -8.601840 21.270971 -1.072387 1.987112 0.013226 0.018262 -172098.000000 0 1 0
10.100836 -16.881703 -9.914940 22.030088 -1.031605 2.037633 0.015599 0.011393 -511027.000000 0 1 0
9.679136 -17.527303 -11.085940 22.886460 -1.066241 2.076460 0.022193 0.010664 -272329.000000 0 1 0
8.783836 -16.688203 -11.777840 22.234419 -1.086292 2.129057 0.006338 0.000704 -44991.400000 0 1 0
8.179936 -17.351803 -13.058840 23.206243 -1.130275 2.168480 0.010253 -0.005823 -275197.000000 0 1 0
7.171436 -18.277603 -12.791540 23.433389 -1.196892 2.148221 0.004099 0.003427 -105401.000000 0 1 0
6.765436 -18.946003 -14.004340 24.512113 -1.227819 2.178914 0.004237 0.008779 -299187.000000 0 1 0
5.695336 -19.996303 -13.853940 24.984407 -1.293324 2.158562 0.002025 0.024672 -407117.000000 0 1 0
6.120836 -21.121403 -13.178540 25.636930 -1.288730 2.110690 0.013165 0.011098 -87753.400000 0 0 1
4.987136 -21.750203 -12.625540 25.638781 -1.345401 2.085686 0.025448 0.009893 390418.000000 0 0 1
5.171536 -23.298203 -12.578040 26.976992 -1.352366 2.055844 0.001732 0.007678 11789.100000 0 0 1
5.312336 -23.908203 -13.858040 28.140155 -1.352151 2.085716 0.014487 0.001260 -186247.000000 0 0 1
5.011836 -25.289323 -13.899240 29.289199 -1.375151 2.065251 -0.000304 0.008888 656048.000000 0 0 1
3.507936 -25.566473 -14.224540 29.466721 -1.434439 2.074568 0.005739 -0.001457 -16562.200000 0 0 1
2.600936 -24.958103 -13.326140 28.412282 -1.466959 2.058986 0.019621 0.000003 -557940.000000 0 0 1
1.288036 -25.289413 -13.717340 28.798938 -1.519908 2.067254 0.014462 -0.006362 -281878.000000 0 0 1
0.647236 -26.507973 -13.085340 29.568863 -1.546385 2.029223 0.015634 -0.009090 -984605.000000 0 0 1
1.251536 -27.734953 -13.535640 30.887011 -1.525702 2.024426 0.011672 -0.008622 258177.000000 0 0 1
0.621536 -28.947613 -13.100040 31.779893 -1.549329 1.995676 0.006473 -0.012167 389870.000000 0 0 1
-0.807164 -29.324593 -13.604240 32.336644 1.543278 2.005020 0.000974 -0.007983 1070140.000000 0 0 1
-1.855564 -28.546363 -13.009240 31.425758 1.505886 1.997604 0.008732 -0.015005 706158.000000 0 0 1
-3.157164 -29.034313 -13.336940 32.106587 1.462483 1.999174 0.020525 -0.017560 1093270.000000 0 0 1
-4.391864 -28.197543 -12.831740 31.289670 1.416284 1.993355 0.018824 -0.011862 668775.000000 0 0 1
-4.721964 -28.322443 -11.433540 30.906044 1.405594 1.949746 0.024216 -0.022285 216869.000000 0 0 1
-5.258464 -29.555723 -10.909840 31.940833 1.394722 1.919377 0.025800 -0.011116 -476264.000000 0 0 1
-5.634464 -29.511113 -9.375840 31.473152 1.382140 1.873288 0.025743 -0.008204 -401106.000000 0 0 1
-6.915364 -29.049133 -9.059440 31.204932 1.337089 1.865358 0.030426 -0.003950 -506418.000000 0 0 1
-7.048964 -27.654793 -9.204740 29.986708 1.321219 1.882794 0.033093 -0.009204 -1676670.000000 0 0 1
-8.464564 -27.139913 -9.025740 29.827633 1.268471 1.878212 0.032591 -0.002793 -322834.000000 0 0 1
-9.396764 -27.305593 -10.076440 30.584787 1.239357 1.906527 0.041755 -0.003233 18400.500000 0 0 1
-9.696764 -28.659813 -10.420840 32.000094 1.244546 1.902496 0.037518 -0.009406 -999800.000000 0 0 1
-10.901564 -28.793943 -11.367440 32.820023 1.208868 1.924481 0.037095 -0.015043 -461997.000000 0 0 1
-10.602964 -28.264943 -12.604340 32.713899 1.211914 1.966318 0.053725 -0.017851 146012.000000 0 0 1
-11.312564 -28.955723 -13.626040 33.942259 1.198346 1.983893 0.061274 -0.023269 -338838.000000 0 0 1
-11.485164 -28.093113 -14.873940 33.798906 1.182705 2.026475 0.075339 -0.022751 -25086.700000 0 0 1
-12.593664 -27.195073 -14.949640 33.491254 1.137113 2.033506 0.057873 -0.028534 304012.000000 0 0 1
-12.682764 -26.237073 -13.877140 32.277105 1.120524 2.015220 0.071900 -0.017873 -498590.000000 0 0 1
-13.661264 -25.082243 -14.101540 31.852825 1.072063 2.029414 0.092285 -0.022859 -210030.000000 0 0 1
-13.148564 -24.131503 -15.073340 31.343576 1.071899 2.072485 0.077279 -0.024375 364417.000000 0 0 1
-14.126364 -23.318903 -15.716240 31.469439 1.026130 2.093717 0.093210 -0.024711 -77440.300000 0 0 1
-13.580364 -22.686503 -17.004340 31.436464 1.031400 2.142317 0.085585 -0.024451 -89944.900000 0 0 1
-13.182164 -21.371503 -16.742740 30.179959 1.018108 2.158875 0.062084 -0.015550 243493.000000 0 0 1
-13.157864 -20.546003 -17.954440 30.292400 1.001192 2.205209 0.033745 -0.010723 -323179.000000 0 0 1
-13.326364 -19.023903 -17.653140 29.174204 0.959731 2.220680 0.034389 -0.013925 1072900.000000 0 0 1
-12.120664 -18.402603 -17.120640 27.904885 0.988372 2.231326 0.027385 -0.009193 1299690.000000 0 0 1
-12.414564 -17.036103 -16.967040 27.059760 0.941053 2.248520 0.031156 -0.008717 -259532.000000 0 0 1
-11.162664 -16.218203 -17.216040 26.153913 0.967980 2.289300 0.037360 -0.016750 -381021.000000 0 0 1
-10.251764 -16.142503 -16.154540 25.032942 1.004982 2.272253 0.035350 -0.019490 268295.000000 0 0 1
-9.025464 -15.552503 -16.595740 24.469530 1.044971 2.316135 0.038144 -0.015952 200727.000000 0 1 0
-8.271064 -14.874703 -15.384740 22.942482 1.063321 2.305785 0.026452 -0.017906 -72390.900000 0 1 0
-7.769164 -15.657303 -14.333040 22.604138 1.110193 2.257626 0.030824 -0.018692 -367974.000000 0 1 0
-6.707764 -16.506903 -14.646140 23.064721 1.184818 2.258807 0.038915 -0.016016 -832077.000000 0 1 0
-6.263064 -17.382703 -13.482840 22.872938 1.224971 2.201195 0.032086 -0.012334 -757815.000000 0 1 0
-5.720164 -16.668703 -12.401840 21.549282 1.240221 2.184025 0.025144 -0.015089 427314.000000 0 1 0
-5.310264 -17.577803 -11.297440 21.559457 1.277414 2.122352 0.010864 -0.011455 -192323.000000 0 1 0
-4.224064 -18.650703 -11.443440 22.285505 1.348071 2.110046 0.023902 -0.009093 -705335.000000 0 1 0
-2.945664 -18.118603 -11.584040 21.706005 1.409630 2.133741 0.020902 -0.001207 -1017830.000000 0 1 0
-1.959764 -19.099403 -11.739240 22.504169 1.468546 2.119577 0.018403 0.005531 -182852.000000 0 1 0
-0.574064 -18.612403 -12.130340 22.223776 1.539963 2.148172 0.015076 0.009685 -1106750.000000 0 1 0
-0.420864 -18.337303 -13.470740 22.757298 1.547849 2.204248 0.019999 0.006043 -715359.000000 0 1 0
0.832336 -17.787203 -13.731340 22.486152 -1.524036 2.227687 0.027564 0.009049 287628.000000 0 1 0
1.990736 -18.852403 -13.891340 23.502030 -1.465590 2.203181 0.018225 0.006799 -185595.000000 0 1 0
1.899436 -19.669303 -15.044540 24.836012 -1.474526 2.221511 0.028647 0.005292 301723.000000 0 1 0
1.204236 -20.897103 -14.769540 25.617931 -1.513233 2.185273 0.027675 0.000704 -307263.000000 0 0 1
1.231136 -21.870903 -16.026640 27.142315 -1.514565 2.202434 0.039139 -0.000726 -375576.000000 0 0 1
2.408736 -22.565303 -16.298340 27.939770 -1.464454 2.193629 0.032788 0.000699 -332637.000000 0 0 1
3.456736 -21.768703 -16.836740 27.736280 -1.413317 2.223114 0.022723 0.003120 352526.000000 0 0 1
4.791736 -22.557603 -17.047340 28.677830 -1.361485 2.207369 0.025538 0.003227 464394.000000 0 0 1
4.672536 -23.489803 -18.074840 30.005054 -1.374442 2.217292 0.026219 -0.005795 512492.000000 0 0 1
5.906136 -24.145803 -18.386640 30.918776 -1.330904 2.207658 0.028951 -0.006315 495246.000000 0 0 1
6.342536 -24.037203 -19.852740 31.814244 -1.312813 2.244674 0.045306 -0.008822 -155306.000000 0 0 1
6.678636 -22.715503 -20.256140 31.159419 -1.284842 2.278487 0.053486 -0.012896 35317.900000 0 0 1
6.790636 -22.575303 -21.664840 32.017531 -1.278606 2.314007 0.063096 -0.010930 -300315.000000 0 0 1
6.994536 -21.098903 -21.983740 31.262950 -1.250686 2.350668 0.063038 -0.012997 641344.000000 0 0 1
5.819336 -20.302103 -22.141040 30.598459 -1.291644 2.379800 0.055904 -0.010062 837584.000000 0 0 1
6.317136 -18.981403 -22.447240 30.067897 -1.249520 2.413660 0.070671 -0.010038 442830.000000 0 0 1
5.140236 -18.073803 -22.835440 29.572651 -1.293710 2.453063 0.065830 -0.006757 -775486.000000 0 0 1
4.528036 -18.351603 -24.055240 30.593120 -1.328890 2.475587 0.058997 -0.007584 92856.600000 0 0 1
3.615936 -17.353803 -24.483340 30.226865 -1.365370 2.514925 0.056211 -0.004746 -248608.000000 0 0 1
2.307336 -17.061403 -23.785140 29.362359 -1.436375 2.515043 0.052314 -0.004345 -911518.000000 0 0 1
2.495136 -16.387603 -22.549640 27.986880 -1.419699 2.507689 0.047196 -0.001280 335836.000000 0 0 1
1.217036 -16.019703 -22.008840 27.248873 -1.494971 2.511032 0.037027 0.005783 1005980.000000 0 0 1
1.427836 -15.334903 -20.642040 25.754451 -1.477954 2.500586 0.038302 0.006984 39636.900000 0 0 1
2.079536 -14.092003 -20.776340 25.190579 -1.424285 2.540585 0.035593 0.003731 -263028.000000 0 0 1
2.195736 -13.514403 -19.496440 23.823759 -1.409730 2.529350 0.031388 0.004422 -145465.000000 0 1 0
3.350036 -12.524503 -19.418440 23.348698 -1.309436 2.552907 0.030039 -0.001923 -620184.000000 0 1 0
4.639836 -13.083703 -19.359140 23.821999 -1.230005 2.519495 0.036376 -0.006764 496364.000000 0 1 0
5.772436 -12.247603 -19.679840 23.887672 -1.130362 2.538965 0.042134 -0.001657 1070040.000000 0 1 0
6.089436 -11.157903 -18.605040 22.532810 -1.071221 2.542215 0.040107 0.000790 -323514.000000 0 1 0
5.096136 -10.130703 -18.359940 21.579831 -1.104721 2.588286 0.022141 0.004665 309848.000000 0 1 0
5.233636 -8.940103 -19.146340 21.769214 -1.041173 2.645637 0.033339 -0.006285 -24075.000000 0 1 0
4.680436 -8.949603 -20.595540 22.938573 -1.088937 2.685672 0.039117 -0.009686 228610.000000 0 1 0
3.263836 -8.902903 -20.678840 22.749257 -1.219407 2.711650 0.033285 -0.011425 136327.000000 0 1 0
2.815736 -8.949303 -22.011840 23.927797 -1.265970 2.738692 0.037064 -0.016180 1368510.000000 0 1 0
1.247036 -8.792703 -22.175240 23.887402 -1.429910 2.760674 0.019664 -0.013624 1445210.000000 0 1 0
0.687236 -7.545703 -21.691740 22.976977 -1.479970 2.805541 0.018848 -0.016427 120402.000000 0 1 0
-0.730564 -7.532403 -21.744640 23.023904 1.474109 2.806676 0.013160 -0.009674 439612.000000 0 1 0
-1.273364 -6.612803 -22.882540 23.852908 1.380564 2.855375 0.020015 -0.009954 -61287.700000 0 1 0
-0.866764 -7.054503 -24.176940 25.200034 1.448542 2.855667 0.022627 -0.013210 -248721.000000 0 0 1
-1.493064 -6.359603 -25.239710 26.071378 1.340199 2.888331 0.026955 -0.013453 100596.000000 0 0 1
-0.774364 -5.066803 -25.804500 26.308636 1.419139 2.945512 0.031450 -0.014170 153872.000000 0 0 1
-1.448864 -4.446803 -26.888030 27.291746 1.255821 2.969376 0.027632 -0.013888 -219629.000000 0 0 1
-0.977964 -3.166903 -27.209210 27.410341 1.271279 3.020376 0.014928 -0.011753 -989971.000000 0 0 1
-1.360964 -1.929203 -26.370600 26.476075 0.956419 3.052301 0.014246 -0.012624 67400.600000 0 0 1
-2.735864 -1.618403 -26.271270 26.462876 0.534184 3.021182 0.012793 -0.008704 -363216.000000 0 0 1
-3.351364 -1.202803 -27.434610 27.664710 0.344581 3.012527 0.030916 -0.007740 -1115660.000000 0 0 1
-4.857864 -1.313703 -27.184040 27.645916 0.264111 2.958543 0.031197 -0.006854 -302657.000000 0 0 1
-5.349164 -0.242803 -26.336980 26.875807 0.045360 2.941013 0.042674 -0.007228 1794490.000000 0 0 1
-6.815064 -0.318503 -26.270840 27.142284 0.046701 2.887507 0.047368 -0.014350 1668930.000000 0 0 1
-7.437064 0.956297 -25.675390 26.747898 -0.127884 2.857453 0.046974 -0.010668 -342519.000000 0 0 1
-7.742564 2.074597 -26.503150 27.688774 -0.261797 2.847896 0.058721 -0.012696 1331820.000000 0 0 1
-8.782764 1.931597 -27.518480 28.950557 -0.216484 2.825746 0.061480 -0.015432 1771130.000000 0 0 1
-10.272364 1.455597 -27.295110 29.200398 -0.140763 2.778355 0.050134 -0.010628 374746.000000 0 0 1
-11.147764 1.956797 -28.275410 30.456535 -0.173763 2.760841 0.054074 -0.024817 -78928.700000 0 0 1
-12.431764 1.429097 -27.999950 30.669011 -0.114453 2.721306 0.024912 -0.019360 310045.000000 0 0 1
-13.551764 2.090897 -28.884840 31.974304 -0.153083 2.698375 0.009219 -0.008584 35973.300000 0 0 1
-14.767264 1.353897 -28.832440 32.422441 -0.091427 2.666552 0.016471 -0.003966 701755.000000 0 0 1
-15.884664 2.047097 -29.377360 33.459564 -0.128166 2.642455 0.016979 -0.001091 577347.000000 0 0 1
-16.548364 3.263497 -28.599190 33.202597 -0.194711 2.608725 0.013863 0.002718 -136252.000000 0 0 1
-15.862564 4.552997 -28.710020 33.115192 -0.279514 2.619895 0.020751 -0.003085 297900.000000 0 0 1
-15.780264 5.146897 -30.047250 34.327023 -0.315281 2.636901 0.012109 -0.013374 -12217.700000 0 0 1
-17.078764 5.776597 -30.620310 35.533880 -0.326154 2.609449 -0.001299 -0.006111 -24020.200000 0 0 1
-17.571464 6.859597 -29.859120 35.318231 -0.372188 2.578168 -0.000277 -0.000000 11057.700000 0 0 1
-18.615564 7.484797 -30.564000 36.561175 -0.382291 2.560692 -0.005743 0.000117 -167731.000000 0 0 1
-19.373264 8.557697 -29.724870 36.498294 -0.415953 2.522522 0.017077 -0.007329 -323111.000000 0 0 1
-18.591664 9.698397 -29.366960 36.085000 -0.480820 2.521505 0.005996 -0.005824 534458.000000 0 0 1
-19.290664 10.545697 -28.467450 35.968558 -0.500286 2.483980 0.030567 -0.001353 -228417.000000 0 0 1
-8.407664 24.804197 30.914613 40.517284 -1.243989 0.702858 0.020654 -0.004029 -449556.000000 0 0 1
-9.133664 26.003497 30.749333 41.293185 -1.233011 0.730773 0.024992 -0.001690 -153644.000000 0 0 1
-8.879164 27.086097 31.617903 42.569802 -1.254023 0.733657 0.031477 0.002149 -852421.000000 0 0 1
-7.518364 27.745397 31.565803 42.693475 -1.306174 0.738679 0.026724 -0.002415 -694121.000000 0 0 1
-7.370764 28.647697 30.447243 42.450599 -1.318968 0.770964 0.043246 -0.001232 1755.270000 0 0 1
-6.075764 28.641297 29.904073 41.850835 -1.361762 0.774831 0.040173 -0.003557 -253355.000000 0 0 1
-5.839964 29.781097 28.923763 41.923776 -1.377157 0.809427 0.061224 -0.005743 -247472.000000 0 0 1
-5.847564 31.070797 29.551463 43.276754 -1.384771 0.819142 0.068189 -0.006921 406281.000000 0 0 1
-5.383964 32.097497 28.708173 43.398106 -1.404606 0.847969 0.087041 -0.007036 -247453.000000 0 0 1
-5.805764 33.481497 29.268723 44.848363 -1.399101 0.859765 0.073147 -0.011107 -201282.000000 0 0 1
-5.132664 33.805497 30.455793 45.789859 -1.420118 0.843141 0.057687 -0.014141 279247.000000 0 0 1
-5.922564 -34.111620 31.294943 46.669614 1.398887 0.835828 0.053051 -0.013395 532968.000000 0 0 1
-7.031564 34.065497 32.204863 47.403103 -1.367242 0.823875 0.044708 -0.009321 361282.000000 0 0 1
-6.539164 33.298797 33.321753 47.559539 -1.376885 0.794513 0.058744 -0.001561 136387.000000 0 0 1
-6.707164 31.906497 33.124301 46.478274 -1.363600 0.777480 0.056582 0.003549 -229140.000000 0 0 1
-6.472264 30.970597 -34.363564 46.711055 -1.364780 2.397440 0.041849 0.006642 -1241060.000000 0 0 1
-5.160264 30.871897 -34.000470 46.214006 -1.405177 2.397522 0.032679 0.004561 -1359520.000000 0 0 1
-5.084864 30.422897 -32.657250 44.921092 -1.405188 2.384727 0.035674 0.005384 360641.000000 0 0 1
-3.617264 30.317897 -32.076690 44.285139 -1.452046 2.380846 0.020084 0.000004 1114380.000000 0 0 1
-2.919764 29.111597 -32.331880 43.604593 -1.470835 2.406068 0.019829 -0.000409 238759.000000 0 0 1
-2.601264 28.920997 -33.734270 44.510579 -1.481094 2.430874 0.032166 0.000670 -776293.000000 0 0 1
-1.925864 27.550797 -34.085014 43.869620 -1.501008 2.460621 0.031660 -0.012746 -28313.700000 0 0 1
-0.633964 27.402297 -33.476880 43.266491 -1.547665 2.455515 0.040991 -0.002305 572375.000000 0 0 1
-0.229064 26.018997 -33.400720 42.339683 -1.561993 2.479773 0.045943 -0.006701 74118.200000 0 0 1
0.248236 25.413397 34.038082 42.479329 1.561029 0.641355 0.040198 -0.006864 -332291.000000 0 0 1
-0.847764 25.063997 33.185238 41.595465 -1.536985 0.647144 0.044211 -0.005400 591894.000000 0 0 1
-0.468064 25.008897 31.811263 40.467524 -1.552083 0.666333 0.050778 -0.000888 -579434.000000 0 0 1
-0.317664 26.391397 31.144673 40.823981 -1.558760 0.703007 0.030127 -0.003561 254657.000000 0 0 1
-1.455464 27.228997 30.988093 41.277095 -1.517394 0.721625 0.027920 -0.009135 292625.000000 0 0 1
-0.918864 28.428397 30.467593 41.680838 -1.538486 0.751049 0.029694 -0.012129 420105.000000 0 0 1
-1.986764 29.552097 30.335593 42.397192 -1.503668 0.773443 0.042741 -0.013750 150631.000000 0 0 1
-2.410864 30.096897 31.547423 43.667784 -1.490864 0.763469 0.035395 -0.012895 -278191.000000 0 0 1
-2.994864 31.351897 31.334693 44.427172 -1.475561 0.787943 0.048303 -0.007001 -355076.000000 0 0 1
-2.785564 32.365797 32.420213 45.895255 -1.484943 0.786403 0.043692 0.006461 715072.000000 0 0 1
-1.435564 32.843497 32.522913 46.243875 -1.527115 0.790780 0.048778 -0.010466 531638.000000 0 0 1
-1.037164 33.041997 33.880807 47.336649 -1.539417 0.773111 0.033555 -0.005345 22083.000000 0 0 1
0.358936 33.664897 34.102974 47.921467 1.560135 0.778962 0.025765 -0.006840 290029.000000 0 0 1
0.264236 -33.773620 33.593724 47.636809 -1.562973 0.788084 0.029714 -0.008468 674390.000000 0 0 1
1.575936 -33.265220 33.367088 47.142560 -1.523457 0.784430 0.034401 -0.006987 322215.000000 0 0 1
1.716436 -31.783720 32.998160 45.847896 -1.516845 0.767381 0.039067 -0.012339 -134836.000000 0 0 1
1.276536 -30.919820 34.040587 46.004634 -1.529534 0.737818 0.038331 -0.004422 277801.000000 0 0 1
1.632436 -29.611220 33.707090 44.896070 -1.515723 0.721554 0.050505 -0.020324 -63358.800000 0 0 1
1.184936 -28.569520 -33.988440 44.416614 -1.529345 2.442178 0.052791 -0.021339 -485656.000000 0 0 1
-0.202264 -28.426720 -33.936140 44.269413 1.563681 2.444298 0.038824 -0.024000 -495019.000000 0 0 1
-0.592264 -27.626620 -32.836830 42.916644 1.549361 2.442040 0.046340 -0.019916 125344.000000 0 0 1
-2.092764 -27.622720 -32.466740 42.678842 1.495178 2.435221 0.029402 -0.022216 -24075.600000 0 0 1
-2.340164 -26.872020 -31.306180 41.323828 1.483930 2.430397 0.032372 -0.020016 369580.000000 0 0 1
-3.690964 -26.504220 -31.072320 41.007145 1.432427 2.430623 0.039505 -0.024629 35354.500000 0 0 1
-3.979464 -25.850820 -29.691580 39.568813 1.418056 2.419431 0.038553 -0.021863 -265617.000000 0 0 1
-4.379364 -26.833320 -28.713020 39.542931 1.409016 2.383462 0.038226 -0.025200 -34144.800000 0 0 1
-4.472164 -26.230420 -27.419820 38.208398 1.401925 2.371202 0.030160 -0.018778 621894.000000 0 0 1
-3.214364 -25.627620 -26.658480 37.118480 1.446022 2.372008 0.041436 -0.017944 635979.000000 0 0 1
-2.669164 -24.501620 -27.340920 36.810049 1.462286 2.407975 0.049723 -0.018519 -129904.000000 0 0 1
-1.589664 -23.953820 -26.634540 35.856816 1.504530 2.408043 0.046126 -0.020742 -1090010.000000 0 0 1
-0.745764 -22.999720 -27.525270 35.877343 1.538383 2.445268 0.049470 -0.014441 241447.000000 0 0 1
-0.038764 -23.471620 -28.678610 37.059157 1.569145 2.455710 0.030269 -0.015902 -136581.000000 0 0 1
0.795536 -24.545920 -28.372880 37.525396 -1.538398 2.428127 0.038840 -0.012812 -1410080.000000 0 0 1
1.479736 -24.949020 -29.659080 38.785361 -1.511555 2.441369 0.029220 -0.015682 78087.600000 0 0 1
2.520936 -24.034820 -29.997980 38.521507 -1.466292 2.463440 0.037955 -0.011802 33180.700000 0 0 1
3.557836 -24.658620 -30.705910 39.541859 -1.427502 2.459955 0.042862 -0.016025 -887896.000000 0 0 1
4.481136 -23.592920 -31.320900 39.467774 -1.383097 2.487469 0.051379 -0.014582 -456042.000000 0 0 1
5.663236 -23.281320 -30.579270 38.848215 -1.332178 2.476966 0.042032 -0.016654 537153.000000 0 0 1
6.736236 -24.169720 -30.792600 39.720731 -1.298988 2.457871 0.042542 -0.006936 -245677.000000 0 0 1
7.506636 -24.129520 -32.129700 40.876655 -1.269190 2.475134 0.045093 -0.010540 -715560.000000 0 0 1
6.764836 -24.854020 -33.084320 41.929197 -1.305051 2.480061 0.032000 -0.015475 18111.100000 0 0 1
7.216536 -24.745220 34.294522 42.901265 -1.287033 0.644530 0.041954 -0.017422 125027.000000 0 0 1
6.604536 -23.469220 33.640211 41.546215 -1.296478 0.627146 0.034990 -0.014199 240676.000000 0 0 1
5.192936 -23.430520 33.593176 41.285074 -1.352691 0.620327 0.042324 -0.015276 13126.800000 0 0 1
4.650036 -22.155120 33.215250 40.196082 -1.363914 0.598236 0.051933 -0.025325 403654.000000 0 0 1
3.198636 -22.007320 33.758450 40.425071 -1.426463 0.582505 0.043039 -0.018501 358514.000000 0 0 1
2.273736 -22.949920 33.271104 40.482528 -1.472045 0.606122 0.048993 -0.022284 -142034.000000 0 0 1
1.922036 -23.979420 34.187562 41.803064 -1.490814 0.613176 0.047791 -0.015103 43586.100000 0 0 1
0.579336 -24.642220 33.806519 41.838443 -1.547291 0.630004 0.044195 -0.017964 148557.000000 0 0 1
0.594936 -25.386820 32.598543 41.322023 -1.547366 0.661795 0.048184 -0.016564 940882.000000 0 0 1
-0.741064 -25.875820 32.310873 41.401688 1.542165 0.675453 0.050300 -0.025513 1183490.000000 0 0 1
-0.798564 -26.757520 30.984893 40.947114 1.540961 0.712538 0.051221 -0.030774 94094.000000 0 0 1
-2.100164 -27.056520 30.522193 40.842015 1.493330 0.726772 0.051107 -0.030214 79988.200000 0 0 1
-2.143064 -28.253320 29.680393 41.033749 1.495090 0.762203 0.056739 -0.029828 132952.000000 0 0 1
-3.430464 -28.499320 28.845173 40.694266 1.451003 0.782963 0.059941 -0.019425 32207.500000 0 0 1
-4.556064 -28.846920 29.594123 41.577814 1.414151 0.778772 0.056944 -0.019834 -585648.000000 0 0 1
-5.719264 -28.939320 28.816293 41.238004 1.375681 0.797106 0.076786 -0.019250 -255407.000000 0 0 1
-6.853964 -29.397720 29.767043 42.394335 1.341742 0.792388 0.071272 -0.014900 666707.000000 0 0 1
-8.144764 -29.556220 29.090483 42.263028 1.301902 0.811626 0.072933 -0.008965 2083160.000000 0 0 1
-9.232164 -29.998320 29.940523 43.377033 1.272239 0.808977 0.066982 -0.008795 703351.000000 0 0 1
-9.049964 -31.337020 30.721773 44.807790 1.289651 0.815321 0.064572 -0.005503 -751736.000000 0 0 1
-9.012464 -32.497220 29.905163 45.073413 1.300265 0.845340 0.073488 -0.005373 767379.000000 0 0 1
-10.315864 -32.867920 29.443583 45.317125 1.266675 0.863576 0.073780 -0.003786 299483.000000 0 0 1
-10.327964 -34.311720 28.941683 46.060634 1.278419 0.891380 0.080738 0.003145 -375197.000000 0 0 1
-10.143464 33.494697 29.891913 46.025113 -1.276738 0.863910 0.079779 0.006671 283394.000000 0 0 1
-9.791164 32.262797 29.354053 44.703640 -1.276149 0.854446 0.071963 -0.005067 -117000.000000 0 0 1
-10.147464 31.064497 30.316633 44.576589 -1.255066 0.822894 0.065777 0.016834 -342880.000000 0 0 1
-11.522964 30.977597 30.537603 44.999283 -1.214678 0.824908 0.067513 0.026733 -558660.000000 0 0 1
-11.962364 29.697397 30.899713 44.495234 -1.187871 0.803141 0.072671 0.024760 49992.400000 0 0 1
-11.989864 29.348497 32.405053 45.334078 -1.182955 0.774450 0.068512 0.011349 -296506.000000 0 0 1
-13.081364 29.955197 33.047740 46.482137 -1.159060 0.779909 0.070483 0.011693 100743.000000 0 0 1
-13.205764 29.639597 -34.309797 47.223512 -1.151654 2.384070 0.069314 0.008022 185547.000000 0 0 1
-14.403364 30.392397 -33.659000 47.582381 -1.128235 2.356586 0.078257 -0.000245 302365.000000 0 0 1
-14.643264 29.884097 -32.382430 46.433891 -1.115179 2.342543 0.065300 0.002807 -390496.000000 0 0 1
-15.944164 30.155897 -31.943580 46.733145 -1.084434 2.323386 0.067274 -0.004158 -207922.000000 0 0 1
-16.120364 29.771297 -30.448360 45.533492 -1.074523 2.303259 0.072081 -0.007699 3860.280000 0 0 1
-16.089764 28.375397 -30.171080 44.433520 -1.054971 2.317218 0.064068 -0.014273 103889.000000 0 0 1
-16.100664 28.107097 -28.760530 43.317530 -1.050592 2.296881 0.043905 -0.012893 -98264.200000 0 0 1
-16.402364 26.592197 -28.474190 42.272473 -1.018107 2.309848 0.038449 -0.016883 1508720.000000 0 0 1
-17.831864 26.309397 -28.514230 42.699193 -0.975142 2.302036 0.041699 -0.015196 1350390.000000 0 0 1
-18.130864 25.068697 -27.955400 41.697388 -0.944638 2.305592 0.030023 -0.012019 713370.000000 0 0 1
-19.614264 24.578697 -28.114260 42.181078 -0.897265 2.300319 0.015940 -0.008799 867807.000000 0 0 1
-20.593664 25.348097 -27.437140 42.654680 -0.888519 2.269517 0.013213 -0.016755 -763802.000000 0 0 1
-21.853364 24.862897 -27.725420 43.179070 -0.849731 2.268035 0.032596 -0.020010 -265995.000000 0 0 1
-22.922264 25.150197 -26.613420 43.199962 -0.831710 2.234517 0.046259 -0.031437 325209.000000 0 0 1
-23.484964 26.470497 -26.514610 44.218269 -0.845091 2.213835 0.032754 -0.018255 938892.000000 0 0 1
-24.800164 26.452197 -25.920870 44.571946 -0.817620 2.191431 0.035468 -0.020393 860159.000000 0 0 1
-24.990864 26.278997 -24.381040 43.698559 -0.810517 2.162694 0.043017 -0.007069 -507607.000000 0 0 1
-24.654364 24.996797 -23.912640 42.479311 -0.792295 2.168716 0.033060 -0.013196 195120.000000 0 0 1
-25.756834 24.088597 -23.885240 42.593189 -0.751942 2.166119 0.042571 -0.011712 -203104.000000 0 0 1
-26.623614 24.052297 -22.628940 42.419321 -0.734701 2.133480 0.027507 -0.009687 -162809.000000 0 0 1
-25.973154 23.531997 -21.441740 41.086590 -0.736127 2.119835 0.017578 -0.006256 543072.000000 0 0 1
-25.212584 24.577797 -20.805140 40.897388 -0.772650 2.104489 0.006772 0.000067 96063.900000 0 0 1
-24.256964 24.055797 -19.718140 39.444730 -0.781234 2.094271 0.010482 -0.001521 -146006.000000 0 0 1
-24.774564 24.099397 -18.380340 39.145841 -0.771585 2.059560 0.001605 0.006462 586485.000000 0 0 1
-23.761364 23.748597 -17.435340 37.849563 -0.785129 2.049522 0.003780 -0.002609 -98580.900000 0 0 1
-24.277464 23.809097 -16.020740 37.588994 -0.775658 2.011093 -0.000843 -0.004851 -721525.000000 0 0 1
-24.616764 25.121597 -15.553640 38.457710 -0.795548 1.987157 0.004068 -0.011579 148111.000000 0 0 1
-25.140394 25.021397 -14.244040 38.223061 -0.783026 1.952665 -0.010215 -0.013563 -198992.000000 0 0 1
-25.343624 26.326097 -13.533240 38.968080 -0.804410 1.925476 -0.010782 -0.017193 520393.000000 0 0 1
-24.050764 26.822897 -13.185740 38.363665 -0.839835 1.921655 0.000495 -0.019724 549089.000000 0 0 1
-24.122364 27.888797 -12.215440 38.844439 -0.857688 1.890695 0.007432 -0.015878 115075.000000 0 0 1
-22.685664 28.422297 -11.978440 38.287718 -0.897176 1.888992 0.020993 -0.017165 -136013.000000 0 0 1
-21.937164 27.446597 -11.354640 36.925367 -0.896502 1.883363 0.021469 -0.015222 -1683630.000000 0 0 1
-20.719164 27.918497 -10.966340 36.455272 -0.932351 1.876345 0.023589 -0.009897 -1213260.000000 0 0 1
-19.850164 26.749297 -10.407840 34.898095 -0.932382 1.873639 0.043328 -0.007862 96954.300000 0 0 1
-19.342164 25.830297 -11.404840 34.225633 -0.928053 1.910518 0.037406 -0.015881 241955.000000 0 0 1
-18.620064 24.773497 -10.757640 32.804874 -0.926264 1.904906 0.039821 0.001695 176193.000000 0 0 1
-18.127764 23.724697 -11.780040 32.097452 -0.918339 1.946587 0.036407 -0.000322 -112360.000000 0 0 1
-17.407064 22.703297 -11.161240 30.708612 -0.916680 1.942772 0.027019 0.004859 -33605.700000 0 0 1
-16.953964 21.768597 -12.116540 30.135017 -0.909100 1.984578 0.033771 0.005579 97570.900000 0 0 1
-16.677564 20.370797 -11.593440 28.766619 -0.884757 1.985607 0.033259 0.008091 -481556.000000 0 0 1
-17.841564 19.714297 -11.205240 28.853636 -0.835222 1.969634 0.039033 0.004730 -217228.000000 0 0 1
-17.505664 18.378597 -10.787940 27.578991 -0.809720 1.972694 0.056459 -0.006035 -211086.000000 0 0 1
-18.760164 17.446897 -10.648840 27.744113 -0.749143 1.964730 0.059187 -0.002765 373273.000000 0 0 1
-19.245364 16.912697 -11.832340 28.221050 -0.720974 2.003441 0.049366 -0.000280 -148351.000000 0 0 1
-20.058264 17.827497 -12.520340 29.612709 -0.726585 2.007332 0.045763 0.006629 -1398940.000000 0 0 1
-20.702564 17.369697 -13.773640 30.331761 -0.698080 2.042158 0.041693 0.008861 -642848.000000 0 0 1
-20.014964 17.301397 -14.992440 30.409051 -0.712808 2.086360 0.066229 0.003808 -274435.000000 0 0 1
-20.827764 16.837697 -16.066840 31.232149 -0.679857 2.111142 0.041857 0.005181 -50157.400000 0 0 1
-20.091164 16.679697 -17.364940 31.359342 -0.692887 2.157646 0.074616 -0.009540 -222510.000000 0 0 1
-19.502064 17.820297 -18.006340 31.970639 -0.740368 2.169068 0.050715 -0.018081 114912.000000 0 0 1
-18.555664 17.383797 -18.939540 31.705130 -0.752803 2.211008 0.052179 -0.011831 -449668.000000 0 0 1
-18.017964 18.667197 -19.676440 32.561842 -0.803094 2.219657 0.045794 -0.017497 -447414.000000 0 0 1
-17.286664 19.486997 -18.791640 32.120049 -0.845161 2.195731 0.044706 -0.008278 354446.000000 0 0 1
-16.799664 20.718297 -19.359540 32.958585 -0.889468 2.198626 0.061823 -0.032103 143455.000000 0 0 1
32.609750 30.237897 1.890160 44.511784 0.747676 1.528319 0.044787 -0.005533 -153064.000000 0 0 1
33.882350 30.365797 1.315860 45.517324 0.730719 1.541883 0.052406 -0.006574 -164115.000000 0 0 1
33.748130 31.143097 0.173160 45.922312 0.745275 1.567026 0.056530 -0.005529 -206050.000000 0 0 1
35.031900 31.277197 -0.673740 46.967553 0.728834 1.585142 0.042448 -0.005610 -19090.500000 0 0 1
-35.606357 31.999897 0.054760 47.872843 -0.732104 1.569652 0.022675 0.000212 -578009.000000 0 0 1
-34.409056 32.037897 -0.667540 47.019737 -0.749728 1.584994 0.016095 -0.004330 -709043.000000 0 0 1
-33.562194 33.172097 -0.119740 47.189228 -0.779553 1.573334 -0.010111 0.000773 -371529.000000 0 0 1
-32.868724 32.835197 1.086160 46.472389 -0.784888 1.547422 -0.000247 -0.001276 593351.000000 0 0 1
-32.104394 33.983097 1.554960 46.775645 -0.813818 1.537547 0.001152 0.000013 146783.000000 0 0 1
-31.342424 33.782897 2.884360 46.173058 -0.822854 1.508287 0.018624 -0.005762 -118956.000000 0 0 1
-31.139884 -33.742920 3.516360 46.050427 0.825496 1.494363 0.008892 0.000234 -75252.500000 0 0 1
-30.203534 -33.843420 4.574360 45.591176 0.842169 1.470293 0.035520 -0.012865 -284383.000000 0 0 1
-30.132024 -32.543220 5.475360 44.687578 0.823850 1.447962 0.035310 -0.014088 -945215.000000 0 0 1
-31.281444 -32.136620 6.086860 45.258601 0.798882 1.435897 0.034131 -0.014818 -980913.000000 0 0 1
-31.742724 -32.953220 7.157860 46.311448 0.804107 1.415615 0.035928 -0.027641 -1916800.000000 0 0 1
-32.723334 -32.230420 8.048960 46.630487 0.777810 1.397316 0.041882 -0.023872 260961.000000 0 0 1
-34.025944 -31.960620 7.530560 47.285891 0.754109 1.410859 0.024235 -0.010053 919610.000000 0 0 1
-34.771570 -33.178320 7.142560 48.588879 0.761955 1.423262 0.018368 -0.009470 -1173580.000000 0 0 1
35.348220 -32.979120 6.833460 48.824330 -0.750739 1.430375 0.008191 0.002138 -286178.000000 0 0 1
34.698290 -32.799520 8.064460 48.423294 -0.757275 1.403476 0.002414 0.003733 371846.000000 0 0 1
33.317700 -32.470020 7.857460 47.181681 -0.772514 1.403481 -0.006168 0.016246 517709.000000 0 0 1
32.443920 -32.714920 9.102060 46.965109 -0.789557 1.375757 -0.010427 0.014561 -187507.000000 0 0 1
31.071950 -32.544720 8.780660 45.844573 -0.808545 1.378074 -0.005005 0.014379 539758.000000 0 0 1
30.171780 -32.664220 9.891860 45.553666 -0.825043 1.351905 0.007455 0.007698 305980.000000 0 0 1
30.117820 -31.494820 10.863760 44.911336 -0.807744 1.326479 0.001975 0.012208 -942789.000000 0 0 1
29.564410 -30.282920 10.430660 43.587937 -0.797403 1.329150 0.010782 0.008487 25035.700000 0 0 1
30.305000 -29.556420 9.466360 43.377263 -0.772894 1.350793 0.010833 0.006356 198916.000000 0 0 1
29.468690 -28.292520 9.053860 41.843073 -0.765038 1.352695 0.009134 0.000660 615.877000 0 0 1
29.891080 -27.768520 7.797560 41.537565 -0.748603 1.381953 0.022990 -0.003430 173970.000000 0 0 1
29.360840 -26.440020 7.591760 40.233921 -0.733102 1.380968 0.006439 -0.002945 -135868.000000 0 0 1
29.557140 -25.839320 6.152460 39.738492 -0.718386 1.415347 -0.004337 -0.001861 -90309.600000 0 0 1
30.883250 -25.487120 5.864060 40.469194 -0.689963 1.425383 0.023166 -0.009942 -469742.000000 0 0 1
31.012720 -24.952620 4.566160 40.065844 -0.677535 1.456582 0.020759 -0.008534 760079.000000 0 0 1
32.488540 -24.544920 4.224860 40.936631 -0.647008 1.467407 0.036390 -0.014607 876189.000000 0 0 1
33.284350 -25.690220 3.941560 42.229981 -0.657333 1.477325 0.023341 -0.007113 1136500.000000 0 0 1
34.686510 -25.343020 3.775060 43.123934 -0.630989 1.483144 0.030470 -0.009909 1349510.000000 0 0 1
35.625424 -26.543520 3.761860 44.585658 -0.640340 1.486322 0.026727 -0.009150 -309800.000000 0 0 1
35.475420 -27.324020 4.974160 45.053854 -0.656319 1.460166 0.020409 -0.003791 -160533.000000 0 0 1
-35.645912 -28.644820 4.735860 45.973744 0.676928 1.467601 0.016770 -0.006084 -916553.000000 0 0 1
35.332210 -29.698820 5.759560 46.514057 -0.698988 1.446654 0.021514 -0.003369 1810800.000000 0 0 1
33.932060 -30.073620 5.651160 45.691826 -0.725188 1.446799 0.014008 0.001888 1305810.000000 0 0 1
33.063490 -28.941220 5.700360 44.308946 -0.719013 1.441788 0.010450 0.001145 -273958.000000 0 0 1
31.569800 -29.120320 5.265560 43.270908 -0.745060 1.448806 0.002623 0.004619 59694.300000 0 0 1
31.415800 -29.598720 3.936460 43.342040 -0.755626 1.479848 0.002324 0.006949 -248258.000000 0 0 1
30.110920 -29.418520 3.440560 42.236883 -0.773767 1.489247 0.010387 0.004928 217318.000000 0 0 1
29.013850 -30.378720 3.999660 42.197955 -0.808375 1.475871 0.011908 0.002813 -113113.000000 0 0 1
29.042900 -31.681920 3.458560 43.118392 -0.828830 1.490499 0.011016 0.012049 -998424.000000 0 0 1
27.756790 -32.208020 3.545760 42.665775 -0.859493 1.487595 0.026655 0.007500 -628620.000000 0 0 1
27.533540 -33.524620 2.744560 43.468708 -0.883206 1.507616 0.026976 0.006330 -274508.000000 0 0 1
27.387590 -33.347120 1.368660 43.173878 -0.883209 1.539090 0.034209 0.002292 193722.000000 0 0 1
27.683230 34.192797 0.718360 44.000280 0.890216 1.554469 0.032080 0.003545 -177757.000000 0 0 1
27.346050 34.219997 -0.783840 43.811289 0.896589 1.588689 0.030842 0.001016 -884104.000000 0 0 1
28.206460 -33.887920 -1.647540 44.121536 -0.876641 1.608146 0.035560 -0.002098 -480571.000000 0 0 1
27.862020 -33.881720 -3.015540 43.969951 -0.882586 1.639432 0.035572 -0.003187 -497604.000000 0 0 1
29.024280 -33.413620 -3.910740 44.431664 -0.855582 1.658927 0.039871 -0.002814 -170744.000000 0 0 1
29.290420 -32.045920 -3.766040 43.578122 -0.830292 1.657325 0.025883 0.003617 -517945.000000 0 0 1
30.211910 -31.710420 -4.737440 44.053985 -0.809593 1.678542 0.036001 0.002221 -642834.000000 0 0 1
30.538020 -30.219920 -4.658940 43.214812 -0.780163 1.678815 0.027015 0.001610 115401.000000 0 0 1
29.519710 -29.373720 -5.212440 41.969015 -0.782919 1.695315 0.018234 -0.003951 207404.000000 0 0 1
29.765600 -27.970120 -5.214540 41.176571 -0.754310 1.697776 0.023330 -0.013866 269626.000000 0 0 1
30.934810 -27.321720 -6.032140 41.711216 -0.723457 1.715922 0.010547 -0.006064 32958.600000 0 0 1
32.229470 -27.647320 -5.565040 42.826192 -0.709021 1.701110 0.005776 -0.003645 -227410.000000 0 0 1
33.225010 -27.235620 -6.466540 43.445327 -0.686658 1.720195 0.001087 -0.004278 -124803.000000 0 0 1
33.445770 -28.221120 -7.689840 44.431799 -0.700876 1.744743 -0.010006 0.017753 -1024410.000000 0 0 1
32.453890 -28.114920 -8.691040 43.809107 -0.713883 1.770506 -0.009095 0.011489 -37799.100000 0 0 1
32.421650 -29.255420 -9.565540 44.705062 -0.734108 1.786434 -0.016353 0.018395 242413.000000 0 0 1
32.069040 -30.659220 -8.976540 45.265764 -0.762927 1.770427 -0.017209 0.018882 686486.000000 0 0 1
33.123830 -31.144920 -8.095640 46.181528 -0.754617 1.747007 -0.008696 0.009168 411986.000000 0 0 1
32.923550 -32.498220 -7.738340 46.903906 -0.778897 1.736537 -0.003625 -0.003514 439177.000000 0 0 1
34.086710 -33.096920 -6.890240 48.008180 -0.770667 1.714816 0.002008 -0.008459 374722.000000 0 0 1
33.946740 34.311897 -6.446240 48.695395 0.790748 1.703565 0.009890 -0.010452 64505.600000 0 0 1
33.053320 34.214897 -5.324540 47.869948 0.802664 1.682256 0.028803 -0.010516 166973.000000 0 0 1
33.010700 32.770597 -4.821440 46.763925 0.781748 1.674082 0.026014 -0.013640 221686.000000 0 0 1
32.207460 32.034197 -5.759540 45.789547 0.782701 1.696913 0.039132 -0.026748 100849.000000 0 0 1
32.104650 30.659197 -5.468540 44.728066 0.762372 1.693365 0.037872 -0.009390 287779.000000 0 0 1
30.913200 29.961597 -6.188140 43.492716 0.769767 1.713561 0.050578 -0.014235 343587.000000 0 0 1
30.962940 30.002797 -7.617940 43.782468 0.769651 1.745682 0.035979 -0.019262 58572.200000 0 0 1
29.748620 29.467297 -8.132440 42.654878 0.780647 1.762627 0.028275 -0.021249 541235.000000 0 0 1
29.979950 29.019697 -9.599940 42.814706 0.769124 1.796940 0.020998 -0.013277 -531597.000000 0 0 1
30.596370 27.750897 -9.594640 42.406453 0.736669 1.799027 0.015896 -0.009468 83215.400000 0 0 1
31.198060 27.373597 -10.826740 42.893485 0.720195 1.825966 0.011916 -0.003222 -62363.000000 0 0 1
32.428170 28.150297 -11.284840 44.400147 0.714898 1.827778 0.011350 -0.015322 -1511490.000000 0 0 1
33.505520 28.144197 -10.399340 44.976238 0.698652 1.804126 0.017772 -0.020113 -8550.730000 0 0 1
34.569930 28.965597 -10.852940 46.388276 0.697418 1.806944 0.018742 -0.018070 11174.800000 0 0 1
34.549690 30.452797 -10.281340 47.188557 0.722455 1.790436 0.013300 -0.022450 -488820.000000 0 0 1
35.012740 30.467297 -8.919140 47.262027 0.716092 1.760652 0.018194 -0.017740 177787.000000 0 0 1
35.001260 31.778297 -8.358340 48.008439 0.737173 1.745790 0.020966 -0.018798 -638386.000000 0 0 1
-35.787501 31.778497 -6.991940 48.368434 -0.726133 1.715860 0.011943 -0.014332 871724.000000 0 0 1
-34.369711 31.798497 -7.122340 47.361896 -0.746559 1.721750 0.011224 -0.006726 244774.000000 0 0 1
-33.725184 30.710097 -7.706540 46.258933 -0.738640 1.738172 0.015944 -0.007078 344782.000000 0 0 1
-32.306944 31.066097 -8.348040 45.590907 -0.765821 1.754943 0.046947 -0.011791 858937.000000 0 0 1
-31.312284 31.391897 -7.413640 44.954115 -0.786668 1.736469 0.042134 -0.006425 -890782.000000 0 0 1
-30.061744 31.648297 -7.937740 44.365876 -0.811102 1.750680 0.029866 -0.018305 -1164230.000000 0 0 1
-29.788514 32.922697 -8.845840 45.271497 -0.835335 1.767457 0.010156 -0.012143 -826910.000000 0 0 1
-29.838284 34.155697 -8.220540 46.092431 -0.852762 1.750105 -0.000645 -0.000673 533505.000000 0 0 1
-28.739374 -34.251620 -7.368440 45.314667 0.872684 1.734128 0.011441 -0.003614 324052.000000 0 0 1
-28.974344 -32.903220 -6.673040 44.347085 0.848807 1.721843 0.002377 0.010450 309658.000000 0 0 1
-30.071344 -32.771720 -5.781440 44.851939 0.828342 1.700057 -0.003232 0.009139 231435.000000 0 0 1
-29.724014 -33.201520 -4.457740 44.785371 0.840606 1.670497 0.003060 0.001455 82735.700000 0 0 1
-30.907904 -33.101720 -3.477640 45.421541 0.819658 1.647435 0.017639 -0.002718 -196938.000000 0 0 1
-31.308704 -31.752720 -3.150640 44.703431 0.792439 1.641334 0.015435 0.006261 -549712.000000 0 0 1
-32.141124 -31.845320 -2.050940 45.292192 0.780775 1.616094 0.019882 -0.001264 -725739.000000 0 0 1
-33.229284 -30.757520 -2.099940 45.327918 0.746788 1.617141 0.032329 0.008223 -635451.000000 0 0 1
-33.897994 -30.771320 -0.894340 45.790261 0.737087 1.590329 0.015660 0.009065 -646642.000000 0 0 1
-34.620568 -29.585220 -0.694940 45.545054 0.707133 1.586055 0.020428 0.003829 -353690.000000 0 0 1
-35.541850 -29.337120 0.534060 46.088773 0.690053 1.559208 0.015318 0.003808 -645425.000000 0 0 1
34.929430 -30.140320 0.493060 46.138347 -0.711931 1.560110 0.004104 0.011799 32598.700000 0 0 1
33.929480 -29.938720 1.492060 45.274306 -0.722995 1.537834 0.003680 0.010263 627563.000000 0 0 1
33.140360 -28.627120 1.566560 43.820652 -0.712460 1.535039 0.001717 0.015598 -954261.000000 0 0 1
32.156250 -28.445220 0.554860 42.935566 -0.724238 1.557873 0.002770 0.009573 108293.000000 0 0 1
31.462070 -27.243520 0.852860 41.626898 -0.713662 1.550307 0.011953 0.005078 626836.000000 0 0 1
30.110790 -27.203120 0.046960 40.579202 -0.734709 1.569639 0.008104 -0.018226 1129910.000000 0 0 1
28.992240 -28.032220 0.412160 40.330202 -0.768565 1.560577 0.006452 -0.002964 708258.000000 0 0 1
29.027060 -29.302020 -0.141240 41.245588 -0.790112 1.574221 0.002621 0.005947 -429187.000000 0 0 1
28.483640 -29.693820 -1.493440 41.173670 -0.806197 1.607076 0.011383 -0.008148 645308.000000 0 0 1
27.052720 -29.668520 -1.625440 40.183489 -0.831482 1.611258 0.021494 0.004025 885802.000000 0 0 1
26.636670 -29.876920 -2.994540 40.138632 -0.842671 1.645471 0.020986 0.003435 -458366.000000 0 0 1
25.203410 -30.331820 -3.169440 39.563576 -0.877482 1.650992 0.020770 0.001381 -302854.000000 0 0 1
24.229610 -29.293920 -3.083440 38.140731 -0.879736 1.651728 0.041457 -0.001087 291718.000000 0 0 1
22.923410 -29.847620 -3.214240 37.771610 -0.915865 1.655996 0.038693 -0.002753 272972.000000 0 0 1
21.915110 -28.684220 -3.406440 36.258245 -0.918387 1.664884 0.045001 0.003667 -223212.000000 0 0 1
21.896410 -28.089420 -4.668640 35.920252 -0.908665 1.701137 0.048598 0.002748 134324.000000 0 0 1
21.430510 -26.743120 -4.619840 34.580401 -0.895235 1.704794 0.044112 -0.002671 240001.000000 0 0 1
20.701710 -26.243020 -5.935040 33.948219 -0.902894 1.746526 0.043962 -0.023725 990170.000000 0 0 1
19.382710 -26.755120 -6.185740 33.612338 -0.943850 1.755883 0.048561 -0.012687 354258.000000 0 0 1
18.944110 -26.176220 -7.424040 33.154037 -0.944331 1.796637 0.068731 -0.018694 876579.000000 0 0 1
17.383110 -26.224220 -7.584740 32.363722 -0.985430 1.807356 0.058243 -0.012033 610107.000000 0 0 1
16.762810 -25.269720 -6.812340 31.079873 -0.985090 1.791779 0.035691 -0.005247 -525558.000000 0 0 1
15.365810 -25.447320 -6.814340 30.497696 -1.027567 1.796136 0.035771 -0.002522 299105.000000 0 0 1
14.692210 -24.582320 -5.634640 29.187337 -1.032089 1.765067 0.008175 0.013039 -25266.600000 0 0 1
15.023910 -24.983820 -4.309140 29.469948 -1.029388 1.717544 -0.004966 0.022138 235041.000000 0 0 1
14.404310 -24.221020 -3.282640 28.371071 -1.034281 1.686760 -0.002440 0.026827 -190900.000000 0 0 1
14.580410 -24.902420 -1.870540 28.917431 -1.041106 1.635527 0.006860 0.021630 293019.000000 0 0 1
13.717610 -26.028620 -1.838340 29.479508 -1.085767 1.633197 0.010989 0.022304 289643.000000 0 0 1
14.402210 -27.084920 -1.226540 30.700504 -1.082078 1.610759 0.020541 0.018922 -84755.900000 0 0 1
13.722110 -28.467720 -1.389440 31.632862 -1.121633 1.614734 0.027292 0.016101 194961.000000 0 0 1
12.556910 -28.721220 -0.622140 31.352377 -1.158638 1.590641 0.040732 0.005031 276119.000000 0 0 1
11.918310 -29.993820 -0.869940 32.286718 -1.192569 1.597744 0.042858 -0.000157 -86374.800000 0 0 1
12.665710 -31.247520 -0.416240 33.719445 -1.185699 1.583141 0.043866 0.004971 -571990.000000 0 0 1
13.775710 -31.506220 -1.228440 34.408155 -1.158606 1.606506 0.046846 0.015778 -187249.000000 0 0 1
14.312010 -32.862220 -1.106840 35.860622 -1.160053 1.601666 0.044082 0.017083 -168668.000000 0 0 1
15.713010 -32.977420 -1.714440 36.569772 -1.126143 1.617695 0.039582 0.014787 209362.000000 0 0 1
16.703810 -32.118320 -1.139240 36.220183 -1.091221 1.602255 0.041035 0.026994 770518.000000 0 0 1
17.859010 -31.945920 -1.953240 36.651074 -1.061040 1.624114 0.031316 0.029167 580267.000000 0 0 1
18.884810 -30.852120 -1.505940 36.204381 -1.021522 1.612404 0.035421 0.025211 47946.300000 0 0 1
18.366510 -29.578920 -1.447040 34.847312 -1.015127 1.612333 0.035825 0.017119 -206478.000000 0 0 1
19.138410 -28.746420 -0.634840 34.540388 -0.983417 1.589177 0.036319 0.014897 -322467.000000 0 0 1
18.573810 -27.275020 -0.518040 33.002750 -0.972948 1.586494 0.029740 0.019823 3189.990000 0 0 1
18.614210 -26.444720 -1.680240 32.382638 -0.957463 1.622707 0.020769 0.016145 580437.000000 0 0 1
17.810610 -26.823120 -2.832540 32.322142 -0.984641 1.658544 0.034050 0.016836 80188.100000 0 0 1
32.070230 -29.811120 13.581260 45.843791 -0.748907 1.270031 -0.012530 0.006989 99795.200000 0 0 1
32.704910 -29.968620 14.827260 46.771540 -0.741766 1.248216 0.005703 0.014147 114964.000000 0 0 1
31.989390 -30.826520 15.706560 47.119969 -0.766888 1.230962 -0.008178 0.024873 13248.300000 0 0 1
32.816810 -31.096520 17.006860 48.302897 -0.758489 1.210996 0.000083 0.022001 13827.400000 0 0 1
31.982610 -31.593020 18.071960 48.452059 -0.779270 1.188571 -0.009735 0.011974 507084.000000 0 0 1
32.575260 -31.806020 19.392060 49.485579 -0.773451 1.168130 -0.023224 0.009223 -175521.000000 0 0 1
33.343850 -33.125020 19.497060 50.884326 -0.782106 1.177577 -0.020349 0.017180 -39371.800000 0 0 1
34.471380 -33.250720 18.645260 51.395838 -0.767376 1.199549 -0.018626 0.024370 29176.500000 0 0 1
34.968390 34.229797 18.587160 52.344530 0.774725 1.207783 -0.005014 0.017382 -338496.000000 0 0 1
-35.534115 34.121097 17.504060 52.281113 -0.765115 1.229396 0.002058 0.014619 -161340.000000 0 0 1
-34.368888 -34.003420 18.000160 51.589329 0.780053 1.214386 0.013132 0.011560 -294420.000000 0 0 1
-33.511594 -33.852620 16.902660 50.544305 0.790461 1.229814 0.027119 0.009942 -849000.000000 0 0 1
-32.171014 -33.209620 17.253160 49.351034 0.801282 1.213651 0.013484 -0.002179 -86700.700000 0 0 1
-31.134094 -33.112620 16.292960 48.282896 0.816184 1.226592 0.029430 -0.011425 267831.000000 0 0 1
-31.370584 -32.166920 15.234260 47.443725 0.797931 1.243904 0.042333 -0.013072 -572563.000000 0 0 1
-30.173554 -32.011920 14.280360 46.250785 0.814952 1.256908 0.041435 -0.019057 325219.000000 0 0 1
-29.021114 -31.450020 14.922960 45.321337 0.825543 1.235266 0.052216 -0.025685 286872.000000 0 0 1
-27.980844 -31.430820 13.943160 44.330980 0.843402 1.250841 0.046846 -0.024466 127990.000000 0 0 1
-26.672034 -30.915720 14.578860 43.355765 0.858956 1.227852 0.049649 -0.027549 79118.100000 0 0 1
-25.593074 -30.844820 13.653760 42.341865 0.878185 1.242464 0.048035 -0.024779 -588414.000000 0 0 1
-24.435564 -30.623720 14.422960 41.748423 0.897319 1.218053 0.019712 -0.016859 -861820.000000 0 0 1
-23.222964 -30.532120 13.525260 40.674920 0.920541 1.231821 0.034750 -0.014335 -645792.000000 0 0 1
-22.798464 -31.706020 12.818560 41.101790 0.947394 1.253632 0.034284 -0.024619 -156035.000000 0 0 1
-21.477164 -31.629020 12.328760 40.170410 0.974281 1.258850 0.043097 -0.026857 126534.000000 0 0 1
-20.906064 -33.064720 12.245260 40.991287 1.006981 1.267436 0.040480 -0.020072 40125.100000 0 0 1
-21.566964 -33.863720 11.266260 41.699090 1.003703 1.297216 0.030345 -0.017600 412139.000000 0 0 1
-20.943064 33.629997 11.134660 41.152999 -1.013817 1.296814 0.031846 -0.006673 298654.000000 0 0 1
-21.771364 32.877897 10.087360 40.702620 -0.985900 1.320356 0.018817 -0.007689 -25138.200000 0 0 1
-21.721964 33.474897 8.815160 40.867096 -0.995193 1.353384 0.021079 -0.007146 -267504.000000 0 0 1
-22.783764 33.110297 7.952760 40.971186 -0.968090 1.375450 0.018728 -0.009551 -674686.000000 0 0 1
-22.708764 33.437197 6.448060 40.930571 -0.974203 1.412601 0.020257 -0.005833 -1170520.000000 0 0 1
-21.933964 32.707797 5.599060 39.777485 -0.980073 1.429568 0.025037 -0.010706 -449158.000000 0 0 1
-20.535464 32.700897 5.838060 39.053002 -1.010058 1.420743 0.017372 -0.010579 2197.320000 0 0 1
-19.734864 33.993797 5.457060 39.684035 -1.044806 1.432846 0.026605 -0.009736 -624232.000000 0 0 1
-19.867064 -33.658620 6.327660 39.593462 1.037575 1.410292 0.033024 -0.012587 48281.000000 0 0 1
-19.152064 -33.876220 7.541460 39.639292 1.056241 1.379377 0.033248 -0.013891 -452904.000000 0 0 1
-19.235164 -32.725220 8.599760 38.921555 1.039412 1.348007 0.030187 -0.015153 -651089.000000 0 0 1
-18.675564 -31.535320 8.130960 37.541519 1.036124 1.352480 0.044837 -0.019265 -356093.000000 0 0 1
-18.637964 -30.438420 9.059160 36.823084 1.021369 1.322226 0.053507 -0.011833 401242.000000 0 0 1
-17.786064 -30.611920 10.372760 36.892112 1.044451 1.285789 0.037896 -0.006438 -920682.000000 0 0 1
-16.471464 -30.812120 10.067060 36.359890 1.079871 1.290258 0.049145 -0.012757 -1187610.000000 0 0 1
-15.619964 -30.819220 11.251460 36.337350 1.101703 1.255983 0.061818 -0.014888 837455.000000 0 0 1
-14.271864 -31.559720 11.083560 36.366844 1.146100 1.261098 0.071493 -0.009301 119740.000000 0 0 1
-13.301764 -30.748320 10.451360 35.094545 1.162505 1.268403 0.037194 -0.004294 -647081.000000 0 0 1
-12.237964 -31.581220 10.070160 35.334818 1.201105 1.281798 0.034843 0.003746 -89717.900000 0 0 1
-11.114764 -30.827420 9.305260 34.065462 1.224756 1.294122 0.025687 0.010257 392835.000000 0 0 1
-10.327164 -30.049120 10.213960 33.375514 1.239766 1.259775 0.019946 0.015095 10994.400000 0 0 1
-9.409064 -29.178720 9.533260 32.106249 1.258861 1.269322 0.024047 0.016414 216289.000000 0 0 1
-8.505164 -28.526020 10.561160 31.584961 1.281033 1.229856 0.014531 0.026603 -1821.520000 0 0 1
-9.225364 -27.535020 11.296760 31.159292 1.247510 1.199795 0.015021 0.019950 -126602.000000 0 0 1
-8.695264 -27.325020 12.564260 31.306948 1.262712 1.157833 0.020121 0.015901 83239.000000 0 0 1
-9.299664 -26.105520 13.365960 30.767366 1.228579 1.121402 0.023604 0.005910 170631.000000 0 0 1
-8.964564 -24.847520 12.799060 29.352660 1.224548 1.119598 0.019913 0.004513 100937.000000 0 0 1
-9.703264 -24.386820 11.662860 28.720944 1.192111 1.152641 0.017906 0.004573 18407.000000 0 0 1
-9.212764 -23.009120 11.206160 27.200601 1.189948 1.146168 0.006992 0.001919 9138.320000 0 0 1
-8.109464 -23.104320 10.330460 26.576144 1.233237 1.171563 -0.000243 -0.002913 -233679.000000 0 0 1
-7.562164 -21.838920 10.086760 25.216413 1.237448 1.159271 0.000526 -0.000650 -353759.000000 0 0 1
-6.332864 -21.888220 9.161060 24.558591 1.289159 1.188525 0.000775 -0.007028 -623772.000000 0 1 0
-5.231564 -22.403220 9.827560 25.017084 1.341389 1.167085 -0.002754 -0.009312 -438996.000000 0 0 1
-4.087664 -22.417320 8.942060 24.478678 1.390434 1.196841 0.006779 -0.011846 953304.000000 0 1 0
-2.904564 -23.282320 9.447060 25.293277 1.446683 1.188016 0.022758 -0.010343 131672.000000 0 0 1
-2.119664 -22.591420 10.420960 24.969214 1.477244 1.140266 0.027306 -0.009362 -61065.400000 0 1 0
-1.263664 -23.630020 10.952860 26.075656 1.517370 1.137305 0.037416 -0.006336 460685.000000 0 0 1
-0.348664 -23.149920 12.120160 26.133095 1.555736 1.088533 0.035185 -0.000087 -338919.000000 0 0 1
-0.978464 -22.882120 13.343460 26.506542 1.528061 1.043264 0.041494 0.000199 -613783.000000 0 0 1
-0.122964 -22.481220 14.377460 26.685797 1.565327 1.001822 0.051599 -0.001761 -75385.600000 0 0 1
0.679436 -21.162120 14.197560 25.492503 -1.538701 0.980110 0.055158 -0.011319 -677820.000000 0 0 1
1.625336 -21.035620 13.243360 24.910352 -1.493684 1.010260 0.061597 -0.016745 -1221760.000000 0 1 0
1.979836 -19.733720 13.066660 23.750307 -1.470803 0.988231 0.061063 -0.015425 422313.000000 0 1 0
3.436736 -19.387620 12.616060 23.384951 -1.395354 1.000959 0.071123 -0.025026 611657.000000 0 1 0
3.801936 -20.002920 11.392260 23.331419 -1.382968 1.060679 0.070301 -0.011281 -105732.000000 0 1 0
5.187336 -19.771820 11.173160 23.295339 -1.314219 1.070563 0.070868 -0.016458 463269.000000 0 1 0
5.710136 -20.456020 9.854860 23.413088 -1.298583 1.136345 0.070017 -0.023308 -372011.000000 0 1 0
5.714236 -19.731020 8.651560 22.289350 -1.288902 1.172175 0.063409 -0.027707 -252440.000000 0 1 0
6.136736 -20.524320 7.551060 22.713999 -1.280259 1.231906 0.057395 -0.028910 267780.000000 0 1 0
7.526336 -21.235720 7.531060 23.755387 -1.230190 1.248205 0.062576 -0.010319 677970.000000 0 1 0
8.707036 -20.456520 7.270260 23.390989 -1.168387 1.254746 0.075601 -0.019000 506734.000000 0 1 0
9.189136 -19.514820 8.216460 23.081998 -1.130715 1.206846 0.081065 -0.012917 348956.000000 0 1 0
9.919436 -20.095120 9.483860 24.334187 -1.112262 1.170454 0.050076 -0.006369 391552.000000 0 1 0
8.944036 -20.231020 10.507560 24.488748 -1.154535 1.127326 0.064047 -0.007794 -55539.200000 0 1 0
9.345736 -19.656720 11.733760 24.726717 -1.126983 1.076358 0.044522 -0.008938 -198662.000000 0 1 0
8.424136 -19.965720 12.927860 25.233423 -1.171529 1.032900 0.052019 -0.007350 -76454.200000 0 0 1
8.420636 -21.346620 13.115160 26.430905 -1.195065 1.051574 0.048909 -0.007172 -201864.000000 0 0 1
7.467836 -21.600520 14.116460 26.863088 -1.237935 1.017498 0.059619 -0.009566 18572.100000 0 0 1
7.704836 -22.893220 14.868160 28.364171 -1.246149 1.019035 0.040249 -0.008986 58417.400000 0 0 1
7.623836 -24.079520 14.106060 28.929692 -1.264171 1.061460 0.040494 -0.007557 -279568.000000 0 0 1
7.632536 -25.175120 14.991060 30.278279 -1.276427 1.052836 0.035945 -0.007402 278714.000000 0 0 1
7.574736 -26.501120 14.163260 30.988448 -1.292392 1.096121 0.033334 -0.010131 -463601.000000 0 0 1
8.770136 -26.788720 13.530760 31.267112 -1.254412 1.123258 0.035298 -0.001272 -872835.000000 0 0 1
8.536336 -27.788820 12.555160 31.665748 -1.272760 1.163106 0.034562 -0.010228 278715.000000 0 0 1
9.787436 -28.290320 11.750260 32.159054 -1.237721 1.196756 0.036575 -0.017437 567699.000000 0 0 1
10.615836 -29.185920 12.506160 33.480113 -1.221941 1.187974 0.027925 -0.016865 374801.000000 0 0 1
11.762736 -29.516120 11.736760 33.872036 -1.191567 1.216956 0.020880 -0.020418 367667.000000 0 0 1
12.916936 -30.261120 12.456760 35.181721 -1.167360 1.208878 0.024002 -0.020979 -310462.000000 0 0 1
13.500736 -29.552920 13.508560 35.187017 -1.142275 1.176772 0.023999 -0.016487 3053.440000 0 0 1
14.406236 -30.256820 14.336960 36.449461 -1.126425 1.166537 0.041851 -0.014445 468089.000000 0 0 1
15.864136 -30.273420 13.811660 36.863434 -1.088111 1.186754 0.050652 -0.013139 -222412.000000 0 0 1
16.536936 -29.023820 13.787060 36.137728 -1.052901 1.179362 0.044308 -0.019987 253750.000000 0 0 1
17.866636 -29.227720 13.327760 36.757387 -1.022116 1.199754 0.048605 -0.019571 88240.500000 0 0 1
18.619136 -27.887820 13.193960 36.034474 -0.982117 1.195930 0.049662 -0.020749 187529.000000 0 0 1
19.981236 -28.131420 12.867360 36.826560 -0.953203 1.213861 0.035311 -0.018556 399992.000000 0 0 1
20.760336 -26.948220 12.816160 36.351782 -0.914380 1.210492 0.027424 -0.021456 -527514.000000 0 0 1
22.127636 -27.068820 12.183360 37.024148 -0.885500 1.235483 0.028691 -0.011389 -792277.000000 0 0 1
23.050436 -27.761020 12.979460 38.346619 -0.877841 1.225498 0.039472 -0.012034 -1070530.000000 0 0 1
24.149736 -28.039020 12.196060 38.963320 -0.859784 1.252432 0.024399 -0.013430 -802729.000000 0 0 1
25.316936 -28.757620 12.933660 40.437947 -0.848941 1.245236 0.027125 -0.006269 439657.000000 0 0 1
26.255636 -27.958220 13.653560 40.711671 -0.816793 1.228796 0.014776 -0.005282 1214010.000000 0 0 1
27.442636 -27.723520 12.838960 41.067393 -0.790490 1.252834 -0.002587 0.000121 353482.000000 0 0 1
28.546636 -26.982420 13.593960 41.566298 -0.757236 1.237624 0.017529 -0.004089 -603930.000000 0 0 1
28.441236 -25.629320 13.917860 40.736627 -0.733440 1.222119 0.031231 -0.014226 -272368.000000 0 0 1
27.517736 -25.298520 14.902560 40.240865 -0.743405 1.191428 0.040490 -0.007189 -474066.000000 0 0 1
28.236536 -25.116220 16.268960 41.143718 -0.726980 1.164274 0.026357 -0.004632 -133051.000000 0 0 1
28.762136 -26.359420 16.760560 42.461699 -0.741836 1.165031 0.019069 -0.002867 144457.000000 0 0 1
29.352936 -26.236620 18.009160 43.293012 -0.729397 1.141773 0.028977 -0.000516 -182575.000000 0 0 1
29.818836 -27.571520 18.628160 44.680645 -0.746260 1.140745 0.012892 0.009682 -136622.000000 0 0 1
28.766436 -28.347720 19.155660 44.699445 -0.778067 1.127916 -0.000859 0.001930 -23814.300000 0 0 1
29.249336 -29.388820 19.935160 46.006923 -0.787777 1.122636 0.003235 -0.000074 381454.000000 0 0 1
28.088436 -30.285320 20.480960 46.104561 -0.823015 1.110483 -0.004484 0.002798 -713074.000000 0 0 1
27.147236 -29.600220 21.286160 45.455979 -0.828598 1.083452 -0.004043 0.007611 1198910.000000 0 0 1
25.916236 -30.302220 21.612260 45.353783 -0.863257 1.074097 0.001750 0.001923 1425310.000000 0 0 1
25.052136 -30.801020 20.429360 44.650544 -0.887966 1.095571 0.016438 -0.002626 -1628660.000000 0 0 1
25.645136 -31.873720 19.761760 45.432744 -0.893266 1.120794 0.005759 -0.006459 -406802.000000 0 0 1
24.975136 -32.276820 18.593660 44.847238 -0.912249 1.143293 0.021023 -0.006612 -528220.000000 0 0 1
25.324936 -31.430720 17.324460 43.924702 -0.892566 1.165368 0.021789 0.000478 495116.000000 0 0 1
26.655036 -31.590220 16.815960 44.622970 -0.869927 1.184408 -0.002506 0.001727 517134.000000 0 0 1
26.947336 -30.494320 15.983160 43.720978 -0.847069 1.196549 0.008966 -0.007214 -394758.000000 0 0 1
28.395936 -30.534320 15.472660 44.475579 -0.821669 1.215476 0.013903 0.001573 -568701.000000 0 0 1
28.627736 -31.502620 14.513560 44.973390 -0.833173 1.242200 0.033179 0.011768 267522.000000 0 0 1
28.896336 -32.841720 14.907460 46.214816 -0.849217 1.242354 0.043241 0.003455 -614202.000000 0 0 1
27.981936 -33.855720 14.224460 46.168537 -0.880101 1.257603 0.038816 -0.000913 -155522.000000 0 0 1
28.306736 -34.099120 12.852960 46.143471 -0.877951 1.288519 0.046316 -0.003182 348248.000000 0 0 1
27.749636 33.438297 12.385160 45.183561 0.878102 1.293135 0.037328 -0.013574 -236326.000000 0 0 1
28.061836 33.226697 10.913260 44.839484 0.869471 1.324942 0.061227 -0.014351 247857.000000 0 0 1
29.367236 32.673397 10.766960 45.231768 0.838638 1.330449 0.033860 -0.010960 450556.000000 0 0 1
29.470436 31.874897 9.563360 44.451924 0.824574 1.353962 0.033633 -0.015109 -1020970.000000 0 0 1
30.877936 31.360697 9.519160 45.028376 0.793155 1.357786 0.011959 -0.006663 -1029610.000000 0 0 1
31.225436 30.621397 10.685660 45.020897 0.775632 1.331160 0.003784 0.001926 546567.000000 0 0 1
32.540736 30.070197 10.555060 45.546960 0.745960 1.336930 0.019738 -0.001120 704333.000000 0 0 1
32.999336 29.230997 11.811560 45.639022 0.724917 1.309013 0.018083 0.007053 -65326.700000 0 0 1
32.390636 27.959197 11.833660 44.394882 0.712101 1.300980 0.008383 -0.002186 248228.000000 0 0 1
32.613836 27.318997 13.063860 44.504543 0.697281 1.272869 0.021971 -0.013399 -93584.500000 0 0 1
32.458536 25.752097 12.874360 43.387512 0.670694 1.269530 0.009112 -0.006701 -143251.000000 0 0 1
33.445736 25.121897 12.094560 43.543144 0.644220 1.289334 0.008419 0.008581 -326595.000000 0 0 1
33.234236 23.682897 11.881660 42.503740 0.619136 1.287477 0.013225 0.001664 140433.000000 0 0 1
31.984736 23.354597 11.004960 41.104376 0.630695 1.299758 0.009496 -0.006506 265463.000000 0 0 1
30.787536 23.165897 11.716760 40.271747 0.645063 1.275585 0.019405 -0.012782 -549574.000000 0 0 1
29.811436 22.735697 10.808860 39.018779 0.651548 1.290108 0.019701 -0.010388 -1408560.000000 0 0 1
28.660636 22.064097 11.474460 37.946274 0.656078 1.263600 0.012908 -0.008697 -1582680.000000 0 0 1
27.855136 22.974497 12.110360 38.084077 0.689672 1.247188 0.017048 -0.015194 -595458.000000 0 0 1
27.118736 22.262897 13.069560 37.441632 0.687380 1.214223 0.034878 -0.019871 -525365.000000 0 0 1
24.116236 9.355197 26.094083 36.742532 0.370050 0.781032 0.015433 0.006035 -67529.800000 0 0 1
23.591936 8.201697 26.722353 36.577745 0.334578 0.751650 0.019123 0.002982 253298.000000 0 0 1
22.192436 8.024597 26.622483 35.576045 0.346964 0.725261 0.027081 0.002581 222674.000000 0 0 1
21.633636 6.774597 27.406143 35.566923 0.303478 0.691091 0.043727 -0.001936 -97577.400000 0 0 1
21.807236 6.815097 28.832943 36.787765 0.302899 0.670092 0.053786 -0.005737 1160620.000000 0 0 1
23.154736 6.451597 29.228473 37.842681 0.271738 0.688236 0.043509 -0.007941 917991.000000 0 0 1
23.305636 6.369997 30.779223 39.129146 0.266808 0.665503 0.043953 -0.012414 -454123.000000 0 0 1
23.346236 7.611597 31.438883 39.892186 0.315164 0.663086 0.051639 -0.009180 137161.000000 0 0 1
23.405036 7.417997 32.779493 40.955067 0.306925 0.642873 0.052962 -0.013202 -67258.800000 0 0 1
23.357036 8.660597 33.690275 41.899781 0.355076 0.636690 0.059922 -0.010782 486044.000000 0 0 1
24.533236 9.456297 33.531209 42.610365 0.367899 0.664985 0.046428 -0.011103 235487.000000 0 0 1
24.878736 10.181297 -34.063140 43.392485 0.388444 2.473494 0.052559 -0.005517 759096.000000 0 0 1
26.060536 11.220797 -34.160639 44.407286 0.406576 2.448475 0.031767 -0.002111 650402.000000 0 0 1
25.632236 12.447897 33.973598 44.341482 0.452089 0.697919 0.024645 -0.004577 362259.000000 0 0 1
25.620636 13.471697 -33.816000 44.513205 0.484085 2.433624 0.031314 -0.007185 -292085.000000 0 0 1
25.137836 14.800497 34.291537 45.020828 0.532124 0.704892 0.035191 -0.008524 -214435.000000 0 0 1
26.147636 15.490697 33.544153 45.264453 0.534836 0.736133 0.024015 -0.012043 232968.000000 0 0 1
25.911736 16.829897 33.249511 45.389354 0.576030 0.748751 0.031687 -0.010304 -311415.000000 0 0 1
26.322536 17.912997 34.296501 46.797450 0.597532 0.748264 0.020072 -0.016180 -195493.000000 0 0 1
25.839136 17.674397 -33.081740 45.546095 0.599918 2.383772 0.020139 -0.023135 12896.000000 0 0 1
26.773436 17.076897 -32.243130 45.255460 0.567772 2.363807 0.026584 -0.019788 -534244.000000 0 0 1
26.078136 16.541597 -30.982140 43.744561 0.565265 2.357814 0.016748 -0.010635 -34232.400000 0 0 1
25.041536 15.634797 -31.240220 42.982284 0.558135 2.384471 0.027448 -0.009818 -94434.300000 0 0 1
24.530336 15.069697 -30.050590 41.615755 0.550889 2.377624 0.031479 -0.007378 -140425.000000 0 0 1
23.900436 13.703697 -30.273460 40.932927 0.520605 2.403253 0.039214 -0.006370 -234126.000000 0 0 1
22.714536 13.872397 -31.071040 40.912138 0.548270 2.433275 0.037728 -0.008767 641582.000000 0 0 1
22.238836 12.588997 -31.552120 40.602770 0.515106 2.460830 0.033940 0.003157 179196.000000 0 0 1
21.332836 11.854797 -30.517080 39.075801 0.507214 2.467016 0.038363 -0.000710 -690322.000000 0 0 1
20.127636 12.532897 -30.268880 38.449972 0.556923 2.477097 0.038987 0.009160 -159100.000000 0 0 1
19.351136 11.653697 -29.473800 37.134620 0.542052 2.487666 0.037810 0.008983 803922.000000 0 0 1
17.985536 12.225797 -28.893890 36.163607 0.597011 2.496388 0.028647 0.006531 1306040.000000 0 0 1
16.994436 12.448997 -29.894110 36.571111 0.632229 2.527721 0.015065 0.012383 -244475.000000 0 0 1
15.900836 13.135297 -29.387890 35.902934 0.690440 2.529656 0.015077 -0.000031 -1120210.000000 0 0 1
14.818536 13.369197 -30.404710 36.369916 0.734026 2.560722 0.017648 -0.002482 -75475.800000 0 0 1
14.101536 12.256397 -30.982290 36.179758 0.715509 2.598943 0.009966 0.008516 -283822.000000 0 0 1
12.919636 11.897797 -30.332010 35.050041 0.744247 2.616728 0.008118 -0.000403 -75393.400000 0 0 1
11.982536 11.134297 -31.363400 35.372540 0.748721 2.660867 0.011748 0.005306 518229.000000 0 0 1
11.517236 12.087197 -32.328920 36.385521 0.809540 2.664885 0.007758 0.004482 -584846.000000 0 0 1
10.434936 11.710597 -33.110560 36.637892 0.842938 2.699187 0.005733 0.008857 -324914.000000 0 0 1
10.091336 12.840697 -34.109437 37.817618 0.904720 2.695050 0.015200 0.008212 448346.000000 0 0 1
11.121136 12.930797 33.634657 37.711740 0.860496 0.469293 0.007082 0.008840 457185.000000 0 0 1
10.546936 13.248897 32.388293 36.548223 0.898462 0.481762 0.011225 -0.002535 271057.000000 0 0 1
11.619936 13.365497 31.233963 35.905708 0.855148 0.515820 0.014609 0.001160 368960.000000 0 0 1
12.085836 12.112697 30.822323 35.253375 0.786508 0.506787 -0.003195 0.001868 -194969.000000 0 0 1
12.164336 12.035197 29.435183 34.047717 0.780062 0.526587 0.007414 -0.002512 -539660.000000 0 0 1
12.723736 10.726397 28.832533 33.290599 0.700429 0.523477 0.011764 0.004191 226114.000000 0 0 1
11.921636 9.554597 29.066693 32.837301 0.675625 0.483931 0.020910 -0.002725 735387.000000 0 0 1
12.577036 8.386097 28.546843 32.302178 0.588080 0.486994 -0.002604 -0.006820 590183.000000 0 0 1
11.613136 7.154097 28.837703 31.900770 0.552127 0.441805 0.007486 -0.010892 1362700.000000 0 0 1
10.391936 7.171197 28.056353 30.766497 0.604033 0.422876 0.019221 -0.015388 906676.000000 0 0 1
9.478236 6.108897 28.372673 30.531363 0.572512 0.378294 0.017002 -0.021705 -117507.000000 0 0 1
9.732436 4.777997 27.672923 29.721040 0.456370 0.373410 0.021195 -0.013685 389701.000000 0 0 1
10.792436 4.037097 28.316153 30.570890 0.357953 0.386469 0.003988 -0.007464 657070.000000 0 0 1
11.006036 2.882197 27.580863 29.835279 0.256123 0.391237 -0.003774 -0.006090 -228645.000000 0 0 1
11.531436 1.715397 28.449633 30.745702 0.147675 0.388916 -0.001692 -0.005732 -229071.000000 0 0 1
10.525236 1.156697 29.254393 31.111702 0.109458 0.347280 0.009467 -0.000218 -422436.000000 0 0 1
10.976536 0.175797 30.171103 32.106240 0.016014 0.348965 0.013763 -0.001823 176018.000000 0 0 1
9.882936 -0.016303 31.256373 32.781603 -0.001650 0.306243 0.028986 -0.005505 210825.000000 0 0 1
9.768236 1.107397 32.108653 33.579910 0.112885 0.297111 0.007864 -0.007056 -665537.000000 0 0 1
8.655436 1.042597 32.923085 34.057790 0.119878 0.258858 0.018859 -0.009093 -600031.000000 0 0 1
8.681136 2.241197 33.904803 35.070226 0.252652 0.258522 0.017311 -0.007227 41586.400000 0 0 1
8.640436 3.554197 33.366971 34.650313 0.390248 0.273012 0.005491 -0.005709 849297.000000 0 0 1
9.878536 3.971997 32.749648 34.436923 0.382301 0.314330 -0.003630 -0.001155 490201.000000 0 0 1
9.712836 5.302297 32.042623 33.899605 0.499695 0.332525 -0.002639 -0.002750 -86310.000000 0 0 1
9.952536 6.419197 32.879663 34.947550 0.572839 0.345729 -0.007698 0.000119 58486.100000 0 0 1
10.112436 7.585297 32.127473 34.524956 0.643563 0.374863 -0.004972 -0.001929 -288629.000000 0 0 1
10.233536 8.934497 32.951671 35.642153 0.717731 0.391038 0.004902 0.002146 58768.400000 0 0 1
9.039436 9.527397 33.443016 35.929347 0.811673 0.374203 0.011412 -0.004682 -74841.400000 0 0 1
8.474136 8.863997 -34.157895 36.292467 0.807880 2.796914 0.008533 -0.002476 591119.000000 0 0 1
7.080036 9.395497 -33.673160 35.669090 0.925023 2.805478 0.009093 0.000250 765195.000000 0 0 1
6.552236 8.652497 -32.590210 34.349953 0.922662 2.820117 0.005225 -0.000640 631851.000000 0 0 1
5.246536 9.135597 -32.221330 33.899843 1.049491 2.825593 0.013950 0.000420 805411.000000 0 0 1
4.674036 8.386497 -30.966130 32.420381 1.062344 2.840942 0.013360 -0.003769 -229403.000000 0 0 1
5.193836 8.796897 -29.687110 31.395634 1.037453 2.810171 0.017079 -0.009152 40177.200000 0 0 1
4.892436 7.938297 -28.621310 30.102024 1.018472 2.826637 0.012210 -0.004047 -75678.600000 0 0 1
3.466636 7.631397 -28.076560 29.301007 1.144406 2.851479 0.014629 0.001197 120228.000000 0 0 1
2.714536 6.946197 -29.050730 29.992720 1.198251 2.890304 0.013747 0.002782 -82544.600000 0 0 1
1.321936 7.069897 -28.828670 29.712340 1.385950 2.897095 0.029233 0.005904 108186.000000 0 0 1
0.480936 6.566197 -30.026300 30.739631 1.497683 2.925741 0.036945 0.002203 -248004.000000 0 0 1
0.433836 7.464397 -31.130750 32.016074 1.512741 2.905877 0.033660 0.002504 105673.000000 0 0 1
0.035036 6.869697 -32.328280 33.050138 1.565696 2.932206 0.053228 -0.012555 -409666.000000 0 0 1
0.176736 7.759097 -33.627980 34.511967 1.548022 2.914771 0.071218 -0.021513 -106915.000000 0 0 1
1.509536 8.045997 -33.994070 34.965891 1.385339 2.905275 0.050607 -0.016371 107649.000000 0 0 1
2.312636 7.066497 34.104561 34.905655 1.254515 0.214656 0.050337 -0.009204 -262543.000000 0 0 1
1.882936 6.608997 32.689002 33.403520 1.293245 0.207206 0.050550 -0.021080 -492978.000000 0 0 1
0.813836 5.697597 32.707191 33.209716 1.428918 0.174185 0.065216 -0.023805 89639.700000 0 0 1
0.249436 5.315597 31.403483 31.851162 1.523905 0.167859 0.080696 -0.022229 341756.000000 0 0 1
1.250936 4.649097 30.409053 30.787813 1.307951 0.157020 0.088698 -0.022739 94939.800000 0 0 1
0.644236 4.342497 29.169013 29.497519 1.423515 0.149382 0.068536 -0.022915 135787.000000 0 0 1
1.463936 3.534097 28.337063 28.594092 1.178082 0.134182 0.060069 -0.014959 37382.600000 0 0 1
1.475736 4.011897 26.871123 27.209012 1.218318 0.157760 0.056522 -0.012872 215146.000000 0 0 1
2.129636 5.259497 26.645163 27.242657 1.186062 0.209823 0.061586 -0.013571 139772.000000 0 0 1
2.048636 5.619097 25.277803 25.975729 1.221188 0.232334 0.049875 -0.007068 -292727.000000 0 0 1
2.620336 7.076297 24.832783 25.953945 1.216155 0.295001 0.039144 -0.002034 -257919.000000 0 0 1
4.011936 7.231597 24.821213 26.162649 1.064292 0.321612 0.038503 0.000071 -498066.000000 0 0 1
4.572536 6.817797 23.600783 24.987745 0.980023 0.334744 0.048382 -0.007895 -474466.000000 0 1 0
6.111436 6.721197 23.562583 25.253108 0.832879 0.367978 0.045368 -0.007912 -212315.000000 0 0 1
6.700736 5.732397 24.336083 25.884458 0.707671 0.347634 0.050153 -0.007430 -241606.000000 0 0 1
6.425636 4.321797 24.248123 25.454630 0.592090 0.309120 0.063920 -0.011020 -762675.000000 0 0 1
6.671036 3.545797 22.901583 24.115511 0.488546 0.318641 0.051109 -0.011610 -174089.000000 0 1 0
5.892436 3.876997 21.800483 22.913161 0.581952 0.312918 0.038495 -0.011901 500684.000000 0 1 0
4.545736 3.357497 21.836883 22.556284 0.636168 0.253237 0.044992 -0.015080 766416.000000 0 1 0
3.535336 4.023197 20.913083 21.588000 0.849853 0.250710 0.030459 -0.015808 -148498.000000 0 1 0
3.123736 5.315597 21.246883 22.123366 1.039504 0.282427 0.025108 -0.009925 407532.000000 0 1 0
1.995536 5.697197 20.439183 21.311978 1.233884 0.287179 0.019082 -0.009483 509291.000000 0 1 0
1.654236 7.187397 20.561983 21.844686 1.344578 0.344392 0.020836 0.001743 230076.000000 0 1 0
2.481636 8.053197 19.780583 21.500790 1.271874 0.402733 0.011573 -0.002298 173206.000000 0 1 0
2.052336 9.365797 20.104583 22.273852 1.355075 0.445004 0.018398 0.002049 200507.000000 0 1 0
3.034436 10.438697 19.634583 22.443062 1.287902 0.505645 0.026171 -0.007610 -752874.000000 0 1 0
3.092236 10.639997 18.247283 21.347946 1.287964 0.545716 0.006204 -0.009293 405426.000000 0 1 0
4.179536 11.336597 17.624883 21.368749 1.217581 0.600953 0.014362 -0.017545 843903.000000 0 1 0
5.645836 10.892397 17.900783 21.701562 1.092594 0.600839 0.024400 -0.021208 45729.700000 0 1 0
5.939136 9.566797 17.552483 20.853935 1.015218 0.570397 0.022532 -0.013342 13633.200000 0 1 0
7.311036 9.286597 17.744083 21.320052 0.903868 0.587603 0.032116 -0.007202 98134.600000 0 1 0
7.582436 7.844097 18.185683 21.207127 0.802358 0.540353 0.038648 -0.006680 -298069.000000 0 1 0
7.221436 7.573497 19.513683 22.142511 0.809190 0.492239 0.035884 -0.005324 -100775.000000 0 1 0
7.313336 6.185597 19.845483 22.036099 0.702049 0.449672 0.048575 -0.013819 230926.000000 0 1 0
8.752636 5.702197 20.144383 22.691845 0.577417 0.478391 0.055592 -0.006981 -553231.000000 0 1 0
9.560236 5.708597 19.034783 22.052418 0.538298 0.529300 0.049070 -0.010275 205337.000000 0 1 0
10.881636 5.163797 19.295783 22.746473 0.443075 0.558034 0.064983 -0.016233 1126040.000000 0 1 0
11.080636 3.619397 19.310583 22.556133 0.315716 0.543097 0.084515 -0.016040 -699542.000000 0 1 0
10.470336 2.988297 20.384783 23.110543 0.278015 0.490589 0.063602 -0.015450 -60066.800000 0 1 0
10.632136 1.595297 20.211883 22.893394 0.148934 0.488858 0.061880 -0.025357 104289.000000 0 1 0
9.560636 0.795097 21.019583 23.105428 0.082973 0.428175 0.064854 -0.021793 310310.000000 0 1 0
9.820436 0.947697 22.347683 24.428631 0.096205 0.415746 0.044552 -0.016965 237535.000000 0 1 0
8.893136 0.269097 23.186783 24.835200 0.030250 0.366393 0.056898 -0.026297 -165903.000000 0 1 0
9.324136 0.426097 24.674643 26.381036 0.045667 0.361641 0.056274 -0.020122 67168.100000 0 0 1
10.555136 -0.196203 24.976223 27.115698 -0.018586 0.399904 0.036659 -0.018348 26839.100000 0 0 1
10.500036 -1.601903 24.982603 27.146773 -0.151394 0.402004 0.031578 -0.019666 -113162.000000 0 0 1
11.873736 -2.278403 25.230753 27.977984 -0.189582 0.446862 0.005446 -0.007842 190273.000000 0 0 1
11.781636 -3.674503 25.183423 28.044851 -0.302323 0.455663 0.009319 -0.001458 265173.000000 0 0 1
13.077736 -4.268603 25.240453 28.745932 -0.315500 0.499018 0.007450 0.004168 399687.000000 0 0 1
13.024536 -5.807903 25.367083 29.100844 -0.419456 0.512144 0.014538 0.000083 -296455.000000 0 0 1
12.675936 -6.391203 24.152783 28.015776 -0.467002 0.531370 0.021000 -0.012092 121687.000000 0 0 1
12.541936 -7.794403 24.264023 28.404149 -0.556055 0.546705 0.033950 -0.024348 -46224.400000 0 0 1
12.176036 -8.642403 23.004983 27.425831 -0.617265 0.575708 0.036265 -0.017147 95082.300000 0 0 1
11.937636 -10.005803 23.244083 27.980540 -0.697588 0.590391 0.046737 -0.010989 -394610.000000 0 0 1
12.036436 -10.842203 22.103783 27.404495 -0.733247 0.632461 0.044883 -0.017982 43428.600000 0 0 1
11.397636 -12.197203 22.426283 27.957396 -0.819273 0.639894 0.049792 -0.010622 -696026.000000 0 0 1
10.047036 -12.083003 22.674783 27.587817 -0.877140 0.606035 0.031764 -0.005514 -1301010.000000 0 0 1
9.328736 -13.293003 22.823883 28.011763 -0.958878 0.618418 0.029443 -0.001068 -111340.000000 0 0 1
7.856136 -13.015203 23.140383 27.687392 -1.027725 0.581257 0.025742 0.000529 -95918.100000 0 0 1
7.153936 -12.450303 22.044883 26.309042 -1.049263 0.577335 0.024161 -0.002384 -289769.000000 0 0 1
5.762836 -12.330203 22.261983 26.092912 -1.133587 0.548742 0.012584 -0.006620 420473.000000 0 0 1
5.199936 -11.164203 21.377783 24.671610 -1.134907 0.522662 0.002210 -0.004965 161319.000000 0 1 0
5.415736 -9.925303 22.100583 24.824939 -1.071299 0.472887 0.007301 -0.001755 -51124.200000 0 1 0
4.976836 -8.848003 21.263583 23.562597 -1.058421 0.445421 0.000548 -0.001057 117620.000000 0 1 0
5.344036 -7.481203 21.927683 23.777098 -0.950519 0.397017 0.009144 -0.004787 32907.700000 0 1 0
4.925836 -6.400103 21.123183 22.614465 -0.914838 0.365189 0.013512 -0.011181 -233933.000000 0 1 0
5.020936 -5.173903 21.807083 22.967976 -0.800401 0.319298 0.027166 -0.017738 20260.900000 0 1 0
-7.390264 -15.703403 -20.641640 26.968317 1.130931 2.442464 0.009557 0.000491 152972.000000 0 0 1
-7.274164 -15.134603 -19.372040 25.636801 1.122763 2.427418 0.017064 -0.003843 -176632.000000 0 0 1
-6.752564 -13.812903 -19.402440 24.755768 1.116101 2.471484 0.024205 -0.013834 -198431.000000 0 1 0
-5.886164 -13.535403 -18.188540 23.423856 1.160594 2.459883 0.016906 -0.012315 -928403.000000 0 1 0
-4.788864 -14.385203 -18.161740 23.658319 1.249434 2.445991 0.015792 0.002325 -642303.000000 0 1 0
-3.836164 -13.803703 -17.266240 22.436163 1.299728 2.448967 0.002482 0.006251 350083.000000 0 1 0
-2.949164 -14.814503 -16.492540 22.364501 1.374292 2.400073 0.013578 0.008399 653115.000000 0 1 0
-1.826364 -15.283303 -17.253940 23.121708 1.451860 2.413166 0.011022 0.013165 -227143.000000 0 1 0
-1.090264 -16.164403 -16.506340 23.128680 1.503450 2.365526 0.018583 0.014447 -640888.000000 0 1 0
0.159636 -16.661303 -17.277040 24.002512 -1.561215 2.374312 0.019632 0.021399 -109749.000000 0 1 0
0.096936 -17.330503 -18.510040 25.356997 -1.565203 2.389086 0.032611 0.013518 -409583.000000 0 0 1
-0.007664 -18.692803 -18.360240 26.201514 1.570386 2.347219 0.034298 0.016340 -165116.000000 0 0 1
-0.583564 -19.316403 -19.657840 27.566186 1.540595 2.364727 0.036705 0.013131 -170909.000000 0 0 1
-1.889764 -18.831303 -19.818740 27.403861 1.470779 2.379235 0.062693 -0.001819 -505194.000000 0 0 1
-2.367864 -18.957403 -21.114140 28.474494 1.446535 2.406115 0.061422 -0.013323 489666.000000 0 0 1
-3.588164 -18.045803 -21.481340 28.283809 1.374520 2.433329 0.054807 -0.002822 606190.000000 0 0 1
-3.228964 -16.670903 -21.617540 27.489329 1.379477 2.475752 0.051928 0.006510 -144640.000000 0 0 1
-3.303264 -15.819503 -20.442940 26.059202 1.364945 2.472655 0.033411 0.003558 -370450.000000 0 0 1
-2.317864 -14.664803 -20.432940 25.257354 1.414037 2.513228 0.028239 0.004693 -446928.000000 0 0 1
-2.527264 -13.705803 -21.435740 25.568086 1.388451 2.565098 0.025048 -0.001390 -234778.000000 0 0 1
-1.575664 -12.674003 -21.360140 24.887118 1.447108 2.602707 0.004529 0.012347 9859.600000 0 1 0
-1.509364 -11.750603 -22.633340 25.546485 1.443046 2.659371 0.008051 0.015090 749175.000000 0 0 1
-2.678164 -10.938503 -22.892840 25.512850 1.330682 2.684425 0.006351 0.003902 702134.000000 0 0 1
-2.593464 -10.207603 -24.096140 26.297246 1.321989 2.729536 0.013960 -0.005313 62556.900000 0 0 1
-3.688464 -9.123603 -24.049440 25.985004 1.186608 2.753182 0.009185 -0.003264 73190.300000 0 0 1
-5.049164 -9.523903 -24.154540 26.450720 1.083315 2.721841 0.020928 -0.008109 461827.000000 0 0 1
-5.740664 -8.298703 -23.991340 26.027064 0.965626 2.743454 0.020078 -0.011634 -649379.000000 0 0 1
-7.252064 -8.399303 -23.668340 26.140601 0.858567 2.703175 0.009040 -0.017846 602217.000000 0 0 1
-8.084564 -8.680503 -24.814240 27.503778 0.820930 2.695668 0.016223 -0.014690 291855.000000 0 0 1
-8.376064 -7.562303 -25.651660 28.024177 0.734386 2.727149 0.019160 -0.018956 -306320.000000 0 0 1
-9.177564 -8.054803 -26.860190 29.505547 0.720336 2.714910 0.016781 -0.017857 196064.000000 0 0 1
-9.828864 -7.050103 -27.637020 30.168118 0.622233 2.729040 0.024280 -0.016555 154422.000000 0 0 1
-10.273964 -7.607303 -28.895890 31.597434 0.637358 2.725070 0.023876 -0.014924 -128566.000000 0 0 1
-11.167664 -6.607103 -29.653440 32.368148 0.534241 2.729115 0.026948 -0.017811 9694.640000 0 0 1
-10.526764 -5.584503 -30.347290 32.603028 0.487753 2.767425 0.009199 -0.008917 219289.000000 0 0 1
-11.488664 -5.133103 -31.302830 33.737298 0.420187 2.759377 0.036734 -0.019326 138524.000000 0 0 1
-10.921964 -4.054503 -32.145450 34.191493 0.355457 2.793894 0.025673 -0.021302 -885979.000000 0 0 1
-9.943164 -4.430703 -33.019660 34.767737 0.419191 2.823141 0.030703 -0.014293 -520939.000000 0 0 1
-9.409364 -3.343803 -33.788640 35.233355 0.341450 2.854234 0.025283 -0.015762 -16810.100000 0 0 1
-8.256064 -3.863403 34.050266 35.249242 0.437678 0.261568 0.016775 -0.016458 -277700.000000 0 0 1
-7.020964 -4.043203 -34.065110 35.015327 0.522492 2.908094 0.016518 -0.015495 -341085.000000 0 0 1
-5.967464 -4.366403 33.767938 34.568045 0.631687 0.215572 0.015570 -0.014136 756906.000000 0 0 1
-4.572864 -3.875603 34.263729 34.784113 0.703054 0.173193 0.024739 -0.012244 423441.000000 0 0 1
-4.385664 -2.446103 34.121495 34.489040 0.508774 0.146122 0.034756 -0.021085 -420900.000000 0 0 1
-3.042964 -2.131003 34.340602 34.540957 0.610931 0.107760 0.029804 -0.019020 -275574.000000 0 0 1
-2.900664 -0.640603 -33.895740 34.025658 0.217358 3.054178 0.044769 -0.020823 -182212.000000 0 0 1
-3.255764 -0.596003 -32.559170 32.726973 0.181056 3.040284 0.040128 -0.019836 111678.000000 0 0 1
-3.631564 0.681697 -32.129690 32.341458 -0.185555 3.027093 0.063341 -0.021150 -816458.000000 0 0 1
-4.056064 0.571397 -30.660630 30.933030 -0.139954 3.008784 0.080958 -0.024703 292308.000000 0 0 1
-5.155164 -0.254703 -30.332030 30.768045 0.049367 2.973042 0.054229 -0.022007 148918.000000 0 0 1
-6.416564 0.279697 -30.692930 31.357718 -0.043562 2.935314 0.055670 -0.025781 -416181.000000 0 0 1
-7.536464 -0.768903 -30.701210 31.622046 0.101673 2.899673 0.041857 -0.024377 -5318.790000 0 0 1
-7.913964 -1.245003 -29.378110 30.450849 0.156038 2.875370 0.034407 -0.016781 131682.000000 0 0 1
-9.045764 -2.084403 -29.424490 30.854030 0.226475 2.835996 0.014671 -0.011708 3964.350000 0 0 1
-9.377564 -2.801203 -28.067170 29.724593 0.290276 2.806077 0.013440 -0.009310 -150176.000000 0 0 1
-9.944264 -1.968103 -27.057970 28.894559 0.195388 2.783133 0.016925 -0.009607 211323.000000 0 0 1
-10.181964 -2.623603 -25.840930 27.898196 0.252186 2.755156 0.016966 -0.005947 423774.000000 0 0 1
-11.126864 -1.705903 -24.958440 27.379571 0.152129 2.717887 0.019208 -0.004327 408952.000000 0 0 1
-10.523864 -0.521203 -24.514940 26.683434 0.049485 2.735655 0.022405 -0.010228 -170551.000000 0 0 1
-11.379664 0.175397 -23.666540 26.260857 -0.015412 2.693349 0.031999 -0.009859 -148466.000000 0 0 1
-10.671764 1.418097 -23.074840 25.462635 -0.132109 2.705061 0.032720 -0.015164 225897.000000 0 0 1
-10.367164 2.390797 -24.016940 26.267992 -0.226650 2.724583 0.035833 -0.015660 380027.000000 0 0 1
-9.594164 3.520897 -23.509240 25.634529 -0.351724 2.731522 0.033937 -0.016293 96360.800000 0 0 1
-9.610364 4.771897 -24.456540 26.706786 -0.460873 2.728148 0.047257 -0.017167 745401.000000 0 0 1
-10.907464 5.312797 -24.778440 27.589303 -0.453258 2.686266 0.050125 -0.013072 591745.000000 0 0 1
-11.598164 4.628197 -25.817660 28.679072 -0.379683 2.691086 0.043664 -0.020571 17874.700000 0 0 1
-12.908864 5.391397 -26.140030 29.648054 -0.395629 2.650202 0.042295 -0.015208 224006.000000 0 0 1
-12.705464 6.720697 -26.656820 30.285023 -0.486547 2.647076 0.038782 -0.010905 8534.860000 0 0 1
-13.956564 7.208397 -27.102010 31.325159 -0.476751 2.616312 0.044790 -0.014228 170254.000000 0 0 1
-14.082764 8.754997 -27.141970 31.806615 -0.556210 2.593162 0.063791 -0.007003 -133310.000000 0 0 1
-14.176764 9.341397 -25.865070 30.939363 -0.582622 2.560735 0.073222 -0.015212 65984.900000 0 0 1
-14.473664 10.723897 -25.992560 31.624391 -0.637668 2.535561 0.074678 -0.017479 -114011.000000 0 0 1
-14.299064 11.663797 -24.775840 30.892550 -0.684243 2.501433 0.064282 -0.018140 36310.400000 0 0 1
-15.258464 11.420697 -23.777940 30.473652 -0.642529 2.465908 0.079074 -0.015420 118203.000000 0 0 1
-14.888664 12.185697 -22.615740 29.692343 -0.685893 2.436681 0.072697 -0.016681 -43284.800000 0 0 1
-15.700964 11.942997 -21.317240 29.044452 -0.650285 2.394919 0.079296 -0.006079 -565362.000000 0 0 1
-17.000864 12.390397 -21.532240 30.102968 -0.629801 2.367830 0.069546 -0.011168 -760358.000000 0 0 1
-17.475964 13.034797 -20.381940 29.845246 -0.640853 2.322550 0.056817 0.002463 -907917.000000 0 0 1
-18.953964 13.362097 -20.442840 30.914529 -0.614058 2.293306 0.048944 -0.009093 -843402.000000 0 0 1
-19.134964 14.373297 -21.340140 32.064624 -0.644239 2.299007 0.042940 -0.019356 221277.000000 0 0 1
-20.530064 14.618997 -21.324940 33.014416 -0.618786 2.273035 0.019464 -0.016215 60846.400000 0 0 1
-20.926864 15.989897 -21.780440 34.175986 -0.652455 2.261789 0.014684 -0.021720 -316947.000000 0 0 1
-20.808164 16.094297 -23.170940 35.055649 -0.658348 2.292915 0.024643 -0.022821 254378.000000 0 0 1
-21.244864 17.365597 -23.603740 36.194540 -0.685262 2.281194 0.006130 -0.011192 13613.100000 0 0 1
-21.184164 17.371497 -25.133940 37.178659 -0.686831 2.313160 0.005704 -0.011076 -339711.000000 0 0 1
-19.866864 17.563497 -25.551000 36.824208 -0.723938 2.337638 0.018352 -0.018070 -281622.000000 0 0 1
-19.582164 16.774097 -26.659080 37.088247 -0.708314 2.372873 0.019653 -0.021991 -697827.000000 0 0 1
-18.470064 17.350797 -27.525780 37.414730 -0.754162 2.397487 0.008095 -0.013868 -486619.000000 0 0 1
-18.743664 18.580397 -28.149100 38.586629 -0.781024 2.388393 -0.019943 -0.024014 209789.000000 0 0 1
-18.382464 19.723097 -27.366120 38.416404 -0.820566 2.363645 -0.023337 -0.031344 -1135950.000000 0 0 1
-19.030664 21.096797 -27.705280 39.684047 -0.836842 2.343602 0.005563 -0.019992 832293.000000 0 0 1
-20.168864 21.485997 -26.921420 39.914834 -0.817008 2.311045 0.021303 -0.012805 792813.000000 0 0 1
-21.377964 20.769497 -27.038030 40.242321 -0.770963 2.307541 0.043270 -0.025646 -44866.800000 0 0 1
-22.454364 21.287197 -26.022120 40.428875 -0.758721 2.270057 0.048457 -0.018126 193542.000000 0 0 1
-22.098264 21.036397 -24.726740 39.271809 -0.760786 2.251874 0.019748 -0.013965 530112.000000 0 0 1
-23.043764 21.669097 -23.829940 39.603420 -0.754664 2.216442 0.013416 -0.022707 322074.000000 0 0 1
-22.858764 21.276597 -22.357240 38.406547 -0.749565 2.192131 -0.001471 -0.005417 -441420.000000 0 0 1
-21.732764 21.828197 -21.732040 37.697013 -0.787589 2.185226 0.003522 -0.006514 88978.400000 0 0 1
-20.794864 20.829597 -21.301640 36.332607 -0.786233 2.197274 0.012930 -0.009531 -1202.130000 0 0 1
-21.255864 20.142597 -19.955640 35.436754 -0.758513 2.168970 0.029136 -0.019342 -1127660.000000 0 0 1
-22.239864 19.122297 -20.234440 35.632939 -0.710168 2.174697 0.034248 -0.020601 283924.000000 0 0 1
-22.891064 18.770397 -19.059940 35.208095 -0.686810 2.142839 0.023557 -0.011546 401095.000000 0 0 1
-24.054964 19.790697 -18.732040 36.348347 -0.688447 2.112210 -0.003497 0.004443 -111470.000000 0 0 1
-25.212844 19.807397 -19.556940 37.556549 -0.665903 2.118506 0.005391 0.007131 682082.000000 0 0 1
-26.178024 20.769097 -19.123940 38.501551 -0.670691 2.090595 0.002912 0.004143 -1072880.000000 0 0 1
-27.593554 20.409297 -19.547040 39.497220 -0.636838 2.088512 -0.004058 0.009378 -791703.000000 0 0 1
-28.202354 19.297397 -18.907440 39.054495 -0.600076 2.076165 0.012616 0.010432 235286.000000 0 0 1
-28.289224 19.369797 -17.522540 38.503359 -0.600388 2.043271 -0.004933 0.014949 -1184290.000000 0 0 1
-29.149754 18.242897 -16.950340 38.338303 -0.559199 2.028763 -0.013107 0.014982 -154904.000000 0 0 1
-28.531664 16.975397 -16.860040 37.235479 -0.536711 2.040694 -0.006961 0.007842 63873.100000 0 0 1
-29.511984 16.017997 -16.556640 37.438694 -0.497270 2.028884 -0.006412 0.007740 -8860.730000 0 0 1
-28.910964 14.767797 -15.964140 36.177140 -0.472252 2.027818 0.023833 0.008451 118652.000000 0 0 1
-28.173664 14.901097 -14.696640 35.096856 -0.486501 2.002859 0.023020 0.007713 468633.000000 0 0 1
-29.024584 15.084097 -13.598240 35.424125 -0.479284 1.964779 -0.002874 0.014511 216106.000000 0 0 1
-28.304284 15.683497 -12.331340 34.628984 -0.505988 1.934886 0.011408 0.001738 174824.000000 0 0 1
-27.849594 17.044797 -12.379840 34.919700 -0.549218 1.933200 0.009456 0.011244 475325.000000 0 0 1
-28.872024 18.014797 -12.078340 36.111120 -0.557846 1.911847 0.002540 0.011894 199202.000000 0 0 1
-28.452044 19.505097 -12.181140 36.583436 -0.600957 1.910247 0.025274 0.004577 426858.000000 0 0 1
-27.556434 19.964197 -11.157740 35.810912 -0.626970 1.887645 -0.003611 -0.008588 239228.000000 0 0 1
-26.473944 20.674597 -11.700440 35.569776 -0.663011 1.905981 -0.001081 -0.011259 -177566.000000 0 0 1
-25.792444 21.824797 -10.898540 35.501410 -0.702266 1.882824 0.020119 -0.020324 401335.000000 0 0 1
-26.435934 23.075697 -10.635540 36.666894 -0.717634 1.865084 0.030534 -0.032289 342128.000000 0 0 1
-25.396514 24.021297 -10.310840 36.446112 -0.757577 1.857619 0.031611 -0.023777 772165.000000 0 0 1
-25.928614 25.229997 -9.530440 37.412232 -0.771743 1.828376 0.062192 -0.010268 -372263.000000 0 0 1
-25.894864 24.880997 -8.175940 36.830070 -0.765433 1.794652 0.050287 -0.022499 -27424.100000 0 0 1
-27.008454 25.407797 -7.492640 37.830575 -0.754870 1.770172 0.058192 -0.022374 60203.600000 0 0 1
-27.116314 24.754897 -6.072340 37.215222 -0.739905 1.734697 0.065715 -0.025793 124579.000000 0 0 1
-27.471104 23.348297 -6.138740 36.571692 -0.704449 1.739450 0.074284 -0.036190 43484.300000 0 0 1
-27.258414 22.779097 -4.857540 35.853928 -0.696117 1.706696 0.055146 -0.025784 -26093.500000 0 0 1
-27.449694 21.220997 -4.747640 35.019374 -0.658114 1.706787 0.044457 -0.020934 515576.000000 0 0 1
-26.478744 20.487197 -5.519840 33.931074 -0.658511 1.734201 0.043086 -0.030247 412686.000000 0 0 1
-26.516964 20.623697 -6.979640 34.310373 -0.661029 1.775653 0.035086 -0.028805 -502477.000000 0 0 1
-27.352354 19.601997 -7.804940 34.544271 -0.621812 1.798704 0.031587 -0.022362 -36740.700000 0 0 1
-26.894264 18.287797 -7.626640 33.405248 -0.597169 1.801134 0.013846 -0.009466 354207.000000 0 0 1
-27.238464 17.550097 -8.794740 33.575099 -0.572367 1.835831 0.001621 -0.000150 -107939.000000 0 0 1
-26.709444 16.094897 -8.730740 32.383112 -0.542323 1.843782 0.020621 0.010105 -439276.000000 0 0 1
-27.404294 15.243897 -7.942440 32.348943 -0.507636 1.818856 -0.001373 0.010629 -432627.000000 0 0 1
-27.235724 13.955997 -8.448640 31.747977 -0.473530 1.840158 0.015099 0.001339 234864.000000 0 0 1
-27.942664 12.861397 -7.568140 31.677828 -0.431368 1.812039 0.019555 -0.000610 13890.600000 0 0 1
-29.344154 12.838097 -7.692240 32.940350 -0.412411 1.806493 0.019158 -0.000160 -180177.000000 0 0 1
-30.002604 11.906497 -6.863540 33.000441 -0.377787 1.780309 0.029856 -0.010829 -178526.000000 0 0 1
-30.564994 10.691597 -7.530540 33.245122 -0.336496 1.799295 0.023241 -0.010773 -651189.000000 0 0 1
-29.605254 9.787497 -7.987740 32.188044 -0.319289 1.821575 0.041638 -0.009341 107771.000000 0 0 1
-30.189364 8.517297 -8.219240 32.426809 -0.274982 1.827063 0.022520 -0.012391 59944.000000 0 0 1
-29.117054 7.570197 -8.845040 31.358340 -0.254360 1.856740 0.059268 -0.014841 -15881.200000 0 0 1
-28.824134 7.771297 -10.227940 31.556846 -0.263349 1.900869 0.063694 -0.016400 317699.000000 0 0 1
-27.890914 6.822097 -10.702540 30.642919 -0.239889 1.927584 0.088082 -0.017269 -290482.000000 0 0 1
-27.248004 7.096297 -12.081040 30.639235 -0.254774 1.976102 0.077135 -0.010928 -545025.000000 0 0 1
-26.303104 8.109497 -12.088840 30.062556 -0.299063 1.984631 0.081159 -0.016954 239192.000000 0 0 1
-25.403014 8.039797 -13.197940 29.734443 -0.306516 2.030698 0.068426 0.001716 173378.000000 0 0 1
-31.258324 25.976097 -34.137993 53.077707 -0.693368 2.269427 0.009756 0.006071 19859.600000 0 0 1
-31.396584 27.356797 -34.261674 53.925895 -0.716748 2.259255 0.009992 -0.000172 134545.000000 0 0 1
-31.754414 27.729197 33.172066 53.643612 -0.717832 0.904118 0.020250 -0.004052 -140485.000000 0 0 1
-31.875014 29.248797 33.010689 54.417040 -0.742459 0.918989 0.035511 -0.011181 20298.100000 0 0 1
-31.982004 29.565897 31.649763 53.839561 -0.746163 0.942394 0.045051 -0.011036 197781.000000 0 0 1
-32.273804 30.955197 31.462683 54.678360 -0.764547 0.957686 0.041183 -0.012994 58550.000000 0 0 1
-32.239804 31.486097 30.015723 54.145387 -0.773571 0.983210 0.054027 -0.018574 360297.000000 0 0 1
-30.950674 31.601297 29.426043 53.127001 -0.795799 0.983778 0.044161 -0.014898 299285.000000 0 0 1
-30.978904 32.237197 28.137013 52.826328 -0.805300 1.009089 0.058716 -0.015664 1349610.000000 0 0 1
-29.525644 32.264097 27.470213 51.646377 -0.829688 1.009965 0.061175 -0.014897 937831.000000 0 0 1
-29.028654 31.011897 26.938083 50.299710 -0.818418 1.005636 0.073119 -0.016437 -121946.000000 0 0 1
-27.850874 31.129597 26.211463 49.312917 -0.840931 1.010386 0.057432 -0.009794 -551040.000000 0 0 1
-27.960214 31.963397 24.878163 49.217429 -0.852104 1.040864 0.061864 -0.015998 -461894.000000 0 0 1
-27.911464 33.412697 25.135453 50.271753 -0.874866 1.047207 0.055247 -0.014163 379910.000000 0 0 1
-29.038364 34.035997 24.528433 51.022737 -0.864467 1.069303 0.060598 -0.007343 133898.000000 0 0 1
-29.202044 -33.293020 25.088763 50.898238 0.850766 1.055354 0.058925 -0.008668 -261436.000000 0 0 1
-29.616504 -33.336020 26.472703 51.857801 0.844414 1.035046 0.056323 -0.010496 497505.000000 0 0 1
-29.628324 -32.080020 27.107953 51.398506 0.825108 1.015250 0.041501 -0.013664 -366325.000000 0 0 1
-30.016954 -32.188320 28.606863 52.492457 0.820290 0.994442 0.051344 -0.020961 673891.000000 0 0 1
-31.420394 -32.402220 28.806693 53.544100 0.800781 1.002734 0.041848 -0.018424 524735.000000 0 0 1
-31.640954 -32.703220 30.117963 54.568693 0.801906 0.986122 0.038313 -0.015094 755206.000000 0 0 1
-33.112654 -33.154320 30.421643 55.867103 0.786027 0.994961 0.051015 -0.017493 780427.000000 0 0 1
-33.366674 -33.527120 31.738293 56.962461 0.787797 0.979811 0.041807 -0.018598 -120555.000000 0 0 1
-34.757963 -33.743720 31.860703 57.981541 0.770593 0.989034 0.051288 -0.026013 76949.600000 0 0 1
-35.281667 34.331397 33.145131 59.346782 -0.771748 0.978221 0.038541 -0.021057 -383792.000000 0 0 1
-35.059649 32.956497 33.230701 58.477254 -0.754487 0.966398 0.021821 -0.003180 -130368.000000 0 0 1
35.727100 32.374397 34.213342 59.119202 0.736207 0.953641 0.015773 -0.007222 -102328.000000 0 0 1
-35.343769 31.058697 -33.869280 57.973725 -0.720956 2.194712 0.008736 -0.000527 353587.000000 0 0 1
-34.361342 31.289497 -32.869100 56.921984 -0.738642 2.186387 0.005613 -0.002111 -218049.000000 0 0 1
-33.669544 30.125997 -32.514320 55.663228 -0.729910 2.194599 0.008896 -0.004248 112100.000000 0 0 1
-32.886094 30.175597 -31.180020 54.444977 -0.742443 2.180578 0.014377 -0.004371 380421.000000 0 0 1
-33.638664 30.228597 -29.948360 54.242346 -0.732056 2.155703 0.010196 -0.011135 -39342.700000 0 0 1
-34.260828 31.479997 -29.680750 55.188237 -0.743123 2.138633 0.001092 0.000968 267854.000000 0 0 1
-35.197577 31.479197 -28.437230 55.122458 -0.729689 2.112845 -0.000629 0.002579 82929.600000 0 0 1
-34.596282 31.438897 -27.141800 54.055382 -0.737621 2.096834 0.003925 -0.003578 -411415.000000 0 0 1
-35.506510 31.245397 -26.081210 54.011264 -0.721650 2.074742 0.012579 -0.001154 -434567.000000 0 0 1
-34.900347 30.958497 -24.709740 52.792367 -0.725616 2.057885 0.021378 -0.003372 -126056.000000 0 0 1
-34.146232 32.022897 -24.151640 52.675733 -0.753320 2.047099 0.028366 -0.005766 -33968.600000 0 0 1
-33.799264 31.791797 -22.768340 51.686613 -0.754802 2.026960 0.019628 -0.012427 678522.000000 0 0 1
-35.050319 31.437697 -21.828240 51.897261 -0.731117 2.004908 0.015422 -0.006030 1642250.000000 0 0 1
35.552410 32.414897 -21.538440 52.712464 0.739269 1.991719 0.014679 -0.009941 610268.000000 0 0 1
-35.516287 33.570497 -20.915440 53.158636 -0.757241 1.975181 0.021211 -0.019329 -177990.000000 0 0 1
-35.265200 33.428397 -19.363840 52.307269 -0.758665 1.950014 0.013576 -0.017481 463031.000000 0 0 1
-34.304329 32.419997 -19.004140 50.882223 -0.757165 1.953568 0.023088 -0.020405 265401.000000 0 0 1
-34.101338 32.375797 -17.658340 50.228582 -0.759447 1.930033 0.030196 -0.017266 -565652.000000 0 0 1
-33.006324 31.394697 -17.343940 48.742761 -0.760379 1.934594 0.027851 -0.008047 -531561.000000 0 0 1
-32.876924 31.334497 -15.935840 48.132046 -0.761382 1.908250 0.035837 -0.007060 -31695.600000 0 0 1
-31.699464 30.636897 -15.584140 46.758325 -0.768354 1.910589 0.033694 -0.001658 -85224.100000 0 0 1
-31.483014 30.546597 -14.090340 46.073989 -0.770303 1.881596 0.034105 -0.008831 -67117.100000 0 0 1
-32.499934 29.744597 -13.471440 46.070234 -0.741161 1.867543 0.034863 -0.006954 415002.000000 0 0 1
-32.147484 29.384297 -12.195040 45.228494 -0.740522 1.843807 0.043259 -0.009285 -278466.000000 0 0 1
-33.027264 28.357497 -11.489440 45.021718 -0.709471 1.828849 0.034975 -0.014520 76506.900000 0 0 1
-32.420724 28.017297 -10.238540 44.055647 -0.712668 1.805341 0.053913 -0.008880 345118.000000 0 0 1
-33.253334 27.084897 -9.615340 43.952596 -0.683521 1.791346 0.042555 -0.007877 -285143.000000 0 0 1
-32.531474 26.122597 -8.631040 42.604950 -0.676564 1.774791 0.048446 -0.005414 -15393.100000 0 0 1
-32.291774 26.727797 -7.392940 42.565120 -0.691403 1.745367 0.050669 -0.008335 1616290.000000 0 0 1
-31.069024 27.557097 -7.291240 42.164441 -0.725566 1.744594 0.062153 -0.015967 1040540.000000 0 0 1
-30.805924 27.928997 -5.878840 41.995174 -0.736456 1.711246 0.066093 -0.017734 -244448.000000 0 0 1
-30.218374 26.860297 -5.138940 40.755790 -0.726633 1.697224 0.069826 -0.025325 264288.000000 0 0 1
-30.006544 27.242397 -3.785340 40.704665 -0.737153 1.663926 0.066515 -0.017157 -25361.000000 0 0 1
-29.158334 26.269997 -2.917240 39.355197 -0.733336 1.644990 0.067714 -0.019284 -28136.700000 0 0 1
-29.835374 25.044097 -2.540140 39.035992 -0.698314 1.635914 0.065711 -0.010577 -211230.000000 0 0 1
-29.067764 24.048597 -1.959240 37.777091 -0.691184 1.622683 0.048144 -0.016264 51488.400000 0 0 1
-29.930934 22.750997 -1.734040 37.636094 -0.649944 1.616886 0.055029 -0.018569 14109.700000 0 0 1
-30.226924 21.965997 -2.876440 37.475938 -0.628424 1.647626 0.041475 -0.015587 -1268390.000000 0 0 1
-31.427404 21.360897 -2.729840 38.097529 -0.596965 1.642512 0.052511 -0.013909 -1306570.000000 0 0 1
-31.749194 20.401897 -3.848240 37.934914 -0.571153 1.672414 0.049898 -0.005483 147961.000000 0 0 1
-30.723224 19.416897 -3.882340 36.551402 -0.563613 1.677213 0.039285 -0.012785 322684.000000 0 0 1
-30.826054 18.747497 -5.117240 36.440368 -0.546406 1.711690 0.039626 -0.007484 -238504.000000 0 0 1
-29.749424 17.703097 -5.371840 35.032621 -0.536789 1.724742 0.037137 -0.006190 -293448.000000 0 0 1
-29.783554 16.585097 -4.501540 34.385890 -0.508090 1.702086 0.037406 -0.015238 -77632.400000 0 0 1
-28.792694 15.723497 -4.982240 33.182380 -0.499839 1.721513 0.025212 -0.007714 -215398.000000 0 0 1
-28.561204 14.518897 -4.049740 32.294600 -0.470300 1.696527 0.021452 -0.013600 -315674.000000 0 0 1
-29.735154 13.778897 -3.893140 33.002939 -0.433931 1.689035 0.046373 -0.017668 -137926.000000 0 0 1
-29.437354 12.492497 -3.410640 32.159801 -0.401342 1.677049 0.035975 -0.024377 -185648.000000 0 0 1
-30.591454 11.678297 -2.810140 32.865127 -0.364676 1.656406 0.061109 -0.030981 -497947.000000 0 0 1
-31.532044 11.196197 -3.713940 33.666274 -0.341188 1.681338 0.057249 -0.020199 -280596.000000 0 0 1
-32.548964 10.478797 -3.090940 34.333572 -0.311461 1.660945 0.065456 -0.017376 -103696.000000 0 0 1
-33.670164 10.017897 -4.087340 35.365867 -0.289190 1.686628 0.051107 -0.014646 152622.000000 0 0 1
-33.224744 9.178897 -5.147140 34.851526 -0.269544 1.719026 0.034000 -0.019147 470337.000000 0 0 1
-34.305424 8.754597 -5.962640 35.903456 -0.249863 1.737644 0.047512 -0.014488 43340.900000 0 0 1
-33.861674 7.904497 -7.152240 35.499980 -0.229328 1.773656 0.038861 -0.017884 -412183.000000 0 0 1
-33.262474 6.722997 -6.697540 34.589708 -0.199433 1.765655 0.033597 -0.016341 87720.900000 0 0 1
-32.603664 6.027997 -7.681340 34.034375 -0.182823 1.798451 0.033660 -0.010682 -945180.000000 0 0 1
-31.707134 4.950597 -7.048640 32.856264 -0.154885 1.787006 0.041656 -0.013824 1371080.000000 0 0 1
-30.343164 5.391697 -6.725540 31.543793 -0.175855 1.785658 0.040033 -0.024099 1939210.000000 0 0 1
-29.514614 4.296497 -6.371840 30.498733 -0.144556 1.781268 0.036584 -0.023004 315812.000000 0 0 1
-28.034644 4.656797 -6.037940 29.053120 -0.164606 1.780146 0.077910 -0.024915 354631.000000 0 0 1
-27.345934 5.156897 -7.181440 28.739638 -0.186391 1.823352 0.075508 -0.025953 324230.000000 0 0 1
-25.958544 5.023897 -6.927040 27.332571 -0.191172 1.827026 0.096028 -0.029410 27555.100000 0 0 1
-25.034964 5.438097 -8.099140 26.868539 -0.213897 1.876994 0.099144 -0.029975 -193440.000000 0 0 1
-25.126524 4.683597 -9.259840 27.184976 -0.184286 1.918376 0.096347 -0.025956 138273.000000 0 0 1
-24.230664 5.106597 -10.237640 26.795740 -0.207710 1.962823 0.102238 -0.026690 -339911.000000 0 0 1
-24.419764 4.271397 -11.556240 27.351717 -0.173164 2.007004 0.087885 -0.033321 159957.000000 0 0 1
-25.632984 4.559597 -12.231340 28.765352 -0.176039 2.009991 0.081306 -0.009936 378771.000000 0 0 1
-25.844074 3.764097 -13.392840 29.350515 -0.144629 2.044637 0.075184 -0.010307 403875.000000 0 0 1
-26.614984 4.495397 -14.603940 30.689429 -0.167325 2.066740 0.060933 0.001440 396306.000000 0 0 1
-25.800534 5.147897 -15.565140 30.568644 -0.196940 2.105036 0.047293 0.006113 527063.000000 0 0 1
-26.566854 6.042897 -16.365240 31.782628 -0.223655 2.111701 0.062868 0.001900 503015.000000 0 0 1
-27.497584 5.577997 -17.558040 33.098579 -0.200138 2.129960 0.020574 0.016542 -589984.000000 0 0 1
-28.572684 4.896697 -17.076040 33.644718 -0.169728 2.103124 0.028471 0.005716 -1241670.000000 0 0 1
-29.321074 4.381597 -18.165640 34.769444 -0.148337 2.120530 0.030538 0.011012 13169.000000 0 0 1
-30.748094 3.907197 -17.791240 35.738490 -0.126394 2.091877 0.032426 0.005087 -70682.700000 0 0 1
-30.848404 2.728697 -16.998240 35.327185 -0.088225 2.072781 0.038424 -0.000967 153768.000000 0 0 1
-30.471104 1.523097 -17.656840 35.250135 -0.049943 2.095436 0.061329 -0.006435 -233554.000000 0 0 1
-30.865734 0.275897 -16.837440 35.160618 -0.008938 2.070166 0.070321 0.002603 -414741.000000 0 0 1
-30.424834 -0.965503 -17.392240 35.058419 0.031723 2.089890 0.075635 0.002658 449541.000000 0 0 1
-30.714544 -2.029503 -16.499940 34.924921 0.065980 2.062854 0.073584 -0.003334 -185657.000000 0 0 1
-30.319724 -3.422803 -17.071840 34.963538 0.112414 2.080909 0.070738 -0.004479 295297.000000 0 0 1
-31.223324 -3.755403 -18.131240 36.300701 0.119701 2.093787 0.075417 -0.001847 506980.000000 0 0 1
-30.885344 -4.911503 -18.867140 36.523914 0.157703 2.113636 0.073150 -0.004449 -260687.000000 0 0 1
-31.962264 -5.245803 -19.899540 38.014424 0.162675 2.121719 0.072221 0.001646 -223234.000000 0 0 1
-31.762274 -6.456303 -20.576540 38.391664 0.200537 2.136445 0.075204 -0.001462 -338154.000000 0 0 1
-32.697604 -6.581503 -21.606640 39.740362 0.198630 2.145630 0.075119 0.002721 -620095.000000 0 0 1
-32.508124 -7.614803 -22.781740 40.419933 0.230095 2.169566 0.071179 0.001285 113130.000000 0 0 1
-31.256874 -7.503503 -23.450940 39.789965 0.235601 2.201073 0.063998 -0.000141 278094.000000 0 0 1
-31.015024 -8.505703 -24.402440 40.370258 0.267664 2.219891 0.062045 0.002646 65659.200000 0 0 1
-29.567124 -8.318003 -24.933140 39.560908 0.274238 2.252668 0.054817 0.001735 33924.800000 0 0 1
-29.346514 -7.056703 -25.570730 39.558528 0.235981 2.273656 0.049511 0.000232 -171544.000000 0 0 1
-29.319854 -7.033303 -26.984640 40.463465 0.235433 2.300822 0.037803 0.001880 -104519.000000 0 0 1
-30.657444 -7.102803 -27.760700 41.964093 0.227666 2.293660 0.045928 0.001612 52311.200000 0 0 1
-31.367434 -8.329603 -27.688720 42.661029 0.259559 2.277118 0.046610 0.000506 -696031.000000 0 0 1
-32.508324 -8.335103 -28.468330 44.008077 0.250992 2.274294 0.035268 -0.002744 78432.800000 0 0 1
-33.642994 -9.286603 -27.941580 44.708209 0.269327 2.245898 0.039205 -0.000432 -123339.000000 0 0 1
-33.297894 -10.657803 -28.073890 44.838396 0.309770 2.247354 0.042124 -0.001620 290000.000000 0 0 1
-34.220820 -11.751303 -27.815570 45.638400 0.330780 2.226197 0.023203 0.003294 -229657.000000 0 0 1
-35.523646 -11.853103 -28.602310 47.122368 0.322052 2.223051 0.015157 0.007386 -557737.000000 0 0 1
35.158710 -10.888103 -28.203280 46.369286 -0.300318 2.224628 0.010342 0.001035 -174274.000000 0 0 1
34.245550 -10.559203 -29.243150 46.253824 -0.299089 2.255227 0.017022 -0.005513 81061.300000 0 0 1
33.251490 -9.429603 -28.852540 45.022750 -0.276329 2.266393 0.012366 -0.005340 -431357.000000 0 0 1
32.277830 -9.930303 -28.004080 43.871377 -0.298461 2.263113 -0.004566 -0.002928 -660539.000000 0 0 1
31.494500 -8.827603 -27.553070 42.766830 -0.273278 2.270855 -0.024080 0.003712 -141737.000000 0 0 1
30.375650 -9.269303 -26.599020 41.425933 -0.296180 2.268013 -0.032191 0.012185 -339272.000000 0 0 1
30.779330 -9.604403 -25.252480 40.954846 -0.302466 2.235204 -0.043746 0.021023 1202720.000000 0 0 1
29.616020 -9.864003 -24.392640 39.615755 -0.321507 2.234109 -0.048690 0.014435 791169.000000 0 0 1
29.908210 -9.909103 -22.879440 38.937900 -0.319935 2.198871 -0.058010 0.011819 -226889.000000 0 0 1
30.598450 -11.062303 -22.476640 39.545404 -0.346911 2.175326 -0.076094 0.019132 178019.000000 0 0 1
30.948520 -10.939203 -21.082640 39.012238 -0.339758 2.141722 -0.062425 0.018111 -325086.000000 0 0 1
31.703780 -12.155603 -20.579540 39.703977 -0.366125 2.115687 -0.037225 0.010001 -510873.000000 0 0 1
33.026210 -12.188603 -21.050540 41.017287 -0.353552 2.109719 -0.024889 0.009681 70983.800000 0 0 1
33.748120 -13.265103 -20.452840 41.631925 -0.374511 2.084352 -0.000570 0.009509 -712138.000000 0 0 1
35.137010 -13.443703 -21.014340 43.092286 -0.365424 2.080203 0.018873 0.000200 -1098530.000000 0 0 1
-35.485641 -12.452003 -20.754340 42.953763 0.337479 2.075078 0.036402 -0.006108 518964.000000 0 0 1
-35.375679 -11.367703 -21.678040 43.018609 0.310920 2.098930 0.031779 0.009266 -254423.000000 0 0 1
-34.613768 -11.588903 -23.039140 43.165004 0.323076 2.133820 0.029012 0.008842 296265.000000 0 0 1
-35.304607 -12.408503 -24.002240 44.457775 0.337984 2.141101 0.015156 0.012167 886143.000000 0 0 1
35.022960 -11.993103 -24.479140 44.380970 -0.329920 2.155040 0.001388 0.011645 282176.000000 0 0 1
34.373100 -13.131103 -25.306190 44.658024 -0.364908 2.173250 -0.005382 -0.000070 -100276.000000 0 0 1
34.140230 -14.430003 -24.783140 44.586817 -0.399894 2.160170 -0.011679 -0.007215 501396.000000 0 0 1
33.193480 -14.461303 -23.725940 43.288065 -0.410871 2.150880 -0.034845 0.011027 -321746.000000 0 0 1
-29.549674 7.684197 -20.042040 36.522780 -0.254409 2.151670 0.009003 0.011171 -411195.000000 0 0 1
-28.384924 7.045197 -20.464940 35.695273 -0.243286 2.181353 0.000649 0.004757 -550115.000000 0 0 1
-27.564884 7.952097 -21.129640 35.630329 -0.280861 2.205606 0.015426 -0.001161 -616533.000000 0 0 1
-26.204654 7.417397 -21.603440 34.762196 -0.275841 2.241406 0.016805 -0.005087 -196147.000000 0 0 1
-25.341204 7.351397 -20.470240 33.395365 -0.282347 2.230606 0.024686 0.004059 145006.000000 0 0 1
-24.237464 6.491697 -20.730340 32.547562 -0.261695 2.261299 0.045690 -0.007087 1133160.000000 0 0 1
-22.882464 6.987097 -20.076840 31.233095 -0.296355 2.268953 0.029520 -0.008156 1017890.000000 0 0 1
-22.279864 8.124597 -20.705640 31.482137 -0.349676 2.288551 0.029224 -0.006407 15161.700000 0 0 1
-21.044964 8.377197 -20.059340 30.256323 -0.378834 2.295589 0.027573 -0.001498 -261240.000000 0 0 1
-20.235564 9.488997 -20.702640 30.465036 -0.438481 2.317951 0.046387 -0.004158 -574396.000000 0 0 1
-19.527164 9.035097 -21.846840 30.663130 -0.433360 2.363821 0.066617 -0.019007 -1513.540000 0 0 1
-19.162064 10.094697 -22.658740 31.344953 -0.484862 2.378762 0.058165 -0.018353 586902.000000 0 0 1
-18.100964 9.683797 -23.755640 31.396676 -0.491245 2.428938 0.071740 -0.013918 778982.000000 0 0 1
-18.773764 8.855797 -24.676340 32.245947 -0.440762 2.442232 0.058043 -0.018117 151040.000000 0 0 1
-17.797664 8.299397 -25.486030 32.174129 -0.436342 2.485084 0.051159 -0.010578 -272271.000000 0 0 1
-18.343064 7.267997 -26.487860 33.028753 -0.377249 2.501372 0.029172 -0.006660 -137942.000000 0 0 1
-18.779364 6.093097 -25.881290 32.551982 -0.313741 2.489929 0.040616 -0.006742 241897.000000 0 0 1
-19.608364 5.326097 -26.748650 33.590855 -0.265225 2.491962 0.027108 -0.008664 -289165.000000 0 0 1
-20.001564 3.938397 -26.069260 33.093502 -0.194417 2.477937 0.013624 0.004040 430177.000000 0 0 1
-18.998164 2.903797 -25.958390 32.298611 -0.151672 2.504284 0.024358 0.001153 228749.000000 0 0 1
-17.866464 3.225697 -25.213940 31.070218 -0.178621 2.517536 0.035358 -0.004210 -856260.000000 0 0 1
-17.096864 1.989997 -24.705540 30.110240 -0.115874 2.533087 0.032067 -0.001502 -153671.000000 0 0 1
-17.656064 1.293097 -23.613740 29.513004 -0.073108 2.498280 0.035568 -0.005293 389232.000000 0 0 1
-18.892564 0.619197 -23.848840 30.431555 -0.032763 2.471377 0.027588 -0.002304 229360.000000 0 0 1
-19.285064 -0.188103 -22.605340 29.714482 0.009753 2.435267 0.035493 -0.006442 -340070.000000 0 0 1
-18.451964 -1.287403 -22.449340 29.087888 0.069658 2.452426 0.031277 -0.001391 -63276.000000 0 0 1
-18.762364 -1.966203 -21.246340 28.413011 0.104414 2.415490 0.035631 -0.004770 -303129.000000 0 0 1
-18.071864 -3.303503 -20.905740 27.830835 0.180802 2.420632 0.006404 -0.008684 -253656.000000 0 0 1
-18.333364 -4.292003 -21.885140 28.870277 0.229967 2.431116 0.013230 -0.016663 309351.000000 0 0 1
-18.672364 -5.500903 -21.245340 28.814607 0.286497 2.399878 0.016051 -0.017616 -380102.000000 0 0 1
-18.681764 -6.638803 -22.298040 29.837637 0.341444 2.414805 -0.002954 -0.023161 -391279.000000 0 0 1
-17.427464 -6.834503 -22.885040 29.566061 0.373737 2.455979 -0.000348 -0.014802 -330045.000000 0 0 1
-17.531964 -7.706803 -24.023740 30.723031 0.414160 2.468577 0.013415 -0.023274 295745.000000 0 0 1
-16.151664 -8.027503 -24.651240 30.545060 0.461251 2.509927 0.022101 -0.019872 -839731.000000 0 0 1
-16.161764 -8.715103 -25.912040 31.758297 0.494546 2.525105 0.035422 -0.038656 204461.000000 0 0 1
-14.939964 -8.807503 -26.662520 31.806675 0.532683 2.564895 0.045797 -0.038857 267465.000000 0 0 1
-13.832964 -9.587203 -25.944540 30.925467 0.606059 2.566125 0.041036 -0.036559 -843714.000000 0 0 1
-13.211864 -8.982003 -24.783840 29.486750 0.597070 2.569016 0.036990 -0.027027 -64285.000000 0 0 1
-12.644964 -9.993003 -24.045240 28.946999 0.668783 2.551096 0.022701 -0.030282 -553124.000000 0 0 1
-11.879464 -9.385603 -22.864040 27.422172 0.668656 2.556714 0.048013 -0.020192 -413646.000000 0 0 1
-12.680164 -8.860803 -21.834040 26.758656 0.609915 2.525187 0.050214 -0.015278 -22800.100000 0 0 1
-11.921564 -8.638603 -20.670340 25.377393 0.627059 2.522694 0.048375 -0.017603 -920533.000000 0 0 1
-12.718864 -8.543403 -19.363740 24.692380 0.591487 2.472200 0.029092 -0.009862 -244663.000000 0 1 0
-13.440964 -7.387003 -19.102140 24.497328 0.502527 2.465085 0.010274 0.003060 999989.000000 0 1 0
-14.674064 -7.277003 -19.875040 25.754614 0.460370 2.452319 -0.000536 -0.000122 348753.000000 0 0 1
-15.280764 -5.896603 -19.657840 25.587152 0.368279 2.446930 0.004465 0.006260 -498951.000000 0 0 1
-15.535864 -5.718103 -18.298840 24.676047 0.352671 2.406193 0.009378 0.006320 297596.000000 0 1 0
-15.024764 -4.453603 -17.914140 23.801145 0.288167 2.422887 -0.000494 0.007491 -638536.000000 0 1 0
-14.804464 -4.241403 -16.394340 22.493022 0.279021 2.387457 0.010029 0.010613 141436.000000 0 1 0
-15.958364 -3.966103 -15.617040 22.677991 0.243593 2.330412 0.024842 0.003733 384765.000000 0 1 0
-16.612164 -2.713603 -15.776040 23.069700 0.161920 2.323812 0.007669 -0.003129 219038.000000 0 1 0
-17.731864 -2.442603 -14.732440 23.182539 0.136891 2.259449 0.015154 -0.012308 233238.000000 0 1 0
-17.278864 -2.286103 -13.385840 21.976490 0.131542 2.225719 0.025696 -0.028127 889466.000000 0 1 0
-18.321964 -1.665103 -12.619140 22.309407 0.090631 2.172008 0.030233 -0.026555 207871.000000 0 1 0
-17.921264 -0.405903 -11.874940 21.502341 0.022645 2.155872 0.032609 -0.020867 -183513.000000 0 1 0
-17.576064 0.576097 -12.833440 21.770326 -0.032766 2.201227 0.043965 -0.021626 351336.000000 0 1 0
-16.510864 1.407797 -12.456140 20.730315 -0.085059 2.215380 0.030649 -0.009751 -888545.000000 0 1 0
-16.110364 2.431297 -13.552840 21.192794 -0.149785 2.264647 0.035765 -0.006297 201618.000000 0 1 0
-15.473564 1.883697 -14.734440 21.449551 -0.121140 2.328059 0.040306 -0.010336 1294700.000000 0 1 0
-14.137164 1.403597 -14.441540 20.258025 -0.098960 2.364393 0.029284 -0.006524 194672.000000 0 1 0
-13.701364 0.387497 -15.482540 20.678167 -0.028274 2.416953 0.027390 -0.000613 -146396.000000 0 1 0
-13.253464 1.077197 -16.632540 21.294507 -0.081098 2.467177 0.024688 -0.007424 180938.000000 0 1 0
-12.931464 0.225297 -17.723240 21.940528 -0.017421 2.511182 0.013591 0.005180 -189148.000000 0 1 0
-12.268464 0.963797 -18.882540 22.538732 -0.078398 2.564004 0.025068 -0.002170 -530794.000000 0 1 0
-11.009264 1.418297 -18.477040 21.554964 -0.128122 2.600615 0.008963 -0.005540 -790701.000000 0 1 0
-10.457864 2.164297 -19.517540 22.248269 -0.204073 2.640922 0.003392 -0.006464 -415744.000000 0 1 0
-9.046864 2.642297 -19.199940 21.388435 -0.284164 2.685269 0.001342 -0.009842 -1070200.000000 0 1 0
-8.049264 1.696697 -19.500640 21.164697 -0.207748 2.742402 0.004740 0.000660 -333104.000000 0 1 0
-6.733664 2.181097 -19.363440 20.616552 -0.313245 2.791142 0.007666 0.001653 303519.000000 0 1 0
-6.298064 3.340497 -20.449440 21.656503 -0.487671 2.806146 0.010977 0.010057 -750673.000000 0 1 0
-6.029764 2.843897 -21.724840 22.724754 -0.440706 2.843842 0.002911 0.010934 180493.000000 0 1 0
-5.524564 3.874797 -22.557940 23.545605 -0.611649 2.850926 0.006160 0.002622 -416210.000000 0 1 0
-5.033464 3.371397 -23.926740 24.681794 -0.590166 2.893606 0.024553 -0.004605 -802241.000000 0 1 0
-3.832964 2.695297 -23.826340 24.282724 -0.612863 2.947408 0.037154 -0.011543 -1017640.000000 0 1 0
-3.391364 2.265697 -25.084240 25.413654 -0.588979 2.980408 0.058459 -0.013405 330963.000000 0 0 1
-1.984364 1.611197 -24.933240 25.063920 -0.681983 3.039432 0.036229 -0.018103 -119738.000000 0 0 1
-0.960564 2.534297 -24.588940 24.737852 -1.208501 3.031814 0.031384 -0.021474 504480.000000 0 1 0
0.348136 1.974797 -24.561540 24.643260 1.396300 3.060131 0.020252 -0.017740 368243.000000 0 1 0
0.722836 0.937197 -23.495140 23.524932 0.913819 3.091260 0.014659 -0.026049 -1130090.000000 0 1 0
0.188936 -0.364503 -23.748740 23.752288 -1.092586 3.124307 0.022073 -0.020411 148561.000000 0 1 0
0.690536 -1.141603 -22.698640 22.737817 -1.026794 3.082881 0.015926 -0.017381 -565748.000000 0 1 0
0.203436 -2.577303 -22.816840 22.962841 -1.492026 3.028766 0.024122 -0.021372 423770.000000 0 1 0
-1.063864 -2.865903 -22.223940 22.433205 1.215349 3.004896 0.014397 -0.012239 432332.000000 0 1 0
-2.212764 -2.719403 -23.039140 23.304365 0.887760 2.990579 0.024251 -0.015786 182961.000000 0 1 0
-2.955364 -1.362403 -22.912640 23.142588 0.431958 3.000507 0.028160 -0.013915 -1143430.000000 0 1 0
-3.483664 -1.092303 -21.665540 21.970996 0.303841 2.974649 0.016792 -0.008093 15422.700000 0 1 0
-4.436064 -0.072503 -21.566940 22.018556 0.016342 2.938707 0.010145 -0.010947 599300.000000 0 1 0
-5.834364 -0.238103 -22.224640 22.978927 0.040788 2.884663 0.023149 -0.009181 82661.500000 0 1 0
-6.620464 -1.321603 -21.741340 22.765391 0.197034 2.840514 0.035771 -0.001286 455745.000000 0 1 0
-7.989164 -1.194803 -22.123040 23.551713 0.148453 2.791494 0.015357 0.012944 354204.000000 0 1 0
-8.847864 -2.344603 -21.638740 23.495040 0.259037 2.741415 0.026151 0.006389 -415305.000000 0 1 0
-8.512664 -3.558903 -22.300240 24.133626 0.395988 2.749292 0.041119 -0.003315 -5329.610000 0 1 0
-9.132364 -4.670503 -21.681040 23.985019 0.472744 2.699693 0.029804 -0.000938 -122673.000000 0 1 0
-10.037864 -5.483703 -22.681540 25.402401 0.499999 2.674519 0.025712 -0.005856 -153586.000000 0 0 1
-11.340164 -4.975703 -22.611440 25.780499 0.413474 2.640536 0.015386 -0.001067 -609613.000000 0 0 1
-12.134064 -5.593603 -23.603940 27.123235 0.431950 2.626502 0.010454 -0.010709 -119021.000000 0 0 1
-13.642264 -5.326103 -23.495540 27.686082 0.372214 2.584207 0.014155 -0.009737 -113236.000000 0 0 1
-14.023264 -4.036203 -24.018040 28.103542 0.280247 2.595628 0.016899 -0.010889 1818980.000000 0 0 1
-15.494464 -4.002903 -24.052440 28.889817 0.252816 2.554505 0.023385 -0.008287 2200950.000000 0 0 1
-16.048364 -2.656803 -24.622740 29.510810 0.164062 2.557773 0.023694 -0.008446 -63958.200000 0 0 1
-15.688264 -2.603703 -25.979330 30.460244 0.164466 2.592298 0.029143 -0.014862 177311.000000 0 0 1
-16.011264 -1.349603 -26.584810 31.063389 0.084092 2.597939 0.022149 -0.007356 627039.000000 0 0 1
-17.467964 -1.206203 -27.165180 32.319215 0.068943 2.569052 0.032231 -0.003480 513974.000000 0 0 1
-17.779064 -1.975403 -28.334640 33.508941 0.110654 2.578455 0.033568 -0.016752 74784.500000 0 0 1
-17.379164 -1.233503 -29.517020 34.275521 0.070857 2.608361 0.026594 -0.012516 -11101.800000 0 0 1
-17.610864 -2.029103 -30.823890 35.558009 0.114713 2.619670 0.026825 -0.016532 507528.000000 0 0 1
-18.985364 -2.362303 -30.960310 36.394578 0.123791 2.588083 0.024658 -0.019101 260434.000000 0 0 1
-19.225064 -3.042803 -32.200230 37.626009 0.156971 2.597886 0.022928 -0.022583 68691.600000 0 0 1
-20.688464 -3.586003 -32.334650 38.553878 0.171628 2.565665 0.014176 -0.018470 516144.000000 0 0 1
-21.632764 -2.568903 -32.588740 39.199511 0.118197 2.552339 0.012315 -0.013861 192309.000000 0 0 1
-22.129764 -1.843103 -31.461530 38.509107 0.083094 2.526967 0.005879 -0.003404 -234457.000000 0 0 1
-23.088164 -0.666903 -31.861890 39.353375 0.028877 2.514327 0.005284 -0.007238 161131.000000 0 0 1
-22.480464 0.437297 -32.484100 39.506699 -0.019450 2.536137 0.018353 -0.011783 261371.000000 0 0 1
-23.487564 1.307397 -32.970800 40.502452 -0.055606 2.521879 0.027366 -0.012241 199864.000000 0 0 1
-22.988664 2.535797 -33.830090 40.980287 -0.109862 2.541921 0.033796 -0.014052 -556045.000000 0 0 1
-22.326064 3.599097 -33.172770 40.147718 -0.159831 2.543246 0.014402 -0.012722 387685.000000 0 0 1
-23.036064 4.385297 -32.179420 39.817159 -0.188116 2.511851 0.025100 -0.014064 -171358.000000 0 0 1
-24.159964 5.313997 -32.769630 41.058386 -0.216503 2.494969 0.021364 -0.021982 -52524.000000 0 0 1
-25.275294 4.516097 -33.070600 41.867651 -0.176811 2.481417 0.053571 -0.030396 -209467.000000 0 0 1
-26.097894 5.108197 -34.085147 43.231828 -0.193289 2.479044 0.072149 -0.033117 226273.000000 0 0 1
-27.434584 4.390797 34.346836 44.177377 -0.158700 0.680154 0.074680 -0.032923 -5478.800000 0 0 1
-27.343934 3.073297 33.795843 43.580900 -0.111924 0.683331 0.082041 -0.034380 -154816.000000 0 0 1
-28.598744 2.688097 33.316230 43.989603 -0.093718 0.711526 0.082377 -0.031625 -377922.000000 0 0 1
-28.766434 1.183197 32.940672 43.749235 -0.041108 0.718274 0.073141 -0.013103 -414321.000000 0 0 1
-28.975204 0.438797 34.069358 44.726683 -0.015143 0.704827 0.068468 -0.005952 66934.200000 0 0 1
-29.364544 -0.837303 33.797011 44.779632 0.028506 0.715538 0.053263 -0.002646 -982056.000000 0 0 1
-29.214674 -1.843603 -33.756890 44.681357 0.063022 2.427218 0.038399 0.003635 582764.000000 0 0 1
-27.889234 -2.238203 -33.351300 43.533069 0.080082 2.443569 0.034770 -0.004408 1228770.000000 0 0 1
-27.142434 -1.145703 -32.774840 42.570113 0.042186 2.449485 0.031991 -0.004613 -585048.000000 0 0 1
-27.259974 -0.910903 -31.217160 41.454155 0.033403 2.423486 0.039720 -0.004403 -710845.000000 0 0 1
-26.336904 -1.644903 -30.476260 40.313033 0.062375 2.427962 0.020160 -0.005456 150350.000000 0 0 1
-26.255864 -1.047503 -29.198060 39.280967 0.039875 2.408806 0.030520 -0.007263 -777889.000000 0 0 1
-25.199254 -1.561603 -28.251560 37.889202 0.061891 2.412285 0.021496 -0.001419 -584893.000000 0 0 1
-25.334424 -2.859703 -27.774610 37.701988 0.112402 2.398956 0.004469 0.002000 -56577.800000 0 0 1
-24.344964 -3.015203 -26.802840 36.334019 0.123226 2.400422 0.016142 -0.007866 -381523.000000 0 0 1
-24.471664 -4.435103 -26.093920 36.047540 0.179288 2.380199 0.019687 -0.014234 68197.600000 0 0 1
-25.511254 -4.533303 -25.140700 36.103043 0.175862 2.341109 0.034394 -0.009823 -147103.000000 0 0 1
-25.491214 -5.717603 -24.451040 35.781927 0.220645 2.323117 0.044214 -0.011633 494667.000000 0 0 1
-26.782064 -5.872203 -23.556340 36.147792 0.215843 2.280577 0.045402 -0.009313 519946.000000 0 0 1
-26.858914 -6.789203 -22.556640 35.725293 0.247587 2.254142 0.059950 -0.019256 30376.600000 0 0 1
-28.044364 -6.491103 -21.836140 36.130842 0.227453 2.219762 0.074965 -0.013322 229863.000000 0 0 1
-28.670784 -7.680503 -21.075440 36.402996 0.261740 2.188234 0.078580 -0.019768 -388910.000000 0 0 1
-27.860184 -8.179503 -20.046440 35.283904 0.285567 2.175049 0.071190 -0.025388 8625.320000 0 0 1
-28.495504 -9.118303 -19.162240 35.529264 0.309695 2.140446 0.076676 -0.025315 98800.700000 0 0 1
-29.148554 -8.523503 -17.882540 35.243064 0.284485 2.102968 0.081287 -0.025569 -217744.000000 0 0 1
-28.233424 -7.959803 -16.974340 33.891192 0.274796 2.095375 0.076665 -0.028295 317747.000000 0 0 1
-28.944394 -7.259203 -15.936340 33.829586 0.245730 2.061308 0.073553 -0.023625 274294.000000 0 0 1
-27.933694 -6.564903 -14.993640 32.375893 0.230828 2.052299 0.074314 -0.020621 227244.000000 0 0 1
-27.198014 -5.531803 -15.608240 31.842581 0.200653 2.083080 0.078330 -0.017055 183510.000000 0 0 1
-26.329614 -4.887903 -14.708540 30.552927 0.183553 2.073061 0.072431 -0.029348 -283986.000000 0 0 1
-14.771764 20.906497 -5.040540 26.090107 -0.955679 1.765216 0.045048 -0.005308 193705.000000 0 0 1
-14.565264 20.377497 -6.352740 25.840794 -0.950225 1.819184 0.074368 -0.005527 -79002.000000 0 0 1
-15.303164 19.219997 -6.634940 25.448331 -0.898370 1.834566 0.051980 -0.024206 -471536.000000 0 0 1
-15.118764 18.762397 -8.132240 25.431042 -0.892528 1.896289 0.058273 -0.024271 -1229430.000000 0 0 1
-13.899664 18.261197 -8.535040 24.485075 -0.920192 1.926853 0.051871 -0.018912 -897376.000000 0 1 0
-13.970664 17.074497 -9.351240 23.961711 -0.885045 1.971708 0.039561 -0.025482 -37984.800000 0 1 0
-14.568564 15.775497 -8.658240 23.153283 -0.825152 1.954064 0.048441 -0.035063 828737.000000 0 1 0
-15.960164 15.956797 -8.358740 24.066881 -0.785293 1.925500 0.052405 -0.022503 533679.000000 0 1 0
-16.330764 15.032297 -7.319540 23.371767 -0.744021 1.889335 0.070292 -0.021058 14852.900000 0 1 0
-17.817364 15.304797 -6.993940 24.507356 -0.709686 1.860201 0.086469 -0.025125 -408863.000000 0 1 0
-18.677464 14.770897 -7.922940 25.095818 -0.669131 1.891999 0.082072 -0.018757 598109.000000 0 0 1
-20.045464 15.138797 -7.602240 26.244959 -0.646836 1.864673 0.069555 -0.025093 1785490.000000 0 0 1
-21.178764 14.545397 -8.518440 27.067923 -0.601806 1.890943 0.070278 -0.006914 571377.000000 0 0 1
-21.585164 13.216797 -8.205140 26.606905 -0.549421 1.884290 0.101726 -0.012117 -81916.400000 0 0 1
-22.414864 12.700497 -9.208140 27.359068 -0.515506 1.914064 0.099563 -0.006146 72724.600000 0 0 1
-22.930664 11.337597 -8.717140 27.024896 -0.459181 1.899229 0.088543 -0.009974 381633.000000 0 0 1
-21.814564 10.442397 -8.574940 25.660251 -0.446454 1.911523 0.094108 -0.016574 964039.000000 0 0 1
-22.218264 9.472297 -7.619640 25.326559 -0.402996 1.876386 0.094028 -0.021173 1052000.000000 0 0 1
-20.994164 8.515497 -7.236140 23.782984 -0.385335 1.879955 0.084677 -0.011856 920433.000000 0 1 0
-20.754464 7.451697 -8.157040 23.511973 -0.344706 1.925094 0.074164 -0.013952 538832.000000 0 1 0
-19.736064 6.554797 -7.751440 22.193747 -0.320661 1.927580 0.062163 -0.010542 -66317.400000 0 1 0
-19.277964 5.431697 -8.693140 21.833779 -0.274637 1.980297 0.030017 -0.010085 705566.000000 0 1 0
-20.323064 4.415097 -8.793640 22.579817 -0.213922 1.970827 0.046542 -0.008603 1396630.000000 0 1 0
-20.028064 3.558297 -9.849840 22.600977 -0.175831 2.021740 0.031560 -0.003216 -504437.000000 0 1 0
-20.690264 2.247397 -9.779340 22.995072 -0.108197 2.010067 0.013839 -0.001736 -530508.000000 0 1 0
-20.217864 1.396297 -8.750840 22.074621 -0.068953 1.978411 0.010446 -0.010540 1258320.000000 0 1 0
-21.173764 0.367797 -8.316540 22.751448 -0.017369 1.945008 0.020581 -0.008047 845613.000000 0 1 0
-21.624364 -0.785403 -9.267540 23.539696 0.036304 1.975448 0.030917 -0.012390 659029.000000 0 1 0
-20.521264 -1.706503 -9.425840 22.646874 0.082967 2.000069 0.025995 -0.000342 915567.000000 0 1 0
-20.853164 -3.049703 -9.805740 23.244519 0.145217 2.006283 0.032822 0.001015 -19512.300000 0 1 0
-21.725964 -3.917903 -8.823740 23.774479 0.178415 1.951036 0.032833 -0.000090 77460.900000 0 1 0
-21.168164 -4.214003 -7.527040 22.858375 0.196504 1.906348 0.003829 0.002605 461769.000000 0 1 0
-22.011764 -5.093303 -6.751040 23.580416 0.227388 1.861158 0.014372 0.001484 -632742.000000 0 1 0
-22.046064 -6.622003 -7.131040 24.098373 0.291797 1.871208 0.014293 -0.007520 -866067.000000 0 1 0
-20.962564 -7.341703 -6.709540 23.202319 0.336879 1.864162 0.002164 -0.005564 -255950.000000 0 1 0
-21.224164 -8.683603 -7.074740 23.998376 0.388359 1.870043 0.012984 -0.003752 13336.200000 0 1 0
-20.325364 -9.683903 -6.273640 23.372141 0.444626 1.842553 0.017875 -0.001545 -763501.000000 0 1 0
-18.983564 -9.548203 -6.610340 22.253999 0.466022 1.872388 0.019278 -0.001468 -659103.000000 0 1 0
-18.238464 -10.356203 -5.711340 21.737339 0.516423 1.836661 0.030154 -0.003024 -106341.000000 0 1 0
-17.510664 -11.627903 -6.300040 21.943609 0.586187 1.861996 0.022504 0.001381 -603709.000000 0 1 0
-16.305364 -11.432103 -6.960940 21.095321 0.611481 1.907074 0.013591 -0.006832 -101807.000000 0 1 0
-16.463364 -10.870803 -8.279840 21.395618 0.583584 1.968159 0.008849 -0.010510 -1118010.000000 0 1 0
-15.417764 -11.343503 -9.219840 21.245893 0.634314 2.019678 0.014111 -0.005466 -724938.000000 0 1 0
-15.639964 -12.598203 -9.795740 22.344568 0.678094 2.024608 0.026239 -0.005095 395774.000000 0 1 0
-14.589964 -12.986003 -10.691140 22.266652 0.727298 2.071612 0.031978 -0.001676 251567.000000 0 1 0
-14.794464 -14.366403 -11.476640 23.600486 0.770720 2.078633 0.047763 -0.007765 -194362.000000 0 1 0
-15.462964 -14.266903 -12.703840 24.577130 0.745189 2.114018 0.039466 -0.009754 34719.100000 0 1 0
-15.508964 -15.500903 -13.494740 25.747115 0.785138 2.122485 0.031232 -0.007118 -401178.000000 0 0 1
-16.012064 -15.281803 -14.875340 26.668247 0.762067 2.162520 0.041546 -0.006385 -285275.000000 0 0 1
-16.217464 -16.439103 -15.557040 27.843702 0.792185 2.163647 0.041864 -0.005439 200729.000000 0 0 1
-16.661964 -16.252303 -16.872840 28.748063 0.772952 2.198047 0.047353 -0.012092 -294887.000000 0 0 1
-17.210664 -17.484903 -17.608340 30.199046 0.793302 2.193306 0.051394 -0.018719 -28379.600000 0 0 1
-18.556064 -17.743003 -17.248640 30.929876 0.763003 2.162372 0.010702 -0.009279 -594989.000000 0 0 1
-19.303264 -18.058103 -18.358940 32.183253 0.752083 2.177850 0.022706 -0.010905 -115883.000000 0 0 1
-20.831164 -17.908803 -18.133740 32.916487 0.710105 2.154240 0.024236 -0.015105 15759.500000 0 0 1
-21.282064 -16.652903 -17.691840 32.299328 0.663970 2.150465 0.014471 -0.008540 -1149.440000 0 0 1
-21.206164 -16.524203 -16.260740 31.419140 0.661939 2.114773 0.011542 -0.007133 -557396.000000 0 0 1
-21.050664 -15.069003 -15.797340 30.327566 0.621281 2.118690 0.024633 -0.011323 -660799.000000 0 0 1
-22.236464 -14.357203 -15.694340 30.771771 0.573318 2.106009 0.038146 -0.004351 -437818.000000 0 0 1
-22.128364 -13.112603 -15.017540 29.784750 0.534938 2.099254 0.046833 -0.009484 -112279.000000 0 0 1
-23.492364 -12.470103 -14.659740 30.369435 0.487995 2.074547 0.065541 -0.021062 146286.000000 0 0 1
-24.191564 -13.172503 -13.615340 30.726602 0.498617 2.029864 0.061742 -0.016539 816849.000000 0 0 1
-25.119074 -12.352203 -12.919040 30.829311 0.457023 2.003196 0.073838 -0.023833 -338574.000000 0 0 1
-25.843104 -12.890703 -11.739640 31.174595 0.462692 1.956895 0.073645 -0.022497 -12795.500000 0 0 1
-26.826804 -11.960003 -11.257740 31.455616 0.419375 1.936807 0.072876 -0.029412 608721.000000 0 0 1
-27.341864 -12.363003 -9.999440 31.629261 0.424652 1.892460 0.060836 -0.018322 -8692.910000 0 0 1
-28.128744 -11.260203 -9.293540 31.692086 0.380773 1.868415 0.054485 -0.022335 453686.000000 0 0 1
-27.239934 -10.189903 -8.934540 30.424893 0.357963 1.868849 0.064494 -0.025529 721856.000000 0 0 1
-27.996304 -9.300903 -8.168940 30.610969 0.320747 1.840933 0.075946 -0.027772 -187805.000000 0 0 1
-27.122464 -8.196303 -7.636840 29.344996 0.293470 1.834071 0.065418 -0.020335 -275452.000000 0 0 1
-26.309494 -8.536203 -6.545140 28.423496 0.313737 1.803154 0.046565 -0.027054 165124.000000 0 0 1
-25.673194 -7.441803 -5.781840 27.348181 0.282134 1.783820 0.040052 -0.016508 345468.000000 0 0 1
-26.538974 -6.283103 -5.174940 27.759224 0.232470 1.758316 0.045640 -0.017242 -26353.400000 0 0 1
-27.373364 -6.661803 -4.060640 28.463476 0.238727 1.713946 0.053445 -0.018899 372759.000000 0 0 1
-26.750654 -6.857203 -2.804740 27.757617 0.250935 1.672013 0.062424 -0.015904 -74721.700000 0 0 1
-26.170924 -5.642203 -1.979540 26.845303 0.212340 1.644602 0.066855 -0.013802 -121969.000000 0 0 1
-27.192484 -4.752303 -1.611340 27.651618 0.173018 1.629102 0.073668 -0.017742 31833.100000 0 0 1
-26.718584 -3.627403 -0.885840 26.978241 0.134938 1.603638 0.064300 -0.028363 -768759.000000 0 0 1
-27.807824 -2.694103 -0.349140 27.940207 0.096581 1.583293 0.069255 -0.034830 149173.000000 0 0 1
-28.685284 -3.148703 0.732260 28.866868 0.109329 1.545427 0.076051 -0.031574 549090.000000 0 0 1
-28.045704 -3.534403 1.940260 28.334046 0.125362 1.502265 0.070590 -0.027593 48663.600000 0 0 1
-29.060924 -3.951903 3.061160 29.487719 0.135158 1.466798 0.061165 -0.028598 260327.000000 0 0 1
-29.589534 -5.230803 2.944760 30.192275 0.174971 1.473107 0.074503 -0.024217 337571.000000 0 0 1
-30.474864 -5.527903 4.051660 31.236053 0.179441 1.440719 0.075100 -0.025600 523342.000000 0 0 1
-31.180524 -6.893403 3.805560 32.159390 0.217581 1.452184 0.076702 -0.014773 119023.000000 0 0 1
-30.289634 -7.971603 4.048860 31.581667 0.257344 1.442240 0.069522 -0.005676 218827.000000 0 0 1
-31.017644 -9.181903 4.032560 32.598514 0.287803 1.446775 0.079489 -0.000315 -129329.000000 0 0 1
-30.304624 -10.492803 4.445060 32.376345 0.333325 1.433068 0.068252 -0.002090 -149939.000000 0 0 1
-30.096874 -10.615603 5.824160 32.441235 0.339091 1.390288 0.053990 -0.000518 343574.000000 0 0 1
-29.090404 -11.557703 6.127460 31.896362 0.378179 1.377489 0.038283 0.006075 -55200.300000 0 0 1
-29.119774 -11.905903 7.631360 32.372047 0.388121 1.332817 0.025084 -0.002226 -79844.200000 0 0 1
-29.008004 -10.771703 8.485160 32.085695 0.355554 1.303160 0.040672 -0.001592 384033.000000 0 0 1
-28.896974 -11.151503 9.826760 32.495482 0.368297 1.263583 0.041249 -0.003914 -333658.000000 0 0 1
-28.987084 -9.928603 10.768560 32.477532 0.329994 1.232830 0.048242 -0.008610 -413634.000000 0 0 1
-27.972024 -8.957603 10.637660 31.238320 0.309915 1.223313 0.039127 -0.009592 39822.600000 0 0 1
-28.053574 -7.853203 11.499560 31.319574 0.272949 1.194833 0.054849 -0.015741 -210389.000000 0 0 1
-27.088504 -6.707103 11.150260 30.051632 0.242718 1.190671 0.057149 -0.015446 -282744.000000 0 0 1
-27.393404 -5.944703 10.005760 29.763288 0.213699 1.227941 0.067450 -0.021318 61497.100000 0 0 1
-26.808054 -4.664203 9.928560 28.965546 0.172261 1.220931 0.063027 -0.020067 -389934.000000 0 0 1
-26.926644 -3.870503 8.604660 28.531827 0.142765 1.264446 0.067125 -0.017542 29026.000000 0 0 1
-25.996904 -4.351703 7.644960 27.444886 0.165855 1.288505 0.042400 -0.006148 102280.000000 0 0 1
-26.094004 -3.796503 6.390860 27.132150 0.144480 1.333016 0.051638 -0.018240 -712952.000000 0 0 1
-25.181804 -4.436203 5.407960 26.135210 0.174378 1.362368 0.038524 -0.012838 -1054630.000000 0 0 1
-23.858064 -4.000403 5.436960 24.794576 0.166130 1.349720 0.045813 -0.022903 31500.600000 0 1 0
-23.067264 -4.522103 4.383960 23.911654 0.193585 1.386413 0.037471 -0.022068 -735924.000000 0 1 0
-21.752364 -3.799903 4.255960 22.488170 0.172944 1.380395 0.036607 -0.017818 -1126360.000000 0 1 0
-21.780164 -2.426603 3.934260 22.265273 0.110956 1.393164 0.027268 -0.015380 -53707.200000 0 1 0
-20.636764 -1.799603 4.464660 21.190748 0.086984 1.358516 0.021173 -0.011381 -685416.000000 0 1 0
-20.622364 -0.284803 4.903960 21.199336 0.013809 1.337356 0.019899 -0.014318 -643302.000000 0 1 0
-20.754464 0.666997 3.825760 21.114666 -0.032126 1.388600 0.027450 -0.013326 786313.000000 0 1 0
-22.055464 0.912097 3.301360 22.319821 -0.041331 1.422340 0.032277 -0.015265 28683.300000 0 1 0
-22.102064 2.083897 2.340160 22.323087 -0.094007 1.465772 0.051331 -0.012782 -57081.600000 0 1 0
-21.566164 3.285697 2.910060 22.008264 -0.151192 1.438182 0.039124 -0.013613 333168.000000 0 1 0
-21.784564 4.432097 2.123560 22.332045 -0.200712 1.475562 0.060890 -0.012762 -93594.800000 0 1 0
-20.602664 4.652097 1.168860 21.153676 -0.222076 1.515513 0.051999 -0.004592 -531030.000000 0 1 0
-20.870764 5.386497 -0.019640 21.554664 -0.252576 1.571707 0.067609 0.002137 459934.000000 0 1 0
-21.623264 4.704997 -1.036040 22.153463 -0.214250 1.617580 0.067569 -0.013749 -165019.000000 0 1 0
-20.919464 3.576997 -1.815340 21.300572 -0.169351 1.656125 0.039474 -0.003312 -573402.000000 0 1 0
-20.694864 2.431097 -1.009540 20.861611 -0.116938 1.619207 0.003447 -0.002399 280907.000000 0 1 0
-20.330964 1.310997 -1.708340 20.444688 -0.064394 1.654453 0.003792 0.004177 17781.600000 0 1 0
-19.580064 0.176897 -0.883340 19.600778 -0.009034 1.615878 0.008285 0.000412 649928.000000 0 1 0
-20.542264 -0.561903 -0.137140 20.550405 0.027347 1.577470 0.022183 -0.004588 777005.000000 0 1 0
-19.905664 -1.420103 0.742060 19.970048 0.071221 1.533629 0.026748 -0.008151 -358137.000000 0 1 0
-19.191064 -2.680703 0.218560 19.378619 0.138787 1.559518 0.020171 -0.003852 184795.000000 0 1 0
-18.370764 -3.256303 1.248960 18.698887 0.175432 1.503953 0.016962 -0.004279 183681.000000 0 1 0
-17.682264 -4.383803 0.820260 18.236036 0.243021 1.525801 0.013107 -0.002290 -243995.000000 0 1 0
-18.477764 -5.712103 0.524760 19.347642 0.299815 1.543670 0.003979 0.000045 35879.600000 0 1 0
-19.153864 -6.316803 1.631260 20.234464 0.318561 1.490091 0.030462 -0.004592 615956.000000 0 1 0
-20.006864 -7.377703 1.214960 21.358400 0.353288 1.513881 0.016308 -0.010190 263369.000000 0 1 0
-20.898764 -7.862603 2.419260 22.459557 0.359843 1.462871 0.030748 -0.010268 194124.000000 0 1 0
-20.099964 -8.429703 3.431660 22.064559 0.397108 1.414634 0.025165 -0.008469 1737.590000 0 1 0
-20.892164 -8.839503 4.463460 23.120160 0.400261 1.376522 0.032954 -0.011280 -225206.000000 0 1 0
-20.036564 -9.540603 5.552860 22.876216 0.444394 1.325612 0.027313 -0.000480 -61702.800000 0 1 0
-19.692164 -10.806303 5.086160 23.030991 0.501892 1.348121 0.032667 0.003835 639181.000000 0 1 0
-18.810764 -11.481603 6.022060 22.845946 0.548013 1.304050 0.038042 0.002494 366650.000000 0 1 0
-18.187764 -12.787003 5.480060 22.898325 0.612774 1.329129 0.021943 0.002818 439261.000000 0 1 0
-19.111864 -13.891603 5.430060 24.243051 0.628525 1.344896 0.032008 0.009104 488050.000000 0 1 0
-18.403564 -14.982103 4.939660 24.239530 0.683272 1.365573 0.015327 0.009977 -118268.000000 0 1 0
-18.927864 -16.317803 5.476260 25.583670 0.711480 1.355074 0.016670 0.001159 -327113.000000 0 0 1
-18.287364 -17.407303 4.850260 25.709277 0.760748 1.381001 0.016718 -0.006310 -60785.200000 0 0 1
-18.667564 -18.599903 5.458460 26.911505 0.783583 1.366549 0.019166 -0.007319 89862.500000 0 0 1
-17.630364 -19.741303 5.251160 26.983763 0.841823 1.374942 0.017472 -0.014386 -88206.200000 0 0 1
-17.680464 -20.286403 3.910260 27.192409 0.853928 1.426496 0.019935 -0.019099 106003.000000 0 0 1
-16.880864 -21.447203 3.851960 27.564174 0.903977 1.430592 0.022661 -0.022790 1752310.000000 0 0 1
-15.287964 -21.374703 3.762860 26.547295 0.949918 1.428576 0.035602 -0.015091 1653350.000000 0 0 1
-14.691764 -22.623903 4.073660 27.281562 0.994849 1.420917 0.041351 -0.022634 -392912.000000 0 0 1
-13.285464 -22.506503 4.121760 26.458177 1.037544 1.414375 0.044956 -0.012173 -134007.000000 0 0 1
-12.597364 -23.870203 4.353060 27.339153 1.085200 1.410891 0.038757 -0.004421 -198944.000000 0 0 1
-12.546564 -24.563103 3.122060 27.758054 1.098555 1.458084 0.046852 -0.006039 -53268.500000 0 0 1
-12.281964 -25.891813 3.257060 28.841655 1.127873 1.457626 0.045556 -0.005480 -184095.000000 0 0 1
17.937736 19.403397 -24.588140 36.094748 0.824629 2.320212 0.034895 0.004121 -127123.000000 0 0 1
17.317536 19.354797 -25.817190 36.620111 0.840894 2.353220 0.020876 0.005717 -444015.000000 0 0 1
18.236436 19.305397 -26.853820 37.767626 0.813864 2.361755 0.028474 -0.001553 -483746.000000 0 0 1
17.552036 19.477197 -28.233970 38.530406 0.837342 2.393182 0.019140 0.007276 80830.700000 0 0 1
17.045636 20.781597 -28.346060 39.063123 0.883843 2.382771 0.004462 0.019041 509468.000000 0 0 1
15.935036 20.876297 -29.235820 39.299851 0.918833 2.409709 0.000195 0.014754 343661.000000 0 0 1
15.431836 22.351297 -29.544200 40.132054 0.966527 2.398197 0.000178 0.017100 -304272.000000 0 0 1
14.795436 23.027897 -28.491040 39.508585 0.999711 2.376236 -0.002188 0.021277 235021.000000 0 0 1
14.813836 24.394997 -28.807920 40.551965 1.025064 2.360856 0.003382 0.025104 -212048.000000 0 0 1
14.046536 25.333097 -27.847860 40.181765 1.064525 2.336504 0.003088 0.020221 180463.000000 0 0 1
12.657536 25.058597 -27.892060 39.574152 1.103063 2.352945 0.018196 0.007764 55658.600000 0 0 1
11.968336 25.737297 -26.870890 39.085729 1.135523 2.328818 0.023580 0.012970 -1044130.000000 0 0 1
10.541836 25.348597 -26.529190 38.176951 1.176680 2.339078 0.035540 0.004921 165161.000000 0 0 1
9.838936 26.197697 -25.556180 37.897788 1.211530 2.310873 0.033617 -0.004843 527493.000000 0 0 1
9.520736 27.473897 -26.059390 39.045502 1.237209 2.301523 0.043067 -0.016402 -761276.000000 0 0 1
9.026236 28.455097 -24.972240 38.920152 1.263626 2.267415 0.055835 -0.027292 -265671.000000 0 0 1
10.010036 28.982797 -24.118540 39.011631 1.238245 2.237297 0.050218 -0.021054 -32956.500000 0 0 1
9.420036 29.707297 -23.012740 38.740764 1.263731 2.206842 0.063282 -0.034079 -70119.700000 0 0 1
10.407336 30.382397 -22.047840 38.955230 1.240778 2.172417 0.043024 -0.026497 93813.800000 0 0 1
11.261136 31.379297 -22.642540 40.300845 1.226240 2.167402 0.033126 -0.030456 441745.000000 0 0 1
12.034136 31.958797 -21.591040 40.402452 1.210666 2.134593 0.016666 -0.009867 1446350.000000 0 0 1
13.474136 32.386597 -22.133840 41.477113 1.176539 2.133695 0.006373 0.006058 904304.000000 0 0 1
14.472036 31.456497 -22.362840 41.219506 1.139604 2.144243 0.009471 -0.000906 -276323.000000 0 0 1
15.519736 32.119797 -23.069340 42.482208 1.120693 2.144844 0.004417 0.005534 384779.000000 0 0 1
16.736636 31.231197 -23.418140 42.472484 1.078847 2.154804 -0.002709 0.008838 5656.690000 0 0 1
17.507436 30.796297 -22.347840 41.884940 1.053867 2.133592 0.012556 0.008791 -49822.100000 0 0 1
18.782136 30.420797 -22.833740 42.421377 1.017673 2.139168 0.008356 0.004902 160357.000000 0 0 1
19.787636 29.759497 -21.861840 41.894131 0.984005 2.119797 0.026124 0.008340 254484.000000 0 0 1
20.475336 30.719197 -21.029940 42.487255 0.982887 2.088597 0.031706 0.006685 193593.000000 0 0 1
21.407436 30.006197 -20.241140 42.051800 0.951111 2.072977 0.039759 0.007462 103390.000000 0 0 1
21.972436 30.909397 -19.098040 42.460734 0.952815 2.037317 0.045902 -0.003324 -357259.000000 0 0 1
22.946636 31.839297 -19.461440 43.806810 0.946311 2.031140 0.036277 0.002639 -53741.100000 0 0 1
23.455836 32.492497 -18.302940 44.056058 0.945533 1.999230 0.049117 0.003446 772116.000000 0 0 1
24.783436 33.291697 -18.601640 45.481609 0.930868 1.992146 0.052111 0.000438 875768.000000 0 0 1
25.894936 32.510897 -18.977540 45.690843 0.898193 1.999120 0.053045 -0.001972 534680.000000 0 0 1
27.130536 33.224897 -18.774240 46.823411 0.886032 1.983359 0.051647 -0.006519 354799.000000 0 0 1
28.336236 32.455497 -19.271240 47.198329 0.853055 1.991391 0.029890 -0.004854 -502182.000000 0 0 1
28.637736 31.287197 -18.522940 46.282912 0.829582 1.982544 0.032088 0.007065 -746179.000000 0 0 1
29.830036 30.743597 -18.953040 46.842476 0.800479 1.987351 0.014604 0.006171 -840102.000000 0 0 1
30.274136 29.460797 -18.283340 46.029799 0.771783 1.979267 0.005302 -0.001186 -921154.000000 0 0 1
30.615836 29.620397 -16.934040 45.841674 0.768874 1.949163 0.013040 0.001580 29088.700000 0 0 1
30.748536 28.411197 -16.296740 44.924963 0.745910 1.942019 0.002930 -0.007408 -444240.000000 0 0 1
31.128836 28.540197 -14.775840 44.742292 0.742042 1.907358 0.012618 -0.008812 194389.000000 0 0 1
32.353836 29.161397 -14.401840 45.875601 0.733548 1.890128 0.020647 -0.006522 137212.000000 0 0 1
32.410636 30.513997 -14.687140 46.874998 0.755266 1.889489 0.014546 -0.009940 -512480.000000 0 0 1
33.806636 31.117397 -14.933740 48.313535 0.744001 1.885043 0.014927 -0.011676 63363.700000 0 0 1
34.623936 31.143497 -13.768240 48.562318 0.732527 1.858256 0.007744 -0.008592 349878.000000 0 0 1
-35.765739 31.802697 -14.149340 49.907950 -0.726813 1.858247 0.020135 -0.017123 782768.000000 0 0 1
-34.795439 32.017597 -12.981340 49.034317 -0.743846 1.838731 0.014509 -0.011788 -158777.000000 0 0 1
-35.428239 32.973697 -12.193640 49.911017 -0.749529 1.817602 0.007913 -0.013005 521657.000000 0 0 1
-34.492239 33.410497 -11.189640 49.307037 -0.769469 1.799729 0.016964 -0.005067 152783.000000 0 0 1
-34.936839 -34.177920 -10.305140 49.949062 0.774418 1.778602 0.011815 -0.002957 139746.000000 0 0 1
-33.961939 -33.473220 -9.514540 48.625057 0.778151 1.767739 0.004573 0.000852 36749.600000 0 0 1
-33.619639 -34.197520 -8.327640 48.673402 0.793919 1.742734 0.000029 -0.006101 138457.000000 0 0 1
-33.010039 -33.161820 -7.362240 47.366354 0.787692 1.726861 0.009247 0.010255 175902.000000 0 0 1
-34.025639 -32.383220 -6.777140 47.458894 0.760671 1.714086 0.005336 0.009272 29308.200000 0 0 1
-33.456739 -31.348320 -6.050540 46.245860 0.752875 1.702007 0.010936 0.005048 -204052.000000 0 0 1
-34.601339 -30.443420 -5.629940 46.430062 0.721561 1.692352 -0.001205 0.008975 191031.000000 0 0 1
-35.361039 -30.979020 -4.545340 47.230952 0.719440 1.667182 0.001929 0.004733 240071.000000 0 0 1
34.895936 -30.555720 -4.540940 46.604705 -0.719183 1.668386 -0.004589 0.007555 487890.000000 0 0 1
34.454736 -29.988720 -3.142140 45.785644 -0.716207 1.639477 -0.006437 0.002689 -55543.600000 0 0 1
34.999936 -28.700220 -2.916740 45.356427 -0.686822 1.635148 -0.004721 0.001565 186043.000000 0 0 1
34.095636 -27.954220 -2.141340 44.142226 -0.686744 1.619325 0.006555 -0.010530 -241742.000000 0 0 1
34.388836 -26.434020 -2.302040 43.435571 -0.655350 1.623820 0.019042 -0.010322 -156022.000000 0 0 1
34.162436 -25.885820 -3.582340 43.011404 -0.648428 1.654181 0.016671 -0.011071 262334.000000 0 0 1
33.900936 -24.490120 -3.498740 41.967614 -0.625603 1.654261 0.023473 -0.020348 -371496.000000 0 0 1
33.422736 -23.915520 -4.891840 41.387939 -0.621084 1.689268 0.025742 -0.026901 -1199080.000000 0 0 1
34.293036 -23.843020 -5.929340 42.186005 -0.607546 1.711816 0.028605 -0.028379 -973716.000000 0 0 1
33.680036 -23.413720 -7.103040 41.629320 -0.607484 1.742261 0.010781 -0.021251 -324143.000000 0 0 1
34.658636 -23.220920 -8.279640 42.532160 -0.590299 1.766715 0.010038 -0.016975 -282974.000000 0 0 1
35.157336 -24.404320 -8.891840 43.711256 -0.606786 1.775648 0.011104 -0.007800 -147701.000000 0 0 1
-35.536839 -24.172720 -9.915440 44.107859 0.597324 1.797534 0.000334 -0.001650 -2016.210000 0 0 1
-35.105839 -25.438320 -10.734640 44.662742 0.627058 1.813522 -0.011451 -0.001399 -37475.200000 0 0 1
-34.200239 -26.378720 -10.220440 44.384125 0.656996 1.803154 -0.002631 0.015194 27714.600000 0 0 1
-34.829239 -27.264120 -9.368140 45.212500 0.664161 1.779511 -0.010578 0.014613 -386959.000000 0 0 1
-33.900239 -28.383220 -8.906040 45.101562 0.697050 1.769569 -0.002068 0.016070 -414424.000000 0 0 1
-33.460139 -29.184320 -9.981240 45.507478 0.717249 1.791926 -0.000729 0.012145 79728.900000 0 0 1
-32.785839 -30.304320 -9.462640 45.637754 0.746086 1.779654 0.003580 0.012121 -360115.000000 0 0 1
-32.088339 -31.217320 -10.466340 45.975285 0.771640 1.800461 0.010361 0.011243 -157760.000000 0 0 1
-30.845039 -30.750620 -10.966940 44.914261 0.783865 1.817465 0.005303 0.007782 566861.000000 0 0 1
-30.350939 -31.514620 -12.097440 45.394920 0.804206 1.840549 -0.003441 0.005961 135339.000000 0 0 1
-30.719439 -30.830320 -13.470640 45.559309 0.787200 1.870956 -0.003897 0.001282 -276690.000000 0 0 1
-29.840039 -29.782320 -13.760240 44.348153 0.784430 1.886281 0.007259 0.006848 -64512.100000 0 0 1
-30.200139 -29.168020 -14.959840 44.571500 0.768015 1.913078 -0.005963 0.005604 -589161.000000 0 0 1
-29.205339 -28.138720 -15.421440 43.388480 0.766800 1.934167 -0.002476 0.000266 -370282.000000 0 0 1
-28.005139 -28.751120 -15.854240 43.154045 0.798541 1.946994 -0.003745 0.002516 -82246.400000 0 0 1
-27.032239 -27.781320 -16.211040 42.015967 0.799063 1.966904 0.017449 0.011543 448505.000000 0 0 1
-25.763239 -28.493920 -16.796440 41.925748 0.835684 1.982994 0.026316 0.004512 78164.000000 0 0 1
-25.954439 -29.129420 -18.072340 42.997273 0.842974 2.004587 0.015413 0.009284 -39524.500000 0 0 1
-25.977839 -28.278620 -19.257140 42.957722 0.827778 2.035638 0.012109 0.008421 -462229.000000 0 0 1
-24.643739 -27.676420 -19.705540 41.971495 0.843297 2.059519 0.026353 0.009141 -352111.000000 0 0 1
-24.363939 -26.507520 -19.030640 40.723646 0.827510 2.057044 0.027828 0.003505 -111576.000000 0 0 1
-22.990339 -26.173720 -19.066040 39.713136 0.850058 2.071558 0.040087 -0.005125 161533.000000 0 0 1
-22.709739 -24.945420 -18.192440 38.327158 0.832278 2.065376 0.040513 -0.002540 -356018.000000 0 0 1
-22.962239 -25.262320 -16.843240 38.067623 0.833057 2.029132 0.048911 0.001321 131915.000000 0 0 1
-22.473839 -24.333120 -15.913340 36.747905 0.825100 2.018660 0.061235 -0.001589 -107508.000000 0 0 1
-23.053439 -24.492120 -14.488740 36.623060 0.815648 1.977537 0.045539 0.007794 -211831.000000 0 0 1
-24.392939 -24.098420 -14.330840 37.163453 0.779325 1.966672 0.014175 0.025763 -182483.000000 0 0 1
-24.594939 -23.974320 -12.933740 36.700963 0.772621 1.930940 0.008234 0.030957 -409545.000000 0 0 1
-26.092139 -24.092820 -12.640040 37.696608 0.745580 1.912730 0.005582 0.035755 -1260300.000000 0 0 1
-26.477439 -25.422520 -12.917440 38.912974 0.765075 1.909174 0.007284 0.023738 -265598.000000 0 0 1
-27.785539 -25.813920 -12.631540 39.974372 0.748630 1.892297 0.016012 0.017560 -994397.000000 0 0 1
-28.972639 -25.095420 -13.292440 40.569482 0.713811 1.904608 0.014841 0.011161 -1156940.000000 0 0 1
-29.372239 -23.824120 -12.787640 39.922936 0.681479 1.896851 0.024595 0.024538 209969.000000 0 0 1
-29.939339 -23.860320 -11.473940 39.966613 0.672882 1.861982 0.032146 0.015390 333732.000000 0 0 1
-31.457439 -24.292420 -11.375640 41.341230 0.657578 1.849557 0.029701 0.009477 985228.000000 0 0 1
-32.468739 -23.384420 -11.815140 41.721069 0.624164 1.857919 0.022786 0.000841 440466.000000 0 0 1
-32.496539 -23.083620 -13.222740 41.996659 0.617632 1.891097 0.026342 0.003724 -687253.000000 0 0 1
-33.875139 -22.575920 -13.705140 42.953790 0.587849 1.895541 -0.004072 -0.005245 -233523.000000 0 0 1
-34.868739 -23.501320 -13.437140 44.144056 0.593058 1.880097 -0.004469 0.001909 -60514.500000 0 0 1
35.442436 -23.061120 -13.836940 44.490925 -0.576842 1.887048 -0.003208 -0.008606 869079.000000 0 0 1
34.381736 -24.220620 -13.750040 44.247099 -0.613714 1.886784 -0.010622 0.001069 158391.000000 0 0 1
34.670636 -25.308420 -14.588740 45.336524 -0.630556 1.898413 -0.013703 0.001624 -22751.100000 0 0 1
34.256636 -26.531620 -14.064740 45.555031 -0.658995 1.884666 -0.013056 -0.007454 19810.400000 0 0 1
34.154236 -27.673920 -15.157940 46.498611 -0.680968 1.902852 -0.007399 -0.008933 406533.000000 0 0 1
32.962436 -27.600520 -15.927140 45.847406 -0.697094 1.925588 0.008631 -0.019248 159329.000000 0 0 1
32.902936 -28.607420 -16.937740 46.774723 -0.715677 1.941330 0.013201 -0.018845 -218185.000000 0 0 1
31.814736 -28.196820 -17.922340 46.135110 -0.725184 1.969772 0.028096 -0.019152 185059.000000 0 0 1
30.464336 -28.572120 -17.667940 45.349729 -0.753357 1.970986 0.038966 -0.022621 307611.000000 0 0 1
29.689036 -27.964320 -18.674040 44.857127 -0.755492 2.000169 0.056040 -0.020011 117883.000000 0 0 1
28.152336 -27.976620 -18.497040 43.787964 -0.782268 2.006913 0.063436 -0.018401 303351.000000 0 0 1
27.633736 -27.259320 -17.402040 42.538510 -0.778577 1.992252 0.055364 -0.017427 -748905.000000 0 0 1
26.259636 -27.429520 -17.277340 41.718743 -0.807185 1.997792 0.061277 -0.015697 -738116.000000 0 0 1
25.660736 -26.716620 -16.020940 40.359902 -0.805555 1.978990 0.061269 -0.019683 -228447.000000 0 0 1
25.653236 -25.361520 -16.293940 39.582669 -0.779680 1.995053 0.069862 -0.024262 -91843.500000 0 0 1
25.554536 -24.533820 -15.177740 38.539673 -0.765023 1.975581 0.057341 -0.021860 -432211.000000 0 0 1
25.410936 -23.012920 -15.487140 37.618634 -0.735917 1.995102 0.050894 -0.029307 -108725.000000 0 0 1
24.109836 -22.598520 -15.813840 36.634066 -0.753053 2.017140 0.051381 -0.025369 -60877.800000 0 0 1
24.163536 -21.238320 -16.112340 35.979858 -0.721058 2.035117 0.051434 -0.028491 488677.000000 0 0 1
22.696436 -20.719520 -16.239640 34.758490 -0.739895 2.056933 0.044291 -0.024775 239176.000000 0 0 1
22.071736 -20.740020 -14.998440 33.797384 -0.754302 2.030603 0.049180 -0.034009 -476665.000000 0 0 1
20.760936 -20.247920 -15.104140 32.697550 -0.772889 2.050972 0.043637 -0.037540 -155360.000000 0 0 1
20.473436 -18.921820 -14.323040 31.342404 -0.746033 2.045400 0.021021 -0.026931 -149089.000000 0 0 1
20.166736 -19.121920 -12.958940 30.663972 -0.758811 2.007121 0.025446 -0.035086 78352.600000 0 0 1
19.921836 -17.957620 -12.265240 29.492232 -0.733590 1.999707 0.027303 -0.041774 -685897.000000 0 0 1
19.145236 -18.247220 -10.961840 28.629758 -0.761387 1.963711 0.025891 -0.022640 -388508.000000 0 0 1
19.864936 -18.817520 -9.910940 29.102259 -0.758328 1.918304 0.028691 -0.033254 109960.000000 0 0 1
18.955536 -19.191020 -8.900440 28.404672 -0.791571 1.889509 0.021508 -0.027671 -33340.100000 0 0 1
19.671436 -19.965320 -7.767440 29.084575 -0.792812 1.841141 0.022285 -0.023498 -180381.000000 0 0 1
20.551036 -19.150620 -6.990640 28.947545 -0.750139 1.814701 0.019683 -0.021724 73669.800000 0 0 1
21.183436 -19.831020 -5.907640 29.612624 -0.752436 1.771641 0.027387 -0.004831 -455082.000000 0 0 1
22.370036 -18.906020 -5.578040 29.815610 -0.701671 1.758990 0.021513 -0.004779 -749759.000000 0 0 1
23.272736 -18.978420 -6.658540 30.759337 -0.684108 1.788996 0.015866 -0.020687 -61201.900000 0 0 1
24.035736 -17.776020 -6.648740 30.625304 -0.636790 1.789638 0.029525 -0.019522 -269255.000000 0 0 1
24.951636 -17.542520 -7.873440 31.501035 -0.612777 1.823417 0.048849 -0.032142 797052.000000 0 0 1
26.094836 -18.424520 -8.000840 32.930485 -0.614782 1.816214 0.058078 -0.043459 930885.000000 0 0 1
25.826336 -19.739320 -8.502540 33.599606 -0.652597 1.826633 0.061332 -0.048472 -536352.000000 0 0 1
26.933536 -20.726320 -8.068740 34.929933 -0.655887 1.803899 0.060408 -0.050828 635149.000000 0 0 1
28.151036 -20.552820 -8.804840 35.950305 -0.630637 1.818230 0.069819 -0.043187 372174.000000 0 0 1
29.057336 -21.610420 -8.517840 37.200707 -0.639468 1.801816 0.058450 -0.041271 172452.000000 0 0 1
-29.709684 30.074597 4.566960 42.520629 -0.791502 1.463183 0.033266 -0.011922 135982.000000 0 0 1
-29.123264 30.949497 3.651260 42.654046 -0.815789 1.485090 0.032112 -0.013776 -71646.400000 0 0 1
-27.982764 31.582797 4.230460 42.407605 -0.845763 1.470873 0.031404 -0.011215 312102.000000 0 0 1
-27.498904 32.650997 3.183960 42.806716 -0.870844 1.496348 0.034965 -0.009891 -675274.000000 0 0 1
-26.826654 32.041597 2.071260 41.840453 -0.873754 1.521272 0.036544 -0.012743 287563.000000 0 0 1
-26.304114 32.988897 1.102660 42.206512 -0.897666 1.544668 0.022882 -0.017442 240371.000000 0 0 1
-25.073954 33.791697 1.625560 42.109672 -0.932425 1.532184 0.053084 -0.011456 -759023.000000 0 0 1
-23.893364 33.067997 1.756260 40.834664 -0.945094 1.527774 0.037300 -0.015030 -305204.000000 0 0 1
-22.897564 33.865597 2.419860 40.951592 -0.976270 1.511671 0.040832 -0.009092 34771.700000 0 0 1
-21.458964 33.482297 2.117060 39.825034 -1.000842 1.517612 0.029373 -0.014129 -459729.000000 0 0 1
-21.076664 34.068897 0.911860 40.071774 -1.016778 1.548039 0.044924 -0.015036 38775.100000 0 0 1
-19.666864 33.960797 0.754360 39.251629 -1.045883 1.551577 0.041779 -0.019956 214192.000000 0 0 1
-19.103564 -34.140120 -0.577940 39.125797 1.060640 1.585568 0.042034 -0.015801 65570.100000 0 0 1
-18.943464 -32.727520 -0.571040 37.818931 1.046093 1.585896 0.043602 -0.010884 -17482.800000 0 0 1
-18.007464 -32.221220 0.362660 36.913511 1.061169 1.560972 0.046488 -0.010011 -272216.000000 0 0 1
-17.732164 -30.716420 0.265060 35.468273 1.047246 1.563323 0.049709 -0.011356 -437135.000000 0 0 1
-16.942064 -30.340520 -0.808640 34.759669 1.061529 1.594062 0.066727 -0.005614 -169123.000000 0 0 1
-16.816464 -28.907220 -0.729640 33.450758 1.043912 1.592610 0.055284 -0.002290 284953.000000 0 0 1
-15.850364 -28.203420 -1.770340 32.400634 1.058786 1.625463 0.046089 0.004252 211201.000000 0 0 1
-16.244264 -28.315620 -3.103440 32.791490 1.049950 1.665580 0.043884 0.007646 -17186.800000 0 0 1
-15.455664 -27.511220 -3.986940 31.806296 1.058943 1.696478 0.044534 0.012136 84711.900000 0 0 1
-15.938864 -27.555920 -5.494440 32.304257 1.046396 1.741711 0.060704 0.005437 1029320.000000 0 0 1
-17.205664 -26.874920 -5.621040 32.402042 1.001332 1.745156 0.039372 0.016157 548977.000000 0 0 1
-17.737764 -26.758220 -6.978040 32.853062 0.985413 1.784828 0.055469 0.010903 799316.000000 0 0 1
-18.372864 -25.382920 -7.319840 32.178173 0.944257 1.800284 0.036426 0.015049 924644.000000 0 0 1
-17.318764 -24.404920 -7.287840 30.800200 0.953628 1.809678 0.045445 0.012686 876194.000000 0 0 1
-17.843864 -23.136220 -7.733640 30.224119 0.913832 1.829551 0.021764 0.012375 368449.000000 0 0 1
-16.839764 -21.996120 -7.402440 28.674084 0.917399 1.831911 0.030722 0.009315 389155.000000 0 0 1
-15.663864 -22.101820 -8.161840 28.292450 0.954246 1.863437 0.058731 -0.000037 -323373.000000 0 0 1
-14.602564 -21.268320 -7.730740 26.932149 0.969129 1.861937 0.065673 -0.008958 848585.000000 0 0 1
-13.463364 -21.005220 -8.758940 26.442399 1.000807 1.908420 0.063792 -0.005025 559363.000000 0 0 1
-13.949364 -20.305620 -9.886840 26.545293 0.968869 1.952446 0.067891 -0.007405 574347.000000 0 0 1
-12.884364 -20.133720 -10.857340 26.253673 1.001526 1.997152 0.063846 -0.007888 797965.000000 0 0 1
-13.316064 -19.285120 -12.029540 26.342803 0.966486 2.045027 0.068255 -0.015822 -552185.000000 0 0 1
-14.359164 -19.901020 -12.747140 27.653676 0.945767 2.049869 0.065058 0.000368 -206590.000000 0 0 1
-14.705764 -19.182520 -13.923040 27.894079 0.916741 2.093402 0.058810 -0.017087 279674.000000 0 0 1
-15.940864 -19.625420 -14.776640 29.285105 0.888627 2.099690 0.067425 -0.015686 274147.000000 0 0 1
-17.121164 -19.330720 -14.071640 29.407857 0.845940 2.069741 0.078141 -0.018507 -683106.000000 0 0 1
-18.243664 -19.721920 -14.794940 30.670436 0.824315 2.074171 0.054775 -0.006918 -416126.000000 0 0 1
-19.633164 -19.391820 -14.216240 31.041993 0.779214 2.046504 0.027121 0.004257 64906.200000 0 0 1
-20.631264 -19.995920 -15.018140 32.419599 0.769761 2.052447 0.032217 -0.001760 48243.100000 0 0 1
-21.957564 -19.635720 -14.670940 32.907941 0.729633 2.032884 0.017011 0.007208 98095.100000 0 0 1
-22.991964 -20.319720 -15.571640 34.409263 0.723778 2.040410 0.017138 0.006737 -291015.000000 0 0 1
-22.954964 -19.792320 -16.893840 34.699685 0.711548 2.079286 0.018541 -0.013415 -173025.000000 0 0 1
-23.920664 -20.485220 -17.615540 36.085311 0.708187 2.080781 0.023470 -0.013725 -285788.000000 0 0 1
-24.075564 -19.956620 -19.022840 36.602840 0.692126 2.117307 0.032605 -0.014449 -444667.000000 0 0 1
-23.061464 -20.302420 -19.909740 36.611708 0.721858 2.145764 0.029756 -0.023904 -296799.000000 0 0 1
-23.317564 -19.801320 -21.217240 37.228649 0.704031 2.177201 0.043883 -0.029961 -114874.000000 0 0 1
-22.126064 -18.963820 -21.758140 36.367648 0.708590 2.212153 0.027922 -0.023815 406979.000000 0 0 1
-20.959064 -19.709620 -22.041640 36.243418 0.754685 2.224531 0.026701 -0.025795 -319738.000000 0 0 1
-19.980964 -18.920320 -22.655840 35.644137 0.758140 2.259597 0.026714 -0.025274 194461.000000 0 0 1
-18.607564 -19.624420 -22.834440 35.394505 0.811989 2.272004 0.038990 -0.020566 25375.600000 0 0 1
-18.597564 -20.711320 -23.739040 36.583742 0.839119 2.276929 0.025406 -0.014399 -27914.200000 0 0 1
-17.273264 -21.207020 -23.663240 36.167005 0.887272 2.284023 0.017991 -0.005491 126395.000000 0 0 1
-17.043164 -22.638520 -24.176940 37.249113 0.925481 2.277146 0.016795 -0.004363 -369793.000000 0 0 1
-17.065264 -22.619020 -25.580790 38.173553 0.924444 2.305164 0.012361 -0.002560 269747.000000 0 0 1
-17.275564 -23.981520 -25.967000 39.342642 0.946530 2.291644 0.022229 -0.011774 -171780.000000 0 0 1
-17.296864 -24.187420 -27.451060 40.469414 0.949996 2.316265 0.031715 -0.000167 -325883.000000 0 0 1
-16.070664 -24.016520 -28.096430 40.304700 0.981076 2.342142 0.014615 0.002892 -184966.000000 0 0 1
-16.324764 -24.009020 -29.495990 41.387732 0.973659 2.364100 0.025656 -0.000168 -860163.000000 0 0 1
-15.055964 -23.850320 -30.289700 41.388232 1.007702 2.391819 0.013796 -0.002149 -802722.000000 0 0 1
-14.181464 -24.910920 -29.980040 41.478557 1.053266 2.378619 0.021723 -0.000828 -245425.000000 0 0 1
-12.983964 -24.820520 -30.717030 41.571354 1.088829 2.402231 0.044945 -0.006619 95496.800000 0 0 1
-11.983864 -25.948720 -30.299900 41.653727 1.138149 2.385356 0.048020 -0.005979 -1351520.000000 0 0 1
-12.346364 -27.246420 -30.652740 42.829786 1.145337 2.368404 0.044367 -0.006202 250472.000000 0 0 1
-11.342364 -28.224420 -30.420710 43.019608 1.188685 2.356236 0.038608 -0.007017 524699.000000 0 0 1
-9.979964 -28.006320 -31.138830 43.053227 1.228479 2.379313 0.035030 -0.013077 -402515.000000 0 0 1
-9.200964 -26.901520 -30.750740 41.880276 1.241245 2.395363 0.039175 -0.024624 92983.300000 0 0 1
-8.119564 -26.665120 -31.666520 42.186780 1.275215 2.419806 0.039513 -0.020133 512219.000000 0 0 1
-7.370864 -25.312220 -31.281210 40.909072 1.287434 2.441298 0.046111 -0.021822 164294.000000 0 0 1
-8.158964 -24.102620 -31.360210 40.385242 1.244395 2.459930 0.053336 -0.021046 607293.000000 0 0 1
-8.811564 -23.742720 -30.116440 39.349210 1.215425 2.442402 0.048824 -0.013897 146224.000000 0 0 1
-9.091964 -22.237320 -30.103750 38.514906 1.182675 2.468044 0.057352 -0.026655 -214416.000000 0 0 1
-9.854364 -21.724620 -31.152890 39.237357 1.144950 2.488091 0.054249 -0.020717 -162674.000000 0 0 1
-10.168864 -20.388620 -31.011440 38.481307 1.108148 2.507962 0.064051 -0.022969 -60678.500000 0 0 1
-11.111264 -19.968720 -32.141560 39.437163 1.063027 2.523537 0.060178 -0.025813 -147371.000000 0 0 1
-11.741664 -18.725820 -31.910760 38.817774 1.010738 2.535826 0.060747 -0.022130 654687.000000 0 0 1
-12.680964 -18.539820 -33.016730 39.932896 0.970900 2.544200 0.059574 -0.017408 192676.000000 0 0 1
-13.381464 -17.165120 -32.946600 39.486496 0.908636 2.557797 0.077788 -0.020056 91955.500000 0 0 1
-12.571464 -16.006120 -33.239320 38.975505 0.905011 2.592170 0.071871 -0.017421 290689.000000 0 0 1
-11.713164 -15.577920 -32.203890 37.642533 0.926075 2.597348 0.066416 -0.010805 -19637.400000 0 0 1
-11.483664 -14.053520 -32.235720 36.993480 0.885692 2.628823 0.052654 -0.015789 264332.000000 0 0 1
-10.499664 -13.542120 -33.158360 37.324372 0.911278 2.664609 0.057664 -0.014861 183111.000000 0 0 1
-10.782464 -13.615020 34.168622 38.329167 0.900981 0.470256 0.056301 -0.010037 -294306.000000 0 0 1
-11.469864 -12.307820 33.573295 37.552714 0.820625 0.464532 0.041531 -0.004076 -62009.000000 0 0 1
-12.779964 -12.137020 34.050513 38.341520 0.759600 0.477635 0.028965 -0.002898 -764349.000000 0 0 1
-13.447164 -11.388420 33.064960 37.467505 0.702692 0.489651 0.028360 -0.013984 1262560.000000 0 0 1
-14.853964 -10.869820 33.580621 38.294273 0.631737 0.501402 0.037161 -0.015894 1234640.000000 0 0 1
-14.570864 -9.952120 -34.137385 38.428060 0.599236 2.664525 0.053661 -0.022666 -311625.000000 0 0 1
-15.704364 -9.387820 -33.563350 38.226387 0.538789 2.642496 0.049505 -0.025170 -193175.000000 0 0 1
-15.216564 -8.532520 -32.380470 36.781008 0.511051 2.647414 0.050245 -0.037023 240013.000000 0 0 1
-14.493964 -7.355720 -32.733030 36.546311 0.469631 2.680707 0.044064 -0.040951 246135.000000 0 0 1
-15.239364 -6.125220 -32.667410 36.563865 0.382173 2.675730 0.043911 -0.036794 23157.800000 0 0 1
-15.254264 -5.441320 -31.320580 35.260165 0.342638 2.664363 0.040851 -0.039537 -147227.000000 0 0 1
-16.008864 -6.129420 -30.347920 34.854695 0.365658 2.627416 0.045592 -0.038377 -55689.600000 0 0 1
-16.262364 -5.458720 -29.095130 33.775563 0.323848 2.608866 0.048155 -0.038223 -120586.000000 0 0 1
-15.010064 -5.063820 -28.287640 32.421210 0.325372 2.631100 0.043659 -0.033615 166560.000000 0 0 1
-14.469964 -3.881920 -28.875200 32.530391 0.262103 2.662986 0.050040 -0.026838 -115610.000000 0 0 1
-13.255764 -3.351920 -28.399460 31.519517 0.247673 2.692893 0.036384 -0.018905 51060.100000 0 0 1
-12.968664 -1.958920 -29.078210 31.899309 0.149917 2.717864 0.018826 -0.003931 -132716.000000 0 0 1
-12.966664 -2.115920 -30.458680 33.171413 0.161756 2.734361 0.019743 -0.009819 164145.000000 0 0 1
-12.911264 -0.889920 -31.164970 33.745341 0.068817 2.747992 0.008253 -0.013504 -88115.200000 0 0 1
-13.120364 -1.131920 -32.672140 35.226324 0.086059 2.758444 0.005957 -0.018440 -243241.000000 0 0 1
-14.418864 -1.650920 -32.888020 35.947893 0.114001 2.726008 0.010884 -0.020072 313611.000000 0 0 1
-14.672764 -1.804920 -34.306483 37.356157 0.122397 2.734718 0.008635 -0.021420 -367645.000000 0 0 1
-16.109764 -1.666920 33.910885 37.579931 0.103106 0.445566 0.004338 -0.016267 -186653.000000 0 0 1
-16.085964 -1.786920 32.504693 36.311243 0.110632 0.461987 0.016078 -0.015411 505070.000000 0 0 1
-17.406864 -1.792920 31.979693 36.454276 0.102639 0.500683 0.023139 -0.009049 101156.000000 0 0 1
-17.424664 -1.737920 30.414853 35.095620 0.099410 0.522392 0.032354 -0.005779 318196.000000 0 0 1
-16.740564 -0.579920 29.879063 34.254068 0.034628 0.510955 0.025490 0.001469 348685.000000 0 0 1
-16.919164 -0.490920 28.443503 33.098821 0.029007 0.536797 0.023399 0.002445 -76702.900000 0 0 1
-16.250664 0.775080 27.880373 32.280025 -0.047659 0.528224 0.018821 0.002821 -20519.100000 0 0 1
-16.778764 2.012080 28.367293 33.019368 -0.119348 0.537267 0.022165 0.000700 159332.000000 0 0 1
-18.109964 2.367080 28.032163 33.457077 -0.129969 0.577455 0.031841 -0.002485 234239.000000 0 0 1
-18.211064 3.059080 26.656513 32.427928 -0.166425 0.605841 0.032160 -0.008800 -362761.000000 0 0 1
-17.891464 4.435080 26.669393 32.419607 -0.242990 0.604772 0.026174 -0.007705 265471.000000 0 0 1
-18.365964 5.019080 25.454453 31.787245 -0.266768 0.642207 0.023334 -0.003523 -666942.000000 0 0 1
-18.190364 6.580080 25.398643 31.926131 -0.347090 0.650891 0.019312 -0.002553 281128.000000 0 0 1
-16.872064 7.097080 25.397183 31.305782 -0.398173 0.624489 0.022222 -0.000075 320400.000000 0 0 1
-16.119364 6.785080 24.204703 29.861997 -0.398416 0.625702 0.016539 -0.003565 847497.000000 0 0 1
-14.846964 7.700080 23.991363 29.245667 -0.478440 0.608793 0.017148 0.002824 1285350.000000 0 0 1
-13.704664 7.493080 24.811453 29.318463 -0.500348 0.561844 0.025582 0.000158 361025.000000 0 0 1
-12.570464 8.176080 24.339483 28.588027 -0.576670 0.552172 0.033532 0.006175 349933.000000 0 0 1
-11.255964 8.151080 25.159483 28.742589 -0.626755 0.504662 0.039679 0.017140 135098.000000 0 0 1
-10.200064 8.790080 24.449023 27.911674 -0.711286 0.503410 0.039213 0.008097 239056.000000 0 0 1
-9.069764 9.013080 25.269723 28.320578 -0.782263 0.468439 0.044518 -0.003736 -375794.000000 0 0 1
-9.163964 10.285080 26.189543 29.591439 -0.842978 0.484221 0.050108 -0.010002 -1651530.000000 0 0 1
-10.080464 10.161080 27.189943 30.727126 -0.789381 0.484551 0.039207 -0.012229 -420227.000000 0 0 1
-10.309864 11.357080 27.950713 31.882894 -0.833693 0.501904 0.048206 -0.015310 -249026.000000 0 0 1
-11.190664 12.409080 27.245933 31.961807 -0.836981 0.550137 0.042830 -0.009068 565851.000000 0 0 1
-12.571764 12.027080 27.053023 32.164669 -0.763259 0.571522 0.033315 -0.007750 1122320.000000 0 0 1
-12.826464 11.730080 25.655923 30.989342 -0.740780 0.595452 0.031846 -0.000528 -149690.000000 0 0 1
-14.286264 11.625080 25.178433 31.196046 -0.683054 0.631567 0.005165 0.001865 -104773.000000 0 0 1
-14.881464 12.854080 24.728593 31.594124 -0.712431 0.671811 0.023830 0.001011 1205370.000000 0 0 1
-16.190364 12.730080 24.116633 31.714268 -0.666316 0.706814 0.027552 0.013494 1023640.000000 0 0 1
-16.181764 12.104080 22.712083 30.400608 -0.642225 0.727118 0.020541 0.019357 -389573.000000 0 0 1
-15.996064 10.694080 22.609883 29.689126 -0.589301 0.705088 0.009304 0.015759 131137.000000 0 0 1
-15.988364 10.383080 21.242383 28.542511 -0.575964 0.731405 0.017309 0.015853 -72648.500000 0 0 1
-16.130164 8.879080 20.905383 27.857769 -0.503200 0.722080 0.013337 0.007445 196988.000000 0 0 1
-17.505064 8.612080 21.057083 28.705329 -0.457208 0.747251 0.014407 0.016446 -365813.000000 0 0 1
-17.936064 7.314080 20.874483 28.477047 -0.387201 0.748033 0.008258 0.012851 -282023.000000 0 0 1
-19.462964 7.133080 20.902583 29.438169 -0.351293 0.781227 0.020606 0.003841 -220112.000000 0 0 1
-19.828864 7.544080 22.185983 30.697147 -0.363548 0.763041 0.012377 0.005268 -644911.000000 0 0 1
-21.208764 7.760080 22.257283 31.708314 -0.350760 0.792681 0.015169 -0.000085 -616074.000000 0 0 1
-21.480764 8.383080 23.655853 33.034809 -0.372082 0.772614 0.034490 -0.002503 -699149.000000 0 0 1
-21.335064 9.792080 23.806613 33.433884 -0.430285 0.778382 0.024648 -0.003578 -126039.000000 0 0 1
-20.070664 10.389080 23.767143 32.796976 -0.477648 0.760234 0.018075 0.002076 -252730.000000 0 0 1
-18.975064 10.026080 24.781333 32.782462 -0.486094 0.713719 0.018278 -0.000729 -317195.000000 0 0 1
-19.347664 10.406080 26.111343 34.123611 -0.493465 0.699446 0.025568 0.002242 248287.000000 0 0 1
-18.458664 9.879080 27.076293 34.226366 -0.491410 0.658200 0.036616 -0.005261 145249.000000 0 0 1
-30.328204 -13.904203 20.927683 39.383940 0.429865 1.010572 0.007906 0.012593 -109599.000000 0 0 1
-29.875604 -15.213903 21.294783 39.717532 0.471014 1.004920 0.008347 0.005306 101679.000000 0 0 1
-30.614854 -16.303903 20.747783 40.417286 0.489346 1.031725 -0.004205 0.009490 -17629.800000 0 0 1
-30.417744 -16.545803 19.189683 39.588466 0.498188 1.064743 -0.005387 0.006184 -18479.300000 0 0 1
-30.928564 -15.546603 18.351883 39.179900 0.465775 1.083317 0.006431 -0.008416 -188475.000000 0 0 1
-30.366374 -15.607503 17.089583 38.180684 0.474764 1.106719 0.015863 -0.012252 -1315930.000000 0 0 1
-30.747244 -14.403803 16.077983 37.568126 0.438097 1.128552 0.013328 -0.009220 1283760.000000 0 0 1
-32.088274 -14.500803 15.513783 38.478670 0.424436 1.155809 0.032473 -0.011958 1543430.000000 0 0 1
-33.185954 -14.495603 16.422083 39.763235 0.411822 1.145054 0.030210 -0.012361 -666592.000000 0 0 1
-33.673294 -13.142403 16.915383 39.909193 0.372109 1.133108 0.020486 -0.011017 185318.000000 0 0 1
-34.856661 -13.263603 17.734783 41.296883 0.363600 1.126917 0.017857 -0.009491 680218.000000 0 0 1
-35.314234 -12.000603 18.131783 41.471329 0.327580 1.118299 0.017822 0.001143 487283.000000 0 0 1
35.172300 -12.044103 19.223883 41.853420 -0.329916 1.093573 0.019146 0.009940 188607.000000 0 0 1
35.668504 -12.601303 20.376883 42.968039 -0.339602 1.076703 0.013174 0.012955 -291377.000000 0 0 1
34.887200 -12.238003 21.477383 42.757027 -0.337376 1.044525 0.012958 0.006361 -989000.000000 0 0 1
35.562188 -12.433603 22.838783 44.055348 -0.336345 1.025804 0.008393 0.003956 -51411.600000 0 0 1
-34.856117 -11.709003 23.035683 43.390003 0.324080 1.011136 0.002692 0.005662 208652.000000 0 0 1
-33.695644 -12.436903 22.640183 42.457636 0.353584 1.008368 0.003019 0.003879 -69342.700000 0 0 1
-32.429854 -11.537003 22.558683 41.154490 0.341790 0.990650 0.017107 0.007256 66321.700000 0 0 1
-32.414844 -10.643603 21.473683 40.312870 0.317264 1.009037 0.024536 0.005675 360060.000000 0 0 1
-31.327124 -9.729503 21.651583 39.304490 0.301133 0.987393 0.032243 0.005777 169990.000000 0 0 1
-31.606884 -8.355203 21.013983 38.863762 0.258436 0.999517 0.030468 0.010619 8545.860000 0 0 1
-31.695834 -8.328403 19.579883 38.175385 0.256952 1.032245 0.026651 0.009300 729948.000000 0 0 1
-33.033724 -8.632703 19.179283 39.161146 0.255613 1.058990 0.021228 0.008508 122228.000000 0 0 1
-33.302094 -8.450403 17.716183 38.656202 0.248505 1.094713 0.028771 -0.001612 -353476.000000 0 0 1
-34.607359 -8.771003 17.310683 39.676940 0.248217 1.119324 -0.002557 0.002202 -140080.000000 0 0 1
-34.815279 -8.410603 15.986483 39.222564 0.237036 1.150990 0.023991 -0.001652 150608.000000 0 0 1
35.276710 -8.508503 15.703083 39.540203 -0.236673 1.162396 0.029106 -0.003514 56612.700000 0 0 1
34.843460 -9.839103 15.741883 39.480141 -0.275214 1.160666 0.023920 0.009331 7348.670000 0 0 1
33.429350 -9.792603 15.833183 38.263640 -0.284962 1.144181 0.017414 0.009253 356216.000000 0 0 1
32.720270 -11.186003 15.868383 38.046659 -0.329412 1.140570 0.021317 -0.001578 -13901.300000 0 0 1
32.745300 -11.881203 17.062583 38.788521 -0.348065 1.115323 0.032582 -0.006983 -627602.000000 0 0 1
31.734860 -12.810203 17.038483 38.229733 -0.383661 1.108855 0.037619 -0.005261 -554096.000000 0 0 1
31.267170 -13.203403 18.412383 38.613231 -0.399562 1.073739 0.036138 -0.008364 448182.000000 0 0 1
32.226020 -14.053003 19.085783 40.003379 -0.411215 1.073440 0.037851 -0.014966 311029.000000 0 0 1
31.798660 -14.317503 20.403983 40.403814 -0.423066 1.041413 0.033750 -0.013680 -16702.600000 0 0 1
32.638670 -15.406403 21.143783 41.829410 -0.441022 1.040862 0.021964 -0.006621 88130.700000 0 0 1
32.542870 -15.448203 22.544483 42.496342 -0.443206 1.011601 0.021097 -0.011438 -146751.000000 0 0 1
33.099350 -16.671003 23.062983 43.650778 -0.466576 1.014138 0.013600 -0.006799 164935.000000 0 0 1
33.506420 -16.473803 24.535973 44.677515 -0.456954 0.989414 0.010041 -0.003660 -759982.000000 0 0 1
34.552720 -15.600203 24.646333 45.218342 -0.424092 0.994346 0.019061 0.001706 -768385.000000 0 0 1
34.952860 -15.477303 25.982363 46.220477 -0.416855 0.973826 0.008594 0.004875 -436057.000000 0 0 1
-35.613986 -14.417203 26.368253 46.599319 0.384653 0.969332 0.014947 -0.000040 -1589170.000000 0 0 1
-34.373754 -14.765203 25.902773 45.502965 0.405717 0.965197 -0.003352 -0.000816 -1190150.000000 0 0 1
-33.428494 -13.863403 26.456423 44.828567 0.393130 0.939528 -0.002667 -0.004823 226982.000000 0 0 1
-31.965434 -14.276303 26.168093 43.707790 0.420037 0.928912 0.008979 -0.002384 -290716.000000 0 0 1
-31.582414 -14.238503 24.761613 42.583111 0.423549 0.950239 0.001634 0.004898 -203036.000000 0 0 1
-30.242304 -14.536503 24.484233 41.537748 0.448063 0.940424 0.016230 -0.005014 -5842.020000 0 0 1
-29.693194 -16.001103 24.743513 41.832553 0.494267 0.937892 0.008320 0.000877 -390976.000000 0 0 1
-29.645404 -16.247403 26.130613 42.727474 0.501351 0.912760 0.016281 -0.009422 68572.900000 0 0 1
-29.548154 -17.675303 26.373023 43.371028 0.539085 0.917157 0.014825 -0.013205 -513089.000000 0 0 1
-29.321034 -18.043103 27.842583 44.277376 0.551640 0.890759 0.024767 -0.012906 287998.000000 0 0 1
-28.110394 -17.471103 28.335763 43.570049 0.556091 0.862752 0.028711 -0.013739 346719.000000 0 0 1
-27.678624 -17.971303 29.561663 44.305371 0.575872 0.840319 0.044757 -0.019907 -652469.000000 0 0 1
-26.391944 -17.308803 29.984533 43.533913 0.580467 0.811015 0.035058 -0.019184 -898494.000000 0 0 1
-26.542364 -16.014703 30.519773 43.502004 0.542889 0.793196 0.045745 -0.029045 156816.000000 0 0 1
-25.310504 -15.314103 30.402123 42.419717 0.544124 0.771741 0.041712 -0.028965 -367087.000000 0 0 1
-25.190714 -13.939403 31.033063 42.331194 0.505415 0.747925 0.034598 -0.033227 -386688.000000 0 0 1
-24.654264 -13.926203 32.326563 42.974161 0.514180 0.719352 0.031538 -0.031129 152935.000000 0 0 1
-24.364064 -12.642203 32.808460 42.776488 0.478643 0.696684 0.020859 -0.021256 -413382.000000 0 0 1
-23.762764 -12.740803 34.197158 43.548164 0.492161 0.667661 0.021208 -0.016147 357775.000000 0 0 1
-22.351364 -12.982903 34.220529 42.885707 0.526223 0.646915 -0.004459 -0.007574 434920.000000 0 0 1
-21.998764 -14.390003 34.356202 43.259293 0.579272 0.653119 -0.008798 -0.016609 -93751.000000 0 0 1
-22.068664 -15.018803 -32.946370 42.403463 0.597552 2.460640 -0.005754 -0.013512 -454544.000000 0 0 1
-21.157964 -14.477103 -31.995520 40.999503 0.600070 2.466082 -0.031117 -0.004480 69379.800000 0 0 1
-21.192064 -15.299003 -30.817690 40.409072 0.625287 2.438186 -0.009934 -0.007199 200304.000000 0 0 1
-19.910964 -15.186803 -29.939160 39.031253 0.651602 2.445036 -0.001921 -0.005904 326706.000000 0 0 1
-19.638764 -14.003803 -29.207120 37.879327 0.619444 2.451296 0.007058 -0.007019 -54235.600000 0 0 1
-20.407564 -13.905303 -28.055260 37.375443 0.598120 2.419817 0.019662 -0.001821 -151215.000000 0 0 1
-19.844764 -12.749003 -27.152650 35.966903 0.571040 2.426350 0.015166 0.000377 684699.000000 0 0 1
-18.509964 -12.958503 -26.667270 34.952608 0.610781 2.438668 0.018121 -0.007383 604349.000000 0 0 1
-18.148464 -11.817603 -25.868830 33.737499 0.577192 2.444587 0.027620 -0.019465 -27661.400000 0 0 1
-16.759364 -11.905803 -25.228630 32.543942 0.617670 2.457855 0.031293 -0.019484 -1001810.000000 0 0 1
-16.706664 -12.655303 -24.032740 31.887958 0.648284 2.424412 0.036875 -0.021715 818800.000000 0 0 1
-15.422264 -12.710603 -23.371440 30.751095 0.689307 2.434140 0.044928 -0.026137 1156490.000000 0 0 1
-14.290164 -13.502303 -24.124040 31.120576 0.757058 2.457796 0.023689 -0.013471 -317583.000000 0 0 1
-13.694364 -12.821403 -25.189200 31.407320 0.752488 2.501461 0.025914 -0.018339 -107200.000000 0 0 1
-12.985064 -13.670403 -26.075980 32.178386 0.811103 2.515557 0.020766 -0.008520 -383739.000000 0 0 1
-12.209864 -12.933903 -27.151600 32.458835 0.814186 2.561649 0.023274 -0.004171 -836329.000000 0 0 1
-12.864164 -12.099103 -28.044490 33.141642 0.754760 2.579611 0.040979 -0.010473 -116902.000000 0 0 1
-11.962664 -11.526403 -28.982700 33.405990 0.766827 2.621131 0.045606 -0.017385 116403.000000 0 0 1
-12.753264 -10.567503 -29.898260 34.179289 0.691945 2.635712 0.032232 -0.013166 114503.000000 0 0 1
-12.000164 -9.598803 -30.624640 34.263822 0.674673 2.676521 0.024497 -0.006705 -72144.600000 0 0 1
-11.476364 -10.198503 -31.813030 35.324004 0.726510 2.691959 0.037755 -0.007065 372588.000000 0 0 1
-10.653464 -9.141103 -32.635030 35.526064 0.709143 2.735376 0.030678 -0.009955 632020.000000 0 0 1
-9.356564 -8.777003 -32.199090 34.660676 0.753448 2.762445 0.027844 -0.008969 -58935.300000 0 0 1
-8.972364 -7.532403 -32.718450 34.752516 0.698373 2.797761 0.024600 -0.013402 238028.000000 0 0 1
-7.459664 -7.198703 -32.548450 34.159471 0.767597 2.833251 0.045855 -0.010811 566633.000000 0 0 1
-6.898964 -7.121303 -31.203220 32.740641 0.801255 2.833925 0.036253 -0.007033 133286.000000 0 0 1
-7.150564 -5.931603 -30.470330 31.855227 0.692489 2.845642 0.016154 -0.009180 -322913.000000 0 0 1
-6.467264 -4.618903 -30.993340 31.996045 0.620191 2.890581 0.016083 -0.009066 2168110.000000 0 0 1
-5.017564 -4.676103 -30.707340 31.463989 0.750187 2.921842 0.033275 -0.005518 1846000.000000 0 0 1
-4.398864 -3.424203 -30.805590 31.305902 0.661449 2.962572 0.037149 -0.009865 -103859.000000 0 0 1
-2.901764 -3.454603 -30.453840 30.786212 0.872154 2.994517 0.025983 -0.003919 -659840.000000 0 0 1
-2.126964 -4.156403 -31.403970 31.749157 1.097807 2.993998 0.026636 -0.012880 854079.000000 0 0 1
-0.714864 -3.903303 -31.453770 31.703098 1.389660 3.016095 0.023925 -0.007095 844536.000000 0 0 1
-0.151264 -2.462703 -31.548970 31.645304 1.509451 3.063545 0.014778 -0.004841 -1046270.000000 0 0 1
0.053536 -1.885903 -30.255060 30.313827 -1.542417 3.079315 0.010479 -0.008158 558954.000000 0 0 1
0.943636 -0.769703 -30.491460 30.515766 -0.684228 3.101677 -0.001490 0.006016 397506.000000 0 0 1
1.074936 0.248097 -29.341190 29.361922 0.226830 3.104012 0.004501 -0.002294 48110.700000 0 0 1
-0.089264 1.032097 -29.190840 29.209216 -1.484523 3.106119 0.029383 -0.005818 -71721.300000 0 0 1
0.235136 2.169097 -28.424570 28.508182 1.462815 3.064985 0.044112 -0.007364 -1036190.000000 0 0 1
-0.940164 3.017897 -28.085030 28.262351 -1.268796 3.029515 0.044138 -0.011690 -674937.000000 0 0 1
-1.516564 3.735897 -29.202510 29.479543 -1.185177 3.004390 0.037500 -0.008472 168917.000000 0 0 1
-2.645564 4.507697 -28.919170 29.387697 -1.040065 2.962788 0.074292 -0.014114 -870104.000000 0 0 1
-3.816864 4.451397 -29.852260 30.422702 -0.861991 2.947637 0.090258 -0.020568 -816121.000000 0 0 1
-3.691264 5.140197 -31.093200 31.730650 -0.948014 2.940809 0.091005 -0.019337 451088.000000 0 0 1
-4.923564 5.020997 -31.804750 32.572903 -0.795195 2.923988 0.096594 -0.020681 -19739.500000 0 0 1
-4.813164 5.620397 -33.242710 34.056323 -0.862613 2.922568 0.095875 -0.021069 -279030.000000 0 0 1
-4.165664 4.913097 -34.259919 34.860197 -0.867541 2.955747 0.094798 -0.023700 -473894.000000 0 0 1
-2.846664 4.499697 -34.054290 34.468035 -1.006726 2.986494 0.084664 -0.024165 -551573.000000 0 0 1
-2.166564 3.865897 33.459028 33.751233 -1.059981 0.131682 0.063585 -0.023732 -454059.000000 0 0 1
-2.952864 2.735497 33.190578 33.433767 -0.747204 0.120686 0.053797 -0.023980 70598.900000 0 0 1
-2.917064 2.016797 31.946063 32.142303 -0.604917 0.110558 0.052761 -0.018581 -224101.000000 0 0 1
-2.744264 2.861897 30.644693 30.900140 -0.806378 0.128672 0.054793 -0.018877 -259982.000000 0 0 1
-3.841664 3.720397 30.468663 30.934433 -0.769363 0.173751 0.045573 -0.017559 -215396.000000 0 0 1
-3.701664 4.632697 29.403313 29.995316 -0.896647 0.199007 0.050145 -0.021073 84754.000000 0 0 1
-4.779364 5.728497 29.271573 30.207333 -0.875480 0.249556 0.050271 -0.015828 52666.300000 0 0 1
-4.756364 6.247597 27.961373 29.042965 -0.920095 0.273769 0.050885 -0.014959 -321313.000000 0 0 1
-5.980864 6.880197 27.706863 29.168101 -0.855211 0.317871 0.048138 -0.009323 -341448.000000 0 0 1
-5.928864 7.562397 26.284523 27.986022 -0.905892 0.350498 0.050262 -0.010363 115470.000000 0 0 1
-4.948164 8.596397 26.203313 28.017780 -1.048504 0.361864 0.054605 -0.016324 305705.000000 0 0 1
-5.190164 9.438097 25.082483 27.297370 -1.068017 0.405613 0.059414 -0.017383 88065.400000 0 0 1
-4.379664 10.737597 25.296303 27.827691 -1.183514 0.429838 0.055426 -0.015408 -218044.000000 0 0 1
-4.378264 11.641597 24.200733 27.209768 -1.211072 0.474736 0.055288 -0.011112 123845.000000 0 0 1
-3.913164 12.894697 24.600653 28.049567 -1.276158 0.501126 0.054851 -0.009684 1280140.000000 0 0 1
-2.324964 13.193697 24.535423 27.954715 -1.396369 0.499787 0.050370 -0.009682 2151500.000000 0 0 1
-1.521964 12.545897 25.551733 28.506262 -1.450075 0.459318 0.054806 -0.013750 245009.000000 0 0 1
-1.832264 13.013297 26.862813 29.905080 -1.430916 0.454981 0.068605 -0.020390 -568793.000000 0 0 1
-0.946064 12.418697 27.995073 30.640548 -1.494763 0.418595 0.063513 -0.016150 712556.000000 0 0 1
0.399336 12.878897 27.996473 30.819279 1.539799 0.431337 0.066493 -0.013541 280039.000000 0 0 1
1.211836 12.333797 29.047333 31.580669 1.472857 0.403272 0.071933 -0.020868 183519.000000 0 0 1
2.702836 12.628697 28.821533 31.582749 1.359954 0.421266 0.057799 -0.009237 -167658.000000 0 0 1
3.056936 13.941297 28.878793 32.213185 1.354941 0.459014 0.060520 -0.010092 -858881.000000 0 0 1
4.428736 14.086797 28.703443 32.279083 1.266191 0.475143 0.055113 -0.007770 -532968.000000 0 0 1
5.026336 15.484797 28.871473 33.145210 1.256928 0.513440 0.059287 -0.010117 -199995.000000 0 0 1
4.879036 15.989497 30.209103 34.526206 1.274631 0.505440 0.059519 -0.005332 241781.000000 0 0 1
3.769836 16.863597 30.371973 34.943516 1.350864 0.517268 0.046726 -0.003610 130282.000000 0 0 1
3.939136 18.258697 29.711053 35.094778 1.358313 0.561242 0.056647 0.002225 559564.000000 0 0 1
5.024736 19.098197 30.173413 36.061391 1.313527 0.579524 0.068827 0.000067 581114.000000 0 0 1
5.327736 20.121197 29.292383 35.934538 1.311954 0.617792 0.053147 -0.004866 -287003.000000 0 0 1
6.395736 21.029197 29.872393 37.087632 1.275549 0.634355 0.052598 -0.005186 -569136.000000 0 0 1
5.924936 21.801697 30.924523 38.298107 1.305440 0.630948 0.035106 -0.016371 463385.000000 0 0 1
6.985536 22.533597 31.556733 39.400357 1.270186 0.641958 0.027121 -0.020990 279961.000000 0 0 1
7.233436 23.883697 30.878813 39.702074 1.276717 0.679697 0.027786 -0.012595 -28419.700000 0 0 1
7.747436 23.784197 29.548943 38.714995 1.255896 0.702479 0.014645 -0.006419 262538.000000 0 0 1
7.955736 25.061997 28.963753 39.119003 1.263415 0.737129 0.011190 0.000419 46315.000000 0 0 1
8.420736 24.902897 27.496203 38.040823 1.244724 0.762940 0.021623 -0.007157 -312889.000000 0 0 1
7.389036 24.568897 26.634393 36.981339 1.278654 0.766689 0.015967 -0.009513 -77542.200000 0 0 1
7.924836 24.599897 25.325943 36.185098 1.259145 0.795539 0.027432 -0.016187 -29093.300000 0 0 1
29.007120 2.305997 6.814260 29.885862 0.079331 1.340763 0.075044 -0.008352 129123.000000 0 0 1
29.262840 3.126497 7.940960 30.481923 0.106438 1.307242 0.072065 -0.012316 670423.000000 0 0 1
28.105440 3.131997 8.783660 29.612123 0.110980 1.269641 0.064699 -0.003023 330904.000000 0 0 1
28.194930 4.166697 9.996260 30.203322 0.146720 1.233470 0.051495 -0.001973 -32256.500000 0 0 1
28.119680 5.567397 9.646260 30.245043 0.195462 1.246189 0.057262 -0.007257 245391.000000 0 0 1
29.313260 6.039297 9.048960 31.266979 0.203183 1.277186 0.069148 -0.021965 -14959.600000 0 0 1
29.221670 7.505597 8.491160 31.342300 0.251416 1.296451 0.064126 -0.026935 558808.000000 0 0 1
28.124950 7.731897 7.584060 30.138232 0.268285 1.316419 0.081091 -0.030638 452131.000000 0 0 1
28.202940 9.018097 6.976960 30.420550 0.309483 1.339386 0.081702 -0.043318 -338023.000000 0 0 1
27.133160 9.366497 5.953060 29.315159 0.332397 1.366303 0.081690 -0.038198 -777419.000000 0 0 1
25.824210 9.483397 6.397560 28.244529 0.351940 1.342307 0.076357 -0.034273 -728593.000000 0 0 1
24.938910 9.480497 5.319960 27.205349 0.363277 1.373980 0.083602 -0.040988 32376.600000 0 0 1
23.512510 9.989097 5.648560 26.163456 0.401737 1.353188 0.025516 -0.025084 79836.900000 0 0 1
23.435210 11.363197 5.941660 26.713941 0.451476 1.346502 0.017164 -0.011969 567385.000000 0 0 1
22.097610 11.748597 6.256560 25.796869 0.488660 1.325822 0.015354 -0.003515 133954.000000 0 0 1
22.003510 13.220697 6.760360 26.545127 0.541041 1.313285 -0.004382 0.018999 -299855.000000 0 0 1
21.965010 14.124097 5.650260 26.718481 0.571458 1.357714 -0.011775 0.022000 400313.000000 0 0 1
21.937610 15.501897 6.062860 27.537717 0.615166 1.348812 0.013826 -0.000067 -235754.000000 0 0 1
21.800010 16.569897 5.002960 27.835796 0.649925 1.390083 0.023117 0.001214 -447070.000000 0 0 1
20.518410 16.620797 4.432960 26.775123 0.680835 1.404468 0.038447 0.000153 85848.200000 0 0 1
20.433510 17.517097 3.305460 27.116473 0.708701 1.448594 0.034864 -0.002015 -1331990.000000 0 0 1
19.023910 17.551497 2.796560 26.034304 0.745163 1.463170 0.044985 0.002200 -359184.000000 0 0 1
18.165810 18.082497 3.858460 25.920283 0.783100 1.421382 0.041444 -0.003921 1924950.000000 0 0 1
16.731910 18.023297 3.655960 24.862866 0.822538 1.423216 0.044505 -0.017044 1042540.000000 0 1 0
15.884910 19.160297 4.170160 25.235641 0.878589 1.404786 0.043839 -0.018139 -233110.000000 0 0 1
14.507210 18.952397 3.925660 24.188082 0.917477 1.407778 0.041585 -0.024227 213985.000000 0 1 0
13.755010 19.961497 4.572860 24.669267 0.967439 1.384351 0.027328 -0.025491 -949847.000000 0 1 0
12.291310 20.068797 4.252060 23.914702 1.021266 1.392045 0.020201 -0.010231 -833139.000000 0 1 0
11.574710 18.997097 4.873460 22.773103 1.023575 1.355128 0.017307 -0.025742 747868.000000 0 1 0
10.163810 19.046397 4.607860 22.074888 1.080605 1.360512 0.019153 -0.021586 1253080.000000 0 1 0
9.288410 18.529997 5.819760 21.529166 1.106138 1.297071 0.019536 -0.019724 -676286.000000 0 1 0
9.241710 19.474597 6.893560 22.631622 1.127714 1.261279 0.030243 -0.018258 -257896.000000 0 1 0
8.754210 18.859697 8.048560 22.295823 1.136217 1.201467 0.033246 -0.017462 -406770.000000 0 1 0
7.682210 19.737697 8.740160 22.912517 1.199622 1.179423 0.025358 -0.019456 488167.000000 0 1 0
6.401710 19.866997 8.150260 22.407727 1.259073 1.198532 0.026932 -0.025637 71033.400000 0 1 0
6.426210 21.067597 7.407260 23.238058 1.274733 1.246380 0.020902 -0.018318 -480504.000000 0 1 0
5.158710 21.320897 6.551260 22.893492 1.333403 1.280577 0.017495 -0.009425 443318.000000 0 1 0
3.921910 21.409497 7.253260 22.942488 1.389620 1.249128 0.010919 -0.015377 365003.000000 0 1 0
3.692710 22.577397 8.046860 24.251329 1.408674 1.232574 0.012549 -0.017618 -668768.000000 0 1 0
3.813910 23.961297 7.338260 25.348368 1.412951 1.277096 0.018111 -0.014696 -378657.000000 0 0 1
2.901110 24.079097 6.263560 25.048983 1.450892 1.318062 0.035775 -0.016863 62692.500000 0 0 1
3.122710 25.241297 5.440960 26.009200 1.447707 1.360046 0.044217 -0.013350 -783500.000000 0 0 1
1.897910 25.524397 4.603360 26.005535 1.496576 1.392844 0.038126 -0.017240 -130913.000000 0 0 1
0.743510 25.884697 5.397560 26.451919 1.542080 1.365301 0.054130 -0.021302 209971.000000 0 0 1
-0.274590 26.192497 4.474360 26.573337 -1.560313 1.401613 0.051362 -0.020907 -420511.000000 0 0 1
-1.555790 26.686797 5.169760 27.227414 -1.512564 1.379763 0.055913 -0.022243 -243052.000000 0 0 1
-2.501090 27.103797 4.215360 27.543430 -1.478779 1.417148 0.081513 -0.030115 -368328.000000 0 0 1
-3.536590 27.809097 4.876560 28.454072 -1.444301 1.398562 0.059397 -0.029172 -8336.620000 0 0 1
-4.619690 28.297597 3.868660 28.932025 -1.408970 1.436679 0.052105 -0.034619 -200015.000000 0 0 1
-4.304890 29.428097 3.096260 29.902037 -1.425542 1.467064 0.052701 -0.026614 -276418.000000 0 0 1
-5.090590 29.580297 1.944360 30.078043 -1.400372 1.506107 0.047571 -0.027903 -478724.000000 0 0 1
-4.586290 30.589897 0.896560 30.944785 -1.421977 1.541819 0.041706 -0.020724 -507471.000000 0 0 1
-4.481390 31.976497 1.223760 32.312178 -1.431557 1.532914 0.037148 -0.011162 -169318.000000 0 0 1
-3.343090 32.176197 2.021760 32.412520 -1.467268 1.508380 0.038051 -0.012781 -763851.000000 0 0 1
-2.724490 33.553497 1.911960 33.718180 -1.489776 1.514062 0.037784 -0.012536 -711100.000000 0 0 1
-2.008990 33.699097 0.686960 33.765917 -1.511251 1.550450 0.029696 -0.004965 -176349.000000 0 0 1
-1.215390 -33.941020 0.477160 33.966126 1.535003 1.556748 0.043335 -0.010584 932960.000000 0 0 1
0.138710 -34.025820 1.308160 34.051240 -1.566720 1.532369 0.051768 -0.008777 263554.000000 0 0 1
-0.032690 -33.774520 2.693560 33.881773 1.569828 1.491214 0.045779 -0.010580 740076.000000 0 0 1
1.214210 -34.138920 3.336560 34.323065 -1.535245 1.473432 0.050030 -0.014964 1055930.000000 0 0 1
1.220610 -34.097320 4.914060 34.471222 -1.535014 1.427754 0.048865 -0.020328 364554.000000 0 0 1
0.185210 33.897097 5.530860 34.345858 1.565332 1.409058 0.056473 -0.024748 -86395.100000 0 0 1
-0.087390 34.145697 6.868360 34.829738 -1.568237 1.372297 0.069231 -0.028462 -169622.000000 0 0 1
0.949510 33.870397 7.959860 34.806102 1.542770 1.340063 0.062718 -0.021115 -267928.000000 0 0 1
1.425010 32.551897 8.273760 33.617135 1.527048 1.322124 0.057366 -0.022740 45289.400000 0 0 1
2.437710 32.583097 9.246860 33.957401 1.496120 1.295006 0.068390 -0.021868 -284603.000000 0 0 1
3.162310 31.224697 9.464260 32.780393 1.469865 1.277910 0.053374 -0.022233 485265.000000 0 0 1
2.293110 30.321797 10.158660 32.060383 1.495314 1.248379 0.066190 -0.023049 352681.000000 0 0 1
2.886710 29.073997 10.232360 30.956932 1.471832 1.233926 0.043760 -0.021305 -349944.000000 0 0 1
2.347810 28.102397 11.238960 30.357391 1.487445 1.191549 0.038828 -0.018829 -301359.000000 0 0 1
2.950810 28.385297 12.533160 31.169095 1.467213 1.156985 0.036555 -0.013454 102114.000000 0 0 1
2.848910 27.508197 13.590460 30.814247 1.467598 1.114034 0.034316 -0.006425 78455.300000 0 0 1
1.463110 27.005197 14.113760 30.506059 1.516670 1.089809 0.037756 -0.008747 1171380.000000 0 0 1
0.474710 27.872997 14.692060 31.511680 1.553767 1.085759 0.039210 -0.011975 711377.000000 0 0 1
-0.201190 28.775897 13.842260 31.932756 -1.563805 1.122444 0.047885 -0.015106 -269062.000000 0 0 1
-0.906990 29.918497 14.618360 33.311193 -1.540490 1.116486 0.033161 -0.016382 360384.000000 0 0 1
-2.108690 29.537897 15.274460 33.320311 -1.499528 1.094588 0.020311 -0.018404 111968.000000 0 0 1
-2.845090 30.672397 15.665960 34.558831 -1.478304 1.100318 0.015335 -0.012523 -659171.000000 0 0 1
-4.119290 30.296097 16.406260 34.698522 -1.435657 1.078305 0.004724 -0.009826 -234175.000000 0 0 1
-5.105890 29.791497 15.501960 33.969313 -1.401058 1.096905 0.012724 -0.022546 -134966.000000 0 0 1
-6.224690 29.326897 16.186460 34.070738 -1.361648 1.075737 0.013949 -0.016433 -506618.000000 0 0 1
-7.345790 28.801897 15.244260 33.405051 -1.321075 1.096912 0.008614 -0.020468 -999056.000000 0 0 1
-8.580490 28.744897 15.819960 33.914084 -1.280712 1.085499 0.010242 -0.021441 -1368670.000000 0 0 1
-9.554990 28.277697 14.929660 33.373953 -1.244943 1.107002 0.017573 -0.020158 -692128.000000 0 0 1
-10.825890 27.893397 15.649560 33.766111 -1.200576 1.088890 0.021171 -0.017370 -608641.000000 0 0 1
-11.548090 28.944497 16.290060 35.164021 -1.191175 1.089127 0.026374 -0.025412 293151.000000 0 0 1
-11.245490 29.198397 17.636660 35.917395 -1.203165 1.057520 0.029788 -0.027010 -275483.000000 0 0 1
-12.010890 30.436797 18.206760 37.445243 -1.194939 1.063033 0.041033 -0.022580 -195322.000000 0 0 1
-13.389290 30.186197 18.337460 37.772239 -1.153314 1.063890 0.043813 -0.013097 31320.000000 0 0 1
-14.086790 31.389797 18.699360 39.158947 -1.148966 1.072961 0.065504 -0.020224 112729.000000 0 0 1
-14.986790 31.111397 19.907960 39.860379 -1.121884 1.047841 0.061189 -0.018890 -128262.000000 0 0 1
-14.244890 30.773997 21.048660 39.912428 -1.137277 1.015293 0.053456 -0.010732 281537.000000 0 0 1
-15.122290 30.647597 22.154660 40.728219 -1.112423 0.995643 0.040187 -0.004261 -67901.600000 0 0 1
-14.369490 30.720197 23.504760 41.263622 -1.133277 0.964748 0.021661 0.009972 -808175.000000 0 0 1
-13.421890 29.710297 23.656860 40.280218 -1.146481 0.943069 0.019871 0.008303 119300.000000 0 0 1
-13.102090 29.370597 25.041960 40.760232 -1.151194 0.909206 0.041763 0.006112 -77925.300000 0 0 1
-12.554190 30.459197 25.995860 41.966119 -1.179848 0.902756 0.045608 0.000486 -694458.000000 0 0 1
-13.509090 31.428897 26.347860 43.179635 -1.164842 0.914494 0.046954 0.004978 13109.000000 0 0 1
-13.039090 32.525997 27.077060 44.284598 -1.189530 0.912926 0.045666 0.005924 209450.000000 0 0 1
-14.221390 33.488497 27.535360 45.628100 -1.169210 0.922946 0.056946 0.003299 937363.000000 0 0 1
-15.024290 32.982197 28.569860 46.149665 -1.143355 0.903239 0.027796 0.002670 247345.000000 0 0 1
-14.348890 33.161597 29.816660 46.846723 -1.162425 0.880880 0.065226 0.008157 -191605.000000 0 0 1
-14.974290 32.481297 31.029760 47.350925 -1.138822 0.856197 0.046372 0.008950 -296970.000000 0 0 1
-16.292490 32.913197 31.244260 48.217503 -1.111146 0.865859 0.041558 0.008947 -423001.000000 0 0 1
-16.858090 32.427697 32.416760 48.852811 -1.091382 0.845229 0.039801 0.008497 158635.000000 0 0 1
-18.293890 32.937497 32.672460 49.870180 -1.063807 0.856415 0.035480 0.005186 148245.000000 0 0 1
-18.414690 34.212597 33.274460 51.154593 -1.077024 0.862595 0.036670 0.006451 948242.000000 0 0 1
-19.814390 -34.370920 33.587460 51.981609 1.047845 0.868279 0.016973 -0.000199 679149.000000 0 0 1
-20.300190 -32.969520 33.795360 51.392736 1.018894 0.853181 0.020871 0.003999 -423450.000000 0 0 1
-19.847890 -32.259720 -33.802462 50.766472 1.019237 2.299418 0.025686 0.006869 37289.200000 0 0 1
-20.535490 -32.589220 -32.600462 50.463390 1.008516 2.273158 0.017317 0.008166 31351.000000 0 0 1
-20.069690 -31.696020 -31.420362 48.935358 1.006327 2.268003 0.023120 0.005339 -30.647600 0 0 1
-20.314590 -30.313020 -31.575862 48.255537 0.980379 2.284115 0.026912 0.004924 -46848.500000 0 0 1
-19.682190 -29.558020 -30.571162 46.857882 0.983336 2.281574 0.028294 -0.000247 -134325.000000 0 0 1
-19.797790 -28.028520 -30.645662 46.007684 0.955825 2.299762 0.028545 -0.007190 -168851.000000 0 0 1
-21.117690 -27.615120 -30.407362 46.186138 0.917944 2.289442 0.040801 -0.009203 -219011.000000 0 0 1
-21.267990 -26.268920 -30.394562 45.455615 0.890214 2.303208 0.035210 -0.009498 168432.000000 0 0 1
-22.477690 -25.817920 -29.516362 45.199858 0.854450 2.282360 0.044599 -0.014142 144410.000000 0 0 1
-22.412290 -26.035220 -28.128962 44.400247 0.860040 2.256906 0.049063 -0.015201 -252056.000000 0 0 1
-21.609990 -25.202420 -27.362462 43.021599 0.861989 2.260122 0.045903 -0.025639 -355112.000000 0 0 1
-21.665990 -25.620220 -25.900862 42.387091 0.868827 2.228190 0.054118 -0.018027 1532200.000000 0 0 1
-22.986190 -25.458420 -25.275062 42.606629 0.836386 2.205848 0.051171 -0.015228 1531070.000000 0 0 1
-22.936590 -25.571420 -23.891062 41.842174 0.839662 2.178496 0.052165 -0.010698 208895.000000 0 0 1
-24.328190 -25.331220 -23.181162 42.082037 0.805594 2.154186 0.045569 -0.011190 1683700.000000 0 0 1
-25.468390 -26.166120 -23.455362 43.398833 0.798910 2.141781 0.025430 -0.004762 564264.000000 0 0 1
-25.211290 -27.573120 -23.355862 44.061121 0.830113 2.129490 0.030454 0.008382 -1203630.000000 0 0 1
-26.460990 -28.445220 -23.613962 45.463543 0.821521 2.116950 0.014900 0.013135 642275.000000 0 0 1
-27.358190 -28.506620 -22.480062 45.458235 0.805953 2.088080 0.016392 0.011459 674172.000000 0 0 1
-28.421090 -27.547320 -22.643062 45.599577 0.769788 2.090431 0.013283 0.008497 92878.200000 0 0 1
-28.903190 -27.038620 -21.274562 44.934267 0.752080 2.064011 0.002865 0.003886 -490453.000000 0 0 1
-29.606990 -27.986220 -20.561862 45.635431 0.757264 2.038198 -0.004611 0.008545 -114031.000000 0 0 1
-29.951790 -27.540820 -19.265262 45.019516 0.743487 2.012999 -0.006320 0.009842 -564235.000000 0 0 1
-30.905290 -28.581220 -18.572162 46.010306 0.746349 1.986302 -0.005087 0.003166 864596.000000 0 0 1
-32.226990 -28.728120 -19.153962 47.230901 0.728060 1.988365 -0.007919 -0.000504 1358090.000000 0 0 1
-33.163890 -27.675220 -19.073462 47.218199 0.695426 1.986619 -0.006960 0.002712 -345227.000000 0 0 1
-33.649390 -27.296320 -17.673462 46.794463 0.681532 1.958089 -0.008659 0.003373 -432798.000000 0 0 1
-32.666190 -26.536520 -16.954262 45.373052 0.682229 1.953752 -0.004317 0.006262 663817.000000 0 0 1
-33.237690 -25.879720 -15.851762 45.008692 0.661571 1.930710 -0.006173 0.002965 -27504.300000 0 0 1
-33.153690 -26.651120 -14.486062 44.936570 0.677094 1.899025 0.011374 0.005268 -394899.000000 0 0 1
-33.863590 -27.830120 -14.447962 46.151944 0.687911 1.889201 0.007160 0.004214 117608.000000 0 0 1
-33.709190 -28.370020 -13.156762 45.981169 0.699604 1.860986 -0.002703 0.007919 -37660.900000 0 0 1
-34.521790 -29.689120 -12.961462 47.341286 0.710277 1.848125 -0.006270 0.010565 33879.900000 0 0 1
-33.990090 -30.818320 -13.667262 47.873679 0.736496 1.860310 -0.007876 0.009363 334634.000000 0 0 1
-34.608290 -32.040720 -13.305862 49.003953 0.746893 1.845775 -0.001112 0.001514 -289383.000000 0 0 1
-34.173090 -33.131620 -14.270462 49.690547 0.769925 1.862085 -0.005368 0.010902 -466880.000000 0 0 1
-32.827790 -33.423220 -14.001362 48.895946 0.794385 1.861212 0.004303 0.001400 -290327.000000 0 0 1
-32.304890 -34.148520 -15.097862 49.372794 0.813134 1.881568 0.009363 -0.011373 -231654.000000 0 0 1
-30.781190 -34.351220 -15.005162 48.504050 0.840155 1.885315 0.010927 -0.009418 86809.700000 0 0 1
-30.429590 33.572097 -16.103462 48.087079 -0.834459 1.912276 0.016680 -0.008009 485147.000000 0 0 1
-28.996990 33.431697 -16.150762 47.109988 -0.856315 1.920725 0.020784 -0.004031 848849.000000 0 0 1
9.461136 20.006797 -8.940940 23.868922 1.129066 1.954745 0.026660 -0.016516 -527253.000000 0 1 0
8.054536 20.051397 -8.997140 23.406892 1.188830 1.965332 0.023150 -0.019161 -214728.000000 0 1 0
7.604536 20.239097 -10.326440 23.960079 1.211381 2.016381 0.028329 -0.018289 151392.000000 0 1 0
7.540636 18.976797 -11.227240 23.303024 1.192567 2.073496 0.025462 -0.008736 -424195.000000 0 1 0
8.806736 18.492597 -11.604740 23.541553 1.126345 2.086270 0.047596 -0.013019 -417234.000000 0 1 0
8.808736 17.306697 -12.310940 22.992930 1.099992 2.135805 0.049862 -0.020977 479557.000000 0 1 0
10.102536 16.989097 -13.132840 23.731037 1.034321 2.157241 0.059545 -0.010645 699049.000000 0 1 0
9.924936 15.733497 -13.753840 23.134723 1.008026 2.207453 0.065375 -0.025464 -255464.000000 0 1 0
10.985236 15.431197 -14.613040 23.923591 0.952138 2.227894 0.076165 -0.022736 -331407.000000 0 1 0
10.750536 14.107397 -15.448440 23.521202 0.919628 2.287347 0.076236 -0.027468 -269759.000000 0 1 0
10.852636 12.895997 -14.727840 22.382933 0.871228 2.288948 0.085436 -0.031747 430201.000000 0 1 0
12.121636 12.556197 -14.168040 22.479446 0.803006 2.252693 0.101306 -0.030364 482722.000000 0 1 0
13.067036 11.764097 -15.148940 23.208442 0.732974 2.281984 0.106811 -0.032744 -103373.000000 0 1 0
13.589236 12.477097 -16.228240 24.570329 0.742758 2.292256 0.087384 -0.024151 151330.000000 0 1 0
14.347336 11.654597 -17.082140 25.168933 0.682207 2.316787 0.071744 -0.026821 -226374.000000 0 0 1
15.010736 12.387397 -18.256640 26.684728 0.689940 2.324249 0.050754 -0.024136 147304.000000 0 0 1
15.901536 13.405897 -17.811440 27.382920 0.700449 2.278984 0.031224 -0.015031 -1847.150000 0 0 1
16.673336 13.995697 -18.860840 28.802968 0.698311 2.284744 0.018630 -0.016275 119127.000000 0 0 1
17.847536 14.869297 -18.379340 29.621456 0.694618 2.240143 0.020727 0.000804 -417392.000000 0 0 1
17.592636 16.143097 -17.841840 29.806571 0.742457 2.212533 0.022502 -0.006401 63325.600000 0 0 1
17.124736 17.176997 -18.740340 30.651364 0.786922 2.228629 0.023974 -0.001333 -40523.200000 0 0 1
16.817136 18.488897 -18.059540 30.835083 0.832713 2.196517 0.017058 0.005729 428941.000000 0 0 1
17.996436 19.290797 -17.922540 31.893949 0.820097 2.167528 0.022738 0.011571 662678.000000 0 0 1
17.695336 20.537197 -17.289640 32.153274 0.859593 2.138534 0.011066 0.012403 184661.000000 0 0 1
18.645136 21.701497 -17.682840 33.634490 0.861006 2.124376 0.017542 0.006035 869480.000000 0 0 1
19.899636 21.888997 -17.007340 34.122915 0.832968 2.092565 0.028446 0.000454 387382.000000 0 0 1
19.843736 22.776297 -15.898040 34.136216 0.854097 2.055248 0.024945 0.000244 960693.000000 0 0 1
21.214436 23.129497 -15.159040 34.854303 0.828558 2.020752 0.018379 -0.003693 325497.000000 0 0 1
21.652036 22.137397 -14.225540 34.076986 0.796482 2.001437 0.023481 0.000106 -61651.500000 0 0 1
22.502536 22.782697 -13.281240 34.667084 0.791585 1.963955 0.021998 0.000653 -302994.000000 0 0 1
23.979536 22.869897 -13.658240 35.841287 0.761717 1.961756 0.027128 -0.000120 -1064790.000000 0 0 1
24.233236 23.527997 -14.908640 36.919966 0.770633 1.986474 0.030412 -0.003591 -769607.000000 0 0 1
25.524536 24.035397 -14.851740 38.075930 0.755360 1.971489 0.026361 -0.000293 -700260.000000 0 0 1
26.010336 24.648497 -16.213140 39.331309 0.758522 1.995685 0.031327 0.003370 -223057.000000 0 0 1
26.370236 23.610097 -17.117240 39.316993 0.730230 2.021240 0.030613 -0.005536 344006.000000 0 0 1
26.660736 24.142097 -18.391340 40.396498 0.735862 2.043472 0.020762 0.000759 -673851.000000 0 0 1
27.027436 23.190497 -19.541240 40.621934 0.709141 2.072650 0.023874 -0.005141 -717932.000000 0 0 1
28.376936 22.860497 -19.507240 41.332617 0.678147 2.062306 0.011611 -0.002385 -760352.000000 0 0 1
28.792736 22.096597 -20.631740 41.748652 0.654567 2.087698 0.022677 -0.009133 -1087180.000000 0 0 1
30.276836 22.089797 -20.827240 42.876798 0.630313 2.078013 0.029845 -0.004108 -1389430.000000 0 0 1
30.674636 23.317297 -21.419340 44.084212 0.649965 2.078158 0.012329 0.002725 -2107740.000000 0 0 1
32.006636 23.469997 -21.414240 45.098062 0.632718 2.065575 0.014689 -0.001785 -2151030.000000 0 0 1
32.327736 24.902797 -21.990440 46.355272 0.656381 2.065066 0.021863 0.001025 -184781.000000 0 0 1
32.375036 25.024397 -23.414840 47.144651 0.658030 2.090542 0.018468 0.002342 -362347.000000 0 0 1
31.169036 24.782497 -24.059240 46.524488 0.671746 2.114291 0.013175 -0.000534 -1131810.000000 0 0 1
31.167736 25.246797 -25.570070 47.567394 0.680827 2.138331 0.020588 0.000204 -110417.000000 0 0 1
31.226636 26.662497 -25.762400 48.473630 0.706718 2.131134 0.018862 0.004789 264797.000000 0 0 1
30.028336 27.287097 -26.241350 48.320752 0.737607 2.144880 0.013917 0.012098 398208.000000 0 0 1
29.646136 27.135297 -27.762980 48.846707 0.741208 2.175319 0.018340 0.008901 -110723.000000 0 0 1
29.024336 25.905197 -28.041810 47.956589 0.728675 2.195347 0.026534 0.003674 -77667.700000 0 0 1
28.625136 25.807697 -29.397500 48.473174 0.733684 2.222409 0.035776 -0.005654 -181262.000000 0 0 1
27.931936 24.458197 -29.713920 47.553270 0.719190 2.245743 0.040407 -0.010560 358798.000000 0 0 1
26.679736 24.297597 -29.054690 46.328787 0.738703 2.248674 0.042717 -0.005414 165427.000000 0 0 1
26.115636 23.055697 -29.249870 45.487872 0.723248 2.269239 0.048753 -0.006827 -1120570.000000 0 0 1
24.743236 22.951597 -28.657200 44.274582 0.747851 2.274782 0.037024 -0.003837 -990942.000000 0 0 1
24.791536 22.685597 -27.249900 43.264461 0.741070 2.252150 0.039970 0.007306 278264.000000 0 0 1
23.490436 22.947297 -26.787160 42.378426 0.773703 2.255049 0.031615 0.003436 -79876.400000 0 0 1
23.599136 23.068197 -25.281130 41.571582 0.774022 2.224505 0.036090 0.007409 -111564.000000 0 0 1
23.910136 21.921597 -24.558840 40.686455 0.742038 2.218820 0.035875 0.007437 194368.000000 0 0 1
24.239736 22.307697 -23.249240 40.320284 0.743915 2.185375 0.044561 0.005665 -248419.000000 0 0 1
24.858836 21.192197 -22.438840 39.630449 0.705945 2.172687 0.058604 0.002785 -488170.000000 0 0 1
26.140036 20.775397 -22.810040 40.437810 0.671546 2.170111 0.036438 0.002382 -219248.000000 0 0 1
26.203636 19.402897 -22.564440 39.651695 0.637371 2.176166 0.063523 -0.004640 133541.000000 0 0 1
27.535936 18.782397 -23.036740 40.517867 0.598615 2.175548 0.060809 -0.009047 320811.000000 0 0 1
28.700936 18.908497 -22.227740 40.931008 0.582544 2.144866 0.053137 -0.019886 603680.000000 0 0 1
29.764536 18.340997 -23.008340 41.853357 0.552248 2.152846 0.034576 -0.016637 22915.500000 0 0 1
31.087036 18.099697 -22.280640 42.313470 0.527248 2.125347 0.033444 -0.011849 -233056.000000 0 0 1
31.810036 19.299797 -22.083040 43.266860 0.545346 2.106436 0.021627 -0.012060 -900122.000000 0 0 1
33.063636 19.073097 -21.555940 43.836578 0.523231 2.084876 0.017234 -0.014844 -801292.000000 0 0 1
33.401036 20.119197 -20.522340 44.063338 0.542147 2.055274 0.017790 -0.022075 -16434.700000 0 0 1
32.609236 19.994597 -19.330840 42.858226 0.550038 2.038728 0.020393 -0.017040 365103.000000 0 0 1
33.020536 20.917397 -18.405840 43.204956 0.564664 2.010877 0.008490 -0.006777 -241752.000000 0 0 1
32.254636 20.799097 -17.081240 42.008722 0.572740 1.989539 0.022462 -0.013947 21620.800000 0 0 1
32.709436 19.588697 -16.445940 41.522201 0.539588 1.978036 0.025149 -0.024162 602422.000000 0 0 1
32.266636 19.557297 -15.093640 40.637933 0.544904 1.951332 0.030962 -0.021774 -274688.000000 0 0 1
32.872536 18.407297 -14.293940 40.295768 0.510458 1.933417 0.020957 -0.009843 634181.000000 0 0 1
34.305036 18.435197 -14.153040 41.436705 0.493111 1.919370 0.016678 -0.014648 1063960.000000 0 0 1
34.840936 17.377397 -13.334740 41.154344 0.462658 1.900770 0.012642 -0.005652 105172.000000 0 0 1
34.704036 17.450097 -11.792740 40.594885 0.465906 1.865544 0.027533 -0.012002 -136583.000000 0 0 1
35.450636 18.576997 -11.317640 41.592564 0.482682 1.846379 0.018452 -0.011353 268669.000000 0 0 1
35.321436 18.800597 -9.940640 41.229633 0.489130 1.814300 0.012342 -0.013837 -486262.000000 0 0 1
34.201336 19.784897 -9.631940 40.668757 0.524448 1.809907 0.020141 -0.015915 -184918.000000 0 0 1
32.904236 19.273497 -9.883240 39.393335 0.529872 1.824392 0.044946 -0.023600 -168656.000000 0 0 1
31.922936 20.271097 -10.008440 39.117261 0.565759 1.829531 0.025548 -0.012864 172405.000000 0 0 1
30.475036 19.752597 -10.141840 37.706098 0.575078 1.843121 0.012877 -0.009505 108626.000000 0 0 1
30.322036 19.231697 -11.397540 37.672111 0.565222 1.878159 0.020803 -0.017693 -300881.000000 0 0 1
28.984836 18.955497 -11.729840 36.565294 0.579168 1.897361 0.026697 -0.017902 -230889.000000 0 0 1
28.759336 18.282597 -13.119140 36.516634 0.566264 1.938276 0.038571 -0.008374 -307264.000000 0 0 1
29.285036 16.987797 -13.217740 36.344287 0.525647 1.943013 0.048873 -0.012526 451225.000000 0 0 1
28.859336 16.374397 -14.451640 36.191602 0.516094 1.981560 0.049660 -0.008463 130260.000000 0 0 1
30.126436 15.931297 -15.230640 37.328016 0.486433 1.991082 0.029907 -0.012007 -180576.000000 0 0 1
30.912536 15.024797 -14.595140 37.340963 0.452419 1.972364 0.019947 -0.007544 960675.000000 0 0 1
32.199536 14.879697 -15.272540 38.619502 0.432878 1.977367 0.015769 -0.006115 1929420.000000 0 0 1
33.183036 13.809097 -14.611440 38.798185 0.394350 1.956921 0.011787 -0.010018 347014.000000 0 0 1
33.546436 14.047197 -13.276240 38.716219 0.396556 1.920811 0.016842 -0.004075 -74894.000000 0 0 1
34.342536 13.024097 -12.737740 38.875273 0.362484 1.904619 0.021244 -0.000640 -301350.000000 0 0 1
35.357136 13.562097 -11.737940 39.646397 0.366267 1.871367 0.036344 0.002335 -107939.000000 0 0 1
-35.138139 14.266797 -12.240840 39.850577 -0.385685 1.883013 0.013513 -0.001333 100826.000000 0 0 1
-34.294839 14.697997 -11.182040 38.951317 -0.404897 1.861971 0.009412 0.002257 -342535.000000 0 0 1
-32.823139 15.027597 -11.573940 37.909671 -0.429351 1.881053 0.021574 -0.007297 694796.000000 0 0 1
-31.990339 13.926997 -11.982240 36.890610 -0.410605 1.901601 0.017614 -0.008200 493791.000000 0 0 1
-31.916639 12.833597 -11.191440 36.174872 -0.382313 1.885327 0.023638 -0.002059 -951043.000000 0 0 1
-30.744539 11.872497 -11.605740 34.941037 -0.368524 1.909381 0.044245 -0.008069 282238.000000 0 0 1
-30.766139 11.223397 -12.876840 35.189955 -0.349796 1.945422 0.035274 -0.000883 307032.000000 0 0 1
-29.824139 10.157197 -12.868240 34.032918 -0.328249 1.958552 0.062854 -0.010429 -162296.000000 0 0 1
-29.848839 9.388397 -14.235040 34.376322 -0.304734 1.997744 0.057975 -0.008864 -284035.000000 0 0 1
-31.065539 8.841297 -14.666740 35.473222 -0.277271 1.997047 0.033071 -0.008324 221521.000000 0 0 1
-30.799039 8.197297 -15.867340 35.602653 -0.260124 2.032728 0.036556 -0.009342 711641.000000 0 0 1
-32.095339 7.583097 -16.518740 36.884724 -0.232013 2.035153 0.041129 -0.010631 885795.000000 0 0 1
-32.859639 6.664797 -15.701740 37.023236 -0.200112 2.008770 0.045069 -0.012987 291718.000000 0 0 1
-33.891539 6.033097 -16.384040 38.124420 -0.176167 2.015014 0.031909 -0.014449 -737686.000000 0 0 1
-34.838539 5.306997 -15.441940 38.475206 -0.151169 1.983784 0.031334 -0.012161 -610858.000000 0 0 1
35.719436 4.688297 -16.126140 39.470376 0.130507 1.991676 0.036259 -0.008890 114721.000000 0 0 1
34.748136 4.232597 -15.177740 38.153789 0.121211 1.979919 0.043975 -0.012453 96651.300000 0 0 1
33.880536 3.064197 -15.660940 37.450568 0.090196 2.002233 0.047230 -0.013656 -475177.000000 0 0 1
34.543536 1.851597 -15.887540 38.067022 0.053551 2.001331 0.043099 -0.010143 -163887.000000 0 0 1
33.698836 0.735597 -15.734540 37.198500 0.021825 2.007537 0.034934 -0.003263 297185.000000 0 0 1
32.968736 0.388097 -14.403640 35.979897 0.011771 1.982667 0.047745 -0.005937 701976.000000 0 0 1
33.977936 -0.126703 -13.506540 36.564228 -0.003729 1.949151 0.053790 -0.006001 1012780.000000 0 0 1
33.583536 -0.077603 -12.164440 35.718811 -0.002311 1.918310 0.069309 -0.009955 -282936.000000 0 0 1
33.746136 1.242497 -11.420540 35.647920 0.036802 1.896917 0.068893 -0.016286 330131.000000 0 0 1
32.712236 2.212797 -11.717140 34.817786 0.067541 1.914023 0.070038 -0.014644 1155850.000000 0 0 1
32.955936 3.493997 -11.089840 34.946906 0.105626 1.893713 0.066602 -0.014745 -69727.900000 0 0 1
31.925336 4.508497 -11.623040 34.273148 0.140292 1.916788 0.062630 -0.009166 -61134.100000 0 0 1
32.185936 4.906597 -12.957340 35.041430 0.151281 1.949560 0.057402 -0.012229 375229.000000 0 0 1
31.275936 5.898297 -13.334440 34.507700 0.186400 1.967542 0.052685 -0.014360 -370544.000000 0 0 1
31.583136 6.490697 -14.728240 35.447774 0.202689 1.999279 0.029468 -0.009765 -513671.000000 0 0 1
31.199136 5.622797 -15.781340 35.412605 0.178309 2.032687 0.033716 -0.005855 304616.000000 0 0 1
31.482636 6.130897 -17.044840 36.321768 0.192332 2.059264 0.030860 -0.004070 -586803.000000 0 0 1
30.430836 7.185397 -17.595740 35.878625 0.231875 2.083373 0.031123 -0.003670 943171.000000 0 0 1
29.197436 6.707497 -18.116740 35.009956 0.225811 2.114693 0.024371 -0.008211 766913.000000 0 0 1
28.364336 5.940997 -17.241640 33.720989 0.206468 2.107496 0.020682 -0.003094 -924504.000000 0 0 1
26.963236 5.738897 -17.858240 32.846122 0.209712 2.145629 0.016586 0.000310 -302156.000000 0 0 1
26.888136 5.028597 -19.089640 33.356753 0.184883 2.180088 0.022871 -0.002767 -311896.000000 0 0 1
25.704336 5.228097 -19.796940 32.862816 0.200657 2.217315 0.018727 -0.004859 -536469.000000 0 0 1
25.305936 3.962097 -20.640140 32.895349 0.155307 2.249068 0.028243 0.002647 -158878.000000 0 0 1
24.725536 2.976397 -19.817040 31.826500 0.119801 2.242932 0.036033 -0.004964 215561.000000 0 0 1
24.552736 1.801497 -20.589040 32.093469 0.073241 2.267292 0.025036 -0.003878 -630525.000000 0 0 1
23.619936 0.838197 -19.858240 30.869947 0.035472 2.269580 0.020539 -0.004672 -902791.000000 0 0 1
22.333336 1.363297 -19.904840 29.947272 0.060968 2.297839 0.023643 -0.010150 -769696.000000 0 0 1
21.455036 0.598097 -19.115240 28.741410 0.027870 2.298393 0.024764 -0.006050 -80515.700000 0 0 1
20.130436 1.344497 -18.811940 27.584981 0.066690 2.321240 0.022471 -0.011027 -730894.000000 0 0 1
19.300436 1.382797 -19.974940 27.810379 0.071524 2.372087 0.018595 -0.015463 1327850.000000 0 0 1
18.183336 2.335997 -19.962940 27.103681 0.127769 2.398737 0.015796 -0.012472 904568.000000 0 0 1
17.047236 2.016297 -19.001740 25.607417 0.117730 2.406905 0.043186 -0.010433 -1467150.000000 0 0 1
17.412236 2.341797 -17.694540 24.935250 0.133689 2.359754 0.037857 -0.009328 304880.000000 0 1 0
16.402436 2.148797 -16.709540 23.513101 0.130263 2.361215 0.035836 -0.005554 44314.700000 0 1 0
15.329636 3.210797 -16.515940 22.761441 0.206466 2.382717 0.046911 -0.011705 -403151.000000 0 1 0
14.609636 3.504997 -17.665940 23.190772 0.235460 2.436831 0.048828 -0.007960 -128507.000000 0 1 0
13.512436 4.318797 -17.317940 22.386357 0.309355 2.455289 0.055519 -0.016736 -160683.000000 0 1 0
-19.494364 -22.034503 -17.534240 34.249074 0.846488 2.108264 0.050202 -0.018752 124664.000000 0 0 1
-19.269264 -22.298703 -18.901940 35.011712 0.858149 2.141085 0.062928 -0.021189 -639821.000000 0 0 1
-20.439764 -22.109303 -19.606140 35.930571 0.824616 2.147982 0.062521 -0.018747 -751878.000000 0 0 1
-20.427164 -22.935703 -20.942940 37.174214 0.843184 2.169259 0.057780 -0.015112 2017.210000 0 0 1
-20.277764 -24.327203 -20.719340 37.845628 0.875934 2.150134 0.046843 -0.013242 233502.000000 0 0 1
-19.748564 -24.935203 -21.879640 38.606848 0.900955 2.173327 0.040121 -0.013988 -190108.000000 0 0 1
-19.565264 -26.446073 -21.753640 39.438752 0.933844 2.155054 0.041783 -0.004138 82991.900000 0 0 1
-20.775064 -27.190193 -21.756540 40.549438 0.918354 2.137132 0.039729 0.005767 253485.000000 0 0 1
-20.527264 -28.556693 -21.534540 41.238206 0.947548 2.120223 0.062162 -0.002572 -5882.300000 0 0 1
-21.792664 -29.422133 -21.769540 42.596889 0.933281 2.107213 0.052444 0.007201 276301.000000 0 0 1
-22.384464 -29.322013 -23.065240 43.506895 0.918773 2.129575 0.037145 0.011431 -4783.110000 0 0 1
-21.623664 -29.854163 -24.126340 44.056034 0.943941 2.150324 0.036384 0.004680 -618709.000000 0 0 1
-22.036764 -29.362283 -25.517130 44.708909 0.926967 2.178202 0.031980 0.009291 282266.000000 0 0 1
-23.328064 -29.792523 -25.939400 45.876415 0.906497 2.171738 0.032474 0.013094 593511.000000 0 0 1
-23.814164 -29.005443 -27.077230 46.277494 0.883367 2.195807 0.034738 0.013134 83908.500000 0 0 1
-23.216164 -29.235963 -28.509140 46.973427 0.899666 2.222977 0.038310 -0.005721 -354093.000000 0 0 1
-23.580264 -30.492363 -29.045660 48.264515 0.912539 2.216551 0.032703 0.006262 318078.000000 0 0 1
-23.489264 -30.559393 -30.454370 49.123219 0.915470 2.239486 0.038849 0.008100 -366958.000000 0 0 1
-24.244164 -31.804553 -30.944270 50.565372 0.919478 2.229340 0.021612 0.007443 -386159.000000 0 0 1
-23.585664 -33.020513 -30.735890 50.905135 0.950555 2.219040 0.013434 0.009402 100702.000000 0 0 1
-24.472464 -34.088468 -31.055120 52.204843 0.948151 2.207901 0.020064 0.007943 -6708.390000 0 0 1
-23.855864 33.241577 -30.915280 51.282153 -0.948322 2.217861 0.025633 0.000960 -152033.000000 0 0 1
-23.030664 32.943489 -31.991630 51.372652 -0.960677 2.243032 0.022230 -0.003934 -288168.000000 0 0 1
-22.621364 31.565875 -31.882510 50.245647 -0.948990 2.258200 0.039545 -0.000096 120092.000000 0 0 1
-21.497164 31.054135 -32.828480 50.041947 -0.965292 2.286329 0.042908 0.005860 268571.000000 0 0 1
-21.888464 30.830215 -34.164887 50.959263 -0.953412 2.305592 0.038601 -0.000576 361807.000000 0 0 1
-21.073764 29.745275 34.118615 49.929598 -0.954405 0.818476 0.042945 -0.002420 296503.000000 0 0 1
-21.078264 29.478735 32.631093 48.765533 -0.950052 0.837742 0.041735 -0.009064 64703.400000 0 0 1
-20.570264 30.610525 31.904153 48.764895 -0.979111 0.857613 0.033481 -0.003721 367621.000000 0 0 1
-20.615864 30.394595 30.492983 47.735388 -0.974801 0.877869 0.039193 -0.003605 81693.100000 0 0 1
-20.074864 31.597615 29.592923 47.719498 -1.004804 0.901871 0.036225 -0.005397 615403.000000 0 0 1
-21.024164 32.688565 29.564493 48.832540 -0.999241 0.920495 0.014955 -0.006143 778324.000000 0 0 1
-20.589364 33.816232 28.778233 48.945338 -1.023887 0.942253 0.014679 -0.010947 117988.000000 0 0 1
-21.474364 -33.723113 29.111593 49.455854 1.003767 0.941423 0.017457 -0.010465 83066.600000 0 0 1
-21.412164 -33.185343 30.428773 49.856373 0.997782 0.914321 0.011006 0.001300 320488.000000 0 0 1
-22.403764 -32.182013 30.697843 49.799278 0.962654 0.906594 0.014693 -0.002443 244750.000000 0 0 1
-21.996664 -30.774283 30.243433 48.431136 0.950223 0.896353 0.015434 -0.001555 -96606.700000 0 0 1
-21.837864 -30.657703 28.848563 47.423903 0.951855 0.916863 0.011782 -0.000081 -216301.000000 0 0 1
-21.914364 -29.366623 28.345923 46.326334 0.929710 0.912367 0.022549 -0.004635 402292.000000 0 0 1
-23.302664 -28.798223 27.896813 46.374389 0.890489 0.925348 0.026082 -0.001299 -555106.000000 0 0 1
-24.232964 -28.625343 28.959333 47.384488 0.868305 0.913276 0.029089 -0.001350 442439.000000 0 0 1
-25.370494 -29.474533 28.868993 48.433757 0.860089 0.932222 0.029998 -0.005489 3515.100000 0 0 1
-26.352354 -29.402933 27.695923 48.229070 0.840057 0.959099 0.033145 -0.008454 -1177190.000000 0 0 1
-25.779414 -29.667773 26.425543 47.360999 0.855411 0.978871 0.037080 -0.009970 255794.000000 0 0 1
-26.766124 -29.872923 25.412333 47.482666 0.840196 1.006062 0.032871 -0.005798 239332.000000 0 0 1
-26.050954 -30.183983 24.065053 46.570933 0.858762 1.027758 0.031888 -0.008238 -643150.000000 0 0 1
-25.481274 -29.006713 23.466683 45.181522 0.850009 1.024663 0.024224 -0.007167 520235.000000 0 0 1
-24.847964 -29.225153 22.215283 44.328881 0.866171 1.045873 0.049159 -0.012102 -294971.000000 0 0 1
-23.650264 -30.138453 22.122483 44.238734 0.905442 1.047116 0.055951 -0.023161 -1234990.000000 0 0 1
-24.206264 -31.465983 22.140683 45.456145 0.915068 1.062056 0.056596 -0.029109 911167.000000 0 0 1
-23.292664 -32.484233 21.713883 45.489189 0.948722 1.073169 0.060445 -0.020678 328612.000000 0 0 1
-22.268864 -33.106033 22.694483 45.901539 0.978661 1.053633 0.053133 -0.019523 264350.000000 0 0 1
-21.285064 -32.211963 23.200583 45.043662 0.986879 1.029708 0.064252 -0.019730 322683.000000 0 0 1
-20.664564 -32.855103 24.294253 45.789657 1.009354 1.011533 0.047790 -0.020265 -561333.000000 0 0 1
-19.868764 -31.912633 25.183173 45.247940 1.013926 0.980557 0.036604 -0.010899 -861941.000000 0 0 1
-18.620164 -31.519523 24.636713 44.126618 1.037206 0.978439 0.043382 -0.008860 550437.000000 0 0 1
-17.692364 -30.981643 25.563513 43.890490 1.051928 0.949071 0.046052 -0.005199 321234.000000 0 0 1
-17.170064 -31.901313 26.670133 44.986674 1.077039 0.936209 0.028425 -0.013284 -1013850.000000 0 0 1
-17.933864 -31.750373 27.874093 45.898526 1.056631 0.918141 0.026798 -0.007981 464244.000000 0 0 1
-17.496364 -32.590743 28.927353 46.958183 1.078105 0.907111 0.029652 -0.002762 115655.000000 0 0 1
-17.978264 -32.074013 30.349953 47.676828 1.059909 0.880745 0.026567 0.000966 754213.000000 0 0 1
-17.116764 -31.012753 30.741893 46.902435 1.066475 0.856027 0.036306 0.002226 1085070.000000 0 0 1
-17.831164 -30.395243 31.838993 47.492554 1.040256 0.836049 0.027866 0.005909 744874.000000 0 0 1
-17.318364 -28.919953 31.906363 46.414495 1.031232 0.812862 0.033730 0.003134 265939.000000 0 0 1
-17.997164 -27.986403 31.050413 45.511150 0.999310 0.819948 0.035317 0.006710 182818.000000 0 0 1
-18.039664 -28.181983 29.621293 44.688641 1.001403 0.846195 0.038132 0.007339 -485903.000000 0 0 1
-16.745764 -27.871823 28.870723 43.483074 1.029779 0.844703 0.029404 0.006407 -322983.000000 0 0 1
-16.425864 -26.480913 28.752523 42.399945 1.015591 0.825586 0.028102 0.012413 -1516.110000 0 0 1
-15.389664 -26.323273 27.804663 41.265672 1.041747 0.831462 0.032031 0.010265 -19291.000000 0 0 1
-15.266164 -24.916903 27.123253 39.869520 1.021103 0.822624 0.033247 0.014242 -542101.000000 0 0 1
-16.306464 -24.750203 26.205733 39.562782 0.988231 0.846801 0.043625 0.007395 -115429.000000 0 0 1
-16.141964 -23.547003 25.387393 38.203979 0.969854 0.843942 0.042899 0.002047 -8509.820000 0 0 1
-16.729764 -22.242503 25.944983 38.049390 0.925919 0.820471 0.047702 0.006259 -364713.000000 0 0 1
-16.521464 -21.169003 25.039233 36.715782 0.908087 0.820337 0.049535 0.000259 23997.300000 0 0 1
-17.204064 -20.014003 25.417223 36.641170 0.860755 0.804212 0.046537 0.004053 -170590.000000 0 0 1
-16.863164 -18.765503 24.555773 35.206482 0.838741 0.798923 0.046190 -0.007893 632306.000000 0 0 1
-15.507264 -18.311803 24.591143 34.358720 0.868137 0.773145 0.051735 -0.014665 361740.000000 0 0 1
-15.382264 -17.221003 23.687903 33.080111 0.841736 0.772631 0.050319 -0.012599 -635131.000000 0 0 1
-13.980664 -16.664603 23.768183 32.219473 0.872756 0.741145 0.057897 -0.017220 -1033360.000000 0 0 1
-12.965064 -17.521103 23.240783 31.862453 0.933746 0.753338 0.043990 -0.018421 264794.000000 0 0 1
-11.703664 -16.897103 23.428283 31.166846 0.965025 0.720152 0.045276 -0.019762 -269640.000000 0 0 1
-11.283264 -15.904603 22.320483 29.639035 0.953767 0.718070 0.041735 -0.026728 -591463.000000 0 0 1
-10.590164 -16.402003 21.170083 28.798432 0.997476 0.744964 0.061029 -0.021328 -565169.000000 0 0 1
-9.238364 -16.647803 21.395083 28.639942 1.064176 0.727203 0.058585 -0.016823 -1100390.000000 0 0 1
-8.774764 -18.005103 20.798383 28.874780 1.117321 0.766568 0.053187 -0.017730 -156232.000000 0 0 1
-8.672464 -18.047103 19.400283 27.879751 1.122833 0.801186 0.049612 -0.012953 -274727.000000 0 0 1
-8.316264 -19.304403 18.970883 28.314565 1.164026 0.836582 0.036377 -0.006782 77372.500000 0 0 1
-8.073464 -19.436003 17.417383 27.318569 1.177096 0.879462 0.022694 -0.013884 65616.700000 0 0 1
-7.052764 -18.563203 16.947783 26.106729 1.207708 0.864300 0.026317 -0.010354 -95184.700000 0 0 1
-7.163964 -18.378503 15.583483 25.138351 1.199113 0.902170 0.044351 -0.008642 291443.000000 0 0 1
-6.243164 -17.239703 15.042183 23.716064 1.223349 0.883744 0.028344 -0.007711 55003.700000 0 1 0
-6.525364 -16.023803 15.698483 23.362042 1.184073 0.833937 0.027572 -0.015047 -706633.000000 0 1 0
-5.556664 -15.071103 15.545083 22.353171 1.217563 0.801777 0.022494 -0.006755 -861743.000000 0 1 0
-5.788764 -13.875703 16.493283 22.317556 1.175562 0.739171 0.011813 -0.009104 -43853.400000 0 1 0
-5.542564 -14.176903 17.877583 23.480046 1.198110 0.705335 0.027450 -0.003446 -350156.000000 0 1 0
-6.450164 -15.014403 18.544983 24.717469 1.165037 0.722313 0.046077 -0.017143 -443683.000000 0 1 0
-7.574264 -14.186303 19.187683 25.035731 1.080387 0.697560 0.059826 -0.025657 -768457.000000 0 0 1
-7.209064 -13.359003 20.227483 25.290010 1.075941 0.643799 0.055160 -0.023948 -844863.000000 0 0 1
-8.270964 -12.750203 20.880183 25.825541 0.995341 0.629182 0.066308 -0.018951 -330131.000000 0 0 1
-7.848964 -11.901003 22.127983 26.322760 0.987757 0.572331 0.061662 -0.010372 -581073.000000 0 0 1
-7.459864 -10.580503 21.667183 25.240115 0.956684 0.538571 0.043935 -0.007011 161432.000000 0 0 1
-6.949664 -9.736103 22.660383 25.623865 0.950866 0.485703 0.035317 -0.008354 -427520.000000 0 0 1
-5.513264 -10.013603 23.091483 25.765964 1.067510 0.459665 0.043871 -0.002766 -678570.000000 0 0 1
-5.499664 -11.091303 24.001263 27.005998 1.110471 0.476211 0.047106 -0.000227 -567395.000000 0 0 1
-4.220564 -11.601203 24.225433 27.189569 1.221877 0.471292 0.033836 0.009718 -842109.000000 0 0 1
-4.066664 -12.675103 25.345203 28.628225 1.260333 0.483610 0.037503 0.003290 -40598.200000 0 0 1
-2.709264 -12.997103 25.637033 28.870785 1.365288 0.477836 0.017556 0.004761 444098.000000 0 0 1
-2.417564 -13.963903 26.619023 30.156385 1.399366 0.489221 0.022519 0.002978 -56619.000000 0 0 1
-2.603464 -15.401603 26.204513 30.506784 1.403341 0.537535 0.021970 -0.008166 -14331.800000 0 0 1
-1.413264 -15.795203 25.558143 30.078304 1.481560 0.555342 0.022390 -0.015501 34785.300000 0 0 1
-1.604264 -17.022303 24.896753 30.202330 1.476829 0.601775 0.031287 -0.017723 -439584.000000 0 0 1
-0.363064 -17.970903 24.839743 30.661017 1.550596 0.626404 0.043795 -0.027004 416784.000000 0 0 1
0.115436 -18.586503 26.047113 31.998804 -1.564586 0.619786 0.047925 -0.026571 218865.000000 0 0 1
0.493536 -17.644803 27.018383 32.273451 -1.542833 0.578707 0.062289 -0.027561 -924816.000000 0 0 1
1.095736 -18.144403 28.358883 33.684510 -1.510480 0.570008 0.050596 -0.019909 -60261.200000 0 0 1
2.298736 -18.891003 28.128553 33.961296 -1.449707 0.594813 0.052845 -0.024424 1358120.000000 0 0 1
3.215836 -18.829803 29.280553 34.960747 -1.401644 0.578056 0.068659 -0.031244 837299.000000 0 0 1
4.032736 -17.582303 29.565153 34.633778 -1.345333 0.547841 0.082532 -0.027492 -791402.000000 0 0 1
3.268436 -16.504503 30.005303 34.400574 -1.375293 0.511048 0.070276 -0.032544 167045.000000 0 0 1
4.133736 -15.475203 30.473923 34.427164 -1.309771 0.483935 0.078521 -0.036260 360374.000000 0 0 1
3.349436 -14.433303 31.295893 34.626173 -1.342769 0.442178 0.071478 -0.034372 213439.000000 0 0 1
2.817836 -15.022703 32.498823 35.913720 -1.385379 0.439619 0.066330 -0.037034 182830.000000 0 0 1
1.794636 -14.181503 33.006153 35.968623 -1.444918 0.408702 0.058635 -0.020725 331693.000000 0 0 1
0.864836 -14.794503 34.101944 37.182897 -1.512406 0.409950 0.040735 -0.016813 111302.000000 0 0 1
1.602936 -15.101003 -33.480910 36.763854 -1.465045 2.715776 0.063126 -0.018854 -604540.000000 0 0 1
0.882036 -15.577403 -32.391670 35.953494 -1.514234 2.692710 0.031898 -0.016778 -436883.000000 0 0 1
1.747536 -15.562103 -31.154510 34.868845 -1.458970 2.675825 0.047342 -0.013369 -188418.000000 0 0 1
1.237836 -16.380203 -30.114430 34.303384 -1.495371 2.642224 0.042773 -0.014739 -380312.000000 0 0 1
1.798336 -16.250103 -28.836470 33.148783 -1.460579 2.625817 0.039189 -0.010120 -376414.000000 0 0 1
1.456436 -17.441503 -27.920550 32.952759 -1.487486 2.581659 0.051429 -0.007647 -50333.900000 0 0 1
2.113536 -18.642003 -28.280760 33.938071 -1.457903 2.555856 0.051009 -0.011692 130065.000000 0 0 1
1.626236 -19.651703 -27.409770 33.765804 -1.488232 2.517958 0.071333 -0.009304 -351541.000000 0 0 1
2.450636 -20.947103 -27.573840 34.714599 -1.454334 2.488652 0.061477 -0.012721 195040.000000 0 0 1
3.791136 -20.969703 -27.120810 34.491150 -1.391937 2.475613 0.047465 -0.008721 202182.000000 0 0 1
3.860836 -21.071303 -25.669280 33.433782 -1.389579 2.446142 0.046432 -0.003941 -1307790.000000 0 0 1
5.164236 -21.689603 -25.192610 33.641875 -1.337051 2.417117 0.046090 -0.011739 -595708.000000 0 0 1
5.372536 -23.114003 -25.432040 34.783759 -1.342415 2.390798 0.058130 -0.019563 205655.000000 0 0 1
5.598136 -23.423903 -26.805930 36.035763 -1.336204 2.409639 0.035113 -0.009792 -669813.000000 0 0 1
5.149936 -24.834303 -27.155050 37.157249 -1.366323 2.390311 0.041905 -0.012508 -105420.000000 0 0 1
5.649236 -25.846853 -26.347530 37.338532 -1.355615 2.354121 0.059847 -0.017998 -134261.000000 0 0 1
5.196136 -27.085183 -26.844930 38.487104 -1.381255 2.342705 0.059492 -0.015622 -112058.000000 0 0 1
5.480536 -28.281453 -25.896780 38.736546 -1.379383 2.303035 0.062003 -0.019286 75793.500000 0 0 1
6.873336 -28.510433 -25.948030 39.158495 -1.334229 2.295136 0.067646 -0.020716 -130736.000000 0 0 1
7.268336 -29.550733 -25.076540 39.432313 -1.329622 2.260021 0.059862 -0.021622 298333.000000 0 0 1
8.745736 -29.994213 -25.273560 40.185737 -1.287081 2.250958 0.058371 -0.025272 222300.000000 0 0 1
9.107536 -30.203203 -26.623470 41.279411 -1.277925 2.271764 0.062410 -0.025122 358303.000000 0 0 1
10.465336 -30.620363 -26.754760 41.987463 -1.241466 2.261667 0.070138 -0.017891 642426.000000 0 0 1
11.080936 -30.397703 -28.190450 42.912806 -1.221235 2.287528 0.072042 -0.030282 137917.000000 0 0 1
10.546936 -31.209653 -29.212820 44.030320 -1.244907 2.296244 0.083083 -0.026448 -75086.600000 0 0 1
10.573336 -30.503563 -30.399500 44.344023 -1.237130 2.326138 0.079146 -0.014985 -5657.810000 0 0 1
-34.322945 -4.457503 -5.433540 35.035086 0.129147 1.726513 0.108268 -0.026584 -193898.000000 0 0 1
-33.884514 -3.641503 -4.391740 34.361435 0.107057 1.698957 0.095590 -0.030076 544682.000000 0 0 1
-32.964894 -2.619403 -4.818440 33.418002 0.079294 1.715488 0.091792 -0.031638 -7392.520000 0 0 1
-33.611874 -1.372903 -5.425240 34.074568 0.040823 1.730693 0.114350 -0.022114 -624412.000000 0 0 1
-34.350976 -0.691203 -4.472040 34.647748 0.020119 1.700229 0.092398 -0.022091 53125.300000 0 0 1
-35.216647 0.282097 -5.043840 35.577130 -0.008010 1.713048 0.081206 -0.023264 544587.000000 0 0 1
35.599073 1.064097 -3.934040 35.831592 0.029882 1.680811 0.107799 -0.022418 505372.000000 0 0 1
-35.102042 1.860497 -3.203440 35.296980 -0.052953 1.661678 0.082464 -0.018529 617195.000000 0 0 1
35.770169 2.743497 -2.394240 35.955030 0.076548 1.637435 0.095596 -0.021627 -52819.100000 0 0 1
-35.106935 4.059197 -2.309740 35.416223 -0.115113 1.636060 0.079072 -0.025098 -452736.000000 0 0 1
-34.969133 4.847397 -3.496940 35.476276 -0.137742 1.669528 0.081025 -0.025231 394507.000000 0 0 1
-33.630894 4.919497 -3.956640 34.218321 -0.145249 1.686685 0.044327 -0.021080 57500.600000 0 0 1
-32.813054 6.126297 -3.377940 33.550537 -0.184578 1.671649 0.033797 -0.021713 -347432.000000 0 0 1
-32.508554 6.007197 -1.979240 33.118121 -0.182727 1.630595 0.028247 -0.024041 472578.000000 0 0 1
-32.714414 7.226597 -1.363240 33.530807 -0.217408 1.611464 0.038011 -0.037480 -292804.000000 0 0 1
-32.080984 7.337597 0.062860 32.909480 -0.224853 1.568886 0.039972 -0.026028 -304359.000000 0 0 1
-30.677904 7.170097 -0.029840 31.504682 -0.229600 1.571743 0.039210 -0.020320 462798.000000 0 0 1
-29.905654 7.718897 1.022460 30.902669 -0.252595 1.537704 0.033707 -0.028163 -62685.100000 0 0 1
-29.818314 9.264997 1.104660 31.244077 -0.301258 1.535433 0.036927 -0.026521 -49242.700000 0 0 1
-31.081894 9.910397 1.355160 32.651747 -0.308658 1.529281 0.039567 -0.028075 901908.000000 0 0 1
-30.922184 11.318697 1.543460 32.964779 -0.350891 1.523958 0.035653 -0.020349 -45540.900000 0 0 1
-32.294434 11.992697 1.376460 34.476803 -0.355571 1.530861 0.058050 -0.033252 -574088.000000 0 0 1
-32.704674 12.134997 0.037760 34.883453 -0.355301 1.569714 0.058719 -0.033449 615838.000000 0 0 1
-33.932574 12.851297 -0.072640 36.284717 -0.362037 1.572798 0.073716 -0.031842 1258740.000000 0 0 1
-35.257898 11.989497 0.063660 37.240724 -0.327785 1.569087 0.090139 -0.047956 270177.000000 0 0 1
-35.537609 11.118597 -0.987240 37.249423 -0.303221 1.597303 0.087555 -0.043154 312601.000000 0 0 1
35.050430 10.213597 -0.557340 36.512475 0.283546 1.586061 0.103644 -0.047448 342502.000000 0 0 1
34.678280 9.200797 -1.634140 35.915292 0.259344 1.616312 0.091416 -0.053256 149138.000000 0 0 1
33.953530 9.760197 -2.735640 35.434268 0.279911 1.648076 0.083549 -0.046827 616495.000000 0 0 1
33.434250 8.632497 -3.537240 34.711398 0.252675 1.672878 0.065680 -0.044668 -158511.000000 0 0 1
32.701790 9.119697 -4.746040 34.279744 0.271965 1.709693 0.062540 -0.041090 -641369.000000 0 0 1
31.346550 9.445497 -4.645740 33.066698 0.292672 1.711759 0.087197 -0.044667 -137008.000000 0 0 1
30.796900 9.849197 -5.877340 32.863336 0.309532 1.750606 0.083183 -0.030630 -314694.000000 0 0 1
29.328590 10.272997 -5.914840 31.633621 0.336918 1.758883 0.080515 -0.025694 -732250.000000 0 0 1
28.328250 9.364797 -5.580840 30.353500 0.319272 1.755710 0.078997 -0.026853 -134824.000000 0 0 1
27.103970 9.985897 -5.895440 29.480494 0.352998 1.772131 0.039531 -0.012072 -439823.000000 0 0 1
25.989110 8.931397 -6.044340 28.137835 0.331015 1.787295 0.033898 -0.009158 -488709.000000 0 0 1
26.255810 8.194997 -7.165140 28.422962 0.302540 1.825636 0.048063 -0.010100 46538.600000 0 0 1
25.415710 7.101497 -7.330040 27.388302 0.272465 1.841733 0.033775 -0.015271 -677566.000000 0 0 1
25.708810 6.238997 -8.628740 27.826662 0.238077 1.886083 0.041777 -0.017038 -463750.000000 0 0 1
26.841250 5.425797 -8.565740 28.692575 0.199456 1.873954 0.052317 -0.017034 259080.000000 0 0 1
27.005090 4.542097 -9.687440 29.047410 0.166634 1.910815 0.044691 -0.014191 -359331.000000 0 0 1
28.001310 3.401197 -9.385040 29.727436 0.120874 1.891994 0.059738 -0.014082 -353706.000000 0 0 1
29.363520 3.775297 -9.343440 31.044630 0.127870 1.876504 0.089345 -0.012618 514937.000000 0 0 1
30.165060 3.145597 -8.362540 31.460415 0.103904 1.839842 0.092876 -0.019180 -1714.980000 0 0 1
30.265100 1.603297 -8.156440 31.385894 0.052926 1.833690 0.095130 -0.025768 -359713.000000 0 0 1
29.159730 1.187397 -7.343140 30.093545 0.040698 1.817295 0.094627 -0.025315 803672.000000 0 0 1
29.200960 -0.234603 -6.948840 30.017286 -0.008034 1.804410 0.089141 -0.022390 -311792.000000 0 0 1
29.171500 -1.322203 -8.016740 30.281888 -0.045294 1.838728 0.080016 -0.020982 -1106550.000000 0 0 1
30.359440 -1.462603 -8.747840 31.628460 -0.048139 1.851031 0.087061 -0.022842 24786.400000 0 0 1
30.191710 -2.546503 -9.635640 31.794175 -0.084145 1.878702 0.058119 -0.017820 -355731.000000 0 0 1
31.232220 -2.774703 -10.727140 33.139434 -0.088608 1.900431 0.058556 -0.010924 -665774.000000 0 0 1
32.497220 -3.219603 -10.306840 34.244212 -0.098751 1.876517 0.076887 -0.017337 164363.000000 0 0 1
33.213690 -3.668803 -11.480140 35.332746 -0.110015 1.901718 0.067060 -0.014006 -203520.000000 0 0 1
34.640640 -4.112203 -11.154240 36.623779 -0.118157 1.880276 0.072461 -0.011794 -489486.000000 0 0 1
34.726840 -5.359503 -10.463040 36.662691 -0.153125 1.860206 0.064391 -0.013689 1506090.000000 0 0 1
-35.592552 -5.475103 -9.789740 37.318166 0.152631 1.836234 0.071491 -0.014727 1215240.000000 0 0 1
-35.442333 -6.804303 -9.042240 37.205102 0.189675 1.816292 0.075913 -0.020424 -487233.000000 0 0 1
35.472650 -6.923003 -7.837540 36.981940 -0.192742 1.784345 0.081718 -0.015896 341186.000000 0 0 1
35.414380 -8.278603 -7.408140 37.115955 -0.229640 1.771740 0.081360 -0.009218 -420462.000000 0 0 1
34.877860 -8.402503 -5.979740 36.370654 -0.236407 1.735957 0.089533 -0.005828 -362561.000000 0 0 1
-35.755489 -7.982703 -5.034040 36.979996 0.219656 1.707349 0.094544 -0.004347 600067.000000 0 0 1
-35.739984 -8.824403 -3.868640 37.015982 0.242064 1.675500 0.096478 -0.011104 -93672.100000 0 0 1
-35.016335 -10.220003 -3.954040 36.690961 0.283976 1.678772 0.096160 -0.020584 -392329.000000 0 0 1
-35.632544 -11.142703 -4.774240 37.638164 0.303077 1.697985 0.088678 -0.020871 459641.000000 0 0 1
-34.676276 -11.828003 -5.618240 37.066297 0.328722 1.722956 0.075792 -0.020960 234887.000000 0 0 1
-35.274891 -12.515703 -6.840940 38.049431 0.340949 1.751570 0.072738 -0.023871 -126157.000000 0 0 1
-35.692179 -11.487903 -7.758540 38.289666 0.311390 1.774837 0.069170 -0.013952 300495.000000 0 0 1
35.498980 -12.110103 -8.981240 38.568054 -0.328760 1.805821 0.071950 -0.013511 -178571.000000 0 0 1
35.783940 -11.293003 -10.244340 38.896899 -0.305696 1.837312 0.057713 -0.020913 -475341.000000 0 0 1
34.973080 -10.135803 -10.331940 37.849700 -0.282089 1.847278 0.054776 -0.017281 398124.000000 0 0 1
35.055360 -9.547503 -11.632140 38.148915 -0.265906 1.880644 0.045756 -0.017057 -720483.000000 0 0 1
34.108180 -8.399803 -11.962140 37.108185 -0.241464 1.899016 0.041321 -0.008321 -456304.000000 0 0 1
34.089780 -7.994503 -13.303740 37.456837 -0.230351 1.933898 0.049057 -0.004868 1106650.000000 0 0 1
33.073400 -6.971203 -13.448140 36.377189 -0.207739 1.949467 0.039981 -0.006091 570715.000000 0 0 1
33.208940 -6.200803 -14.825040 36.892620 -0.184595 1.984325 0.032512 -0.003540 453737.000000 0 0 1
34.251990 -5.211303 -14.850140 37.694604 -0.150988 1.975732 0.027594 0.015528 799685.000000 0 0 1
33.837010 -4.052703 -15.653040 37.501804 -0.119203 2.001372 0.032044 0.006990 828643.000000 0 0 1
35.003300 -3.023603 -15.949140 38.584300 -0.086167 1.996935 0.030248 0.003483 -21207.700000 0 0 1
35.724089 -3.297203 -17.108240 39.746370 -0.092036 2.015771 0.031447 0.007311 568479.000000 0 0 1
-34.587207 -2.684103 -17.157140 38.702025 0.077449 2.030088 0.052056 0.004949 644018.000000 0 0 1
-34.316942 -1.205403 -16.898540 38.270957 0.035111 2.028122 0.052085 0.007624 -1220080.000000 0 0 1
-34.668683 -0.303603 -17.937440 39.035388 0.008757 2.048248 0.043362 0.000445 251658.000000 0 0 1
-34.479354 1.026797 -17.465540 38.664263 -0.029771 2.039492 0.050205 -0.003942 -518785.000000 0 0 1
-34.643864 2.194897 -18.457640 39.315383 -0.063271 2.059494 0.037161 -0.007248 -164434.000000 0 0 1
-33.661454 2.326697 -19.460940 38.951703 -0.069011 2.093953 0.033281 -0.004797 187965.000000 0 0 1
-33.810494 3.468697 -20.295940 39.586697 -0.102235 2.109118 0.031128 -0.006130 -128310.000000 0 0 1
-32.890964 3.456197 -21.574340 39.486871 -0.104696 2.148817 0.024496 -0.003558 830160.000000 0 0 1
-31.547074 3.818897 -21.196240 38.197938 -0.120468 2.159046 0.022888 -0.000912 1165960.000000 0 0 1
-30.717824 3.936197 -22.360740 38.197920 -0.127446 2.196159 0.024162 -0.000682 -196892.000000 0 0 1
-29.284164 4.455397 -22.193940 37.013292 -0.150986 2.213824 0.018230 0.001777 -648244.000000 0 0 1
-28.430094 3.411997 -21.851640 36.019524 -0.119442 2.222650 0.030321 0.009447 -995606.000000 0 0 1
-27.266114 3.965897 -21.352940 34.858534 -0.144439 2.230092 0.014422 0.016203 -940386.000000 0 0 1
-26.365004 2.891897 -20.705840 33.648303 -0.109250 2.233640 0.024648 0.011878 12456.000000 0 0 1
-26.880524 2.457897 -19.443540 33.266426 -0.091184 2.195035 0.031687 0.008528 1061910.000000 0 0 1
-25.926564 1.540397 -18.820740 32.074597 -0.059344 2.197873 0.034654 0.008642 633784.000000 0 0 1
-25.110624 2.151697 -17.625940 30.754626 -0.085480 2.181098 0.038096 0.005590 185941.000000 0 0 1
-24.069664 2.992897 -18.069940 30.246138 -0.123708 2.211088 0.043138 0.003931 -454493.000000 0 0 1
-23.332364 3.488697 -17.030040 29.096262 -0.148422 2.196046 0.050563 -0.001833 -908934.000000 0 0 1
-22.159564 4.362897 -17.421240 28.523337 -0.194399 2.227831 0.055901 -0.002528 -1369950.000000 0 0 1
-21.127164 3.618797 -17.945140 27.954978 -0.169640 2.267809 0.073913 -0.007741 -746007.000000 0 0 1
-20.036664 4.537497 -17.960340 27.287920 -0.222703 2.289194 0.067812 -0.009227 -67.592300 0 0 1
-18.687464 3.904097 -18.379940 26.500669 -0.205953 2.337222 0.079730 -0.017500 -17095.500000 0 0 1
-18.084964 3.118297 -17.383240 25.277791 -0.170746 2.329096 0.085738 -0.013709 302231.000000 0 0 1
-17.048664 2.263097 -17.885040 24.812360 -0.131972 2.375769 0.063205 -0.011317 -137140.000000 0 1 0
-17.026564 0.787597 -17.330440 24.307784 -0.046224 2.364505 0.058615 -0.019276 586466.000000 0 1 0
-18.048364 -0.104703 -17.805440 25.353266 0.005801 2.349411 0.046647 -0.016710 821421.000000 0 0 1
-19.414964 0.221697 -17.590640 26.199630 -0.011418 2.306903 0.058111 -0.021665 12610.900000 0 0 1
-20.364264 -0.879403 -18.085540 27.250016 0.043157 2.296536 0.045403 -0.019802 -315475.000000 0 0 1
-20.394664 -1.956803 -17.141940 26.713620 0.095654 2.267500 0.039298 -0.015755 182615.000000 0 0 1
-21.361464 -2.874703 -17.548940 27.794628 0.133771 2.254126 0.055043 -0.014218 -380622.000000 0 0 1
-21.517364 -4.041703 -16.557040 27.449370 0.185671 2.218284 0.064472 -0.022599 -181196.000000 0 0 1
-21.965664 -3.596203 -15.344340 27.034641 0.162280 2.174361 0.062660 -0.023317 176725.000000 0 0 1
-22.480964 -4.680403 -14.593740 27.208035 0.205262 2.136934 0.071086 -0.030380 -198779.000000 0 0 1
-22.841764 -4.340803 -13.190040 26.731366 0.187799 2.086824 0.063677 -0.023924 -219251.000000 0 0 1
-23.869964 -3.371003 -13.171440 27.470451 0.140296 2.070855 0.067547 -0.022132 246040.000000 0 0 1
-24.067864 -2.854103 -11.869740 26.987010 0.118034 2.026207 0.067441 -0.020010 -218601.000000 0 0 1
-25.041364 -1.668203 -11.629740 27.660507 0.066520 2.004733 0.076509 -0.015473 -135457.000000 0 0 1
-25.021964 -1.225703 -10.265540 27.073647 0.048946 1.959696 0.065438 -0.017578 297865.000000 0 0 1
-25.501244 0.065797 -10.139140 27.443031 -0.002580 1.949226 0.073286 -0.015676 -433472.000000 0 0 1
-25.736894 0.537397 -8.650540 27.157105 -0.020877 1.894982 0.083335 -0.015761 59305.100000 0 0 1
-24.591864 0.517897 -7.805340 25.806033 -0.021057 1.878071 0.063098 -0.012125 589593.000000 0 0 1
-24.957464 0.965497 -6.541640 25.818603 -0.038666 1.826958 0.059418 -0.018351 -315450.000000 0 0 1
-23.789864 1.411897 -5.656940 24.493919 -0.059279 1.803853 0.025540 -0.010467 -361811.000000 0 1 0
-23.635464 2.789397 -5.745140 24.483107 -0.117474 1.807662 0.052954 -0.017003 745995.000000 0 1 0
-22.273264 3.202397 -5.727540 23.219784 -0.142799 1.820035 0.035705 -0.000064 138264.000000 0 1 0
-22.236764 4.714997 -5.614840 23.414340 -0.208942 1.812960 0.071031 -0.020131 -429064.000000 0 1 0
-22.607564 5.271397 -4.386640 23.624822 -0.229077 1.757559 0.065240 -0.021672 633685.000000 0 1 0
-22.549564 6.672997 -4.516240 23.945943 -0.287715 1.760534 0.094933 -0.020937 -486087.000000 0 1 0
-23.192964 7.487697 -3.344540 24.600105 -0.312280 1.707175 0.087909 -0.019493 -110511.000000 0 1 0
-22.443764 7.581097 -2.148340 23.786781 -0.325749 1.661236 0.079355 -0.018632 2033500.000000 0 1 0
-21.038464 7.986797 -2.157640 22.606665 -0.362822 1.666384 0.089843 -0.016630 1275940.000000 0 1 0
-20.648164 9.455297 -2.443840 22.841228 -0.429424 1.677994 0.089371 -0.014468 -487668.000000 0 1 0
-20.478264 9.827497 -3.774240 23.025723 -0.447438 1.735453 0.074760 -0.013995 384274.000000 0 1 0
-20.091764 11.165297 -3.836640 23.303705 -0.507220 1.736186 0.095447 -0.009819 -352557.000000 0 1 0
-19.752164 11.602497 -5.280140 23.508420 -0.531106 1.797335 0.084763 -0.011667 317608.000000 0 1 0
-18.482964 11.213297 -5.799840 22.382943 -0.545319 1.832906 0.052472 -0.008087 474364.000000 0 1 0
-18.475064 11.662897 -7.138140 22.984869 -0.563101 1.886577 0.064766 -0.004505 777788.000000 0 1 0
-17.097764 11.493497 -7.882340 22.058225 -0.591839 1.936217 0.041857 -0.005380 400129.000000 0 1 0
-16.652864 10.223397 -8.404940 21.271548 -0.550586 1.977001 0.019794 0.003380 476057.000000 0 1 0
-17.576664 9.487697 -9.184840 21.984467 -0.494970 2.001805 0.034709 -0.002486 -39065.200000 0 1 0
-17.932864 10.097097 -10.579540 23.140131 -0.512807 2.045634 0.055043 0.006245 -351556.000000 0 1 0
-16.863064 9.850897 -11.429740 22.628347 -0.528699 2.100302 0.045621 0.002416 -253198.000000 0 1 0
-17.029464 10.396697 -12.720340 23.662228 -0.548113 2.138361 0.052679 0.001845 166785.000000 0 1 0
-15.916164 9.963997 -13.728140 23.260854 -0.559340 2.202081 0.027794 0.011293 98906.700000 0 1 0
-15.940864 8.719297 -14.400340 23.184199 -0.500520 2.240977 0.032093 0.004962 2123.020000 0 1 0
-15.660764 7.558097 -13.606040 22.079599 -0.449642 2.234739 0.021612 0.002798 -262688.000000 0 1 0
-15.535264 6.304097 -14.472340 22.148018 -0.385490 2.282913 0.025890 -0.000410 -103372.000000 0 1 0
-14.319864 6.171197 -15.181940 21.763122 -0.406903 2.342838 0.027799 -0.005280 447190.000000 0 1 0
-14.392064 4.991297 -15.934140 22.044078 -0.333829 2.378687 0.024454 -0.013374 -3896.500000 0 1 0
32.099210 -16.293203 28.276113 45.775171 -0.469700 0.904960 0.013909 0.007721 -415445.000000 0 0 1
31.461260 -15.037803 28.363723 44.949384 -0.445876 0.887936 0.013717 0.005377 836080.000000 0 0 1
30.323810 -15.049203 29.281313 44.759437 -0.460670 0.857681 0.028440 -0.002139 1015860.000000 0 0 1
30.578280 -15.109203 30.822213 45.970947 -0.458929 0.835952 0.021518 -0.012823 -449061.000000 0 0 1
31.243510 -14.009603 31.310133 46.397740 -0.421523 0.830075 0.011434 -0.010479 -275178.000000 0 0 1
31.011010 -13.735903 32.687185 47.104244 -0.416964 0.803859 0.009054 -0.012098 -456257.000000 0 0 1
31.590690 -12.392603 33.126550 47.422743 -0.373839 0.797445 0.019709 -0.016377 -50389.400000 0 0 1
31.301650 -12.043903 -34.244366 47.932509 -0.367308 2.366604 0.010721 -0.023610 129726.000000 0 0 1
31.689000 -10.707703 -33.910900 47.631888 -0.325855 2.363049 0.013559 -0.024357 -30009.300000 0 0 1
31.329950 -10.399403 -32.419450 46.268067 -0.320489 2.347157 0.007627 -0.020905 640218.000000 0 0 1
29.955670 -10.629203 -32.087460 45.165553 -0.340972 2.360921 0.034215 -0.022821 588722.000000 0 0 1
29.607210 -9.956803 -30.929670 43.958722 -0.324415 2.351257 0.008841 -0.011502 -290421.000000 0 0 1
28.195980 -10.352003 -30.455060 42.774851 -0.351866 2.363118 0.020433 -0.009705 -93045.900000 0 0 1
27.973860 -10.205003 -29.053870 41.602960 -0.349803 2.343901 0.012217 -0.010484 241872.000000 0 0 1
26.916330 -11.106103 -28.719170 40.897739 -0.391335 2.349306 0.033204 -0.008522 -187805.000000 0 0 1
26.557210 -10.991803 -27.198040 39.570677 -0.392424 2.328600 0.032211 -0.005323 -267768.000000 0 0 1
25.721910 -9.923903 -26.730940 38.401089 -0.368219 2.340745 0.024677 -0.014431 1331970.000000 0 0 1
24.390310 -9.712503 -27.239280 37.831181 -0.378964 2.374630 0.050085 -0.020041 1108110.000000 0 0 1
23.321710 -10.822203 -27.176390 37.410939 -0.434468 2.383908 0.052426 -0.007510 -852968.000000 0 0 1
23.669310 -11.862403 -28.007420 38.540477 -0.464585 2.384304 0.053365 -0.016201 -83330.800000 0 0 1
23.121910 -13.161603 -27.757170 38.448810 -0.517484 2.377377 0.049294 -0.022212 5665.970000 0 0 1
24.068910 -14.186403 -28.386640 39.829232 -0.532595 2.364148 0.043258 -0.005734 189902.000000 0 0 1
23.948310 -14.122303 -29.778560 40.739705 -0.532811 2.390505 0.050470 -0.018438 875683.000000 0 0 1
25.040410 -14.846603 -30.399440 42.090019 -0.535187 2.377844 0.043927 -0.006895 635270.000000 0 0 1
24.902010 -14.952803 -31.952520 43.181708 -0.540762 2.403800 0.058862 -0.019975 -98864.900000 0 0 1
23.811410 -15.720403 -32.456260 43.214848 -0.583516 2.420438 0.063881 -0.015927 235522.000000 0 0 1
23.775310 -15.962203 -33.835890 44.327471 -0.591257 2.439228 0.067909 -0.014559 -13945.100000 0 0 1
23.905010 -14.767903 33.942874 44.064261 -0.553386 0.691479 0.053245 -0.014809 -729438.000000 0 0 1
22.872510 -13.872703 34.094459 43.336309 -0.545202 0.665285 0.053666 -0.018182 -735306.000000 0 0 1
22.946810 -12.808403 33.246248 42.378346 -0.509100 0.668890 0.061815 -0.014907 -854587.000000 0 0 1
21.902710 -11.729703 33.402533 41.629843 -0.491671 0.639541 0.060810 -0.021638 -1648.180000 0 0 1
20.545510 -12.006703 33.080774 40.750662 -0.528867 0.623594 0.051153 -0.019790 666223.000000 0 0 1
20.275210 -12.089603 31.674903 39.503697 -0.537676 0.640460 0.042842 -0.010525 -1055010.000000 0 0 1
18.788010 -12.311603 31.364783 38.578679 -0.580085 0.621496 0.035458 -0.004658 -146749.000000 0 0 1
18.042910 -11.153703 31.696763 38.139696 -0.553677 0.589767 0.023973 -0.001165 -53823.500000 0 0 1
16.965710 -11.483803 32.563713 38.472177 -0.595042 0.561566 0.003094 0.005631 48475.800000 0 0 1
16.201310 -10.220403 33.021881 38.175695 -0.562786 0.525651 0.010027 -0.001454 -782806.000000 0 0 1
15.431510 -9.616403 31.984183 36.791230 -0.557280 0.516926 0.018666 -0.005499 462091.000000 0 0 1
14.675110 -8.430303 32.334833 36.496168 -0.521430 0.482196 0.027744 -0.002675 271764.000000 0 0 1
13.552110 -8.645803 33.335065 37.008595 -0.567870 0.449330 0.029018 -0.011221 -1649550.000000 0 0 1
12.717010 -9.705603 32.966019 36.642591 -0.651895 0.451797 0.023028 -0.005854 -569608.000000 0 0 1
11.531910 -9.805803 33.677544 36.923105 -0.704679 0.422420 0.031118 -0.006852 959489.000000 0 0 1
10.290710 -8.879503 33.202479 35.876857 -0.711916 0.388557 0.042128 -0.000980 709694.000000 0 0 1
10.480210 -7.460803 33.424555 35.814791 -0.618664 0.367409 0.043056 -0.004578 67220.600000 0 0 1
9.501210 -6.753203 32.725021 34.739109 -0.617920 0.342189 0.049562 0.006169 -220505.000000 0 0 1
9.920410 -5.280303 32.591333 34.474499 -0.489126 0.332053 0.050192 0.000142 111832.000000 0 0 1
10.206010 -4.612003 33.787246 35.595100 -0.424425 0.320079 0.065582 -0.012855 127870.000000 0 0 1
10.389710 -3.252403 33.567277 35.288614 -0.303377 0.313626 0.025525 -0.010785 -168362.000000 0 0 1
10.224410 -2.339703 -33.888990 35.475011 -0.224962 2.841442 0.024951 -0.015391 -614175.000000 0 0 1
8.924210 -2.497903 -33.427900 34.688694 -0.272918 2.871155 0.030034 -0.002834 -789687.000000 0 0 1
8.640110 -1.573103 -32.356180 33.526833 -0.180097 2.876557 0.027664 -0.004369 885975.000000 0 0 1
7.098010 -1.314403 -32.182740 32.982391 -0.183105 2.920942 0.023704 -0.003210 725402.000000 0 0 1
6.573510 -0.405603 -33.127310 33.775645 -0.061624 2.945342 0.034634 -0.007090 -458167.000000 0 0 1
5.246510 -0.135303 -32.791520 33.208853 -0.025783 2.982889 0.033661 -0.002191 -350586.000000 0 0 1
4.559110 0.925097 -33.723950 34.043297 0.200194 3.004514 0.038700 0.002886 17293.300000 0 0 1
5.078910 2.243497 -33.598230 34.053923 0.415954 2.977816 0.016560 0.005034 109572.000000 0 0 1
4.573910 3.104697 34.095423 34.540667 0.596345 0.160737 0.025419 0.001817 241413.000000 0 0 1
5.391510 4.417797 34.056835 34.762815 0.686458 0.201879 0.012902 0.002500 89331.000000 0 0 1
5.189410 5.232397 32.945080 33.759239 0.789523 0.220065 0.036341 -0.019171 310491.000000 0 0 1
6.204010 6.244497 32.869891 34.028124 0.788651 0.261658 0.034094 -0.014845 32748.500000 0 0 1
5.917910 7.416797 31.922653 33.302947 0.897333 0.288916 0.052608 -0.019986 -177988.000000 0 0 1
4.837910 8.230697 32.401953 33.779229 1.039404 0.286541 0.042849 -0.014165 408709.000000 0 0 1
4.392610 9.293697 31.625123 33.253815 1.129272 0.314270 0.040485 -0.023347 -249097.000000 0 0 1
3.984710 9.014197 30.168323 31.737381 1.154575 0.315758 0.050544 -0.026020 -1450750.000000 0 0 1
2.651610 8.714197 30.022033 31.373408 1.275412 0.294573 0.060513 -0.032028 -1249990.000000 0 0 1
2.408110 8.421297 28.615823 29.926285 1.292274 0.297029 0.051937 -0.014458 -1314250.000000 0 0 1
1.112110 7.791197 28.277243 29.352036 1.429015 0.271452 0.056139 -0.020200 -1548120.000000 0 0 1
0.038710 8.633997 28.613423 29.887713 1.566313 0.293061 0.072736 -0.019613 -575922.000000 0 0 1
-1.057290 8.275897 27.792623 29.017895 -1.443729 0.291634 0.065868 -0.019075 -238882.000000 0 0 1
-2.432690 8.508497 28.405803 29.752347 -1.292313 0.302007 0.073262 -0.021883 -552201.000000 0 0 1
-2.635790 9.859797 28.712263 30.472234 -1.309578 0.341530 0.072676 -0.023942 690076.000000 0 0 1
-4.034390 9.882797 29.071833 30.969621 -1.183221 0.351896 0.070848 -0.015307 715957.000000 0 0 1
-4.495690 11.199197 29.789663 32.141208 -1.189058 0.384897 0.062309 -0.010870 1795.740000 0 0 1
-4.618690 12.408097 29.059823 31.933783 -1.214455 0.427506 0.062299 -0.019853 5081.630000 0 0 1
-5.736090 12.445897 28.198853 31.352486 -1.138930 0.452370 0.064102 -0.021297 -230870.000000 0 0 1
-6.043290 13.865797 27.833223 31.677594 -1.159779 0.497788 0.049919 -0.015790 114709.000000 0 0 1
-5.063490 14.462997 26.997983 31.043651 -1.234033 0.516247 0.049277 -0.014931 149797.000000 0 0 1
-5.307990 15.835497 26.899153 31.662314 -1.247371 0.555639 0.036393 -0.006623 -255358.000000 0 0 1
-4.120790 16.443397 26.165483 31.176894 -1.325249 0.574878 0.058697 -0.010050 -172998.000000 0 0 1
-4.033590 15.956097 24.801263 29.765240 -1.323191 0.585874 0.040282 -0.000474 448867.000000 0 0 1
-3.185790 16.898397 24.072043 29.583244 -1.384457 0.620298 0.058158 0.003132 517581.000000 0 0 1
-3.153490 16.580297 22.584483 28.194142 -1.382846 0.641775 0.051712 -0.000179 -453412.000000 0 0 1
-2.373090 15.532497 22.145983 27.153905 -1.419186 0.617078 0.029688 -0.003711 -397740.000000 0 0 1
-2.265890 15.482297 20.692683 25.942685 -1.425474 0.647440 0.028851 -0.000654 114402.000000 0 0 1
-1.243190 14.410397 20.245283 24.881249 -1.484739 0.620348 0.024886 -0.004920 -23841.600000 0 1 0
-1.746190 13.102797 20.362383 24.276719 -1.438309 0.575791 0.029800 0.000054 -161310.000000 0 1 0
-1.009790 12.210697 19.562283 23.082541 -1.488287 0.559553 0.027803 0.000025 -467056.000000 0 1 0
-1.622890 10.802297 19.310783 22.186251 -1.421676 0.514794 0.014241 -0.003260 -533303.000000 0 1 0
-1.747490 9.924097 20.392383 22.746224 -1.396498 0.458952 0.016402 -0.009778 419301.000000 0 1 0
-2.667390 10.233597 21.447883 23.913451 -1.315819 0.458096 0.029252 -0.005823 463866.000000 0 1 0
-4.190390 10.162697 21.153783 23.839512 -1.179706 0.479249 0.027118 -0.001016 186564.000000 0 1 0
-4.788990 8.849297 21.246983 23.509121 -1.074756 0.442285 0.028209 -0.003580 26163.800000 0 1 0
-6.191090 9.005297 21.219383 23.868121 -0.968513 0.475583 0.034690 0.003178 191633.000000 0 1 0
-6.996490 7.676397 21.364583 23.755491 -0.831703 0.452508 0.035092 -0.000708 12713.200000 0 1 0
-6.852790 6.992597 22.573483 24.605269 -0.795496 0.409237 0.039764 -0.005852 -42159.900000 0 1 0
-7.490990 5.737097 22.476283 24.376474 -0.653579 0.397457 0.035169 -0.001788 66817.400000 0 1 0
-7.581390 5.047897 23.869563 25.548283 -0.587421 0.364528 0.025244 0.002655 12836.000000 0 0 1
-8.526090 5.643297 24.773223 26.800253 -0.584685 0.391428 0.029682 -0.003249 339715.000000 0 0 1
-8.620590 4.876097 25.950043 27.775810 -0.514767 0.364596 0.025743 0.018809 -3964.370000 0 0 1
-9.714490 5.362697 26.920813 29.118036 -0.504401 0.390967 0.026461 0.011688 -162592.000000 0 0 1
-9.210290 6.471497 27.617653 29.823555 -0.612494 0.387028 0.028127 0.001584 -327700.000000 0 0 1
-10.072090 6.845597 28.625843 31.108649 -0.596944 0.402233 0.025834 0.001601 -368075.000000 0 0 1
-9.443490 7.825197 29.631093 32.068908 -0.691959 0.392431 0.047846 -0.004943 483566.000000 0 0 1
-8.280290 7.356997 30.323153 32.282847 -0.726422 0.350223 0.057955 -0.010936 449279.000000 0 0 1
-7.957490 8.300597 31.306683 33.351611 -0.806499 0.351998 0.066036 -0.010060 -180095.000000 0 0 1
-6.777590 7.908197 32.188963 33.832006 -0.862233 0.312931 0.080777 -0.010526 -755313.000000 0 0 1
-5.512790 7.915497 31.629173 33.067363 -0.962453 0.296013 0.077305 -0.017584 -890632.000000 0 0 1
-4.532890 7.645197 32.601973 33.791785 -1.035609 0.266153 0.089416 -0.015221 -670675.000000 0 0 1
-3.107990 7.773297 32.120493 33.193521 -1.190437 0.254959 0.077964 -0.019839 -606480.000000 0 0 1
-2.611790 9.086897 32.062733 33.427713 -1.290917 0.286757 0.075945 -0.018208 -232103.000000 0 0 1
-1.241990 9.160897 31.733833 33.052999 -1.436043 0.283475 0.075353 -0.024929 239235.000000 0 0 1
-0.650590 10.571097 31.501243 33.234014 -1.509330 0.324339 0.079424 -0.025522 9284.040000 0 0 1
-0.631890 11.399597 32.646823 34.585620 -1.515422 0.336421 0.073482 -0.029236 -331048.000000 0 0 1
-1.357790 12.579497 32.468013 34.846222 -1.463276 0.371590 0.070845 -0.027967 -21960.800000 0 0 1
-1.531190 13.524297 33.713027 36.356833 -1.458059 0.383711 0.058136 -0.021011 7492.550000 0 0 1
-0.276890 14.039397 34.091792 36.870471 -1.551077 0.390716 0.084644 -0.024491 -239735.000000 0 0 1
-0.371790 14.790997 -33.455360 36.581046 -1.545665 2.725201 0.078069 -0.030421 616076.000000 0 0 1
1.028010 15.291597 -32.967020 36.355387 1.503670 2.706424 0.063990 -0.022953 417899.000000 0 0 1
1.710210 16.043597 -33.923010 37.564510 1.464600 2.697638 0.064569 -0.025832 148207.000000 0 0 1
3.036710 16.364897 -33.551180 37.452812 1.387321 2.681081 0.051310 -0.024501 80029.300000 0 0 1
3.793510 17.211797 34.157199 38.436323 1.353863 0.476360 0.057073 -0.018879 -313123.000000 0 0 1
3.446710 18.577297 34.009339 38.905410 1.387349 0.507104 0.048740 -0.015914 -192273.000000 0 0 1
4.390510 19.364997 33.320253 38.788129 1.347842 0.537420 0.035117 -0.003223 -34913.600000 0 0 1
4.131810 20.846997 33.481673 39.657175 1.375135 0.565580 0.037118 -0.011054 -173198.000000 0 0 1
4.232710 21.329397 -33.949350 40.316465 1.374897 2.571909 0.041978 -0.024423 149064.000000 0 0 1
3.789510 22.681597 -33.870200 40.939048 1.405251 2.545138 0.029380 -0.016248 -54882.400000 0 0 1
4.130810 23.259297 -32.516300 40.191644 1.395031 2.513299 0.047530 -0.023431 -330368.000000 0 0 1
3.606610 24.521797 -32.261640 40.683407 1.424766 2.486502 0.043012 -0.027723 40755.800000 0 0 1
3.650710 24.849897 -30.899330 39.819765 1.424929 2.459063 0.043570 -0.019757 -329946.000000 0 0 1
2.966110 26.187197 -30.715160 40.472066 1.458011 2.432453 0.026949 -0.021441 513864.000000 0 0 1
3.855210 27.299797 -30.957100 41.454597 1.430506 2.413990 0.030068 -0.018888 675714.000000 0 0 1
3.164810 28.385497 -30.380430 41.697997 1.459761 2.387046 0.036338 -0.020803 -378419.000000 0 0 1
3.956610 29.656397 -30.108350 42.446076 1.438164 2.359346 0.046800 -0.024698 -173835.000000 0 0 1
4.876410 29.358397 -29.038250 41.580221 1.406200 2.343910 0.053950 -0.039152 217178.000000 0 0 1
5.424010 30.590097 -28.629130 42.246905 1.395308 2.315375 0.073927 -0.036526 -321496.000000 0 0 1
6.671410 30.488197 -27.711810 41.737061 1.355372 2.296901 0.072742 -0.044236 778740.000000 0 0 1
7.858210 29.904797 -28.279460 41.901983 1.313831 2.311619 0.069405 -0.030932 534857.000000 0 0 1
8.935710 30.764897 -28.544740 42.908367 1.288123 2.298623 0.076427 -0.034402 -249918.000000 0 0 1
8.908510 31.979197 -29.444540 44.373545 1.299112 2.296365 0.079430 -0.036283 -1153420.000000 0 0 1
8.364710 33.118897 -28.796000 44.677056 1.323404 2.271213 0.073714 -0.036103 202388.000000 0 0 1
8.097310 34.239197 -29.655190 46.014338 1.338571 2.271136 0.065271 -0.029506 79798.600000 0 0 1
6.816810 34.100897 -30.527320 46.273722 1.373496 2.291232 0.047195 -0.012402 -278936.000000 0 0 1
6.889910 33.167797 -31.622230 46.341548 1.365980 2.321801 0.037266 -0.004028 318163.000000 0 0 1
5.728310 33.225897 -32.451540 46.796113 1.400070 2.337086 0.030769 -0.000275 186893.000000 0 0 1
5.704710 32.435397 -33.726790 47.139103 1.396698 2.368098 0.033967 -0.005190 -180649.000000 0 0 1
6.545310 32.956597 34.016603 47.813258 1.374743 0.779241 0.043789 -0.001765 -82013.100000 0 0 1
6.490510 32.250697 32.747787 46.418226 1.372197 0.787676 0.039707 -0.001939 -128421.000000 0 0 1
5.780410 33.110897 31.674223 46.184424 1.397961 0.815066 0.023097 -0.006704 326927.000000 0 0 1
6.633810 34.025697 31.038493 46.531103 1.378247 0.840557 0.034852 -0.007629 756068.000000 0 0 1
5.751110 -33.902520 30.244513 45.795051 -1.402759 0.849403 0.007111 -0.014780 913378.000000 0 0 1
17.478936 -22.114103 29.012583 40.450917 -0.901938 0.770978 0.046007 0.007095 -81367.300000 0 0 1
16.530736 -21.094503 29.330633 39.730709 -0.906104 0.740345 0.032546 0.017121 409433.000000 0 0 1
15.266736 -21.588403 29.734233 39.790161 -0.955272 0.726843 0.044203 0.018046 115078.000000 0 0 1
15.088636 -22.099603 31.180993 41.089094 -0.971738 0.709231 0.031817 0.007493 -464401.000000 0 0 1
15.828936 -23.266403 31.447443 42.199791 -0.973391 0.729956 0.048636 -0.000826 114791.000000 0 0 1
15.583536 -23.480503 32.808606 43.250262 -0.984864 0.709672 0.054362 -0.010349 -172191.000000 0 0 1
16.278936 -24.644203 33.489504 44.652965 -0.987034 0.722742 0.072521 -0.018324 -316214.000000 0 0 1
15.844336 -25.950113 33.133249 44.969584 -1.022642 0.742482 0.087419 -0.023241 -212918.000000 0 0 1
16.439636 -26.929913 33.965101 46.358493 -1.022721 0.748571 0.074382 -0.023320 209736.000000 0 0 1
16.093136 -28.412153 33.595262 46.849558 -1.055436 0.771181 0.072170 -0.017407 106472.000000 0 0 1
16.727036 -28.697053 32.377073 46.385228 -1.043058 0.798190 0.064772 -0.022878 77511.900000 0 0 1
16.417436 -30.038143 32.052973 46.895791 -1.070603 0.818258 0.070727 -0.017284 -316986.000000 0 0 1
17.229436 -30.671373 30.915543 46.833293 -1.058982 0.849819 0.067482 -0.020221 1295570.000000 0 0 1
18.559536 -31.106373 31.368733 47.917222 -1.032846 0.857084 0.032467 -0.021048 1470580.000000 0 0 1
19.232136 -31.757763 30.298063 47.920801 -1.026278 0.886339 0.013575 -0.012235 -270726.000000 0 0 1
20.699636 -32.155733 30.522983 48.929730 -0.998841 0.897185 0.001155 -0.001008 -175016.000000 0 0 1
21.641336 -31.131643 30.467173 48.639235 -0.963329 0.893882 0.002455 -0.009017 432485.000000 0 0 1
22.839936 -31.388423 31.209943 49.809198 -0.941750 0.893626 -0.007769 -0.000871 1073270.000000 0 0 1
23.923436 -30.237283 31.122513 49.550326 -0.901450 0.891688 -0.009088 0.000830 406553.000000 0 0 1
24.901436 -30.459503 30.147793 49.565635 -0.885460 0.916955 -0.004513 -0.011123 -312192.000000 0 0 1
25.399536 -29.209253 29.600933 48.729171 -0.855049 0.917940 -0.015488 -0.011824 -51853.500000 0 0 1
26.613636 -29.379863 28.673883 48.924978 -0.834761 0.944586 -0.015165 -0.016560 -40408.600000 0 0 1
27.734836 -29.980863 29.290733 50.259529 -0.824294 0.948639 -0.020016 -0.012735 350243.000000 0 0 1
28.602636 -30.534753 28.286583 50.503590 -0.818058 0.976301 -0.013973 -0.020723 744226.000000 0 0 1
29.730436 -31.481233 28.786643 51.996515 -0.813993 0.984084 -0.013723 -0.009448 202213.000000 0 0 1
29.141136 -32.730533 29.085783 52.597303 -0.843347 0.984848 -0.016326 -0.009111 606830.000000 0 0 1
30.088536 -33.785243 29.346803 53.925851 -0.843209 0.995353 -0.003784 -0.010354 -582286.000000 0 0 1
29.319636 33.689146 29.670553 53.618479 0.854635 0.984398 -0.013701 0.000026 -246234.000000 0 0 1
28.667536 33.749245 31.012273 54.061078 0.866635 0.959838 -0.000563 -0.001167 152852.000000 0 0 1
27.569336 -34.191521 31.167713 53.856798 -0.892213 0.953645 -0.008537 0.002240 -1242120.000000 0 0 1
26.284436 34.245766 30.405743 52.802966 0.916174 0.957172 -0.002093 0.002445 -813607.000000 0 0 1
25.761036 32.967275 30.672423 51.877449 0.907493 0.938191 -0.004361 0.005855 678961.000000 0 0 1
24.323136 32.998803 30.567693 51.136286 0.935608 0.930081 -0.011445 0.011977 1090830.000000 0 0 1
23.765036 31.544375 30.621423 49.974954 0.925133 0.911279 -0.002330 0.006549 -607869.000000 0 0 1
23.855736 30.929615 29.375003 48.873592 0.913808 0.925994 -0.004682 -0.006879 229237.000000 0 0 1
23.363236 29.586135 29.391913 47.802350 0.902387 0.908584 0.020201 -0.027310 -251333.000000 0 0 1
22.848236 29.155065 27.976233 46.419062 0.906086 0.923930 0.021685 -0.025370 19731.700000 0 0 1
21.646536 29.819445 27.650813 46.068853 0.942885 0.927037 0.037185 -0.031009 -68545.400000 0 0 1
21.002836 29.237135 26.525453 44.716091 0.947853 0.935772 0.048745 -0.032109 -491704.000000 0 0 1
19.764736 30.073795 26.240783 44.538260 0.989371 0.940760 0.050036 -0.028665 -586585.000000 0 0 1
19.950236 31.307115 25.567573 45.076026 1.003442 0.967682 0.055029 -0.035825 -71191.000000 0 0 1
18.735036 32.013775 25.520453 45.024181 1.041317 0.968160 0.052931 -0.036315 -437596.000000 0 0 1
18.812036 33.379893 24.783823 45.632749 1.057591 0.996654 0.060647 -0.033260 -221548.000000 0 0 1
19.336036 33.332216 23.474183 45.121571 1.045137 1.023661 0.071080 -0.032986 417608.000000 0 0 1
20.639836 33.910441 23.470983 46.117327 1.024036 1.036843 0.054090 -0.027153 218650.000000 0 0 1
21.342336 33.942422 22.100683 45.782349 1.009483 1.067023 0.054966 -0.028353 -47249.000000 0 0 1
20.992336 -33.690373 21.312883 45.055059 -1.013567 1.078057 0.070244 -0.022986 304284.000000 0 0 1
21.588136 -33.766683 20.036983 44.807557 -1.001957 1.107188 0.078316 -0.021517 -45817.900000 0 0 1
21.333836 -32.415163 19.330783 43.353829 -0.988717 1.108635 0.055690 -0.022320 1113.130000 0 0 1
22.036236 -31.286513 19.874583 43.121231 -0.957166 1.091787 0.047631 -0.014317 165120.000000 0 0 1
21.357736 -30.082833 19.561883 41.758795 -0.953414 1.083261 0.065471 -0.023217 33103.600000 0 0 1
21.902636 -29.407013 18.264183 40.964353 -0.930625 1.108667 0.054302 -0.021649 -137849.000000 0 0 1
21.700536 -30.258483 17.145283 40.993289 -0.948638 1.139283 0.043881 -0.018308 462710.000000 0 0 1
22.220636 -29.555403 16.016483 40.296479 -0.926125 1.162043 0.034254 -0.012301 -62393.800000 0 0 1
21.708936 -30.228223 14.696283 40.012549 -0.947981 1.194701 0.042631 -0.018206 -457314.000000 0 0 1
22.437936 -31.316903 14.252083 41.077137 -0.949095 1.216470 0.056435 -0.012751 -142018.000000 0 0 1
22.297036 -31.530233 12.848683 40.698919 -0.955279 1.249601 0.054018 -0.013774 226553.000000 0 0 1
20.899936 -31.787113 12.192283 39.948462 -0.989169 1.260648 0.062787 -0.011314 340590.000000 0 0 1
20.291736 -33.036163 12.437583 40.716533 -1.019981 1.260367 0.069740 -0.013792 255707.000000 0 0 1
18.979136 -33.089003 11.898883 39.958392 -1.050031 1.268428 0.071288 -0.006983 -24425.000000 0 0 1
17.987236 -33.920513 12.668183 40.430492 -1.083222 1.252096 0.061725 -0.009075 -567183.000000 0 0 1
17.580636 -33.432113 13.915583 40.254544 -1.086675 1.217823 0.067465 -0.010937 741469.000000 0 0 1
18.596736 -33.542093 14.950283 41.163351 -1.064558 1.199103 0.057426 -0.014212 -355554.000000 0 0 1
18.467736 -32.444773 15.995983 40.615169 -1.053328 1.165988 0.070518 -0.016258 90606.600000 0 0 1
17.201236 -32.215103 16.569883 40.103072 -1.080359 1.144850 0.086037 -0.032176 32076.500000 0 0 1
16.322236 -33.232433 17.007083 40.743721 -1.114251 1.140196 0.069370 -0.023279 -558250.000000 0 0 1
16.699436 -34.080945 18.235883 42.106168 -1.115186 1.122875 0.057761 -0.027130 267917.000000 0 0 1
17.759536 33.729519 18.022083 42.164879 1.086152 1.129160 0.045333 -0.017705 523362.000000 0 0 1
18.166636 33.172333 19.265183 42.444995 1.069764 1.099675 0.050364 -0.017126 -257304.000000 0 0 1
18.949836 31.903355 19.128483 41.747086 1.034818 1.094828 0.055743 -0.010264 -403280.000000 0 0 1
18.177136 30.748525 19.001983 40.459306 1.036906 1.081894 0.045079 -0.009377 -448354.000000 0 0 1
18.977736 29.620655 18.805283 39.889551 1.000992 1.079880 0.041914 -0.016328 42711.200000 0 0 1
18.186336 28.287305 18.651883 38.455262 0.999418 1.064401 0.045670 -0.009210 182175.000000 0 0 1
18.142636 27.505505 19.836583 38.460344 0.987702 1.028893 0.035546 -0.015667 -175492.000000 0 0 1
17.702636 26.232125 19.499883 37.171940 0.977153 1.018567 0.037015 -0.013092 -341725.000000 0 0 1
17.359336 25.280235 20.684283 36.990220 0.969069 0.977397 0.034543 -0.010629 1175190.000000 0 0 1
16.103036 25.514935 21.372283 36.974236 1.007807 0.954482 0.032100 -0.014740 1140620.000000 0 0 1
15.019836 24.660835 21.023783 35.717666 1.023744 0.941458 0.039026 -0.016213 460737.000000 0 0 1
13.722936 24.885795 21.844583 35.844212 1.066851 0.915453 0.046100 -0.027811 527552.000000 0 0 1
12.909936 25.955585 21.293283 35.968913 1.109242 0.937269 0.047743 -0.025567 683173.000000 0 0 1
11.711936 26.172725 22.051983 36.172792 1.150035 0.915204 0.035477 -0.029572 212431.000000 0 0 1
10.854436 27.235385 21.412283 36.305245 1.191548 0.940004 0.029022 -0.021026 -509365.000000 0 0 1
11.394936 28.521595 21.653283 37.579124 1.190704 0.956718 0.023329 -0.020751 15829.200000 0 0 1
10.804136 29.468815 20.750683 37.626204 1.219384 0.986640 0.029349 -0.021565 128094.000000 0 0 1
11.531836 30.870555 20.644683 38.886724 1.213294 1.011143 0.032037 -0.020260 -416352.000000 0 0 1
11.058936 31.862685 21.557783 40.028349 1.236724 1.002066 0.018706 -0.022021 -365476.000000 0 0 1
11.522336 31.724675 22.871483 40.771607 1.222413 0.975244 0.011968 -0.022715 -423569.000000 0 0 1
10.861336 32.664905 23.912303 41.913755 1.249789 0.963667 0.005401 -0.028225 -110881.000000 0 0 1
9.581736 32.307745 24.357463 41.579875 1.282483 0.944930 -0.000019 -0.022585 -484381.000000 0 0 1
9.258336 33.088315 25.504453 42.790542 1.297967 0.932248 0.004485 -0.017866 -233442.000000 0 0 1
7.891236 32.819804 26.163803 42.707794 1.334834 0.911421 0.043351 -0.022806 -168973.000000 0 0 1
6.752736 33.459656 25.628113 42.684285 1.371654 0.926781 0.043012 -0.028961 473685.000000 0 0 1
6.114936 32.948482 24.427363 41.469157 1.387293 0.940915 0.040691 -0.034235 202211.000000 0 0 1
5.294936 31.658695 24.478143 40.366927 1.405080 0.919282 0.044047 -0.034436 42792.800000 0 0 1
6.193236 30.597135 24.797993 39.868299 1.371082 0.899505 0.019687 -0.026188 62062.900000 0 0 1
5.545236 29.302455 24.765613 38.764921 1.383767 0.877772 0.027824 -0.023649 -919391.000000 0 0 1
6.415436 28.062195 25.091973 38.187062 1.346044 0.853857 0.022693 -0.018582 387236.000000 0 0 1
7.440836 27.757785 24.094933 37.502353 1.308891 0.873051 0.006102 -0.015993 1511770.000000 0 0 1
8.531736 28.709535 24.122223 38.456593 1.281934 0.892768 0.011657 -0.017267 -526529.000000 0 0 1
9.710836 28.390375 25.053993 39.089849 1.241224 0.875083 0.012831 -0.020503 -969947.000000 0 0 1
9.436836 28.325595 26.414993 39.864082 1.249206 0.846476 0.009163 -0.012026 130333.000000 0 0 1
10.574436 28.337815 27.258313 40.716901 1.213643 0.837316 0.016903 -0.005748 663064.000000 0 0 1
11.465436 29.654255 27.370823 41.952270 1.201862 0.860013 0.018880 -0.010637 38010.600000 0 0 1
10.899036 30.661685 28.116173 43.005198 1.229265 0.858220 0.024286 -0.011099 -60440.900000 0 0 1
11.817436 31.720245 28.194273 44.053862 1.214174 0.876304 0.018787 -0.001983 -15023.900000 0 0 1
11.284536 32.864722 29.124143 45.339237 1.240046 0.873222 0.022385 -0.004371 -95238.700000 0 0 1
11.336336 32.564415 30.495293 46.031690 1.235797 0.846665 0.035994 -0.019745 172485.000000 0 0 1
10.221336 31.845525 30.976993 45.587139 1.260217 0.823700 0.041220 -0.008719 -210954.000000 0 0 1
10.345636 31.778235 32.528253 46.636634 1.256060 0.798917 0.063585 -0.014862 -171692.000000 0 0 1
10.191836 30.473225 33.053975 46.098332 1.248039 0.771262 0.054556 -0.011096 206054.000000 0 0 1
10.398336 30.400255 -34.298883 46.996960 1.241224 2.388841 0.085424 -0.017578 -159911.000000 0 0 1
10.601536 28.960045 -33.740670 45.711154 1.219874 2.401087 0.076030 -0.013101 316423.000000 0 0 1
11.864836 28.445765 -34.171597 46.017756 1.175633 2.407702 0.072427 -0.005736 415765.000000 0 0 1
11.890236 27.022515 -33.921010 44.969200 1.156279 2.425409 0.060164 -0.012992 -326627.000000 0 0 1
13.189836 26.339405 -34.348161 45.249665 1.106537 2.432697 0.062119 -0.009072 -267610.000000 0 0 1
13.242836 24.938355 -34.180398 44.335018 1.082640 2.451139 0.043092 -0.015246 -68072.600000 0 0 1
13.740036 24.502875 -32.916000 43.274040 1.059736 2.435096 0.044283 -0.011061 -483103.000000 0 0 1
13.569636 22.966015 -32.648410 42.160307 1.037127 2.456543 0.024136 -0.025725 -51792.300000 0 0 1
14.390236 22.261115 -33.560440 42.766099 0.996935 2.473079 0.018777 -0.015984 -61665.000000 0 0 1
14.328936 20.799615 -33.436650 41.904080 0.967556 2.494654 0.017152 -0.011280 -1112650.000000 0 0 1
15.549436 20.029115 -33.804770 42.257696 0.910649 2.498037 0.029860 -0.019845 -1587800.000000 0 0 1
16.587336 20.310315 -32.955720 42.115651 0.885958 2.469476 0.019986 -0.025932 -178426.000000 0 0 1
17.841636 19.747515 -33.362780 42.677434 0.836058 2.468252 0.025146 -0.025251 1449370.000000 0 0 1
19.090536 20.158915 -32.479260 42.728594 0.812612 2.434309 0.015825 -0.014972 632338.000000 0 0 1
19.510536 21.515215 -32.694740 43.732270 0.834223 2.415254 0.007705 -0.015083 490720.000000 0 0 1
20.617936 21.880715 -31.849150 43.797640 0.815103 2.385014 0.006624 -0.013190 326938.000000 0 0 1
20.344836 22.179715 -30.405360 42.782450 0.828520 2.361285 0.011503 -0.000415 22057.000000 0 0 1
19.500636 23.318615 -30.233410 42.872971 0.874328 2.353481 -0.007961 0.003149 274422.000000 0 0 1
18.973136 23.454915 -28.926870 41.795654 0.890640 2.335194 -0.006316 0.016098 -324885.000000 0 0 1
19.949336 24.053985 -27.910420 41.899424 0.878409 2.299803 0.005556 0.019159 -174496.000000 0 0 1
20.477636 25.382105 -28.068820 43.028403 0.891938 2.281454 0.014650 0.006854 402021.000000 0 0 1
19.510436 26.445345 -28.142640 43.266864 0.935172 2.278964 0.015305 0.012986 -431106.000000 0 0 1
20.181136 27.752125 -28.700480 44.734508 0.942053 2.267344 0.021755 0.008295 -274507.000000 0 0 1
20.496036 27.877555 -30.072970 45.843528 0.936824 2.286292 0.006890 0.005392 269835.000000 0 0 1
21.368736 26.933635 -30.669360 46.072260 0.900102 2.299200 0.012713 -0.001643 706572.000000 0 0 1
22.827436 26.605975 -30.167910 46.250108 0.861687 2.281382 0.034002 -0.016393 675182.000000 0 0 1
23.764236 27.537025 -30.705870 47.601230 0.858808 2.271904 0.029239 -0.013230 114136.000000 0 0 1
25.063236 26.978915 -30.578800 47.865338 0.822192 2.263800 0.050666 -0.010293 184274.000000 0 0 1
26.192236 27.869205 -31.174220 49.341238 0.816408 2.254681 0.046282 -0.007440 81141.000000 0 0 1
26.628136 28.844635 -30.207750 49.533612 0.825333 2.226659 0.030805 -0.008300 -262193.000000 0 0 1
27.720536 29.629585 -30.549270 50.789746 0.818674 2.216155 0.028116 -0.011901 -275396.000000 0 0 1
27.775336 30.940205 -29.780180 51.143178 0.839248 2.192339 0.018248 -0.005538 -13546.800000 0 0 1
28.164536 30.699275 -28.419590 50.431732 0.828433 2.169444 0.029199 -0.008479 123202.000000 0 0 1
27.477736 31.607355 -27.587800 50.151147 0.855177 2.153272 0.020760 -0.002107 -458108.000000 0 0 1
27.949536 31.652635 -26.088230 49.635286 0.847449 2.124215 0.019504 0.008307 -211447.000000 0 0 1
28.001136 30.428305 -25.343340 48.499796 0.826914 2.120630 0.014892 0.007727 -116405.000000 0 0 1
26.817036 29.694625 -25.133860 47.250768 0.836274 2.131668 0.029901 0.003981 -670230.000000 0 0 1
26.303336 29.768325 -23.675740 46.244560 0.847115 2.108271 0.027873 0.010925 -505760.000000 0 0 1
25.904336 31.059985 -23.418040 46.735017 0.875659 2.095644 0.025251 0.007057 40636.800000 0 0 1
25.604136 31.248035 -22.055240 46.026569 0.884347 2.070522 0.036286 0.012312 75982.300000 0 0 1
3.122236 -26.772623 -19.561440 33.304228 -1.454700 2.198584 0.025414 -0.008390 -360976.000000 0 0 1
3.116436 -27.887813 -18.692940 33.717477 -1.459509 2.158437 0.026205 -0.005472 330842.000000 0 0 1
2.814436 -27.514403 -17.371540 32.660891 -1.468861 2.131611 0.025610 -0.004896 -322745.000000 0 0 1
2.591036 -28.686253 -16.426540 33.157891 -1.480718 2.089096 0.017849 -0.001182 -688235.000000 0 0 1
3.768536 -29.288483 -16.021040 33.595994 -1.442830 2.067891 0.021280 0.001609 -565491.000000 0 0 1
3.822936 -29.693953 -14.652740 33.332393 -1.442756 2.025944 0.009578 -0.001082 -268822.000000 0 0 1
5.221136 -30.262543 -14.330940 33.888900 -1.399950 2.007418 0.035704 0.001512 -112905.000000 0 0 1
6.205336 -29.246643 -14.138840 33.072331 -1.361724 2.012536 0.012546 0.004358 -26532.300000 0 0 1
7.555336 -29.643953 -14.056940 33.666669 -1.321240 2.001525 0.020257 0.004973 268350.000000 0 0 1
7.903436 -30.431573 -12.793140 33.944209 -1.316698 1.957230 0.019986 0.000755 -1533540.000000 0 0 1
8.128136 -29.649553 -11.598940 32.858758 -1.303230 1.931565 0.013580 -0.007621 336.665000 0 0 1
8.503036 -30.540383 -10.544540 33.409638 -1.299254 1.891900 0.019212 -0.002411 1294330.000000 0 0 1
9.866236 -31.372023 -10.619940 34.559073 -1.266098 1.883149 0.031008 -0.003375 861463.000000 0 0 1
10.948136 -30.933523 -9.827040 34.253689 -1.230629 1.861775 0.026866 -0.004972 -261266.000000 0 0 1
11.894336 -31.957983 -9.695940 35.451363 -1.214494 1.847826 0.032753 -0.009019 -253666.000000 0 0 1
13.093836 -31.532123 -8.813840 35.261977 -1.177210 1.823428 0.048815 -0.006544 38355.500000 0 0 1
13.954036 -30.626853 -9.483640 34.966536 -1.143283 1.845457 0.049692 -0.018751 358116.000000 0 0 1
15.158336 -30.430343 -8.754440 35.105856 -1.108644 1.822829 0.051592 -0.013714 639064.000000 0 0 1
16.310836 -29.680643 -9.511740 35.177508 -1.068303 1.844597 0.069193 -0.024367 362032.000000 0 0 1
16.076036 -28.342583 -9.849440 34.040452 -1.054840 1.864339 0.054638 -0.019785 274240.000000 0 0 1
15.205336 -28.114753 -10.980740 33.796719 -1.075020 1.901708 0.041307 -0.019154 290371.000000 0 0 1
14.846836 -26.647483 -11.067740 32.450142 -1.062475 1.918850 0.033682 -0.009228 -23067.100000 0 0 1
13.776236 -26.266053 -10.186240 31.360001 -1.087751 1.901614 0.023444 -0.013686 589506.000000 0 0 1
13.339536 -24.912003 -10.334740 30.089166 -1.079180 1.921406 0.013223 -0.005215 283249.000000 0 0 1
12.685936 -24.413203 -11.646640 29.876105 -1.091565 1.971245 0.006086 -0.008660 39510.700000 0 0 1
13.626436 -23.989103 -12.668040 30.358459 -1.054219 2.001249 0.006053 -0.010305 190914.000000 0 0 1
13.006536 -23.810703 -13.966640 30.515349 -1.070839 2.046194 0.017561 -0.012585 63715.600000 0 0 1
13.842036 -23.303203 -15.187740 31.069416 -1.034802 2.081547 0.020054 -0.017670 101106.000000 0 0 1
14.833836 -24.164703 -15.696940 32.409404 -1.020245 2.076397 0.023285 -0.024539 100852.000000 0 0 1
15.248236 -23.774503 -17.018440 32.975187 -1.000512 2.113086 0.024385 -0.027069 -73954.600000 0 0 1
16.261636 -24.834203 -17.645040 34.532967 -0.991049 2.107100 0.031458 -0.026414 1475990.000000 0 0 1
17.602136 -24.873103 -17.136840 34.959658 -0.954936 2.083103 0.041303 -0.025850 845220.000000 0 0 1
18.420736 -23.749403 -17.546640 34.802905 -0.911093 2.099219 0.031286 -0.032273 154354.000000 0 0 1
19.894736 -23.947903 -17.086340 35.514019 -0.877584 2.072723 0.026697 -0.023155 431550.000000 0 0 1
20.574636 -24.982403 -17.805540 36.938778 -0.881851 2.073765 0.036401 -0.018303 286060.000000 0 0 1
21.792336 -25.279753 -17.104240 37.503690 -0.859350 2.044368 0.057166 -0.005930 616779.000000 0 0 1
22.576336 -26.375473 -17.870140 39.047386 -0.862853 2.046150 0.054190 -0.005308 -837052.000000 0 0 1
23.425436 -25.951153 -18.874040 39.729620 -0.836506 2.065831 0.057158 -0.005055 -472482.000000 0 0 1
23.795036 -27.030283 -19.715640 41.055406 -0.848967 2.071702 0.052124 -0.013248 -224154.000000 0 0 1
24.727336 -26.548393 -20.870640 41.855010 -0.820898 2.092827 0.043253 -0.005709 94876.100000 0 0 1
24.253736 -25.420853 -21.607640 41.247467 -0.808889 2.122165 0.043914 -0.001845 -110155.000000 0 0 1
24.627536 -24.209603 -20.999740 40.417935 -0.776841 2.117138 0.046418 0.004018 -523567.000000 0 0 1
24.176036 -22.901303 -21.633440 39.710906 -0.758327 2.146915 0.054306 0.004938 -522094.000000 0 0 1
24.599336 -22.744803 -22.947040 40.608127 -0.746247 2.171332 0.035041 0.008326 75515.900000 0 0 1
23.774636 -23.398103 -23.905840 41.038929 -0.777416 2.192617 0.027090 -0.000774 -74339.600000 0 0 1
22.872536 -22.403303 -24.601940 40.377175 -0.775035 2.225978 0.021782 0.003755 140868.000000 0 0 1
23.712236 -21.667303 -25.486020 41.003406 -0.740366 2.241527 0.020824 0.009821 683984.000000 0 0 1
22.944836 -20.702003 -26.208120 40.520414 -0.734057 2.274162 0.018398 0.009757 117019.000000 0 0 1
23.700436 -20.079203 -27.362070 41.395264 -0.702871 2.292941 0.010912 0.009452 -76230.000000 0 0 1
22.883936 -19.100503 -27.986080 40.886726 -0.695526 2.324684 0.018037 0.010824 333358.000000 0 0 1
23.402836 -18.736603 -29.249580 41.884256 -0.675114 2.343876 0.019910 0.010299 704741.000000 0 0 1
22.473836 -17.618003 -29.939160 41.374154 -0.664868 2.379829 0.039639 0.003769 605239.000000 0 0 1
21.160936 -18.015603 -30.281180 41.101058 -0.705284 2.399047 0.034393 -0.000736 182176.000000 0 0 1
20.543836 -16.882603 -30.921210 40.782259 -0.687884 2.431348 0.043595 -0.006641 160513.000000 0 0 1
19.218836 -17.330103 -31.578730 40.827837 -0.733767 2.455079 0.026483 0.000929 -156932.000000 0 0 1
19.477336 -18.176103 -32.677750 42.161269 -0.750854 2.457615 0.029973 0.000547 -6925.150000 0 0 1
18.308736 -18.775303 -33.166830 42.281915 -0.797979 2.472559 0.019754 -0.003092 -322583.000000 0 0 1
18.517536 -19.516903 34.156427 43.479536 -0.811667 0.667172 0.045162 0.002407 -247524.000000 0 0 1
19.077936 -20.834503 34.242656 44.391481 -0.829380 0.689791 0.043096 0.004613 116118.000000 0 0 1
18.981336 -21.519603 32.995529 43.727443 -0.847988 0.715794 0.034440 -0.002241 322687.000000 0 0 1
19.935936 -22.789903 32.981986 44.773123 -0.852096 0.742698 0.027456 0.002875 347341.000000 0 0 1
19.558336 -23.864203 33.802305 45.767067 -0.884237 0.739846 0.036734 0.003860 15512.300000 0 0 1
19.743736 -23.608403 -33.508300 45.497010 -0.874309 2.398670 0.036466 -0.001573 -137675.000000 0 0 1
19.027036 -24.658103 -32.577620 45.070516 -0.913592 2.378663 0.033508 -0.005312 183570.000000 0 0 1
19.501336 -26.002353 -32.744080 46.136744 -0.927306 2.359894 0.034431 -0.016841 219726.000000 0 0 1
20.630136 -26.276263 -31.929770 46.212062 -0.905192 2.333585 0.006813 -0.008428 132870.000000 0 0 1
20.839136 -27.737903 -31.621590 46.942366 -0.926472 2.309900 0.011245 -0.014398 -16610.000000 0 0 1
19.780036 -28.272223 -30.815020 46.261580 -0.960320 2.299769 0.013287 -0.013151 481728.000000 0 0 1
19.883536 -29.706863 -30.762600 47.161321 -0.980956 2.281391 0.011240 -0.007243 565593.000000 0 0 1
18.554536 -30.385233 -30.202450 46.687483 -1.022588 2.274317 0.024701 -0.011982 1120760.000000 0 0 1
17.376436 -30.381773 -30.951110 46.722198 -1.051268 2.294881 0.033594 -0.018674 -288136.000000 0 0 1
17.394136 -31.376113 -31.971160 48.053839 -1.064600 2.298718 0.039729 -0.016275 -699626.000000 0 0 1
16.056336 -31.953333 -32.404650 48.258499 -1.105156 2.307001 0.063113 -0.023320 -103178.000000 0 0 1
15.095736 -31.164653 -33.106270 47.907639 -1.119717 2.333728 0.082926 -0.027123 23488.800000 0 0 1
13.855336 -31.832603 -33.161980 48.010434 -1.160271 2.333287 0.071245 -0.014977 349144.000000 0 0 1
12.846536 -31.121643 -34.133844 47.944858 -1.179318 2.363053 0.068587 -0.017308 387179.000000 0 0 1
12.328736 -29.911503 -33.545640 46.604781 -1.179840 2.374296 0.072579 -0.021682 729077.000000 0 0 1
11.241836 -29.478123 34.324646 46.621024 -1.206460 0.743287 0.056659 -0.011766 529058.000000 0 0 1
10.404536 -28.355343 -33.820120 45.344022 -1.219116 2.412616 0.052829 -0.025873 -288308.000000 0 0 1
9.603436 -28.719513 -32.731790 44.591551 -1.248098 2.395042 0.040574 -0.013939 -1013420.000000 0 0 1
8.676736 -27.743783 -32.469480 43.580619 -1.267688 2.411397 0.038414 -0.012163 -26082.800000 0 0 1
7.567836 -28.274093 -31.453760 42.965515 -1.309267 2.392152 0.033575 -0.012156 636573.000000 0 0 1
6.481236 -28.991863 -32.029490 43.685498 -1.350859 2.393788 0.028526 -0.007987 71381.700000 0 0 1
6.730936 -30.295703 -32.615590 45.021237 -1.352173 2.381031 0.033963 -0.004469 -96777.500000 0 0 1
5.437636 -31.098023 -32.965950 45.644372 -1.397692 2.377824 0.045364 -0.004438 662326.000000 0 0 1
4.737236 -31.534373 -31.817320 45.046641 -1.421687 2.355082 0.052666 -0.018031 1011940.000000 0 0 1
3.589836 -32.401913 -32.029340 45.701745 -1.460455 2.347362 0.050288 -0.026583 -458834.000000 0 0 1
2.888636 -32.815663 -30.747960 45.062722 -1.482997 2.321751 0.046567 -0.035727 367155.000000 0 0 1
1.846236 -31.891883 -30.367960 44.076226 -1.512970 2.330887 0.036627 -0.040170 383634.000000 0 0 1
0.657336 -32.045683 -31.122310 44.676124 -1.550287 2.341473 0.016857 -0.011815 -1232220.000000 0 0 1
-0.257964 -30.894893 -30.764040 43.600310 1.562447 2.354055 0.019819 -0.014047 -444709.000000 0 0 1
-1.072464 -30.995973 -29.604550 42.875749 1.536210 2.332939 0.005578 -0.015806 -41863.000000 0 0 1
-1.676164 -29.793993 -29.290580 41.814227 1.514597 2.346885 0.023026 -0.011698 -111758.000000 0 0 1
-2.524364 -29.894803 -28.022080 41.052510 1.486555 2.322099 0.023449 -0.010078 -367349.000000 0 0 1
-1.676564 -30.054793 -26.934170 40.392461 1.515070 2.300719 0.026413 -0.007031 46036.100000 0 0 1
-2.443864 -30.196243 -25.750140 39.759970 1.490040 2.275279 0.039588 -0.009823 931868.000000 0 0 1
-1.477564 -30.569173 -24.549040 39.234078 1.522499 2.246834 0.039549 -0.001853 629598.000000 0 0 1
-2.139464 -30.559423 -23.302840 38.489972 1.500900 2.221098 0.054270 -0.014788 -272492.000000 0 0 1
-1.391764 -31.144533 -22.253040 38.302959 1.526139 2.190722 0.048598 -0.007572 -201123.000000 0 0 1
-1.908364 -30.923523 -20.858940 37.349718 1.509162 2.163344 0.030133 0.007807 -149078.000000 0 0 1
-1.803664 -29.591203 -20.399640 35.986633 1.509919 2.173494 0.005438 0.001153 56230.700000 0 0 1
-0.513164 -29.267573 -19.918140 35.406022 1.553265 2.168280 0.027414 -0.004094 11524.700000 0 0 1
-0.361264 -27.846613 -19.290940 33.877791 1.557824 2.176605 0.029473 -0.013216 -316785.000000 0 0 1
-1.100764 -27.789833 -18.079540 33.171618 1.531207 2.147222 0.028288 -0.019323 141383.000000 0 0 1
-0.946064 -26.543713 -17.433640 31.770985 1.535170 2.151639 0.025220 -0.014533 191528.000000 0 0 1
-1.757364 -26.407753 -16.093240 30.974991 1.504347 2.117127 0.023835 -0.014643 193308.000000 0 0 1
-1.656564 -25.145403 -15.503440 29.587026 1.505012 2.122330 0.020669 -0.008867 234921.000000 0 0 1
-2.647664 -25.167813 -14.483540 29.158221 1.465981 2.090615 0.025677 -0.005661 92703.900000 0 0 1
-2.592464 -23.986403 -13.541340 27.666519 1.463134 2.082254 0.029903 -0.004367 -99328.000000 0 0 1
-1.455864 -24.005703 -12.700440 27.197325 1.510224 2.056662 0.023917 0.000914 -388783.000000 0 0 1
-1.349764 -22.884903 -11.937740 25.846668 1.511884 2.050896 0.026643 -0.003151 802592.000000 0 0 1
-0.083764 -22.834703 -11.003840 25.347882 1.567128 2.019850 0.017061 -0.003957 820366.000000 0 0 1
0.266036 -21.513403 -10.580440 23.975883 -1.558431 2.027838 0.008005 0.002538 -232294.000000 0 1 0
1.459036 -21.505203 -9.830840 23.690672 -1.503054 1.998703 -0.001980 0.002749 185372.000000 0 1 0
2.015536 -20.124503 -9.463640 22.329766 -1.470976 2.008447 0.008037 0.006079 -772459.000000 0 1 0
2.481336 -19.400903 -10.634840 22.263240 -1.443589 2.068815 0.004386 0.011006 281024.000000 0 1 0
3.356336 -18.283903 -10.447140 21.323902 -1.389250 2.082801 -0.000496 0.011157 1504450.000000 0 1 0
4.811036 -18.668403 -9.953640 21.696319 -1.318574 2.047408 0.012037 -0.000428 579842.000000 0 1 0
4.666536 -19.159003 -8.629440 21.524664 -1.331880 1.983306 0.011162 -0.002058 -82754.400000 0 1 0
5.761436 -19.968003 -8.176540 22.333183 -1.289892 1.945628 0.020366 0.000096 -99044.100000 0 1 0
5.366336 -21.064103 -7.146440 22.881555 -1.321341 1.888434 0.026156 -0.001925 -56539.100000 0 1 0
4.689236 -22.177103 -7.745940 23.954381 -1.362421 1.900077 0.015824 0.001077 43092.800000 0 1 0
4.615736 -23.282203 -6.907240 24.719950 -1.375082 1.853986 0.025557 -0.001810 -455724.000000 0 1 0
3.627836 -24.288503 -7.448840 25.662770 -1.422528 1.865293 0.023443 0.002737 -191522.000000 0 0 1
4.065936 -24.791103 -8.689940 26.582807 -1.408236 1.903819 0.017941 -0.004633 -396833.000000 0 0 1
3.037336 -25.492083 -9.311440 27.308874 -1.452207 1.918742 0.006379 -0.001967 -29712.700000 0 0 1
3.521936 -26.454913 -10.456340 28.663591 -1.438445 1.944209 -0.002961 -0.004219 -65413.900000 0 0 1
4.086436 -27.620593 -9.986740 29.653517 -1.423913 1.914292 0.008292 -0.009078 -483441.000000 0 0 1
4.678036 -28.349333 -11.017540 30.772632 -1.407256 1.936954 0.018240 -0.000369 139569.000000 0 0 1
4.706336 -29.841553 -10.769340 32.072520 -1.414374 1.913230 0.017071 -0.010381 283081.000000 0 0 1
3.440936 -30.423793 -11.068540 32.557023 -1.458175 1.917686 0.021305 -0.008250 357875.000000 0 0 1
3.400036 -31.821473 -10.832840 33.786340 -1.464353 1.897189 0.022134 -0.005064 85527.400000 0 0 1
2.161436 -32.465023 -11.501940 34.510058 -1.504317 1.910590 0.020925 -0.013607 24590.600000 0 0 1
2.224336 -32.282593 -12.872840 34.825615 -1.502003 1.949415 0.024035 -0.015600 97552.000000 0 0 1
1.354536 -33.097413 -13.584540 35.802419 -1.529893 1.959977 0.021618 -0.013662 -576625.000000 0 0 1
0.990036 -32.822683 -15.046040 36.120520 -1.540642 2.000445 0.019899 -0.009802 -96292.200000 0 0 1
-0.050664 -31.880953 -15.206040 35.321684 1.569207 2.015845 0.013540 -0.014551 28201.400000 0 0 1
-0.507864 -31.919703 -16.558940 35.962812 1.554887 2.049294 0.010122 -0.005005 -313481.000000 0 0 1
-1.651164 -30.957633 -16.841540 35.280856 1.517511 2.068440 0.010828 0.003326 77794.100000 0 0 1
-2.901064 -31.404713 -16.342940 35.521315 1.478681 2.048891 0.021011 -0.005189 281194.000000 0 0 1
-4.005664 -30.949753 -17.116940 35.593850 1.442087 2.072473 0.026767 -0.003961 500218.000000 0 0 1
-5.379164 -30.972503 -16.433540 35.472420 1.398836 2.052485 0.028119 -0.003381 -815519.000000 0 0 1
-5.592164 -29.915553 -15.511640 34.158799 1.385997 2.042162 0.022355 -0.004272 602503.000000 0 0 1
-6.901364 -29.753993 -14.934240 33.999418 1.342879 2.025560 0.031291 -0.009966 602115.000000 0 0 1
-7.481464 -30.921023 -14.171540 34.826922 1.333405 1.989869 0.022196 -0.007726 -481792.000000 0 0 1
-7.727664 -32.063553 -14.966140 36.218414 1.334296 1.996783 0.021208 -0.002246 -199592.000000 0 0 1
-8.668064 -32.923753 -14.349040 36.945957 1.313361 1.969668 0.018153 0.006352 -52352.200000 0 0 1
-8.762564 -34.298022 -15.110740 38.489885 1.320664 1.974242 0.044338 0.005298 -484068.000000 0 0 1
-7.729964 33.548715 -14.883740 37.507257 -1.344338 1.978849 0.046169 -0.001916 -263383.000000 0 0 1
-8.133964 32.260465 -15.260140 36.602880 -1.323810 2.000840 0.064073 -0.012756 -248082.000000 0 0 1
-7.720564 -22.235203 -3.435540 23.786851 1.236598 1.715733 0.061363 -0.008036 196818.000000 0 1 0
-7.424064 -21.064603 -4.160140 22.718736 1.231947 1.754950 0.043500 -0.012672 110317.000000 0 1 0
-6.170564 -21.223703 -4.812140 22.620303 1.287857 1.785170 0.039238 -0.008642 530629.000000 0 1 0
-5.867764 -20.174203 -5.888840 21.819889 1.287751 1.844069 0.023323 -0.010127 -85171.100000 0 1 0
-6.789164 -20.355503 -6.908540 22.542563 1.248869 1.882275 0.027511 -0.014840 -454283.000000 0 1 0
-6.847364 -19.176603 -7.767840 21.793756 1.227838 1.935235 0.011761 -0.017889 -369996.000000 0 1 0
-7.847164 -19.328403 -8.908940 22.683349 1.185136 1.974419 0.019392 -0.029433 -37629.200000 0 1 0
-7.369964 -20.252803 -9.893340 23.714353 1.221794 2.001145 0.032437 -0.016900 -506534.000000 0 1 0
-8.197064 -20.411103 -11.012840 24.598529 1.188913 2.034991 0.037069 -0.014687 -356502.000000 0 1 0
-7.727264 -21.319203 -12.192440 25.746351 1.223069 2.064125 0.033120 -0.014625 -597207.000000 0 0 1
-6.584564 -20.881203 -12.874540 25.399505 1.265331 2.102360 0.043262 -0.010723 -359688.000000 0 0 1
-6.348964 -21.645603 -14.078140 26.590139 1.285484 2.128748 0.035247 -0.009618 -266726.000000 0 0 1
-5.382764 -21.051603 -15.089340 26.454344 1.320466 2.177779 0.035668 -0.006279 1716000.000000 0 0 1
-4.013864 -20.974303 -14.522540 25.825116 1.381712 2.168011 0.030036 -0.008115 1646480.000000 0 0 1
-3.047864 -20.253403 -15.237640 25.527935 1.421431 2.210429 0.034659 -0.004679 -18976.600000 0 0 1
-3.229864 -18.701003 -15.446440 24.469410 1.399773 2.253967 0.041539 -0.001488 -513382.000000 0 1 0
-4.404064 -18.214303 -16.081540 24.693572 1.333558 2.280019 0.050870 -0.003365 -52897.000000 0 1 0
-4.413264 -18.260103 -17.455740 25.643929 1.333655 2.319510 0.059229 -0.006833 382899.000000 0 0 1
-5.850964 -17.907203 -17.957340 26.026289 1.254993 2.332243 0.046901 -0.002127 986714.000000 0 0 1
-6.831764 -18.837103 -17.472740 26.585825 1.222874 2.287921 0.051057 -0.007371 123890.000000 0 0 1
-8.097764 -18.638503 -18.063940 27.189584 1.160937 2.297447 0.034253 -0.004214 72189.300000 0 0 1
-9.085164 -19.750803 -17.667940 28.014113 1.139666 2.253225 0.027181 -0.009169 -299704.000000 0 0 1
-8.694564 -20.993803 -18.154840 29.084934 1.178152 2.244905 0.030124 -0.004716 4742.540000 0 0 1
-9.581764 -21.999203 -17.771540 29.859718 1.160023 2.208271 0.032377 -0.008439 -317431.000000 0 0 1
-9.067764 -23.385903 -18.114340 30.939523 1.200899 2.196263 0.037104 -0.017179 -864291.000000 0 0 1
-9.010364 -23.692303 -19.540040 32.005078 1.207380 2.227525 0.025086 -0.018991 1583980.000000 0 0 1
-7.897664 -24.583503 -19.951540 32.631053 1.259952 2.228660 0.042052 -0.032939 1125990.000000 0 0 1
-6.468264 -24.153803 -19.630740 31.790102 1.309141 2.236371 0.065666 -0.033300 -1232290.000000 0 0 1
-5.909164 -23.060203 -20.417640 31.361938 1.319945 2.279740 0.052661 -0.027075 395638.000000 0 0 1
-5.415964 -21.926403 -19.677840 29.955253 1.328637 2.287507 0.049167 -0.017708 601736.000000 0 0 1
-4.234764 -22.150803 -18.685440 29.287146 1.381897 2.262705 0.055376 -0.017753 872012.000000 0 0 1
-3.011364 -22.638003 -19.291040 29.894677 1.438550 2.272212 0.065652 -0.024717 1387030.000000 0 0 1
-1.929964 -22.595003 -18.328340 29.157965 1.485588 2.250532 0.063845 -0.014755 677131.000000 0 0 1
-0.602464 -23.237103 -18.785640 29.886889 1.544875 2.250494 0.042840 -0.010369 -116157.000000 0 0 1
0.027436 -22.514403 -19.775440 29.966099 -1.569578 2.291518 0.047210 -0.006393 -629280.000000 0 0 1
1.195536 -23.161003 -20.215940 30.765981 -1.519224 2.287745 0.037929 -0.010603 156201.000000 0 0 1
2.015036 -22.371603 -21.252640 30.922866 -1.480968 2.328533 0.045995 -0.015742 316526.000000 0 0 1
1.408436 -22.453403 -22.549140 31.852828 -1.508151 2.357340 0.043982 -0.018802 -116595.000000 0 0 1
1.002336 -21.274503 -23.070940 31.398685 -1.523717 2.396130 0.056787 -0.019660 -324429.000000 0 0 1
0.256236 -21.562503 -24.386140 32.552895 -1.558913 2.417534 0.062694 -0.020318 92472.800000 0 0 1
-0.275464 -20.449303 -25.146860 32.413183 1.557327 2.458813 0.059645 -0.018029 -946103.000000 0 0 1
-1.573064 -20.111903 -24.827340 31.989998 1.492740 2.459249 0.066343 -0.021433 -1019310.000000 0 0 1
-2.017664 -18.870303 -25.602470 31.869197 1.464278 2.503714 0.056435 -0.011209 -121416.000000 0 0 1
-1.476764 -17.660003 -25.133380 30.752940 1.487368 2.527450 0.072097 -0.012319 -19877.000000 0 0 1
-1.945664 -16.521503 -25.843210 30.734624 1.453571 2.569648 0.055039 -0.008157 -235445.000000 0 0 1
-1.273664 -15.264703 -25.319210 29.592157 1.487551 2.597516 0.055936 -0.001986 -1034270.000000 0 0 1
0.042136 -15.140603 -25.694460 29.823562 -1.568013 2.609109 0.052889 -0.009038 -1439700.000000 0 0 1
0.641636 -13.894103 -25.382300 28.943374 -1.524649 2.640304 0.051117 -0.005491 343542.000000 0 0 1
0.228736 -12.614603 -26.199850 29.079419 -1.552666 2.692809 0.040173 -0.001760 -205987.000000 0 0 1
0.957936 -11.498703 -25.789650 28.253209 -1.487680 2.720895 0.033515 -0.003225 -105416.000000 0 0 1
0.644436 -10.325203 -26.551020 28.495293 -1.508463 2.770051 0.029189 -0.004422 -735733.000000 0 0 1
1.512536 -9.107103 -26.151240 27.732912 -1.406216 2.802232 0.033954 -0.006395 51589.500000 0 0 1
2.898136 -9.145403 -26.363080 28.054403 -1.263912 2.792586 0.039658 -0.005486 -455077.000000 0 0 1
3.227336 -9.195503 -27.758860 29.419844 -1.233259 2.803962 0.031568 -0.004365 971107.000000 0 0 1
4.728836 -8.756003 -28.132180 29.840392 -1.075611 2.801594 0.031797 -0.007019 959038.000000 0 0 1
5.076836 -7.393503 -28.075950 29.473668 -0.969078 2.832393 0.026777 -0.009495 1128900.000000 0 0 1
6.332136 -6.928903 -28.674720 30.171927 -0.830369 2.825243 0.043906 -0.006110 1342940.000000 0 0 1
7.595336 -7.310803 -27.827170 29.757156 -0.766312 2.779456 0.057582 -0.009935 -391985.000000 0 0 1
7.900336 -8.699603 -27.684560 30.075459 -0.833510 2.740163 0.045428 -0.004252 116421.000000 0 0 1
8.363636 -9.388703 -28.814000 31.437950 -0.843077 2.730127 0.048827 -0.013565 -462057.000000 0 0 1
8.951136 -10.768703 -28.348700 31.618611 -0.877308 2.682788 0.054469 -0.007492 235911.000000 0 0 1
7.964736 -11.716803 -27.938560 31.325446 -0.973777 2.672283 0.060425 -0.011541 488065.000000 0 0 1
8.525736 -12.830303 -27.214760 31.272160 -0.984295 2.626516 0.055403 -0.015040 -56576.200000 0 0 1
9.421236 -13.831503 -27.974670 32.598348 -0.972838 2.602475 0.069214 -0.028164 147922.000000 0 0 1
8.650036 -14.641803 -28.874010 33.509908 -1.037186 2.609320 0.084560 -0.032441 265805.000000 0 0 1
9.413236 -15.641803 -29.527550 34.715287 -1.029054 2.587852 0.073954 -0.035683 265712.000000 0 0 1
8.545536 -16.398803 -30.606890 35.759315 -1.090406 2.598112 0.070095 -0.038180 174560.000000 0 0 1
8.045636 -15.455303 -31.524270 36.019137 -1.090825 2.636664 0.069587 -0.031130 -161658.000000 0 0 1
7.215636 -16.101603 -32.424140 36.914114 -1.149497 2.643231 0.076398 -0.029601 -901176.000000 0 0 1
6.394536 -15.081603 -33.248110 37.064560 -1.169777 2.683805 0.081935 -0.028008 -452813.000000 0 0 1
7.004736 -14.214803 -34.124188 37.624289 -1.112943 2.706835 0.089526 -0.025714 -523812.000000 0 0 1
6.035936 -13.363303 34.026439 37.051436 -1.146546 0.406888 0.062233 -0.022897 -137088.000000 0 0 1
6.459636 -12.158003 33.202637 35.943831 -1.082418 0.393072 0.083472 -0.020064 -251038.000000 0 0 1
7.239936 -12.456103 32.062293 35.150559 -1.044288 0.422317 0.069603 -0.020163 152212.000000 0 0 1
7.540836 -11.252303 31.386813 34.184946 -0.980380 0.407417 0.066836 -0.014878 -77566.700000 0 0 1
7.843836 -11.493403 29.881333 32.962374 -0.971937 0.435810 0.048512 -0.009755 -48971.600000 0 0 1
6.737836 -11.947603 29.125823 32.194055 -1.057307 0.440131 0.062014 -0.011147 90575.500000 0 0 1
6.932836 -11.929603 27.704833 30.950563 -1.044356 0.462070 0.046630 -0.014176 10780.200000 0 0 1
5.897736 -12.738703 26.864283 30.310848 -1.137203 0.481519 0.052572 -0.021847 -68960.500000 0 0 1
6.086636 -14.131703 26.956883 31.039099 -1.164101 0.518666 0.055130 -0.019589 -49776.700000 0 0 1
5.479336 -14.812203 25.904563 30.339262 -1.216486 0.547498 0.033679 -0.016907 32178.700000 0 0 1
3.957736 -15.098903 25.938303 30.272695 -1.314443 0.541723 0.032059 -0.026953 180063.000000 0 0 1
3.192736 -13.885403 25.695063 29.380848 -1.344790 0.506286 0.026900 -0.027924 -281386.000000 0 0 1
1.887936 -14.290603 25.363763 29.173722 -1.439447 0.516801 0.023011 -0.022105 -166762.000000 0 0 1
1.001836 -13.075803 25.027983 28.255622 -1.494328 0.482646 0.022212 -0.019815 -497202.000000 0 0 1
1.405636 -12.470803 23.769073 26.878719 -1.458556 0.485786 0.005311 -0.004133 555981.000000 0 0 1
0.526436 -11.390903 23.319683 25.958378 -1.524614 0.454800 0.007631 0.002046 1458250.000000 0 0 1
-0.910164 -11.878903 22.909383 25.822017 1.494326 0.479548 0.015686 0.006323 17842.400000 0 0 1
-0.839564 -12.702703 21.747283 25.199362 1.504799 0.529600 0.013987 0.007859 -810697.000000 0 0 1
-2.128264 -13.120603 21.464583 25.246941 1.409989 0.554459 0.025741 0.001852 -682032.000000 0 0 1
-2.303764 -13.595003 20.047683 24.331893 1.402934 0.602492 0.035711 -0.013221 -56497.400000 0 1 0
-1.421764 -14.618403 19.614783 24.504261 1.473843 0.642727 0.043673 -0.025706 -532113.000000 0 1 0
-1.735664 -15.337403 18.464783 24.066505 1.458110 0.696270 0.049319 -0.026025 640698.000000 0 1 0
-2.849664 -16.433903 18.705783 25.061924 1.399102 0.728187 0.043565 -0.029614 703311.000000 0 0 1
-2.772764 -17.478003 17.736983 25.055326 1.413464 0.784258 0.034374 -0.025754 -137349.000000 0 0 1
-3.866164 -18.392403 17.760783 25.858714 1.363608 0.813665 0.040073 -0.008974 334874.000000 0 0 1
-3.461664 -19.726403 17.073983 26.317959 1.397081 0.864845 0.039570 -0.017692 -381478.000000 0 0 1
-2.407864 -20.351003 17.689583 27.071802 1.453027 0.858687 0.049061 -0.017951 -962854.000000 0 0 1
-2.397364 -21.725903 17.322183 27.889428 1.460895 0.900648 0.041976 -0.033771 155705.000000 0 0 1
-1.344564 -22.529803 18.148083 28.961229 1.511188 0.893570 0.064715 -0.022325 565133.000000 0 0 1
-0.056864 -22.474103 17.566483 28.524898 1.568266 0.907358 0.041893 -0.018709 97228.900000 0 0 1
0.898236 -23.280303 18.294283 29.621953 -1.532232 0.905119 0.040216 -0.016063 1118080.000000 0 0 1
2.316936 -23.315103 17.652283 29.335393 -1.471747 0.925118 0.045479 -0.017428 179292.000000 0 0 1
2.985136 -22.101003 17.707783 28.476849 -1.436541 0.899718 0.057015 -0.022854 -300460.000000 0 0 1
4.139536 -22.154303 16.885483 28.161470 -1.386076 0.927801 0.058143 -0.013291 378245.000000 0 0 1
5.032236 -20.874403 17.021883 27.400886 -1.334238 0.900502 0.052836 -0.012037 128423.000000 0 0 1
5.952036 -20.927903 18.147783 28.332770 -1.293706 0.875618 0.056105 -0.010085 471074.000000 0 0 1
6.543736 -19.660303 18.501283 27.778507 -1.249490 0.841924 0.057215 -0.009908 328468.000000 0 0 1
7.637036 -19.163403 17.543283 27.080013 -1.191565 0.866062 0.046295 -0.010521 -732244.000000 0 0 1
7.033936 -18.427203 16.513383 25.724110 -1.206152 0.873768 0.038945 -0.007142 164711.000000 0 0 1
7.980436 -17.636603 15.850583 25.019554 -1.145871 0.884692 0.051847 -0.010454 -70764.100000 0 0 1
7.269236 -16.669103 14.856483 23.482245 -1.159570 0.885802 0.043029 -0.010197 340221.000000 0 1 0
6.517036 -17.374603 13.852483 23.156853 -1.211947 0.929540 0.044925 -0.011766 121488.000000 0 1 0
5.831836 -16.476103 13.048083 21.811115 -1.230600 0.929505 0.037983 -0.010203 -130492.000000 0 1 0
6.373836 -16.543503 11.610683 21.192480 -1.203046 0.990983 0.053110 -0.014854 532556.000000 0 1 0
7.754036 -16.200503 11.512583 21.333563 -1.124391 1.000779 0.044674 -0.009381 286325.000000 0 1 0
8.237536 -16.346303 10.214683 20.961831 -1.104003 1.061802 0.045989 -0.012771 592604.000000 0 1 0
9.741336 -15.995303 10.005483 21.233299 -1.023776 1.080127 0.034349 -0.006256 750988.000000 0 1 0
10.390336 -16.550303 8.884383 21.466342 -1.010184 1.144090 0.035751 -0.003469 873652.000000 0 1 0
11.784936 -16.153003 8.846583 21.864726 -0.940491 1.154249 0.037484 0.001527 1215780.000000 0 1 0
12.600836 -17.067903 7.901683 22.639146 -0.934840 1.214263 0.027521 -0.008258 -66497.700000 0 1 0
12.701536 -18.422203 8.368483 23.890125 -0.967173 1.212915 0.021281 -0.014892 260559.000000 0 1 0
13.549136 -19.278403 7.589283 24.755466 -0.958184 1.259209 0.027796 -0.018227 211533.000000 0 1 0
14.059136 -20.448103 8.399983 26.198166 -0.968474 1.244399 0.036772 -0.023776 -163791.000000 0 0 1
12.986936 -21.271903 8.855383 26.449426 -1.022677 1.229399 0.043984 -0.022909 563951.000000 0 0 1
13.566936 -22.472403 9.428383 27.892024 -1.027649 1.225972 0.049974 -0.022151 -516566.000000 0 0 1
12.557136 -23.388103 10.020083 28.374056 -1.078064 1.209869 0.058779 -0.019185 -630097.000000 0 0 1
12.280736 -22.868603 11.337483 28.325394 -1.077979 1.158997 0.052683 -0.021526 -100312.000000 0 0 1
11.176736 -23.469503 12.021483 28.640060 -1.126350 1.137633 0.050291 -0.013347 496308.000000 0 0 1
11.324936 -24.960903 12.521783 30.134629 -1.144864 1.142273 0.039002 -0.013277 -289611.000000 0 0 1
12.172736 -25.114323 13.626483 31.057780 -1.119469 1.116593 0.036827 -0.014039 -336957.000000 0 0 1
12.365636 -26.465383 14.032983 32.407561 -1.133700 1.122961 0.020493 -0.022998 -334364.000000 0 0 1
13.553636 -26.574483 14.976483 33.379622 -1.099161 1.105518 0.032170 -0.014482 -368751.000000 0 0 1
13.408136 -25.920233 16.218483 33.386760 -1.093417 1.063546 0.028204 -0.010235 -321763.000000 0 0 1
14.444536 -26.228233 17.093683 34.478381 -1.067397 1.052064 0.031639 -0.018065 -554090.000000 0 0 1
14.178436 -25.781003 18.554683 34.784542 -1.067986 1.008161 0.028399 -0.015524 -49820.800000 0 0 1
14.628436 -24.446503 18.887483 34.181276 -1.031565 0.985354 0.010942 -0.011606 257396.000000 0 0 1
15.976936 -24.395903 19.314483 34.978161 -0.990982 0.985811 0.016161 -0.014796 140756.000000 0 0 1
16.472136 -22.943803 19.651983 34.408571 -0.948135 0.962907 0.005028 -0.013740 -185943.000000 0 0 1
16.383236 -21.983103 18.608983 33.135501 -0.930333 0.974475 -0.003006 -0.009946 213669.000000 0 0 1
15.142636 -21.376603 18.281783 31.944986 -0.954472 0.961501 0.007197 -0.005782 -428602.000000 0 0 1
15.371136 -20.371603 17.142483 30.743108 -0.924398 0.979300 0.000769 -0.004989 139844.000000 0 0 1
16.154936 -19.211803 17.380383 30.531181 -0.871617 0.965183 0.006140 -0.004029 1658600.000000 0 0 1
17.582436 -19.527103 17.438083 31.536273 -0.837754 0.984892 0.002296 -0.011945 635492.000000 0 0 1
18.433136 -18.295003 17.464683 31.297009 -0.781637 0.978786 0.011828 -0.006246 -589632.000000 0 0 1
18.720736 -17.942403 18.780283 32.017101 -0.764172 0.943979 0.001030 -0.000369 -6143.320000 0 0 1
19.198536 -16.622703 18.875883 31.641697 -0.713614 0.931600 0.009551 0.002167 -253637.000000 0 0 1
19.726136 -16.321303 20.284183 32.664253 -0.691223 0.900791 0.004076 0.009993 330061.000000 0 0 1
21.035736 -16.799203 20.579583 33.885611 -0.673889 0.918107 0.011289 0.006381 147931.000000 0 0 1
21.366936 -16.471403 21.907383 34.753222 -0.656733 0.888767 0.013206 0.008863 -252905.000000 0 0 1
33.504080 -0.747503 -7.933340 34.438641 -0.022307 1.803246 0.101992 -0.020305 214708.000000 0 0 1
34.730910 -0.486703 -8.608740 35.785240 -0.014013 1.813746 0.082721 -0.017214 670820.000000 0 0 1
35.632482 -1.600703 -8.552740 36.679495 -0.044892 1.806138 0.083552 -0.016253 35819.100000 0 0 1
-34.563510 -1.244503 -9.022240 35.743333 0.035991 1.825974 0.078219 -0.016376 172951.000000 0 0 1
-33.737274 -2.428303 -8.981940 34.996794 0.071853 1.830351 0.090584 -0.012725 -652412.000000 0 0 1
-32.386524 -2.298003 -9.209440 33.748801 0.070837 1.847184 0.115228 -0.017181 -1006500.000000 0 0 1
-31.639734 -3.566503 -8.740440 33.017995 0.112248 1.838707 0.114536 -0.015136 -298759.000000 0 0 1
-31.296754 -3.609803 -7.390540 32.359505 0.114834 1.801218 0.111383 -0.021926 130462.000000 0 0 1
-30.395354 -4.670003 -7.198840 31.583378 0.152450 1.800749 0.101034 -0.023531 -264959.000000 0 0 1
-29.856374 -4.762203 -5.791740 30.783533 0.158171 1.760068 0.100453 -0.036314 -228797.000000 0 0 1
-29.216834 -3.534203 -5.418640 29.924499 0.120380 1.752878 0.094401 -0.034665 506191.000000 0 0 1
-29.171124 -3.337003 -4.020440 29.635351 0.113899 1.706880 0.089314 -0.039573 -310858.000000 0 0 1
-29.028644 -1.790003 -3.624240 29.308726 0.061585 1.694771 0.092732 -0.038169 824747.000000 0 0 1
-27.663044 -1.337203 -3.502140 27.915894 0.048301 1.696581 0.087205 -0.032830 1345090.000000 0 0 1
-27.666974 0.029997 -3.134440 27.843977 -0.001084 1.683607 0.085374 -0.033872 424077.000000 0 0 1
-26.236724 0.482197 -2.682840 26.377942 -0.018377 1.672680 0.091338 -0.016239 695456.000000 0 0 1
-25.680454 -0.302003 -1.616840 25.733074 0.011759 1.633669 0.075230 -0.021043 241799.000000 0 0 1
-24.299964 -0.135103 -1.423040 24.341971 0.005560 1.629290 0.058710 -0.018147 -60067.800000 0 1 0
-23.742864 -0.866203 -0.165740 23.759238 0.036466 1.577772 0.041668 -0.015997 -307756.000000 0 1 0
-23.813164 -2.291203 -0.245940 23.924399 0.095921 1.581076 0.046063 -0.016164 348871.000000 0 1 0
-23.231064 -2.916203 0.885760 23.430134 0.124877 1.532983 0.039605 -0.016281 -433330.000000 0 1 0
-23.408864 -4.448203 0.855060 23.843082 0.187783 1.534927 0.046094 -0.008127 -172895.000000 0 1 0
-24.616664 -4.853903 1.461660 25.133185 0.194682 1.512607 0.041259 -0.020090 219819.000000 0 0 1
-24.801564 -6.200303 1.127860 25.589713 0.244975 1.526707 0.039540 -0.009062 -212391.000000 0 0 1
-26.057824 -6.825103 1.747760 26.993460 0.256167 1.506003 0.044926 -0.008096 -194328.000000 0 0 1
-25.854994 -7.228503 3.152660 27.030931 0.272618 1.453899 0.036004 -0.005864 644007.000000 0 0 1
-27.030914 -7.925103 3.580560 28.395387 0.285194 1.444363 0.035840 -0.000160 462971.000000 0 0 1
-27.109254 -7.991003 5.118660 28.722264 0.286652 1.391627 0.036338 -0.008517 -225489.000000 0 0 1
-26.069794 -8.806803 5.604560 28.082113 0.325780 1.369870 0.032717 0.007268 49987.300000 0 0 1
-26.091414 -8.973503 7.030860 28.473121 0.331253 1.321286 0.023018 0.006646 140332.000000 0 0 1
-25.456204 -7.758303 7.829160 27.739959 0.295828 1.284674 0.026177 0.006554 161431.000000 0 0 1
-24.059364 -7.589303 7.672060 26.368751 0.305562 1.275574 0.031692 0.000736 199098.000000 0 0 1
-23.666164 -6.320203 8.189060 25.828144 0.260966 1.248169 0.030031 -0.007263 -882886.000000 0 0 1
-22.203764 -6.147403 7.813460 24.327924 0.270097 1.243829 0.031771 -0.011235 -1263480.000000 0 1 0
-21.294964 -6.837203 8.583360 23.956146 0.310674 1.204356 0.039139 -0.014276 -938596.000000 0 1 0
-20.037764 -6.682603 7.983160 22.580966 0.321901 1.209449 0.032901 -0.013191 -306079.000000 0 1 0
-18.896064 -6.966103 8.988460 22.054030 0.353195 1.151010 0.034941 -0.009803 -74886.400000 0 1 0
-18.749164 -5.965203 9.983060 22.063007 0.308031 1.101252 0.023374 -0.005915 284598.000000 0 1 0
-17.564664 -6.105103 10.743860 21.476039 0.334516 1.046883 0.018447 -0.015981 28671.200000 0 1 0
-17.421764 -4.966203 11.739860 21.587157 0.277692 0.995796 0.016899 -0.010166 46495.400000 0 1 0
-18.445064 -4.913903 12.716360 22.936274 0.260360 0.983129 0.027244 -0.011682 96631.700000 0 1 0
-18.525564 -3.700703 13.396860 23.159611 0.197167 0.953959 0.026512 -0.000339 228298.000000 0 1 0
-19.802464 -3.589403 14.267260 24.669336 0.179314 0.954104 0.033750 -0.006102 206237.000000 0 1 0
-19.726464 -4.429403 15.382460 25.404194 0.220878 0.920391 0.045295 -0.012161 311399.000000 0 0 1
-20.949464 -4.415803 16.101460 26.788736 0.207743 0.925978 0.043021 -0.003232 167725.000000 0 0 1
-20.952864 -5.472803 17.190460 27.649340 0.255488 0.899845 0.043958 -0.001081 -778341.000000 0 0 1
-21.939864 -5.261303 18.112960 28.932996 0.235361 0.894343 0.037508 0.001628 -339483.000000 0 0 1
-21.613764 -5.868203 19.388860 29.622939 0.265112 0.857246 0.039353 0.002400 57381.200000 0 0 1
-22.433264 -5.410703 20.672760 30.982093 0.236671 0.840288 0.021613 0.010522 16643.200000 0 0 1
-22.236564 -4.077603 21.017360 30.867800 0.181359 0.821829 0.023707 0.011253 435440.000000 0 0 1
-22.908264 -3.755803 22.241760 32.149503 0.162504 0.806786 0.025129 0.009712 126953.000000 0 0 1
-22.817364 -2.228503 22.563760 32.167089 0.097358 0.793360 0.021481 0.013154 308581.000000 0 0 1
-23.702564 -1.490603 21.722060 32.185111 0.062805 0.829953 0.023238 0.009809 754.263000 0 0 1
-23.624264 -0.130903 22.077460 32.334769 0.005541 0.819239 0.021016 0.001916 -458892.000000 0 0 1
-24.744064 0.814697 21.654660 32.891591 -0.032913 0.852152 0.027116 0.004338 -660918.000000 0 0 1
-25.906264 0.587297 22.397260 34.250792 -0.022666 0.858043 0.032276 0.004313 -531807.000000 0 0 1
-26.927734 1.467597 21.954960 34.774660 -0.054447 0.887504 0.024189 0.007523 136460.000000 0 0 1
-28.023154 1.571297 23.029860 36.306206 -0.056013 0.883664 0.025351 0.003717 -119774.000000 0 0 1
-27.581434 2.401197 24.105360 36.709259 -0.086840 0.854420 0.029802 -0.000154 35988.000000 0 0 1
-28.484514 2.322997 25.166660 38.080502 -0.081373 0.848805 0.027038 -0.002332 -274709.000000 0 0 1
-28.043624 3.223497 26.370360 38.629415 -0.114444 0.819414 0.042944 -0.004207 200476.000000 0 0 1
-26.931264 2.755197 27.109860 38.312252 -0.101950 0.784696 0.046573 -0.007570 185509.000000 0 0 1
-26.563434 3.534997 28.224860 38.919853 -0.132300 0.759465 0.046866 -0.010055 -464177.000000 0 0 1
-25.488634 2.868197 29.056260 38.757752 -0.112057 0.723204 0.043900 -0.009233 -462706.000000 0 0 1
-25.887574 1.885297 30.000460 39.670499 -0.072698 0.713247 0.047341 -0.006920 306677.000000 0 0 1
-24.882964 1.841797 31.012360 39.803525 -0.073884 0.677510 0.041641 -0.013183 445806.000000 0 0 1
-25.165224 0.768197 32.086360 40.784962 -0.030517 0.665318 0.017010 -0.012441 -149562.000000 0 0 1
-25.044964 -0.427603 31.355960 40.132647 0.017072 0.674037 0.011255 -0.013627 55082.500000 0 0 1
-25.635014 -1.506003 32.079760 41.091764 0.058680 0.675034 0.012293 -0.015176 -145817.000000 0 0 1
-26.412194 -2.539103 31.188460 40.948396 0.095839 0.704936 0.014497 -0.006757 244418.000000 0 0 1
-27.666494 -2.132403 30.663560 41.355000 0.076923 0.735535 0.024375 -0.005048 204632.000000 0 0 1
-27.603094 -1.022603 29.747160 40.593966 0.037030 0.748372 0.028141 -0.003700 -1994520.000000 0 0 1
-28.959994 -0.674403 29.213960 41.141118 0.023283 0.781168 0.051414 -0.014760 -359837.000000 0 0 1
-29.791174 -0.117303 30.275160 42.474853 0.003937 0.777345 0.081250 -0.017331 -87834.200000 0 0 1
-31.101344 0.005697 29.751160 43.039809 -0.000183 0.807582 0.062172 -0.018662 290799.000000 0 0 1
-32.128244 0.324497 30.876560 44.561097 -0.010100 0.805288 0.068417 -0.008627 -79457.700000 0 0 1
-32.238364 -0.816603 31.706160 45.224546 0.025325 0.793881 0.065909 -0.009818 -534498.000000 0 0 1
-33.187634 -0.744503 32.706960 46.601702 0.022429 0.792818 0.073017 -0.014449 -516150.000000 0 0 1
-33.310554 -1.993103 33.572660 47.335917 0.059763 0.782373 0.071722 -0.013738 -91905.400000 0 0 1
-34.086326 -2.934103 32.864560 47.440130 0.085867 0.805489 0.045569 -0.012410 -155531.000000 0 0 1
-34.247051 -4.190203 33.466060 48.066574 0.121747 0.800645 0.037787 -0.007190 690391.000000 0 0 1
-35.573744 -5.003403 33.146160 48.879375 0.139732 0.825593 0.030395 -0.008426 709041.000000 0 0 1
34.965410 -4.484003 33.906260 48.911355 -0.127545 0.804851 0.032019 -0.013683 -83453.600000 0 0 1
33.771220 -5.110603 33.447160 47.805084 -0.150191 0.795879 0.030798 -0.015269 558952.000000 0 0 1
32.470680 -4.723003 34.268260 47.444341 -0.144441 0.763698 0.033801 -0.020679 401251.000000 0 0 1
32.240620 -5.356103 -33.219762 46.601481 -0.164626 2.364347 0.026728 -0.024835 15831.600000 0 0 1
31.887480 -6.711103 -33.250962 46.556168 -0.207435 2.366294 0.025216 -0.018494 -906976.000000 0 0 1
30.537750 -7.147303 -33.851062 46.146858 -0.229910 2.394328 0.022551 -0.019307 -470105.000000 0 0 1
29.481890 -6.903703 -32.945662 44.746615 -0.230023 2.398340 0.024708 -0.027383 -896560.000000 0 0 1
28.265920 -7.072803 -33.584862 44.462678 -0.245189 2.426984 0.045843 -0.028978 -1772820.000000 0 0 1
27.140240 -6.856303 -32.628162 42.990679 -0.247448 2.432509 0.044840 -0.030388 -1849620.000000 0 0 1
25.917510 -7.274303 -33.138062 42.693840 -0.273631 2.459379 0.051095 -0.030694 -911179.000000 0 0 1
24.948710 -6.800503 -32.227362 41.319339 -0.266114 2.465396 0.061275 -0.034054 -1509470.000000 0 0 1
23.560510 -7.196203 -32.650262 40.901376 -0.296435 2.495210 0.075521 -0.035448 -1102210.000000 0 0 1
23.389310 -8.619603 -32.636062 41.066652 -0.353084 2.489325 0.083721 -0.041425 211493.000000 0 0 1
23.509010 -9.324603 -31.390262 40.310920 -0.377606 2.463393 0.080752 -0.039860 -514050.000000 0 0 1
23.253810 -10.822703 -31.580362 40.684024 -0.435600 2.459468 0.087909 -0.040767 -271902.000000 0 0 1
21.931510 -11.213503 -31.834262 40.251137 -0.472644 2.483060 0.088644 -0.041455 -193381.000000 0 0 1
21.765210 -12.592003 -31.598362 40.382414 -0.524489 2.469432 0.075837 -0.025155 -119657.000000 0 0 1
20.574110 -13.249303 -32.389262 40.594363 -0.572131 2.494560 0.048319 -0.016143 884580.000000 0 0 1
19.269510 -12.774503 -32.080762 39.543359 -0.585417 2.517136 0.031997 -0.013936 212375.000000 0 0 1
18.938310 -11.473803 -32.595662 39.405392 -0.544711 2.544881 0.026251 -0.024264 -1731390.000000 0 0 1
17.519110 -11.160003 -32.251162 38.361469 -0.567195 2.569403 0.021106 -0.021177 -877509.000000 0 0 1
16.448810 -11.844603 -32.899862 38.642708 -0.624081 2.589418 0.013830 -0.018139 575341.000000 0 0 1
15.243010 -11.231603 -32.423462 37.547026 -0.635023 2.613050 0.036535 -0.019045 1201160.000000 0 0 1
13.926110 -11.854403 -33.045262 37.768409 -0.705211 2.636118 0.024259 -0.020758 381840.000000 0 0 1
13.819110 -13.277203 -32.740462 37.936654 -0.765402 2.612033 0.035330 -0.016281 696813.000000 0 0 1
12.588910 -13.822303 -33.226462 38.125247 -0.832064 2.629066 0.029678 -0.024487 305457.000000 0 0 1
11.320010 -13.717803 -32.373762 36.937531 -0.880874 2.639228 0.037476 -0.022613 -209070.000000 0 0 1
10.802310 -12.396803 -32.282062 36.228471 -0.854021 2.670491 0.072506 -0.017012 360201.000000 0 0 1
9.574010 -12.459403 -31.534862 35.232739 -0.915612 2.679327 0.074352 -0.023607 941487.000000 0 0 1
8.469910 -11.480203 -32.076062 35.105671 -0.935159 2.723094 0.067191 -0.011348 114192.000000 0 0 1
8.726010 -10.052203 -32.107262 34.757248 -0.855905 2.748574 0.055092 -0.006374 -685776.000000 0 0 1
7.601910 -9.360203 -32.475862 34.642229 -0.888689 2.786070 0.060932 -0.004134 -643211.000000 0 0 1
7.951710 -7.856603 -32.774962 34.628803 -0.779382 2.812900 0.068249 -0.005907 92898.300000 0 0 1
7.989810 -6.986603 -31.616562 33.350512 -0.718512 2.817714 0.046679 -0.009600 33382.400000 0 0 1
8.621210 -5.783103 -31.958662 33.602464 -0.590858 2.827512 0.051681 -0.006429 -63054.800000 0 0 1
8.901110 -4.888903 -30.754662 32.387966 -0.502264 2.822660 0.044684 -0.007177 -546718.000000 0 0 1
7.733010 -4.462003 -30.131362 31.426229 -0.523341 2.853532 0.051302 -0.008907 -442749.000000 0 0 1
8.023310 -3.509103 -29.137662 30.425165 -0.412296 2.849638 0.044071 -0.005108 869948.000000 0 0 1
6.686010 -2.912403 -28.566162 29.482375 -0.410812 2.891637 0.033905 -0.005505 148496.000000 0 0 1
5.923610 -2.083003 -29.452262 30.114179 -0.338139 2.931539 0.029025 -0.000014 461433.000000 0 0 1
4.654410 -1.694003 -28.955662 29.376241 -0.349054 2.972174 0.027860 -0.004656 367055.000000 0 0 1
3.574210 -2.800403 -29.051962 29.404655 -0.664600 2.986554 0.017852 -0.008968 -956440.000000 0 0 1
3.692410 -3.712803 -27.983262 28.468961 -0.788152 2.956609 0.023992 -0.013469 -1020590.000000 0 0 1
2.749510 -4.689403 -27.953662 28.477316 -1.040493 2.949524 0.029294 -0.015475 -667945.000000 0 0 1
2.963310 -5.662303 -26.789162 27.540916 -1.088651 2.907409 0.023978 -0.024599 -96860.900000 0 0 1
2.597010 -5.117203 -25.508962 26.146460 -1.101162 2.920317 0.022958 -0.026065 84473.700000 0 0 1
3.073910 -6.031903 -24.551862 25.468151 -1.099491 2.872536 0.033746 -0.028360 -19042.800000 0 0 1
2.953810 -5.529503 -23.091362 23.927210 -1.080172 2.876495 0.041566 -0.032438 424842.000000 0 1 0
3.812310 -4.372403 -22.935962 23.658190 -0.853723 2.893866 0.038932 -0.032114 383878.000000 0 1 0
3.563110 -3.742503 -21.696562 22.303427 -0.809949 2.907782 0.033170 -0.027108 -78040.800000 0 1 0
4.560210 -2.634903 -21.275162 21.917362 -0.523938 2.898919 0.035809 -0.027005 622763.000000 0 1 0
5.875110 -3.058103 -20.901662 21.925975 -0.479927 2.834721 0.034246 -0.031143 272376.000000 0 1 0
6.647310 -1.908303 -20.579662 21.710616 -0.279561 2.817399 0.040961 -0.016604 -848356.000000 0 1 0
8.103010 -2.213603 -20.354662 22.019788 -0.266676 2.750205 0.039662 -0.016515 -1346540.000000 0 1 0
8.800210 -2.358103 -21.567262 23.412628 -0.261809 2.741900 0.043144 -0.022801 457219.000000 0 1 0
9.913310 -3.265503 -21.529062 23.925671 -0.318212 2.690178 0.035110 -0.022819 1403420.000000 0 1 0
11.287210 -2.877903 -20.879862 23.909246 -0.249651 2.632725 0.048260 -0.021642 112614.000000 0 1 0
11.206310 -2.746703 -19.466162 22.628681 -0.240365 2.606542 0.050581 -0.005665 120181.000000 0 1 0
12.365010 -2.197703 -18.872662 22.669379 -0.175899 2.554433 0.044950 -0.012947 -285794.000000 0 1 0
12.448610 -0.617003 -18.836662 22.586908 -0.049523 2.557049 0.043362 -0.015311 16279.600000 0 1 0
12.759510 0.039197 -20.055362 23.770237 0.003072 2.574968 0.036294 -0.016447 170615.000000 0 1 0
13.070010 1.372897 -19.682962 23.667045 0.104658 2.552889 0.068287 -0.029921 -17003.700000 0 1 0
13.375310 2.368497 -20.791562 24.835413 0.175263 2.562892 0.051198 -0.022829 -986561.000000 0 1 0
14.604310 2.171997 -21.383962 25.986098 0.147641 2.537293 0.041018 -0.019334 -754360.000000 0 0 1
14.831710 3.211297 -22.344462 27.010498 0.213224 2.544993 0.042172 -0.022166 -361161.000000 0 0 1
16.265810 3.273797 -22.916862 28.292700 0.198615 2.514935 0.032241 -0.020042 111786.000000 0 0 1
16.630210 2.276897 -23.875362 29.185288 0.136067 2.528829 0.033548 -0.017424 65841.300000 0 0 1
17.015210 1.094097 -23.239262 28.823215 0.064213 2.508614 0.030671 -0.021111 -739291.000000 0 0 1
9.811036 27.017997 3.655360 28.975684 1.222473 1.444307 -0.023547 0.004779 222673.000000 0 0 1
9.500836 27.655497 4.902960 29.650151 1.239886 1.404673 -0.023626 0.002530 -310956.000000 0 0 1
10.656436 28.044197 5.588760 30.516731 1.207661 1.386619 -0.028698 0.008482 -926594.000000 0 0 1
10.498536 28.572997 7.021360 31.239957 1.218680 1.344104 -0.023621 -0.007215 -243779.000000 0 0 1
10.431836 27.515297 7.896560 30.467531 1.208411 1.308624 -0.027299 -0.012690 20811.300000 0 0 1
10.313036 28.036297 9.188160 31.254039 1.218312 1.272405 -0.017671 -0.011237 -597922.000000 0 0 1
10.217136 26.902697 10.251160 30.548834 1.207841 1.228590 -0.002260 -0.013003 -978368.000000 0 0 1
11.394436 26.302597 10.602160 30.562487 1.161996 1.216531 0.000268 -0.012533 -1104590.000000 0 0 1
11.947936 25.407197 9.702260 29.705432 1.131224 1.238076 0.002808 -0.016790 -377393.000000 0 0 1
13.257136 24.745697 10.181060 29.862270 1.078971 1.222886 0.015217 -0.019889 974365.000000 0 0 1
14.397036 25.671597 10.161960 31.137935 1.059687 1.238354 0.012393 -0.014584 269841.000000 0 0 1
15.585936 24.973297 10.337160 31.200062 1.012842 1.233096 0.029390 -0.016200 -1202100.000000 0 0 1
16.625536 25.924697 10.868660 32.659243 1.000561 1.231536 0.036146 -0.019707 -1364380.000000 0 0 1
17.089436 26.819197 9.816360 33.281813 1.003466 1.271397 0.043950 -0.025135 -664260.000000 0 0 1
18.461536 26.754697 9.632960 33.903334 0.966793 1.282697 0.053002 -0.027906 -523611.000000 0 0 1
19.343336 27.474497 10.701460 35.263776 0.957359 1.262465 0.053847 -0.035250 -757916.000000 0 0 1
19.283436 28.909697 10.720360 36.366848 0.982547 1.271567 0.062572 -0.042897 515500.000000 0 0 1
18.036436 29.551197 11.045160 36.339811 1.022805 1.261970 0.042781 -0.022389 498797.000000 0 0 1
18.082636 30.992497 11.443760 37.662664 1.042633 1.262066 0.040698 -0.012348 -210994.000000 0 0 1
18.609436 31.965997 10.521560 38.455680 1.043595 1.293660 0.052120 -0.033312 745431.000000 0 0 1
17.780836 32.198097 9.350360 37.951348 1.066241 1.321856 0.044063 -0.040424 800210.000000 0 0 1
16.395736 32.880397 9.506560 37.951487 1.108231 1.317607 0.034485 -0.031891 148183.000000 0 0 1
16.495236 34.319897 9.733560 39.302549 1.122763 1.320535 0.031691 -0.031409 589458.000000 0 0 1
15.165136 -33.967820 9.949560 38.506985 -1.150894 1.309448 0.038800 -0.017602 702031.000000 0 0 1
15.239336 -32.447820 10.099760 37.243839 -1.131717 1.296178 0.037215 -0.006594 -37332.000000 0 0 1
15.448736 -31.694420 8.957860 36.379156 -1.117257 1.322002 0.045494 -0.009896 -55525.800000 0 0 1
15.758436 -30.353720 9.173060 35.409344 -1.091939 1.308750 0.063936 -0.019093 -160864.000000 0 0 1
16.565836 -29.762420 8.019960 34.993547 -1.062898 1.339557 0.059654 -0.011797 324442.000000 0 0 1
15.831636 -29.869520 6.763660 34.475731 -1.083417 1.373329 0.051691 -0.007969 722748.000000 0 0 1
16.678536 -29.404020 5.698560 34.281825 -1.054829 1.403794 0.063835 -0.002418 472314.000000 0 0 1
16.140736 -29.722720 4.274960 34.091623 -1.073310 1.445069 0.063241 -0.008306 75709.400000 0 0 1
16.253536 -31.084720 3.932260 35.297308 -1.089014 1.459161 0.055071 -0.006693 -49756.400000 0 0 1
16.188136 -31.276120 2.516860 35.307025 -1.093178 1.499451 0.058888 0.001205 -80954.800000 0 0 1
16.428436 -32.773520 2.090760 36.720136 -1.106132 1.513828 0.045080 0.004551 -143318.000000 0 0 1
17.742736 -33.264720 2.226160 37.766415 -1.080803 1.511817 0.049245 0.010084 -22733.900000 0 0 1
17.877836 34.173197 1.809460 38.609566 1.088798 1.523914 0.046784 0.008160 69336.200000 0 0 1
19.329636 33.683397 2.039160 38.889128 1.049817 1.518337 0.051239 0.001585 214881.000000 0 0 1
19.588836 33.565897 3.404760 39.012618 1.042528 1.483412 0.040662 -0.025154 -583283.000000 0 0 1
20.969936 33.456697 3.577460 39.647031 1.010919 1.480441 0.033953 -0.011818 -559944.000000 0 0 1
21.447336 33.449297 5.058360 40.055346 1.000640 1.444174 0.041341 -0.011827 -318186.000000 0 0 1
21.109236 32.315297 5.788460 39.030559 0.992156 1.421941 0.056501 -0.026064 -40655.000000 0 0 1
21.736836 31.100497 5.432160 38.330658 0.960794 1.428599 0.038417 -0.037791 -45761.400000 0 0 1
21.177736 29.983797 6.353260 37.254376 0.955851 1.399421 0.049181 -0.037531 879224.000000 0 0 1
19.803136 29.711597 6.064960 36.217771 0.982901 1.402545 0.044882 -0.029947 -18049.900000 0 0 1
19.071236 29.285997 7.201360 35.682506 0.993573 1.367583 0.047366 -0.047463 -565644.000000 0 0 1
17.607136 29.122597 6.788160 34.701816 1.027011 1.373913 0.047016 -0.030284 -210783.000000 0 0 1
16.849136 30.321197 6.540660 35.299414 1.063596 1.384428 0.026257 -0.033984 210044.000000 0 0 1
17.185336 30.799297 5.231360 35.655289 1.061848 1.423544 0.043112 -0.032048 -590919.000000 0 0 1
17.306036 32.383297 5.281060 37.095369 1.079999 1.427947 0.048657 -0.025934 92857.600000 0 0 1
16.023936 32.954197 5.362660 37.033819 1.118210 1.425481 0.034658 -0.020193 94907.100000 0 0 1
16.286136 34.365997 5.578360 38.436677 1.128244 1.425151 0.045101 -0.022212 475098.000000 0 0 1
14.953736 -33.609120 5.719860 37.227731 -1.152166 1.416540 0.038153 -0.019161 423756.000000 0 0 1
14.181036 -33.576320 4.539060 36.729744 -1.171170 1.446900 0.038328 -0.003821 -441015.000000 0 0 1
12.980736 -32.879720 4.731260 35.664553 -1.194785 1.437744 0.028752 -0.003240 79498.000000 0 0 1
11.965436 -32.989920 3.563960 35.273337 -1.222853 1.469585 0.023365 0.001273 725551.000000 0 0 1
10.835536 -32.105820 3.611160 34.076869 -1.245305 1.464626 0.025239 -0.007572 147426.000000 0 0 1
10.261136 -31.997020 2.336460 33.683219 -1.260467 1.501375 0.029919 -0.001435 -506298.000000 0 0 1
9.249636 -30.795920 2.354660 32.241106 -1.279016 1.497698 0.026959 -0.003640 141847.000000 0 0 1
8.856936 -30.187520 1.140160 31.480655 -1.285408 1.534571 0.036666 0.002737 370917.000000 0 0 1
7.861136 -31.009420 0.472260 31.993822 -1.322519 1.556035 0.034406 -0.003441 -245973.000000 0 0 1
8.354736 -31.723220 -0.782440 32.814273 -1.313280 1.594643 0.043206 -0.006606 -768724.000000 0 0 1
9.440136 -32.574920 -0.758040 33.923682 -1.288726 1.593144 0.045254 -0.006630 -695445.000000 0 0 1
9.639236 -33.288620 -1.925240 34.709561 -1.288940 1.626292 0.050167 0.003028 -262953.000000 0 0 1
10.865436 -34.198120 -1.814140 35.928543 -1.263163 1.621311 0.039078 0.009115 -422956.000000 0 0 1
10.770336 33.498897 -0.819340 35.197267 1.259721 1.594077 0.030874 0.005368 208591.000000 0 0 1
11.859436 32.584397 -0.907040 34.687345 1.221739 1.596948 0.033112 0.001394 64286.500000 0 0 1
12.132736 31.629197 0.241260 33.877243 1.204514 1.563675 0.022087 -0.000075 -243058.000000 0 0 1
12.492636 32.252997 1.480860 34.619572 1.201258 1.528008 0.012160 0.001240 2290930.000000 0 0 1
13.886536 32.714097 1.703760 35.580203 1.169365 1.522893 0.026419 -0.000345 2344230.000000 0 0 1
15.034336 31.680697 1.838660 35.115218 1.127708 1.518412 0.029961 -0.006502 -239203.000000 0 0 1
15.455936 31.187597 0.581860 34.812221 1.110691 1.554081 0.032337 -0.005418 -471108.000000 0 0 1
16.430536 30.216997 0.762860 34.403654 1.072763 1.548621 0.037293 -0.003939 -874502.000000 0 0 1
16.963836 29.758097 -0.658240 34.260026 1.052684 1.590011 0.037789 -0.007429 -172891.000000 0 0 1
17.924436 30.548197 -1.314340 35.442986 1.040170 1.607888 0.034545 -0.004031 -323978.000000 0 0 1
17.538436 31.862597 -1.725240 36.411513 1.067616 1.618196 0.041162 -0.003865 -346761.000000 0 0 1
18.640636 32.742797 -2.357040 37.750758 1.053253 1.633274 0.035598 0.007189 71263.400000 0 0 1
19.590736 33.215697 -1.438940 38.589507 1.037908 1.608093 0.027974 0.010430 176666.000000 0 0 1
20.654236 33.903597 -2.078940 39.753910 1.023636 1.623115 0.025130 0.011055 40063.100000 0 0 1
21.839936 -34.234720 -1.228040 40.626432 -1.002941 1.601029 0.025736 0.013395 47057.700000 0 0 1
22.829236 33.686497 -0.707240 40.699561 0.975196 1.588174 0.024764 0.014477 473766.000000 0 0 1
23.581436 32.920597 -1.684140 40.530065 0.949206 1.612361 0.040116 0.010084 -266022.000000 0 0 1
24.363936 33.679597 -2.820540 41.663798 0.944535 1.638546 0.028248 0.006493 -1376910.000000 0 0 1
23.529436 34.310697 -3.734640 41.770873 0.969681 1.660324 0.030573 -0.007494 -340019.000000 0 0 1
24.272736 -33.737820 -4.699740 41.826950 -0.947134 1.683396 0.028949 -0.010304 -240695.000000 0 0 1
23.526836 -33.252620 -5.965640 41.168405 -0.955042 1.716217 0.027143 -0.021666 -380259.000000 0 0 1
22.562536 -32.242620 -5.831440 39.782663 -0.960222 1.717909 0.038852 -0.015150 266019.000000 0 0 1
21.955536 -31.885920 -7.072240 39.354466 -0.967786 1.751484 0.046782 -0.020082 -149715.000000 0 0 1
20.914436 -30.773420 -6.946040 37.850555 -0.973875 1.755355 0.067035 -0.016622 102377.000000 0 0 1
19.725636 -31.099720 -6.242840 37.353264 -1.005558 1.738714 0.069184 -0.007105 -209490.000000 0 0 1
18.941936 -29.931820 -6.264340 35.971555 -1.006582 1.745836 0.072915 -0.010160 246346.000000 0 0 1
17.792636 -29.882520 -5.202640 35.165471 -1.033752 1.719289 0.053666 0.004236 109310.000000 0 0 1
16.616336 -30.487720 -5.673740 35.182311 -1.071787 1.732770 0.047968 -0.000057 -259313.000000 0 0 1
15.723936 -30.679520 -4.583940 34.777688 -1.097181 1.702988 0.015948 0.009524 690876.000000 0 0 1
14.378236 -31.449920 -4.762340 34.907177 -1.141989 1.707652 0.019313 0.008199 681999.000000 0 0 1
14.535036 -32.860220 -4.968240 36.273196 -1.154340 1.708195 0.031786 0.018327 -389435.000000 0 0 1
13.259536 -33.439720 -4.916540 36.307059 -1.193293 1.706629 0.043896 0.010681 -133193.000000 0 0 1
13.321836 33.748197 -4.996740 36.624849 1.194831 1.707653 0.047623 -0.001081 -36653.100000 0 0 1
13.746436 33.165897 -3.764740 36.098677 1.177874 1.675277 0.045256 -0.003718 111680.000000 0 0 1
14.236036 31.812497 -3.805640 35.059701 1.150025 1.679558 0.044195 -0.005804 523991.000000 0 0 1
13.221436 30.688097 -4.286840 33.688910 1.163996 1.698390 0.039843 -0.012153 327782.000000 0 0 1
12.216136 30.349697 -3.379740 32.890131 1.188126 1.673737 0.031660 -0.012320 -386451.000000 0 0 1
12.239336 28.968097 -3.112240 31.601235 1.171036 1.669441 0.020803 -0.012857 976436.000000 0 0 1
10.947236 28.443397 -2.324540 30.565868 1.203394 1.646920 0.017796 -0.007217 1028360.000000 0 0 1
10.840736 28.969397 -0.993640 30.947292 1.212715 1.602909 0.024728 -0.003530 246905.000000 0 0 1
9.805336 28.249497 -0.307740 29.904405 1.236709 1.581087 0.010452 0.001117 288976.000000 0 0 1
8.773036 29.135297 0.443660 30.430717 1.278318 1.556216 -0.000768 0.009839 207630.000000 0 0 1
7.747336 28.373197 1.070760 29.431379 1.304243 1.534407 -0.001818 0.001475 -114203.000000 0 0 1
6.677036 29.295997 1.166160 30.069889 1.346708 1.532005 0.026996 0.003348 415624.000000 0 0 1
5.347436 28.829697 1.838060 29.378989 1.387397 1.508192 0.031948 -0.006747 565874.000000 0 0 1
4.745736 27.769297 1.171060 28.196228 1.401533 1.529252 0.028516 -0.010984 259823.000000 0 0 1
3.428636 27.513397 1.665660 27.776195 1.446819 1.510793 0.040356 -0.009951 756831.000000 0 0 1
2.727736 26.334297 0.927260 26.491425 1.467583 1.535787 0.036806 -0.016370 -658938.000000 0 0 1
1.437136 26.061997 1.338960 26.135912 1.515709 1.519543 0.023729 -0.010331 -911424.000000 0 0 1
1.028236 24.929297 0.596460 24.957622 1.529574 1.546895 0.010521 -0.004741 434963.000000 0 1 0
-0.321564 24.354397 1.159260 24.384092 -1.557594 1.523237 0.008477 -0.002205 -108246.000000 0 1 0
-1.374064 25.195097 0.889960 25.248228 -1.516313 1.535541 0.015124 -0.010769 -867005.000000 0 0 1
-2.577764 24.482997 1.094060 24.642626 -1.465895 1.526385 0.022195 -0.004360 -521532.000000 0 1 0
-3.779264 25.224397 1.659060 25.559842 -1.422077 1.505842 0.039588 -0.020593 -848255.000000 0 0 1
-4.881564 24.306297 1.688760 24.849098 -1.372598 1.502783 0.030988 -0.024056 -404938.000000 0 1 0
-5.978664 24.899697 2.309160 25.711312 -1.335147 1.480864 0.031708 -0.023250 -423784.000000 0 0 1
-6.927164 25.601597 1.285160 26.553324 -1.306548 1.522378 0.041361 -0.021308 -830743.000000 0 0 1
-6.410864 26.662397 0.549860 27.427814 -1.334830 1.550747 0.035917 -0.022982 -267241.000000 0 0 1
-7.232564 26.844897 -0.587240 27.808333 -1.307625 1.591915 0.029603 -0.018095 -392560.000000 0 0 1
-6.956064 28.044497 -1.458940 28.931111 -1.327666 1.621246 0.028673 -0.013152 -149772.000000 0 0 1
-7.322564 29.233497 -0.875440 30.149357 -1.325361 1.599837 0.034747 -0.025087 -197398.000000 0 0 1
-7.250964 30.229997 -1.847640 31.142302 -1.335384 1.630160 0.032936 -0.019657 -35367.300000 0 0 1
-7.548364 31.677597 -1.358540 32.592846 -1.336872 1.612491 0.027401 -0.020241 -498580.000000 0 0 1
-7.851564 32.672397 -2.343540 33.684192 -1.334957 1.640426 0.017826 -0.007844 598867.000000 0 0 1
-6.914664 32.839497 -3.455640 33.737022 -1.363268 1.673405 0.007490 -0.010003 1188970.000000 0 0 1
-5.443264 33.261397 -3.154640 33.851166 -1.408583 1.664123 0.017622 -0.013813 41954.100000 0 0 1
-5.336964 -34.080320 -2.866540 34.614570 1.415458 1.653704 0.017580 -0.008259 443247.000000 0 0 1
-4.459364 -33.722020 -1.772540 34.061745 1.439320 1.622859 0.024561 -0.008854 421260.000000 0 0 1
-4.104164 -32.228720 -1.711540 32.534043 1.444133 1.623428 0.031190 -0.007852 550926.000000 0 0 1
-5.205664 -31.423620 -1.270040 31.877199 1.406626 1.610649 0.023713 0.000737 338874.000000 0 0 1
-5.133764 -30.150320 -1.870040 30.641384 1.402142 1.631864 0.030152 0.007620 540370.000000 0 0 1
-6.448064 -29.333220 -1.637840 30.078196 1.354417 1.625276 0.044382 0.005788 511014.000000 0 0 1
-6.794964 -29.166820 -0.296740 29.949340 1.341910 1.580705 0.029945 0.004605 1070200.000000 0 0 1
-8.053964 -28.438020 -0.139540 29.556840 1.294812 1.575517 0.027098 0.002142 1179700.000000 0 0 1
-8.247564 -27.888820 1.317360 29.112610 1.283261 1.525530 0.020466 0.006589 582147.000000 0 0 1
-7.227064 -27.002120 1.850060 28.013705 1.309278 1.504707 0.044434 -0.003399 363134.000000 0 0 1
-7.483764 -26.575220 3.170760 27.790336 1.296298 1.456452 0.032987 -0.001082 121303.000000 0 0 1
-8.541364 -25.482320 3.420160 27.092454 1.247378 1.444218 0.032098 -0.002239 234249.000000 0 0 1
-8.023264 -24.238120 2.977260 25.704539 1.251131 1.454710 0.039153 -0.009123 -290120.000000 0 0 1
-8.880064 -23.183020 3.347660 25.050245 1.204994 1.436757 0.039606 -0.014619 -17010.500000 0 0 1
-8.088264 -21.921220 3.733760 23.662225 1.217323 1.412340 0.011974 0.002890 648540.000000 0 1 0
-7.482264 -21.861520 5.050360 23.651987 1.241036 1.355612 0.009025 0.001078 -157273.000000 0 1 0
-6.807964 -20.648720 5.271260 22.371951 1.252316 1.332941 -0.005576 0.002559 -101215.000000 0 1 0
-7.656664 -19.591520 6.000860 21.873786 1.198233 1.292893 -0.002808 0.001466 315021.000000 0 1 0
-8.209764 -20.006020 7.267060 22.813400 1.181387 1.246604 -0.000120 -0.000711 -83462.300000 0 1 0
-9.110164 -19.107720 7.830160 22.570146 1.125897 1.216505 -0.001493 -0.001192 -901083.000000 0 1 0
-27.127094 28.906797 -5.347740 40.001006 -0.817149 1.704888 0.044203 -0.016399 -155860.000000 0 0 1
-26.419804 29.880397 -4.607040 40.150579 -0.846788 1.685794 0.040671 -0.024237 47075.800000 0 0 1
-25.099164 29.430297 -4.340340 38.922346 -0.864659 1.682542 0.027957 -0.017398 21282.300000 0 0 1
-24.265964 30.506397 -3.709440 39.156574 -0.898843 1.665672 0.019418 -0.011504 -762840.000000 0 0 1
-24.724764 30.824497 -2.426240 39.589775 -0.894768 1.632119 0.011360 -0.014685 239101.000000 0 0 1
-23.945664 31.724797 -1.615340 39.780233 -0.924235 1.611414 0.010453 -0.009357 3777.960000 0 0 1
-22.743164 31.122297 -0.890840 38.557003 -0.939718 1.593903 0.018263 -0.009823 -325137.000000 0 0 1
-21.690164 30.656697 -1.663740 37.590748 -0.955043 1.615070 0.027573 -0.025003 59263.300000 0 0 1
-20.427664 30.800997 -0.999740 36.972833 -0.985188 1.597839 0.026575 -0.020660 936247.000000 0 0 1
-19.284064 29.946597 -1.592740 35.654041 -0.998687 1.615483 0.048193 -0.027760 -82478.100000 0 0 1
-18.037764 30.060697 -0.970440 35.070618 -1.030344 1.598471 0.043012 -0.021913 -665929.000000 0 0 1
-17.016364 29.492997 -1.748140 34.094714 -1.047488 1.622092 0.038219 -0.021431 227608.000000 0 0 1
-15.607664 29.836397 -1.191640 33.693171 -1.088834 1.606171 0.042585 -0.023950 42333.500000 0 0 1
-15.368264 29.260297 0.058360 33.050748 -1.087172 1.569031 0.037601 -0.025550 -21681.500000 0 0 1
-14.220264 29.772197 0.715160 33.001683 -1.125200 1.549124 0.042871 -0.027850 128823.000000 0 0 1
-13.869164 28.940097 1.929260 32.149728 -1.123897 1.510752 0.034861 -0.030315 -278078.000000 0 0 1
-14.788964 29.003897 3.010560 32.695611 -1.099263 1.478587 0.025331 -0.020363 -209601.000000 0 0 1
-14.381164 28.365597 4.252160 32.085914 -1.101570 1.437881 0.022584 -0.026371 130408.000000 0 0 1
-13.196164 29.004397 5.023460 32.258781 -1.143816 1.414436 0.037699 -0.022287 -11444.800000 0 0 1
-13.408064 30.211197 5.725560 33.545114 -1.153101 1.399274 0.025130 -0.021051 -339152.000000 0 0 1
-13.559664 31.320297 4.829060 34.469484 -1.162224 1.430237 0.026828 -0.029189 -51278.100000 0 0 1
-13.310164 32.707297 5.592460 35.751970 -1.184315 1.413727 0.030652 -0.013055 -8988.860000 0 0 1
-14.348464 33.030897 6.489960 36.592871 -1.160995 1.392497 0.030831 -0.011375 -257394.000000 0 0 1
-14.033364 34.149397 7.315560 37.638200 -1.180894 1.375186 0.042833 -0.013695 -793503.000000 0 0 1
-15.092464 -34.163820 8.255460 38.250513 1.154810 1.353258 0.036450 -0.010360 -755193.000000 0 0 1
-15.358164 33.668097 9.280260 38.151504 -1.142828 1.325084 0.032383 -0.016348 154342.000000 0 0 1
-16.340264 34.222697 10.161260 39.261285 -1.125336 1.309005 0.047962 -0.016349 -447544.000000 0 0 1
-16.673664 33.386997 11.448660 39.035554 -1.107624 1.273132 0.052633 -0.014399 692242.000000 0 0 1
-15.799764 33.590897 12.569860 39.191611 -1.131142 1.244298 0.063216 -0.023400 963460.000000 0 0 1
-14.380864 33.428997 12.391260 38.442821 -1.164537 1.242607 0.058558 -0.017999 439680.000000 0 0 1
-13.685264 33.928297 13.686060 39.060518 -1.187398 1.212819 0.071784 -0.017516 -206315.000000 0 0 1
-13.818564 33.168697 14.849360 38.879541 -1.176050 1.178910 0.064666 -0.019967 755.710000 0 0 1
-13.248164 31.833797 14.860360 37.546436 -1.176431 1.163873 0.043348 -0.016824 -318629.000000 0 0 1
-14.151464 30.671297 14.441560 36.736237 -1.138510 1.166780 0.039330 -0.027792 -213497.000000 0 0 1
-14.112864 30.474597 13.024260 36.020902 -1.137100 1.200840 0.035206 -0.019717 -162889.000000 0 0 1
-15.151664 29.674097 12.562360 35.608116 -1.098703 1.210240 0.013682 -0.020832 -366649.000000 0 0 1
-15.303464 29.591497 11.041460 35.096532 -1.093517 1.250758 0.007667 -0.009088 124499.000000 0 0 1
-14.255764 28.862197 10.439960 33.841484 -1.112020 1.257185 -0.005665 -0.004870 380428.000000 0 0 1
-14.612564 28.767997 9.076660 33.518808 -1.100813 1.296580 0.002979 -0.001225 -272819.000000 0 0 1
-14.114564 27.429597 8.475660 31.991258 -1.095557 1.302658 0.010325 -0.001018 -725318.000000 0 0 1
-12.753764 27.456897 8.224460 31.371667 -1.135949 1.305534 0.030141 -0.008444 -908182.000000 0 0 1
-12.259064 26.153397 7.993960 29.969789 -1.132470 1.300794 0.032156 -0.012263 158328.000000 0 0 1
-10.967264 26.070997 7.156360 29.175183 -1.172600 1.322978 0.055017 -0.020006 92630.000000 0 0 1
-11.282664 26.455597 5.804060 29.340829 -1.167677 1.371668 0.057815 -0.021918 822286.000000 0 0 1
-10.144964 26.249397 4.965560 28.576353 -1.201996 1.396145 0.070274 -0.017803 258032.000000 0 0 1
-10.400164 26.553597 3.486860 28.730039 -1.197494 1.449130 0.058038 -0.023629 -107290.000000 0 0 1
-10.216664 27.893497 3.137060 29.870865 -1.219698 1.465582 0.053520 -0.021961 90690.200000 0 0 1
-10.178164 28.091497 1.723160 29.928190 -1.223187 1.513188 0.053873 -0.024621 -15759.700000 0 0 1
-9.732264 29.569197 1.356260 31.159170 -1.252829 1.527256 0.052634 -0.023485 493675.000000 0 0 1
-10.690264 30.564097 1.740460 32.426455 -1.234331 1.517096 0.043790 -0.029584 236283.000000 0 0 1
-10.238564 31.859897 1.385460 33.493294 -1.259858 1.529419 0.038266 -0.023134 -65467.800000 0 0 1
-10.826664 32.970897 2.292460 34.778616 -1.253519 1.504833 0.032049 -0.016433 1256290.000000 0 0 1
-12.188064 33.387797 2.029260 35.600728 -1.220781 1.513765 0.048945 -0.022365 738209.000000 0 0 1
-12.359964 34.276597 0.950460 36.449379 -1.224714 1.544717 0.045432 -0.020222 -904953.000000 0 0 1
-13.782464 -34.070520 0.618860 36.757852 1.186393 1.553959 0.057975 -0.022293 -545907.000000 0 0 1
-14.490864 33.627197 0.007260 36.616576 -1.163916 1.570598 0.053508 -0.025097 -187382.000000 0 0 1
-14.691864 33.682197 -1.420940 36.774453 -1.159485 1.609445 0.044915 -0.021157 37512.800000 0 0 1
-13.404864 33.453397 -2.258240 36.109830 -1.189684 1.633375 0.043222 -0.021418 119452.000000 0 0 1
-12.938664 32.137497 -2.083240 34.706882 -1.188048 1.630856 0.038452 -0.020226 140164.000000 0 0 1
-11.520164 32.092497 -2.194640 34.168099 -1.226155 1.635071 0.028492 -0.013953 284317.000000 0 0 1
-11.209564 30.577597 -2.165540 32.639445 -1.219416 1.637192 0.013773 -0.014691 -170035.000000 0 0 1
-11.401764 29.861597 -3.372940 32.141748 -1.206060 1.675929 0.015023 -0.015580 -463293.000000 0 0 1
-10.435364 30.141297 -4.338440 32.190320 -1.237498 1.705982 0.009493 -0.006365 -374834.000000 0 0 1
-10.745264 29.526197 -5.719240 31.936918 -1.221772 1.750847 0.014186 -0.000856 -196906.000000 0 0 1
-10.811864 28.078597 -5.701140 30.623635 -1.203238 1.758057 0.014468 0.008024 49704.100000 0 0 1
-10.837064 27.555897 -7.015740 30.430085 -1.196100 1.803442 0.010054 0.010564 -40294.600000 0 0 1
-11.323664 26.051497 -7.085940 29.276551 -1.160768 1.815259 0.024173 0.011808 303830.000000 0 0 1
-10.586864 25.038997 -6.363840 27.920092 -1.170778 1.800748 0.014899 0.010131 102019.000000 0 0 1
-11.127864 23.744997 -6.594540 27.039642 -1.132550 1.817165 0.031053 0.005137 -293164.000000 0 0 1
-10.604664 22.536797 -5.754940 25.563362 -1.130986 1.797867 0.040270 -0.005047 -90280.200000 0 0 1
-9.271864 22.245997 -6.163040 24.876393 -1.175902 1.821150 0.052884 -0.006548 439481.000000 0 1 0
-8.703064 21.099597 -5.490240 23.475073 -1.179582 1.806858 0.056242 -0.011788 -15365.400000 0 1 0
-8.492764 21.016997 -3.955940 23.010665 -1.186769 1.743572 0.040423 -0.018161 42695.600000 0 1 0
-9.628064 20.749597 -3.123840 23.086875 -1.136351 1.706521 0.050787 -0.023677 199650.000000 0 1 0
-10.138264 19.454697 -3.104040 22.156370 -1.090395 1.711356 0.057325 -0.027709 -799942.000000 0 1 0
-11.443364 19.328497 -2.355240 22.585140 -1.036246 1.675269 0.055969 -0.027227 -760988.000000 0 1 0
-11.343864 19.340097 -0.934040 22.440924 -1.040328 1.612431 0.056005 -0.029905 176031.000000 0 1 0
-10.949564 18.118597 -0.338940 21.172893 -1.027201 1.586805 0.050624 -0.025703 -305831.000000 0 1 0
-10.734664 18.246797 1.196560 21.204018 -1.039021 1.514336 0.041791 -0.022568 -919761.000000 0 1 0
-11.865364 18.225197 1.976360 21.836911 -0.993689 1.480167 0.056861 -0.025460 -880197.000000 0 1 0
-11.577864 18.412797 3.297260 21.998863 -1.009473 1.420346 0.049449 -0.019703 31415.500000 0 1 0
-12.782764 18.450597 4.284560 22.851282 -0.964912 1.382182 0.060905 -0.019966 497530.000000 0 1 0
-13.365164 17.148697 4.511860 22.205007 -0.908762 1.366180 0.039686 -0.025923 -65774.100000 0 1 0
-14.630164 17.202397 5.095860 23.150205 -0.866028 1.348857 0.055369 -0.029387 -364247.000000 0 1 0
-15.090264 15.874997 5.739860 22.642385 -0.810735 1.314499 0.038935 -0.024132 -634903.000000 0 1 0
-14.421464 15.462297 6.904460 22.242591 -0.820213 1.255166 0.036446 -0.012143 -86687.000000 0 1 0
-14.869364 16.088097 8.084560 23.351338 -0.824746 1.217264 0.037797 -0.012083 -956820.000000 0 1 0
-13.805764 15.910997 9.139560 22.962808 -0.856123 1.161443 0.025170 -0.001027 648787.000000 0 1 0
-12.579464 16.627897 8.972260 22.698708 -0.923131 1.164428 0.029945 -0.015786 963833.000000 0 1 0
-11.629664 16.185797 7.985160 21.470722 -0.947755 1.189731 0.030884 -0.015730 -64372.000000 0 1 0
-10.469564 17.178897 7.760860 21.562867 -1.023462 1.202617 0.041318 -0.018431 57887.700000 0 1 0
-9.536564 17.237997 8.803560 21.577704 -1.065477 1.150541 0.034619 -0.014235 -222263.000000 0 1 0
-8.842464 18.486897 8.841960 22.318934 -1.124651 1.163461 0.027997 -0.015123 -216215.000000 0 1 0
-7.549064 18.372597 9.659960 22.087452 -1.180940 1.118146 0.020265 -0.015534 -943903.000000 0 1 0
-6.607464 17.611797 8.951260 20.831684 -1.211874 1.126642 0.017719 -0.013292 -331671.000000 0 1 0
-5.291564 17.693097 9.463360 20.750941 -1.280188 1.097250 0.010660 -0.018405 685097.000000 0 1 0
-4.441664 19.000397 9.118660 21.538186 -1.341153 1.133632 0.009677 -0.012166 -1179510.000000 0 1 0
-4.905164 20.249597 9.536160 22.913865 -1.333139 1.141563 0.017324 -0.016118 -105033.000000 0 1 0
-4.425464 21.317797 8.665860 23.433531 -1.366109 1.191996 0.026990 -0.020397 1631330.000000 0 1 0
-2.899264 21.790297 8.766560 23.665912 -1.438520 1.191325 0.029539 -0.017418 1912150.000000 0 1 0
-1.932664 20.714397 8.560960 22.496922 -1.477765 1.180417 0.017721 -0.006206 -247449.000000 0 1 0
-0.717764 21.359097 8.327560 22.936314 -1.537204 1.199232 0.012083 -0.013379 -13737.400000 0 1 0
0.555236 20.458497 8.261260 22.070497 1.543663 1.187141 0.009446 -0.006301 398415.000000 0 1 0
1.018836 20.016797 9.523260 22.190149 1.519941 1.127227 0.007849 -0.003342 -630076.000000 0 1 0
2.170836 19.229497 9.385960 21.507728 1.458381 1.119203 0.002838 -0.015026 -38174.200000 0 1 0
3.014436 19.276797 10.720060 22.262108 1.415676 1.068387 0.003312 -0.011194 -448793.000000 0 1 0
3.564636 18.000197 11.008860 21.398802 1.375293 1.030417 0.011055 -0.011097 617279.000000 0 1 0
4.554136 18.135597 12.059960 22.250454 1.324768 0.997970 0.012513 -0.002917 390178.000000 0 1 0
5.989336 18.564797 11.774260 22.785018 1.258720 1.027741 0.029383 -0.007029 -289074.000000 0 1 0
6.903336 17.697197 11.125260 22.014047 1.198870 1.040984 0.023293 -0.005825 356521.000000 0 1 0
7.614936 16.755697 11.934260 21.935524 1.144233 0.995527 0.027127 -0.005290 520119.000000 0 1 0
8.872536 16.079897 11.288360 21.557181 1.066589 1.019670 0.030232 -0.009705 948522.000000 0 1 0
9.915436 16.945797 10.868360 22.440971 1.041385 1.065223 0.037695 -0.018292 -134449.000000 0 1 0
11.008436 16.309997 10.291560 22.206258 0.977081 1.088908 0.039983 -0.020575 13175.000000 0 1 0
11.973236 17.276997 9.544260 23.085622 0.964773 1.144580 0.047123 -0.014705 539778.000000 0 1 0
13.067336 16.624897 8.907560 22.945307 0.904644 1.172110 0.036440 -0.013755 298525.000000 0 1 0
13.948136 17.592597 8.314060 23.941044 0.900436 1.216136 0.037487 -0.012560 -18084.500000 0 1 0
14.936836 16.980597 7.322860 23.771286 0.849344 1.257649 0.029576 -0.025199 -542298.000000 0 1 0
16.015736 16.384997 7.990460 24.265601 0.796794 1.235243 0.043066 -0.019265 -203968.000000 0 1 0
17.066936 16.180997 7.069160 24.557646 0.758758 1.278805 0.072147 -0.014945 -421066.000000 0 1 0
18.474436 15.994197 7.610160 25.593626 0.713566 1.268885 0.047473 -0.013113 -644516.000000 0 0 1
18.638536 14.853397 8.414660 25.274986 0.672859 1.231393 0.048248 -0.011360 190857.000000 0 0 1
19.525536 15.047597 9.504860 26.420051 0.656594 1.202786 0.037419 -0.000541 -3445.610000 0 0 1
19.612536 13.795097 10.397960 26.135682 0.612992 1.161629 0.031871 -0.001159 21108.000000 0 0 1
20.412536 12.785497 9.807760 26.006398 0.559573 1.184102 0.042530 -0.009723 278137.000000 0 0 1
20.368136 11.563597 10.455960 25.649656 0.516353 1.150922 0.049291 -0.020696 -377124.000000 0 0 1
21.387736 10.637297 9.784260 25.813157 0.461529 1.182036 0.049120 -0.015541 901993.000000 0 0 1
22.788636 10.931897 10.061060 27.203919 0.447283 1.191961 0.041251 -0.015121 2175430.000000 0 0 1
23.782536 10.197897 9.360660 27.517778 0.405083 1.223701 0.057956 -0.015144 249276.000000 0 0 1
24.014136 8.779397 9.990360 27.451117 0.350498 1.198310 0.079247 -0.029326 -1051220.000000 0 0 1
22.972536 7.928997 9.670460 26.155768 0.332349 1.192083 0.079183 -0.025166 61622.800000 0 0 1
23.277536 6.564297 9.990460 26.167594 0.274864 1.179067 0.071540 -0.028692 -19207.200000 0 0 1
24.383136 5.778897 9.254660 26.712950 0.232710 1.217014 0.090453 -0.030551 136967.000000 0 0 1
24.050036 5.657297 7.918960 25.944540 0.231030 1.260620 0.098520 -0.026673 290810.000000 0 0 1
25.099136 5.056197 7.180160 26.591097 0.198789 1.297381 0.105617 -0.031396 -175833.000000 0 0 1
24.767736 4.830697 5.699760 25.870130 0.192622 1.348652 0.110232 -0.037239 -434286.000000 0 0 1
23.827736 3.789297 5.585460 24.765240 0.157708 1.343303 0.111396 -0.032370 290074.000000 0 1 0
23.319336 3.737697 4.292860 24.003967 0.158931 1.390989 0.086691 -0.027345 -372715.000000 0 1 0
22.265836 2.673097 3.987960 22.777549 0.119482 1.394806 0.075172 -0.016757 -420171.000000 0 1 0
22.746336 1.354097 4.236060 23.177005 0.059460 1.386993 0.076147 -0.014073 334484.000000 0 1 0
21.841636 0.331297 3.919560 22.193012 0.015167 1.393253 0.053927 -0.010029 -513590.000000 0 1 0
22.416036 -1.020203 4.342360 22.855537 -0.045481 1.379643 0.057939 -0.011441 -359936.000000 0 1 0
22.292236 -1.342403 5.706760 23.050226 -0.060146 1.320615 0.054327 -0.012808 734517.000000 0 1 0
22.574036 -2.730703 5.818760 23.471297 -0.120382 1.320274 0.049645 -0.011446 -301491.000000 0 1 0
22.240936 -3.254603 7.276360 23.626195 -0.145303 1.257729 0.058298 -0.004957 -98553.300000 0 1 0
22.359236 -4.657403 7.365460 23.997434 -0.205362 1.258834 0.055887 -0.009439 553272.000000 0 1 0
22.283436 -4.980203 8.702760 24.435465 -0.219880 1.206649 0.073757 -0.009216 -224727.000000 0 1 0
22.065236 -6.472603 9.013960 24.698597 -0.285335 1.197208 0.082246 -0.017724 421335.000000 0 1 0
20.705436 -6.842803 8.816060 23.521521 -0.319183 1.186606 0.073421 -0.011998 623890.000000 0 1 0
20.427536 -8.129303 9.335160 23.885456 -0.378745 1.169263 0.074664 -0.015031 -421027.000000 0 1 0
-25.907534 -33.320020 5.203860 42.526512 0.909903 1.448121 0.026880 -0.016260 -363962.000000 0 0 1
-26.790164 -34.277720 5.664360 43.872087 0.907400 1.441324 0.023120 -0.024324 -226373.000000 0 0 1
-26.785884 -34.255520 7.068860 44.055568 0.907163 1.409646 0.021958 -0.019198 -306630.000000 0 0 1
-27.429754 33.272097 7.719060 43.806481 -0.881349 1.393663 0.039636 -0.019728 -493851.000000 0 0 1
-28.808084 33.425497 7.514860 44.762068 -0.859457 1.402113 0.044306 -0.024712 -596192.000000 0 0 1
-29.417944 32.153497 7.789760 44.271246 -0.829798 1.393920 0.046948 -0.019553 1472190.000000 0 0 1
-31.005024 32.159297 7.769560 45.342012 -0.803670 1.398592 0.037663 -0.021552 1587690.000000 0 0 1
-31.666904 32.409797 6.527060 45.779803 -0.796991 1.427734 0.024695 -0.018611 347531.000000 0 0 1
-33.077604 32.340397 6.654160 46.736571 -0.774129 1.427935 0.015555 -0.014110 158168.000000 0 0 1
-33.769074 32.371997 5.291560 47.077566 -0.764279 1.458157 0.011584 -0.006962 -295046.000000 0 0 1
-33.684264 31.053897 4.708460 46.055877 -0.744790 1.468384 0.011855 -0.010366 393386.000000 0 0 1
-34.477600 30.956097 3.527160 46.469622 -0.731632 1.494821 0.020324 0.005175 178636.000000 0 0 1
-34.176126 29.584997 2.784260 45.288318 -0.713517 1.509279 0.036435 -0.005973 116216.000000 0 0 1
-34.490494 28.429097 3.467660 44.831155 -0.689359 1.493370 0.041105 -0.015069 233922.000000 0 0 1
-33.789734 27.400397 2.805360 43.593554 -0.681357 1.506399 0.046453 -0.013568 -176673.000000 0 0 1
-34.193238 26.031497 3.442360 43.112252 -0.650697 1.490865 0.054059 -0.014563 603959.000000 0 0 1
-35.555112 25.648897 3.144460 43.953607 -0.624934 1.499195 0.059021 -0.011438 669306.000000 0 0 1
35.594668 24.801697 4.188160 43.584920 0.608562 1.474556 0.059221 -0.011216 1618810.000000 0 0 1
34.048160 24.396697 4.142260 42.090787 0.621737 1.472224 0.072742 -0.014233 1056890.000000 0 0 1
33.576770 23.585697 3.092560 41.149101 0.612362 1.495570 0.064058 -0.020290 88015.000000 0 0 1
34.043320 22.223997 3.061660 40.770424 0.578352 1.495630 0.059811 -0.019569 -531460.000000 0 0 1
33.125610 21.320397 2.218560 39.456145 0.571879 1.514538 0.069687 -0.024240 476811.000000 0 0 1
31.828430 21.027397 2.760760 38.246859 0.583824 1.498551 0.067136 -0.036063 928774.000000 0 0 1
31.839930 20.010497 3.819860 37.799371 0.561092 1.469567 0.050377 -0.017410 -350102.000000 0 0 1
32.331980 18.585897 3.459660 37.453461 0.521718 1.478292 0.056207 -0.023199 -243324.000000 0 0 1
31.509170 18.073497 2.430760 36.405874 0.520778 1.503978 0.054763 -0.037952 377099.000000 0 0 1
31.744450 16.743797 2.107460 35.951443 0.485370 1.512143 0.048342 -0.038088 -555689.000000 0 0 1
31.043820 15.676297 2.978660 34.904691 0.467618 1.485355 0.062761 -0.034375 -264261.000000 0 0 1
29.645370 15.721797 2.813960 33.674044 0.487615 1.487134 0.058391 -0.024714 -212959.000000 0 0 1
28.967720 14.821497 3.641060 32.742372 0.472929 1.459363 0.056768 -0.033297 512352.000000 0 0 1
27.445710 15.193497 3.714760 31.589695 0.505590 1.452930 0.036260 -0.022944 309112.000000 0 0 1
26.743870 14.977697 2.555760 30.758705 0.510520 1.487610 0.035437 -0.018244 -371620.000000 0 0 1
25.381710 15.296297 2.661360 29.753836 0.542366 1.481231 0.008962 -0.003612 -111746.000000 0 0 1
24.582310 14.976997 1.360360 28.817547 0.547200 1.523573 0.007402 -0.013951 -476136.000000 0 0 1
25.173110 15.473097 0.182460 29.548866 0.551135 1.564621 0.014551 -0.012433 168480.000000 0 0 1
26.101310 14.592897 -0.402540 29.906405 0.509793 1.584257 0.024143 -0.012501 -895886.000000 0 0 1
26.875060 15.226497 -1.576140 30.928939 0.515473 1.621778 0.035649 -0.016296 105752.000000 0 0 1
27.689420 16.348497 -1.381940 32.185200 0.533349 1.613747 0.040412 -0.019487 672393.000000 0 0 1
28.593820 16.410097 -0.268640 32.969228 0.521010 1.578945 0.054718 -0.022361 -678282.000000 0 0 1
29.189320 17.794497 -0.219840 34.186384 0.547466 1.577227 0.064457 -0.017448 -177223.000000 0 0 1
30.040880 18.053397 -1.334340 35.073638 0.541126 1.608849 0.055197 -0.022907 122889.000000 0 0 1
30.704470 19.265897 -1.261140 36.270232 0.560368 1.605574 0.039091 -0.013381 -121692.000000 0 0 1
30.057460 20.310797 -2.175340 36.341595 0.594253 1.630690 0.028262 -0.004426 -352330.000000 0 0 1
30.868830 21.460697 -2.342540 37.668736 0.607512 1.633024 0.011288 0.006288 -31024.200000 0 0 1
30.332410 22.526197 -3.053840 37.905285 0.638777 1.651449 0.021371 0.006802 -760524.000000 0 0 1
31.328520 23.689297 -3.251640 39.411066 0.647430 1.653396 0.015143 0.008343 5760.000000 0 0 1
31.599610 24.513497 -2.142140 40.050414 0.659780 1.624308 0.026090 0.010064 -147714.000000 0 0 1
32.501070 23.973297 -1.229640 40.404833 0.635528 1.601234 0.030644 0.016148 -721328.000000 0 0 1
32.501600 24.795097 0.029760 40.879723 0.651699 1.570068 0.039422 -0.008131 -159777.000000 0 0 1
33.126350 26.073997 -0.115640 42.157108 0.666830 1.573539 0.059594 -0.002858 736889.000000 0 0 1
34.373420 26.132497 0.624060 43.183664 0.650031 1.556345 0.053652 -0.009385 894730.000000 0 0 1
35.168200 27.412997 0.274360 44.590918 0.662104 1.564643 0.044903 -0.004903 -582167.000000 0 0 1
35.699471 27.464997 -1.005540 45.053184 0.655764 1.593117 0.044693 -0.008520 -351249.000000 0 0 1
34.820880 27.767597 -2.069040 44.584909 0.673179 1.617220 0.028538 -0.010228 -246775.000000 0 0 1
35.332260 27.360297 -3.498340 44.824021 0.658917 1.648922 0.024294 -0.001907 32432.800000 0 0 1
-35.214244 28.124397 -4.017940 45.245647 -0.673927 1.659716 0.018281 -0.000281 -103203.000000 0 0 1
-34.857391 27.817397 -5.352940 44.916581 -0.673541 1.690255 0.016792 0.001377 140848.000000 0 0 1
35.732896 28.016097 -6.546840 45.875949 0.664935 1.713993 0.005956 0.002392 379903.000000 0 0 1
34.591150 27.213297 -6.404140 44.476108 0.666586 1.715289 -0.001905 0.013427 -139375.000000 0 0 1
33.599210 27.271997 -7.404740 43.903291 0.681826 1.740267 -0.007443 0.002507 955429.000000 0 0 1
32.315070 26.392097 -7.171440 42.334810 0.684848 1.741015 -0.007778 0.014172 276927.000000 0 0 1
32.494980 24.983497 -7.269440 41.628639 0.655451 1.746322 -0.016651 0.013782 496236.000000 0 0 1
33.564210 24.331897 -6.525340 41.966385 0.627266 1.726919 -0.011862 0.011775 601052.000000 0 0 1
33.548990 22.795497 -6.682540 41.107490 0.596813 1.734084 -0.014160 0.012149 7256.620000 0 0 1
32.553290 22.018497 -6.042540 39.762334 0.594699 1.723354 -0.002492 0.010509 258842.000000 0 0 1
32.703450 20.703497 -6.521040 39.251425 0.564380 1.737705 0.014512 0.008373 108125.000000 0 0 1
31.611350 19.772197 -5.934240 37.754900 0.558943 1.728629 0.024549 -0.003592 -69494.500000 0 0 1
30.338440 19.936497 -6.486640 36.877654 0.581376 1.747612 0.018021 -0.008104 -140021.000000 0 0 1
29.365310 19.146897 -5.800040 35.532599 0.577797 1.734762 0.054037 -0.023642 16559.400000 0 0 1
28.082020 19.009497 -6.614240 34.550094 0.595073 1.763425 0.044476 -0.029680 -394541.000000 0 0 1
28.145570 17.805697 -7.415040 34.120357 0.564066 1.789864 0.046451 -0.028601 55675.900000 0 0 1
27.021560 17.752197 -8.260840 33.369847 0.581255 1.820951 0.052690 -0.030740 -167356.000000 0 0 1
27.133550 16.634797 -9.261340 33.146922 0.549975 1.853968 0.041721 -0.022672 -219851.000000 0 0 1
26.237810 16.781697 -10.324940 32.812382 0.569029 1.890901 0.033243 -0.019546 -90256.300000 0 0 1
26.382110 15.608697 -11.135040 32.613437 0.534249 1.919229 0.023027 -0.004858 -240441.000000 0 0 1
25.779710 15.657297 -12.507640 32.652495 0.545806 1.963896 0.024261 -0.005439 -204019.000000 0 0 1
24.355310 15.627997 -12.541440 31.538915 0.570495 1.979750 0.023816 -0.007738 460303.000000 0 0 1
23.818310 15.830697 -13.818240 31.762661 0.586601 2.020886 0.014698 -0.004966 -284221.000000 0 0 1
23.614510 14.533797 -14.577540 31.327001 0.551710 2.054809 0.015446 -0.001729 316982.000000 0 0 1
24.832810 13.832297 -14.935640 32.110345 0.508215 2.054583 0.019994 -0.006179 1031890.000000 0 0 1
25.235010 14.134397 -16.266740 33.184239 0.510573 2.083109 0.028826 -0.007629 242516.000000 0 0 1
26.615060 13.502097 -16.655940 34.177308 0.469479 2.079836 0.032895 -0.004203 555915.000000 0 0 1
26.566040 12.092397 -16.948540 33.752534 0.427155 2.096869 0.031428 -0.003863 248948.000000 0 0 1
27.773220 11.765697 -17.619240 34.931662 0.400714 2.099474 0.030886 -0.005980 272148.000000 0 0 1
27.889280 10.353197 -18.175740 34.861987 0.355457 2.119243 0.023672 -0.004936 43655.500000 0 0 1
27.015440 10.218597 -19.303740 34.740295 0.361617 2.159951 0.025343 -0.008249 349708.000000 0 0 1
27.226700 8.992597 -20.002340 34.960744 0.319005 2.179906 0.018736 -0.003956 587278.000000 0 0 1
28.595120 8.852097 -20.775040 36.436833 0.300210 2.177504 0.021766 -0.009307 3192.250000 0 0 1
28.755100 9.859997 -21.751540 37.379203 0.330332 2.191878 0.028210 -0.014605 427114.000000 0 0 1
29.409290 9.429497 -22.965040 38.486554 0.310274 2.210182 0.021947 -0.009236 89847.500000 0 0 1
30.838850 8.840297 -22.916440 39.425230 0.279175 2.191077 0.026885 -0.013141 -216823.000000 0 0 1
31.902730 9.753697 -22.681540 40.340687 0.296708 2.167900 0.025701 -0.010304 125535.000000 0 0 1
33.130740 9.108197 -22.484240 41.062711 0.268289 2.150240 0.024962 -0.008210 195290.000000 0 0 1
34.357150 10.062797 -22.489640 42.278334 0.284919 2.131689 0.035226 -0.008671 138189.000000 0 0 1
34.231870 10.988197 -21.431640 41.855425 0.310604 2.108354 0.027106 -0.005788 318683.000000 0 0 1
35.343520 11.858297 -21.358940 42.964962 0.323713 2.091078 0.002996 -0.002125 -83622.700000 0 0 1
35.336280 12.740297 -20.064940 42.586027 0.346037 2.061405 -0.003143 0.004516 -40020.100000 0 0 1
35.753760 11.978597 -18.893040 42.175409 0.323277 2.035282 0.003966 0.003662 411489.000000 0 0 1
35.434090 12.684797 -17.661940 41.574306 0.343769 2.009568 -0.005220 0.005708 -62682.100000 0 0 1
-35.689359 11.912597 -16.398940 41.043459 -0.322158 1.981823 -0.006254 0.001776 93795.900000 0 0 1
35.139080 10.706597 -16.075240 40.097375 0.295756 1.983301 -0.008124 -0.003818 702383.000000 0 0 1
35.767962 9.809397 -15.196340 40.081169 0.267670 1.959662 -0.012790 -0.008291 -96717.700000 0 0 1
34.860250 8.595497 -14.921540 38.881512 0.241748 1.964671 0.030435 -0.003475 -519395.000000 0 0 1
33.848970 8.720497 -13.983540 37.647566 0.252146 1.951348 0.032382 -0.002605 76763.200000 0 0 1
34.273530 8.430197 -12.663240 37.498010 0.241180 1.915273 0.032515 -0.006468 -282403.000000 0 0 1
33.220720 8.835097 -11.583040 36.274536 0.259935 1.895804 0.047115 -0.009393 34998.500000 0 0 1
33.163470 10.266297 -11.460840 36.559041 0.300210 1.889661 0.040722 -0.006046 780976.000000 0 0 1
32.076920 10.736897 -10.636740 35.459131 0.323001 1.875459 0.038103 -0.006025 408079.000000 0 0 1
32.293240 10.624897 -9.076840 35.187083 0.317857 1.831706 0.054004 -0.008147 513740.000000 0 0 1
33.458580 11.378197 -8.680340 36.390771 0.327800 1.811650 0.051118 -0.011172 732233.000000 0 0 1
33.181220 12.711897 -8.225440 36.472504 0.365858 1.798278 0.060532 -0.014836 -563140.000000 0 0 1
33.048200 12.807697 -6.661040 36.063695 0.369724 1.756565 0.061051 -0.019128 297871.000000 0 0 1
34.278210 12.780497 -5.926640 37.060246 0.356881 1.731405 0.064922 -0.018735 693094.000000 0 0 1
34.089310 12.926197 -4.491240 36.733348 0.362436 1.693369 0.067298 -0.017820 -261463.000000 0 0 1
35.431930 12.823897 -3.776940 37.870031 0.347264 1.670697 0.074780 -0.019886 -419165.000000 0 0 1
-35.436009 13.990097 -3.785140 38.285256 -0.376015 1.669825 0.074564 -0.014047 -112265.000000 0 0 1
-34.067002 13.761797 -3.489940 36.907010 -0.383918 1.665498 0.074912 -0.026927 465259.000000 0 0 1
-33.188714 15.024697 -3.418840 36.591266 -0.425101 1.664366 0.066612 -0.028945 152139.000000 0 0 1
-33.647424 15.964897 -2.441740 37.322771 -0.443021 1.636265 0.084406 -0.027029 -189363.000000 0 0 1
-32.749634 17.007997 -2.234840 36.970326 -0.478995 1.631283 0.072895 -0.024120 -278956.000000 0 0 1
-33.123144 17.983197 -1.063440 37.705026 -0.497391 1.599004 0.075860 -0.021072 -280503.000000 0 0 1
-34.406944 18.539797 -1.040340 39.097880 -0.494234 1.597408 0.054519 -0.012896 -198635.000000 0 0 1
-34.665273 19.473097 -0.036740 39.760333 -0.511817 1.571720 0.033330 -0.009918 79191.200000 0 0 1
35.565304 20.206497 -0.112440 40.904841 0.516673 1.573545 0.028757 -0.007421 306645.000000 0 0 1
35.446220 21.337897 -0.937740 41.383810 0.541874 1.593458 0.043127 -0.000553 49946.500000 0 0 1
35.432760 21.090297 -2.326740 41.300059 0.536898 1.627164 0.011759 0.013371 -190470.000000 0 0 1
35.583483 22.296397 -3.285440 42.120158 0.559745 1.648877 0.042110 -0.018021 -233233.000000 0 0 1
-34.689011 22.612797 -3.546640 41.560134 -0.577690 1.656238 0.052967 -0.002975 -346665.000000 0 0 1
-34.618755 23.800897 -4.333340 42.234095 -0.602297 1.673580 0.052785 -0.009974 -93718.600000 0 0 1
-33.169304 24.109097 -4.733640 41.277823 -0.628520 1.685727 0.046562 -0.020133 -174958.000000 0 0 1
-32.583254 23.195797 -5.629540 40.390657 -0.618663 1.710629 0.023653 -0.009843 -1095800.000000 0 0 1
-31.389894 23.792197 -6.008840 39.843447 -0.648574 1.722185 0.034297 -0.005571 -509018.000000 0 0 1
-30.649544 22.950097 -7.111240 38.944464 -0.642727 1.754426 0.035004 -0.022263 -35150.800000 0 0 1
-31.368454 22.855697 -8.311840 39.691933 -0.629677 1.781767 0.053136 -0.029105 294014.000000 0 0 1
-30.509544 22.527097 -9.443940 39.083122 -0.636011 1.814849 0.034045 -0.029963 348062.000000 0 0 1
-31.260984 22.525697 -10.737740 39.999440 -0.624398 1.842577 0.034181 -0.010809 -428670.000000 0 0 1
-31.783524 23.776697 -11.105740 41.217244 -0.642273 1.843612 0.037255 -0.012673 44923.300000 0 0 1
-32.345434 23.681697 -12.415540 41.966600 -0.631979 1.871135 0.021703 -0.005191 -360372.000000 0 0 1
-32.645804 25.040597 -13.033440 43.158436 -0.654317 1.877576 0.033914 -0.009423 -1224310.000000 0 0 1
-31.652724 25.933297 -13.154840 42.982330 -0.686403 1.881840 0.035062 -0.013707 -1615580.000000 0 0 1
-30.822084 25.764697 -14.290240 42.638380 -0.696261 1.912560 0.028411 -0.013895 -556171.000000 0 0 1
-29.513274 26.557797 -14.132140 42.143414 -0.732737 1.912757 0.026268 -0.008506 -674867.000000 0 0 1
-28.588334 25.929597 -13.254940 40.808459 -0.736669 1.901606 0.027477 -0.011969 -224612.000000 0 0 1
-28.838404 25.593797 -11.874740 40.344832 -0.725860 1.869552 0.039804 -0.015017 -1041390.000000 0 0 1
-29.086584 26.788697 -10.923340 41.024176 -0.744296 1.840313 0.049452 -0.009847 -340179.000000 0 0 1
-27.903104 27.474997 -10.672040 40.587574 -0.777668 1.836863 0.037741 -0.013924 -588226.000000 0 0 1
-28.179644 28.598597 -9.911140 41.354599 -0.792777 1.812814 0.030760 -0.013488 -302200.000000 0 0 1
-26.972214 29.421797 -9.510040 41.031492 -0.828808 1.804697 0.025121 -0.011924 -278582.000000 0 0 1
-27.376024 30.628097 -8.876040 42.027505 -0.841406 1.783595 0.014567 -0.014781 373299.000000 0 0 1
-26.223984 31.393297 -8.472140 41.773360 -0.874877 1.775025 0.025432 -0.019196 265401.000000 0 0 1
34.074370 -25.207693 33.727793 54.166913 -0.636931 0.898654 0.017284 -0.008618 -42399.900000 0 0 1
33.872920 -23.822903 34.062700 53.620639 -0.612939 0.882460 0.016734 -0.014525 -69127.900000 0 0 1
33.155590 -23.638003 -33.492330 52.723661 -0.619359 2.259119 0.023621 -0.010536 -213592.000000 0 0 1
32.656280 -22.199503 -33.314330 51.663286 -0.597035 2.271605 0.016370 -0.009737 463299.000000 0 0 1
31.723280 -21.772703 -34.329137 51.564588 -0.601494 2.299295 0.009553 -0.008783 260076.000000 0 0 1
31.331370 -20.485203 -34.054670 50.606509 -0.579059 2.308960 0.008367 -0.009357 17649.400000 0 0 1
31.102000 -19.626503 33.415116 49.690079 -0.562929 0.833255 -0.001608 -0.006055 -118951.000000 0 0 1
32.338140 -19.369103 32.802632 49.969291 -0.539651 0.854685 0.010361 -0.015280 -198258.000000 0 0 1
32.157430 -18.813003 31.510583 48.794940 -0.529338 0.868758 0.010901 -0.007784 -123233.000000 0 0 1
33.379750 -18.765003 30.547953 48.984798 -0.512137 0.897430 0.001693 -0.009037 123164.000000 0 0 1
34.259660 -17.707903 30.924133 49.432743 -0.477055 0.894922 -0.011316 -0.004684 -216733.000000 0 0 1
35.242580 -17.512003 29.957673 49.458789 -0.461164 0.920139 0.003743 -0.010600 -249201.000000 0 0 1
-35.329406 -16.443103 30.479343 49.472547 0.435605 0.907032 -0.005277 -0.010717 9039.440000 0 0 1
-34.398144 -16.075603 29.450153 48.051731 0.437179 0.911091 0.007314 -0.011715 844452.000000 0 0 1
-33.314424 -15.287203 29.934893 47.324911 0.430211 0.885968 0.011181 -0.012297 759018.000000 0 0 1
-32.100554 -16.008603 30.601723 47.150677 0.462608 0.864501 0.023037 -0.019225 -415641.000000 0 0 1
-31.141844 -15.111403 31.062173 46.508360 0.451774 0.839435 0.023625 -0.016790 -544394.000000 0 0 1
-30.089434 -15.780803 31.706973 46.473002 0.483026 0.819938 0.032901 -0.020165 -563831.000000 0 0 1
-29.117314 -14.771403 32.294283 45.923121 0.469476 0.790873 0.034311 -0.028523 -473545.000000 0 0 1
-29.618544 -13.922903 33.334903 46.715320 0.439421 0.776208 0.044109 -0.030015 528644.000000 0 0 1
-28.589024 -13.028503 33.746807 46.107713 0.427598 0.749672 0.038677 -0.029755 258805.000000 0 0 1
-28.778024 -12.476803 -33.492420 45.886681 0.409093 2.388963 0.034308 -0.019793 -262246.000000 0 0 1
-28.596474 -13.493003 -32.489290 45.336226 0.440868 2.369754 0.040308 -0.017466 137272.000000 0 0 1
-28.940784 -12.913503 -31.277500 44.526504 0.419693 2.349626 0.053508 -0.009891 -711913.000000 0 0 1
-29.256664 -13.891003 -30.139870 44.241656 0.443283 2.320273 0.055037 -0.012768 759458.000000 0 0 1
-30.534994 -14.565303 -30.178320 45.335029 0.445082 2.299192 0.056316 -0.014169 780486.000000 0 0 1
-30.716004 -15.082303 -28.896000 44.787583 0.456441 2.272054 0.057476 -0.009435 -763521.000000 0 0 1
-31.880824 -15.984803 -28.839940 45.865488 0.464761 2.250797 0.051562 -0.010803 -1091770.000000 0 0 1
-31.535424 -17.186303 -29.490740 46.471020 0.498984 2.258294 0.053629 -0.010861 -196683.000000 0 0 1
-32.651704 -18.005503 -29.596700 47.605636 0.503949 2.241715 0.037344 -0.011430 -420127.000000 0 0 1
-32.400334 -19.274503 -30.473830 48.476205 0.536651 2.250593 0.040714 -0.016618 746956.000000 0 0 1
-33.532824 -20.165803 -30.465120 49.590659 0.541430 2.232335 0.016754 -0.014732 734626.000000 0 0 1
-33.158234 -21.363403 -31.112330 50.237840 0.572348 2.238648 0.014604 -0.020320 -371709.000000 0 0 1
-34.349388 -22.243303 -31.454200 51.614065 0.574658 2.226114 0.016377 -0.017560 -358622.000000 0 0 1
-35.019914 -22.727703 -30.275640 51.570895 0.575667 2.198229 0.026973 -0.025964 -345877.000000 0 0 1
35.665455 -23.719903 -30.571110 52.623675 -0.586894 2.190677 0.042542 -0.027767 -264684.000000 0 0 1
-35.392306 -25.131093 -31.049340 53.368986 0.617454 2.191719 0.037934 -0.023625 62577.400000 0 0 1
-34.902242 -25.250983 -32.349900 53.872949 0.626309 2.214904 0.037973 -0.020991 -239978.000000 0 0 1
-34.167457 -26.473443 -32.464800 54.057576 0.659194 2.214997 0.025004 -0.017246 -361760.000000 0 0 1
-34.656481 -27.510603 -33.582720 55.549113 0.670954 2.220009 0.029261 -0.017224 -242436.000000 0 0 1
35.762351 -28.111923 -33.163110 56.294030 -0.666193 2.200747 0.045218 -0.010874 -598009.000000 0 0 1
35.370150 -29.130273 -34.050360 57.088066 -0.688957 2.209871 0.027112 -0.014250 5508.310000 0 0 1
-35.689131 -30.483753 -33.577690 57.709917 0.706896 2.191780 0.032778 -0.016762 -99907.000000 0 0 1
35.332850 -30.912863 -32.363330 57.021053 -0.718776 2.174345 0.039911 -0.020850 -474173.000000 0 0 1
-35.384842 -31.632513 -31.611280 57.026099 0.729466 2.158354 0.027451 -0.022399 -635727.000000 0 0 1
35.605109 -32.195433 -30.321790 56.777465 -0.735151 2.134176 0.017689 -0.015786 58459.100000 0 0 1
34.629970 -33.201103 -30.474750 56.835362 -0.764336 2.136717 0.030207 -0.013327 247525.000000 0 0 1
34.058810 -33.556893 -29.227460 56.038486 -0.777975 2.119475 0.022671 -0.012532 629473.000000 0 0 1
32.973990 34.041085 -29.207340 55.669993 0.801320 2.123102 0.018326 -0.018087 331128.000000 0 0 1
31.837380 -34.350863 -29.921090 55.577623 -0.823355 2.139293 0.025939 -0.018109 -1110930.000000 0 0 1
30.678860 33.799670 -29.453300 54.324092 0.833761 2.143823 0.020110 -0.015509 -830530.000000 0 0 1
29.459680 34.194582 -30.255440 54.337223 0.859646 2.161335 0.015152 -0.009263 -748199.000000 0 0 1
29.493560 33.834462 -31.600070 54.892671 0.853837 2.184220 0.016346 -0.003571 71301.200000 0 0 1
28.246230 34.201411 -32.166580 54.793018 0.880473 2.198214 0.020479 0.007235 228442.000000 0 0 1
28.039620 33.513116 -33.523190 55.074073 0.874089 2.225208 0.020676 0.001395 -49982.700000 0 0 1
27.762600 32.146575 -33.352210 54.004945 0.858445 2.236455 0.016097 -0.002334 80225.300000 0 0 1
27.669910 31.584445 34.115577 54.102437 0.851366 0.888504 0.023117 0.001487 -22963.200000 0 0 1
27.656390 30.092525 34.074991 53.212226 0.827558 0.875829 0.022917 -0.013668 -879105.000000 0 0 1
28.903260 29.539265 34.316653 53.717774 0.796280 0.877817 0.028705 -0.013573 -960743.000000 0 0 1
28.812040 28.127175 -34.241888 52.856206 0.773371 2.275530 0.026301 -0.011835 673417.000000 0 0 1
30.184970 27.364885 -34.172798 53.176587 0.736435 2.268721 0.040107 -0.017490 527171.000000 0 0 1
30.836110 27.675135 -32.977230 52.955419 0.731427 2.243031 0.044106 -0.010524 -1470650.000000 0 0 1
32.036980 27.041225 -32.861140 53.267724 0.701037 2.235601 0.047049 -0.017507 -754440.000000 0 0 1
32.782690 27.237045 -31.474020 52.982783 0.693263 2.206871 0.040571 -0.014057 -2203.390000 0 0 1
33.466930 28.477685 -31.226940 53.908587 0.705028 2.188614 0.026256 -0.011104 -40650.000000 0 0 1
32.797210 29.704705 -31.252730 54.173421 0.735960 2.185727 0.022889 -0.008109 -622252.000000 0 0 1
31.809650 29.906195 -30.097640 53.029258 0.754566 2.174344 0.015959 -0.007361 20124.200000 0 0 1
32.362070 30.078445 -28.780560 52.728901 0.748842 2.148165 0.009277 -0.004757 29022.300000 0 0 1
31.297530 30.382305 -27.915110 51.786805 0.770561 2.140092 0.013405 -0.004782 -207160.000000 0 0 1
31.829780 30.766105 -26.508590 51.598386 0.768407 2.110345 0.023115 -0.005677 62260.700000 0 0 1
32.366480 32.082705 -26.594370 52.765040 0.780995 2.099037 0.016360 -0.005059 125825.000000 0 0 1
32.599560 32.603085 -25.330790 52.605526 0.785452 2.073188 0.009794 -0.006084 -28276.800000 0 0 1
33.073140 34.082884 -25.168880 53.748936 0.800433 2.058125 0.012148 -0.009766 71177.600000 0 0 1
31.988700 -33.769013 -25.100340 52.854992 -0.812465 2.065636 0.023254 -0.007285 211994.000000 0 0 1
32.327990 -32.417133 -24.961940 52.144682 -0.786775 2.069976 0.024793 -0.013612 -673249.000000 0 0 1
32.802150 -31.651213 -26.294770 52.623143 -0.767543 2.094026 0.021299 -0.014423 876607.000000 0 0 1
34.152040 -31.808133 -26.754370 53.795125 -0.749878 2.091324 0.019275 -0.015689 342068.000000 0 0 1
35.064600 -31.015083 -26.027580 53.562080 -0.724192 2.078227 0.023338 -0.014504 -358832.000000 0 0 1
-35.095606 -31.374253 -26.494050 54.018330 0.729471 2.083419 0.005220 -0.008435 92797.200000 0 0 1
-34.628921 -32.690413 -26.266290 54.385138 0.756610 2.074838 0.009399 -0.011276 -251777.000000 0 0 1
-34.662218 -33.112063 -24.910440 54.022292 0.762530 2.050047 0.009340 -0.005421 -1016310.000000 0 0 1
-33.567514 -32.667403 -23.943040 52.604243 0.771809 2.043342 -0.002233 -0.003047 -384374.000000 0 0 1
-33.632024 -31.264353 -23.582140 51.620636 0.748930 2.045231 -0.036565 -0.005604 -264874.000000 0 0 1
-33.126504 -30.872263 -22.308640 50.479078 0.750190 2.028555 -0.018690 -0.004390 -154.558000 0 0 1
-32.657414 -29.384343 -22.297740 49.265967 0.732691 2.040474 -0.004315 -0.003364 653079.000000 0 0 1
-33.725634 -28.467343 -22.626640 49.596097 0.701051 2.044537 -0.003740 -0.006973 255776.000000 0 0 1
-33.866774 -28.338003 -24.040540 50.278707 0.696751 2.069338 -0.004374 -0.007996 -585977.000000 0 0 1
-35.104430 -27.586033 -24.479140 50.916976 0.666039 2.072324 0.005463 -0.013829 -447653.000000 0 0 1
-34.996160 -26.217603 -24.068940 49.914004 0.642961 2.073970 0.000941 -0.013394 -382833.000000 0 0 1
35.737400 -25.331493 -24.701440 50.289237 -0.616623 2.084249 0.005295 -0.011911 -228261.000000 0 0 1
-35.375697 -24.963503 -26.094550 50.552368 0.614520 2.113191 0.016830 -0.021485 -493470.000000 0 0 1
-34.186771 -24.251203 -26.049660 49.350187 0.616989 2.126867 0.013392 -0.024511 -963830.000000 0 0 1
-33.824434 -23.819403 -27.318450 49.575740 0.613544 2.154412 0.022355 -0.020106 -281068.000000 0 0 1
-32.778964 -22.671003 -27.256120 48.283858 0.605088 2.170621 0.027309 -0.025185 -383974.000000 0 0 1
-33.070614 -21.422503 -26.579730 47.529687 0.574813 2.164245 0.028873 -0.014004 288464.000000 0 0 1
-34.199045 -20.667503 -27.049360 48.253375 0.543597 2.165869 0.021046 -0.013307 436950.000000 0 0 1
-35.439255 -20.671203 -26.147690 48.651219 0.528039 2.138209 0.013741 -0.018630 -350765.000000 0 0 1
-35.398441 -19.981303 -24.868840 47.652506 0.513884 2.119849 0.002153 -0.018512 -183805.000000 0 0 1
-34.522039 -20.446103 -23.844640 46.673131 0.534711 2.107011 0.007293 -0.019484 -9677.760000 0 0 1
-34.999319 -21.752303 -23.186940 47.283709 0.556083 2.083321 0.008521 -0.009368 1128710.000000 0 0 1
35.406300 -21.449103 -22.435840 47.085422 -0.544673 2.067457 0.002165 -0.000115 861689.000000 0 0 1
34.791410 -22.665903 -21.953740 46.969693 -0.577415 2.057146 0.005995 0.002535 -3347.170000 0 0 1
33.879810 -22.338703 -20.746140 45.576984 -0.582921 2.043381 -0.001246 0.002838 627752.000000 0 0 1
32.671860 -21.662703 -21.135240 44.535620 -0.585487 2.065271 -0.000439 0.005212 -246451.000000 0 0 1
31.747580 -21.501303 -20.106440 43.295309 -0.595299 2.053756 0.004748 0.008105 -317976.000000 0 0 1
30.469870 -20.920303 -20.736740 42.380236 -0.601669 2.082086 -0.004213 0.022918 -580457.000000 0 0 1
30.005060 -21.834303 -21.739440 43.007483 -0.629067 2.100735 -0.005090 0.018855 480294.000000 0 0 1
28.851340 -21.412303 -22.495240 42.390121 -0.638464 2.130189 0.012592 0.019116 456607.000000 0 0 1
28.851800 -20.175503 -23.411740 42.279863 -0.610243 2.157637 -0.012032 0.010298 -675474.000000 0 0 1
29.244620 -18.940503 -22.811540 41.645609 -0.574727 2.150473 -0.011767 0.025442 218156.000000 0 0 1
29.248450 -17.802003 -23.710040 41.647918 -0.546754 2.176447 -0.027595 0.017306 -596516.000000 0 0 1
29.907120 -16.593903 -23.095740 41.269924 -0.506558 2.164731 -0.038647 0.022993 -361415.000000 0 0 1
29.114950 -16.168303 -22.005240 39.916474 -0.506923 2.154697 -0.046250 0.007088 355454.000000 0 0 1
29.752990 -15.306003 -21.043440 39.526453 -0.475129 2.132216 -0.049419 -0.001712 -422835.000000 0 0 1
30.521820 -16.020003 -19.936540 39.820693 -0.483345 2.095155 -0.035598 0.000798 -665092.000000 0 0 1
31.680090 -16.573603 -20.461240 41.194353 -0.482000 2.090589 -0.035728 0.002533 -751422.000000 0 0 1
32.231410 -17.500303 -19.557440 41.564622 -0.497421 2.060689 -0.024898 0.012749 -503646.000000 0 0 1
33.429070 -18.182903 -20.209040 43.087422 -0.498167 2.058982 -0.008747 0.000482 -778766.000000 0 0 1
34.472740 -17.313203 -20.516240 43.692481 -0.465429 2.059589 -0.012838 -0.006407 -354842.000000 0 0 1
35.411340 -17.991503 -21.337540 45.088222 -0.470084 2.063761 -0.002042 -0.002790 76882.500000 0 0 1
-35.152928 -17.001703 -21.899940 44.770455 0.450482 2.081923 0.017024 -0.006518 -23142.500000 0 0 1
-34.215802 -16.483903 -20.986640 43.392156 0.448952 2.075617 0.037115 -0.012795 -49050.600000 0 0 1
-33.482494 -15.377803 -21.524540 42.671537 0.430543 2.099511 0.053760 -0.012102 -308222.000000 0 0 1
-32.262434 -15.027703 -20.638640 41.141827 0.435912 2.096297 0.058307 -0.012556 -64728.600000 0 0 1
-31.106834 -15.816503 -20.695640 40.572237 0.470391 2.106090 0.070912 -0.022063 -12258.700000 0 0 1
-31.284344 -17.182903 -20.255340 41.039507 0.502267 2.086971 0.063759 -0.019972 -969384.000000 0 0 1
-30.008784 -18.027203 -20.226240 40.430285 0.540957 2.094712 0.060739 -0.024617 -326305.000000 0 0 1
-30.325264 -19.313703 -19.888240 41.087502 0.567100 2.076069 0.045802 -0.018025 285594.000000 0 0 1
-29.218054 -20.200703 -19.921440 40.726243 0.604916 2.081917 0.053744 -0.020953 -157923.000000 0 0 1
-29.580134 -21.565603 -19.313840 41.389418 0.629962 2.056281 0.038005 -0.007149 -359291.000000 0 0 1
-30.413664 -22.284403 -20.179540 42.764464 0.632344 2.062214 0.033919 -0.008754 -105871.000000 0 0 1
-30.645354 -23.568003 -19.673440 43.377791 0.655586 2.041526 0.017546 -0.005273 -236230.000000 0 0 1
-31.627614 -24.339103 -20.548440 44.888042 0.655898 2.046283 0.004080 -0.004305 -419163.000000 0 0 1
-31.183074 -24.464303 -21.886440 45.275849 0.665241 2.075333 0.005682 -0.014421 224271.000000 0 0 1
-32.059654 -25.240443 -22.687840 46.686609 0.666947 2.078258 0.007826 -0.011665 -93535.700000 0 0 1
-31.858554 -25.022403 -24.184840 47.180447 0.665788 2.109010 0.005919 -0.008825 -543959.000000 0 0 1
-30.687224 -25.655393 -24.607940 46.962278 0.696327 2.122330 0.012787 -0.011865 -528203.000000 0 0 1
-30.479084 -25.442243 -26.009530 47.463438 0.695570 2.150757 0.009538 -0.001953 798072.000000 0 0 1
-29.083164 -25.948873 -26.540240 47.154626 0.728506 2.168607 0.022018 -0.002188 1051220.000000 0 0 1
-28.011974 -25.028303 -26.410870 45.919720 0.729204 2.183588 0.028025 -0.015185 -34680.700000 0 0 1
-26.756704 -25.663383 -26.574700 45.615185 0.764544 2.192701 0.027516 -0.012210 513091.000000 0 0 1
-25.664934 -24.586803 -26.843270 44.539430 0.763947 2.217659 0.036934 -0.016018 19095.600000 0 0 1
-25.896304 -24.014103 -28.092110 45.127179 0.747704 2.242742 0.035607 -0.021763 43286.200000 0 0 1
-25.218244 -22.773203 -28.095730 44.090233 0.734495 2.261698 0.033146 -0.024137 -37757.600000 0 0 1
-25.021564 -22.179003 -29.521820 44.604088 0.725248 2.294098 0.010232 -0.019080 -176069.000000 0 0 1
-24.243564 -23.089803 -30.236450 45.112440 0.761028 2.305337 0.012678 -0.013127 -44890.400000 0 0 1
-23.771864 -22.561803 -31.455980 45.427031 0.759288 2.335677 0.014693 -0.004434 -226580.000000 0 0 1
-23.106064 -23.540903 -32.396770 46.234349 0.794720 2.347185 0.019500 -0.013109 -349217.000000 0 0 1
-24.078664 -24.253103 -33.114070 47.587148 0.789007 2.340415 0.016455 -0.012840 -89194.700000 0 0 1
-23.685264 -25.560843 -33.540430 48.366402 0.823466 2.337084 0.016765 -0.000678 85662.300000 0 0 1
-19.188464 -14.359003 -12.168340 26.878367 0.642421 2.040608 0.015582 0.015516 238435.000000 0 0 1
-19.755864 -14.143903 -10.849440 26.609293 0.621340 1.990764 0.022097 0.010873 472783.000000 0 0 1
-19.050964 -14.902303 -9.860440 26.119842 0.663813 1.957900 0.008543 0.003480 -24689.800000 0 0 1
-19.167264 -14.304203 -8.481040 25.375623 0.641118 1.911574 0.021161 -0.006453 -17996.600000 0 0 1
-20.383964 -14.643703 -7.845340 26.296262 0.622964 1.873754 0.047419 -0.012495 183828.000000 0 0 1
-20.563964 -13.924003 -6.629640 25.704214 0.595196 1.831665 0.025682 -0.022458 374451.000000 0 0 1
-21.804264 -14.480803 -5.838340 26.818012 0.586242 1.790256 0.037446 -0.023615 134448.000000 0 0 1
-21.816464 -15.826903 -5.326340 27.473967 0.627608 1.765900 0.023187 -0.019669 139090.000000 0 0 1
-21.052364 -15.974603 -4.159940 26.752478 0.649111 1.726927 0.018860 -0.020528 -405305.000000 0 0 1
-20.930664 -17.372703 -3.593340 27.437485 0.692775 1.702138 -0.000882 -0.014578 453144.000000 0 0 1
-22.118664 -17.891703 -2.990640 28.605808 0.680142 1.675534 0.016607 -0.019168 575389.000000 0 0 1
-21.743764 -19.023903 -2.252240 28.978833 0.718781 1.648595 0.002648 -0.012196 -120851.000000 0 0 1
-22.896264 -19.972303 -1.889040 30.441752 0.717296 1.632890 0.026948 -0.021154 -194494.000000 0 0 1
-23.347964 -20.717003 -3.002540 31.358203 0.725763 1.666693 0.004251 -0.009567 48450.700000 0 0 1
-24.251164 -21.727803 -2.608940 32.665317 0.730572 1.650750 0.015619 -0.009139 -192087.000000 0 0 1
-24.393564 -22.729803 -3.810040 33.558997 0.750106 1.684574 0.020426 -0.010596 -877464.000000 0 0 1
-23.245464 -23.434703 -4.113040 33.263403 0.789452 1.694764 0.008701 -0.005994 -1191180.000000 0 0 1
-23.223564 -24.357303 -5.159540 34.047511 0.809221 1.722922 0.007796 0.004906 -295487.000000 0 0 1
-21.729364 -24.432803 -5.543540 33.164106 0.843895 1.738739 0.006034 0.005466 111389.000000 0 0 1
-21.249664 -23.358403 -6.295840 32.199391 0.832636 1.767591 -0.007684 0.008616 -39384.700000 0 0 1
-20.789364 -22.309703 -5.412140 30.971144 0.820659 1.746446 -0.013387 0.008548 -691260.000000 0 0 1
-20.926264 -20.874803 -6.036640 30.167979 0.784167 1.772257 -0.006619 0.009531 -11784.900000 0 0 1
-19.855664 -20.534503 -6.902340 29.386315 0.802204 1.807894 -0.019596 0.013570 237357.000000 0 0 1
-20.201164 -19.400203 -7.633740 29.029793 0.765175 1.836888 -0.024350 0.012743 399937.000000 0 0 1
-18.997864 -19.054303 -8.547340 28.231938 0.786881 1.878378 -0.001672 0.003954 -65666.500000 0 0 1
-18.894364 -19.853803 -9.747340 29.089192 0.810154 1.912491 -0.008699 0.010012 509557.000000 0 0 1
-17.678564 -19.690003 -10.501640 28.469497 0.839173 1.948593 0.037063 0.002570 695007.000000 0 0 1
-17.307464 -18.263903 -11.086640 27.496037 0.812280 1.985817 0.036001 0.001616 -108102.000000 0 0 1
-16.958764 -17.331303 -10.012940 26.234189 0.796262 1.962404 0.038153 -0.002078 888846.000000 0 0 1
-15.617264 -17.376403 -9.485040 25.215160 0.838665 1.956449 0.047992 -0.005184 434526.000000 0 0 1
-15.316864 -16.386903 -8.427840 23.961748 0.819136 1.930205 0.025968 0.001219 -24104.600000 0 1 0
-15.991264 -16.673303 -7.201740 24.198855 0.806275 1.872981 0.005059 0.001385 329092.000000 0 1 0
-16.208864 -15.480903 -6.457240 23.325556 0.762431 1.851291 0.012649 -0.002986 163631.000000 0 1 0
-16.961364 -15.676203 -5.060140 23.643947 0.746042 1.786479 0.015318 -0.000452 316313.000000 0 1 0
-17.183964 -14.373803 -4.536740 22.857752 0.696584 1.770600 0.006086 0.002666 160693.000000 0 1 0
-17.493064 -14.550003 -3.185740 22.975178 0.693808 1.709905 -0.003294 -0.003713 -238935.000000 0 1 0
-18.282764 -13.378003 -2.562140 22.799013 0.631704 1.683414 -0.002632 -0.000879 73667.100000 0 1 0
-19.633764 -13.311603 -2.974240 23.906685 0.595805 1.695530 0.015299 -0.010220 653610.000000 0 1 0
-20.434064 -12.348303 -2.310840 23.986904 0.543575 1.667284 0.019659 -0.014758 -909175.000000 0 1 0
-21.917964 -12.427703 -2.549040 25.324742 0.515809 1.671621 0.023508 -0.015087 -1090260.000000 0 0 1
-22.323564 -11.797903 -3.743740 25.525431 0.486183 1.717994 0.031283 -0.020111 181329.000000 0 0 1
-23.729864 -11.851503 -3.824340 26.799070 0.463195 1.713989 0.030374 -0.019498 -266026.000000 0 0 1
-24.231864 -11.014503 -5.039740 27.090616 0.426628 1.757919 0.040480 -0.023196 10658.100000 0 0 1
-23.748064 -11.625103 -6.266440 27.173182 0.455227 1.803502 0.042715 -0.029910 406162.000000 0 0 1
-24.402264 -11.162403 -7.416340 27.840112 0.429018 1.840443 0.056963 -0.028568 76517.700000 0 0 1
-23.626164 -11.475603 -8.826240 27.708980 0.452155 1.894978 0.071282 -0.027363 73162.600000 0 0 1
-22.399464 -10.818503 -8.924840 26.427803 0.449939 1.915275 0.053029 -0.022467 -494637.000000 0 0 1
-21.718864 -11.325203 -10.033940 26.469779 0.480656 1.959589 0.038229 -0.009631 515625.000000 0 0 1
-20.250964 -10.786303 -10.195140 25.107504 0.489411 1.988934 0.032622 -0.001123 627092.000000 0 0 1
-20.273964 -9.389503 -10.454440 24.667624 0.433720 2.008446 0.041708 -0.010314 -56846.100000 0 1 0
-18.997664 -8.858803 -10.266940 23.340944 0.436334 2.026248 0.033790 -0.000793 -469308.000000 0 1 0
-18.762364 -7.435403 -10.785440 22.883121 0.377307 2.061591 0.000920 0.003007 -111439.000000 0 1 0
-18.803764 -7.433103 -12.170440 23.599834 0.376447 2.112621 0.047281 -0.005424 317104.000000 0 1 0
-18.811664 -6.149203 -12.747340 23.541157 0.315934 2.143007 0.055516 -0.015320 -125449.000000 0 1 0
-18.020064 -6.053103 -14.054440 23.640855 0.324067 2.207437 0.051822 -0.009205 -192447.000000 0 1 0
-18.761564 -6.583403 -15.128540 24.984199 0.337475 2.221221 0.058170 -0.018672 359795.000000 0 1 0
-18.117864 -6.384403 -16.375740 25.242473 0.338795 2.276721 0.047378 -0.024220 -383425.000000 0 0 1
-18.625364 -7.209103 -17.558240 26.592614 0.369300 2.291971 0.047357 -0.025112 -56247.000000 0 0 1
-19.966664 -7.035503 -17.970240 27.768606 0.338778 2.274626 0.061409 -0.033195 448838.000000 0 0 1
-20.310364 -7.977603 -19.044740 28.962996 0.374271 2.288364 0.075649 -0.033097 -147060.000000 0 0 1
-21.719964 -7.688303 -19.596340 30.247039 0.340211 2.275590 0.058788 -0.033312 -808401.000000 0 0 1
-21.887664 -6.470703 -20.321640 30.559923 0.287445 2.298259 0.058132 -0.032738 1003160.000000 0 0 1
-23.151664 -6.377103 -21.004940 31.904145 0.268784 2.289456 0.048076 -0.030924 1510690.000000 0 0 1
-24.454164 -6.196303 -20.145240 32.283603 0.248161 2.244658 0.075583 -0.028900 61455.800000 0 0 1
-24.454964 -4.938303 -19.424540 31.618742 0.199255 2.232341 0.071171 -0.022234 -90963.400000 0 0 1
-25.690214 -4.749603 -18.793240 32.182786 0.182816 2.194386 0.086833 -0.015202 -409476.000000 0 0 1
-25.870244 -3.309703 -18.338640 31.883058 0.127244 2.183626 0.071049 -0.012666 -4363.490000 0 0 1
-26.108224 -2.296003 -19.359040 32.583484 0.087716 2.206988 0.068761 -0.005607 -49714.400000 0 0 1
-27.407384 -2.221803 -19.885040 33.933994 0.080889 2.196900 0.074580 -0.000577 -388158.000000 0 0 1
-27.673554 -1.022903 -20.806740 34.638019 0.036946 2.215161 0.063893 0.001033 -150409.000000 0 0 1
-27.101424 -0.843403 -22.103640 34.982416 0.031110 2.254734 0.057942 0.004475 147292.000000 0 0 1
-27.641984 -1.720503 -23.037140 36.024287 0.062162 2.264630 0.060945 0.006649 -53736.600000 0 0 1
-27.024584 -1.446503 -24.450140 36.472316 0.053474 2.305511 0.051930 0.004379 -391098.000000 0 0 1
-27.246284 -0.196203 -25.177250 37.098415 0.007201 2.316734 0.047296 0.008698 293967.000000 0 0 1
-26.718824 1.012497 -24.589340 36.325698 -0.037876 2.314357 0.033567 0.008358 -303769.000000 0 0 1
-25.232904 1.077297 -24.209440 34.985097 -0.042668 2.335042 0.027608 0.002902 -404525.000000 0 0 1
-24.388864 1.013697 -25.351660 35.193052 -0.041540 2.375117 0.022153 0.003943 -293194.000000 0 0 1
-23.042564 0.892897 -24.970540 33.989482 -0.038731 2.395954 0.022976 0.001887 -276200.000000 0 0 1
-22.170364 0.217397 -26.022530 34.186903 -0.009805 2.435933 0.015367 -0.000916 -288819.000000 0 0 1
-21.979564 1.031697 -27.171820 34.963887 -0.046905 2.460904 -0.000473 0.003677 35094.400000 0 0 1
-20.923264 0.683797 -28.030890 34.985445 -0.032670 2.500121 0.001883 0.000631 -103870.000000 0 0 1
-20.944764 1.521097 -29.317770 36.062841 -0.072497 2.520020 -0.006985 0.002834 3924.800000 0 0 1
-20.100664 2.714197 -29.247880 35.592724 -0.134218 2.535250 0.001491 0.007619 799294.000000 0 0 1
-20.036364 3.433597 -30.494150 36.648856 -0.169720 2.553613 -0.004641 0.000920 -355419.000000 0 0 1
-19.473364 2.635297 -31.710260 37.305459 -0.134511 2.586813 -0.007116 0.002462 469824.000000 0 0 1
-18.038464 2.544997 -31.725630 36.583860 -0.140162 2.620354 -0.009326 0.008388 573827.000000 0 0 1
-17.536264 2.099097 -32.940630 37.376622 -0.119134 2.649437 -0.010711 0.006411 919175.000000 0 0 1
-15.972964 1.930997 -33.000790 36.713982 -0.120308 2.687961 -0.004329 -0.006299 1008350.000000 0 0 1
-15.240464 3.105297 -32.813350 36.312953 -0.201002 2.698959 0.001805 -0.003013 948905.000000 0 0 1
-13.821164 3.009997 -33.064810 35.963402 -0.214433 2.737353 -0.001753 -0.004193 1170360.000000 0 0 1
-13.162764 4.395397 -33.302670 36.078327 -0.322284 2.746773 0.010218 -0.003503 -311009.000000 0 0 1
-13.203664 5.290397 -32.192370 35.194797 -0.381089 2.725539 0.016908 -0.012472 85570.400000 0 0 1
-12.661364 6.519797 -32.635100 35.607129 -0.475525 2.730120 0.040086 -0.009077 -169126.000000 0 0 1
-12.289364 7.466297 -31.468990 34.598719 -0.545946 2.712977 0.049275 -0.018049 57972.700000 0 0 1
-11.166064 6.939297 -30.779540 33.469612 -0.556052 2.737925 0.072395 -0.028070 366424.000000 0 0 1
-11.516564 5.962497 -29.808260 32.507153 -0.477733 2.731228 0.072937 -0.023753 117214.000000 0 0 1
-10.210164 5.197897 -29.406770 31.559843 -0.470894 2.770077 0.085161 -0.028941 446441.000000 0 0 1
-9.599864 4.493997 -30.475290 32.266030 -0.437829 2.806868 0.064087 -0.029702 324535.000000 0 0 1
-10.255664 3.270397 -30.877000 32.699591 -0.308693 2.806144 0.057781 -0.020792 -232411.000000 0 0 1
-9.769764 2.615697 -32.171280 33.723603 -0.261599 2.837000 0.047869 -0.023109 -179944.000000 0 0 1
-10.554764 1.454397 -32.426230 34.131784 -0.136933 2.824129 0.045296 -0.020301 436290.000000 0 0 1
-10.079364 0.727897 -33.530220 35.019981 -0.072091 2.848863 0.033044 -0.018430 -678974.000000 0 0 1
-10.497864 1.302397 33.828930 35.444293 -0.123432 0.303068 0.023181 -0.016128 -1693850.000000 0 0 1
-11.793564 1.154097 33.470922 35.506657 -0.097548 0.340265 0.003645 -0.009944 -1724870.000000 0 0 1
-11.866064 1.367397 32.121893 34.270822 -0.114730 0.356008 -0.003139 -0.003625 -298805.000000 0 0 1
-13.285964 1.166197 31.583903 34.284395 -0.087552 0.399559 -0.006664 -0.001837 -473996.000000 0 0 1
-14.163964 2.158997 31.955763 35.020707 -0.151265 0.421486 -0.005496 0.007235 -1129410.000000 0 0 1
-15.465164 1.908297 31.556193 35.193838 -0.122773 0.458676 -0.006878 0.005155 -16282.500000 0 0 1
-16.457664 3.129397 31.410763 35.598931 -0.187905 0.489961 0.009177 0.010830 408422.000000 0 0 1
-16.820564 3.813797 32.573483 36.857946 -0.222964 0.486964 -0.000927 0.003444 75979.100000 0 0 1
-15.950564 4.892497 32.721041 36.729056 -0.297619 0.471526 -0.005832 0.003293 -755359.000000 0 0 1
-16.297664 5.870297 33.870440 38.043146 -0.345726 0.472757 -0.015254 -0.002976 -695273.000000 0 0 1
-17.588264 6.415197 33.875807 38.704936 -0.349748 0.504881 -0.001251 -0.005845 -596000.000000 0 0 1
-18.470064 5.668197 -34.047420 39.147139 -0.297762 2.625450 -0.007493 -0.002480 1338290.000000 0 0 1
-20.008764 6.102697 -34.182031 40.074989 -0.296039 2.592410 -0.009688 -0.002905 1596240.000000 0 0 1
-20.333364 7.376897 -33.673750 40.022315 -0.348030 2.570617 -0.001767 -0.008981 154849.000000 0 0 1
-20.012264 8.479697 34.206816 40.527796 -0.400790 0.566036 -0.017164 -0.005640 -334215.000000 0 0 1
-20.290864 9.847497 -33.881230 40.701721 -0.451832 2.554270 -0.001672 0.000778 -663898.000000 0 0 1
-19.462464 10.141497 -32.800800 39.465554 -0.480369 2.551924 0.009184 -0.006221 -69848.700000 0 0 1
-19.405964 11.549297 -32.477920 39.557464 -0.536840 2.534012 0.013197 -0.008932 -412416.000000 0 0 1
-18.567764 12.443497 -33.408300 40.195982 -0.590422 2.551943 -0.000116 -0.016791 -656181.000000 0 0 1
-19.040564 12.743397 34.011268 41.008580 -0.589807 0.592818 0.010413 -0.010909 -71941.200000 0 0 1
-18.042064 12.622597 33.035595 39.701342 -0.610471 0.587908 0.010058 -0.014112 15787.700000 0 0 1
-18.719464 12.256797 31.640363 38.752548 -0.579716 0.615523 0.029448 -0.017635 289958.000000 0 0 1
-18.983864 10.847797 31.527333 38.367102 -0.519141 0.606359 0.013619 -0.006778 136171.000000 0 0 1
-17.908064 10.139897 30.949043 37.166645 -0.515211 0.586812 0.008431 -0.010731 114628.000000 0 0 1
-18.045764 8.608397 31.196633 37.053799 -0.445105 0.569950 0.016854 -0.007105 120379.000000 0 0 1
-18.870064 8.059597 30.172443 36.488529 -0.403657 0.597220 0.016546 -0.006440 320935.000000 0 0 1
-19.049064 6.663897 30.312663 36.416094 -0.336522 0.587377 0.019104 -0.007416 -53684.900000 0 0 1
-19.660864 6.063597 29.017753 35.571713 -0.299154 0.616765 0.025744 -0.006848 280857.000000 0 0 1
-21.060764 6.193397 28.818013 36.226949 -0.286010 0.650988 0.047156 -0.014682 195350.000000 0 0 1
-21.463964 5.503697 27.619193 35.409211 -0.251008 0.676130 0.046388 -0.009148 -579905.000000 0 0 1
-22.956264 5.678497 27.371163 36.172033 -0.242494 0.712555 0.049245 -0.008829 -701408.000000 0 0 1
-23.236364 6.541997 26.332833 35.723164 -0.274437 0.741974 0.045597 -0.007782 657629.000000 0 0 1
-24.641764 6.743597 26.199213 36.593598 -0.267125 0.772811 0.044648 -0.011283 126113.000000 0 0 1
-25.064444 7.515697 24.912933 36.129853 -0.291324 0.809944 0.041252 -0.006969 -280479.000000 0 0 1
-25.056724 6.707097 23.742683 35.164465 -0.261545 0.829575 0.029531 -0.004039 -56650.700000 0 0 1
-26.057124 5.744097 23.694153 35.684468 -0.216972 0.844653 0.027885 -0.003123 -803946.000000 0 0 1
-26.012924 4.950797 22.381583 34.671571 -0.188071 0.869078 0.029234 0.008498 1108.870000 0 0 1
-26.647394 5.615697 21.291283 34.567881 -0.207702 0.907235 0.021692 0.005132 82020.400000 0 0 1
-26.628584 4.834097 20.087583 33.704020 -0.179582 0.932286 0.022703 0.003328 -25365.700000 0 0 1
-27.599214 5.344797 18.983183 33.921154 -0.191290 0.976861 0.039684 -0.004798 -504258.000000 0 0 1
-28.954974 5.242097 19.250483 35.163208 -0.179103 0.991469 0.047775 -0.008511 -539692.000000 0 0 1
-29.732954 5.999997 18.302383 35.426343 -0.199122 1.027884 0.057508 -0.004945 447359.000000 0 0 1
-31.220364 6.038897 18.732383 36.906390 -0.191069 1.038440 0.060532 -0.004271 127573.000000 0 0 1
-31.533614 6.943597 19.774883 37.863285 -0.216738 1.021285 0.056602 -0.024053 -98157.400000 0 0 1
-32.856554 6.742697 20.218983 39.164070 -0.202406 1.028314 0.065198 -0.018927 -103650.000000 0 0 1
-33.338874 7.795297 21.228983 40.285443 -0.229693 1.015772 0.071425 -0.014825 264336.000000 0 0 1
-32.589504 7.796597 22.459983 40.339975 -0.234823 0.980307 0.054764 -0.016098 487360.000000 0 0 1
-32.945114 8.955497 23.153083 41.251021 -0.265417 0.974873 0.071488 -0.005641 -193516.000000 0 0 1
-0.631064 32.422497 11.343660 34.355425 -1.551335 1.234296 0.046334 -0.008476 -111674.000000 0 0 1
-0.735664 32.573497 12.752560 34.988594 -1.548215 1.197725 0.032536 -0.005811 -44484.700000 0 0 1
-0.338364 33.868197 13.103260 36.316177 -1.560806 1.201659 0.031343 -0.007664 -140223.000000 0 0 1
-0.237864 34.043697 14.628760 37.054427 -1.563809 1.164956 0.018764 0.006048 -270197.000000 0 0 1
-1.472664 34.007697 15.266760 37.306383 -1.527520 1.149190 0.012445 0.018613 -729290.000000 0 0 1
-1.214464 34.178897 16.633160 38.030698 -1.535279 1.118134 0.011212 0.001237 -415116.000000 0 0 1
-2.331864 -34.336420 17.642760 38.674208 1.502988 1.097088 0.008762 0.003347 -824191.000000 0 0 1
-3.087664 33.288597 17.962960 37.951711 -1.478307 1.077751 0.004679 0.004172 -175278.000000 0 0 1
-3.767464 33.583897 19.177060 38.856552 -1.459083 1.054647 0.007546 0.000463 -440697.000000 0 0 1
-4.851764 32.593697 19.567460 38.324591 -1.423025 1.034946 0.004758 -0.000238 148222.000000 0 0 1
-5.946564 32.541597 18.651560 37.976281 -1.390053 1.057402 0.001413 -0.004841 385225.000000 0 0 1
-6.938664 31.636897 19.088260 37.595213 -1.354893 1.038247 0.010420 -0.023642 705892.000000 0 0 1
-8.208664 31.545697 18.154160 37.310679 -1.316227 1.062640 -0.003551 -0.030005 451174.000000 0 0 1
-8.903564 32.763497 18.012560 38.434003 -1.305452 1.083021 0.016861 -0.027917 -249907.000000 0 0 1
-9.505864 32.855097 16.761060 38.088739 -1.289160 1.115139 0.027692 -0.012724 -4694.860000 0 0 1
-10.364364 34.151997 16.590160 39.357495 -1.276152 1.135670 0.078851 -0.024177 383012.000000 0 0 1
-11.635464 34.056497 17.210560 39.892762 -1.241578 1.124729 0.077451 -0.027133 -268144.000000 0 0 1
-12.444364 -33.630320 16.836560 39.614775 1.216386 1.131827 0.064719 -0.031228 -369719.000000 0 0 1
-13.831864 -33.795920 17.485560 40.487399 1.182319 1.124224 0.088521 -0.033321 -171885.000000 0 0 1
-13.919764 -33.751220 18.924660 41.122348 1.179627 1.092572 0.074827 -0.026277 -441213.000000 0 0 1
-15.258064 -33.653620 19.317560 41.695837 1.145131 1.089084 0.071169 -0.030735 -199453.000000 0 0 1
-15.348164 -33.321020 20.842860 42.193381 1.139150 1.054130 0.065856 -0.033432 -76497.500000 0 0 1
-14.911464 -32.014720 21.032060 41.105251 1.134907 1.033676 0.073769 -0.027234 -23237.800000 0 0 1
-14.981664 -31.690020 22.463760 41.633258 1.129180 1.000878 0.045898 -0.007114 104552.000000 0 0 1
-14.813064 -30.215120 22.717060 40.601049 1.114976 0.976991 0.059744 -0.013818 -4458.130000 0 0 1
-14.737164 -29.844820 24.081160 41.082838 1.112127 0.944484 0.051377 -0.009575 -152105.000000 0 0 1
-14.637264 -28.421720 24.352860 40.188375 1.095219 0.919814 0.041269 0.001859 1072030.000000 0 0 1
-15.947564 -27.560120 24.051960 39.904659 1.046226 0.923871 0.048836 0.006280 1138020.000000 0 0 1
-17.047964 -27.717220 24.919160 40.985875 1.019371 0.917265 0.050805 0.006570 -179674.000000 0 0 1
-18.093564 -26.900120 24.483660 40.625647 0.978683 0.923960 0.049218 0.010302 -134089.000000 0 0 1
-19.262564 -26.637420 25.529960 41.621838 0.944709 0.910464 0.053346 0.005977 625482.000000 0 0 1
-20.071464 -27.747020 25.839960 42.900634 0.944555 0.924391 0.067150 0.003397 -181349.000000 0 0 1
-20.918764 -28.243420 24.847860 43.043021 0.933300 0.955403 0.065109 0.002269 -434055.000000 0 0 1
-22.319764 -27.574220 24.745160 43.253121 0.890324 0.961731 0.058085 0.003236 -31448.400000 0 0 1
-22.298464 -26.268320 24.330960 42.181060 0.866957 0.955964 0.064926 0.001228 -362371.000000 0 0 1
-23.297564 -26.111420 23.372960 42.081802 0.842287 0.981932 0.051070 0.001048 -411366.000000 0 0 1
-23.700964 -24.618020 23.286960 41.352934 0.804375 0.972631 0.049433 0.015179 315613.000000 0 0 1
-24.644864 -24.179120 24.278260 42.207027 0.775859 0.957925 0.040388 0.014109 599255.000000 0 0 1
-24.902164 -22.772920 24.226260 41.540768 0.740766 0.948143 0.025479 0.021862 116412.000000 0 0 1
-25.528154 -22.128420 25.478960 42.314667 0.714181 0.924629 0.028767 0.017045 -105812.000000 0 0 1
-26.769454 -22.631520 25.915260 43.593464 0.701831 0.934183 0.027380 0.015742 104629.000000 0 0 1
-27.008064 -22.013720 27.132360 44.161119 0.683868 0.909178 0.016668 0.008629 -468596.000000 0 0 1
-28.407464 -22.334520 27.748260 45.560737 0.666282 0.915948 0.007130 0.002960 -673161.000000 0 0 1
-29.475584 -21.736920 27.136860 45.581937 0.635424 0.933105 0.007505 0.009968 -450293.000000 0 0 1
-29.916344 -22.463120 25.982660 45.548634 0.644054 0.963758 0.005144 0.012309 -1337980.000000 0 0 1
-31.328884 -23.026520 26.194660 46.881551 0.633827 0.977929 -0.009600 0.012074 -696817.000000 0 0 1
-31.867914 -23.588420 25.022360 46.883857 0.637195 1.007815 -0.021500 0.012649 83557.200000 0 0 1
-31.256324 -24.792120 24.566960 46.852349 0.670573 1.018846 -0.021784 0.007266 -805405.000000 0 0 1
-31.748004 -25.244920 23.163360 46.709560 0.671786 1.051923 -0.012405 0.007671 -1299520.000000 0 0 1
-33.018024 -25.730720 23.156960 47.838318 0.661987 1.065500 -0.004208 0.009026 -1417000.000000 0 0 1
-33.329874 -26.237120 21.863060 47.720650 0.666884 1.094887 0.002403 0.014646 663103.000000 0 0 1
-34.716472 -26.975520 21.788660 49.067890 0.660573 1.110681 0.001611 0.009526 464120.000000 0 0 1
-34.841219 -28.284520 22.367960 50.142300 0.681902 1.108405 0.000611 0.005664 147352.000000 0 0 1
-33.983914 -29.266520 21.815760 49.873470 0.710953 1.118066 -0.003962 -0.004568 -303497.000000 0 0 1
-34.646493 -30.168120 20.756660 50.411645 0.716413 1.146430 0.006907 -0.000134 -140357.000000 0 0 1
-34.674483 -29.619220 19.467660 49.584350 0.706932 1.167321 0.003364 0.004848 420279.000000 0 0 1
-35.155756 -30.623720 18.568660 50.185004 0.716609 1.191783 -0.002679 0.014693 -343209.000000 0 0 1
-35.325112 -30.166820 17.102860 49.501600 0.706798 1.218024 0.007747 0.022947 -51319.200000 0 0 1
-34.109493 -30.009920 16.354760 48.285930 0.721549 1.225254 0.017623 0.012885 504238.000000 0 0 1
-34.180933 -29.464620 15.051060 47.571362 0.711431 1.248876 0.026737 0.007759 -263263.000000 0 0 1
-34.887656 -30.319220 13.984860 48.290579 0.715452 1.276989 0.019672 0.002460 -177399.000000 0 0 1
-34.236126 -31.498720 13.616060 48.473486 0.743779 1.286068 0.019227 -0.002540 -317653.000000 0 0 1
-34.948357 -32.258120 12.689460 49.223941 0.745390 1.310062 0.023435 0.000319 -104891.000000 0 0 1
-35.048282 -31.645820 11.261060 48.545355 0.734426 1.336694 0.023159 -0.004162 288478.000000 0 0 1
35.587976 -30.609920 11.242160 48.268597 -0.710340 1.335729 0.029808 -0.000398 187107.000000 0 0 1
35.703521 -29.812820 10.070960 47.591700 -0.695727 1.357573 0.024880 -0.009770 -305557.000000 0 0 1
34.591210 -28.776620 9.878460 46.067664 -0.693895 1.354684 0.049900 -0.000442 -72906.400000 0 0 1
34.931760 -27.653320 9.066360 45.465733 -0.669622 1.370040 0.046087 -0.037024 1248200.000000 0 0 1
33.691620 -26.985920 8.715660 44.037801 -0.675331 1.371568 0.038084 -0.024124 1325140.000000 0 0 1
34.016560 -25.797020 7.789060 43.396798 -0.648834 1.390334 0.032091 -0.024311 360310.000000 0 0 1
34.787440 -24.723620 8.307860 43.479235 -0.617875 1.378538 0.045176 -0.028425 36289.600000 0 0 1
35.113700 -23.889720 7.262960 43.086439 -0.597418 1.401420 0.048114 -0.034675 -196531.000000 0 0 1
35.333690 -22.440520 7.625360 42.546360 -0.565831 1.390598 0.055866 -0.042384 270269.000000 0 0 1
34.203290 -21.774420 8.202360 41.367489 -0.566910 1.371193 0.043098 -0.030287 -76962.200000 0 0 1
34.340210 -20.402220 7.983060 40.733645 -0.536085 1.373538 0.053073 -0.032725 264738.000000 0 0 1
33.459290 -19.609420 9.010760 39.815164 -0.530112 1.342504 0.075194 -0.024538 162522.000000 0 0 1
33.950510 -19.633520 10.307160 40.550583 -0.524309 1.313796 0.064333 -0.031200 110694.000000 0 0 1
33.170830 -18.772720 11.103760 39.699024 -0.514999 1.287316 0.056032 -0.022606 174392.000000 0 0 1
33.826210 -18.875120 12.540860 40.715548 -0.508967 1.257694 0.061454 -0.030769 -164594.000000 0 0 1
35.134850 -18.397720 12.535460 41.594129 -0.482374 1.264661 0.030971 -0.018613 -498319.000000 0 0 1
35.453360 -18.276220 13.881460 42.233351 -0.475971 1.235886 0.036867 -0.011223 513225.000000 0 0 1
-34.768544 -17.656820 14.290160 41.530996 0.469899 1.219533 0.036220 -0.014158 654967.000000 0 0 1
-33.617384 -18.234320 13.721760 40.631339 0.496995 1.226309 0.030755 -0.018289 -33469.300000 0 0 1
-32.483244 -17.585120 14.251460 39.591688 0.496185 1.202570 0.018694 -0.014044 -483104.000000 0 0 1
-31.200844 -17.801120 13.452060 38.357926 0.518471 1.212480 0.041821 -0.018624 -642829.000000 0 0 1
-30.718954 -19.118720 13.368460 38.573247 0.556710 1.216881 0.032802 -0.014301 321472.000000 0 0 1
-29.520684 -18.961120 12.593160 37.277105 0.570943 1.226191 -0.006797 -0.001405 206060.000000 0 0 1
-28.919044 -20.355320 12.320860 37.449350 0.613320 1.235551 -0.010220 -0.012187 -377657.000000 0 0 1
-29.583254 -21.156720 11.378060 38.108214 0.620827 1.267600 0.008878 -0.014305 -206267.000000 0 0 1
-28.653124 -21.743920 10.488860 37.467530 0.649152 1.287059 0.004140 -0.006803 8619.040000 0 0 1
-29.374074 -22.772220 9.578860 38.381829 0.659466 1.318563 0.018997 -0.014085 293952.000000 0 0 1
-29.965814 -23.931120 10.125260 39.663200 0.673895 1.312658 0.026822 -0.021262 -570142.000000 0 0 1
-31.293434 -23.701920 10.508860 40.638605 0.648226 1.309231 0.042332 -0.029483 -749257.000000 0 0 1
-31.932624 -25.104920 10.599260 41.979684 0.666260 1.315548 0.059520 -0.030759 -247278.000000 0 0 1
-32.227064 -25.653120 9.330260 42.234110 0.672304 1.348041 0.056982 -0.023322 71683.100000 0 0 1
-33.026624 -26.820320 9.573560 43.608950 0.682065 1.349462 0.058374 -0.019806 403487.000000 0 0 1
-33.269084 -27.624720 8.302760 44.032862 0.692970 1.381102 0.051303 -0.016391 524273.000000 0 0 1
-31.984194 -27.942620 7.777860 43.177237 0.718058 1.389670 0.039482 -0.017565 135215.000000 0 0 1
-32.065244 -28.712420 6.604260 43.545370 0.730289 1.418545 0.028525 -0.015276 150668.000000 0 0 1
-30.772004 -28.984320 5.794160 42.668248 0.755491 1.434580 0.033967 -0.010685 1344.810000 0 0 1
-30.202944 -27.898020 5.149360 41.437100 0.745748 1.446205 0.030299 -0.001486 395448.000000 0 0 1
-28.939114 -28.310120 4.582860 40.742335 0.774412 1.458074 0.027072 -0.008182 928131.000000 0 0 1
-28.249444 -27.090520 3.853060 39.329041 0.764459 1.472669 0.022614 -0.002350 333765.000000 0 0 1
-28.908524 -26.691720 2.631860 39.434470 0.745549 1.504007 0.031730 -0.001065 22778.700000 0 0 1
-28.317864 -25.503520 2.168960 38.171133 0.733155 1.513944 0.028124 -0.006050 -395319.000000 0 0 1
-28.741824 -24.985520 0.774860 38.091588 0.715598 1.550453 0.037402 -0.006152 -268300.000000 0 0 1
-28.422584 -25.904020 -0.328740 38.457374 0.739072 1.579345 0.035824 -0.007417 75008.100000 0 0 1
-28.668144 -25.285220 -1.568140 38.257861 0.722779 1.611797 0.048450 -0.014302 -353194.000000 0 0 1
-30.102624 -25.024320 -2.043540 39.198988 0.693537 1.622952 0.058979 -0.014078 -374836.000000 0 0 1
-30.500934 -23.651420 -1.991540 38.647935 0.659580 1.622349 0.052001 -0.003271 -1311890.000000 0 0 1
-31.791234 -23.605220 -2.445240 39.672008 0.638688 1.632472 0.066713 -0.013696 -915557.000000 0 0 1
-32.602494 -22.259420 -2.212440 39.538580 0.599056 1.626782 0.060703 -0.018918 217833.000000 0 0 1
-32.811844 -22.025420 -0.835640 39.527643 0.591179 1.591939 0.055903 -0.015319 291826.000000 0 0 1
-33.637454 -20.897520 -0.591640 39.604731 0.555904 1.585735 0.056003 -0.023258 -120995.000000 0 0 1
-33.740404 -20.435620 0.901160 39.456831 0.544580 1.547955 0.053314 -0.021774 -584852.000000 0 0 1
-34.426486 -21.403720 1.623660 40.570167 0.556239 1.530765 0.049578 -0.024586 59854.000000 0 0 1
-34.537618 -21.159320 3.031160 40.617137 0.549666 1.496099 0.059523 -0.022621 -1048970.000000 0 0 1
-35.624177 -21.938120 3.823960 42.011734 0.551972 1.479649 0.068225 -0.016354 1193890.000000 0 0 1
34.644070 -21.674920 3.372360 41.004714 -0.559064 1.488460 0.053818 -0.019619 640105.000000 0 0 1
34.118760 -20.417120 3.631360 39.926625 -0.539252 1.479720 0.052822 -0.027106 -1423390.000000 0 0 1
32.881130 -20.179320 2.781760 38.679605 -0.550436 1.498816 0.047084 -0.016357 571212.000000 0 0 1
31.762380 -21.100120 3.028960 38.252300 -0.586370 1.491530 0.046393 -0.014637 458954.000000 0 0 1
30.777390 -20.793020 2.080660 37.201164 -0.594158 1.514837 0.041956 -0.014421 -356773.000000 0 0 1
29.442310 -21.456520 2.474760 36.515152 -0.629772 1.502971 0.026805 0.001387 -167647.000000 0 0 1
29.263240 -22.682520 1.750260 37.066121 -0.659385 1.523559 0.011863 -0.004742 -342757.000000 0 0 1
27.945250 -23.103020 1.945560 36.310766 -0.690825 1.517190 0.005488 0.010597 -332252.000000 0 0 1
27.552660 -24.449420 1.303860 36.859507 -0.725794 1.535415 0.007724 0.009935 17393.700000 0 0 1
27.656240 -24.476020 -0.080440 36.931689 -0.724471 1.572974 0.012187 0.008104 -428074.000000 0 0 1
26.801250 -25.398320 -0.623940 36.929270 -0.758528 1.587693 0.018886 -0.000295 -685747.000000 0 0 1
25.876510 -24.783820 -1.720840 35.871894 -0.763833 1.618787 0.019777 -0.009059 -155944.000000 0 0 1
26.460510 -24.137720 -2.870740 35.930896 -0.739524 1.650778 0.025809 -0.021450 -26666.500000 0 0 1
27.166750 -24.950720 -3.801240 37.081264 -0.742904 1.673488 0.030443 -0.025253 -507258.000000 0 0 1
26.308910 -25.828620 -4.753140 37.173495 -0.776186 1.699011 0.035631 -0.023102 612443.000000 0 0 1
25.589810 -25.083120 -5.821640 36.302793 -0.775399 1.731855 0.042083 -0.035315 1313760.000000 0 0 1
24.366410 -24.487520 -5.394940 34.963781 -0.787877 1.725716 0.038041 -0.030064 -270525.000000 0 0 1
23.700610 -23.424420 -6.262540 33.906368 -0.779537 1.756564 0.038108 -0.039668 -344240.000000 0 0 1
23.068210 -23.987420 -7.367440 34.085449 -0.804930 1.788662 0.046166 -0.039824 158569.000000 0 0 1
22.056910 -23.144720 -7.916540 32.937167 -0.809459 1.813526 0.043960 -0.034582 18325.000000 0 0 1
22.386210 -21.792220 -8.625040 32.410408 -0.771954 1.840161 0.037667 -0.037627 -870831.000000 0 0 1
22.994410 -21.851920 -9.935040 33.240853 -0.759928 1.874316 0.044345 -0.038075 286288.000000 0 0 1
22.927610 -20.578420 -10.591440 32.577987 -0.731454 1.901925 0.038309 -0.036843 -579465.000000 0 0 1
23.571210 -20.407020 -11.911940 33.375780 -0.713573 1.935748 0.034099 -0.038761 -135801.000000 0 0 1
24.947610 -20.713520 -11.960040 34.561188 -0.692934 1.924158 0.051086 -0.041739 -147381.000000 0 0 1
25.638310 -20.171720 -13.031640 35.128975 -0.666628 1.950845 0.047460 -0.042895 949626.000000 0 0 1
27.184940 -20.492720 -13.036140 36.454266 -0.645945 1.936496 0.045957 -0.032811 967351.000000 0 0 1
27.566900 -21.785720 -13.399840 37.604618 -0.668789 1.935139 0.040214 -0.034651 118183.000000 0 0 1
28.322690 -22.474120 -12.416440 38.228639 -0.670766 1.901590 0.040215 -0.038069 -98996.800000 0 0 1
28.586810 -23.971220 -12.776040 39.434151 -0.697804 1.900734 0.025134 -0.024773 199147.000000 0 0 1
29.589650 -24.150620 -13.789740 40.607349 -0.684532 1.917274 0.015745 -0.025827 636680.000000 0 0 1
29.834730 -25.548020 -13.957040 41.684666 -0.708151 1.912215 0.038193 -0.016008 45717.800000 0 0 1
-3.528664 -8.833103 -27.868480 29.447026 1.190737 2.812679 0.011410 -0.000191 6092.190000 0 0 1
-3.593264 -7.587103 -27.301780 28.563313 1.128490 2.843280 0.016686 -0.001416 -308757.000000 0 0 1
-4.573264 -6.800603 -27.906460 29.084935 0.978780 2.855953 0.016270 -0.001582 -365133.000000 0 0 1
-4.674664 -5.427703 -27.161170 28.089884 0.859801 2.883732 0.012550 -0.006736 -135468.000000 0 0 1
-5.123164 -5.608503 -25.822360 26.916470 0.830592 2.855492 0.006773 -0.003354 207611.000000 0 0 1
-5.168764 -4.376103 -25.095790 25.993558 0.702542 2.878007 0.016351 -0.007521 -35336.500000 0 0 1
-5.677864 -4.497103 -23.643940 24.728485 0.669869 2.844330 0.014723 -0.005961 -410820.000000 0 1 0
-4.902864 -5.302003 -22.830040 23.944937 0.824491 2.835237 0.009635 -0.013402 248512.000000 0 1 0
-5.434764 -5.267903 -21.489040 22.783026 0.769809 2.802942 0.013833 -0.007989 393289.000000 0 1 0
-4.591864 -6.248903 -20.621740 22.031572 0.937077 2.781910 0.007667 -0.010950 -270240.000000 0 1 0
-5.021764 -7.573503 -20.917240 22.805854 0.985288 2.731759 0.002401 -0.001303 301736.000000 0 1 0
-4.317664 -8.563603 -20.214540 22.374207 1.103804 2.698605 0.003269 -0.007653 -1212640.000000 0 1 0
-4.961564 -9.985603 -20.277240 23.140783 1.109654 2.638832 0.006845 0.002889 -163547.000000 0 1 0
-6.073164 -10.175403 -19.453840 22.778806 1.032698 2.594484 0.014593 0.000111 1201000.000000 0 1 0
-7.303064 -9.466903 -19.867540 23.187844 0.913720 2.599844 0.018998 -0.005284 488682.000000 0 1 0
-8.350864 -9.529903 -18.761340 22.639431 0.851242 2.547581 0.017642 -0.004777 -448278.000000 0 1 0
-8.830564 -10.812603 -18.445640 23.132939 0.885960 2.493730 0.027838 -0.014104 184699.000000 0 1 0
-9.720864 -10.765603 -17.350840 22.615151 0.836351 2.445295 0.034464 -0.011617 135023.000000 0 1 0
-10.574464 -12.070703 -17.149140 23.486467 0.851375 2.389369 0.035095 -0.016689 1032090.000000 0 1 0
-11.675264 -12.331303 -18.075240 24.800950 0.812719 2.387382 0.045582 -0.024730 982334.000000 0 1 0
-11.302864 -12.603703 -19.377140 25.730946 0.839758 2.423508 0.047005 -0.023831 -308797.000000 0 0 1
-12.508064 -12.380703 -20.347340 26.902559 0.780281 2.428488 0.028033 -0.023954 1198110.000000 0 0 1
-13.580064 -13.330003 -20.469540 27.948330 0.776106 2.392646 0.025608 -0.014928 903675.000000 0 0 1
-14.518364 -13.266903 -19.347140 27.588139 0.740388 2.347994 0.031911 -0.012385 -109457.000000 0 0 1
-15.790464 -14.052903 -19.652840 28.862726 0.727241 2.319797 0.030493 -0.014311 -428587.000000 0 0 1
-15.689064 -15.474403 -19.660540 29.532028 0.778510 2.299276 0.031657 -0.017703 -326631.000000 0 0 1
-15.993264 -15.937303 -20.964540 30.810616 0.783646 2.319149 0.039230 -0.014829 -409997.000000 0 0 1
-15.483964 -17.302503 -21.330640 31.529763 0.840808 2.313828 0.013879 -0.008257 -174626.000000 0 0 1
-16.102964 -18.339403 -20.584540 31.927456 0.850240 2.271464 0.024192 -0.001907 83070.700000 0 0 1
-15.463664 -19.604003 -20.743540 32.461304 0.902921 2.264025 0.006417 0.001584 -414759.000000 0 0 1
-16.185864 -20.790603 -20.116940 33.150002 0.909292 2.222882 0.018755 -0.009299 -457618.000000 0 0 1
-15.696964 -22.044603 -20.547340 33.978704 0.952026 2.220201 0.021272 -0.004259 -9888.920000 0 0 1
-16.437764 -23.138903 -20.056040 34.754189 0.953128 2.185948 0.050186 -0.011578 -292578.000000 0 0 1
-15.823064 -24.486803 -20.432040 35.601139 0.997106 2.182075 0.045086 -0.005579 -142044.000000 0 0 1
-15.955564 -24.803703 -21.766240 36.654780 0.999164 2.206591 0.031713 -0.005034 300148.000000 0 0 1
-15.452864 -26.133743 -21.961440 37.470900 1.036799 2.197025 0.035846 -0.004286 -170558.000000 0 0 1
-15.554464 -26.598013 -23.476840 38.737032 1.041630 2.221890 0.036798 -0.009771 102319.000000 0 0 1
-16.782064 -27.129763 -23.955940 39.894219 1.016823 2.214906 0.048863 -0.005497 122166.000000 0 0 1
-17.025764 -28.492553 -23.597440 40.725193 1.032179 2.188827 0.047017 -0.004936 -876761.000000 0 0 1
-18.170564 -28.898003 -24.490640 42.012562 1.009481 2.193134 0.052641 -0.008793 -1240510.000000 0 0 1
-17.967564 -29.246253 -25.865870 42.979296 1.019889 2.216576 0.050704 -0.005675 -2788.230000 0 0 1
-17.903264 -28.096143 -26.755080 42.728847 1.003462 2.247414 0.067430 -0.016398 84496.500000 0 0 1
-16.578164 -28.064713 -27.551310 42.679483 1.037234 2.272526 0.073237 -0.015120 -161671.000000 0 0 1
-16.651864 -28.569323 -28.838940 43.876819 1.043076 2.287988 0.060648 -0.003296 91102.400000 0 0 1
-15.463164 -28.297653 -29.548780 43.737821 1.070685 2.312559 0.035050 0.004667 -96180.000000 0 0 1
-15.656764 -28.490013 -31.086650 44.979938 1.068297 2.333837 0.044972 0.002853 -94893.600000 0 0 1
-15.652964 -29.792543 -31.632350 46.186756 1.087037 2.325234 0.037088 -0.000999 185622.000000 0 0 1
-16.469064 -29.944933 -32.766710 47.345394 1.067970 2.335160 0.033153 0.001673 -89319.600000 0 0 1
-16.407564 -31.382863 -33.401960 48.680418 1.089060 2.326977 0.037290 -0.000020 395084.000000 0 0 1
-15.151364 -31.592813 -34.023890 48.839479 1.123616 2.341510 0.054189 0.000409 137266.000000 0 0 1
-15.312364 -32.710583 33.849529 49.499912 1.132979 0.817797 0.053359 0.002112 -1503.120000 0 0 1
-14.100664 -33.186513 33.026116 48.896806 1.169018 0.829256 0.060490 -0.003030 -336485.000000 0 0 1
-13.129664 -33.793873 33.793863 49.562476 1.200224 0.820516 0.068076 0.005368 -120459.000000 0 0 1
-12.022864 -34.330701 33.039580 49.140208 1.233937 0.833413 0.081540 0.004193 669580.000000 0 0 1
-11.118564 33.616293 34.021571 49.103410 -1.251373 0.805355 0.077116 0.006776 -166303.000000 0 0 1
-10.344264 -34.314262 -33.883440 49.320988 1.278004 2.328147 0.075515 0.004720 -195770.000000 0 0 1
-9.639064 33.628272 -32.952090 48.058427 -1.291645 2.326316 0.065968 0.002863 68586.600000 0 0 1
-8.716564 -34.338998 -32.029550 47.760206 1.322208 2.305858 0.054304 0.004955 -702133.000000 0 0 1
-9.419764 -33.452803 -31.230550 46.724396 1.296320 2.302851 0.064755 -0.000139 -590870.000000 0 0 1
-8.696164 -32.592593 -30.387020 45.401226 1.310056 2.304062 0.053007 -0.007249 -1127130.000000 0 0 1
-9.601464 -31.659603 -29.595760 44.389498 1.276341 2.300607 0.061310 -0.014917 -316252.000000 0 0 1
-9.909364 -32.046373 -28.305930 43.890673 1.270903 2.271714 0.060294 -0.014714 -333409.000000 0 0 1
-10.696664 -33.199833 -28.153840 44.825062 1.259108 2.249883 0.063282 -0.011477 -625327.000000 0 0 1
-11.090564 -33.543733 -26.688000 44.276765 1.251481 2.217744 0.063960 -0.014870 330351.000000 0 0 1
-9.974064 -33.550443 -25.803230 43.484719 1.281832 2.206055 0.046310 -0.016703 -112720.000000 0 0 1
-10.376064 -33.946533 -24.488340 43.124338 1.274156 2.174693 0.045894 -0.019665 -115015.000000 0 0 1
-9.293964 -33.993123 -23.402840 42.303700 1.303912 2.157009 0.051147 -0.022990 131204.000000 0 0 1
-8.548464 33.525914 -23.434340 41.787934 -1.321135 2.166138 0.034049 -0.013240 531660.000000 0 0 1
-7.666564 33.361425 -22.312540 40.860865 -1.344915 2.148452 0.046124 -0.005049 -79816.000000 0 0 1
-6.979564 32.031635 -22.241440 39.615926 -1.356254 2.166905 0.039696 -0.006181 -521813.000000 0 0 1
-5.959164 31.818965 -23.173840 39.811870 -1.385658 2.192085 0.019990 -0.014654 -211484.000000 0 0 1
-5.371064 30.536215 -22.971740 38.587687 -1.396686 2.208451 0.006002 -0.010537 -567436.000000 0 0 1
-3.874464 30.436595 -23.261240 38.503027 -1.444181 2.219483 0.017549 -0.020312 -422662.000000 0 0 1
-3.457964 30.594275 -24.595740 39.407075 -1.458247 2.244833 0.029259 -0.021196 -37613.900000 0 0 1
-3.347864 31.877925 -25.070640 40.693332 -1.466159 2.234562 0.039159 -0.021944 -465409.000000 0 0 1
-2.743164 31.879835 -26.511040 41.553388 -1.484961 2.262694 0.023909 -0.003873 -181952.000000 0 0 1
-1.782564 32.842499 -26.864720 42.467875 -1.516573 2.255688 0.037404 -0.016843 291959.000000 0 0 1
-2.301364 34.205380 -26.740130 43.478027 -1.503617 2.233216 0.055302 -0.018858 -167555.000000 0 0 1
-1.318364 -33.496123 -27.246180 43.198178 1.531458 2.253284 0.024492 -0.008285 200520.000000 0 0 1
-0.066364 -33.452403 -26.582450 42.728144 1.568812 2.242256 0.063190 -0.015283 180004.000000 0 0 1
0.704036 -32.381443 -27.079380 42.217843 -1.549058 2.267144 0.036357 -0.005632 433415.000000 0 0 1
2.047836 -32.013313 -26.388990 41.538230 -1.506915 2.259186 0.043649 -0.006129 223067.000000 0 0 1
1.842936 -31.400143 -25.116990 40.252062 -1.512172 2.244638 0.044790 -0.006529 849212.000000 0 0 1
3.067336 -30.847063 -24.603240 39.576119 -1.471685 2.241668 0.026241 -0.006619 368586.000000 0 0 1
2.967236 -30.245283 -23.182140 38.222941 -1.473004 2.222445 0.028864 -0.005922 -348575.000000 0 0 1
3.008236 -31.110903 -22.051140 38.251673 -1.474402 2.185205 0.035165 -0.004037 560001.000000 0 0 1
3.062236 -30.371973 -20.827140 36.954076 -1.470312 2.169528 0.029666 0.002008 -395812.000000 0 0 1
3.080736 -31.222593 -19.538240 36.960574 -1.472445 2.127775 0.026573 0.007176 -974841.000000 0 0 1
1.884336 -31.853833 -19.232140 37.257114 -1.511709 2.113205 0.033317 0.008334 -391437.000000 0 0 1
1.661136 -33.137983 -19.708540 38.591603 -1.520710 2.106789 0.048234 0.010153 -446991.000000 0 0 1
2.281836 -34.295089 -18.885740 39.217739 -1.504359 2.073231 0.025785 0.004971 545344.000000 0 0 1
3.699736 34.358725 -19.054440 39.462409 1.463530 2.074703 0.018635 0.006295 498463.000000 0 0 1
4.199036 33.398077 -18.187940 38.260484 1.445726 2.066182 0.029985 -0.018255 178926.000000 0 0 1
5.345836 32.578345 -18.833240 38.008123 1.408154 2.089213 0.031959 -0.011349 681800.000000 0 0 1
6.507536 33.340760 -19.174740 39.008011 1.378037 2.084675 0.050614 -0.003501 400021.000000 0 0 1
7.563136 32.486415 -19.636340 38.705995 1.342062 2.102869 0.042195 -0.023556 149716.000000 0 0 1
8.856536 33.323056 -19.722440 39.722021 1.311024 2.090372 0.030497 -0.026336 -533021.000000 0 0 1
9.524636 33.264011 -18.512640 39.241954 1.291923 2.062078 0.018990 -0.016494 310349.000000 0 0 1
10.726036 34.054762 -18.493440 40.209227 1.265668 2.048713 0.020687 -0.000734 690010.000000 0 0 1
11.474036 34.084056 -17.142440 39.840176 1.246073 2.015600 0.006753 0.004033 7737.950000 0 0 1
12.313936 32.925633 -16.968840 39.034239 1.212909 2.020520 0.010432 -0.006721 218989.000000 0 0 1
12.789236 32.961379 -15.615140 38.650351 1.200672 1.986693 0.008990 -0.012756 -12191.200000 0 0 1
13.999436 32.022645 -15.411840 38.196319 1.158660 1.986124 0.014311 -0.006634 234190.000000 0 0 1
13.686236 30.721185 -14.928140 36.796109 1.151692 1.988540 0.029844 -0.013153 -395689.000000 0 0 1
14.879536 29.988305 -14.861640 36.627413 1.110211 1.988598 0.042300 -0.014606 -147796.000000 0 0 1
14.838636 28.665455 -14.103840 35.225157 1.093130 1.982740 0.047783 -0.017044 -239708.000000 0 0 1
14.878136 28.755085 -12.683440 34.771878 1.093319 1.944173 0.048423 -0.019566 298044.000000 0 0 1
13.630436 28.997325 -12.019040 34.221206 1.131388 1.929666 0.055650 -0.019703 531246.000000 0 0 1
12.875336 27.715325 -11.569140 32.676574 1.135903 1.932694 0.055198 -0.018733 -716304.000000 0 0 1
12.186736 27.201435 -12.705840 32.401743 1.149592 1.973747 0.039632 -0.023108 24033.600000 0 0 1
11.597936 25.894045 -12.574440 31.034339 1.149690 1.987970 0.059836 -0.025805 249926.000000 0 0 1
10.754836 25.632485 -11.294240 30.004177 1.173527 1.956728 0.059072 -0.024619 -458499.000000 0 0 1
9.598036 26.476625 -11.362040 30.368239 1.223021 1.954268 0.042430 -0.018331 322067.000000 0 0 1
8.995436 26.565375 -10.061640 29.797208 1.244300 1.915237 0.027848 -0.003736 384651.000000 0 0 1
7.806436 27.546745 -9.991340 30.324750 1.294648 1.906547 0.032878 -0.000489 151941.000000 0 0 1
8.339336 28.827885 -10.207540 31.698349 1.289203 1.898660 0.034453 -0.009028 -64403.500000 0 0 1
7.370236 29.806415 -10.494340 32.448019 1.328389 1.900138 0.015503 -0.001717 -289654.000000 0 0 1
7.925236 31.179505 -10.746240 33.918322 1.321887 1.893179 0.032738 -0.005758 -479410.000000 0 0 1
8.666236 31.701795 -9.653840 34.253526 1.303949 1.856502 0.033881 -0.004946 -119745.000000 0 0 1
9.013236 33.060403 -9.855140 35.656030 1.304635 1.850837 0.035963 -0.008043 -281390.000000 0 0 1
9.970836 33.431865 -11.004240 36.581422 1.280952 1.876343 0.028028 -0.001431 -743291.000000 0 0 1
11.280036 32.998739 -10.755740 36.494409 1.241416 1.869962 0.035854 -0.004616 -462742.000000 0 0 1
12.138336 33.205980 -11.864240 37.292580 1.220339 1.894563 0.025988 -0.007414 196268.000000 0 0 1
13.619336 32.942957 -11.499640 37.456194 1.178773 1.882852 0.045426 -0.012887 231131.000000 0 0 1
14.223736 33.859814 -10.597740 38.224518 1.173103 1.851727 0.049259 -0.010548 -207560.000000 0 0 1
15.585936 33.985223 -10.941040 38.956683 1.140806 1.855477 0.056179 -0.020657 106957.000000 0 0 1
16.394036 -33.877373 -9.909440 38.918347 -1.120093 1.828252 0.077996 -0.023921 352553.000000 0 0 1
16.460936 -34.358855 -8.620240 39.061513 -1.124017 1.793312 0.067277 -0.012749 -54362.200000 0 0 1
16.894336 -33.440903 -7.681140 38.245424 -1.102998 1.773010 0.057693 -0.012667 -576576.000000 0 0 1
17.137636 -34.033213 -6.240940 38.612271 -1.104308 1.733139 0.056584 -0.007425 374721.000000 0 0 1
18.211536 33.848880 -5.948140 38.894564 1.077194 1.724329 0.049573 -0.016135 -553684.000000 0 0 1
19.523036 34.278574 -6.091940 39.915928 1.053075 1.724014 0.051377 -0.017662 -838801.000000 0 0 1
20.348836 33.343854 -7.020140 39.688412 1.022858 1.748613 0.026765 -0.014491 49961.000000 0 0 1
20.727736 32.087535 -6.517840 38.752176 0.997256 1.739792 0.021856 -0.007438 -7779.380000 0 0 1
21.826636 32.102905 -5.613240 39.223807 0.973691 1.714397 0.027939 -0.005386 -242025.000000 0 0 1
22.073736 30.756465 -4.924840 38.176747 0.948294 1.700158 0.013397 -0.010357 -115785.000000 0 0 1
22.708336 29.858615 -5.828540 37.962841 0.920591 1.724939 0.020049 -0.013001 15243.100000 0 0 1
22.887436 28.563605 -5.383140 36.995844 0.895276 1.716821 0.018438 -0.007434 -439916.000000 0 0 1
23.833436 27.918725 -6.438540 37.268521 0.864174 1.744428 0.027903 -0.001338 -946740.000000 0 0 1
25.104736 28.449245 -6.339040 38.468048 0.847768 1.736339 0.043381 -0.009676 -1195690.000000 0 0 1
26.071436 27.853655 -7.171640 38.819818 0.818436 1.756605 0.029500 -0.009561 53855.800000 0 0 1
26.870236 26.787645 -6.386140 38.475580 0.783859 1.737547 0.032145 -0.003028 -1071590.000000 0 0 1
27.847636 27.397725 -5.599340 39.464905 0.777254 1.713158 0.043207 -0.008887 -432766.000000 0 0 1
28.522136 26.421335 -4.814240 39.176218 0.747181 1.693995 0.039520 0.003286 -349501.000000 0 0 1
29.807436 26.975645 -4.209240 40.421360 0.735569 1.675119 0.051133 -0.001866 -397390.000000 0 0 1
29.626236 28.065035 -3.277540 40.940228 0.758343 1.650939 0.056903 -0.007232 -388453.000000 0 0 1
30.805636 28.145495 -2.543440 41.804607 0.740304 1.631675 0.066532 -0.012016 -209180.000000 0 0 1
30.697036 29.296815 -1.552840 42.462015 0.762063 1.607375 0.067973 -0.004056 193400.000000 0 0 1
30.737436 30.571385 -2.121240 43.403908 0.782690 1.619688 0.047974 -0.012511 -118231.000000 0 0 1
30.312836 31.599205 -1.241740 43.805476 0.806173 1.599147 0.057559 -0.007592 -27389.200000 0 0 1
32.666420 22.771397 19.260883 44.233620 0.608770 1.120274 0.051435 -0.007503 -6981.040000 0 0 1
32.751570 22.556197 20.647483 44.808101 0.603106 1.091902 0.044532 -0.009797 -105838.000000 0 0 1
33.638960 23.425297 21.286983 46.189391 0.608288 1.091829 0.057662 -0.008770 -210023.000000 0 0 1
33.394980 23.492497 22.822983 46.776176 0.613054 1.061092 0.034608 -0.002350 -74467.100000 0 0 1
32.272760 24.230597 23.236483 46.568090 0.644017 1.048377 0.026482 0.000815 76322.900000 0 0 1
32.196870 24.258497 24.610343 47.231156 0.645701 1.022702 0.030018 -0.001868 353601.000000 0 0 1
30.981680 25.087497 25.143913 47.132402 0.680659 1.008094 0.007259 0.004947 181285.000000 0 0 1
31.083690 26.479897 25.089543 47.925629 0.705591 1.019831 -0.006821 0.010603 1210680.000000 0 0 1
29.877920 26.966097 25.750393 47.780155 0.734218 1.001624 -0.014250 0.009339 966159.000000 0 0 1
29.714200 28.537497 25.688563 48.551258 0.765201 1.013255 -0.023167 0.008209 -318101.000000 0 0 1
29.401640 29.044497 24.436563 48.012341 0.779288 1.036815 -0.026568 0.003302 120978.000000 0 0 1
28.941630 30.354097 24.618723 48.631992 0.809214 1.039995 -0.022828 0.000790 -266409.000000 0 0 1
29.157040 31.255297 23.374883 48.717674 0.820116 1.070366 -0.021665 0.002775 -66831.500000 0 0 1
30.506020 31.690297 23.384483 49.816927 0.804437 1.082176 -0.018270 -0.006168 47398.500000 0 0 1
30.886020 32.274397 22.145483 49.859857 0.807376 1.110566 -0.023816 0.000957 -17122.200000 0 0 1
32.413060 32.455097 22.137483 50.931404 0.786046 1.121143 -0.028457 -0.014867 -158180.000000 0 0 1
32.846060 33.604097 22.805883 52.232244 0.796805 1.118953 -0.016168 0.000726 50490.200000 0 0 1
34.260660 33.692697 22.735183 53.158999 0.777040 1.128869 -0.016063 0.003863 125896.000000 0 0 1
34.765010 -33.764320 23.411983 53.821521 -0.770797 1.120766 -0.014551 0.013730 -554510.000000 0 0 1
34.214750 -32.578320 22.900183 52.501566 -0.760903 1.119446 -0.023341 0.011764 -109524.000000 0 0 1
34.511870 -31.482420 23.750823 52.405281 -0.739526 1.100428 -0.014177 0.009494 -883881.000000 0 0 1
33.623790 -30.217620 23.550783 50.973554 -0.732095 1.090525 -0.012209 0.008601 495774.000000 0 0 1
32.220680 -30.327220 23.733723 50.211573 -0.755135 1.078473 -0.014874 0.006253 560267.000000 0 0 1
31.574320 -31.012420 22.636583 49.710389 -0.776420 1.098009 -0.016323 0.012100 -751237.000000 0 0 1
30.921070 -32.391420 22.840383 50.269272 -0.808618 1.099142 -0.027203 0.007056 -193250.000000 0 0 1
29.841740 -32.269120 23.740103 49.954159 -0.824460 1.075562 -0.010305 -0.006201 199365.000000 0 0 1
29.208230 -33.501020 24.087803 50.553549 -0.853747 1.074149 -0.018912 -0.006700 -117578.000000 0 0 1
28.362320 -33.555820 25.347353 50.723787 -0.869079 1.047529 -0.016696 -0.006265 -288022.000000 0 0 1
28.012520 33.882997 25.665923 50.906762 0.879960 1.042370 -0.011044 -0.011266 66336.300000 0 0 1
27.184420 33.832997 26.802463 51.010160 0.893932 1.017571 -0.015750 -0.005753 -727455.000000 0 0 1
26.677090 32.394497 27.137313 49.975037 0.881885 0.996770 -0.013261 -0.002540 348887.000000 0 0 1
25.839410 31.715197 26.225913 48.593491 0.887136 1.000715 -0.012923 -0.004060 1405350.000000 0 0 1
24.507110 32.306597 26.074743 48.210029 0.921827 0.999340 -0.017407 -0.008048 922369.000000 0 0 1
23.881510 31.932697 24.689083 46.899621 0.928660 1.016407 0.005910 -0.013467 328804.000000 0 0 1
24.401610 32.707197 23.557183 47.118364 0.929820 1.047247 0.003879 -0.023478 -714318.000000 0 0 1
25.712910 32.573597 23.182683 47.535563 0.902565 1.061353 -0.013236 -0.009134 -1457050.000000 0 0 1
26.071610 33.423497 21.925883 47.724243 0.908346 1.093445 -0.003010 -0.008683 315077.000000 0 0 1
27.397080 33.554997 21.435083 48.332190 0.886085 1.111302 -0.012396 -0.005126 175097.000000 0 0 1
27.279090 33.897697 20.058983 47.912059 0.893167 1.138824 -0.014192 -0.005907 518033.000000 0 0 1
28.596540 -34.335120 19.409183 48.717337 -0.876334 1.161020 -0.017867 -0.006190 1016200.000000 0 0 1
29.569160 33.433197 19.039883 48.524541 0.846653 1.167583 -0.022261 -0.006881 111977.000000 0 0 1
30.511590 33.928297 18.137383 49.102456 0.838370 1.192456 -0.015159 0.001955 -41019.800000 0 0 1
31.447180 32.809797 17.546283 48.716321 0.806601 1.202343 -0.012920 0.002925 316391.000000 0 0 1
32.069080 32.030097 18.559783 48.977735 0.784790 1.182142 -0.016417 -0.000457 121796.000000 0 0 1
32.859620 30.988797 18.021783 48.629670 0.756106 1.191150 -0.002836 -0.006219 106862.000000 0 0 1
33.857050 30.334497 19.004183 49.271092 0.730578 1.174823 0.018262 -0.014834 70379.600000 0 0 1
34.754210 31.297597 19.528683 50.682977 0.733114 1.175252 0.025300 -0.008940 9268.900000 0 0 1
35.596673 30.693697 20.506683 51.281090 0.711570 1.159402 0.045452 -0.007256 287327.000000 0 0 1
-34.928070 31.668397 21.021883 51.621479 -0.736491 1.151376 0.057419 -0.003225 497885.000000 0 0 1
-34.071122 32.252597 20.002283 51.001595 -0.757986 1.167786 0.052658 -0.003256 970313.000000 0 0 1
-32.948394 33.054397 20.390983 50.931150 -0.787004 1.158883 0.042940 0.003959 481543.000000 0 0 1
-33.099334 -34.370420 21.075083 52.163693 0.804235 1.154891 0.027995 0.002577 -475398.000000 0 0 1
-33.272044 34.180897 22.431383 52.711760 -0.798871 1.131229 0.037724 0.005460 238745.000000 0 0 1
-33.266094 -33.414020 23.226083 52.560258 0.787617 1.113087 0.021685 0.007525 -336417.000000 0 0 1
-33.058894 -33.700320 24.745533 53.300502 0.795006 1.087992 0.031350 -0.002683 80388.200000 0 0 1
-34.165673 34.364397 25.316633 54.673000 -0.788298 1.089357 0.029284 -0.000670 161359.000000 0 0 1
-34.061876 34.159897 26.699813 55.136104 -0.786835 1.065287 0.036118 0.003744 -74633.600000 0 0 1
-35.378740 33.649997 27.312323 55.945872 -0.760360 1.060780 0.018286 -0.002559 54864.400000 0 0 1
-35.275373 33.059497 28.569493 56.156017 -0.752983 1.037062 0.036770 -0.014462 -137594.000000 0 0 1
35.085040 33.051797 29.235963 56.374842 0.755566 1.025584 0.035650 -0.013836 176419.000000 0 0 1
34.940540 31.957297 30.299523 56.215401 0.740834 1.001559 0.039334 -0.007162 -251719.000000 0 0 1
34.718160 30.642697 29.928153 55.136375 0.723126 0.997026 0.029128 -0.008565 273805.000000 0 0 1
35.637245 29.999897 29.017733 54.882018 0.699722 1.013693 0.033200 -0.009749 -60467.000000 0 0 1
35.365930 28.513697 28.597333 53.680419 0.678539 1.008970 0.046281 -0.011886 -855477.000000 0 0 1
34.163550 28.344597 27.905913 52.433809 0.692575 1.009585 0.033822 -0.000592 -130655.000000 0 0 1
33.911940 27.035097 27.381883 51.290191 0.673040 1.007635 0.049111 -0.001342 -105206.000000 0 0 1
33.669680 25.911397 28.453763 51.133790 0.655913 0.980681 0.038859 -0.006809 -411444.000000 0 0 1
34.807390 25.654897 29.274313 52.217943 0.635164 0.975665 0.034195 -0.010882 291898.000000 0 0 1
34.776160 24.332197 29.823783 51.873839 0.610511 0.958279 0.032340 -0.007685 217736.000000 0 0 1
35.565911 23.259597 28.965883 51.429226 0.579172 0.972521 0.044849 -0.004542 265937.000000 0 0 1
34.947300 23.150197 27.648223 50.216229 0.585065 0.987733 0.034310 -0.005955 455852.000000 0 0 1
35.595379 22.256897 26.764753 49.787071 0.558797 1.003227 0.040172 -0.021446 -353049.000000 0 0 1
35.248020 20.732697 27.097953 49.056770 0.531694 0.985580 0.036949 -0.024965 584518.000000 0 0 1
33.938930 20.355097 26.591383 47.678953 0.540241 0.979163 0.053647 -0.013165 1287850.000000 0 0 1
33.348810 19.257497 27.240373 47.170247 0.523679 0.955145 0.048681 -0.017304 -295806.000000 0 0 1
33.105640 19.258197 28.769983 47.901706 0.526870 0.926539 0.027422 -0.026777 -458216.000000 0 0 1
31.950000 19.886997 29.289373 47.688180 0.556757 0.909443 0.037014 -0.026131 258105.000000 0 0 1
32.046360 21.319297 29.208763 48.318045 0.587031 0.921645 0.031980 -0.028599 -1392440.000000 0 0 1
30.840270 22.013697 29.803803 48.207798 0.619926 0.904300 0.033109 -0.029144 -1087030.000000 0 0 1
29.650880 21.529997 29.204443 46.857389 0.628040 0.897889 0.033313 -0.031556 55774.700000 0 0 1
29.173780 22.337897 28.103603 46.259092 0.653464 0.917854 0.014256 -0.018109 -204775.000000 0 0 1
28.821540 23.856097 28.372773 46.955391 0.691415 0.921973 0.003444 -0.005582 -852506.000000 0 0 1
29.995040 24.622797 28.550683 48.178066 0.687353 0.936504 0.007617 -0.003229 -34970.600000 0 0 1
29.931470 25.809397 29.383573 49.248474 0.711582 0.931490 -0.002607 -0.001760 -240793.000000 0 0 1
30.312640 25.414397 30.875653 50.180212 0.697726 0.908036 0.004862 -0.015040 -430382.000000 0 0 1
31.644780 25.044497 31.080103 50.937135 0.669491 0.914526 0.007242 -0.007660 -417576.000000 0 0 1
32.045400 24.996597 32.450513 52.007435 0.662449 0.896997 0.019437 -0.015486 80020.000000 0 0 1
31.620670 23.729397 33.285398 51.680449 0.643782 0.871000 0.030713 -0.010725 -482967.000000 0 0 1
32.057300 23.841397 -34.169077 52.570034 0.639465 2.278345 0.033283 -0.021255 252879.000000 0 0 1
31.710820 22.648797 -33.391340 51.317889 0.620212 2.279271 0.026598 -0.022033 -635221.000000 0 0 1
32.234470 22.784197 -31.974730 50.799252 0.615293 2.251620 0.025559 -0.026496 -637692.000000 0 0 1
31.584110 23.718697 -31.146690 50.301579 0.644121 2.238519 0.009111 -0.024523 134363.000000 0 0 1
31.980060 23.701497 -29.796300 49.722276 0.637802 2.213366 0.034701 -0.029518 618425.000000 0 0 1
33.371260 24.340697 -29.409240 50.705167 0.630180 2.189531 0.025879 -0.004789 870576.000000 0 0 1
33.708140 23.860597 -28.108060 49.956279 0.615981 2.168388 0.026466 -0.013754 -1211630.000000 0 0 1
34.884690 24.341997 -27.600950 50.707858 0.609238 2.146366 0.030631 -0.003104 -787956.000000 0 0 1
35.479230 23.403897 -26.497650 50.086362 0.583130 2.128264 0.031047 -0.001052 -280664.000000 0 0 1
-35.288439 22.380697 -26.969570 49.734568 -0.565203 2.143933 0.030207 -0.006912 -30280.700000 0 0 1
-35.395927 21.211397 -26.259400 48.911667 -0.539876 2.137524 0.009849 -0.006823 -526007.000000 0 0 1
-34.418739 20.088197 -26.634890 47.933314 -0.528304 2.159960 0.034144 -0.001213 -568448.000000 0 0 1
-33.100464 20.459497 -26.351630 46.996172 -0.553624 2.166050 0.035943 -0.010282 -884714.000000 0 0 1
-32.253014 19.352097 -26.306460 45.899787 -0.540426 2.181114 0.013732 -0.015575 -112772.000000 0 0 1
-30.937824 19.771597 -25.609830 44.765259 -0.568657 2.179850 0.015369 -0.015223 -106568.000000 0 0 1
-30.982394 19.641897 -24.224640 43.960733 -0.565023 2.154420 0.008668 -0.012389 -580991.000000 0 0 1
-29.711084 19.716497 -23.705840 42.818870 -0.585882 2.157514 0.014960 -0.007963 -709511.000000 0 0 1
-29.902464 20.081197 -22.218540 42.321098 -0.591380 2.123510 0.007115 -0.004639 185944.000000 0 0 1
-30.799284 19.221997 -21.532240 42.210407 -0.557956 2.106117 -0.008026 0.004547 329548.000000 0 0 1
-31.416944 19.930397 -20.452440 42.456418 -0.565319 2.073422 -0.004525 0.007984 -593077.000000 0 0 1
-32.151144 18.967197 -19.477240 42.104792 -0.532988 2.051710 -0.020228 0.010670 381674.000000 0 0 1
-32.772424 19.575697 -18.333940 42.348236 -0.538448 2.018540 -0.015999 0.006324 711129.000000 0 0 1
-33.802804 20.558397 -18.609540 43.721759 -0.546417 2.010461 -0.019867 0.004714 536301.000000 0 0 1
-34.976635 20.523897 -17.541840 44.184969 -0.530649 1.979052 -0.001865 -0.004858 434883.000000 0 0 1
-34.598519 20.966897 -16.269440 43.604621 -0.544824 1.953158 -0.003002 -0.008952 422590.000000 0 0 1
-35.706314 20.703797 -15.404640 44.055545 -0.525461 1.928009 0.003285 -0.001118 -253609.000000 0 0 1
-35.639665 21.441997 -14.001840 43.886177 -0.541619 1.895522 0.010754 -0.002215 -278644.000000 0 0 1
35.695431 22.837397 -14.124540 44.667809 0.569161 1.892531 0.015022 -0.008407 274361.000000 0 0 1
34.358520 23.215797 -14.373740 43.887191 0.594225 1.904469 0.026426 -0.008735 -144113.000000 0 0 1
34.208280 24.710097 -14.694140 44.684595 0.625564 1.905873 0.022092 -0.011124 42512.000000 0 0 1
34.595550 25.507997 -13.573040 45.074798 0.635337 1.876666 0.016555 -0.009916 63342.800000 0 0 1
34.582710 26.899197 -13.912240 45.968261 0.661071 1.878267 0.009879 -0.003896 -806886.000000 0 0 1
-35.768727 27.612597 -14.376940 47.418918 -0.657418 1.878835 0.027489 -0.001094 -498046.000000 0 0 1
-35.509328 27.320497 -15.714540 47.479140 -0.655795 1.908136 0.033395 -0.003029 255387.000000 0 0 1
-34.386095 28.039997 -16.210440 47.237944 -0.684088 1.921081 0.046226 -0.008807 -288513.000000 0 0 1
-34.194153 27.974997 -17.744440 47.609933 -0.685694 1.952718 0.050163 -0.009522 -183355.000000 0 0 1
-33.699014 26.810997 -18.356940 46.812716 -0.672053 1.973748 0.051230 -0.015356 76371.100000 0 0 1
-32.377814 26.454497 -18.042540 45.537858 -0.685055 1.978181 0.039378 0.000136 -305583.000000 0 0 1
-31.923754 25.080197 -18.593740 44.652766 -0.665916 2.000287 0.032286 -0.002282 -210021.000000 0 0 1
-31.874324 25.030397 -19.990340 45.189678 -0.665703 2.029031 0.026536 -0.001811 219216.000000 0 0 1
-31.293214 23.821697 -20.383440 44.296988 -0.650657 2.048965 0.025314 -0.002518 -509332.000000 0 0 1
-31.088094 23.838397 -21.925540 44.893965 -0.654168 2.081034 0.024017 -0.002371 -680639.000000 0 0 1
-32.199364 23.674797 -22.758740 45.991905 -0.633998 2.088450 0.032827 -0.002998 -480287.000000 0 0 1
-31.982574 23.373197 -24.095240 46.365634 -0.631106 2.117271 0.036070 -0.010267 -395302.000000 0 0 1
-32.854964 24.161097 -25.076840 47.875413 -0.634083 2.122095 0.023883 0.001176 -371582.000000 0 0 1
-32.552274 25.535397 -25.084950 48.383487 -0.665183 2.115846 0.020774 0.006933 13310.100000 0 0 1
-33.399584 26.284497 -25.943690 49.794398 -0.666746 2.118837 0.027515 -0.000019 -124117.000000 0 0 1
-32.906024 27.690797 -26.219690 50.369225 -0.699545 2.118291 0.017017 0.009059 -143401.000000 0 0 1
-31.601324 27.819797 -26.712460 49.861211 -0.721844 2.136176 0.017975 -0.004108 -723298.000000 0 0 1
-31.275994 29.169897 -27.052250 50.605286 -0.750570 2.134799 0.022666 -0.003324 578857.000000 0 0 1
-29.916854 29.141797 -27.819340 50.181453 -0.772275 2.158408 0.019527 0.001774 -20081.100000 0 0 1
-28.955954 28.429997 -27.077600 48.784305 -0.776233 2.159216 -0.001983 0.005505 99045.700000 0 0 1
-27.654874 28.367897 -27.658150 48.316694 -0.798125 2.180268 0.031471 0.007135 1230340.000000 0 0 1
-26.702244 29.630297 -27.548170 48.475417 -0.837329 2.175224 0.026780 -0.007567 -219372.000000 0 0 1
-26.128594 29.964597 -26.329430 47.684582 -0.853678 2.155747 0.025646 -0.007923 124533.000000 0 0 1
-27.022614 30.468897 -25.331170 47.960854 -0.845271 2.127233 0.015098 -0.002813 523.592000 0 0 1
-26.254884 30.981897 -24.131740 47.239155 -0.867798 2.106960 0.002441 -0.005632 64174.700000 0 0 1
-25.734694 32.333897 -24.252440 47.915929 -0.898558 2.101506 0.012359 0.001072 364085.000000 0 0 1
-24.735164 32.540997 -23.258540 47.028763 -0.920848 2.088125 0.021826 0.013618 216526.000000 0 0 1
-24.204864 34.008497 -23.209240 47.761095 -0.952241 2.078240 0.018932 0.021772 -121523.000000 0 0 1
-24.962264 -33.844720 -22.450740 47.671956 0.935309 2.061155 0.005192 0.012092 -17283.500000 0 0 1
-24.496264 -32.526320 -22.614940 46.577505 0.925301 2.077770 0.015189 0.018452 -5790.940000 0 0 1
16.582336 8.300997 -24.897140 31.044291 0.464122 2.501412 0.032029 -0.014763 -487223.000000 0 0 1
15.301936 7.807597 -24.617040 30.018435 0.471803 2.532319 0.024679 -0.014670 -340960.000000 0 0 1
15.024136 6.643197 -25.430390 30.274766 0.416322 2.568054 0.036609 -0.019441 1058810.000000 0 0 1
13.493836 6.252897 -25.391260 29.426152 0.433932 2.611738 0.029320 -0.022906 959595.000000 0 0 1
13.142036 5.946997 -24.074840 28.065598 0.424945 2.601782 0.049442 -0.030731 -748300.000000 0 0 1
11.858836 5.426497 -24.045240 27.354203 0.429149 2.644626 0.049900 -0.027104 -794920.000000 0 0 1
11.078736 5.717197 -22.767740 25.957556 0.476406 2.640617 0.056017 -0.031850 -322219.000000 0 0 1
11.561636 4.911197 -21.745840 25.113200 0.401688 2.617769 0.059506 -0.025418 194058.000000 0 0 1
11.010436 5.129097 -20.415640 23.755750 0.435948 2.604887 0.068069 -0.025050 34561.400000 0 1 0
11.492136 6.412597 -19.694540 23.686821 0.508964 2.552519 0.067742 -0.038040 -197036.000000 0 1 0
11.080936 6.453597 -18.362540 22.396851 0.527382 2.531983 0.054615 -0.031842 -440686.000000 0 1 0
11.361336 7.639397 -17.631940 22.323208 0.591963 2.481357 0.058493 -0.037255 -445030.000000 0 1 0
12.795036 8.114797 -17.423040 23.089504 0.565198 2.425821 0.058523 -0.029740 -603479.000000 0 1 0
13.330636 7.748797 -16.187640 22.355970 0.526539 2.380504 0.069762 -0.033334 -248401.000000 0 1 0
14.706736 7.998997 -16.147540 23.259731 0.498148 2.338142 0.053854 -0.022336 -326009.000000 0 1 0
15.466336 7.695297 -14.840040 22.773931 0.461687 2.280520 0.066155 -0.020836 -298804.000000 0 1 0
16.874136 7.718497 -14.916040 23.807560 0.429004 2.247883 0.066675 -0.018084 270786.000000 0 1 0
17.456536 7.835497 -13.642740 23.500000 0.421903 2.190191 0.076689 -0.020686 -153290.000000 0 1 0
17.847736 9.261597 -13.248640 24.079977 0.478671 2.153392 0.068612 -0.027117 -423918.000000 0 1 0
16.721336 10.079997 -12.979140 23.444988 0.542492 2.157477 0.085577 -0.029901 376053.000000 0 1 0
17.021136 11.499297 -13.039140 24.330476 0.594154 2.136391 0.073542 -0.027236 281995.000000 0 1 0
15.810736 12.453097 -12.761540 23.830986 0.667156 2.135898 0.078286 -0.026207 391221.000000 0 1 0
15.405936 12.570097 -11.370440 22.904958 0.684377 2.090264 0.105233 -0.024005 335814.000000 0 1 0
15.963136 13.736597 -10.716640 23.629688 0.710570 2.041512 0.093794 -0.011917 70045.500000 0 1 0
15.248536 15.053097 -11.066340 24.115917 0.778948 2.047532 0.071337 -0.007070 -135224.000000 0 1 0
14.096536 15.324997 -10.310740 23.235301 0.827128 2.030579 0.080971 -0.018344 -122214.000000 0 1 0
13.596836 16.621497 -10.592740 23.944817 0.885159 2.029049 0.064696 -0.016982 224196.000000 0 1 0
12.393136 17.040497 -9.705340 23.198319 0.941998 2.002440 0.056230 -0.020205 98649.400000 0 1 0
12.669436 16.911897 -8.333540 22.715078 0.927844 1.946441 0.053074 -0.021085 194574.000000 0 1 0
11.543536 17.134897 -7.493840 21.977615 0.977950 1.918751 0.038783 -0.021695 181754.000000 0 1 0
11.896036 17.064297 -6.014740 21.653707 0.961999 1.852268 0.034144 -0.021294 -92518.000000 0 1 0
12.867336 17.984297 -5.633140 22.819631 0.949759 1.820230 0.042347 -0.018885 -166508.000000 0 1 0
13.466336 17.626397 -4.389640 22.611966 0.918404 1.766166 0.042723 -0.021608 -280659.000000 0 1 0
14.386336 18.794597 -3.975940 24.000243 0.917480 1.737226 0.042874 -0.021055 -611802.000000 0 1 0
15.621036 18.753597 -4.625940 24.841769 0.876277 1.758106 0.052197 -0.027135 -468557.000000 0 1 0
16.386736 19.902497 -4.394840 26.152421 0.881978 1.739645 0.040114 -0.023819 1535430.000000 0 0 1
17.772036 19.919197 -5.224140 27.201311 0.842304 1.764052 0.044964 -0.019240 1849240.000000 0 0 1
18.875136 19.175797 -4.727740 27.319105 0.793300 1.744728 0.048292 -0.029921 283954.000000 0 0 1
18.995236 17.839497 -5.202640 26.573184 0.754032 1.767855 0.051283 -0.034288 -290817.000000 0 0 1
20.090936 16.990397 -4.538840 26.700569 0.701978 1.741616 0.058943 -0.037970 -69537.800000 0 0 1
21.391936 17.371297 -4.949640 27.997782 0.682045 1.748517 0.050483 -0.042618 -107876.000000 0 0 1
22.293836 16.534297 -4.263940 28.081654 0.638138 1.723227 0.062587 -0.044479 280991.000000 0 0 1
23.791836 16.817497 -4.609840 29.497971 0.615315 1.727716 0.067668 -0.043066 559132.000000 0 0 1
24.332336 17.955697 -3.987340 30.501943 0.635735 1.701896 0.065765 -0.041010 644682.000000 0 0 1
25.759336 18.002797 -3.935240 31.672231 0.609977 1.695367 0.053993 -0.030465 609881.000000 0 0 1
26.311136 19.281697 -3.224540 32.778917 0.632424 1.669328 0.064673 -0.024531 -288391.000000 0 0 1
26.047936 20.452897 -3.943840 33.352209 0.665653 1.689322 0.057187 -0.025776 158983.000000 0 0 1
26.431036 21.596197 -3.253140 34.286707 0.685067 1.665820 0.081272 -0.009636 -323693.000000 0 0 1
26.388736 22.856097 -4.150840 35.156735 0.713785 1.689139 0.056743 -0.013564 748866.000000 0 0 1
27.492436 23.205497 -5.033840 36.327244 0.701040 1.709813 0.054740 -0.003611 777635.000000 0 0 1
27.491336 22.426097 -6.190840 36.014301 0.684272 1.743554 0.048569 -0.004695 157545.000000 0 0 1
28.643236 22.815897 -7.154940 37.312106 0.672636 1.763751 0.040807 -0.000875 -47697.700000 0 0 1
28.264636 23.951197 -7.905440 37.881994 0.702977 1.781027 0.034348 -0.002247 773482.000000 0 0 1
29.376236 24.709897 -8.419440 39.299227 0.699335 1.786709 0.022498 -0.002357 614462.000000 0 0 1
30.377836 24.042797 -9.426640 39.871425 0.669511 1.809482 0.014240 -0.006104 165791.000000 0 0 1
29.787136 23.753197 -10.689940 39.569719 0.673173 1.844350 0.013531 -0.006463 480806.000000 0 0 1
30.803636 23.505997 -11.657040 40.463347 0.651827 1.863027 0.010068 -0.010759 424280.000000 0 0 1
30.257536 22.745097 -12.906340 39.992893 0.644599 1.899394 0.003771 -0.007810 45881.700000 0 0 1
30.077436 23.661697 -13.959140 40.735557 0.666574 1.920561 0.012664 -0.005621 104495.000000 0 0 1
29.685936 22.955397 -15.112740 40.454913 0.658232 1.953651 0.005827 -0.005762 -89831.900000 0 0 1
29.771436 23.874397 -16.311140 41.501548 0.675912 1.974715 0.001482 -0.005118 523246.000000 0 0 1
31.101636 24.282097 -16.665340 42.832996 0.662882 1.970426 -0.003354 -0.003899 598631.000000 0 0 1
31.087136 25.098597 -17.847740 43.759472 0.679214 1.990905 -0.000941 -0.005823 -125571.000000 0 0 1
32.475736 25.668197 -18.213340 45.224501 0.668848 1.985296 0.000236 -0.012207 -235590.000000 0 0 1
33.312036 24.580397 -18.454040 45.325922 0.635701 1.990118 0.004335 -0.009944 -96006.300000 0 0 1
34.654336 24.979097 -18.730740 46.644602 0.624555 1.984019 0.024766 -0.015151 304208.000000 0 0 1
35.702836 23.872397 -18.509540 46.767370 0.589369 1.977712 0.023572 -0.016092 -217607.000000 0 0 1
35.750536 23.010297 -19.603640 46.817489 0.571888 2.002837 0.011742 -0.006646 699580.000000 0 0 1
-34.909139 23.351297 -20.635040 46.794614 -0.589559 2.027476 0.029530 -0.003619 -148796.000000 0 0 1
-35.141439 22.432197 -21.839040 47.064507 -0.568135 2.053328 0.017639 -0.006074 -20134.600000 0 0 1
-35.008539 21.024397 -21.670840 46.230383 -0.540824 2.058680 -0.007227 -0.005233 270794.000000 0 0 1
-34.498939 20.443197 -22.872240 46.165360 -0.534942 2.089139 0.004477 -0.008080 48956.400000 0 0 1
-34.295639 18.920497 -22.923540 45.383529 -0.504138 2.100302 -0.003124 -0.007041 -331487.000000 0 0 1
-35.489539 18.227697 -22.735240 45.920011 -0.474474 2.088752 -0.015288 -0.006934 -338669.000000 0 0 1
-35.226439 16.858097 -22.628840 45.134929 -0.446352 2.095966 -0.013728 -0.008195 -92116.500000 0 0 1
35.132536 15.991397 -22.346540 44.602552 0.427148 2.095567 -0.006817 -0.007246 -143077.000000 0 0 1
34.383236 15.914997 -23.554740 44.613000 0.433506 2.127016 0.021419 -0.009899 449782.000000 0 0 1
33.216136 15.104497 -23.392040 43.343339 0.426784 2.140867 0.031226 -0.011484 107927.000000 0 0 1
33.467436 13.676197 -23.812540 43.291393 0.387934 2.153223 0.017934 -0.011576 -643132.000000 0 0 1
33.599936 13.579697 -25.196620 44.138798 0.384086 2.178337 0.019657 -0.001291 198815.000000 0 0 1
33.999836 12.288797 -25.585710 44.290314 0.346827 2.186682 0.017996 0.001285 -178739.000000 0 0 1
33.819636 12.196697 -27.121200 45.034283 0.346122 2.217094 0.027896 0.000876 -90256.700000 0 0 1
32.491836 12.374597 -27.576720 44.377083 0.363892 2.241348 0.026941 0.000791 -31975.700000 0 0 1
32.169136 13.485797 -28.331360 44.937578 0.396961 2.252942 0.032287 0.000497 -316375.000000 0 0 1
32.593236 13.659897 -29.794130 46.223392 0.396865 2.271255 0.030583 -0.004829 449983.000000 0 0 1
33.979736 13.801097 -30.119270 47.458014 0.385803 2.258353 0.028479 -0.001556 509439.000000 0 0 1
34.148236 14.010597 -31.519420 48.537333 0.389343 2.277572 0.025193 -0.005880 178767.000000 0 0 1
35.648236 14.215997 -31.914190 49.913994 0.379459 2.264493 0.032491 -0.003316 1065670.000000 0 0 1
-35.042739 13.153297 -31.595590 48.982487 -0.359078 2.271870 0.018267 -0.002660 341099.000000 0 0 1
-34.621739 13.097797 -30.231490 47.792887 -0.361671 2.255640 0.012146 -0.006395 -87007.400000 0 0 1
-33.543239 12.000297 -29.895020 46.506647 -0.343568 2.268960 0.005450 -0.005607 477296.000000 0 0 1
-34.055639 10.703897 -30.021840 46.644086 -0.304530 2.270037 0.007468 -0.007663 -724505.000000 0 0 1
-33.068939 9.791697 -29.853660 45.614395 -0.287875 2.284290 0.010713 -0.006703 -815235.000000 0 0 1
-33.423039 8.387497 -30.412340 45.960418 -0.245872 2.293890 0.022642 -0.012063 -632950.000000 0 0 1
-33.610239 8.230397 -31.818390 47.008483 -0.240152 2.314291 0.018813 -0.011060 217892.000000 0 0 1
-34.153039 7.017397 -32.370320 47.576375 -0.202649 2.319086 0.028555 -0.017679 -59438.900000 0 0 1
-35.484939 6.522997 -31.780070 48.080175 -0.181795 2.292921 0.032150 -0.007715 -650259.000000 0 0 1
-35.278039 5.901997 -30.533780 47.028558 -0.165764 2.277408 0.028792 -0.015667 -244808.000000 0 0 1
35.166136 5.357397 -29.993330 46.529116 0.151183 2.271315 0.028105 -0.011116 -675697.000000 0 0 1
35.275636 4.655797 -28.583540 45.640614 0.131225 2.247561 0.043027 -0.017437 -288391.000000 0 0 1
-35.507539 3.540397 -28.748530 45.823549 -0.099380 2.248973 0.060596 -0.018430 245067.000000 0 0 1
-35.698739 2.541097 -27.755960 45.290732 -0.071062 2.230446 0.067347 -0.016865 -194325.000000 0 0 1
-34.719539 1.366897 -28.027420 44.641360 -0.039349 2.249565 0.085794 -0.015956 -6004.280000 0 0 1
-33.430839 1.656597 -27.553670 43.354008 -0.049512 2.259518 0.083825 -0.012106 136769.000000 0 0 1
-32.557039 0.531997 -27.464840 42.597667 -0.016339 2.271492 0.077279 -0.013440 -118208.000000 0 0 1
-31.348139 0.604397 -26.573750 41.100307 -0.019278 2.273861 0.071563 -0.011821 -694273.000000 0 0 1
-31.664239 0.392097 -25.233630 40.490910 -0.012382 2.243614 0.061958 -0.002031 -190356.000000 0 0 1
-30.623439 0.602297 -24.338840 39.122076 -0.019665 2.242251 0.060604 0.003666 -578981.000000 0 0 1
-31.099139 0.344897 -22.914740 38.631084 -0.011090 2.205785 0.051103 0.007932 -263805.000000 0 0 1
-31.475139 -0.978203 -22.601740 38.761835 0.031069 2.193327 0.071379 0.000096 368581.000000 0 0 1
-31.908039 -1.255303 -21.269440 38.367796 0.039321 2.158386 0.060145 0.005247 403717.000000 0 0 1
-33.415039 -0.988903 -20.941240 39.447158 0.029586 2.130421 0.052438 0.007000 319751.000000 0 0 1
-34.222739 -2.051903 -21.422340 40.426758 0.059886 2.129285 0.052299 -0.000254 656413.000000 0 0 1
-35.577739 -1.886103 -20.978640 41.345328 0.052964 2.102962 0.045092 -0.000291 792003.000000 0 0 1
35.320336 -3.227903 -20.659940 41.046054 -0.091136 2.098251 0.030157 0.005288 -66956.800000 0 0 1
34.864936 -4.001403 -21.787340 41.306938 -0.114269 2.126392 0.036861 0.007880 15907.400000 0 0 1
-35.748039 -4.762803 -22.417840 42.463703 0.132453 2.126957 0.037968 0.010360 -401282.000000 0 0 1
35.323436 -5.855503 -23.371440 42.758113 -0.164274 2.149091 0.039822 0.000459 -814146.000000 0 0 1
34.732936 -6.948003 -22.670740 42.054893 -0.197435 2.140135 0.037723 0.009621 543873.000000 0 0 1
33.994736 -7.813603 -23.535740 42.078801 -0.225923 2.164368 0.037355 0.007829 969937.000000 0 0 1
32.579036 -7.327503 -24.030340 41.140528 -0.221233 2.194572 0.015569 0.009068 15433.500000 0 0 1
32.635536 -6.164703 -24.801840 41.451333 -0.186696 2.212220 0.017410 0.004131 -399170.000000 0 0 1
31.320036 -5.915903 -25.223780 40.647037 -0.186686 2.240248 -0.008175 0.005319 -223954.000000 0 0 1
31.036136 -4.877603 -26.333000 40.993409 -0.155884 2.268385 0.009381 -0.018054 22019.100000 0 0 1
31.307836 -5.285703 -27.653630 42.105136 -0.167253 2.287331 0.008493 -0.019170 338296.000000 0 0 1
30.722136 -4.275903 -28.483490 42.112256 -0.138291 2.313620 0.016080 -0.022814 -58820.800000 0 0 1
30.679236 -4.630303 -29.971870 43.138940 -0.149796 2.338904 0.018510 -0.018668 -212073.000000 0 0 1
30.240836 -3.461003 -30.685110 43.221090 -0.113952 2.360233 0.016185 -0.025433 284632.000000 0 0 1
29.665936 -3.762803 -31.959140 43.767717 -0.126165 2.389409 0.031099 -0.029362 -496622.000000 0 0 1
29.210036 -2.552903 -32.844910 44.028759 -0.087177 2.412813 0.026367 -0.021412 601211.000000 0 0 1
28.084436 -1.750003 -32.411980 42.922424 -0.062232 2.426648 0.014499 -0.015323 1697030.000000 0 0 1
26.790136 -2.374103 -32.305440 42.035570 -0.088388 2.447331 0.030677 -0.013750 763918.000000 0 0 1
26.007336 -2.734603 -33.604870 42.581062 -0.104762 2.480298 0.043847 -0.024285 -305522.000000 0 0 1
26.673236 -3.709003 34.294604 43.604335 -0.138167 0.665683 0.050609 -0.033901 -5754.410000 0 0 1
25.969036 -4.035503 33.160524 42.311895 -0.154164 0.670170 0.060802 -0.027040 -766759.000000 0 0 1
26.697636 -5.197003 32.373533 42.282599 -0.192257 0.698750 0.049349 -0.040732 1158600.000000 0 0 1
28.082036 -4.978703 32.052443 42.903931 -0.175468 0.727146 0.048477 -0.033490 810988.000000 0 0 1
28.300436 -4.068303 30.965913 42.146809 -0.142776 0.745549 0.065450 -0.033236 -528615.000000 0 0 1
28.836236 -2.644903 31.419903 42.728612 -0.091466 0.744633 0.038470 -0.032182 841047.000000 0 0 1
30.236136 -2.704803 31.775763 43.945864 -0.089218 0.762566 0.034416 -0.030677 640601.000000 0 0 1
30.602036 -1.466803 32.317603 44.531602 -0.047895 0.758712 0.016381 -0.021241 327371.000000 0 0 1
32.128236 -1.424703 32.597243 45.791195 -0.044315 0.778643 0.012774 -0.024016 348989.000000 0 0 1
32.936836 -1.623003 31.457723 45.574747 -0.049236 0.808969 0.020572 -0.023044 -28594.600000 0 0 1
34.306136 -1.725703 31.787203 46.800804 -0.050261 0.824121 0.027119 -0.016378 413319.000000 0 0 1
35.256936 -2.281703 30.683773 46.794782 -0.064626 0.855675 0.024712 -0.009872 187899.000000 0 0 1
35.446636 -1.396603 29.599153 46.200913 -0.039380 0.875437 0.025260 -0.001886 47097.000000 0 0 1
-35.108439 -1.856803 28.768303 45.427584 0.052838 0.885014 0.040950 0.000229 240780.000000 0 0 1
-34.975339 -1.162603 27.392633 44.440773 0.033228 0.906653 0.047945 0.004641 -536945.000000 0 0 1
35.614236 -1.302803 26.471923 44.394074 -0.036565 0.931920 0.039256 -0.015434 -812806.000000 0 0 1
-35.500439 -1.001203 25.205893 43.550207 0.028195 0.953567 0.047071 -0.013348 -907867.000000 0 0 1
-26.570434 15.393897 12.267860 33.067514 -0.525106 1.190717 0.049275 -0.002773 -619139.000000 0 0 1
-27.713054 14.777197 12.731760 33.889182 -0.489870 1.185657 0.021008 0.002444 -294944.000000 0 0 1
-28.514764 15.678997 13.496660 35.229002 -0.502732 1.177633 0.040016 -0.007157 338490.000000 0 0 1
-29.747944 14.991597 14.135660 36.187084 -0.466806 1.169483 0.046858 -0.015127 642548.000000 0 0 1
-30.634654 15.811697 14.934460 37.570333 -0.476474 1.161998 0.049890 -0.022169 558150.000000 0 0 1
-31.712854 14.990397 15.410060 38.313015 -0.441563 1.156862 0.047342 -0.005520 484157.000000 0 0 1
-32.760324 15.809997 16.184660 39.813793 -0.449628 1.152167 0.052965 -0.010521 -84078.400000 0 0 1
-32.214834 16.243297 17.400860 40.055339 -0.467016 1.121402 0.034876 -0.003219 509355.000000 0 0 1
-33.206454 16.308597 18.428160 41.330812 -0.456524 1.108651 0.031431 -0.012778 416960.000000 0 0 1
-32.530424 16.571297 19.824460 41.543298 -0.471147 1.073331 0.020228 -0.011543 452520.000000 0 0 1
-31.797664 15.438097 20.298260 40.760835 -0.451989 1.049523 0.014206 -0.014873 -398314.000000 0 0 1
-30.727894 15.655297 21.153660 40.457004 -0.471204 1.020585 0.016514 -0.007709 -298348.000000 0 0 1
-30.959794 16.261797 22.569560 41.621388 -0.483647 0.997673 0.009851 -0.019423 -622575.000000 0 0 1
-31.373164 17.654497 22.494060 42.449258 -0.512561 1.012308 0.003558 -0.019702 116549.000000 0 0 1
-31.465414 18.359597 23.680360 43.450047 -0.528188 0.994405 0.003531 -0.019970 -1158350.000000 0 0 1
-32.386574 17.752297 24.797260 44.485260 -0.501412 0.979514 -0.005249 -0.008756 515172.000000 0 0 1
-33.629104 17.237997 24.286860 44.921229 -0.473670 0.999582 0.047204 -0.010816 426057.000000 0 0 1
-34.562891 18.268597 23.939460 45.841388 -0.486235 1.021340 0.053276 -0.015649 -2471860.000000 0 0 1
35.751057 17.595797 23.724160 46.374410 0.457369 1.033775 0.028473 -0.020717 -1664470.000000 0 0 1
35.296020 17.044097 24.952560 46.464401 0.449866 1.003889 0.036281 -0.015002 -1146760.000000 0 0 1
34.309000 16.153297 24.662260 45.235645 0.440031 0.994174 0.052917 -0.016004 -850096.000000 0 0 1
33.776050 15.457197 25.919360 45.294147 0.429187 0.961555 0.065220 -0.010024 60857.200000 0 0 1
32.982360 16.310197 26.816160 45.529826 0.459248 0.941000 0.043660 -0.011729 810675.000000 0 0 1
32.528010 15.627597 27.997360 45.674341 0.447874 0.910972 0.040295 -0.012573 706484.000000 0 0 1
31.478400 14.445397 27.898060 44.473149 0.430229 0.892713 0.040028 -0.005330 10174.300000 0 0 1
32.083370 13.218397 27.551360 44.307405 0.390810 0.899728 0.028173 -0.006266 -149917.000000 0 0 1
31.135940 12.195197 27.315660 43.177713 0.373310 0.885848 0.020049 -0.000783 -173700.000000 0 0 1
31.641930 10.790197 27.063060 43.012200 0.328643 0.890279 0.026585 0.005785 -249870.000000 0 0 1
32.357520 10.150797 28.122960 44.056199 0.303985 0.878453 0.016679 0.008895 100368.000000 0 0 1
32.863810 8.903497 27.642960 43.856990 0.264570 0.888860 0.017057 0.012703 132377.000000 0 0 1
33.907900 8.278097 28.625660 45.140902 0.239451 0.883900 0.010985 0.016343 1317500.000000 0 0 1
35.192470 8.941197 28.535760 46.181648 0.248801 0.904724 0.012948 0.011238 1426730.000000 0 0 1
-35.302009 8.150697 28.956360 46.380346 -0.226909 0.896531 0.016636 0.005294 630539.000000 0 0 1
-33.938364 8.849797 29.039060 45.534586 -0.255081 0.879240 0.019888 0.003185 -73017.700000 0 0 1
-33.478934 9.391997 27.824160 44.533499 -0.273504 0.895932 0.012487 -0.000280 -519724.000000 0 0 1
-32.176794 9.815597 28.089260 43.825775 -0.296085 0.875087 0.030080 0.003457 -739374.000000 0 0 1
-31.468914 10.463097 26.886860 42.692766 -0.320991 0.889532 0.022585 0.000104 -208173.000000 0 0 1
-31.126024 9.520397 25.952860 41.629537 -0.296830 0.897682 0.030614 -0.004431 -32894.300000 0 0 1
-30.068634 9.967897 25.148160 40.446406 -0.320104 0.899802 0.023030 -0.004313 -471628.000000 0 0 1
-29.392384 8.985897 24.222660 39.133054 -0.296698 0.903350 0.029997 -0.008086 67098.400000 0 0 1
-28.346374 9.616897 23.477560 38.042049 -0.327078 0.905684 0.021892 -0.012557 411592.000000 0 0 1
-27.693764 8.741297 22.587060 36.790354 -0.305744 0.909754 0.020094 -0.002911 29277.600000 0 0 1
-26.730724 9.409797 21.570960 35.614354 -0.338475 0.920174 0.013629 0.003292 -566017.000000 0 0 1
-25.610884 10.026297 22.236160 35.367936 -0.373145 0.890904 0.021546 -0.002647 1395010.000000 0 0 1
-24.509764 10.431397 21.392060 34.163765 -0.402380 0.894175 0.013166 0.002471 1074120.000000 0 0 1
-23.900864 9.402497 20.405160 32.802879 -0.374800 0.899433 -0.002928 0.010115 -1253820.000000 0 0 1
-24.737364 9.219397 19.237160 32.665009 -0.356745 0.941071 0.000093 0.008467 408937.000000 0 0 1
-24.285264 8.408997 18.198160 31.490607 -0.333338 0.954653 -0.003639 0.012047 -552565.000000 0 0 1
-24.130364 6.881297 18.549060 31.204076 -0.277798 0.934223 -0.007140 0.014566 -672923.000000 0 0 1
-22.883764 6.556397 19.139460 30.544590 -0.279034 0.893604 -0.001683 0.012655 397405.000000 0 0 1
-22.740064 5.284897 19.741360 30.573877 -0.228351 0.868865 0.011660 0.002962 -401424.000000 0 0 1
-22.662064 4.093597 18.722460 29.679239 -0.178709 0.888178 0.020456 0.000502 309400.000000 0 0 1
-23.957264 3.823297 18.140860 30.292886 -0.158254 0.928733 0.033549 -0.000570 1220390.000000 0 0 1
-23.877564 2.950597 17.041160 29.482965 -0.122949 0.954520 0.026970 -0.001682 -181992.000000 0 0 1
-23.808664 1.465297 17.414760 29.534276 -0.061467 0.940176 0.028053 0.000005 987461.000000 0 0 1
-22.509564 0.984997 17.865660 28.754696 -0.043731 0.900379 0.010085 0.002959 1391890.000000 0 0 1
-22.696564 -0.300103 18.486260 29.273980 0.013222 0.887321 0.030026 -0.000324 -878903.000000 0 0 1
-21.478264 -1.144003 18.781560 28.554712 0.053213 0.852983 0.036670 0.004531 -666258.000000 0 0 1
-20.706864 -0.584603 19.847660 28.688772 0.028225 0.806780 0.018360 0.011441 148191.000000 0 0 1
-19.575764 -1.424303 20.056360 28.062373 0.072630 0.774592 0.007205 0.006578 467324.000000 0 0 1
-18.541664 -0.894703 21.076760 28.086004 0.048216 0.722074 0.015003 0.008300 605708.000000 0 0 1
-19.155464 -0.889203 22.339760 29.441253 0.046387 0.709341 0.016642 0.010977 -122666.000000 0 0 1
-18.141464 -0.600103 23.247360 29.494281 0.033067 0.662919 0.017832 0.009130 -714552.000000 0 0 1
-18.547364 -0.677103 24.747760 30.934040 0.036490 0.643473 0.022040 0.014930 319503.000000 0 0 1
-19.439064 0.292097 25.265160 31.879317 -0.015025 0.655858 0.023867 0.000138 1111500.000000 0 0 1
-20.854964 0.063697 25.064160 32.605916 -0.003054 0.693990 0.018756 0.003433 1199420.000000 0 0 1
-21.732764 1.206797 25.669160 33.655240 -0.055472 0.703305 0.015622 -0.006339 -267851.000000 0 0 1
-21.465064 2.484097 25.113860 33.130435 -0.115215 0.710509 0.020747 -0.006371 -321111.000000 0 0 1
-22.523864 3.167597 24.497560 33.428859 -0.139717 0.748329 0.020262 -0.007768 -1367460.000000 0 0 1
-22.237364 4.252197 23.467560 32.608403 -0.188938 0.767457 0.023175 -0.001143 -28462.000000 0 0 1
-21.639664 3.746897 22.230460 31.249123 -0.171450 0.779316 0.021517 -0.000948 671249.000000 0 0 1
-20.299364 3.327297 22.412560 30.421341 -0.162467 0.742563 0.016233 0.003701 -808496.000000 0 0 1
-19.719364 2.565897 21.205360 29.070681 -0.129394 0.753291 0.007069 0.002031 -312611.000000 0 0 1
-19.425064 3.419197 20.090360 28.153980 -0.174235 0.776189 0.003057 0.002607 291250.000000 0 0 1
-19.074464 2.588697 19.002560 27.048731 -0.134891 0.791849 0.014125 -0.003948 -35161.600000 0 0 1
-18.757364 3.290797 17.617860 25.943343 -0.173673 0.824274 0.006426 -0.003242 219676.000000 0 0 1
-17.462164 3.882597 17.570860 25.074626 -0.218784 0.794358 0.012712 -0.010964 319733.000000 0 0 1
-17.190664 4.389397 16.331660 24.114495 -0.249995 0.826771 0.019376 -0.016271 -1061850.000000 0 1 0
-15.754764 4.854397 16.242160 23.142721 -0.298892 0.792839 0.041176 -0.014238 -813025.000000 0 1 0
-15.247364 5.797397 17.254960 23.745012 -0.363342 0.757324 0.042002 -0.019855 188316.000000 0 1 0
-15.844164 7.067097 17.376160 24.554274 -0.419554 0.784611 0.033937 -0.024267 -500580.000000 0 1 0
-15.373964 8.062297 16.287660 23.804355 -0.482986 0.817249 0.027347 -0.014953 -75840.100000 0 1 0
-15.710764 7.928197 14.922760 23.073214 -0.467349 0.867472 0.023086 -0.006133 968851.000000 0 1 0
-17.094864 8.188297 14.599760 23.925627 -0.446700 0.914465 0.009665 -0.003171 975434.000000 0 1 0
-17.469164 7.392397 13.296560 23.165012 -0.400318 0.959422 0.011059 -0.001470 -160743.000000 0 1 0
-17.294964 6.039597 13.387760 22.689748 -0.335972 0.939693 0.016572 -0.007013 141875.000000 0 1 0
-17.695464 5.325997 12.243060 22.167278 -0.292356 0.985672 0.007230 -0.008930 -48677.900000 0 1 0
-17.381464 3.784797 12.242660 21.594507 -0.214402 0.968017 0.008036 -0.005010 239173.000000 0 1 0
-18.121864 3.208597 13.319760 22.718122 -0.175241 0.944306 0.009053 -0.004932 547963.000000 0 1 0
-17.779664 1.828197 13.322060 22.292063 -0.102465 0.930274 0.009309 -0.008611 -74938.000000 0 1 0
-18.516264 1.054997 14.470160 23.523405 -0.056915 0.908234 0.017027 -0.006632 -148091.000000 0 1 0
-19.860164 0.866197 14.131060 24.389819 -0.043587 0.952824 0.030739 0.002096 -445061.000000 0 1 0
-20.634964 0.396997 15.219360 25.643484 -0.019237 0.935398 0.024919 -0.001758 2227450.000000 0 0 1
-22.122264 0.055897 14.608860 26.510687 -0.002527 0.987168 0.035151 -0.003654 2078420.000000 0 0 1
-22.076864 -1.146503 13.860460 26.092427 0.051886 1.010773 0.046363 -0.008789 353146.000000 0 0 1
-23.377964 -1.515803 13.453660 27.015326 0.064748 1.049504 0.061805 -0.012536 -46114.400000 0 0 1
-23.494364 -2.637303 12.437260 26.713779 0.111785 1.086512 0.061697 -0.019871 -348558.000000 0 0 1
-23.120164 -3.855703 12.942760 26.775427 0.165247 1.066282 0.051106 -0.017504 186588.000000 0 0 1
-23.271264 -4.915203 12.003360 26.641915 0.208154 1.103421 0.059986 -0.020656 78506.100000 0 0 1
-23.022164 -6.373003 12.547960 26.983078 0.270058 1.087127 0.045762 -0.016496 200710.000000 0 0 1
-24.097464 -6.630603 13.420660 28.368412 0.268513 1.078008 0.044913 -0.018699 338247.000000 0 0 1
-23.956264 -7.926903 13.872560 28.795595 0.319550 1.068135 0.052648 -0.029266 360349.000000 0 0 1
-25.014064 -8.411303 14.954960 30.333220 0.324385 1.055236 0.045479 -0.011016 424240.000000 0 0 1
-26.332174 -8.215903 14.503760 31.164780 0.302438 1.086722 0.046464 -0.015329 -326209.000000 0 0 1
-27.240004 -8.193903 15.554360 32.420611 0.292194 1.070406 0.045612 -0.009780 390216.000000 0 0 1
-28.712594 -7.709903 15.255360 33.415291 0.262332 1.096696 0.043223 -0.019065 1417950.000000 0 0 1
-29.553504 -8.417303 14.297560 33.892194 0.277469 1.135307 0.044091 -0.018694 882343.000000 0 0 1
-29.706844 -9.818103 14.305060 34.402420 0.319198 1.141957 0.048093 -0.022648 -854623.000000 0 0 1
-30.221484 -10.458603 15.576760 35.571842 0.333165 1.117540 0.044530 -0.015775 -892707.000000 0 0 1
-29.297354 -10.609603 16.611460 35.310611 0.347444 1.081009 0.047806 -0.013994 -142900.000000 0 0 1
-29.795104 -11.253603 17.772660 36.472720 0.361135 1.061817 0.045120 -0.000699 711536.000000 0 0 1
-28.602594 -11.380803 18.813960 36.077641 0.378690 1.022206 0.044699 0.007346 475369.000000 0 0 1
-27.618384 -12.247203 18.363360 35.355086 0.417388 1.024650 0.046485 0.003550 -632505.000000 0 0 1
-26.521424 -12.153103 19.244260 34.948897 0.429683 0.987666 0.034954 0.003090 458611.000000 0 0 1
-25.318854 -13.093403 18.856660 34.176823 0.477266 0.986349 0.036992 0.006491 432479.000000 0 0 1
-24.687364 -12.722403 17.660660 32.912375 0.475845 1.004398 0.033360 0.002830 257746.000000 0 0 1
-23.635564 -13.604803 17.289660 32.290291 0.522291 1.005762 0.033630 -0.004771 113977.000000 0 0 1
-23.120564 -13.490003 15.842860 31.105255 0.528171 1.036389 0.037503 -0.013429 226326.000000 0 0 1
-22.412964 -12.266903 15.485060 29.876495 0.500778 1.025932 0.034784 -0.021707 270052.000000 0 0 1
-22.146564 -12.161903 14.079960 28.924513 0.502194 1.062393 0.030604 -0.011889 150241.000000 0 0 1
-20.929564 -11.303903 13.700860 27.450655 0.495205 1.048226 0.024320 -0.019951 -184621.000000 0 0 1
-21.225664 -9.907203 13.947260 27.261833 0.436700 1.033746 0.026779 -0.020815 1427870.000000 0 0 1
-19.968364 -9.163303 13.916160 26.006945 0.430223 1.006177 0.035232 -0.016532 1147160.000000 0 0 1
-19.439864 -8.963903 12.482760 24.780621 0.432054 1.042884 0.041661 -0.004376 -635927.000000 0 1 0
-18.627064 -9.978203 11.950160 24.276293 0.491785 1.056116 0.028860 -0.016689 166084.000000 0 1 0
-18.894864 -10.247603 10.595160 23.964279 0.496950 1.112832 0.060173 -0.003072 -735692.000000 0 1 0
-18.170464 -11.521003 10.094960 23.765679 0.565081 1.132088 0.050868 -0.001218 1149720.000000 0 1 0
-16.758864 -11.770703 10.126660 22.846405 0.612306 1.111576 0.056958 -0.008968 1478490.000000 0 1 0
-16.008264 -11.624303 11.338360 22.802354 0.628058 1.050376 0.042344 -0.009182 31684.800000 0 1 0
-14.495764 -11.941303 11.262260 21.898868 0.689073 1.030623 0.047129 -0.011433 104254.000000 0 1 0
-14.269264 -13.281803 10.954360 22.361042 0.749572 1.058837 0.038041 -0.017200 485904.000000 0 1 0
-12.881164 -13.608303 10.956060 21.705887 0.812841 1.041703 0.048650 -0.017342 493018.000000 0 1 0
-12.521264 -15.135603 10.909960 22.469886 0.879646 1.063819 0.048912 -0.012602 -104214.000000 0 1 0
-12.866064 -15.752103 9.729860 22.546275 0.885905 1.124585 0.029886 -0.012946 125360.000000 0 1 0
-12.492964 -17.120603 9.822460 23.359579 0.940412 1.136811 0.021967 -0.009297 72256.800000 0 1 0
-12.863764 -17.986203 8.569660 23.715375 0.949941 1.201076 0.013384 -0.001414 144248.000000 0 1 0
-12.222964 -17.659003 7.308560 22.686037 0.965347 1.242785 0.019200 -0.012810 63921.500000 0 1 0
-12.457364 -18.683503 6.379560 23.344335 0.982731 1.293994 0.007842 0.002054 -250097.000000 0 1 0
-11.676364 -18.509103 5.064860 22.462795 1.008005 1.343363 0.018173 -0.002089 -173913.000000 0 1 0
-11.966964 -19.415403 4.035060 23.161343 1.018431 1.395687 0.032798 -0.006370 135549.000000 0 1 0
-11.271764 -19.105203 2.835260 22.362919 1.037774 1.443670 0.041742 -0.016060 232404.000000 0 1 0
-11.600864 -20.160503 1.732760 23.324416 1.048642 1.496438 0.050015 -0.014760 -208450.000000 0 1 0
-11.060364 -21.417103 1.929060 24.181506 1.094094 1.490937 0.033976 -0.021224 -390049.000000 0 1 0
-11.473964 -22.392803 0.961860 25.179647 1.097282 1.532587 0.038032 -0.023655 -429257.000000 0 0 1
-10.689064 -22.426903 -0.331740 24.846169 1.126029 1.584148 0.059120 -0.020420 -220586.000000 0 1 0
-10.725364 -21.332403 -1.173040 23.905666 1.104932 1.619886 0.061363 -0.027516 -737042.000000 0 1 0
-11.767064 -21.415103 -2.074640 24.522939 1.068356 1.655498 0.071053 -0.021643 69355.900000 0 1 0
-12.813164 -20.229303 -1.986240 24.028046 1.006182 1.653554 0.065065 -0.024222 489715.000000 0 1 0
-13.531864 -20.183603 -0.785740 24.312683 0.980187 1.603120 0.053043 -0.023872 -370021.000000 0 1 0
-14.705464 -19.436003 -0.923940 24.389804 0.923079 1.608688 0.053859 -0.008091 -124864.000000 0 1 0
25.807036 -20.348903 -4.233640 33.136153 -0.667691 1.698911 0.035106 -0.015093 -11994.200000 0 0 1
24.489136 -20.584203 -3.783940 32.214055 -0.698979 1.688531 0.025753 -0.005665 153070.000000 0 0 1
24.566436 -21.576903 -2.751440 32.812237 -0.720701 1.654749 0.021515 -0.008487 393012.000000 0 0 1
23.213936 -21.900103 -2.040740 31.979148 -0.756284 1.634654 0.015824 -0.002823 904527.000000 0 0 1
22.211436 -22.556503 -2.840540 31.783838 -0.793106 1.660286 0.033770 -0.008891 403120.000000 0 0 1
21.104936 -22.901603 -2.005340 31.207741 -0.826203 1.635098 0.021892 -0.006060 240229.000000 0 0 1
19.978836 -23.491703 -2.893440 30.973956 -0.866033 1.664348 0.030185 -0.007960 -126488.000000 0 0 1
19.335136 -22.522603 -3.650840 29.907252 -0.861401 1.693174 0.028317 -0.008194 -564285.000000 0 0 1
18.461236 -23.089103 -4.610540 29.919575 -0.896321 1.725511 0.028392 -0.002115 368571.000000 0 0 1
17.624636 -21.981203 -5.355840 28.679018 -0.894956 1.758650 0.010495 0.009222 508746.000000 0 0 1
16.599836 -21.289703 -4.633840 27.391211 -0.908549 1.740786 0.005559 0.014807 534123.000000 0 0 1
17.119736 -20.398503 -3.658240 26.880606 -0.872568 1.707312 0.005332 0.004653 -567863.000000 0 0 1
16.173436 -19.957103 -2.546140 25.813733 -0.889740 1.669592 0.023083 0.003924 -571706.000000 0 0 1
15.769536 -21.007603 -1.709640 26.323383 -0.926874 1.635790 0.021769 0.006249 164170.000000 0 0 1
15.059736 -20.318903 -0.681540 25.300552 -0.932971 1.597737 0.031062 0.013613 -256639.000000 0 0 1
14.655036 -21.162003 0.519560 25.746269 -0.965111 1.550615 0.023299 0.002522 4528.620000 0 0 1
13.729936 -22.219703 0.384060 26.122286 -1.017307 1.556093 0.024210 0.001130 -96553.800000 0 0 1
13.339136 -22.654403 1.662560 26.342335 -1.038646 1.507641 0.028271 0.002364 437465.000000 0 0 1
12.278036 -23.826203 1.672460 26.855823 -1.094971 1.508480 0.030275 -0.002293 860117.000000 0 0 1
12.802936 -25.173723 1.756860 28.296961 -1.100306 1.508670 0.035762 0.005667 934839.000000 0 0 1
11.672336 -26.037593 1.570760 28.577385 -1.149367 1.515803 0.034511 0.004723 714285.000000 0 0 1
11.871336 -27.408943 2.252960 29.954208 -1.162069 1.495512 0.047125 0.001158 7531.540000 0 0 1
11.828936 -27.325863 3.670960 30.001707 -1.162267 1.448131 0.056355 -0.012061 -55885.400000 0 0 1
11.814136 -28.593683 4.265560 31.230874 -1.178986 1.433787 0.053148 -0.009480 52715.900000 0 0 1
11.828436 -28.641913 5.761560 31.519306 -1.179154 1.386968 0.064281 -0.020701 -118502.000000 0 0 1
11.976936 -29.944243 6.207860 32.842688 -1.190312 1.380634 0.045356 -0.018455 -120327.000000 0 0 1
12.009936 -30.016613 7.619660 33.215882 -1.190195 1.339337 0.044356 -0.020565 13069.900000 0 0 1
11.906636 -31.455313 8.097460 34.594415 -1.208938 1.334536 0.022841 -0.014387 -109528.000000 0 0 1
11.643536 -31.581713 9.456360 34.962827 -1.217578 1.296916 0.013138 -0.011078 -121923.000000 0 0 1
11.130036 -32.907603 9.653260 36.055144 -1.244654 1.299754 0.013772 -0.006903 1421.560000 0 0 1
10.979136 -33.239013 11.139660 36.735071 -1.251770 1.262702 0.009594 -0.011595 646939.000000 0 0 1
12.220336 -33.727073 11.696160 37.731316 -1.223179 1.255619 0.015425 -0.015363 723849.000000 0 0 1
12.272236 -33.948263 13.087360 38.397543 -1.223915 1.222988 0.019245 -0.012997 431891.000000 0 0 1
11.269736 33.723204 13.645760 38.085013 1.248281 1.204353 0.017517 -0.011650 477984.000000 0 0 1
11.434036 32.473285 13.085760 36.830538 1.232247 1.207565 0.022606 -0.015623 -273295.000000 0 0 1
10.242436 31.767585 13.271660 35.919687 1.258902 1.192345 0.027485 -0.006154 -217427.000000 0 0 1
10.224436 30.588915 12.228860 34.492982 1.248218 1.208383 0.020150 -0.007860 98669.700000 0 0 1
9.954036 30.926405 10.841560 34.250033 1.259405 1.248715 0.013936 -0.009884 119120.000000 0 0 1
10.995836 31.670065 10.260060 35.059525 1.236618 1.273803 0.002629 -0.009384 -97645.400000 0 0 1
10.513836 32.099525 8.842660 34.915797 1.254270 1.314751 -0.008044 -0.007305 -241192.000000 0 0 1
9.523036 33.090489 8.903960 35.566124 1.290581 1.317755 0.009816 -0.015393 257273.000000 0 0 1
8.665036 33.044746 7.731660 35.025943 1.314349 1.348222 0.007918 -0.010581 354555.000000 0 0 1
8.917036 34.194842 6.703560 35.968576 1.315706 1.383327 0.012628 -0.003766 -17335.900000 0 0 1
8.332336 -33.359033 7.146960 35.118826 -1.326027 1.365857 0.017553 -0.008254 40990.200000 0 0 1
8.850436 -32.291563 6.418860 34.092184 -1.303287 1.381386 0.031582 -0.016472 -334552.000000 0 0 1
8.209336 -30.950703 6.791060 32.733128 -1.311527 1.361811 0.038158 -0.014195 -75558.300000 0 0 1
8.447536 -30.538723 8.159360 32.719254 -1.300927 1.318762 0.034873 -0.013093 -255581.000000 0 0 1
8.002636 -29.242913 8.477060 31.480957 -1.303676 1.298155 0.052790 -0.006903 -241436.000000 0 0 1
8.784736 -28.044603 7.907960 30.433652 -1.267236 1.307937 0.049722 -0.013105 -371015.000000 0 0 1
9.112936 -27.191633 8.987860 30.053488 -1.247423 1.267087 0.047458 -0.009461 -48198.300000 0 0 1
9.829736 -26.004543 8.718460 29.135399 -1.209397 1.266901 0.067807 -0.018269 136043.000000 0 0 1
9.266636 -25.008303 7.621860 27.737673 -1.215939 1.292432 0.054669 -0.017345 -37758.100000 0 0 1
9.229336 -25.556363 6.320160 27.897181 -1.224235 1.342260 0.047636 -0.009522 -236287.000000 0 0 1
8.580136 -24.684803 5.412860 26.688148 -1.236272 1.366561 0.055881 -0.005442 298594.000000 0 0 1
8.352436 -25.315803 3.992860 26.955444 -1.252112 1.422121 0.049580 -0.004963 1225250.000000 0 0 1
7.256136 -26.291143 3.987560 27.564040 -1.301508 1.425622 0.037765 -0.003916 716023.000000 0 0 1
7.709936 -27.634973 4.268460 29.006113 -1.298723 1.423103 0.028716 -0.002240 129885.000000 0 0 1
6.729536 -28.754683 3.850360 29.781600 -1.340901 1.441147 0.031606 -0.007012 -145772.000000 0 0 1
5.607436 -28.956763 4.686460 29.864701 -1.379515 1.413222 0.023213 -0.004782 -589351.000000 0 0 1
4.686636 -29.827203 4.130460 30.474371 -1.414944 1.434839 0.028173 -0.000674 -128137.000000 0 0 1
4.958436 -31.337783 4.439460 32.036721 -1.413872 1.431775 0.031217 -0.000170 -559836.000000 0 0 1
5.940536 -31.866903 3.616560 32.617004 -1.386495 1.459688 0.036850 0.000543 -483330.000000 0 0 1
6.182936 -33.254223 3.888460 34.046911 -1.386966 1.456338 0.039901 -0.003065 48633.400000 0 0 1
7.197736 -33.942263 2.948960 34.822133 -1.361834 1.486008 0.041782 -0.002274 -17812.000000 0 0 1
6.665936 -34.347945 1.707860 35.030455 -1.379108 1.522023 0.043873 -0.002634 262102.000000 0 0 1
7.605836 33.528693 1.077160 34.397417 1.347726 1.539476 0.026603 0.000013 -5718.170000 0 0 1
7.096836 32.988676 -0.274440 33.744528 1.358896 1.578929 0.050142 -0.001153 378240.000000 0 0 1
6.021536 32.094545 -0.054440 32.654581 1.385334 1.572463 0.035262 -0.002995 -100219.000000 0 0 1
4.751336 32.705425 -0.200640 33.049361 1.426529 1.576867 0.041838 -0.007326 -213867.000000 0 0 1
3.553736 31.757045 -0.045040 31.955297 1.459356 1.572206 0.061989 -0.010486 20721.900000 0 0 1
3.534636 30.850085 -1.074540 31.070501 1.456719 1.605387 0.059597 -0.013135 40105.300000 0 0 1
2.442336 29.975395 -0.852040 30.086796 1.489498 1.599120 0.045396 -0.020330 237216.000000 0 0 1
2.344636 28.993975 -2.038340 29.159951 1.490106 1.640755 0.038106 -0.013263 -50589.400000 0 0 1
1.923736 29.571775 -3.241840 29.811075 1.505835 1.679758 0.036064 -0.018135 -85519.700000 0 0 1
1.917336 28.711315 -4.392140 29.108533 1.504116 1.722263 0.029394 -0.019390 -141678.000000 0 0 1
1.671436 29.438135 -5.746740 30.040348 1.514079 1.763283 0.028157 -0.017297 86273.600000 0 0 1
0.276336 29.660325 -5.870140 30.236894 1.561480 1.766175 0.035573 -0.018748 178574.000000 0 0 1
0.003036 30.738985 -6.816840 31.485783 1.570698 1.789030 0.031491 -0.013927 -111000.000000 0 0 1
-0.000064 30.360505 -8.344540 31.486372 -1.570794 1.839022 0.030156 -0.011923 18134.100000 0 0 1
-1.127564 29.538345 -8.686240 30.809674 -1.532642 1.856604 0.036676 -0.011594 557465.000000 0 0 1
-1.193764 29.191285 -10.058440 30.898680 -1.529925 1.902368 0.040234 -0.005951 -404.573000 0 0 1
-1.477564 30.299575 -11.162640 32.324170 -1.522070 1.923391 0.029980 -0.005279 -608523.000000 0 0 1
-0.422464 31.191065 -11.347440 33.193755 -1.557253 1.919686 0.025766 -0.000603 -375866.000000 0 0 1
-0.786964 32.540765 -11.671240 34.579453 -1.546617 1.915077 0.022034 -0.009718 -50537.800000 0 0 1
-0.910364 33.468821 -10.451740 35.074629 -1.543603 1.873378 0.021176 -0.018636 340779.000000 0 0 1
0.319936 33.808269 -9.823040 35.207862 1.561333 1.853550 0.017068 -0.020896 73883.800000 0 0 1
0.057836 -34.190865 -8.688440 35.277579 -1.569105 1.819645 0.024861 -0.017912 -413903.000000 0 0 1
1.198536 -33.909043 -7.707240 34.794557 -1.535465 1.794156 0.025603 -0.015166 -808349.000000 0 0 1
2.204836 -33.101073 -8.187840 34.169914 -1.504285 1.812772 0.026399 -0.016506 -718598.000000 0 0 1
3.005836 -32.681463 -7.097240 33.578026 -1.479081 1.783768 0.028306 -0.012417 -154476.000000 0 0 1
4.385236 -32.038523 -7.476340 33.190253 -1.434768 1.798003 0.021975 -0.016319 522309.000000 0 0 1
5.213036 -32.858053 -8.263240 34.279855 -1.413455 1.814246 0.026792 -0.006161 -3666.720000 0 0 1
5.867236 -33.888133 -7.533740 35.207772 -1.399360 1.786443 0.036046 -0.001017 -1194740.000000 0 0 1
5.927236 33.493904 -8.166440 34.980916 1.395645 1.806425 0.033545 -0.001217 -1031340.000000 0 0 1
4.781636 32.732945 -8.270840 34.098629 1.425742 1.815796 0.033725 -0.004110 -955636.000000 0 0 1
4.090136 33.054865 -9.470240 34.627139 1.447684 1.847818 0.025862 -0.002800 -106900.000000 0 0 1
3.167636 31.931575 -9.955140 33.597086 1.471919 1.871623 0.021104 -0.008697 -124068.000000 0 0 1
3.879336 30.837745 -10.464540 32.795158 1.445655 1.895563 0.015787 -0.005830 212699.000000 0 0 1
3.039636 29.664955 -10.550740 31.631741 1.468687 1.910862 0.016222 -0.014154 235507.000000 0 0 1
3.676936 28.441005 -11.269740 30.812622 1.442227 1.945236 0.010975 -0.012041 -299790.000000 0 0 1
3.727036 28.663695 -12.672040 31.560716 1.441495 1.983965 0.018820 -0.008258 379589.000000 0 0 1
5.023636 28.916385 -13.223140 32.190770 1.398783 1.994099 0.020126 -0.007441 307164.000000 0 0 1
4.893836 29.373595 -14.685740 33.202841 1.405706 2.028962 0.023559 -0.010601 -373841.000000 0 0 1
4.365336 28.406675 -15.584940 32.693817 1.418316 2.067686 0.038753 -0.016496 33955.400000 0 0 1
4.051336 29.115935 -16.777440 33.847208 1.432539 2.089416 0.058834 -0.018925 -285350.000000 0 0 1
3.007136 28.600905 -17.759340 33.800130 1.466040 2.124008 0.041446 -0.021576 -50381.400000 0 0 1
3.477836 27.368535 -18.288640 33.099946 1.444400 2.156190 0.054757 -0.016126 224056.000000 0 0 1
2.738036 26.973245 -19.435640 33.358610 1.469634 2.192754 0.054690 -0.028698 -16035.500000 0 0 1
3.433536 25.770825 -19.976740 32.787112 1.438343 2.225957 0.061533 -0.023740 -36200.700000 0 0 1
3.326236 24.591245 -19.188640 31.368728 1.436351 2.229020 0.062552 -0.028416 2346.440000 0 0 1
4.137736 23.590315 -19.776340 31.060062 1.397163 2.261024 0.063157 -0.022020 35469.400000 0 0 1
4.514036 22.346115 -18.906040 29.616950 1.371473 2.263152 0.055135 -0.017005 -830780.000000 0 0 1
3.516236 21.488615 -18.540640 28.598598 1.408601 2.276154 0.067562 -0.013231 -1013850.000000 0 0 1
4.116436 20.287815 -18.037240 27.456921 1.370612 2.287534 0.056190 -0.006144 300150.000000 0 0 1
3.123336 19.130115 -17.800140 26.316563 1.408956 2.313640 0.047751 -0.016948 224908.000000 0 0 1
2.380136 19.263015 -16.591240 25.534252 1.447860 2.278070 0.051493 -0.015231 -447104.000000 0 0 1
1.504036 18.250715 -16.273840 24.498747 1.488572 2.297316 0.034177 -0.006535 -382759.000000 0 1 0
2.137436 17.179815 -15.385240 23.160749 1.447017 2.297328 0.032813 -0.002250 1141370.000000 0 1 0
3.288336 16.441815 -15.926840 23.125974 1.373402 2.330490 0.033134 -0.010827 743050.000000 0 1 0
2.996036 15.259215 -16.743240 22.850732 1.376920 2.393110 0.039402 -0.018249 -340108.000000 0 1 0
2.870836 15.510315 -18.279040 24.144044 1.387776 2.429633 0.027732 -0.016969 63959.000000 0 1 0
4.131236 15.787515 -18.872240 24.949432 1.314858 2.428618 0.043295 -0.018065 -141358.000000 0 1 0
4.021736 16.356515 -20.168340 26.276831 1.329699 2.445780 0.026696 -0.012281 -257553.000000 0 0 1
4.168936 15.325215 -21.322040 26.587057 1.305192 2.501383 0.036603 -0.019620 857072.000000 0 0 1
3.077736 14.436215 -21.641340 26.195884 1.360746 2.543010 0.035392 -0.011566 397251.000000 0 0 1
1.903136 14.988815 -22.220740 26.870947 1.444502 2.544445 0.030728 -0.015847 -424394.000000 0 0 1
1.144336 13.795315 -22.699240 26.587134 1.488035 2.593976 0.036873 -0.008327 -911863.000000 0 0 1
0.607236 13.058815 -21.650440 25.291163 1.524330 2.598371 0.041645 -0.003547 -281917.000000 0 0 1
-0.032664 11.960415 -22.181440 25.200573 -1.568065 2.647071 0.030072 -0.008230 -406662.000000 0 0 1
-0.543464 10.929615 -21.156940 23.819486 -1.521113 2.664252 0.022487 -0.007036 -216377.000000 0 1 0
-1.719564 11.419415 -20.498140 23.527296 -1.421337 2.628538 0.023731 -0.002520 297851.000000 0 1 0
-2.075064 10.570215 -19.434940 22.220536 -1.376949 2.635486 0.020282 -0.001398 412399.000000 0 1 0
-3.090264 9.460315 -19.862140 22.216028 -1.255068 2.677092 0.020922 -0.006653 -276201.000000 0 1 0
-2.453564 8.459615 -20.573240 22.379528 -1.288509 2.737065 0.015539 -0.008961 -405335.000000 0 1 0
-3.380664 7.705515 -21.348540 22.946982 -1.157351 2.766141 0.011660 0.006711 127720.000000 0 1 0
-2.799064 6.524315 -22.109540 23.221395 -1.165525 2.830891 0.008504 0.003178 -5265.140000 0 1 0
-2.303664 5.515515 -21.234040 22.059289 -1.175151 2.867198 0.017544 -0.001552 -42423.000000 0 1 0
-1.982364 4.404215 -22.043140 22.566056 -1.147854 2.925895 0.024122 -0.004903 -987236.000000 0 1 0
-1.326964 3.277415 -21.319540 21.610762 -1.186089 2.977238 0.021779 0.000727 -564027.000000 0 1 0
0.063236 3.431415 -21.159740 21.436259 1.552370 2.980798 0.012357 0.000056 -611401.000000 0 1 0
0.448636 2.591915 -20.164040 20.334891 1.399404 3.011872 0.011784 -0.001085 -425302.000000 0 1 0
1.974436 2.451915 -20.157940 20.402275 0.892855 2.986674 0.009274 -0.006763 -101004.000000 0 1 0
2.538036 1.887915 -21.381440 21.614158 0.639553 2.994717 0.013462 -0.008057 -1021920.000000 0 1 0
3.916436 1.836215 -21.204540 21.641226 0.438417 2.940363 0.016814 -0.010408 -764463.000000 0 1 0
4.620536 1.314515 -22.446440 22.954737 0.277171 2.930758 0.021746 0.000017 -572722.000000 0 1 0
5.980236 1.045315 -22.274040 23.086549 0.173047 2.875501 0.030491 -0.006806 -743280.000000 0 1 0
6.535536 0.503315 -23.438140 24.337480 0.076860 2.868892 0.027925 -0.008238 -220661.000000 0 1 0
8.071836 0.412315 -23.330240 24.690577 0.051036 2.808099 0.023634 -0.015808 26375.200000 0 1 0
8.552336 1.735715 -23.446140 25.017526 0.200233 2.785278 0.030869 -0.021946 -407744.000000 0 0 1
9.887936 1.916115 -23.044040 25.148967 0.191411 2.729542 0.034331 -0.018329 -243313.000000 0 0 1
13.920136 -21.233003 21.948483 33.561086 -0.990502 0.857955 0.011614 0.014329 -654075.000000 0 0 1
12.901436 -22.184303 22.242283 33.960410 -1.044048 0.856683 0.002102 0.021020 948645.000000 0 0 1
11.580936 -21.622703 22.062383 32.991030 -1.079083 0.838285 -0.005046 0.016880 1168820.000000 0 0 1
11.028536 -21.266803 20.682183 31.648984 -1.092396 0.858615 0.000264 -0.000565 -714130.000000 0 0 1
11.698236 -20.158503 20.104083 30.779670 -1.044979 0.859045 -0.010019 0.000274 -174337.000000 0 0 1
11.129536 -19.871203 18.878583 29.582632 -1.060244 0.878685 0.017254 -0.007186 -153290.000000 0 0 1
11.213736 -18.368803 18.454383 28.350044 -1.022709 0.861965 0.038881 -0.014167 -183187.000000 0 0 1
10.549836 -17.439703 19.276183 28.053760 -1.026758 0.813284 0.046697 -0.016801 -411518.000000 0 0 1
10.666636 -16.101303 18.842783 26.982949 -0.985704 0.797746 0.053427 -0.017129 139249.000000 0 0 1
9.548236 -15.211903 19.431683 26.460557 -1.010271 0.746067 0.049297 -0.018110 842130.000000 0 0 1
8.238836 -15.546103 18.979383 25.880044 -1.083468 0.747545 0.041668 -0.012544 -126600.000000 0 0 1
7.244536 -14.652403 19.387283 25.358291 -1.111617 0.700478 0.025607 -0.008205 568082.000000 0 0 1
5.846536 -15.025303 18.787383 24.756968 -1.199711 0.709216 0.002937 0.005019 190563.000000 0 1 0
5.747136 -15.052403 17.364183 23.687955 -1.206070 0.748018 -0.000057 0.005873 -71119.400000 0 1 0
4.478936 -15.277403 16.780083 23.130739 -1.285614 0.759115 -0.002302 0.000683 -96198.000000 0 1 0
3.783736 -16.617103 16.997683 24.070022 -1.346912 0.786713 0.005362 0.009004 -590996.000000 0 1 0
2.493236 -16.631503 16.460683 23.532471 -1.421994 0.796115 0.014486 0.006803 -479346.000000 0 1 0
1.860136 -17.902303 16.561383 24.458780 -1.467263 0.826963 0.025096 -0.001275 603905.000000 0 1 0
0.323736 -17.752103 16.387783 24.161982 -1.552562 0.825422 0.039924 0.005269 355972.000000 0 1 0
-0.076964 -17.469603 15.053083 23.060534 1.566391 0.859569 0.041893 -0.001495 -1751510.000000 0 1 0
-1.429964 -17.445703 14.906683 22.991445 1.489013 0.865371 0.029346 0.000229 -1526170.000000 0 1 0
-1.889964 -18.169503 13.631183 22.792804 1.467151 0.929733 0.022539 -0.006650 63074.400000 0 1 0
-3.277464 -18.280803 13.384683 22.892777 1.393397 0.946325 0.008998 -0.010649 -94443.000000 0 1 0
-3.545364 -19.274803 12.388783 23.185546 1.388892 1.007079 0.021837 -0.025680 913079.000000 0 1 0
-5.077964 -19.578403 12.300683 23.672904 1.317023 1.024402 0.014400 -0.023447 668539.000000 0 1 0
-5.809964 -20.075703 13.405783 24.829509 1.289090 1.000462 0.009083 -0.016316 10909.000000 0 1 0
-6.025464 -21.460403 13.283783 25.948294 1.297073 1.033363 -0.023981 0.000787 -317925.000000 0 0 1
-6.689264 -22.150603 14.456783 27.283585 1.277515 1.012348 -0.008591 0.004525 754160.000000 0 0 1
-8.062564 -21.737903 14.603383 27.400732 1.215626 1.008706 0.000658 0.004217 838646.000000 0 0 1
-8.773064 -22.561003 15.510983 28.749888 1.199930 1.000936 0.007600 0.007861 -80949.900000 0 0 1
-10.265664 -22.258503 15.668183 29.091524 1.138666 1.002043 0.024627 0.003500 -136344.000000 0 0 1
-10.485664 -21.021103 16.319083 28.603293 1.108096 0.963643 0.018936 -0.001281 -459108.000000 0 0 1
-11.749364 -20.434703 16.076183 28.531882 1.048984 0.972245 0.039405 -0.004349 185150.000000 0 0 1
-12.009664 -19.291503 17.109183 28.445004 1.013970 0.925440 0.035773 -0.003190 -252646.000000 0 0 1
-12.159364 -19.773403 18.443283 29.647804 1.019467 0.899401 0.041897 -0.007887 -134068.000000 0 0 1
-12.425564 -18.672503 19.298583 29.588719 0.983638 0.860277 0.036863 -0.012052 58426.600000 0 0 1
-12.968464 -19.250503 20.645683 31.064564 0.977962 0.843830 0.049436 -0.019056 368637.000000 0 0 1
-14.261964 -19.822803 20.510083 31.890604 0.947121 0.872206 0.060868 -0.012129 111357.000000 0 0 1
-14.727564 -20.247003 21.752283 33.166309 0.941920 0.855482 0.053179 -0.001668 176884.000000 0 0 1
-15.988664 -21.163903 21.694383 34.266520 0.923804 0.885235 0.060086 -0.005915 -465676.000000 0 0 1
-15.902064 -22.307203 20.863083 34.434796 0.951487 0.919935 0.056113 -0.009502 497183.000000 0 0 1
-17.080364 -22.594203 20.083283 34.721392 0.923490 0.954015 0.054785 -0.009030 1002040.000000 0 0 1
-18.284764 -23.141703 20.910783 36.154278 0.902108 0.954059 0.051205 -0.003634 -394318.000000 0 0 1
-18.912864 -22.245003 21.768783 36.420001 0.866182 0.930148 0.062980 -0.002542 -70227.900000 0 0 1
-19.588164 -22.977703 22.819683 37.847178 0.864861 0.923612 0.053287 0.005532 384266.000000 0 0 1
-20.300064 -22.070403 23.902343 38.347324 0.827156 0.897825 0.044921 0.013719 -115510.000000 0 0 1
-21.355264 -21.371603 23.314983 38.162562 0.785781 0.913551 0.034047 0.022301 -246963.000000 0 0 1
-21.726364 -20.259603 24.075593 38.237685 0.750478 0.889719 0.040855 0.013372 -157692.000000 0 0 1
-22.791864 -19.465903 23.318683 37.975669 0.706854 0.909624 0.036898 0.020775 -235775.000000 0 0 1
-22.263764 -18.805403 22.207883 36.640257 0.701388 0.919641 0.044460 0.020775 296871.000000 0 0 1
-23.197764 -17.845103 21.724983 36.449401 0.655714 0.932247 0.028986 0.018208 -58171.600000 0 0 1
-22.646764 -17.155903 20.474383 35.020012 0.648311 0.946350 0.033923 0.018428 -137600.000000 0 0 1
-21.609564 -16.201603 20.581283 33.956655 0.643336 0.919643 0.032785 0.020146 -129780.000000 0 0 1
-21.234664 -15.691203 19.283283 32.695104 0.636387 0.939996 0.028376 0.010878 164465.000000 0 0 1
-20.120664 -14.614503 19.243483 31.444180 0.628188 0.912224 0.026110 -0.005682 108990.000000 0 0 1
-19.904364 -14.292503 17.900883 30.346350 0.622743 0.939879 0.025445 -0.009235 105737.000000 0 0 1
-19.147864 -13.123403 17.546383 29.098796 0.600841 0.923548 0.033263 -0.021209 -248598.000000 0 0 1
-18.720564 -13.224803 16.059583 27.986874 0.615030 0.959627 0.017716 -0.022344 57067.400000 0 0 1
-18.138364 -12.049603 15.539183 26.751811 0.586373 0.951006 0.020880 -0.024403 623722.000000 0 0 1
-16.772664 -11.816803 15.908083 25.962014 0.613758 0.911268 0.031183 -0.030645 165889.000000 0 0 1
-16.183664 -10.570703 15.201983 24.591686 0.578601 0.904377 0.039571 -0.033386 120544.000000 0 1 0
-16.817364 -9.366403 15.620583 24.790237 0.508162 0.889101 0.032777 -0.022604 221632.000000 0 1 0
-16.409764 -8.254103 14.805383 23.592582 0.466044 0.892402 0.027005 -0.011412 -594976.000000 0 1 0
-16.724864 -6.786503 15.421283 23.740128 0.385473 0.863755 0.037086 -0.005330 258529.000000 0 1 0
-16.016864 -6.362403 16.566683 23.905545 0.378117 0.805146 0.032916 -0.006387 1124270.000000 0 1 0
-14.580064 -6.316703 16.380683 22.821169 0.408831 0.770181 0.029040 -0.007198 1063820.000000 0 1 0
-13.717064 -6.205803 17.689583 23.229102 0.424860 0.705131 0.022837 -0.004222 210399.000000 0 1 0
-13.673864 -7.327303 18.535283 24.170656 0.491924 0.696877 0.024015 -0.010943 -90679.800000 0 1 0
-13.104264 -8.501903 18.005283 23.836826 0.575523 0.714600 0.030888 -0.013266 -676195.000000 0 1 0
-13.295864 -9.744303 18.979283 25.138509 0.632455 0.715160 0.034144 -0.016046 750357.000000 0 0 1
-14.587964 -10.348203 19.080883 26.152898 0.616984 0.753075 0.030290 -0.014927 293160.000000 0 0 1
-15.526464 -9.609903 19.817983 26.947611 0.554227 0.744501 0.027799 -0.010555 -1560170.000000 0 0 1
-16.858364 -10.290103 20.154583 28.218750 0.548021 0.775278 0.021568 -0.005901 211735.000000 0 0 1
-17.837164 -10.372803 19.128283 28.136287 0.526726 0.823247 0.024447 -0.012193 196797.000000 0 0 1
-18.300664 -9.117003 18.660783 27.681381 0.462190 0.831013 0.023478 -0.013552 -1236390.000000 0 0 1
-19.457564 -9.363303 17.668483 27.900601 0.448508 0.885031 0.041647 -0.006359 1116070.000000 0 0 1
-20.743264 -9.479303 18.355383 29.275592 0.428645 0.893118 0.040260 -0.007438 828560.000000 0 0 1
-21.768164 -9.523003 17.378983 29.437554 0.412388 0.939282 0.045192 -0.012157 -1125060.000000 0 0 1
-23.112764 -9.598203 18.038283 30.849716 0.393607 0.946268 0.044383 -0.008224 -1299000.000000 0 0 1
-23.601764 -8.402203 18.545483 31.170101 0.342009 0.933560 0.046791 -0.000508 114368.000000 0 0 1
-24.994364 -8.521903 18.712183 32.364902 0.328592 0.954321 0.038460 0.007250 39884.500000 0 0 1
-25.724684 -7.331403 19.433683 33.063225 0.277634 0.942493 0.047409 0.007480 126550.000000 0 0 1
-25.503174 -7.388003 20.828183 33.746225 0.281971 0.905617 0.050198 0.008471 443091.000000 0 0 1
-26.184504 -6.323403 21.503783 34.467758 0.236957 0.897097 0.046129 0.011438 -447987.000000 0 0 1
-26.202294 -6.455003 23.045383 35.486856 0.241543 0.863993 0.043623 0.010735 757085.000000 0 0 1
-24.982964 -6.311303 23.793983 35.073276 0.247447 0.825203 0.040152 0.000779 710724.000000 0 0 1
-23.916464 -7.212103 23.601483 34.366287 0.292882 0.813770 0.038344 0.006756 216166.000000 0 0 1
-22.738764 -6.988803 24.602393 34.222397 0.298188 0.768582 0.033012 0.005885 449900.000000 0 0 1
-22.072664 -5.743103 24.542673 33.504157 0.254547 0.748771 0.025314 0.002062 -9850.320000 0 0 1
-21.215564 -5.477403 25.601433 33.697707 0.252661 0.707886 0.022567 0.001294 -273858.000000 0 0 1
-20.940164 -3.977303 25.612323 33.321172 0.187701 0.694068 0.016662 0.003733 155724.000000 0 0 1
-19.898364 -3.396903 26.383233 33.219856 0.169083 0.653105 0.004465 0.004948 66643.700000 0 0 1
-20.114164 -3.438103 27.793993 34.480519 0.169293 0.633301 0.012101 -0.006015 -199861.000000 0 0 1
-20.887064 -2.267703 28.403523 35.329478 0.108146 0.636870 0.015475 -0.011888 -553403.000000 0 0 1
-22.221364 -2.270503 28.004823 35.821981 0.101823 0.673285 0.014682 -0.009708 -777183.000000 0 0 1
-22.999264 -1.299503 28.712923 36.811504 0.056442 0.676133 0.012936 -0.002866 400432.000000 0 0 1
-24.336664 -1.019603 27.996143 37.109255 0.041871 0.716019 0.021437 -0.004250 -741558.000000 0 0 1
-24.247364 -0.268603 26.800113 36.142120 0.011077 0.735463 0.022208 -0.005738 660129.000000 0 0 1
-25.543434 0.035597 26.253023 36.629080 -0.001394 0.771700 0.025305 0.003289 602844.000000 0 0 1
-26.256274 -1.123703 25.491483 36.612434 0.042771 0.800634 0.018383 0.004930 -423603.000000 0 0 1
-26.768484 -2.030803 26.418893 37.664755 0.075720 0.793406 0.015604 0.000899 -144080.000000 0 0 1
-26.775704 -3.355803 25.909563 37.409961 0.124680 0.805730 -0.006642 0.009449 246099.000000 0 0 1
-25.528444 -4.206903 26.282213 36.880268 0.163325 0.777548 0.020795 -0.005993 289928.000000 0 0 1
-25.484944 -4.488503 27.693963 37.902303 0.174336 0.751498 0.013715 -0.003802 -386777.000000 0 0 1
-24.485864 -5.425103 27.978383 37.573650 0.218038 0.730819 0.043478 -0.008448 -250903.000000 0 0 1
-24.317264 -5.914103 29.460153 38.654968 0.238574 0.704198 0.015601 -0.009921 -313313.000000 0 0 1
-25.450634 -6.626703 29.895223 39.816734 0.254719 0.721493 0.027191 -0.012843 -27837.500000 0 0 1
-25.299504 -7.160403 31.166093 40.775748 0.275812 0.700796 0.016294 -0.004358 -498295.000000 0 0 1
-26.603524 -7.544403 31.865873 42.191224 0.276331 0.714726 0.004703 -0.010627 -418941.000000 0 0 1
-27.274654 -8.591603 31.223833 42.339699 0.305164 0.741495 0.010092 -0.013987 462508.000000 0 0 1
-28.678784 -8.607103 31.490763 43.453688 0.291568 0.760202 0.020283 -0.012635 406544.000000 0 0 1
-29.436574 -9.478803 30.499083 43.434475 0.311523 0.792333 0.020729 -0.022888 -261663.000000 0 0 1
-29.601314 -10.842503 30.839553 44.100745 0.351108 0.796382 0.032983 -0.023633 86485.800000 0 0 1
-30.394034 -11.454103 29.835723 44.104015 0.360395 0.827817 0.012872 -0.019210 -485272.000000 0 0 1
-29.827264 -12.708903 29.187463 43.624418 0.402788 0.837850 0.020418 -0.017097 44380.600000 0 0 1
-28.745584 -12.406103 28.315063 42.213301 0.407433 0.835561 0.030887 -0.011494 -461320.000000 0 0 1
-28.014034 -13.516203 27.992353 41.845497 0.449533 0.838007 0.036101 -0.013674 -992760.000000 0 0 1
-26.733644 -13.079303 27.279193 40.372147 0.455007 0.828891 0.044162 -0.012625 -693678.000000 0 0 1
-25.790164 -12.417303 28.123163 40.127724 0.448718 0.794220 0.036809 -0.023363 78732.900000 0 0 1
-25.943704 -11.109403 28.627803 40.200071 0.404588 0.778264 0.042194 -0.023298 -1085060.000000 0 0 1
-25.938564 -9.973803 27.571743 39.146990 0.367088 0.789341 0.043167 -0.020201 281769.000000 0 0 1
-24.622464 -9.719603 27.083453 37.871491 0.375968 0.773971 0.032414 -0.011332 466589.000000 0 0 1
-24.040064 -10.634503 26.190533 37.107430 0.416487 0.787240 0.028424 -0.006081 -521565.000000 0 0 1
-24.601764 -10.545203 24.778513 36.474961 0.404946 0.823948 0.037896 0.008997 226392.000000 0 0 1
-25.904814 -11.099303 24.588713 37.401320 0.404802 0.853395 0.042078 0.003750 123133.000000 0 0 1
-26.439084 -10.657103 23.349983 36.848619 0.383160 0.884504 0.041904 0.011133 1062320.000000 0 0 1
-27.924734 -11.195003 23.191083 37.986118 0.381281 0.914086 0.047033 0.009306 1256390.000000 0 0 1
-29.016044 -10.730903 23.948583 39.123110 0.354227 0.912040 0.051098 0.004428 248460.000000 0 0 1
-28.909384 -10.959403 25.348333 39.979982 0.362356 0.884048 0.050859 -0.002502 -224222.000000 0 0 1
-30.347654 -10.782503 25.948443 41.358967 0.341388 0.892592 0.027421 -0.000119 364948.000000 0 0 1
-30.834864 -9.456003 25.776013 41.286895 0.297561 0.896542 0.030203 -0.008380 -148937.000000 0 0 1
-32.240114 -9.409703 25.855353 42.384746 0.283975 0.914716 0.022336 -0.003316 263738.000000 0 0 1
-32.999124 -9.478603 27.223453 43.816692 0.279708 0.900392 0.006309 -0.003478 -301578.000000 0 0 1
-33.064774 -10.694603 27.891473 44.559938 0.312824 0.894471 0.002442 -0.007223 -365502.000000 0 0 1
-33.828494 -10.512903 29.008923 45.786524 0.301309 0.884639 0.006978 -0.006031 -1593600.000000 0 0 1
-34.367306 -11.819203 29.683643 46.924662 0.331238 0.885915 0.006586 0.000259 6497.970000 0 0 1
-35.423769 -12.467503 29.001323 47.448485 0.338414 0.913199 0.001497 -0.003924 -769237.000000 0 0 1
34.989010 -11.818103 29.210653 47.086735 -0.325735 0.901597 0.002442 -0.002174 -934208.000000 0 0 1
33.815400 -12.543303 28.425303 45.921820 -0.355202 0.903336 0.002498 0.000279 374734.000000 0 0 1
33.654250 -12.070203 27.137353 44.885791 -0.344363 0.921549 0.012403 0.003540 -361588.000000 0 0 1
32.660920 -12.737703 26.424713 43.900458 -0.371855 0.924889 0.012987 0.010118 -560741.000000 0 0 1
32.432420 -12.069003 25.045093 42.717436 -0.356250 0.944316 0.017600 0.002197 -159892.000000 0 0 1
31.939770 -10.781803 25.073193 42.012631 -0.325556 0.931288 0.023837 -0.004097 8698.320000 0 0 1
32.116560 -10.212303 23.795493 41.255182 -0.307866 0.956005 0.022630 -0.003681 -166916.000000 0 0 1
31.793900 -8.707403 23.724513 40.614325 -0.267316 0.946974 0.033624 0.009579 423340.000000 0 0 1
30.384990 -8.489303 23.836123 39.540822 -0.272444 0.923762 0.054707 -0.002846 351821.000000 0 0 1
30.078310 -7.155203 23.548683 38.864407 -0.233545 0.919876 0.057845 -0.001996 71101.900000 0 0 1
28.556220 -7.053003 23.317783 37.535604 -0.242140 0.900501 0.067980 0.001836 49402.900000 0 0 1
28.150300 -7.757103 22.122983 36.633842 -0.268887 0.922418 0.053716 0.005079 -530487.000000 0 0 1
26.770060 -7.704003 21.967783 35.476348 -0.280212 0.903043 0.065924 -0.016744 -981654.000000 0 0 1
14.637136 -17.498603 26.700193 35.119042 -0.874207 0.707057 -0.000549 0.020790 -288764.000000 0 0 1
13.824836 -18.458003 26.091433 34.822217 -0.927943 0.723829 -0.012708 0.027986 -222832.000000 0 0 1
14.433036 -19.707503 26.124283 35.765575 -0.938679 0.751844 -0.000331 0.024184 -386694.000000 0 0 1
13.499836 -20.981103 25.926273 35.980882 -0.999055 0.766191 -0.026612 0.010920 263709.000000 0 0 1
12.794136 -21.487003 26.984513 36.790557 -1.033739 0.747394 -0.014652 0.006853 867040.000000 0 0 1
11.758636 -20.605503 27.536383 36.347003 -1.052233 0.711173 -0.009392 0.010355 565696.000000 0 0 1
11.149536 -20.865503 28.925413 37.367912 -1.080046 0.685550 -0.001614 0.006956 -353878.000000 0 0 1
12.057936 -20.551903 29.928103 38.255272 -1.040209 0.672405 0.000879 0.012053 -15251.500000 0 0 1
11.486336 -19.601703 30.868683 38.328034 -1.040745 0.634478 0.011389 0.011081 178863.000000 0 0 1
11.391436 -18.175903 30.402283 37.207889 -1.010952 0.614447 0.008917 0.009806 -671310.000000 0 0 1
12.537236 -17.418603 30.369943 37.187678 -0.946931 0.615185 -0.003800 0.019996 -1125830.000000 0 0 1
12.198936 -16.068803 30.061993 36.204197 -0.921453 0.591069 -0.001301 0.017422 -59841.000000 0 0 1
13.203336 -14.952303 30.397663 36.358181 -0.847436 0.580732 -0.008868 0.010482 -73677.800000 0 0 1
12.644936 -13.699303 30.072903 35.382831 -0.825399 0.554945 0.018322 0.007376 144546.000000 0 0 1
13.450836 -12.641903 30.581463 35.720702 -0.754406 0.543068 0.015583 0.010892 177320.000000 0 0 1
12.881236 -11.218103 30.340603 34.818447 -0.716496 0.512759 0.016050 0.010644 -250970.000000 0 0 1
12.843336 -10.781703 28.977603 33.479812 -0.698354 0.524599 0.028422 0.011679 -366624.000000 0 0 1
13.982136 -10.790803 28.151023 33.232839 -0.657280 0.560321 0.037102 0.010050 -761279.000000 0 0 1
14.162136 -9.882403 26.910193 31.974778 -0.609251 0.570545 0.039565 0.005194 -49178.800000 0 0 1
14.451736 -8.504203 27.188933 31.943891 -0.531888 0.552631 0.034358 0.003215 1223070.000000 0 0 1
15.800236 -8.227203 27.657253 32.897689 -0.480071 0.572212 0.036080 -0.004121 844548.000000 0 0 1
16.023936 -6.723703 27.767243 32.756594 -0.397291 0.559192 0.030033 -0.005379 52797.700000 0 0 1
17.392536 -6.459703 28.030543 33.614571 -0.355617 0.584695 0.037210 -0.012880 11137.900000 0 0 1
17.758236 -5.257303 27.505113 33.159092 -0.287828 0.592604 0.043725 -0.013608 -581649.000000 0 0 1
19.261736 -5.038603 27.311243 33.798017 -0.255853 0.629924 0.044653 -0.013822 -1000150.000000 0 0 1
19.777736 -5.825003 26.245943 33.375725 -0.286425 0.665872 0.044533 -0.010533 1204840.000000 0 0 1
21.163336 -5.646203 25.883453 33.907514 -0.260719 0.702306 0.058238 -0.012699 649448.000000 0 0 1
22.246736 -5.952903 26.885373 35.400248 -0.261460 0.708301 0.062581 -0.027770 -1360710.000000 0 0 1
22.501336 -4.850703 27.766133 36.066571 -0.212325 0.692178 0.059546 -0.026828 555523.000000 0 0 1
23.392736 -5.259303 28.853333 37.515266 -0.221149 0.693350 0.065807 -0.035681 404290.000000 0 0 1
24.093636 -4.099203 29.513253 38.318909 -0.168523 0.691640 0.068863 -0.028538 -432697.000000 0 0 1
25.089936 -3.457603 28.756053 38.319322 -0.136946 0.722081 0.064809 -0.024408 86389.500000 0 0 1
25.538436 -2.242403 29.324093 38.950513 -0.087580 0.718407 0.052677 -0.031015 -855567.000000 0 0 1
26.407636 -1.384303 28.405623 38.809263 -0.052373 0.749648 0.052434 -0.029343 -959893.000000 0 0 1
27.725136 -1.810903 28.435133 39.755745 -0.065224 0.773820 0.048422 -0.028890 -1053560.000000 0 0 1
28.435836 -1.241403 27.359583 39.480180 -0.043629 0.805161 0.041839 -0.016249 548550.000000 0 0 1
29.919736 -0.894503 27.698343 40.782213 -0.029888 0.824156 0.023568 -0.010889 446777.000000 0 0 1
30.014936 0.123797 28.684553 41.517650 0.004125 0.808063 -0.000605 0.002969 -680726.000000 0 0 1
31.307336 0.183497 29.208423 42.817227 0.005861 0.820077 0.002199 -0.004837 -257083.000000 0 0 1
31.514936 1.439597 30.067573 43.581218 0.045648 0.809417 0.015873 -0.010163 44479.300000 0 0 1
31.834336 2.664597 29.474003 43.465410 0.083507 0.825619 0.000134 0.003304 -136858.000000 0 0 1
31.838136 3.730797 30.373723 44.160489 0.116648 0.812338 -0.007789 0.001237 45644.400000 0 0 1
32.291436 5.075597 29.760493 44.206170 0.155905 0.832241 0.000078 0.009132 3850.190000 0 0 1
32.405336 6.153897 30.712033 45.068894 0.187669 0.821059 -0.010077 0.011674 23350.100000 0 0 1
31.174736 6.725897 31.106003 44.549806 0.212491 0.797875 -0.003646 0.014143 -149219.000000 0 0 1
31.283436 7.552597 32.405933 45.670992 0.236892 0.781934 -0.007336 0.007186 -214663.000000 0 0 1
31.577736 6.735897 33.534378 46.551909 0.210162 0.766468 -0.013036 0.008198 112897.000000 0 0 1
31.930536 7.529897 -34.090546 47.311983 0.231590 2.375388 -0.001019 -0.003965 -342818.000000 0 0 1
32.396036 6.656397 -32.909980 46.657020 0.202649 2.353727 0.004792 0.000580 -54756.900000 0 0 1
31.381136 5.943097 -32.208530 45.359513 0.187168 2.360397 -0.009688 0.004724 292701.000000 0 0 1
31.107636 4.681497 -32.732580 45.398493 0.149373 2.376049 0.003752 -0.005204 -226595.000000 0 0 1
31.622636 3.540397 -31.877770 45.041289 0.111493 2.357098 -0.001518 -0.010424 -234922.000000 0 0 1
31.442736 2.257497 -32.462130 45.249661 0.071674 2.370860 0.001952 -0.008227 344832.000000 0 0 1
31.917836 1.349597 -31.481900 44.851752 0.042258 2.348872 0.005331 -0.006831 -111266.000000 0 0 1
31.856936 -0.053903 -32.090400 45.217928 -0.001692 2.359845 0.011940 -0.021768 -1038340.000000 0 0 1
32.919136 -0.397003 -32.932720 46.565987 -0.012059 2.356364 0.009046 -0.017048 -178275.000000 0 0 1
33.562236 -1.608203 -32.549620 46.781275 -0.047880 2.340306 0.016618 -0.012154 634353.000000 0 0 1
34.571336 -1.457103 -31.362840 46.700408 -0.042123 2.307129 0.032034 -0.014542 -652433.000000 0 0 1
33.918336 -1.584203 -30.147240 45.407260 -0.046672 2.296858 0.038908 -0.015708 -60726.800000 0 0 1
34.818736 -1.544803 -29.080120 45.391454 -0.044338 2.266143 0.056482 -0.015513 -169977.000000 0 0 1
34.055436 -1.325003 -27.750120 43.949943 -0.038888 2.254157 0.046920 -0.020533 -25625.400000 0 0 1
33.477636 -0.065003 -27.611580 43.395341 -0.001942 2.260463 0.042966 -0.024012 218059.000000 0 0 1
32.893836 0.150297 -26.339250 42.140041 0.004569 2.245980 0.032369 -0.013378 -233175.000000 0 0 1
32.294936 1.553697 -26.298340 41.677086 0.048073 2.253641 0.028033 -0.010696 -211942.000000 0 0 1
31.086036 1.662397 -27.010680 41.215070 0.053426 2.285455 0.017093 -0.014475 48427.800000 0 0 1
30.605536 2.965597 -27.138000 41.011762 0.096596 2.293897 0.017426 -0.008420 -52187.100000 0 0 1
29.425536 3.073697 -28.128770 40.823246 0.104079 2.330957 0.016198 0.002738 -434994.000000 0 0 1
29.228536 4.413297 -28.567950 41.108542 0.149861 2.339132 0.007310 0.001045 593714.000000 0 0 1
28.248436 4.408797 -29.607750 41.158601 0.154823 2.373673 0.014097 -0.001872 846755.000000 0 0 1
27.003836 5.364797 -29.480500 40.337180 0.196114 2.390365 0.017006 -0.009235 727011.000000 0 0 1
26.177736 5.095697 -28.363500 38.932353 0.192253 2.386974 0.024852 -0.004737 201191.000000 0 0 1
25.203336 6.046897 -28.063710 38.201373 0.235474 2.395911 0.028062 -0.005688 896362.000000 0 0 1
23.766536 5.453497 -27.710590 36.911592 0.225557 2.419961 0.032574 0.000982 1207830.000000 0 0 1
22.986636 5.110097 -28.866480 37.252814 0.218750 2.457322 0.048463 -0.007524 950238.000000 0 0 1
21.710336 4.622297 -28.430430 36.069289 0.209775 2.478703 0.057609 -0.009039 225872.000000 0 0 1
20.767336 4.209597 -29.565430 36.374683 0.199993 2.519743 0.047613 -0.007828 -557664.000000 0 0 1
21.029636 3.061697 -30.234580 36.956046 0.144574 2.528935 0.044287 -0.010800 -337116.000000 0 0 1
20.264436 2.741897 -31.356090 37.434873 0.134489 2.563703 0.035669 -0.013406 -417798.000000 0 0 1
20.554336 3.522797 -32.625950 38.721356 0.169740 2.572857 0.042546 -0.012891 1075690.000000 0 0 1
21.822236 3.303797 -33.316740 39.964111 0.150255 2.556510 0.044870 -0.012093 1065560.000000 0 0 1
21.850336 3.904997 34.155580 40.734381 0.176849 0.576281 0.054382 -0.022416 -636006.000000 0 0 1
23.185936 3.642797 33.486298 40.892416 0.155838 0.611326 0.059594 -0.013760 -430387.000000 0 0 1
23.405836 2.288797 33.134357 40.631974 0.097478 0.617247 0.070003 -0.017171 -1261170.000000 0 0 1
24.745036 1.985297 33.143584 41.409604 0.080059 0.642861 0.057399 -0.024912 -1120430.000000 0 0 1
25.034036 0.462097 33.001942 41.425169 0.018457 0.649041 0.037742 -0.025517 -589300.000000 0 0 1
24.796936 -0.215603 31.780163 40.310213 -0.008695 0.662609 0.048965 -0.025613 1326770.000000 0 0 1
23.421436 -0.446003 31.363853 39.146568 -0.019040 0.641515 0.072598 -0.028483 991233.000000 0 0 1
22.616836 -1.429903 32.224693 39.395389 -0.063139 0.612903 0.067607 -0.029735 -411577.000000 0 0 1
23.029436 -2.757303 32.047623 39.560179 -0.119162 0.626477 0.072118 -0.044025 223196.000000 0 0 1
22.150136 -3.503603 32.863352 39.785721 -0.156876 0.598807 0.073987 -0.035376 -100114.000000 0 0 1
21.979436 -4.998203 32.453953 39.513753 -0.223601 0.607052 0.075951 -0.034331 -276690.000000 0 0 1
23.117136 -5.834003 32.484923 40.295257 -0.247205 0.633142 0.079162 -0.031808 -246156.000000 0 0 1
22.837636 -7.194903 32.283143 40.193601 -0.305203 0.638164 0.082582 -0.022863 -398307.000000 0 0 1
24.121336 -8.054903 32.123973 40.971574 -0.322290 0.669624 0.077183 -0.021296 282842.000000 0 0 1
24.757636 -7.831203 30.886563 40.351555 -0.306356 0.699077 0.082513 -0.023334 28422.300000 0 0 1
25.961036 -8.538103 30.653833 41.067408 -0.317739 0.728119 0.071866 -0.024966 244587.000000 0 0 1
26.674636 -8.338203 29.341613 40.521501 -0.302966 0.761068 0.067326 -0.019698 47449.000000 0 0 1
25.759136 -8.563703 28.295793 39.211248 -0.320958 0.764650 0.058154 -0.011844 -174023.000000 0 0 1
26.377836 -8.389603 27.057293 38.707528 -0.307938 0.796772 0.074421 -0.012989 136907.000000 0 0 1
25.642636 -9.043703 25.834163 37.506497 -0.339062 0.810975 0.060653 -0.014607 -324013.000000 0 0 1
24.373036 -8.583103 25.523303 36.320153 -0.338594 0.791567 0.052326 -0.016893 -741284.000000 0 0 1
23.773436 -9.409303 24.552453 35.447625 -0.376872 0.805653 0.055125 -0.019130 317307.000000 0 0 1
22.359036 -8.955103 24.089223 34.064806 -0.380949 0.785325 0.042105 -0.009283 616259.000000 0 0 1
21.319836 -9.370103 24.990193 34.159098 -0.414089 0.750156 0.034077 -0.007775 236172.000000 0 0 1
20.091936 -8.963503 24.436573 32.881246 -0.419626 0.732991 0.032977 -0.001087 -489770.000000 0 0 1
18.872936 -8.797603 25.315673 32.779091 -0.436202 0.688324 0.030434 0.003575 -395135.000000 0 0 1
18.258036 -9.968503 25.871793 33.197539 -0.499751 0.677203 0.038467 0.004378 572801.000000 0 0 1
19.084736 -10.709703 26.806323 34.604968 -0.511375 0.684654 0.031984 0.001856 46155.400000 0 0 1
18.262036 -11.625103 27.739433 35.186945 -0.566878 0.662683 0.022713 0.004709 153099.000000 0 0 1
17.698936 -12.720303 26.995613 34.696131 -0.623169 0.679227 0.030551 0.005420 -5644.060000 0 0 1
16.755536 -13.450403 27.714483 35.067846 -0.676412 0.659481 0.016045 0.007783 -647758.000000 0 0 1
17.293636 -14.487903 28.653423 36.468998 -0.697345 0.666981 0.019037 0.016557 334778.000000 0 0 1
16.250636 -15.416103 29.105993 36.727349 -0.759051 0.655918 -0.000311 0.015220 981394.000000 0 0 1
16.750036 -16.427203 29.968213 38.059302 -0.775668 0.664203 0.019787 0.009207 -191038.000000 0 0 1
17.272936 -17.690103 29.239823 38.291791 -0.797329 0.701917 0.016840 0.018868 -361559.000000 0 0 1
18.424936 -17.456603 28.482133 38.150270 -0.758418 0.727894 0.018186 0.015955 -78729.300000 0 0 1
18.699936 -18.619003 27.669493 38.235529 -0.783229 0.761707 0.009481 0.017290 207360.000000 0 0 1
19.711236 -18.376903 26.490293 37.788609 -0.750380 0.793980 0.023717 0.003068 618765.000000 0 0 1
21.025536 -18.106003 26.964823 38.691112 -0.710928 0.799695 0.050367 -0.009597 281012.000000 0 0 1
21.763136 -17.385303 25.989673 38.096534 -0.674034 0.820021 0.040992 -0.008117 -502404.000000 0 0 1
23.206036 -17.103503 26.403433 39.092085 -0.635147 0.829267 0.041786 -0.012978 -782200.000000 0 0 1
23.996636 -18.244603 26.186793 39.930592 -0.650060 0.855544 0.043710 -0.022088 -338995.000000 0 0 1
25.307036 -17.960203 26.597993 40.871361 -0.617201 0.862194 0.048270 -0.020910 -349603.000000 0 0 1
26.295336 -19.126303 26.632133 42.030116 -0.628857 0.884542 0.038780 -0.023323 -219535.000000 0 0 1
25.936136 -19.989503 27.706523 42.894227 -0.656631 0.868560 0.042699 -0.017419 890900.000000 0 0 1
26.838736 -21.130303 27.808273 44.046651 -0.666953 0.887521 0.032838 -0.011977 528527.000000 0 0 1
26.383336 -22.199103 28.809603 44.931879 -0.699484 0.874756 0.023765 -0.000815 136688.000000 0 0 1
26.040236 -21.842203 30.163833 45.442629 -0.697948 0.844937 0.037210 -0.006542 45451.000000 0 0 1
25.431836 -22.991203 30.709033 46.026279 -0.735038 0.840344 0.026308 -0.006440 -651716.000000 0 0 1
24.943836 -22.832103 32.125653 46.642871 -0.741226 0.811022 0.024251 -0.004223 -323818.000000 0 0 1
24.677136 -24.034203 32.766028 47.541734 -0.772200 0.810404 0.006251 -0.003445 -62972.500000 0 0 1
24.559436 -23.899903 34.154295 48.382715 -0.771789 0.787076 0.010722 0.002675 -457733.000000 0 0 1
24.411936 -25.266253 -33.912530 48.830173 -0.802593 2.338520 0.001454 -0.004570 767488.000000 0 0 1
23.172736 -25.956213 -34.159116 48.760084 -0.841994 2.346971 0.016590 -0.006666 370154.000000 0 0 1
22.869636 -26.357293 33.241708 48.194795 -0.856129 0.809671 0.010948 -0.008118 233993.000000 0 0 1
21.519736 -27.139933 33.170887 47.958135 -0.900389 0.807007 0.030675 -0.013665 703490.000000 0 0 1
21.716736 -28.515893 33.499211 49.060879 -0.919934 0.819196 0.022481 -0.005724 833627.000000 0 0 1
20.434636 -29.087983 33.805313 49.055930 -0.958387 0.810525 0.037263 -0.009948 776412.000000 0 0 1
20.536036 -30.562653 34.168814 50.232582 -0.979157 0.822744 0.013328 -0.006571 -120006.000000 0 0 1
21.157036 -30.864413 -33.349580 50.124112 -0.969880 2.298746 0.009806 -0.004352 121187.000000 0 0 1
21.784336 -32.138443 -33.383080 51.204168 -0.975106 2.280963 -0.019729 0.010077 109873.000000 0 0 1
22.392636 -32.736313 -32.082930 51.013828 -0.970869 2.250942 -0.017497 0.016003 -831851.000000 0 0 1
23.006536 -33.988133 -32.243260 52.193119 -0.975743 2.236698 -0.031235 0.011788 503273.000000 0 0 1
23.622236 34.295859 -31.021350 51.928221 0.967642 2.211038 -0.023392 0.004343 336802.000000 0 0 1
24.908936 -33.747133 -30.539950 51.884608 -0.934951 2.200138 -0.018449 0.010746 -770622.000000 0 0 1
25.460536 -34.230501 -29.364050 51.790090 -0.931277 2.173634 0.000005 0.003623 327069.000000 0 0 1
26.279536 -33.159313 -28.795810 51.179612 -0.900631 2.168375 0.010336 -0.004801 146031.000000 0 0 1
26.650636 -33.215453 -27.327560 50.599587 -0.894620 2.141322 0.012783 -0.004665 -265423.000000 0 0 1
27.786336 -33.997713 -27.103590 51.599704 -0.885595 2.123824 0.014034 0.006088 -391652.000000 0 0 1
28.682936 -33.345153 -26.226510 51.209763 -0.860420 2.108469 0.016734 -0.004087 169736.000000 0 0 1
-26.393274 -30.568220 9.564160 41.502942 0.858562 1.338261 0.012091 -0.015586 -597246.000000 0 0 1
-26.515954 -31.889320 10.019260 42.666265 0.877141 1.333754 0.020969 -0.021572 -861602.000000 0 0 1
-25.327844 -32.319020 10.610660 42.409962 0.906085 1.317917 0.018860 -0.022902 -759477.000000 0 0 1
-25.369324 -33.643420 11.414960 43.655282 0.924699 1.306242 0.015538 -0.021252 120470.000000 0 0 1
-25.508604 33.955797 10.631660 43.780330 -0.926509 1.325503 0.022144 -0.019270 -119832.000000 0 0 1
-25.991514 32.865997 11.401860 43.425051 -0.901670 1.305118 0.019324 -0.020142 196835.000000 0 0 1
-25.714994 31.494897 10.783360 42.065073 -0.886086 1.311553 0.026420 -0.017181 -91652.200000 0 0 1
-26.718864 31.121097 9.883960 42.191386 -0.861362 1.334334 0.031490 -0.019463 -300945.000000 0 0 1
-26.533874 29.813597 9.326260 40.986293 -0.843538 1.341240 0.047324 -0.018287 -82841.400000 0 0 1
-25.719844 29.881897 7.990160 40.227862 -0.860114 1.370844 0.041992 -0.014530 -1146070.000000 0 0 1
-24.376864 29.674497 8.145560 39.257578 -0.883097 1.361788 0.036791 -0.010968 -1388790.000000 0 0 1
-23.827064 29.678797 6.834460 38.668719 -0.894331 1.393119 0.030600 -0.009626 576468.000000 0 0 1
-22.414564 29.019097 6.697960 37.274433 -0.913108 1.390122 0.046548 -0.004920 492520.000000 0 0 1
-22.470464 27.604997 6.865160 36.250353 -0.887577 1.380264 0.055013 -0.010737 69465.100000 0 0 1
-23.056864 26.849197 5.828460 35.867386 -0.861242 1.407572 0.044823 -0.014019 -391400.000000 0 0 1
-23.259564 25.365997 6.160760 34.962782 -0.828691 1.393662 0.052691 -0.010051 -465459.000000 0 0 1
-24.289864 25.151297 7.093760 35.677818 -0.802820 1.370634 0.056736 -0.016617 122734.000000 0 0 1
-24.555564 23.828097 7.480760 35.024502 -0.770364 1.355552 0.056417 -0.025658 -113105.000000 0 0 1
-25.088434 22.829597 6.425560 34.524019 -0.738293 1.383586 0.042855 -0.028811 -62773.600000 0 0 1
-26.306744 23.212197 5.790060 35.558061 -0.722987 1.407234 0.042075 -0.031066 482142.000000 0 0 1
-26.552274 22.437497 4.577660 35.063079 -0.701602 1.439868 0.032409 -0.027458 4817.010000 0 0 1
-26.332454 23.234697 3.280460 35.270536 -0.722983 1.477653 0.028581 -0.027349 622084.000000 0 0 1
-24.970864 23.671097 3.113960 34.547962 -0.758683 1.480539 0.031282 -0.024592 872336.000000 0 0 1
-24.876564 24.533597 2.004360 34.996547 -0.778457 1.513492 0.028195 -0.018980 605412.000000 0 0 1
-23.461064 25.180097 1.826260 34.464388 -0.820725 1.517782 0.030764 -0.016240 600447.000000 0 0 1
-23.116364 25.895797 0.657060 34.718732 -0.842047 1.551870 0.023083 -0.020089 -416376.000000 0 0 1
-21.918764 26.610597 0.805560 34.484853 -0.881779 1.547434 0.041712 -0.021162 -248919.000000 0 0 1
-21.176464 27.083597 -0.508940 34.383469 -0.907194 1.585599 0.048338 -0.022070 425411.000000 0 0 1
-20.864864 26.068797 -1.465840 33.422649 -0.895826 1.614668 0.044141 -0.022602 -197600.000000 0 0 1
-19.840164 25.216097 -1.021540 32.101826 -0.904153 1.602624 0.038900 -0.026708 -548782.000000 0 0 1
-19.367064 24.179997 -2.089840 31.050328 -0.895474 1.638152 0.040998 -0.031873 -446456.000000 0 0 1
-20.473364 23.487897 -2.607240 31.267198 -0.853863 1.654279 0.031912 -0.033023 -70476.400000 0 0 1
-20.020564 22.381397 -3.326940 30.212886 -0.841018 1.681137 0.034381 -0.030071 397042.000000 0 0 1
-21.215764 21.717297 -4.080940 30.633376 -0.797079 1.704412 0.016786 -0.021072 514961.000000 0 0 1
-21.787064 22.649797 -5.022640 31.826348 -0.804811 1.729273 0.020140 -0.016851 29440.500000 0 0 1
-23.058864 22.161197 -5.415340 32.436951 -0.765550 1.738531 0.039657 -0.024218 430820.000000 0 0 1
-23.678664 22.831897 -6.681740 33.565165 -0.767194 1.771203 0.034036 -0.016913 -8592.080000 0 0 1
-23.229264 22.186097 -7.888840 33.076509 -0.762433 1.811620 0.032353 -0.016571 431884.000000 0 0 1
-22.162964 22.885997 -8.534640 32.981903 -0.801447 1.832542 0.028300 -0.021870 4094.680000 0 0 1
-21.384164 22.123397 -9.577540 32.225091 -0.802387 1.872563 0.014081 -0.029510 -256751.000000 0 0 1
-22.137764 21.854697 -10.756140 32.915087 -0.778964 1.903696 0.008796 -0.014724 341366.000000 0 0 1
-21.308764 21.300397 -11.767940 32.345862 -0.785202 1.943158 0.007084 -0.009580 32124.500000 0 0 1
-22.050964 21.058797 -13.064240 33.172162 -0.762387 1.975593 0.006730 -0.003446 41337.000000 0 0 1
-23.093464 20.098197 -13.071840 33.288416 -0.716161 1.974345 0.003112 -0.000128 316125.000000 0 0 1
-23.889264 20.245897 -14.211740 34.388470 -0.703035 1.996839 0.007808 -0.001208 -218466.000000 0 0 1
-24.912164 19.181797 -14.611740 34.670740 -0.656164 2.005832 0.023044 -0.007864 230204.000000 0 0 1
-24.424964 18.047097 -15.354140 34.029784 -0.636346 2.038903 0.013688 -0.003888 140948.000000 0 0 1
-25.515394 17.169697 -15.531140 34.453594 -0.592316 2.038440 0.041235 0.001478 184417.000000 0 0 1
-25.264894 16.175297 -16.755640 34.361411 -0.569475 2.080169 0.049740 0.000419 604980.000000 0 0 1
-24.232364 15.176297 -16.648740 33.086372 -0.559521 2.098083 0.059805 -0.003125 447609.000000 0 0 1
-23.993164 14.501897 -17.861740 33.241822 -0.543662 2.138061 0.062978 -0.010220 -225537.000000 0 0 1
-23.073564 13.291897 -17.703640 31.976284 -0.522635 2.157536 0.063824 -0.007791 -435952.000000 0 0 1
-21.793264 13.582597 -17.214740 30.915701 -0.557338 2.161359 0.062993 -0.011170 -625400.000000 0 0 1
-21.001364 12.436097 -17.215040 29.867565 -0.534632 2.185087 0.067021 0.001830 -702922.000000 0 0 1
-19.709064 12.752697 -16.470440 28.676713 -0.574297 2.182605 0.060154 0.002308 -531337.000000 0 0 1
-18.934064 13.800997 -17.064540 28.985597 -0.629858 2.200277 0.050382 0.009616 1185360.000000 0 0 1
-17.661064 13.778597 -16.357340 27.736718 -0.662531 2.201528 0.049435 0.022379 1249890.000000 0 0 1
-16.656564 14.955097 -16.619540 27.880193 -0.731626 2.209438 0.037881 0.019565 328767.000000 0 0 1
-15.913764 14.705997 -17.824740 28.057719 -0.745975 2.259178 0.061138 0.007638 -134953.000000 0 0 1
-15.185064 15.885597 -18.111640 28.477533 -0.807941 2.260097 0.060972 0.002788 -556295.000000 0 0 1
-14.183064 15.521797 -19.200140 28.473336 -0.830436 2.310840 0.063800 -0.002607 -28613.100000 0 0 1
-13.330764 14.467397 -18.752240 27.178325 -0.826264 2.332244 0.059874 0.000133 792930.000000 0 0 1
-12.049364 14.497797 -19.427440 27.070255 -0.877368 2.371243 0.075308 -0.009705 1165210.000000 0 0 1
-11.367764 13.102397 -19.465440 26.073017 -0.856167 2.413694 0.067445 -0.013034 -30911.200000 0 0 1
-11.931864 12.174997 -20.334540 26.534759 -0.795483 2.443915 0.063212 -0.002892 17910.800000 0 0 1
-11.223564 10.978697 -20.088840 25.496307 -0.774370 2.478207 0.039052 0.006275 -29928.000000 0 0 1
-11.611164 9.773697 -20.932640 25.855748 -0.699685 2.514255 0.041974 -0.000196 -118980.000000 0 0 1
-11.094164 9.928797 -22.238540 26.762178 -0.730022 2.551644 0.046208 -0.006302 -55334.100000 0 0 1
-11.455964 8.874897 -23.088640 27.259644 -0.659121 2.581093 0.042981 0.004690 -191277.000000 0 0 1
-11.249764 9.040097 -24.614740 28.533594 -0.676921 2.611298 0.042353 -0.009055 668207.000000 0 0 1
-9.878064 8.821897 -25.013940 28.303696 -0.728978 2.654654 0.041533 -0.012201 780874.000000 0 0 1
-9.772764 8.367497 -26.363280 29.335038 -0.708086 2.687583 0.026608 -0.016637 -131067.000000 0 0 1
-9.516364 9.465897 -27.431830 30.539641 -0.782740 2.686538 0.053679 -0.022339 -343435.000000 0 0 1
-8.258964 10.083497 -27.472900 30.408019 -0.884542 2.698606 0.041769 -0.026305 -88590.500000 0 0 1
-8.088664 11.149297 -26.547610 29.908342 -0.943169 2.662975 0.034643 -0.020374 -279876.000000 0 0 1
-6.603364 11.555097 -26.518790 29.671045 -1.051621 2.676455 0.029621 -0.013837 -35755.300000 0 0 1
-6.172164 12.163497 -27.745030 30.916548 -1.101220 2.684675 0.034146 -0.016394 -431311.000000 0 0 1
-4.784064 12.298197 -27.691890 30.675294 -1.199804 2.696899 0.044323 -0.009070 -484648.000000 0 0 1
-4.133864 12.547897 -29.064480 31.926205 -1.252548 2.714960 0.052007 -0.014850 31014.100000 0 0 1
-2.737464 12.778097 -28.993570 31.802524 -1.359755 2.718139 0.058742 -0.021462 199162.000000 0 0 1
-2.165864 12.717697 -30.327270 32.957155 -1.402112 2.739395 0.067319 -0.018348 -241975.000000 0 0 1
-0.643564 12.627197 -30.277070 32.810993 -1.519874 2.746010 0.066672 -0.026240 -734820.000000 0 0 1
-0.204864 11.384297 -29.762740 31.866359 -1.552803 2.776207 0.047722 -0.013362 397439.000000 0 0 1
1.184436 11.144497 -29.985420 32.011375 1.464914 2.783912 0.054864 -0.018139 590585.000000 0 0 1
1.662536 10.662497 -31.349130 33.154499 1.416118 2.810067 0.059311 -0.013286 -612128.000000 0 0 1
1.888636 11.698197 -32.309790 34.414202 1.410731 2.790073 0.071161 -0.022626 292377.000000 0 0 1
2.086936 11.062797 -33.519140 35.359207 1.384343 2.817565 0.060914 -0.020875 -152849.000000 0 0 1
2.331636 12.014097 34.023533 36.157653 1.379104 0.345290 0.067019 -0.024798 170628.000000 0 0 1
3.675536 12.470397 34.000936 36.401703 1.284171 0.365212 0.056953 -0.025210 -104285.000000 0 0 1
3.806436 13.331197 32.910372 35.711376 1.292669 0.398702 0.058580 -0.022831 -434223.000000 0 0 1
5.239736 13.501597 32.428903 35.515936 1.200606 0.420021 0.052543 -0.016589 -657691.000000 0 0 1
5.755736 12.260997 31.965533 34.716795 1.131899 0.400795 0.051889 -0.020348 -478664.000000 0 0 1
7.065036 12.362097 31.494523 34.563581 1.051590 0.424596 0.041213 -0.008142 -336273.000000 0 0 1
7.706336 11.071297 30.884043 33.701414 0.962717 0.411800 0.020928 -0.002871 22355.700000 0 0 1
7.294136 10.766997 29.574653 32.307781 0.975363 0.414287 0.028481 -0.013167 -416118.000000 0 0 1
8.161236 9.859097 28.985803 31.685712 0.879340 0.415806 0.025726 -0.009375 -246073.000000 0 0 1
7.554536 9.029397 27.866303 30.251146 0.874098 0.399732 0.024213 -0.004691 -54895.700000 0 0 1
6.765736 7.946597 28.353223 30.213057 0.865490 0.352702 0.029906 -0.009762 -106214.000000 0 0 1
6.337536 7.168597 27.233403 28.865401 0.846853 0.337873 0.036931 -0.015427 -330701.000000 0 0 1
5.426236 6.000897 27.709323 28.866267 0.835645 0.284078 0.058692 -0.027034 -124685.000000 0 0 1
6.044336 5.056697 28.601433 29.667257 0.696664 0.268861 0.053500 -0.020910 -56612.300000 0 0 1
5.167736 4.349197 29.444603 30.209363 0.699601 0.225490 0.063262 -0.023836 -617784.000000 0 0 1
5.810436 3.242797 30.290473 31.012733 0.509040 0.216241 0.072941 -0.016839 -86710.300000 0 0 1
5.992936 2.028497 29.597053 30.265750 0.326377 0.210599 0.082788 -0.013494 2098520.000000 0 0 1
7.413436 1.807697 29.230093 30.209686 0.239173 0.255356 0.101803 -0.015283 1737880.000000 0 0 1
7.580336 0.563997 28.365153 29.365992 0.074266 0.261828 0.089558 -0.022380 -334239.000000 0 0 1
7.302136 -0.627303 29.011353 29.922789 -0.085696 0.247449 0.060452 -0.011725 -67857.800000 0 0 1
7.611636 -1.702903 28.153613 29.214085 -0.220099 0.270266 0.068627 -0.009382 -126126.000000 0 0 1
8.272336 -2.875203 28.872043 30.171065 -0.334507 0.294509 0.047764 0.006000 1599410.000000 0 0 1
9.692536 -2.637203 29.115013 30.799092 -0.265655 0.332220 0.030581 0.000631 1284180.000000 0 0 1
10.498036 -3.786303 28.982403 31.056795 -0.346147 0.367561 0.017007 0.005215 -1380200.000000 0 0 1
11.979536 -3.511003 28.857783 31.442138 -0.285099 0.408278 0.009484 0.004000 -771740.000000 0 0 1
12.776736 -4.637203 28.582603 31.649863 -0.348157 0.443890 0.015092 0.002176 42768.800000 0 0 1
12.927336 -5.594303 29.614733 32.793972 -0.408416 0.443969 0.026648 -0.000561 -1030310.000000 0 0 1
12.322936 -6.958803 29.307983 32.545929 -0.514062 0.449852 0.028625 0.001952 -854628.000000 0 0 1
10.944436 -6.954903 29.454753 32.182818 -0.566096 0.414712 0.025555 0.002410 -650417.000000 0 0 1
10.277736 -8.178703 29.159703 31.981421 -0.672156 0.423223 0.031174 0.007233 1143100.000000 0 0 1
8.733436 -8.051203 28.869273 31.217458 -0.744774 0.390340 0.038488 0.001129 695630.000000 0 0 1
8.040336 -7.870303 30.064383 32.100713 -0.774712 0.358100 0.053031 -0.003634 -658974.000000 0 0 1
6.744436 -7.452103 29.711853 31.365832 -0.835205 0.326196 0.063811 -0.005075 -197481.000000 0 0 1
6.113336 -6.559403 30.820903 32.098702 -0.820583 0.283109 0.054313 -0.002760 -25680.400000 0 0 1
5.837336 -7.322303 32.031993 33.372731 -0.897765 0.284417 0.050247 0.001217 281779.000000 0 0 1
5.093936 -6.599003 33.016737 34.052899 -0.913410 0.247320 0.042588 -0.000896 223097.000000 0 0 1
5.755736 -5.316003 33.573459 34.475579 -0.745702 0.229268 0.050907 -0.004622 4247.800000 0 0 1
5.745036 -4.268903 32.614203 33.390346 -0.639044 0.216033 0.059280 -0.006748 -447227.000000 0 0 1
6.441436 -3.175703 33.020144 33.792115 -0.458041 0.214160 0.047443 -0.005387 -544965.000000 0 0 1
6.374936 -1.846503 32.161513 32.839188 -0.281935 0.203507 0.058541 0.005676 -570037.000000 0 0 1
5.070136 -1.345503 32.191073 32.615668 -0.259399 0.161533 0.069375 0.004109 -342867.000000 0 0 1
4.938636 -0.129903 31.441933 31.827694 -0.026297 0.155852 0.078449 -0.007719 -614123.000000 0 0 1
3.478536 0.208597 31.150233 31.344548 0.059895 0.111407 0.065121 -0.008944 -334491.000000 0 0 1
2.828436 0.572097 32.352223 32.480666 0.199574 0.088961 0.060377 -0.011897 267679.000000 0 0 1
1.500236 1.067097 32.128223 32.180927 0.618261 0.057240 0.069357 -0.013069 905344.000000 0 0 1
0.676336 1.106497 33.456656 33.481780 1.022153 0.038742 0.053117 -0.009454 -104265.000000 0 0 1
1.249236 1.962497 -34.346448 34.425143 1.003932 3.073964 0.038383 -0.004492 -196394.000000 0 0 1
0.433136 2.128697 -33.231160 33.302086 1.370062 3.076316 0.024361 -0.002029 -96170.800000 0 0 1
1.015336 3.191597 -32.252100 32.425532 1.262793 3.038119 0.016043 0.010282 119853.000000 0 0 1
2.210336 2.828797 -31.614180 31.817354 0.907519 3.028522 0.001854 0.013044 -382671.000000 0 0 1
2.787536 3.867197 -30.902850 31.268382 0.946236 2.988537 -0.002663 0.016120 -233695.000000 0 0 1
3.897736 3.384797 -29.962450 30.403907 0.715080 2.970976 -0.006571 0.019172 101909.000000 0 0 1
3.363336 2.591497 -28.905110 29.215291 0.656501 2.995744 -0.003354 0.003605 1445010.000000 0 0 1
4.461836 2.466097 -27.934980 28.396350 0.504921 2.961084 0.001800 -0.000610 1323220.000000 0 0 1
3.986836 1.718197 -26.664610 27.015708 0.406914 2.980197 0.003030 -0.006899 26708.100000 0 0 1
3.842536 0.340797 -26.836140 27.111983 0.088459 2.998823 0.017218 -0.008500 100049.000000 0 0 1
3.226536 -0.235803 -25.700300 25.903118 -0.072953 3.016372 0.021824 -0.010072 -441680.000000 0 0 1
3.701736 -1.653303 -25.430510 25.751642 -0.420047 2.983502 0.035751 -0.017321 -398098.000000 0 0 1
5.032136 -1.685503 -25.003040 25.560033 -0.323203 2.932446 0.029838 -0.023150 -838096.000000 0 0 1
5.550736 -2.933503 -25.303130 26.070375 -0.486178 2.898384 0.035009 -0.021517 -1138830.000000 0 0 1
6.889836 -3.122203 -24.627940 25.763412 -0.425479 2.843597 0.032986 -0.024316 -531855.000000 0 0 1
7.916636 -2.634603 -25.465840 26.797822 -0.321264 2.824979 0.024316 -0.018042 261134.000000 0 0 1
9.145936 -3.373103 -25.319290 27.131023 -0.353332 2.774077 0.030729 -0.012405 789290.000000 0 0 1
-29.021894 -4.656003 17.422783 34.168729 0.159075 1.035723 0.045444 -0.000619 620329.000000 0 0 1
-30.414274 -4.335403 17.514883 35.363751 0.141591 1.052642 0.041286 0.004490 386015.000000 0 0 1
-30.931664 -5.068103 18.612483 36.453779 0.162405 1.034940 0.031512 0.009959 444706.000000 0 0 1
-32.438564 -4.753503 18.856883 37.821135 0.145503 1.048836 0.024704 0.009892 278829.000000 0 0 1
-33.246044 -4.909303 17.692083 37.979080 0.146606 1.086215 0.021438 0.011471 14541.000000 0 0 1
-34.572145 -4.760803 18.142783 39.332671 0.136846 1.091376 0.022004 0.016642 -143501.000000 0 0 1
-35.704545 -4.807303 17.084683 39.872435 0.133836 1.127983 0.014619 0.012196 414730.000000 0 0 1
34.656930 -5.054503 17.711783 39.247395 -0.144823 1.102591 0.014125 0.017934 -47152.700000 0 0 1
33.631220 -5.340903 16.786383 37.965337 -0.157493 1.112802 0.013638 0.013389 -135344.000000 0 0 1
32.334330 -5.757703 17.493083 37.211127 -0.176221 1.081388 0.017644 0.013313 -241717.000000 0 0 1
31.771150 -4.788503 18.344783 36.998200 -0.149593 1.052007 0.026067 0.012338 -141184.000000 0 0 1
30.767620 -5.370603 19.115883 36.618394 -0.172813 1.021568 0.053579 0.008121 -285358.000000 0 0 1
30.224280 -4.600903 20.364483 36.734011 -0.151066 0.983182 0.046941 0.004297 609318.000000 0 0 1
29.250130 -3.558303 20.111083 35.674743 -0.121056 0.971896 0.058974 0.002974 944997.000000 0 0 1
29.827750 -2.388803 19.517883 35.726024 -0.079916 0.992831 0.060771 0.003874 471801.000000 0 0 1
28.825060 -1.209203 19.758683 34.967868 -0.041925 0.970299 0.064926 0.005134 421013.000000 0 0 1
29.309630 0.026097 19.301383 35.094137 0.000890 0.988445 0.052939 0.002384 67523.600000 0 0 1
28.369800 1.054997 19.554783 34.472425 0.037170 0.967623 0.053067 0.000792 160995.000000 0 0 1
28.799250 2.470697 19.086283 34.637946 0.085581 0.987207 0.028334 0.008429 -171944.000000 0 0 1
28.804800 2.504797 17.669883 33.885325 0.086739 1.022234 0.027271 0.003396 62212.200000 0 0 1
28.569080 3.787397 17.148683 33.535265 0.131801 1.034027 0.021298 0.013020 114179.000000 0 0 1
28.334060 3.737197 15.625583 32.572142 0.131141 1.070458 0.028539 0.010870 -105205.000000 0 0 1
28.296990 5.001697 14.986583 32.408861 0.174950 1.090071 0.014703 0.006790 233219.000000 0 0 1
27.738940 4.847797 13.700783 31.315513 0.173018 1.117971 0.034301 0.008262 -69067.500000 0 0 1
27.076560 6.144697 13.137483 30.716296 0.223158 1.128845 0.042473 0.009591 468488.000000 0 0 1
25.933710 6.496497 13.936283 30.149324 0.245453 1.090275 0.019997 0.011823 389224.000000 0 0 1
25.457910 7.775097 13.542183 29.865499 0.296413 1.100176 0.043307 -0.001311 22767.000000 0 0 1
24.172110 8.227097 14.331183 29.280690 0.328057 1.059347 0.044053 -0.002642 703229.000000 0 0 1
22.960910 7.586297 13.970583 27.927271 0.319109 1.046910 0.042676 0.001353 618613.000000 0 0 1
22.844510 6.274297 14.467783 27.758876 0.268043 1.022546 0.043708 -0.004121 -973276.000000 0 0 1
21.495710 5.644897 14.071783 26.304857 0.256807 1.006348 0.061280 -0.012303 -282755.000000 0 0 1
21.188510 5.579697 12.648683 25.299707 0.257490 1.047251 0.073809 -0.018946 341464.000000 0 0 1
20.089010 4.764397 12.353383 24.059798 0.232862 1.031602 0.076974 -0.015389 -507623.000000 0 1 0
19.706710 4.744797 10.828583 22.980986 0.236274 1.080148 0.083022 -0.019518 -54701.900000 0 1 0
20.606310 4.018297 9.987283 23.248926 0.192586 1.126768 0.076982 -0.021903 635019.000000 0 1 0
20.353510 4.092297 8.629283 22.482811 0.198416 1.176870 0.096050 -0.022014 -397281.000000 0 1 0
21.378510 3.271697 7.862583 23.012277 0.151859 1.222104 0.090849 -0.014915 -968588.000000 0 1 0
21.438910 1.931697 8.264783 23.057861 0.089860 1.204204 0.075794 -0.015838 312588.000000 0 1 0
22.254910 1.036697 7.536883 23.519361 0.046549 1.244587 0.060067 -0.011957 -535791.000000 0 1 0
23.783110 1.194797 7.653083 25.012667 0.050195 1.259841 0.063051 -0.012908 -319935.000000 0 0 1
24.446010 0.892697 8.907183 26.033483 0.036501 1.221599 0.053666 -0.002906 588400.000000 0 0 1
24.196610 1.765797 9.973383 26.230942 0.072848 1.180768 0.049124 -0.003053 -465057.000000 0 0 1
24.933810 1.364797 11.316883 27.415860 0.054682 1.145286 0.033502 0.000996 -259587.000000 0 0 1
26.330910 1.425797 11.237383 28.664063 0.054096 1.167951 0.029464 0.001760 -302958.000000 0 0 1
26.868640 0.503097 12.168483 29.499981 0.018722 1.145609 0.037378 -0.006771 -827615.000000 0 0 1
28.383680 0.503997 12.106083 30.861700 0.017755 1.167700 0.059557 -0.007054 -834988.000000 0 0 1
29.030250 1.641897 12.594683 31.687178 0.056498 1.162039 0.048929 -0.001585 -576114.000000 0 0 1
30.408860 1.420897 12.620583 32.954466 0.046692 1.177787 0.051903 0.000525 -681255.000000 0 0 1
31.140420 2.675797 13.083983 33.883274 0.085716 1.174344 0.047017 0.002184 -640783.000000 0 0 1
30.991020 3.768597 12.207083 33.521016 0.121009 1.198063 0.058958 -0.002652 337336.000000 0 0 1
31.787240 4.901997 12.511483 34.510801 0.153007 1.199806 0.046123 -0.005675 563600.000000 0 0 1
33.262930 4.874297 12.032383 35.706575 0.145503 1.227089 0.036526 -0.000538 442126.000000 0 0 1
34.178610 3.919797 12.574183 36.628572 0.114187 1.220380 0.025364 -0.001350 741112.000000 0 0 1
35.487490 4.163597 12.055783 37.709937 0.116792 1.245386 0.031602 0.006295 599824.000000 0 0 1
-35.051944 3.291497 12.793383 37.458556 -0.093629 1.222247 0.059488 0.011678 -377200.000000 0 0 1
-34.942644 1.916797 12.453383 37.144976 -0.054801 1.228911 0.052499 0.013614 964186.000000 0 0 1
35.621193 0.949297 12.795783 37.861624 0.026643 1.226046 0.063539 0.009840 474774.000000 0 0 1
35.315750 0.704597 14.349883 38.126340 0.019949 1.184914 0.052498 0.015226 -142846.000000 0 0 1
-35.262537 0.114897 15.115783 38.365957 -0.003258 1.165828 0.049407 0.015718 14519.300000 0 0 1
-35.688477 -0.382303 16.387383 39.272890 0.010712 1.140358 0.048348 0.006618 -478999.000000 0 0 1
-34.628566 -1.228003 17.064483 38.624373 0.035447 1.113185 0.032328 0.005660 -529872.000000 0 0 1
-33.437884 -0.512103 17.254983 37.630955 0.015314 1.094454 0.033321 0.007361 -5403.640000 0 0 1
-32.408414 -1.122203 18.040483 37.108270 0.034613 1.063108 0.038858 0.003081 572875.000000 0 0 1
-32.454674 -0.961503 19.584883 37.918307 0.029617 1.028035 0.024804 0.000142 -500447.000000 0 0 1
-33.472464 -1.799603 20.020783 39.044541 0.053712 1.032391 0.020149 0.003642 -209386.000000 0 0 1
-33.440754 -1.715403 21.379383 39.727883 0.051252 1.002561 0.017117 0.002460 390107.000000 0 0 1
-34.291733 -2.827903 22.081683 40.884236 0.082280 1.000237 0.013384 0.003613 -162880.000000 0 0 1
-33.679834 -4.106003 21.962283 40.416981 0.121314 0.996323 0.028276 0.009464 169186.000000 0 0 1
-34.297490 -5.091303 22.739483 41.464723 0.147369 0.990340 0.035543 0.005311 -440085.000000 0 0 1
-34.320181 -4.810503 24.283563 42.316748 0.139258 0.959594 0.040108 -0.000837 -210832.000000 0 0 1
-33.067664 -4.674703 24.903793 41.659599 0.140437 0.930052 0.038336 -0.002184 -534816.000000 0 0 1
-33.171674 -4.626503 26.261103 42.560663 0.138578 0.905836 0.051492 -0.014401 164214.000000 0 0 1
-32.073004 -3.839003 27.042613 42.127407 0.119129 0.873791 0.048932 -0.011399 248176.000000 0 0 1
-32.076734 -2.413203 26.832383 41.889345 0.075091 0.875577 0.043503 -0.007945 -247421.000000 0 0 1
-31.380384 -2.008903 25.678833 40.597619 0.063931 0.885993 0.034325 -0.005728 -264560.000000 0 0 1
-31.271344 -0.491103 25.545003 40.381745 0.015703 0.885906 0.036298 -0.010959 -441223.000000 0 0 1
-32.473754 0.158297 25.281473 41.154862 -0.004875 0.909297 0.049211 -0.016377 -549870.000000 0 0 1
-32.272694 1.539097 24.910243 40.797252 -0.047654 0.913996 0.031010 -0.005564 -329257.000000 0 0 1
-33.570244 2.279697 24.566103 41.661154 -0.067804 0.940153 0.055465 -0.006328 -73151.000000 0 0 1
-34.168334 1.751197 23.376783 41.436889 -0.051207 0.971388 0.054281 -0.000386 -265172.000000 0 0 1
-35.332088 2.411397 22.942383 42.196258 -0.068144 0.995949 0.048593 0.007872 85684.500000 0 0 1
-35.192155 3.782697 22.185683 41.773210 -0.107076 1.010900 0.047664 0.006332 -118823.000000 0 0 1
-34.543409 3.770997 20.920583 40.560305 -0.108736 1.028867 0.051292 -0.002699 -290706.000000 0 0 1
-35.420666 3.500197 19.883583 40.770478 -0.098498 1.061348 0.043893 -0.000796 -394454.000000 0 0 1
-34.756806 2.664797 18.798983 39.604778 -0.076520 1.076214 0.053552 -0.002144 -135828.000000 0 0 1
-33.727604 3.364597 18.143083 38.445328 -0.099429 1.079330 0.068338 -0.004904 -230669.000000 0 0 1
-33.528354 2.722397 16.893183 37.642285 -0.081019 1.105394 0.075085 0.001780 -157441.000000 0 0 1
-32.314704 3.302097 16.149483 36.276022 -0.101832 1.109417 0.066480 0.001705 -73169.200000 0 0 1
-32.734344 4.568497 15.753483 36.613941 -0.138667 1.126017 0.075249 -0.005626 408082.000000 0 0 1
-31.972804 4.967597 14.626383 35.508708 -0.154137 1.146247 0.073496 -0.007200 -16820.100000 0 0 1
-32.487844 6.343097 14.109783 35.983064 -0.192820 1.167858 0.084796 -0.016646 -129058.000000 0 0 1
-31.773164 6.985197 13.104683 35.072206 -0.216403 1.187857 0.085536 -0.013850 -114650.000000 0 0 1
-31.965054 8.360997 13.177683 35.571369 -0.255835 1.191295 0.073095 -0.017204 3923.510000 0 0 1
-31.182284 9.170397 12.083783 34.676344 -0.286026 1.214854 0.071853 -0.012376 -102011.000000 0 0 1
-31.386444 10.538997 11.880783 35.175735 -0.323953 1.226266 0.066607 -0.011429 -538428.000000 0 0 1
-30.595524 11.140297 10.945383 34.351037 -0.349194 1.246509 0.049614 -0.020682 -1024030.000000 0 0 1
-30.936194 12.672697 10.822083 35.139193 -0.388789 1.257730 0.053380 -0.015821 -104715.000000 0 0 1
-30.307324 13.423797 9.805883 34.567146 -0.416953 1.283171 0.036343 -0.015107 -3862.680000 0 0 1
-30.527444 14.806997 9.855783 35.331409 -0.451607 1.288093 0.046832 -0.013492 -55083.700000 0 0 1
-29.676314 15.559097 8.808183 34.646114 -0.482893 1.313742 0.043257 -0.016228 -272887.000000 0 0 1
-28.290434 15.556097 9.011183 33.519282 -0.502744 1.298612 0.050285 -0.008927 -407323.000000 0 0 1
-27.670914 16.450697 8.137683 33.204319 -0.536375 1.323195 0.035142 -0.016022 6654.510000 0 0 1
-26.171384 16.666797 8.472783 32.163823 -0.567063 1.304225 0.043864 -0.006638 -34560.200000 0 0 1
-25.811824 17.321297 9.660683 32.551596 -0.591038 1.269477 0.041039 -0.007924 33622.000000 0 0 1
-26.258354 18.664097 9.824783 33.680500 -0.617929 1.274787 0.045365 -0.017866 -304302.000000 0 0 1
-26.362574 19.142797 11.239983 34.464028 -0.628052 1.238582 0.068227 -0.005429 -369889.000000 0 0 1
-25.117464 19.294797 11.856183 33.819304 -0.655037 1.212612 0.060753 -0.004905 -308350.000000 0 0 1
-25.110584 19.717797 13.224583 34.557525 -0.665675 1.178098 0.062772 -0.009825 -118733.000000 0 0 1
-25.547464 18.722097 14.347183 34.771131 -0.632425 1.145470 0.064849 -0.009769 -113835.000000 0 0 1
-24.614864 17.727097 14.666683 33.693517 -0.624141 1.120428 0.060128 -0.002434 -138518.000000 0 0 1
-25.030564 16.972397 15.794583 34.118327 -0.595854 1.089492 0.064558 0.003798 -99274.900000 0 0 1
-24.069164 15.835597 16.193083 33.050064 -0.581923 1.058757 0.055194 0.007816 431168.000000 0 0 1
-22.862364 16.266597 16.824283 32.716149 -0.618403 1.030663 0.051748 0.005749 238611.000000 0 0 1
-21.971364 15.216297 17.165883 31.763880 -0.605709 0.999858 0.036512 -0.002198 -63584.400000 0 0 1
-22.292064 14.260497 18.330083 32.191456 -0.569109 0.965010 0.040601 0.005179 -467774.000000 0 0 1
-22.146864 14.778297 19.616383 33.070896 -0.588431 0.935816 0.038367 -0.000870 170840.000000 0 0 1
-22.679664 13.939397 20.622683 33.674456 -0.551101 0.911687 0.033466 0.001897 -315874.000000 0 0 1
-22.455364 14.541397 22.055383 34.671826 -0.574664 0.881339 0.025633 0.004745 -333670.000000 0 0 1
-21.126764 14.375497 22.479083 34.033869 -0.597478 0.849323 0.023994 0.000428 -371536.000000 0 0 1
-20.479264 15.616497 22.417183 34.143892 -0.651486 0.854560 0.038684 0.008855 429638.000000 0 0 1
-18.960764 15.461597 22.817683 33.454719 -0.684092 0.820239 0.049939 0.007213 1968260.000000 0 0 1
-17.956064 14.812197 21.977983 32.013328 -0.689748 0.814096 0.031355 0.004960 929147.000000 0 0 1
-17.613664 15.529897 20.823883 31.385554 -0.722610 0.845328 0.030605 0.004076 -629227.000000 0 0 1
-16.479064 14.818397 19.991583 29.846404 -0.732387 0.836836 0.028356 0.010799 1846240.000000 0 0 1
-15.227864 14.560997 20.692783 29.531369 -0.763015 0.794411 0.038666 0.016363 1234130.000000 0 0 1
-14.443464 15.713697 20.931383 29.894092 -0.827494 0.795140 0.032186 0.008813 -1111750.000000 0 0 1
-13.309864 15.511297 21.919483 29.970261 -0.861633 0.750461 0.018326 0.016529 -389835.000000 0 0 1
-12.235064 14.731497 21.453983 28.757385 -0.877710 0.728710 0.016621 0.023793 168451.000000 0 0 1
-11.309164 14.435297 22.536683 29.054726 -0.906236 0.683031 0.022420 0.025079 603119.000000 0 0 1
-10.161664 13.550897 22.008283 27.771402 -0.927366 0.655932 0.031012 0.021991 -1400200.000000 0 0 1
-9.786664 12.572697 22.955483 27.942901 -0.909362 0.606735 0.031241 0.012841 -299287.000000 0 0 1
-8.644764 11.865397 22.627783 26.972878 -0.941153 0.575521 0.040243 0.020561 -958668.000000 0 0 1
-7.293664 12.526397 22.779683 27.000410 -1.043520 0.566696 0.036642 0.021268 -1298780.000000 0 0 1
-7.089464 13.501797 21.717083 26.536592 -1.087290 0.612206 0.029043 0.018784 6429.230000 0 0 1
-6.399164 14.716297 22.132383 27.337905 -1.160625 0.627350 0.018777 0.024908 -53717.600000 0 0 1
-7.288664 15.687097 22.896283 28.695808 -1.135845 0.646999 0.038748 0.001542 147459.000000 0 0 1
-8.127364 16.551897 22.135583 28.809779 -1.114356 0.694559 0.005709 0.014949 -260435.000000 0 0 1
-7.397464 17.571197 21.563083 28.782564 -1.172319 0.723986 0.010313 0.019742 -1213540.000000 0 0 1
-7.990364 18.164897 20.269083 28.366268 -1.156390 0.774817 0.002499 0.032951 1035100.000000 0 0 1
-9.249564 18.871697 20.336783 29.245173 -1.115077 0.801835 0.008029 0.027786 1082550.000000 0 0 1
-10.357364 18.009397 20.590583 29.250393 -1.048880 0.789864 0.006676 0.023711 -235357.000000 0 0 1
-11.746964 18.657397 20.767183 30.288043 -1.008886 0.815292 0.003388 0.017566 232084.000000 0 0 1
-12.461164 19.041597 19.618083 30.045502 -0.991322 0.859329 0.002709 0.021715 527365.000000 0 0 1
-13.742964 19.590097 19.955283 31.158535 -0.959047 0.875721 0.010320 0.016964 122483.000000 0 0 1
-14.686464 19.643297 18.795483 30.900187 -0.928796 0.916924 0.019390 0.012605 -552298.000000 0 0 1
-15.358264 18.432697 18.468483 30.277475 -0.876132 0.914768 0.029477 0.011212 541165.000000 0 0 1
-16.114264 18.578697 17.242283 30.035543 -0.856315 0.959337 0.044129 -0.005896 -427047.000000 0 0 1
-16.900564 17.262997 16.830083 29.443027 -0.796007 0.962323 0.037218 -0.012778 966906.000000 0 0 1
-17.985264 16.841197 17.667283 30.318782 -0.752559 0.948728 0.032174 -0.006813 -132318.000000 0 0 1
-19.051064 17.710097 17.750083 31.490571 -0.748937 0.971982 0.038015 -0.005377 -1363520.000000 0 0 1
33.527210 -10.109703 12.233760 37.093730 -0.292867 1.234698 0.056123 -0.017026 -143932.000000 0 0 1
32.230700 -10.376803 11.753860 35.842004 -0.311474 1.236679 0.028678 -0.008655 -71387.600000 0 0 1
31.674890 -11.511703 12.456760 35.930333 -0.348591 1.216754 0.051668 -0.009636 1069830.000000 0 0 1
30.159050 -11.689803 12.051760 34.517600 -0.369776 1.214134 0.028785 -0.004004 634782.000000 0 0 1
29.293890 -10.631803 12.456560 33.560887 -0.348152 1.190535 0.026105 -0.007569 1457850.000000 0 0 1
27.917570 -11.029503 12.711360 32.597842 -0.376253 1.170225 0.022715 -0.004688 1473540.000000 0 0 1
27.558390 -12.001203 13.833060 33.088477 -0.410716 1.139485 0.018583 0.000302 -893183.000000 0 0 1
27.928750 -11.462703 15.115360 33.762150 -0.389462 1.106603 0.028350 -0.006756 72617.700000 0 0 1
27.552070 -12.155303 16.320060 34.252187 -0.415491 1.074164 0.040181 -0.011759 215551.000000 0 0 1
26.035610 -12.110603 16.699860 33.217541 -0.435385 1.044028 0.037351 -0.019696 674781.000000 0 0 1
25.522710 -10.823103 17.041460 32.541660 -0.401072 1.019630 0.033870 -0.031131 -27454.000000 0 0 1
25.243910 -9.989303 15.905760 31.464812 -0.376804 1.040824 0.046284 -0.021877 -502570.000000 0 0 1
25.091110 -8.503403 16.292360 31.101650 -0.326753 1.019441 0.078490 -0.014495 -347957.000000 0 0 1
26.248710 -7.733503 16.377860 31.891004 -0.286518 1.031471 0.055825 -0.007720 -910565.000000 0 0 1
25.967810 -6.445603 16.643560 31.510015 -0.243298 1.014318 0.057351 -0.011821 964366.000000 0 0 1
27.206950 -5.432903 16.469560 32.264237 -0.197096 1.035078 0.050650 -0.006877 1135200.000000 0 0 1
27.330530 -5.056403 15.121160 31.641343 -0.182941 1.072542 0.056422 -0.005519 734813.000000 0 0 1
28.527210 -4.312303 14.855860 32.451414 -0.150029 1.095291 0.052663 0.000040 374127.000000 0 0 1
28.564100 -3.699203 13.406160 31.769750 -0.128789 1.135169 0.057023 -0.003513 -317013.000000 0 0 1
29.025810 -4.554203 12.380460 31.882820 -0.155633 1.171998 0.028832 -0.005768 347662.000000 0 0 1
29.205340 -3.812403 11.211360 31.514773 -0.129804 1.207081 0.038918 -0.005715 -64242.200000 0 0 1
29.801480 -4.440103 9.909260 31.718073 -0.147901 1.253060 0.041146 0.001742 -728645.000000 0 0 1
31.111710 -4.885903 10.016260 33.047481 -0.155772 1.262866 0.059281 -0.006120 -459348.000000 0 0 1
31.368280 -5.633003 8.873760 33.082372 -0.177683 1.299239 0.059289 -0.010372 -87681.800000 0 0 1
32.737930 -6.353803 8.941860 34.526797 -0.191698 1.308827 0.065661 -0.009653 -314229.000000 0 0 1
33.826030 -5.515103 8.697060 35.358952 -0.161621 1.322281 0.074541 -0.010923 -1141250.000000 0 0 1
34.958780 -6.300403 8.588160 36.545422 -0.178310 1.333578 0.078654 -0.019365 73961.100000 0 0 1
-35.338110 -5.534203 8.206660 36.698211 0.155345 1.345264 0.073201 -0.014755 685383.000000 0 0 1
-35.355380 -5.036503 6.829960 36.359560 0.141502 1.381829 0.076585 -0.014910 -481294.000000 0 0 1
-34.263571 -4.208903 6.586360 35.143809 0.122227 1.382270 0.063410 -0.002412 -480658.000000 0 0 1
-34.323188 -3.486203 5.242960 34.895895 0.101223 1.419979 0.068343 -0.014991 -362698.000000 0 0 1
-33.736834 -4.071503 4.102660 34.228394 0.120103 1.450646 0.075425 -0.019823 149639.000000 0 0 1
-33.833114 -3.343503 2.925560 34.123563 0.098504 1.484957 0.083200 -0.017645 -197752.000000 0 0 1
-33.275604 -3.995003 1.670660 33.556177 0.119486 1.520989 0.081307 -0.023463 40874.000000 0 0 1
-33.945504 -5.193403 1.261560 34.363647 0.151815 1.534076 0.078027 -0.009633 667175.000000 0 0 1
-35.046362 -5.027303 0.354760 35.406880 0.142475 1.560777 0.071021 -0.009076 171926.000000 0 0 1
-34.601051 -5.098503 -1.116340 34.992481 0.146298 1.602704 0.090395 -0.012842 -1029100.000000 0 0 1
-34.170472 -6.384803 -1.558340 34.796771 0.184721 1.615595 0.089206 -0.015942 502551.000000 0 0 1
-33.144714 -6.356303 -2.535140 33.843782 0.189474 1.645774 0.087225 -0.013101 294363.000000 0 0 1
-31.724724 -5.899603 -2.115140 32.337861 0.183862 1.636251 0.082227 -0.026708 -472755.000000 0 0 1
-31.065284 -6.892603 -1.377540 31.850549 0.218338 1.614060 0.093227 -0.023458 -748919.000000 0 0 1
-30.027164 -6.410403 -0.613640 30.709940 0.210329 1.590779 0.080929 -0.035499 -698823.000000 0 0 1
-29.514174 -7.507103 0.381760 30.456343 0.249074 1.558261 0.060286 -0.025515 -377209.000000 0 0 1
-28.807904 -8.489603 -0.304640 30.034339 0.286585 1.580940 0.055387 -0.018811 165970.000000 0 0 1
-28.606004 -9.591303 0.531360 30.175800 0.323510 1.553187 0.059671 -0.010895 -93722.000000 0 0 1
-28.115624 -10.901303 -0.150840 30.155422 0.369885 1.575798 0.047197 -0.010700 -198155.000000 0 0 1
-26.838714 -10.756103 -0.752040 28.923622 0.381168 1.596800 0.036716 -0.018003 565912.000000 0 0 1
-26.166994 -12.016903 -0.886740 28.808052 0.430510 1.601582 0.033966 -0.013641 -122195.000000 0 0 1
-26.692474 -13.008903 -1.950140 29.757735 0.453486 1.636377 0.041155 -0.016550 -595640.000000 0 0 1
-27.878164 -13.699103 -1.622640 31.104508 0.456737 1.622987 0.060105 -0.021503 280986.000000 0 0 1
-28.130484 -14.773303 -2.418940 31.865748 0.483581 1.646780 0.056537 -0.026973 -719677.000000 0 0 1
-29.147264 -15.769403 -1.882240 33.193070 0.495927 1.627533 0.070484 -0.026449 -302731.000000 0 0 1
-28.685324 -16.662303 -0.867840 33.184835 0.526231 1.596951 0.063988 -0.021889 -321390.000000 0 0 1
-29.728354 -17.214703 -0.151540 34.353224 0.524885 1.575208 0.067909 -0.016516 -436439.000000 0 0 1
-30.047594 -18.716503 -0.488340 35.403444 0.557084 1.584590 0.071667 -0.008921 501121.000000 0 0 1
-29.034554 -19.624903 0.025560 35.044868 0.594378 1.570067 0.073149 -0.020513 953633.000000 0 0 1
-29.383524 -21.006403 -0.061740 36.120137 0.620659 1.572506 0.058849 -0.017250 -245262.000000 0 0 1
-30.220854 -21.604703 1.050560 37.164054 0.620652 1.542524 0.055684 -0.010359 -453112.000000 0 0 1
-29.532284 -21.680003 2.269760 36.705996 0.633255 1.508921 0.049671 -0.013230 132844.000000 0 0 1
-30.456964 -21.984603 3.289260 37.706348 0.625224 1.483452 0.039820 -0.005527 167353.000000 0 0 1
-29.798524 -22.119803 4.692960 37.406705 0.638563 1.445007 0.024588 -0.002687 -474156.000000 0 0 1
-29.334404 -20.871803 5.171860 36.371521 0.618411 1.428117 0.020435 -0.005853 -45454.300000 0 0 1
-28.597814 -21.049303 6.349460 36.072479 0.634510 1.393855 0.013103 -0.007541 91963.300000 0 0 1
-27.863814 -19.726903 6.829160 34.816379 0.616059 1.373368 0.021862 -0.002636 149272.000000 0 0 1
-27.102714 -19.991003 7.975960 34.609439 0.635519 1.338250 0.020559 -0.014191 -504428.000000 0 0 1
-26.546954 -18.799003 8.440860 33.606419 0.616169 1.316909 0.030007 -0.014565 -137804.000000 0 0 1
-25.503174 -19.170503 9.503160 33.290091 0.644582 1.281305 0.032703 -0.010852 101106.000000 0 0 1
-26.130024 -19.775503 10.647960 34.456171 0.647846 1.256624 0.027112 -0.015400 884422.000000 0 0 1
-25.124024 -20.027303 11.668160 34.182677 0.672993 1.222447 0.031459 -0.006731 684731.000000 0 0 1
-24.699764 -18.859103 12.578260 33.525464 0.652107 1.186200 0.021505 -0.007914 -623058.000000 0 0 1
-23.832164 -17.946803 12.004860 32.158614 0.645450 1.188231 0.016343 -0.006777 -309005.000000 0 0 1
-23.501864 -16.780503 12.758660 31.570656 0.620065 1.154768 0.017366 -0.002908 370741.000000 0 0 1
-22.739764 -16.882303 14.106160 31.640050 0.638628 1.108692 0.025076 -0.005934 -364165.000000 0 0 1
-23.559164 -17.494003 15.042460 32.974990 0.638720 1.097101 0.019716 -0.010373 -367738.000000 0 0 1
-22.838464 -17.975703 16.116060 33.233247 0.666813 1.064504 0.033625 -0.007661 -381094.000000 0 0 1
-23.765464 -18.545603 17.224760 34.719289 0.662650 1.051678 0.024356 0.010077 312424.000000 0 0 1
-24.509964 -17.596803 17.974060 35.120545 0.622668 1.033539 0.023763 0.006026 268415.000000 0 0 1
-25.618984 -18.248203 18.582560 36.532736 0.618928 1.037174 0.011553 0.017790 -193474.000000 0 0 1
-26.502594 -17.300603 19.403560 37.124069 0.578333 1.020819 0.015748 0.016657 -438965.000000 0 0 1
-25.892634 -16.736803 20.559360 37.057204 0.573835 0.982673 0.020433 0.017523 114780.000000 0 0 1
-26.714074 -15.717403 21.170460 37.534876 0.531814 0.971549 0.023764 0.010262 -70205.700000 0 0 1
-25.993554 -14.946303 22.305760 37.371162 0.521835 0.931201 0.026657 0.010446 -456318.000000 0 0 1
-24.990564 -14.167803 21.737960 36.024906 0.515745 0.923020 0.030775 0.007641 -120920.000000 0 0 1
-23.904864 -14.110803 22.671660 35.840779 0.533249 0.885934 0.028132 0.008979 -278282.000000 0 0 1
-22.754064 -13.282503 22.136360 34.412073 0.528379 0.872031 0.026108 0.012547 -621355.000000 0 0 1
-22.913064 -11.877603 22.239560 34.068813 0.478241 0.859543 0.036257 0.009762 656967.000000 0 0 1
-21.898964 -11.268503 21.414360 32.636155 0.475234 0.855085 0.031218 0.008159 354230.000000 0 0 1
-21.580264 -9.776303 21.808960 32.201159 0.425363 0.826747 0.036850 0.009575 107921.000000 0 0 1
-21.130964 -9.635103 23.158260 32.797224 0.427808 0.786815 0.038616 0.008872 29477.700000 0 0 1
-19.733464 -9.698403 23.301960 32.038258 0.456800 0.756392 0.032876 0.013730 -158583.000000 0 0 1
-19.259164 -9.839403 24.769960 32.882825 0.472325 0.717762 0.016246 0.003326 287474.000000 0 0 1
-19.517264 -11.147903 25.330660 33.865051 0.518960 0.725771 0.025801 0.005724 62643.200000 0 0 1
-18.689364 -11.293503 26.477260 34.320269 0.543556 0.689639 0.022283 0.002994 -702055.000000 0 0 1
-18.766864 -12.599603 27.296860 35.440990 0.591255 0.691632 0.024136 -0.016768 396840.000000 0 0 1
-19.985564 -12.676103 28.031960 36.686471 0.565233 0.701159 0.033853 -0.008150 173594.000000 0 0 1
-21.074264 -13.151203 27.251160 36.874171 0.557909 0.739165 0.022364 -0.005918 -270649.000000 0 0 1
-22.365464 -13.379903 28.063160 38.298522 0.539124 0.748445 0.026758 -0.008074 -51524.800000 0 0 1
-22.482464 -14.491703 28.895860 39.375645 0.572554 0.746822 0.022727 -0.008809 46002.500000 0 0 1
-21.525964 -14.602603 29.975960 39.688302 0.596062 0.714708 0.012783 -0.010563 133770.000000 0 0 1
-21.862764 -15.635803 31.064160 41.078472 0.620841 0.713287 0.011724 -0.016064 -1072750.000000 0 0 1
-21.771064 -17.023503 30.684660 41.295608 0.663627 0.733181 0.017914 -0.015109 234.798000 0 0 1
-21.968664 -17.942303 31.751060 42.575560 0.684855 0.729125 0.013501 -0.011167 27535.200000 0 0 1
-23.431964 -18.031503 32.253660 43.754893 0.655881 0.741962 0.025070 -0.015440 -1849.930000 0 0 1
-23.879264 -17.107603 33.273560 44.384898 0.621662 0.723249 0.024785 -0.018796 228020.000000 0 0 1
-25.247604 -17.332103 33.592460 45.456536 0.601598 0.739209 0.025751 -0.022972 193934.000000 0 0 1
-25.843434 -16.149603 -34.304662 45.885756 0.558529 2.415253 0.034881 -0.019712 -163721.000000 0 0 1
-25.359884 -16.048403 -32.967262 44.581558 0.564207 2.403097 0.029640 -0.019426 18272.100000 0 0 1
-25.832284 -14.868003 -32.315862 43.962249 0.522254 2.396584 0.033154 -0.020414 -238112.000000 0 0 1
-25.016864 -14.578103 -31.021262 42.434458 0.527625 2.390640 0.038377 -0.010711 -153706.000000 0 0 1
-25.444604 -15.382603 -29.960762 42.210184 0.543760 2.360010 0.043914 -0.007304 413354.000000 0 0 1
-24.746964 -14.976703 -28.775562 40.801309 0.544230 2.353587 0.066502 -0.001386 8381.150000 0 0 1
-25.106914 -15.944703 -27.628962 40.594953 0.565809 2.319379 0.048180 -0.004469 -47521.100000 0 0 1
-26.425814 -15.759803 -27.160662 41.041401 0.537753 2.293996 0.051684 -0.012090 62557.100000 0 0 1
-26.747404 -14.637003 -26.268262 40.245336 0.500715 2.281943 0.062164 -0.005231 -265722.000000 0 0 1
-26.009064 -14.405403 -24.899362 38.780991 0.505803 2.267966 0.067403 -0.017957 -165386.000000 0 0 1
-24.711964 -13.844403 -25.084762 37.836410 0.510664 2.295588 0.053675 -0.014296 836800.000000 0 0 1
-23.692564 -14.147903 -24.150162 36.670575 0.538318 2.289714 0.058244 -0.017849 202996.000000 0 0 1
-23.153164 -15.559703 -24.316962 37.006594 0.591709 2.287759 0.051268 -0.018311 -893415.000000 0 0 1
-22.192064 -15.723503 -25.354562 37.182927 0.616421 2.321136 0.028905 -0.009136 231476.000000 0 0 1
-21.760264 -17.059603 -25.354362 37.515101 0.664896 2.312906 0.033648 -0.011335 -69743.000000 0 0 1
-21.002164 -17.539503 -26.638862 38.188402 0.695797 2.342789 0.023980 -0.005760 453610.000000 0 0 1
-21.675164 -17.626103 -27.944362 39.514296 0.682734 2.356321 0.022859 -0.009167 510691.000000 0 0 1
-22.625764 -18.688603 -28.082662 40.618038 0.690387 2.334199 0.032289 -0.016562 230134.000000 0 0 1
-23.398064 -18.684303 -29.448762 41.997645 0.673850 2.347876 0.021886 -0.013083 354284.000000 0 0 1
-22.680964 -19.183203 -30.575262 42.629427 0.702042 2.370621 0.006556 -0.017751 538797.000000 0 0 1
-23.545764 -18.946103 -31.691162 43.791410 0.677570 2.379923 -0.002628 -0.009385 -569511.000000 0 0 1
-22.939264 -19.256603 -33.092862 44.633665 0.698343 2.405999 -0.002973 -0.019294 -474930.000000 0 0 1
-21.927464 -18.312203 -33.441662 43.982897 0.695795 2.434622 -0.004367 -0.011100 882452.000000 0 0 1
-20.643964 -18.667003 -32.885462 43.082292 0.735150 2.439229 0.005308 -0.013187 -202484.000000 0 0 1
-19.783164 -19.675803 -33.601062 43.675418 0.782677 2.448597 0.012967 -0.019677 -1120440.000000 0 0 1
-19.212264 -19.314503 33.870360 43.466797 0.788052 0.677370 0.008350 -0.018847 194934.000000 0 0 1
-18.997464 -20.471603 33.038660 43.261337 0.822730 0.701772 0.010524 -0.012481 663636.000000 0 0 1
-20.335564 -21.087303 32.466260 43.729482 0.803544 0.734100 0.010500 -0.008395 913555.000000 0 0 1
-21.028864 -21.990403 33.361060 45.152534 0.807746 0.739430 0.009376 -0.009797 473447.000000 0 0 1
-22.295664 -22.431403 32.871160 45.615542 0.788433 0.766110 0.020938 -0.001448 385054.000000 0 0 1
-22.277064 -23.518203 31.772160 45.374482 0.812493 0.795089 0.031196 0.009110 -658510.000000 0 0 1
-21.854564 -24.741303 32.224760 46.132301 0.847272 0.797456 0.023998 0.010565 -159038.000000 0 0 1
-21.961264 -25.684833 31.196860 45.991867 0.863390 0.825333 0.033500 0.016207 -28263.800000 0 0 1
-21.395164 -27.063623 31.686060 46.842279 0.901844 0.827876 0.033286 0.013611 -103841.000000 0 0 1
-22.016964 -27.550533 32.834360 48.185826 0.896575 0.821107 0.009010 0.005619 -81018.900000 0 0 1
-21.197264 -28.445443 33.576660 48.845259 0.930381 0.812881 0.018013 -0.000433 -276203.000000 0 0 1
-22.057364 -29.320403 -34.211262 50.165962 0.925833 2.321238 0.016738 -0.004839 199543.000000 0 0 1
-23.076764 -30.178733 34.041260 51.010787 0.917972 0.840172 0.011899 -0.004709 1023570.000000 0 0 1
-24.248664 -29.567233 33.460060 50.811363 0.883907 0.851952 0.010743 -0.003537 702636.000000 0 0 1
-25.430074 -29.325033 -34.270262 51.779311 0.856413 2.294083 0.012611 -0.004808 115218.000000 0 0 1
-26.455734 -28.458233 34.028860 51.650172 0.821848 0.851529 0.019970 0.000263 -153066.000000 0 0 1
-27.466004 -28.381403 -33.726262 51.935981 0.801788 2.277567 0.019370 0.004258 378865.000000 0 0 1
-28.541194 -27.307463 -34.152962 52.218025 0.763311 2.283716 0.007207 0.002095 263531.000000 0 0 1
-29.434674 -27.698343 33.576960 52.545319 0.755016 0.877586 0.009862 -0.004494 355642.000000 0 0 1
-30.566024 -26.807483 33.490160 52.673654 0.719982 0.881746 0.019199 -0.010622 425228.000000 0 0 1
