# x y z rho theta phi s1 s2 stress_xx np intf bulk
-0.729163 -10.735455 -14.376512 17.957333 1.502980 2.499080 -0.004969 0.004751 -654150.000000 1 0 0
2.135837 -13.425955 -12.999112 18.809439 -1.413036 2.333800 -0.012088 0.012912 -1028290.000000 1 0 0
2.116037 -11.150855 -14.603212 18.495216 -1.383262 2.480899 -0.008185 0.004397 -47419.100000 1 0 0
-5.598363 -6.208955 -16.458512 18.460104 0.837065 2.671601 0.008304 -0.000851 -1059990.000000 1 0 0
4.556437 -14.058855 -11.515412 18.735455 -1.257381 2.232716 -0.012870 0.013121 1707940.000000 1 0 0
13.956837 -10.687055 -8.060112 19.338352 -0.653487 2.000712 0.015701 0.000035 52273.800000 1 0 0
7.158637 10.747945 -10.750012 16.802594 0.983223 2.265012 0.023577 -0.015023 -619897.000000 1 0 0
5.698737 -4.203055 -12.560712 14.419181 -0.635480 2.628257 0.004756 -0.005293 3245560.000000 1 0 0
13.688237 0.562045 -9.991712 16.956357 0.041037 2.200940 0.019141 0.001008 209858.000000 1 0 0
14.159337 5.155745 -10.392912 18.305222 0.349201 2.174574 0.016834 -0.003732 -45119.500000 1 0 0
4.100037 4.290745 -13.420712 14.674342 0.808122 2.725240 0.003428 0.000917 2922470.000000 1 0 0
10.265437 -5.050755 -13.686712 17.838594 -0.457240 2.445343 0.018637 -0.006088 -290972.000000 1 0 0
2.521737 -7.536355 -11.999112 14.392168 -1.247898 2.556616 -0.001773 -0.001754 420179.000000 1 0 0
-5.617063 -1.962855 -15.075612 16.207353 0.336180 2.765675 0.001468 -0.000817 532586.000000 1 0 0
10.685637 0.074145 -9.658712 14.404134 0.006939 2.305748 0.012111 -0.001813 2334010.000000 1 0 0
-1.702063 -9.465855 -16.869612 19.418632 1.392887 2.623435 0.005001 0.001096 1358430.000000 1 0 0
8.688637 1.624145 -18.007612 20.060019 0.184795 2.685288 0.023892 -0.001443 -114616.000000 1 0 0
16.524137 -5.953755 -8.914712 19.696863 -0.345827 2.040470 0.033909 -0.006281 -1344660.000000 1 0 0
10.144237 7.530145 -9.834312 16.010070 0.638560 2.232242 0.018395 -0.005524 328544.000000 1 0 0
13.844137 -2.302055 -10.594212 17.583997 -0.164776 2.217416 0.026055 -0.004921 -1086930.000000 1 0 0
7.293137 -1.812955 -13.686312 15.613834 -0.243645 2.639444 0.012315 -0.005098 744365.000000 1 0 0
-2.743363 6.639245 -13.914912 15.659834 -1.178959 2.665022 0.012122 -0.006094 2942000.000000 1 0 0
11.363237 1.860945 -13.924812 18.068942 0.162328 2.450655 0.020473 -0.001441 3231100.000000 1 0 0
-2.242063 10.689145 -12.977012 16.961353 -1.364042 2.441982 0.012696 -0.006153 -2431450.000000 1 0 0
2.869237 -1.091955 -15.251512 15.557427 -0.363648 2.942956 0.012684 -0.009000 -90256.600000 1 0 0
-9.120463 0.568145 -15.154312 17.696294 -0.062213 2.598966 0.003501 -0.002663 -1461200.000000 1 0 0
2.316337 -1.818455 -17.970912 18.210598 -0.665562 2.979168 0.019907 -0.015594 -755046.000000 1 0 0
1.020637 7.891245 -13.206912 15.418689 1.442172 2.599348 0.005996 -0.002635 -387052.000000 1 0 0
9.299537 -9.096455 -9.919012 16.358903 -0.774359 2.222243 0.015519 0.001774 -847828.000000 1 0 0
3.931637 7.299045 -13.551612 15.886473 1.076708 2.592557 -0.001533 0.002946 1739050.000000 1 0 0
-2.675763 9.117745 -15.536212 18.211723 -1.285343 2.592673 0.012556 -0.007675 -1009820.000000 1 0 0
5.485837 -7.655055 -15.339712 18.000030 -0.948997 2.590981 0.009819 -0.006493 574319.000000 1 0 0
4.239737 7.359545 -16.390512 18.460422 1.048146 2.663498 0.007235 0.002395 -867747.000000 1 0 0
-0.173663 5.113845 -13.539112 14.473739 -1.536850 2.780259 0.011120 -0.008071 1012480.000000 1 0 0
8.803837 4.274045 -16.659512 19.321345 0.451960 2.610459 0.016703 0.000904 -190829.000000 1 0 0
5.324137 0.280445 -14.379512 15.336084 0.052626 2.786534 0.008196 -0.000832 -713763.000000 1 0 0
6.280837 7.931245 -11.575812 15.373776 0.901007 2.423342 0.004950 -0.002390 576421.000000 1 0 0
2.682237 -8.314555 -14.992712 17.352454 -1.258741 2.613979 0.006168 -0.007628 -498851.000000 1 0 0
4.067137 11.520745 -13.801312 18.432183 1.231427 2.416988 0.005816 -0.008595 -2232140.000000 1 0 0
0.436137 -4.496555 -13.656212 14.384066 -1.474105 2.822112 0.008720 -0.004226 -630995.000000 1 0 0
8.461737 -0.094555 -11.599912 14.358548 -0.011174 2.511334 0.003452 -0.000511 790613.000000 1 0 0
-1.009763 -4.980255 -16.275212 17.050076 1.370755 2.838955 0.003049 -0.010132 685727.000000 1 0 0
4.474037 0.912745 -11.695512 12.555283 0.201248 2.769370 0.004343 -0.002051 1357950.000000 1 0 0
-2.949163 -7.151455 -15.595812 17.408913 1.179658 2.681142 -0.003498 -0.001846 4085020.000000 1 0 0
11.381737 -3.813955 -11.443112 16.584180 -0.323335 2.332288 0.022558 -0.006129 1220170.000000 1 0 0
6.404137 -7.051955 -12.638412 15.826324 -0.833504 2.495710 0.005904 -0.004256 -2389160.000000 1 0 0
3.283037 -4.031155 -14.611112 15.508487 -0.887327 2.799744 0.011314 -0.007955 4932150.000000 1 0 0
-0.621563 -1.501655 -18.274512 18.346638 1.178349 3.052893 0.011925 -0.014024 1146440.000000 1 0 0
14.950837 2.960545 -8.517412 17.459630 0.195490 2.080404 0.013305 -0.001041 -1242940.000000 1 0 0
6.914837 4.360445 -14.354312 16.518921 0.562611 2.623897 0.005123 0.004002 2621060.000000 1 0 0
10.120537 -9.608355 -14.001112 19.768078 -0.759443 2.357839 0.029793 -0.008025 -2035590.000000 1 0 0
9.085237 -3.230155 -15.573812 18.317180 -0.341601 2.587218 0.019791 -0.013926 348778.000000 1 0 0
-5.357163 -2.138655 -17.956912 18.860640 0.379829 2.830775 -0.006086 0.005285 -887709.000000 1 0 0
4.972737 -9.080255 -11.189512 15.244158 -1.069765 2.395018 -0.007733 0.000235 1367400.000000 1 0 0
-2.438563 4.097645 -17.226212 17.873994 -1.033978 2.871546 0.010806 -0.001588 2049830.000000 1 0 0
9.377537 9.386345 -14.492712 19.648928 0.785868 2.400280 0.036924 -0.011217 -697512.000000 1 0 0
9.840837 9.930145 -11.577212 18.151631 0.789915 2.262442 0.026474 -0.014429 -99557.500000 1 0 0
12.045237 -6.018655 -9.708912 16.600450 -0.463384 2.195502 0.022968 -0.002553 -632575.000000 1 0 0
8.138137 6.934245 -13.702012 17.379821 0.705693 2.478978 0.011904 0.002975 -229529.000000 1 0 0
3.917137 -4.281455 -17.497912 18.435069 -0.829806 2.821367 0.025403 -0.018333 -471069.000000 1 0 0
9.244137 -7.482755 -12.364912 17.156246 -0.680482 2.375642 0.017084 -0.005892 818009.000000 1 0 0
11.937937 -8.722255 -8.892412 17.253031 -0.630991 2.112284 0.018554 -0.003231 -193391.000000 1 0 0
-2.965363 -2.417755 -13.842612 14.361645 0.684020 2.871926 0.002550 -0.004688 -2615870.000000 1 0 0
-0.282863 6.161645 -17.706512 18.750106 -1.524922 2.806385 0.018038 -0.003233 1867200.000000 1 0 0
1.016437 -8.464455 -17.437212 19.409702 -1.451286 2.686855 0.003018 -0.005148 -556679.000000 1 0 0
0.090837 8.526445 -16.017012 18.145335 1.560143 2.652388 0.009992 -0.004237 -83830.700000 1 0 0
1.797437 3.373745 -15.036112 15.514432 1.081276 2.892633 0.013905 -0.004333 1384310.000000 1 0 0
-1.980863 -0.402355 -15.823212 15.951795 0.200395 3.014537 0.006981 -0.005956 1631080.000000 1 0 0
14.129637 -4.369455 -8.487712 17.052274 -0.299913 2.091795 0.023255 -0.004524 231647.000000 1 0 0
0.578037 0.682545 -14.595912 14.623292 0.868113 3.080390 0.008623 -0.008344 1832940.000000 1 0 0
8.900637 2.735545 -12.579312 15.650676 0.298179 2.504377 0.004920 0.004201 3024290.000000 1 0 0
6.001937 1.002245 -17.113612 18.163245 0.165460 2.799967 0.019800 0.000416 -870510.000000 1 0 0
15.361837 1.591245 -12.210912 19.688181 0.103216 2.239814 0.027564 -0.008412 -2199730.000000 1 0 0
8.715637 -11.152855 -11.998312 18.555539 -0.907456 2.273936 0.017596 -0.000082 69487.600000 1 0 0
-4.662663 0.835845 -15.068412 15.795446 -0.177379 2.837009 0.008204 -0.006139 1000840.000000 1 0 0
2.478437 5.157245 -17.236612 18.161515 1.122810 2.821078 0.008931 -0.004570 909236.000000 1 0 0
5.921737 -11.657455 -12.429312 18.040262 -1.100786 2.330872 -0.000894 0.006174 -2064730.000000 1 0 0
12.879337 7.221045 -8.597512 17.086194 0.510997 2.098076 0.008296 -0.003510 1670920.000000 1 0 0
-4.984763 3.728145 -15.714112 16.902078 -0.642161 2.764434 0.010919 -0.004825 349490.000000 1 0 0
-0.696663 -4.290155 -19.008912 19.499475 1.409815 2.916809 0.010830 -0.014785 -1768910.000000 1 0 0
9.894837 4.357845 -10.206312 14.868336 0.414855 2.327387 0.007373 0.001897 1462790.000000 1 0 0
13.420637 3.705245 -12.796112 18.909861 0.269375 2.314054 0.025266 -0.009744 1325690.000000 1 0 0
-6.337063 5.788345 -17.185112 19.209149 -0.740175 2.678402 0.012036 -0.002413 -1075320.000000 1 0 0
-10.169363 3.334345 -15.417312 18.767720 -0.316836 2.534798 0.003504 -0.001799 23122.600000 1 0 0
10.770437 13.362145 -8.298612 19.063478 0.892383 2.021184 0.028491 -0.010650 598531.000000 1 0 0
7.450637 13.386445 -12.167212 19.563996 1.062915 2.241987 0.034093 -0.019810 1595600.000000 1 0 0
5.275637 15.135845 -11.178712 19.542000 1.235412 2.179781 0.015401 -0.015463 171327.000000 1 0 0
14.334937 9.402845 -9.965212 19.829508 0.580539 2.097336 0.045097 -0.008463 -1266340.000000 1 0 0
8.276437 -17.358455 -2.009012 19.335240 -1.125884 1.674888 0.019892 0.009958 1081600.000000 1 0 0
0.671137 -15.976555 0.008488 15.990648 -1.528813 1.570266 0.005802 -0.008565 2336360.000000 1 0 0
-9.197263 -11.649855 7.623988 16.686340 0.902506 1.096289 0.011230 -0.005916 682549.000000 1 0 0
2.043037 -15.884555 -2.559612 16.218653 -1.442881 1.729278 0.003375 -0.003999 1626510.000000 1 0 0
-1.285163 -11.093055 -9.417712 14.608245 1.455458 2.271407 -0.000284 0.002799 355015.000000 1 0 0
-4.679163 -12.643455 -13.023512 18.744690 1.216341 2.338916 0.015503 -0.000516 -678485.000000 1 0 0
-8.295963 -18.059655 -1.695212 19.946125 1.140182 1.655889 0.015352 0.000573 321571.000000 1 0 0
-11.338263 -7.072055 -8.751012 15.973428 0.557688 2.150586 0.013521 -0.003554 2251080.000000 1 0 0
-13.628663 -11.612755 -4.647312 18.498488 0.705702 1.824744 0.007751 0.007065 1334100.000000 1 0 0
-5.867263 -13.312955 9.830088 17.558194 1.155688 0.976582 0.008032 -0.010136 -701855.000000 1 0 0
0.123437 -13.950055 -3.678912 14.427532 -1.561948 1.828636 0.005643 -0.004621 -975956.000000 1 0 0
-14.740063 -11.657455 1.972988 18.895989 0.669148 1.466193 -0.003704 0.003230 2134190.000000 1 0 0
-3.902963 -16.541355 -7.380612 18.528977 1.339083 1.980490 0.005361 -0.010198 -1056060.000000 1 0 0
0.528037 -15.231155 -9.244412 17.824873 -1.536142 2.116038 -0.002587 0.006004 1156660.000000 1 0 0
4.509337 -14.168555 -2.538112 15.083902 -1.262669 1.739867 -0.003460 0.004874 602676.000000 1 0 0
-3.512763 -18.083155 -2.397812 18.576585 1.378930 1.700235 0.004998 -0.012729 2301800.000000 1 0 0
-0.938163 -13.479855 0.643088 13.527757 1.501311 1.523240 0.010487 -0.004413 3172320.000000 1 0 0
-8.507263 -11.445155 -10.525512 17.724320 0.931593 2.206627 0.014909 -0.003705 2366900.000000 1 0 0
-3.749163 -14.144055 -0.379412 14.637434 1.311685 1.596720 0.005237 -0.000144 4275240.000000 1 0 0
-1.548563 -14.932455 -7.212312 16.655141 1.467461 2.018657 -0.000888 -0.001025 -195498.000000 1 0 0
-14.112063 -7.856155 -1.871612 16.259533 0.507971 1.686161 0.003121 0.001678 1431110.000000 1 0 0
-10.709563 -7.311455 -11.580212 17.385437 0.599023 2.299746 0.011489 -0.002565 -85303.000000 1 0 0
-9.545863 -14.666355 6.849888 18.792191 0.993811 1.197693 -0.001885 -0.001910 646466.000000 1 0 0
-2.410063 -14.304455 -12.336312 19.042333 1.403881 2.275537 0.016713 -0.000432 -90527.600000 1 0 0
2.370337 -17.631755 -4.831412 18.434746 -1.437162 1.835975 0.004679 -0.001447 1159330.000000 1 0 0
-6.520663 -9.796655 -9.291712 14.994313 0.983532 2.239134 0.006662 -0.000696 1353920.000000 1 0 0
-10.989863 -15.426655 0.535388 18.948494 0.951800 1.542538 0.004364 0.001572 980540.000000 1 0 0
-12.639263 -11.127355 4.138388 17.340567 0.721869 1.329817 0.007955 -0.000558 1759340.000000 1 0 0
-16.929863 -8.972855 -1.514312 19.220446 0.487360 1.649665 -0.004838 0.003243 -629255.000000 1 0 0
-1.316563 -19.210755 -3.861812 19.639248 1.502371 1.768724 0.007927 -0.007984 -720643.000000 1 0 0
3.262637 -14.252155 -8.846212 17.088716 -1.345752 2.114915 -0.012175 0.010147 -106789.000000 1 0 0
-4.376963 -8.012555 -13.133212 15.995003 1.070827 2.534101 0.002102 0.003730 1403800.000000 1 0 0
5.513037 -16.602855 1.268788 17.540189 -1.250198 1.498397 0.014102 -0.002504 3872140.000000 1 0 0
-2.785363 -13.833755 -3.150112 14.458708 1.372107 1.790427 0.006967 -0.003789 -384779.000000 1 0 0
-0.418463 -14.028155 3.632488 14.496869 1.540975 1.317527 0.010359 -0.004736 -3739040.000000 1 0 0
1.166337 -16.167055 7.062588 17.680898 -1.498778 1.159882 0.032898 -0.011080 1381610.000000 1 0 0
-5.535263 -10.339055 -14.618412 18.741216 1.079252 2.465485 0.008538 -0.000297 -209110.000000 1 0 0
-0.351063 -17.264555 -5.799812 18.216090 1.550465 1.894826 0.006042 -0.002890 548048.000000 1 0 0
-6.532563 -13.510055 -1.278012 15.060853 1.120409 1.655755 0.003997 0.000623 2963210.000000 1 0 0
-1.719063 -17.729555 -0.021312 17.812714 1.474138 1.571993 0.007479 -0.004907 2472100.000000 1 0 0
-9.431563 -9.830555 -4.752112 14.428332 0.806109 1.906422 0.012701 -0.000394 1991970.000000 1 0 0
-0.848863 -16.743955 4.883888 17.462330 1.520143 1.287334 0.024671 -0.007786 3854450.000000 1 0 0
-6.791463 -9.919955 -6.343812 13.593139 0.970463 2.056343 0.013159 0.000768 3498340.000000 1 0 0
-6.044963 -14.654155 -8.508412 17.991079 1.179554 2.063403 0.014211 -0.009902 -238149.000000 1 0 0
-5.718563 -12.347355 -10.309112 17.071524 1.137069 2.219153 0.012448 -0.001246 2443140.000000 1 0 0
-10.792063 -12.121455 -8.740512 18.433525 0.843351 2.064810 0.025629 -0.016804 -42422.300000 1 0 0
3.906937 -16.924155 6.556588 18.565561 -1.343921 1.209851 0.034063 -0.017886 1220540.000000 1 0 0
-6.678263 -14.535955 -4.178912 16.533496 1.140128 1.826322 0.009748 -0.002298 -842993.000000 1 0 0
-2.809563 -12.221555 -7.109612 14.415500 1.344836 2.086552 0.006082 -0.000812 3724180.000000 1 0 0
-7.068163 -12.828055 4.498288 15.321636 1.067191 1.272816 -0.000597 0.001037 1218260.000000 1 0 0
2.532837 -16.417755 2.350188 16.777406 -1.417729 1.430254 0.012600 -0.009536 2295690.000000 1 0 0
-6.266063 -11.922855 7.330488 15.334734 1.086918 1.072384 0.000189 -0.003744 1612760.000000 1 0 0
-11.226763 -12.894955 -0.944712 17.123451 0.854446 1.625995 0.004474 0.007967 782709.000000 1 0 0
-14.232263 -8.764855 4.642388 17.347385 0.551988 1.299881 0.001802 0.000777 -248021.000000 1 0 0
-7.990963 -15.480455 4.453988 17.981601 1.094275 1.320494 0.000634 0.000930 -334046.000000 1 0 0
-16.363563 -9.140755 1.213488 18.782762 0.509425 1.506145 -0.013273 0.005465 -151248.000000 1 0 0
-6.679963 -17.132655 2.475388 18.554712 1.199030 1.436987 0.004778 0.003833 1799330.000000 1 0 0
-11.585363 -14.972655 -4.637612 19.491241 0.912256 1.811034 0.019691 -0.001865 -933942.000000 1 0 0
-10.162463 -10.024455 -12.573112 19.022316 0.778562 2.292902 0.019617 -0.002509 559465.000000 1 0 0
-4.306863 -16.153155 -4.479312 17.307159 1.310231 1.832589 0.003035 -0.006072 155676.000000 1 0 0
-11.785963 -8.261055 0.007988 14.392846 0.611345 1.570241 0.000157 0.004521 1550400.000000 1 0 0
-9.638163 -11.281055 3.543288 15.254877 0.863772 1.336383 -0.001674 0.002347 2044940.000000 1 0 0
-14.122463 -12.955155 -0.565412 19.172890 0.742315 1.600291 -0.001244 0.007355 -897557.000000 1 0 0
5.575737 -14.898355 -7.198712 17.460564 -1.212682 1.995756 -0.007633 0.008250 -94378.000000 1 0 0
-7.500363 -10.604355 -1.253512 13.049103 0.955194 1.667006 0.001562 0.003346 1035080.000000 1 0 0
-11.507363 -8.184755 -6.013912 15.348510 0.618245 1.973409 0.010387 -0.002269 954216.000000 1 0 0
-14.386263 -6.718555 -9.149612 18.325364 0.436911 2.093572 0.009058 -0.005662 2678100.000000 1 0 0
-3.859963 -16.446555 1.547488 16.964175 1.340271 1.479448 0.004843 -0.004244 1279760.000000 1 0 0
-7.998063 -15.654355 0.070488 17.579329 1.098454 1.566787 0.011425 -0.002846 779560.000000 1 0 0
1.026937 -18.625255 3.655588 19.008368 -1.515715 1.377276 0.023174 -0.012254 676400.000000 1 0 0
-14.066463 -8.761455 -4.589612 17.195727 0.557060 1.840976 0.002960 -0.000798 1125310.000000 1 0 0
-3.490763 -14.412455 11.144588 18.550098 1.333168 0.926316 0.008952 -0.015914 992316.000000 1 0 0
-10.772963 -12.212355 -3.791712 16.720509 0.847939 1.799556 0.010045 0.002961 2350850.000000 1 0 0
-9.982663 -10.727855 0.589388 14.665872 0.821364 1.530598 0.000579 0.005780 2560720.000000 1 0 0
-0.005863 -13.123455 -11.114712 17.197731 1.570350 2.273508 -0.001627 0.002745 670814.000000 1 0 0
-5.883963 -12.683055 -6.348712 15.355359 1.136424 1.997039 0.006011 -0.005788 2163200.000000 1 0 0
1.704937 -15.839455 9.935588 18.775278 -1.463571 1.013157 0.040487 -0.015857 -293586.000000 1 0 0
-9.058663 -15.881555 -5.383612 19.059550 1.052434 1.857157 0.019494 -0.005663 891073.000000 1 0 0
-3.407363 -15.482455 5.864088 16.902783 1.354171 1.216500 0.009169 -0.003427 705049.000000 1 0 0
-17.434163 -5.460455 -6.413012 19.362162 0.303526 1.908386 0.000968 0.004990 -99365.800000 1 0 0
18.874537 5.495745 -2.876012 19.867632 0.283339 1.716065 0.003469 0.006050 -764782.000000 1 0 0
12.742637 -12.557055 -6.049112 18.885079 -0.778063 1.896855 0.020565 0.005206 -888572.000000 1 0 0
11.034837 -13.609955 -1.642712 17.598211 -0.889510 1.664278 0.020182 0.004843 2528840.000000 1 0 0
18.730737 -2.901855 4.406388 19.459639 -0.153703 1.342378 0.026242 -0.005642 -1962590.000000 1 0 0
8.822037 -16.938755 5.000788 19.742281 -1.090632 1.314703 0.017919 -0.012549 -1641110.000000 1 0 0
18.054937 -1.119955 6.510688 19.225611 -0.061951 1.225318 0.036793 -0.013736 -399196.000000 1 0 0
17.837437 -4.231555 -5.069112 19.020414 -0.232923 1.840566 0.026083 -0.010994 -624164.000000 1 0 0
5.334037 -11.787855 14.711588 19.591741 -1.145863 0.721361 0.004926 0.002217 -175341.000000 1 0 0
15.837337 -9.039855 -0.823412 18.254267 -0.518668 1.615920 0.016112 0.002920 -112690.000000 1 0 0
13.890637 -12.824155 -1.471412 18.962432 -0.745498 1.648471 0.029287 0.004201 -215311.000000 1 0 0
11.264037 -2.069855 13.888488 18.001470 -0.181730 0.689570 0.022151 -0.003489 1246870.000000 1 0 0
16.842137 -6.303355 -1.541212 18.048967 -0.358123 1.656291 0.020042 -0.003042 -2425210.000000 1 0 0
17.820437 3.601945 -0.935412 18.204862 0.199437 1.622202 0.008066 0.002142 649445.000000 1 0 0
9.709737 -11.105355 9.523588 17.558663 -0.852346 0.997521 0.011343 -0.004941 759309.000000 1 0 0
9.084537 -11.122455 4.194488 14.961001 -0.885910 1.286626 -0.000348 -0.001439 -1022340.000000 1 0 0
13.958537 -10.210655 6.705288 18.548831 -0.631555 1.200927 0.019443 -0.004359 630023.000000 1 0 0
16.229737 -0.619855 -4.802212 16.936642 -0.038174 1.858280 0.011610 -0.006772 -506664.000000 1 0 0
15.760737 -0.504655 -1.774512 15.868346 -0.032009 1.682858 0.008627 -0.001188 1108950.000000 1 0 0
12.861737 -5.204955 -0.343812 13.879267 -0.384539 1.595571 0.008506 -0.001291 331250.000000 1 0 0
14.199437 -7.596755 0.993388 16.134483 -0.491257 1.509188 0.019623 0.001049 1929080.000000 1 0 0
15.526637 2.438245 3.578388 16.119130 0.155764 1.346935 0.017890 -0.006800 1817560.000000 1 0 0
15.906837 -7.223155 4.947488 18.157067 -0.426251 1.294824 0.033023 -0.004743 -1966450.000000 1 0 0
13.618437 -12.099555 3.177588 18.492110 -0.726408 1.398104 0.010693 -0.002011 795515.000000 1 0 0
14.075537 -0.939455 9.153988 16.816623 -0.066645 0.995192 0.032752 -0.009931 787768.000000 1 0 0
14.119637 -2.762855 -1.651612 14.481897 -0.193233 1.685092 0.003552 0.000893 914333.000000 1 0 0
15.093337 1.859745 9.093188 17.718734 0.122598 1.031892 0.038518 -0.010622 -1140220.000000 1 0 0
14.401137 -10.362655 -3.085112 18.008201 -0.623741 1.742963 0.024223 0.002293 -223947.000000 1 0 0
7.358137 -12.685755 6.037688 15.859516 -1.045189 1.180245 -0.002412 -0.006819 -795222.000000 1 0 0
12.517137 -4.688155 6.904388 15.044205 -0.358366 1.093995 0.017935 -0.003437 1956860.000000 1 0 0
14.966037 -9.136055 -5.751912 18.453571 -0.548070 1.887774 0.024589 -0.001024 -348793.000000 1 0 0
14.393837 -4.640955 4.566688 15.797964 -0.311903 1.277543 0.017453 -0.004230 1079530.000000 1 0 0
17.052337 -4.294455 0.829188 17.604321 -0.246709 1.523678 0.010766 -0.005040 -1700650.000000 1 0 0
10.124737 -14.431455 1.097188 17.662985 -0.959015 1.508638 0.013205 -0.003822 -51623.100000 1 0 0
16.434837 -2.579655 8.477488 18.671537 -0.155692 1.099510 0.040799 -0.013756 760431.000000 1 0 0
16.094137 -2.671555 3.096788 16.605678 -0.164496 1.383208 0.012988 -0.002754 1209950.000000 1 0 0
7.773337 -15.294355 2.716588 17.370145 -1.100572 1.413758 0.002907 -0.005529 2398480.000000 1 0 0
16.678837 -7.070755 7.791788 19.720323 -0.400969 1.164604 0.041234 -0.005907 -1572840.000000 1 0 0
10.179637 -8.544255 5.086188 14.230201 -0.698277 1.205290 0.005163 -0.003326 2056040.000000 1 0 0
10.911337 -11.844355 2.093788 16.239766 -0.826377 1.441507 0.008994 -0.002712 -996334.000000 1 0 0
12.298537 -7.313355 12.023288 18.689533 -0.536478 0.871974 0.016528 -0.012145 164009.000000 1 0 0
15.191037 -9.973955 4.164888 18.643865 -0.580979 1.345503 0.022164 -0.002092 746069.000000 1 0 0
7.347237 -10.348855 7.759788 14.875988 -0.953419 1.022034 0.002069 -0.003472 987995.000000 1 0 0
15.152137 -3.350255 -4.374212 16.122817 -0.217607 1.845546 0.017558 -0.002914 -950182.000000 1 0 0
11.761137 -8.970555 9.687688 17.681813 -0.651598 0.990957 0.008750 -0.011858 -1688260.000000 1 0 0
16.883437 -6.754655 2.290088 18.328129 -0.380572 1.445520 0.024755 -0.002228 388602.000000 1 0 0
17.532637 3.970545 1.985888 18.085971 0.222709 1.460772 0.011448 0.000848 71388.800000 1 0 0
14.742437 -4.970955 8.753788 17.851573 -0.325215 1.058288 0.037045 -0.010477 827901.000000 1 0 0
12.653937 -12.659655 5.998188 18.877692 -0.785624 1.247452 -0.000666 -0.003573 -1426580.000000 1 0 0
18.286937 0.700845 -1.035012 18.329607 0.038306 1.627293 0.020338 -0.004627 332166.000000 1 0 0
11.772237 -2.149155 10.896988 16.184832 -0.180573 0.832155 0.024837 -0.007131 81380.100000 1 0 0
5.759237 -12.410255 10.502988 17.248072 -1.136303 0.916077 0.009759 -0.004850 -1675400.000000 1 0 0
10.770837 -4.984255 11.043288 16.211352 -0.433410 0.821386 0.018242 -0.005386 1108950.000000 1 0 0
17.855037 1.262145 4.909088 18.560563 0.070571 1.303121 0.031932 -0.010568 -506467.000000 1 0 0
12.271337 -7.740455 7.076788 16.142531 -0.562742 1.116985 0.016906 -0.006843 346162.000000 1 0 0
10.566937 -7.897255 14.314188 19.465939 -0.641806 0.744620 0.015810 -0.010344 -591203.000000 1 0 0
14.230037 -0.377455 3.735088 14.716906 -0.026519 1.314194 0.010962 -0.001686 1871380.000000 1 0 0
11.592037 -7.736355 2.482988 14.155979 -0.588500 1.394482 0.008342 -0.001307 1047890.000000 1 0 0
9.264137 6.074145 3.526288 11.625583 0.580345 1.262620 0.003744 -0.000407 1513300.000000 1 0 0
-3.814363 14.772245 -9.889612 18.181667 -1.318104 2.145914 0.006620 -0.006845 616478.000000 1 0 0
8.866637 -6.484755 9.264688 14.370238 -0.631468 0.870148 0.011461 -0.006427 -114710.000000 1 0 0
5.834637 -10.654155 -8.589912 14.877521 -1.069767 2.186307 -0.007826 0.000871 -278411.000000 1 0 0
5.317837 0.978345 0.588188 5.438981 0.181940 1.462441 0.002533 -0.001625 1912170.000000 1 0 0
-0.605463 9.905145 10.995788 14.811678 -1.509746 0.734191 -0.003444 0.002094 -50017.200000 1 0 0
-6.245863 -5.190255 1.011688 8.183707 0.693354 1.446857 0.003522 -0.001194 2970480.000000 1 0 0
-0.973963 4.009845 -10.945912 11.697883 -1.332518 2.781084 0.013572 -0.006885 846338.000000 1 0 0
10.972437 5.766145 1.289288 12.462145 0.483848 1.467155 0.003478 0.001499 2046450.000000 1 0 0
-10.197763 -1.772155 -13.541912 17.044597 0.172061 2.488978 0.007790 -0.000368 789314.000000 1 0 0
7.384637 10.914845 -6.025312 14.490379 0.975970 1.999635 0.004366 -0.006242 582225.000000 1 0 0
-12.420163 -2.958555 -9.675312 16.019524 0.233848 2.219269 0.004986 -0.001179 -374997.000000 1 0 0
-3.962163 -8.662655 2.519588 9.853358 1.141819 1.312216 0.002872 -0.001425 -402207.000000 1 0 0
7.985437 -6.624255 -5.948112 11.959432 -0.692497 2.091346 0.001696 -0.001216 2099380.000000 1 0 0
14.369037 3.226945 -4.205012 15.315500 0.220911 1.848928 0.010275 0.000778 625289.000000 1 0 0
-2.554463 -4.884755 9.748988 11.199503 1.088961 0.514612 -0.002612 -0.002713 293534.000000 1 0 0
3.483537 -1.901355 -4.567412 6.050739 -0.499622 2.426225 -0.002681 -0.002748 141236.000000 1 0 0
-4.024263 8.415845 -3.484912 9.958200 -1.124759 1.928318 -0.001975 0.000034 -84465.600000 1 0 0
5.788137 0.025345 11.705288 13.058213 0.004379 0.459233 0.007241 -0.003691 -182761.000000 1 0 0
7.135137 4.706045 12.422088 15.078637 0.583066 0.602678 0.005746 0.002014 620589.000000 1 0 0
1.013837 -14.471055 12.434788 19.106629 -1.500851 0.862145 0.016569 -0.007307 730506.000000 1 0 0
3.031237 8.776145 -9.074712 12.983047 1.238230 2.344747 0.003433 -0.003309 2668800.000000 1 0 0
-4.416563 -8.881255 -4.612112 10.938661 1.109319 2.006043 0.006722 -0.000312 1764060.000000 1 0 0
5.708737 -6.525155 -4.055012 9.571335 -0.852033 2.008281 -0.000486 -0.003509 2957080.000000 1 0 0
-3.074363 3.449945 8.695888 9.847451 -0.842901 0.488453 -0.001966 -0.001654 1906500.000000 1 0 0
-3.739863 3.257245 -11.160412 12.212740 -0.716533 2.723423 0.008162 -0.009240 1228510.000000 1 0 0
2.974137 -6.078655 8.475088 10.845398 -1.115765 0.673817 0.000781 -0.003950 12789.500000 1 0 0
-5.230863 -8.641255 10.441188 14.527616 1.026463 0.768847 0.002656 -0.008064 2343910.000000 1 0 0
-13.291663 -2.448555 6.587988 15.035468 0.182175 1.117242 0.001283 0.000168 510757.000000 1 0 0
3.929537 -5.908855 -8.340312 10.950646 -0.983931 2.436617 -0.002629 -0.002235 2529080.000000 1 0 0
2.944437 -0.598955 12.321088 12.682179 -0.200681 0.239201 0.001386 -0.003399 629414.000000 1 0 0
1.467937 -1.435055 -7.533712 7.808396 -0.774072 2.875562 0.001414 -0.003749 167005.000000 1 0 0
3.602737 -3.635255 3.432088 6.162307 -0.789891 0.980089 0.001917 -0.002451 2441560.000000 1 0 0
1.512037 0.384645 -11.827912 11.930370 0.249104 3.010442 0.008334 -0.005161 13629.300000 1 0 0
4.102437 3.518745 -10.549512 11.853429 0.708959 2.668134 0.001034 0.001768 730915.000000 1 0 0
2.826537 3.260945 3.429888 5.512459 0.856638 0.899238 -0.004447 0.002509 -116752.000000 1 0 0
-5.326063 0.882045 2.583088 5.984755 -0.164120 1.124518 0.000827 -0.004464 786303.000000 1 0 0
-9.470863 -9.278055 5.670388 14.419877 0.775115 1.166650 0.006528 -0.002015 -1997380.000000 1 0 0
-3.050163 3.864745 -0.621612 4.962474 -0.902659 1.696389 0.000256 -0.005085 -309627.000000 1 0 0
-15.807063 -6.510455 4.976388 17.804878 0.390697 1.287527 -0.000028 -0.000707 524561.000000 1 0 0
1.027837 6.701545 -8.062612 10.534366 1.418609 2.442401 0.007325 -0.003206 958207.000000 1 0 0
-1.614963 6.551545 -9.532212 11.678781 -1.329113 2.525598 0.007919 -0.003225 1882220.000000 1 0 0
2.050337 -0.382355 5.267288 5.665192 -0.184366 0.377027 -0.000917 -0.002638 3962050.000000 1 0 0
-3.391363 -0.512755 -6.310812 7.182661 0.150058 2.643756 0.007034 -0.005697 1220500.000000 1 0 0
1.897037 -1.152855 -2.413012 3.278789 -0.546072 2.397860 0.001306 -0.001754 -6971.250000 1 0 0
2.465937 -8.636555 -7.655812 11.801797 -1.292673 2.276670 -0.005937 -0.000617 2706630.000000 1 0 0
-2.320763 14.057045 -5.601112 15.308785 -1.407176 1.945370 0.000369 0.000738 2730300.000000 1 0 0
6.817437 -5.092355 -8.192512 11.812146 -0.641553 2.337225 0.002789 -0.003631 4422880.000000 1 0 0
-14.112663 -4.953655 -2.191412 15.116489 0.337572 1.716277 0.005968 -0.003796 -438844.000000 1 0 0
-2.695363 6.887945 -6.793912 10.043207 -1.197799 2.313753 0.004723 -0.001018 -2352560.000000 1 0 0
-5.685863 -1.060855 -8.067512 9.926692 0.184457 2.519583 0.010526 -0.006976 -475239.000000 1 0 0
-5.731463 -10.637455 3.503688 12.580976 1.076592 1.288574 0.000662 -0.000367 -1394590.000000 1 0 0
8.041637 -7.607555 6.677788 12.928096 -0.757667 1.027999 0.002823 -0.004572 46833.100000 1 0 0
8.767537 -5.963155 13.112588 16.863241 -0.597273 0.679982 0.016159 -0.004435 571405.000000 1 0 0
-4.724663 9.481945 -0.843412 10.627373 -1.108526 1.650242 -0.004159 0.004387 630852.000000 1 0 0
2.843437 6.571345 12.088588 14.049970 1.162420 0.534743 0.003755 0.001831 1175800.000000 1 0 0
6.014837 -2.861055 10.894988 12.769677 -0.443992 0.548722 0.007817 -0.006061 980475.000000 1 0 0
-9.656063 -6.489155 -1.045712 11.680848 0.591706 1.660440 0.002266 -0.000873 -1554140.000000 1 0 0
0.829737 -13.292155 6.183588 14.683549 -1.508454 1.136113 0.014802 -0.009953 509100.000000 1 0 0
-0.650863 -3.065255 8.698388 9.245613 1.361568 0.345777 -0.002387 -0.004321 170197.000000 1 0 0
4.234937 0.709945 3.468788 5.520073 0.166095 0.891308 -0.002388 0.000531 1345790.000000 1 0 0
-10.190763 5.584945 8.235388 14.243063 -0.501337 0.954271 -0.004852 -0.008760 140258.000000 1 0 0
9.486737 8.036545 -0.006912 12.433193 0.702828 1.571352 0.002430 0.001633 -627191.000000 1 0 0
4.340737 2.790245 8.128488 9.628072 0.571300 0.565635 -0.002468 -0.001317 3259270.000000 1 0 0
1.368537 2.639945 -9.729712 10.173962 1.092540 2.844989 0.008825 -0.004029 2857680.000000 1 0 0
-1.400463 -10.212855 3.004388 10.737321 1.434519 1.287202 0.008116 -0.005605 -2681750.000000 1 0 0
-9.904763 9.496845 9.070688 16.449065 -0.764376 0.986706 -0.007267 -0.010395 2048570.000000 1 0 0
9.799137 -2.050155 -7.721812 12.643284 -0.206243 2.227796 0.011778 -0.001962 2105500.000000 1 0 0
-5.148163 -1.794155 6.704888 8.641649 0.335341 0.682687 -0.001345 -0.003220 506683.000000 1 0 0
3.125637 -7.804055 -4.937912 9.749660 -1.189846 2.101883 -0.005101 -0.001632 2569770.000000 1 0 0
-5.129863 4.996845 -13.133712 14.959223 -0.772264 2.642396 0.004178 -0.013514 3532110.000000 1 0 0
-5.649563 9.567445 5.454088 12.377424 -1.037392 1.114476 -0.006761 0.002079 2220670.000000 1 0 0
-0.463163 -1.724455 -9.356612 9.525464 1.308404 2.953025 0.005031 -0.003609 -531358.000000 1 0 0
-16.763163 0.176445 6.285388 17.903655 -0.010525 1.212086 -0.000730 -0.001034 585428.000000 1 0 0
-5.962763 -2.796655 4.039488 7.726143 0.438558 1.020625 -0.004904 -0.001781 1880860.000000 1 0 0
0.914937 -5.714955 -5.148712 7.746423 -1.412048 2.297831 -0.001374 -0.001613 705888.000000 1 0 0
-6.996763 1.424145 -8.549912 11.139294 -0.200800 2.445799 0.003768 -0.005264 -1142190.000000 1 0 0
8.020337 1.891945 4.761088 9.516996 0.231658 1.046883 0.001472 0.000148 -611763.000000 1 0 0
0.483437 -8.123155 -0.484812 8.151957 -1.511353 1.630303 0.001023 -0.002704 1415730.000000 1 0 0
5.456937 5.518645 -3.383812 8.466628 0.791020 1.981947 0.002503 0.000105 758008.000000 1 0 0
-0.735063 -0.340955 -1.174112 1.426572 0.434308 2.537523 0.000561 -0.002365 188068.000000 1 0 0
9.173437 6.365845 -6.222212 12.782482 0.606649 2.079192 0.005779 -0.001210 1389130.000000 1 0 0
-14.836863 -7.136755 2.481888 16.650091 0.448345 1.421177 -0.011852 -0.001488 1093530.000000 1 0 0
-6.392763 6.796445 8.970288 12.943150 -0.815996 0.805081 -0.001850 0.000052 802499.000000 1 0 0
-9.422763 -3.161355 -9.655412 13.856753 0.323701 2.341725 0.007434 -0.000873 1669050.000000 1 0 0
14.912237 3.487845 -1.198212 15.361497 0.229761 1.648877 -0.001136 0.003160 2129200.000000 1 0 0
12.183937 1.589245 -5.694512 13.542581 0.129705 2.004781 0.010852 -0.001373 -193102.000000 1 0 0
1.482037 -9.418255 12.673788 15.859535 -1.414718 0.644954 -0.002691 -0.002971 68412.900000 1 0 0
-3.611063 6.360145 7.882288 10.752752 -1.054417 0.748003 -0.001930 -0.000251 1121480.000000 1 0 0
-3.993463 13.105445 -12.366912 18.456461 -1.275017 2.305084 0.012432 -0.008358 427645.000000 1 0 0
-10.211063 7.779145 6.438988 14.361109 -0.651033 1.105863 -0.003940 -0.004789 862141.000000 1 0 0
8.041537 -9.304255 -7.172612 14.236638 -0.858067 2.098804 0.000585 -0.000466 434502.000000 1 0 0
5.787037 -3.771555 -0.293412 6.913792 -0.577587 1.613248 0.001915 -0.004227 -1693140.000000 1 0 0
-1.654563 -4.513655 4.236288 6.407558 1.219438 0.848460 0.000453 -0.002713 341565.000000 1 0 0
9.866137 -1.995255 -2.631212 10.404085 -0.199541 1.826475 0.005096 -0.004427 -1951840.000000 1 0 0
13.536937 7.074745 1.485288 15.346230 0.481584 1.473859 -0.000996 0.003689 724631.000000 1 0 0
5.400637 -3.683555 -3.238012 7.295217 -0.598584 2.030692 0.002390 -0.005832 -2752350.000000 1 0 0
-12.182963 -5.909455 1.970088 13.683110 0.451624 1.426315 -0.000918 0.000737 1613640.000000 1 0 0
3.676737 -5.724755 -0.281112 6.809570 -0.999887 1.612090 0.000583 -0.003479 171060.000000 1 0 0
-5.168963 3.829045 -8.703212 10.822461 -0.637572 2.505092 0.006673 -0.007407 1227620.000000 1 0 0
-1.795263 -9.204755 7.226188 11.839268 1.378178 0.914284 0.003231 -0.004371 1296990.000000 1 0 0
-7.399463 -7.407055 2.613188 10.790981 0.785911 1.326201 0.002673 -0.001374 -4283160.000000 1 0 0
-5.681663 13.041845 -8.549312 16.597040 -1.159941 2.111933 0.013006 -0.010857 842067.000000 1 0 0
9.142037 -13.985955 -4.178512 17.223349 -0.991854 1.815849 0.011771 0.008958 1425870.000000 1 0 0
-6.591763 -5.245755 -6.749812 10.794872 0.672178 2.246286 0.006271 -0.000597 -420152.000000 1 0 0
3.468137 0.411845 -6.223812 7.136766 0.118197 2.630228 0.000824 -0.005156 258430.000000 1 0 0
-3.528563 5.713945 5.017788 8.383204 -1.017583 0.929103 -0.003479 0.000771 1965950.000000 1 0 0
-2.711263 -10.855755 -2.874112 11.552441 1.326050 1.822225 0.008898 -0.002452 2499880.000000 1 0 0
-12.563163 -0.394155 1.751288 12.690761 0.031364 1.432358 -0.000225 -0.003259 275939.000000 1 0 0
8.346337 -12.015155 -6.097312 15.849370 -0.963669 1.965683 0.000830 0.003211 -894980.000000 1 0 0
6.094337 3.857545 0.991988 7.280497 0.564311 1.434118 0.002070 -0.001025 -1630260.000000 1 0 0
3.384237 -4.796355 -10.933212 12.409401 -0.956332 2.648858 0.001262 -0.001847 -1086030.000000 1 0 0
-7.650463 4.252945 8.621188 12.285845 -0.507367 0.792992 0.000393 -0.001688 1223120.000000 1 0 0
8.266637 8.737245 4.115588 12.712781 0.813068 1.241121 0.007468 -0.002153 1786390.000000 1 0 0
0.281337 10.592445 -6.345612 12.350944 1.544242 2.110376 0.000637 -0.000905 2123350.000000 1 0 0
5.459237 8.031145 3.301688 10.256885 0.973785 1.243061 0.005518 -0.001697 3021750.000000 1 0 0
8.140637 6.692745 -3.698812 11.168886 0.688096 1.908341 0.003045 -0.000730 1458010.000000 1 0 0
10.575137 2.474745 -8.128312 13.565668 0.229879 2.213276 0.007069 -0.000026 574506.000000 1 0 0
3.366537 -12.450155 -0.236612 12.899455 -1.306711 1.589140 -0.002067 -0.006068 -1137040.000000 1 0 0
0.641637 2.050545 5.282188 5.702450 1.267537 0.386321 -0.000484 -0.000401 519197.000000 1 0 0
-4.782563 13.532145 1.392288 14.419789 -1.231076 1.474092 -0.009830 0.010243 1340180.000000 1 0 0
8.251137 4.071245 -7.952012 12.161036 0.458367 2.283514 0.002200 0.001765 2091000.000000 1 0 0
-13.800763 -0.600955 -3.561412 14.265548 0.043518 1.823116 -0.001360 -0.002241 1613390.000000 1 0 0
-8.559463 0.026745 -0.475512 8.572703 -0.003125 1.626293 -0.002149 -0.003708 -974585.000000 1 0 0
1.766937 -3.793855 -1.193912 4.352107 -1.134933 1.848689 0.001800 -0.002007 -1512280.000000 1 0 0
8.047237 -5.551255 -0.325412 9.781634 -0.603870 1.604070 0.002425 -0.004077 1692950.000000 1 0 0
-2.331063 -1.067055 7.382488 7.814959 0.429284 0.334236 -0.000542 -0.003666 1191720.000000 1 0 0
-5.783863 8.853145 -11.740312 15.800828 -0.992097 2.408366 0.005131 -0.009364 -1213760.000000 1 0 0
-6.220963 9.218845 -8.894512 14.240780 -0.977178 2.245390 -0.000402 -0.004274 1340120.000000 1 0 0
-1.456163 13.964945 -8.358312 16.340180 -1.466899 2.107748 0.010935 -0.007384 -315565.000000 1 0 0
-1.499663 7.156545 9.750988 12.187981 -1.364234 0.643419 -0.002233 -0.001170 -156696.000000 1 0 0
10.053637 2.283145 -3.987612 11.053933 0.223309 1.939859 0.004418 -0.001364 -2002880.000000 1 0 0
-2.963063 -7.490055 -6.975312 10.655311 1.194089 2.284493 0.006440 0.000763 1515090.000000 1 0 0
-5.502563 -4.942155 -1.631712 7.574007 0.731795 1.787934 0.003325 -0.000083 195926.000000 1 0 0
5.716237 7.431945 -8.757312 12.829641 0.915155 2.322089 0.002147 -0.000237 282151.000000 1 0 0
-9.492763 5.329345 -7.472712 13.204389 -0.511562 2.172353 -0.005983 -0.000509 482867.000000 1 0 0
-0.425263 6.104845 -5.357912 8.133708 -1.501249 2.289925 0.007605 -0.002126 -1567620.000000 1 0 0
-8.164763 2.860545 -6.398912 10.760676 -0.336989 2.207635 -0.000198 -0.001181 1259580.000000 1 0 0
3.652537 1.392945 -2.018112 4.399330 0.364338 2.047364 0.001767 -0.002897 2855150.000000 1 0 0
-6.746863 12.581545 -3.363812 14.667333 -1.078570 1.802196 0.007243 0.001551 1679290.000000 1 0 0
-6.599963 3.127645 -2.297812 7.656475 -0.442541 1.875608 -0.001004 -0.002318 -1345570.000000 1 0 0
12.113637 4.008845 -0.777712 12.783422 0.319592 1.631672 0.000491 -0.001218 1355940.000000 1 0 0
2.227537 12.340545 -5.402612 13.654273 1.392214 1.977596 0.000753 -0.003328 -1609930.000000 1 0 0
-9.163563 -1.433755 -4.201412 10.182259 0.155204 1.996126 0.001344 -0.000978 -987984.000000 1 0 0
-1.083363 5.742645 3.460988 6.791912 -1.384336 1.036106 -0.001935 0.001006 -37759.700000 1 0 0
11.541637 2.569045 12.024688 16.864237 0.219019 0.776988 0.028072 -0.000568 -286816.000000 1 0 0
-7.019263 -2.360455 -5.813812 9.414999 0.324402 2.236363 0.007387 -0.003796 -1398440.000000 1 0 0
7.485937 -7.355255 10.875688 15.113557 -0.776593 0.767573 0.010273 -0.006467 -465867.000000 1 0 0
-5.530263 -1.862855 -10.943012 12.401756 0.324910 2.651684 0.009185 -0.002674 443599.000000 1 0 0
0.788437 -6.293855 4.529388 7.794203 -1.446175 0.950689 -0.000006 -0.002237 1152600.000000 1 0 0
-4.836963 -9.259855 7.420788 12.814414 1.089422 0.953176 -0.002139 -0.004312 758811.000000 1 0 0
-8.678263 9.401545 1.682888 12.904782 -0.825382 1.440016 -0.002872 -0.000407 1278760.000000 1 0 0
-8.161463 7.296045 -9.203812 14.302164 -0.729470 2.269892 -0.001492 -0.005210 -622867.000000 1 0 0
-1.328963 -10.645555 -0.132312 10.729003 1.446602 1.583129 0.005577 -0.002428 363236.000000 1 0 0
-3.977163 10.224745 7.794188 13.457807 -1.199831 0.953102 -0.004215 0.000092 2006240.000000 1 0 0
-7.365063 12.137645 1.955388 14.331438 -1.025395 1.433929 -0.005452 0.001190 1218430.000000 1 0 0
-8.089263 -8.246355 -2.726612 11.868992 0.795014 1.802592 0.012112 0.000107 1034980.000000 1 0 0
5.486637 4.649245 -7.986812 10.747457 0.702969 2.408540 0.003768 0.002090 1311120.000000 1 0 0
-8.941463 -0.112255 -10.257512 13.608046 0.012554 2.424596 0.001274 -0.002248 -1675870.000000 1 0 0
-15.195963 -2.238055 -1.466612 15.429748 0.146228 1.665991 0.000929 -0.005038 -273165.000000 1 0 0
-7.219863 -5.710755 8.776788 12.718929 0.669216 0.809228 0.010606 -0.005467 -1482740.000000 1 0 0
8.129037 3.410345 -0.968112 8.868424 0.397225 1.680178 0.003225 -0.000072 1158010.000000 1 0 0
11.964437 7.235245 -5.786512 15.132093 0.543890 1.963189 0.000891 -0.000416 -434083.000000 1 0 0
3.748837 13.227645 -9.497612 16.710147 1.294629 2.175325 -0.000273 -0.010687 -1009040.000000 1 0 0
-9.701863 5.460245 -0.484412 11.143387 -0.512620 1.614281 -0.005430 -0.002033 785643.000000 1 0 0
11.297337 -1.344655 -5.203312 12.510491 -0.118467 1.999746 0.014481 -0.003107 -806739.000000 1 0 0
10.601637 1.656845 -1.190812 10.796198 0.155028 1.681320 0.004779 -0.001812 1094280.000000 1 0 0
14.618937 5.051345 4.806588 16.196688 0.332691 1.269495 0.013563 -0.008123 1875760.000000 1 0 0
0.808537 -0.887855 10.332388 10.401935 -0.832121 0.115702 -0.000764 -0.002879 1758540.000000 1 0 0
-7.957363 1.477845 -12.544112 14.928443 -0.183628 2.568601 0.001301 -0.004118 -214254.000000 1 0 0
3.159837 -11.550655 -7.843412 14.315074 -1.303766 2.150664 -0.007801 0.002680 -157035.000000 1 0 0
2.921037 4.982045 -6.719812 8.860536 1.040502 2.431648 0.005446 0.000518 -1611860.000000 1 0 0
6.540837 7.965645 0.621988 10.325740 0.883303 1.510523 0.006234 -0.002511 1324490.000000 1 0 0
-9.084563 -5.375255 6.752188 12.530550 0.534288 1.001715 0.002091 -0.001121 -1910770.000000 1 0 0
-0.360463 -6.896455 -11.845512 13.711572 1.518576 2.613771 -0.000850 -0.000102 2535820.000000 1 0 0
6.373537 -13.403755 -4.687312 15.564496 -1.126937 1.876699 -0.001981 0.006662 2079010.000000 1 0 0
-3.295963 -0.210955 10.002588 10.533738 0.063917 0.318915 0.000904 -0.002279 393605.000000 1 0 0
8.622737 8.391345 6.973488 13.906681 0.771799 1.045524 0.003047 -0.000857 -757791.000000 1 0 0
-7.873963 5.721845 -2.616412 10.078909 -0.628408 1.833397 -0.001335 -0.002286 262482.000000 1 0 0
-5.435663 5.899845 -6.492212 10.320049 -0.826325 2.251175 0.002614 -0.002160 135889.000000 1 0 0
3.331837 -13.686655 2.584288 14.321460 -1.332004 1.389354 0.010836 -0.010367 -2791200.000000 1 0 0
-11.262663 -7.009955 6.501788 14.773635 0.556732 1.115093 0.007296 -0.003695 -839974.000000 1 0 0
-12.903563 -3.785755 -6.803512 15.070556 0.285380 2.039179 0.008960 -0.003790 -918766.000000 1 0 0
6.065237 0.376845 -7.261012 9.468443 0.062052 2.444738 0.003333 -0.000002 -606903.000000 1 0 0
-1.469163 2.224345 -2.504612 3.657763 -0.987080 2.325042 0.003606 -0.003699 3118200.000000 1 0 0
7.589437 0.945245 -4.958612 9.114872 0.123909 2.146009 0.004298 -0.001321 333852.000000 1 0 0
3.622237 -4.530655 10.890288 12.338793 -0.896363 0.489420 0.001929 -0.004141 63902.300000 1 0 0
5.998137 -2.581055 2.118588 6.864977 -0.406359 1.257067 0.003222 -0.003156 -1060500.000000 1 0 0
-6.276363 7.677045 1.038988 9.970418 -0.885446 1.466400 -0.006314 0.000000 1888830.000000 1 0 0
6.029637 -3.471455 7.993588 10.597404 -0.522384 0.716214 0.008176 -0.007232 -55621.600000 1 0 0
6.712037 -2.327555 -7.808512 10.556601 -0.333797 2.403392 0.003314 -0.003136 2134340.000000 1 0 0
12.068337 -8.252055 -5.901512 15.766072 -0.599755 1.954457 0.013743 -0.001325 173021.000000 1 0 0
5.545637 -9.603755 9.959288 14.905490 -1.047127 0.839060 0.001078 -0.003028 1550040.000000 1 0 0
-6.689863 7.561445 -4.436212 11.027678 -0.846480 1.984802 -0.001603 -0.001438 1593820.000000 1 0 0
-1.337763 -7.471955 9.652488 12.279668 1.393636 0.666396 -0.000417 -0.005592 -276698.000000 1 0 0
10.045837 -9.313155 0.664588 13.714787 -0.747569 1.522320 0.003130 -0.003398 1120090.000000 1 0 0
11.167737 6.047645 9.815388 16.050987 0.496316 0.912825 0.017962 -0.002273 2113910.000000 1 0 0
-15.243363 -4.201455 -5.034212 16.593843 0.268947 1.879032 0.001232 0.003627 980100.000000 1 0 0
-4.740763 -4.604155 7.768288 10.198989 0.770781 0.704906 -0.000693 -0.004127 -1189470.000000 1 0 0
2.978037 10.817045 -11.156512 15.822292 1.302142 2.353380 -0.002481 -0.007435 -2477460.000000 1 0 0
9.911437 -1.415655 1.541088 10.129937 -0.141871 1.418071 0.005252 -0.002695 -221073.000000 1 0 0
-1.565663 -2.674355 0.675288 3.171670 1.041155 1.356242 -0.002693 -0.002517 -380443.000000 1 0 0
1.575937 2.935845 0.904088 3.452555 1.078150 1.305847 -0.001494 -0.000463 -1417270.000000 1 0 0
-8.917863 -2.333855 4.335788 10.186963 0.255965 1.131148 0.000348 -0.003655 3589840.000000 1 0 0
10.014137 4.812945 -2.740212 11.443607 0.448020 1.812599 0.003620 -0.000325 740870.000000 1 0 0
2.566837 8.424445 2.485988 9.150959 1.275043 1.295675 0.000986 -0.000410 3143020.000000 1 0 0
-8.134163 -0.070855 2.478588 8.503706 0.008711 1.275032 -0.002133 -0.004720 1850910.000000 1 0 0
6.868937 2.018745 13.710288 15.467049 0.285846 0.481246 0.013116 -0.001139 -905129.000000 1 0 0
6.832837 4.332045 3.812188 8.943548 0.565048 1.130453 0.000079 0.000774 -319826.000000 1 0 0
-0.269863 3.348745 7.789888 8.483470 -1.490384 0.407175 -0.002356 -0.001629 171891.000000 1 0 0
2.677437 -10.272955 9.205388 14.051386 -1.315839 0.856451 0.006439 -0.006892 3270030.000000 1 0 0
1.269037 -4.498755 6.899588 8.333881 -1.295854 0.595450 -0.001137 -0.004757 409483.000000 1 0 0
-0.150863 10.792545 -2.005112 10.978263 -1.556819 1.754471 0.000331 0.000084 2191340.000000 1 0 0
8.780937 5.493845 8.057288 13.122769 0.559071 0.909687 0.001855 -0.000136 -1021120.000000 1 0 0
2.683137 11.346645 -2.792512 11.989316 1.338592 1.805872 0.003400 -0.005767 640232.000000 1 0 0
1.508837 2.410145 -6.689412 7.268674 1.011452 2.739661 0.004731 -0.002255 2447030.000000 1 0 0
-13.558563 -2.208955 3.573588 14.194528 0.161501 1.316300 0.000339 -0.001737 1659850.000000 1 0 0
-0.939263 -10.682755 -5.248312 11.939358 1.483099 2.025928 0.002952 -0.000218 1521840.000000 1 0 0
-5.664263 2.856845 0.478488 6.361948 -0.467132 1.495514 0.000558 -0.003786 1155230.000000 1 0 0
3.792937 7.294445 -5.019312 9.632694 1.091296 2.118901 0.005418 -0.001149 -917565.000000 1 0 0
3.032637 9.803145 -6.470012 12.130935 1.270781 2.133350 0.005194 -0.001421 1977970.000000 1 0 0
-12.130063 1.725945 -2.601312 12.525340 -0.141338 1.780003 -0.001937 -0.002619 1020510.000000 1 0 0
-2.506063 9.587545 -5.751612 11.457853 -1.315129 2.096683 0.000619 -0.000961 598992.000000 1 0 0
-1.285363 3.330845 1.767888 3.983981 -1.202507 1.111019 -0.002434 -0.002401 275969.000000 1 0 0
12.858437 3.713845 9.648188 16.499078 0.281174 0.946198 0.030006 -0.005064 1191590.000000 1 0 0
-2.592963 -9.500655 11.530488 15.163708 1.304361 0.706867 -0.005538 -0.010615 940639.000000 1 0 0
-0.482563 -8.972955 -7.485212 11.695093 1.517068 2.265334 0.001553 0.001288 1664260.000000 1 0 0
2.319937 7.594745 -0.466212 7.954848 1.274332 1.629437 0.005112 -0.000119 1432770.000000 1 0 0
-11.814963 -1.353055 -5.560712 13.128047 0.114024 2.008185 0.002337 -0.000172 273295.000000 1 0 0
-6.174863 -7.214855 -10.941612 14.487993 0.862914 2.426785 0.007188 0.002117 502902.000000 1 0 0
-4.669763 -2.252255 -1.430212 5.378182 0.449393 1.839963 0.000700 -0.002499 -1184970.000000 1 0 0
-10.522163 3.768945 4.456188 12.032392 -0.343953 1.191411 -0.002859 -0.005215 1993280.000000 1 0 0
6.845537 9.356545 -3.506412 12.112029 0.939155 1.864499 0.006468 -0.002827 1669940.000000 1 0 0
1.212337 -2.643755 -11.462412 11.825655 -1.140841 2.893097 0.005699 -0.003339 -1018550.000000 1 0 0
1.165837 8.786945 7.500088 11.611240 1.438888 0.868551 -0.002878 0.003635 588234.000000 1 0 0
10.363537 0.356045 10.439088 14.714082 0.034342 0.782061 0.018519 -0.005131 1124020.000000 1 0 0
-5.265963 -0.882355 -3.982612 6.661090 0.166016 2.211665 0.002563 -0.003732 -1215000.000000 1 0 0
11.738737 5.653045 5.393888 14.101379 0.448797 1.178287 0.004818 -0.000675 3412110.000000 1 0 0
9.981737 -3.559755 3.619188 11.198458 -0.342566 1.241702 0.011259 -0.007346 -2048130.000000 1 0 0
7.249837 -1.624955 -3.410912 8.175264 -0.220493 2.001184 0.004417 -0.004703 -2903040.000000 1 0 0
2.285237 9.211445 10.423288 14.096735 1.327619 0.738601 -0.000782 0.003067 3339890.000000 1 0 0
2.392537 -10.837355 6.315188 12.769264 -1.353514 1.053466 0.003342 -0.004311 1669510.000000 1 0 0
5.869637 -7.459555 -1.258212 9.575004 -0.904118 1.702583 -0.000022 -0.005020 -403465.000000 1 0 0
-0.263763 -5.677255 -2.320112 6.138707 1.524370 1.958375 0.001981 -0.000841 1719800.000000 1 0 0
7.739037 -5.084955 2.640188 9.629126 -0.581317 1.293051 0.005843 -0.005439 974738.000000 1 0 0
-2.733363 -12.515955 4.575088 13.603376 1.355782 1.227790 0.006441 -0.004077 -1546160.000000 1 0 0
4.907737 -10.267655 -1.135812 11.436814 -1.124919 1.670272 -0.000084 -0.004467 1776150.000000 1 0 0
0.923337 0.126945 1.141288 1.473501 0.136628 0.684806 -0.003340 0.000508 -634733.000000 1 0 0
-1.663563 8.577945 2.461288 9.077803 -1.379239 1.296227 -0.005117 0.003836 392323.000000 1 0 0
-7.507263 0.605745 -3.068812 8.132867 -0.080513 1.957713 -0.001375 -0.001411 -1479190.000000 1 0 0
4.349837 -6.437455 12.877188 15.039411 -0.976561 0.542870 0.005287 -0.007815 290094.000000 1 0 0
-5.093763 12.969045 8.486488 16.314503 -1.196544 1.023734 -0.003082 -0.003096 2389240.000000 1 0 0
0.585237 6.061445 8.206988 10.219504 1.474544 0.638365 -0.002034 0.001376 855193.000000 1 0 0
7.873737 -0.585255 -0.674612 7.924226 -0.074194 1.656032 0.003579 -0.003289 3734210.000000 1 0 0
2.524137 -9.195455 -2.388012 9.830070 -1.302897 1.816181 -0.003764 -0.002532 1207150.000000 1 0 0
-7.036763 12.148545 4.821988 14.844350 -1.045791 1.239957 -0.011579 0.001761 569486.000000 1 0 0
-14.981063 0.321445 0.190488 14.985722 -0.021453 1.558085 0.003774 -0.005995 223635.000000 1 0 0
6.860137 -0.566355 3.907288 7.915121 -0.082371 1.054516 0.004985 -0.002178 -44920.600000 1 0 0
-4.215063 -5.022855 5.080288 8.294887 0.872619 0.911627 -0.001344 -0.002918 -83929.700000 1 0 0
2.872437 5.067245 6.835388 8.980556 1.055098 0.705740 -0.003069 0.000106 -380603.000000 1 0 0
2.095137 -7.257755 1.796088 7.764699 -1.289761 1.337368 0.000020 -0.002614 1813230.000000 1 0 0
-2.537963 6.434445 -1.752012 7.135326 -1.195098 1.818874 0.001562 0.000315 2371810.000000 1 0 0
2.652537 -3.849755 -6.493212 8.001149 -0.967481 2.517571 -0.002569 -0.003417 -437532.000000 1 0 0
-5.184963 1.030745 -12.142812 13.243646 -0.196237 2.730985 0.007318 -0.005309 200172.000000 1 0 0
-7.483963 6.422945 -12.005512 15.536932 -0.709251 2.453893 0.005995 -0.012780 1860430.000000 1 0 0
-1.009363 11.228945 -9.096612 14.486420 -1.481148 2.249701 0.003576 -0.003157 750181.000000 1 0 0
4.676237 5.925645 -0.597212 7.572128 0.902705 1.649748 0.003735 0.000641 929804.000000 1 0 0
-2.605163 13.496345 3.634388 14.217840 -1.380114 1.312306 -0.009665 0.010621 1394280.000000 1 0 0
1.404937 -7.892155 10.180688 12.957869 -1.394625 0.667008 -0.000776 -0.004521 -1232450.000000 1 0 0
13.000437 -0.220555 -1.102212 13.048942 -0.016964 1.655365 0.006820 -0.002757 -409876.000000 1 0 0
-1.036563 3.167645 -5.473412 6.408329 -1.254545 2.594632 0.007699 -0.004656 1592950.000000 1 0 0
6.590237 1.063545 7.247988 9.853714 0.160002 0.744305 0.003147 -0.001066 400418.000000 1 0 0
5.485337 -6.106755 6.903088 10.725391 -0.838954 0.871576 0.002363 -0.004035 814362.000000 1 0 0
12.221637 -4.913555 2.590088 13.424604 -0.382262 1.376643 0.006972 -0.002339 -10457.200000 1 0 0
4.188337 -9.224355 13.784188 17.106570 -1.144578 0.633799 0.000085 -0.001184 326356.000000 1 0 0
-2.714063 -4.311555 -1.381812 5.278736 1.008978 1.835652 0.003118 -0.002686 2423410.000000 1 0 0
-9.330463 -5.085555 -7.502612 13.008059 0.499034 2.185561 0.010335 -0.003145 -1432880.000000 1 0 0
-10.624063 -3.140155 7.870088 13.589318 0.287388 0.953126 0.004261 0.000725 1145000.000000 1 0 0
12.061137 -0.659755 1.608088 12.185740 -0.054646 1.438446 0.007775 -0.002973 1226250.000000 1 0 0
-7.572763 4.668945 4.356188 9.905662 -0.552496 1.115457 0.000008 -0.005441 2987180.000000 1 0 0
-1.148863 10.643845 6.945688 12.761422 -1.463276 0.995275 -0.006415 0.005311 2426690.000000 1 0 0
7.404737 -10.018255 1.843888 12.593470 -0.934292 1.423852 -0.002478 -0.004405 1863750.000000 1 0 0
-4.310463 -1.692555 1.634088 4.910710 0.374165 1.231568 -0.001129 -0.001832 1285290.000000 1 0 0
6.721037 -15.036155 -0.877912 16.493303 -1.150447 1.624050 0.005645 0.004326 -1269340.000000 1 0 0
-10.462963 1.723445 2.395188 10.871098 -0.163253 1.348647 -0.002680 -0.002495 1300360.000000 1 0 0
-2.993163 8.250345 -11.458912 14.433776 -1.222771 2.487986 0.009092 -0.005742 -1225920.000000 1 0 0
-1.330863 -5.158655 -6.880212 8.701738 1.318315 2.482701 -0.000424 -0.000108 -273789.000000 1 0 0
12.876137 -0.589255 6.424688 14.402040 -0.045731 1.108398 0.015184 -0.007479 2451620.000000 1 0 0
5.920937 -13.298155 3.698688 15.019279 -1.151904 1.321974 0.001071 -0.004836 -228208.000000 1 0 0
-5.576863 3.565345 -4.929512 8.253070 -0.568824 2.210920 0.002502 -0.002395 2224180.000000 1 0 0
-4.412463 7.983445 3.363888 9.722189 -1.065881 1.217491 -0.005993 0.002472 -308153.000000 1 0 0
14.075137 6.119045 -3.986812 15.857076 0.410093 1.824945 0.006009 0.002825 1174370.000000 1 0 0
-6.762763 -8.484055 5.304288 12.076822 0.897817 1.116075 0.004596 -0.002458 514160.000000 1 0 0
1.711737 11.325445 2.731388 11.775237 1.420791 1.336704 -0.001910 -0.000158 294556.000000 1 0 0
-7.359463 7.238745 5.978288 11.929000 -0.777129 1.045862 -0.002390 -0.001613 -1003730.000000 1 0 0
-17.334163 -4.045755 5.015288 18.493092 0.229293 1.296159 -0.002645 -0.004694 -569812.000000 1 0 0
7.547937 -13.084855 -8.625512 17.394949 -1.047576 2.089625 -0.001784 0.009174 -955528.000000 1 0 0
-2.264063 12.807145 -2.907912 13.326848 -1.395823 1.790766 -0.009124 0.004409 1100620.000000 1 0 0
-5.342163 13.877945 -5.761612 15.947797 -1.203341 1.940436 0.011090 -0.003873 1962140.000000 1 0 0
-5.636663 2.494845 7.417688 9.644600 -0.416692 0.693360 0.002004 -0.003804 3164480.000000 1 0 0
-7.475863 5.066345 1.469088 9.149568 -0.595598 1.409535 -0.002675 -0.001585 1105890.000000 1 0 0
10.796037 -5.780155 -5.086112 13.260210 -0.491562 1.964447 0.007881 -0.002105 2718160.000000 1 0 0
-9.548363 -0.742655 6.879688 11.792068 0.077622 0.947867 -0.000242 -0.001792 682783.000000 1 0 0
-11.253263 -4.492855 -2.509112 12.374058 0.379859 1.774984 0.000919 -0.002911 253582.000000 1 0 0
6.455637 -4.376955 13.499688 15.590848 -0.595811 0.523904 0.014300 -0.008358 -492333.000000 1 0 0
0.256637 10.226545 -11.671412 15.519985 1.545706 2.421925 0.003038 -0.003879 -1130620.000000 1 0 0
-11.694063 -3.168455 1.493188 12.207367 0.264593 1.448171 -0.001588 -0.003536 2655860.000000 1 0 0
5.236737 5.890145 5.479388 9.599006 0.844054 0.963282 -0.001345 -0.000175 -5565410.000000 1 0 0
-7.111663 0.010245 8.133488 10.804141 -0.001441 0.718473 0.000227 -0.001142 177574.000000 1 0 0
1.769437 1.943645 9.566588 9.921102 0.832281 0.268135 -0.001032 -0.000872 2908560.000000 1 0 0
10.497237 -4.901855 -2.109712 11.775868 -0.436873 1.750924 0.002456 -0.001543 2654640.000000 1 0 0
-9.634963 -2.350455 -1.574812 10.041772 0.239277 1.728273 -0.000144 -0.003147 603048.000000 1 0 0
-2.042763 -5.152755 -9.895912 11.342524 1.193362 2.631013 0.004298 -0.000783 1408420.000000 1 0 0
7.635637 -1.678155 6.512988 10.175371 -0.216340 0.876202 0.008143 -0.005911 3625020.000000 1 0 0
1.579637 -11.828155 -2.578812 12.208636 -1.438033 1.783628 -0.001432 -0.004124 -4193140.000000 1 0 0
-0.792463 -1.482055 4.811588 5.096652 1.079772 0.336039 0.000060 -0.003358 1101250.000000 1 0 0
7.625437 1.424945 9.876288 12.558615 0.184737 0.665812 0.006975 -0.002503 2401220.000000 1 0 0
-3.777763 10.683745 -8.040612 13.894795 -1.230919 2.187903 0.003911 -0.002005 2400870.000000 1 0 0
-9.492863 12.589145 6.294888 16.977238 -0.924707 1.190943 -0.011276 -0.002566 514364.000000 1 0 0
-2.578263 -2.343255 -11.043412 11.579950 0.737683 2.835993 0.008841 -0.004695 -1157650.000000 1 0 0
1.016937 -11.918455 11.040588 16.278155 -1.485678 0.825424 0.003084 -0.001593 2993780.000000 1 0 0
1.385937 3.468545 -1.924312 4.201738 1.190658 2.046518 0.002897 -0.002065 5216590.000000 1 0 0
-1.937863 -9.439855 -12.031312 15.414884 1.368324 2.466261 0.000121 0.003765 1355430.000000 1 0 0
1.298337 -2.719755 1.561588 3.394305 -1.125414 1.092732 0.002641 -0.002938 2002510.000000 1 0 0
-1.055063 -2.231955 -6.553512 7.003093 1.129220 2.781325 0.002357 -0.005890 943229.000000 1 0 0
1.846037 5.853545 4.010688 7.331947 1.265298 0.992002 -0.005175 0.002228 -1772860.000000 1 0 0
-10.911963 8.664645 3.607788 14.393162 -0.671102 1.317435 -0.006444 -0.004805 1958800.000000 1 0 0
-16.350863 -1.500655 3.882688 16.872402 0.091522 1.338595 -0.000580 0.000264 7501.030000 1 0 0
-12.199363 0.316245 6.690188 13.917006 -0.025917 1.069320 -0.001069 0.000429 -88806.500000 1 0 0
-5.114063 2.978545 4.620888 7.508526 -0.527394 0.907879 -0.001408 -0.003103 2032270.000000 1 0 0
5.310537 -6.100455 3.889388 8.974670 -0.854512 1.122563 -0.001192 -0.004808 1146170.000000 1 0 0
9.925337 3.396145 6.246688 12.209309 0.329682 1.033712 0.002278 0.001482 -251928.000000 1 0 0
-12.154863 5.947645 3.104588 13.883574 -0.455069 1.345274 -0.002306 -0.004444 777442.000000 1 0 0
-4.820163 12.359245 -1.286412 13.328156 -1.198936 1.667465 -0.011080 0.007465 883411.000000 1 0 0
-1.867463 -12.127355 10.224688 15.971988 1.418009 0.876085 0.008156 -0.009773 1092870.000000 1 0 0
5.147137 6.339545 13.872488 16.097477 0.888835 0.532028 0.005928 0.001374 500256.000000 1 0 0
12.947737 -3.800855 -5.954712 14.749543 -0.285532 1.986378 0.010117 -0.003256 -528257.000000 1 0 0
3.534737 -2.652355 6.411088 7.786617 -0.643737 0.603513 0.000966 -0.002676 1699530.000000 1 0 0
7.231737 -11.905955 -0.703312 13.947919 -1.024950 1.621242 -0.000281 -0.002277 -1121130.000000 1 0 0
-6.069363 -6.542055 -4.046612 9.798506 0.822862 1.996523 0.007725 -0.000909 -26396.300000 1 0 0
0.178337 -8.995955 5.035688 10.311022 -1.550975 1.060565 0.004695 -0.006624 1267230.000000 1 0 0
-10.230063 2.531545 -0.422612 10.547109 -0.242588 1.610876 -0.004855 -0.000253 -1879860.000000 1 0 0
-1.844363 8.933945 -0.355812 9.129274 -1.367212 1.609781 0.001127 0.001109 564266.000000 1 0 0
-3.545763 2.381045 -6.613712 7.872928 -0.591354 2.568186 0.008660 -0.007039 -1372260.000000 1 0 0
-12.677063 3.078245 6.373588 14.519164 -0.238210 1.116336 -0.004271 -0.005010 390531.000000 1 0 0
11.414737 1.537245 7.933288 13.985578 0.133866 0.967636 0.014278 -0.006522 -1690210.000000 1 0 0
5.979537 2.682045 -3.193812 7.290313 0.421637 2.024269 0.002369 -0.001410 1836410.000000 1 0 0
10.545737 -2.520655 6.358788 12.569823 -0.234619 1.040398 0.014531 -0.008757 3788630.000000 1 0 0
-0.993163 11.013645 4.066088 11.782182 -1.480864 1.218446 -0.004289 0.005195 3229380.000000 1 0 0
-1.660063 -12.191755 7.329488 14.321875 1.435466 1.033554 0.001547 -0.004714 -87176.900000 1 0 0
8.149937 8.648545 -7.676712 14.147463 0.815071 2.144351 0.003983 -0.003723 2180910.000000 1 0 0
-4.684763 -6.026255 -8.732712 11.598406 0.909994 2.423289 0.004817 0.001489 636304.000000 1 0 0
-8.552163 -5.281355 -11.621512 15.365278 0.553221 2.428510 0.010652 0.001666 3663090.000000 1 0 0
6.000437 -0.681055 -9.913612 11.608135 -0.113017 2.594466 0.005099 -0.000650 -369533.000000 1 0 0
-11.169963 -5.396655 -5.324512 13.499718 0.450069 1.976229 0.006402 -0.006146 -867316.000000 1 0 0
3.879837 8.874545 -2.689212 10.051992 1.158648 1.841625 0.009480 -0.003701 2138970.000000 1 0 0
11.695437 -10.534955 -4.091712 16.263783 -0.733243 1.825113 0.013526 0.000580 -95735.800000 1 0 0
3.973537 -11.282455 3.880688 12.575474 -1.232174 1.257084 0.001754 -0.004044 -982189.000000 1 0 0
-1.083063 0.863645 3.232888 3.517168 -0.673159 0.404819 -0.000544 -0.002304 -1107280.000000 1 0 0
-10.592263 -5.077155 4.549288 12.596410 0.446973 1.201287 0.003565 -0.003089 2665700.000000 1 0 0
4.637737 -8.706555 2.755088 10.242227 -1.081354 1.298449 -0.000537 -0.003305 4751970.000000 1 0 0
-3.698163 -5.769555 2.565088 7.317366 1.000789 1.212640 -0.000786 -0.001140 1615970.000000 1 0 0
10.022337 5.058745 12.292788 16.647846 0.467438 0.740100 0.018073 0.002826 852140.000000 1 0 0
1.724037 -12.320655 -5.248812 13.502625 -1.431768 1.970044 -0.002580 -0.002349 1175450.000000 1 0 0
9.874837 -10.817455 -1.856812 14.764061 -0.830921 1.696896 0.005233 -0.001956 651078.000000 1 0 0
9.659337 -4.550455 -9.173212 14.076835 -0.440257 2.280558 0.011419 -0.002111 1759480.000000 1 0 0
-7.453363 -3.003155 -13.056212 15.330892 0.383026 2.589879 0.004811 0.002061 1544660.000000 1 0 0
0.357037 6.179145 -2.506312 6.677642 1.513079 1.955548 0.005728 -0.001878 2262110.000000 1 0 0
-5.990863 -9.487055 1.006788 11.265357 1.007553 1.481307 0.002282 0.000701 1028850.000000 1 0 0
-8.914063 -4.117155 0.638888 9.839698 0.432683 1.505821 -0.003852 -0.001902 2068250.000000 1 0 0
1.923737 3.778445 12.037888 12.762764 1.099868 0.338651 0.000561 -0.001754 1130160.000000 1 0 0
6.655337 4.220545 9.613588 12.430912 0.565159 0.686670 -0.001272 0.002760 2852290.000000 1 0 0
-8.242863 9.904045 -3.579312 13.373345 -0.876685 1.841745 -0.000272 -0.001442 1280700.000000 1 0 0
16.413837 2.153245 -6.033512 17.619699 0.130440 1.920298 0.014106 -0.005761 -1647950.000000 1 0 0
-10.931863 2.674045 -5.175012 12.386965 -0.239899 2.001796 -0.003846 -0.000164 2768970.000000 1 0 0
-13.753763 4.113545 1.388588 14.422739 -0.290617 1.474369 -0.000973 0.000383 -1001820.000000 1 0 0
-17.443363 10.604245 3.353388 20.687342 -0.546226 1.407979 0.045443 -0.009308 -305158.000000 1 0 0
-14.279163 2.922245 -1.268512 14.630213 -0.201864 1.657610 -0.001219 -0.000178 715280.000000 1 0 0
-14.328163 5.189245 5.095088 16.068118 -0.347476 1.248134 -0.003959 -0.004218 1606230.000000 1 0 0
-17.338663 7.692545 3.121888 19.223700 -0.417573 1.407676 0.018749 -0.001123 -1565930.000000 1 0 0
-14.788063 12.608545 -3.464312 19.739900 -0.706011 1.747208 0.038233 -0.015367 -1387790.000000 1 0 0
-8.490763 12.608445 -9.602512 17.979827 -0.978134 2.134205 0.010124 -0.010913 2258540.000000 1 0 0
-12.400363 8.884945 -9.847612 18.157277 -0.621719 2.144029 -0.003910 -0.005343 -1585270.000000 1 0 0
-13.875363 -3.605355 -12.274512 18.872942 0.254217 2.278876 0.000436 0.008368 85351.800000 1 0 0
-14.687463 5.799145 -7.560812 17.507642 -0.376047 2.017348 0.014070 -0.003095 -903929.000000 1 0 0
-10.860963 13.593645 -8.194512 19.232725 -0.896682 2.010942 0.017687 -0.016702 368157.000000 1 0 0
-10.829463 13.601445 3.804388 17.797469 -0.898377 1.355374 -0.002175 -0.001214 -292360.000000 1 0 0
-15.166663 3.346845 2.955988 15.810341 -0.217190 1.382724 -0.002322 0.001664 1750390.000000 1 0 0
-11.109763 9.545445 -12.447812 19.222132 -0.709808 2.275197 -0.000689 -0.003306 334027.000000 1 0 0
-13.042463 11.601545 -8.893512 19.590718 -0.726995 2.042007 0.014707 -0.020362 782133.000000 1 0 0
-8.743163 14.773645 -3.525712 17.525242 -1.036422 1.773358 0.011634 -0.007018 1001890.000000 1 0 0
-16.575963 8.221845 -4.053512 18.941812 -0.460451 1.786462 0.037399 -0.007701 -747437.000000 1 0 0
-16.751463 6.912645 0.323588 18.124593 -0.391372 1.552942 0.022805 0.000212 -638496.000000 1 0 0
-10.544563 2.876845 -12.482012 16.591102 -0.266345 2.422391 0.002462 -0.008478 -299562.000000 1 0 0
-16.878763 0.948145 2.301288 17.061288 -0.056115 1.435500 0.003200 -0.003818 321359.000000 1 0 0
-12.684763 1.167045 -6.943912 14.508036 -0.091745 2.069885 0.003278 -0.005369 1343790.000000 1 0 0
-12.317163 9.009145 -5.494712 16.219403 -0.631510 1.916410 0.008933 -0.007615 -1377800.000000 1 0 0
-9.531163 13.936245 1.153588 16.923142 -0.970950 1.502577 0.009829 -0.005108 336500.000000 1 0 0
-12.181263 11.170045 2.651188 16.738633 -0.742121 1.411739 -0.000302 -0.002545 462370.000000 1 0 0
-12.460763 6.834945 -3.667312 14.677747 -0.501704 1.823327 -0.002667 -0.002909 998286.000000 1 0 0
-15.622463 3.581045 -9.223012 18.491868 -0.225331 2.092964 0.000532 -0.007158 -1093110.000000 1 0 0
-15.021063 5.758745 -4.643512 16.743885 -0.366095 1.851806 0.017794 -0.000986 2110380.000000 1 0 0
-17.862463 5.247045 7.438688 20.048270 -0.285710 1.190669 0.012681 -0.007413 -907012.000000 1 0 0
-15.771363 10.187145 -2.082412 18.890480 -0.573506 1.681257 0.040664 -0.007440 -461455.000000 1 0 0
-8.817563 9.973545 -8.465012 15.775850 -0.846838 2.137176 0.003412 -0.008080 -492643.000000 1 0 0
-16.948363 4.366045 -1.325312 17.551803 -0.252127 1.646377 0.011691 -0.000925 609752.000000 1 0 0
-10.140763 5.405145 -4.609312 12.381293 -0.489707 1.952261 -0.005394 0.001571 523070.000000 1 0 0
-18.212663 2.768745 6.085688 19.401098 -0.150868 1.251733 0.007914 -0.004499 -814587.000000 1 0 0
-10.339863 10.038745 -5.789312 15.530785 -0.770623 1.952782 0.001652 -0.007744 1089130.000000 1 0 0
-15.355363 0.390445 -5.861112 16.440567 -0.025422 1.935319 0.001892 -0.000802 503151.000000 1 0 0
-16.327663 -4.219255 -8.829812 19.035763 0.252880 2.053137 0.002912 -0.003341 -1466680.000000 1 0 0
-9.902863 9.640545 -1.071812 13.862019 -0.771977 1.648194 -0.002449 -0.000537 1567400.000000 1 0 0
-17.243963 -2.995955 -3.219612 17.795952 0.172022 1.752716 -0.000344 -0.001354 -198964.000000 1 0 0
-11.941363 5.178345 -11.473112 17.350611 -0.409172 2.293282 -0.001704 -0.009103 -739341.000000 1 0 0
-16.321463 7.133545 5.892388 18.761605 -0.412045 1.251323 0.011203 -0.002978 -710489.000000 1 0 0
-12.080763 6.081245 -8.734112 16.100034 -0.466350 2.144195 0.000599 -0.004488 -350231.000000 1 0 0
-14.446263 8.594345 -0.118712 16.809859 -0.536674 1.577858 0.020305 -0.001526 2007770.000000 1 0 0
-14.882263 11.922245 3.881188 19.459837 -0.675414 1.370004 0.016434 -0.009567 2174900.000000 1 0 0
-17.313763 4.158845 -4.160112 18.285757 -0.235738 1.800312 0.015849 -0.003730 -1956510.000000 1 0 0
-13.878363 13.485345 -0.918312 19.372836 -0.771036 1.618216 0.034886 -0.008374 -724613.000000 1 0 0
-10.090563 6.937845 -13.023012 17.876017 -0.602327 2.386953 -0.009383 -0.010605 314054.000000 1 0 0
-15.847263 -1.243855 -8.271812 17.919425 0.078330 2.050607 0.000616 -0.005930 -707546.000000 1 0 0
-11.462463 11.968845 -0.103712 16.572629 -0.807006 1.577054 0.012548 -0.003686 1026360.000000 1 0 0
-11.896463 7.473945 -0.911912 14.078965 -0.560932 1.635613 -0.003861 0.000153 1669120.000000 1 0 0
-11.523663 0.195345 -11.664112 16.397697 -0.016950 2.362180 0.001618 -0.006347 -512067.000000 1 0 0
-19.036163 -1.227955 -4.583312 19.618617 0.064417 1.806596 -0.000344 -0.001602 -210842.000000 1 0 0
-17.986963 1.415045 -5.042412 18.733902 -0.078509 1.843317 0.002387 -0.000315 804948.000000 1 0 0
-13.306263 -0.138255 -9.474012 16.335013 0.010390 2.189503 0.005002 -0.006419 -214336.000000 1 0 0
-6.094863 11.309545 -13.228912 18.440642 -1.076505 2.370828 0.001170 -0.005208 -196553.000000 1 0 0
16.306237 5.748945 7.114388 18.696477 0.338955 1.180438 0.040131 -0.014871 -905017.000000 1 0 0
14.775737 10.173245 -5.483712 18.758689 0.602973 1.867458 0.013971 -0.000591 1895800.000000 1 0 0
2.399837 16.859345 4.473188 17.606991 1.429402 1.313923 0.007068 -0.010503 1162710.000000 1 0 0
-3.822763 18.114645 -6.011712 19.465214 -1.362816 1.884774 0.017113 -0.005759 2445080.000000 1 0 0
5.471237 14.543845 5.613488 16.521776 1.210983 1.224131 0.008479 -0.010639 -292169.000000 1 0 0
9.815537 5.964145 15.129788 18.995427 0.546006 0.649318 0.019130 -0.000017 -672290.000000 1 0 0
4.680937 12.739245 -1.099912 13.616510 1.218668 1.651662 0.001029 -0.009651 -100673.000000 1 0 0
3.588537 13.559445 12.919688 19.069726 1.312076 0.826442 0.003469 -0.006370 -684434.000000 1 0 0
-0.843863 12.337545 9.221588 15.426107 -1.502505 0.930054 -0.002498 0.001451 1243730.000000 1 0 0
-7.770363 13.871645 8.362788 17.964890 -1.060185 1.086589 -0.002821 -0.011001 969285.000000 1 0 0
11.325837 12.903145 -4.129312 17.658339 0.850406 1.806827 0.014830 -0.002834 1259410.000000 1 0 0
-5.705063 16.249045 0.768288 17.238604 -1.233141 1.526214 -0.001473 0.007450 1647580.000000 1 0 0
3.246037 10.542045 6.726388 12.919588 1.272095 1.023202 -0.001017 0.001579 1923680.000000 1 0 0
-1.161763 15.628845 2.586688 15.883999 -1.496598 1.407219 -0.005148 0.005841 -431850.000000 1 0 0
9.963737 8.776445 9.497188 16.324785 0.722127 0.949899 0.018179 -0.006720 865800.000000 1 0 0
7.204037 12.209845 6.239688 15.489098 1.037748 1.156175 0.009134 -0.009601 -393632.000000 1 0 0
11.883937 14.029645 -1.476612 18.445576 0.868012 1.650934 0.012387 -0.006301 343942.000000 1 0 0
9.524337 15.842745 -1.164812 18.521942 1.029510 1.633726 0.008001 -0.015441 -400533.000000 1 0 0
10.069937 13.682645 2.996088 17.250940 0.936339 1.396234 0.017140 -0.014381 1997400.000000 1 0 0
-6.002663 14.546245 6.304488 16.952043 -1.179423 1.189740 -0.009704 0.000241 -922426.000000 1 0 0
-0.870563 18.144145 -6.300712 19.226722 -1.522853 1.904671 0.019118 -0.001983 792756.000000 1 0 0
-3.576063 15.787545 5.510888 17.099844 -1.348044 1.242662 -0.005126 0.005264 1057530.000000 1 0 0
7.071037 12.186345 10.585388 17.622627 1.045031 0.926457 0.004221 -0.003223 3397860.000000 1 0 0
1.442037 14.582845 6.261688 15.935732 1.472231 1.166977 0.000137 -0.003512 1496340.000000 1 0 0
17.482837 7.682545 -1.493212 19.154654 0.414032 1.648831 0.010984 0.008962 -140752.000000 1 0 0
2.122837 16.224145 -3.281512 16.688248 1.440691 1.768722 -0.009553 -0.002073 -311742.000000 1 0 0
6.713637 11.158245 0.576688 13.035026 1.029146 1.526541 0.009989 -0.007828 726975.000000 1 0 0
12.706437 9.338145 3.245488 16.099307 0.633776 1.367814 0.006423 0.001010 -1053320.000000 1 0 0
5.967637 14.345445 -3.337512 15.891616 1.176577 1.782389 -0.000108 -0.006616 -339091.000000 1 0 0
3.034937 16.506145 1.616588 16.860516 1.388960 1.474769 0.000172 -0.014116 -1304370.000000 1 0 0
2.854137 18.935545 -2.503812 19.312432 1.421193 1.700810 -0.005016 -0.003050 -1150580.000000 1 0 0
3.984537 11.832345 10.590688 16.372036 1.245974 0.867315 0.005202 -0.003406 1619030.000000 1 0 0
8.005637 11.529945 3.428888 14.449468 0.963883 1.331209 0.006195 -0.005531 1431880.000000 1 0 0
0.718037 12.568245 0.203988 12.590392 1.513727 1.554594 0.000310 -0.003601 -1602780.000000 1 0 0
11.940237 9.969945 -4.592412 16.219103 0.695713 1.857872 0.007577 0.001843 -83197.300000 1 0 0
-1.259363 16.385745 10.015988 19.245743 -1.494090 1.023446 0.002479 -0.003722 626654.000000 1 0 0
8.238837 14.707245 -7.988312 18.654614 1.060164 2.013320 0.018106 -0.006871 2823770.000000 1 0 0
14.572537 7.555645 -1.313012 16.467259 0.478326 1.650616 0.007060 0.003138 146262.000000 1 0 0
12.456237 8.318245 6.012488 16.140045 0.588785 1.189073 0.007974 -0.003192 -1687900.000000 1 0 0
-3.113363 14.144445 10.322188 17.784991 -1.354139 0.951592 0.000592 -0.002786 2279710.000000 1 0 0
-4.421263 17.154745 -3.260612 18.012896 -1.318557 1.752815 0.008339 -0.001732 213510.000000 1 0 0
-6.952763 16.578345 -1.920212 18.079536 -1.173688 1.677206 0.011840 0.003182 -213914.000000 1 0 0
8.382337 11.343845 -1.757712 14.213935 0.934416 1.694775 0.010471 -0.006498 -900809.000000 1 0 0
8.508637 12.987645 -4.100712 16.059006 0.990821 1.829009 0.010088 -0.008533 1841070.000000 1 0 0
2.534137 14.695845 -7.230812 16.573302 1.400037 2.022271 -0.005555 -0.009734 -693404.000000 1 0 0
11.352837 11.337045 9.774688 18.787230 0.784702 1.023613 0.032445 -0.010603 2183170.000000 1 0 0
8.456637 15.593545 1.444188 17.797725 1.073871 1.489563 0.010898 -0.019121 142357.000000 1 0 0
6.032937 9.849445 7.720488 13.892941 1.021225 0.981576 0.004235 0.001329 2591570.000000 1 0 0
14.529037 11.455545 2.720088 18.700837 0.667664 1.424826 0.026711 -0.004960 1224080.000000 1 0 0
12.250737 12.686445 1.151188 17.673474 0.802869 1.505614 0.016927 -0.002960 3111790.000000 1 0 0
5.099837 15.907445 8.169188 18.595450 1.260554 1.115965 0.010815 -0.006451 34372.500000 1 0 0
11.584337 15.059245 5.003088 19.647102 0.915088 1.313313 0.031752 -0.014343 -70782.100000 1 0 0
5.901237 16.718745 1.735788 17.814432 1.231477 1.473204 0.000029 -0.023178 148878.000000 1 0 0
-0.573863 16.219245 -4.190612 16.761696 -1.535429 1.823488 -0.002447 -0.001808 307268.000000 1 0 0
16.093837 6.460145 2.550888 17.528608 0.381717 1.424751 0.008224 0.000390 -315222.000000 1 0 0
7.635337 16.763745 -3.114112 18.682056 1.143405 1.738268 -0.001367 -0.007600 234605.000000 1 0 0
14.821937 8.143845 7.520388 18.508600 0.502417 1.152375 0.035187 -0.010449 841226.000000 1 0 0
2.050237 12.792645 8.577588 15.538025 1.411881 0.985989 0.004005 -0.000935 2048600.000000 1 0 0
16.083137 7.496945 -5.814112 18.672852 0.436192 1.887428 0.014596 0.004739 -1148560.000000 1 0 0
-2.922963 17.047645 0.753188 17.312804 -1.400989 1.527278 -0.008911 0.008198 409210.000000 1 0 0
-2.925563 18.676345 4.692788 19.477860 -1.415414 1.327473 -0.004226 0.006488 1645470.000000 1 0 0
-0.801663 19.107345 1.053388 19.153143 -1.528865 1.515770 -0.007229 0.003547 808698.000000 1 0 0
6.973737 16.711645 -6.103012 19.109130 1.175467 1.895868 -0.001966 -0.007123 201844.000000 1 0 0
11.082437 10.125945 0.795988 15.032923 0.740329 1.517822 0.002712 0.000681 -1239380.000000 1 0 0
8.947337 8.660345 14.393688 19.032463 0.769100 0.713203 0.011603 -0.001681 54815.400000 1 0 0
6.321937 12.360745 -8.332512 16.192148 1.098029 2.111340 0.013975 -0.010424 959877.000000 1 0 0
6.269437 9.003845 13.258588 17.209451 0.962553 0.691289 0.004806 -0.005080 21663.800000 1 0 0
16.676237 9.408345 2.977088 19.377226 0.513662 1.416547 0.020277 -0.000035 -2053850.000000 1 0 0
2.601937 14.716645 -0.734812 14.962943 1.395802 1.619925 -0.005380 -0.006506 462938.000000 1 0 0
9.081037 12.779945 8.296188 17.737501 0.953012 1.084087 0.021473 -0.013579 1082400.000000 1 0 0
7.257637 9.276945 10.431588 15.733818 0.906923 0.845972 0.004129 -0.002360 755697.000000 1 0 0
4.311237 15.724045 -5.266712 17.133902 1.303192 1.883241 -0.005386 -0.008805 2493340.000000 1 0 0
0.305537 16.351845 -8.281412 18.331884 1.552113 2.039521 0.003736 -0.001700 490098.000000 1 0 0
-2.277263 15.678145 -1.908212 15.957174 -1.426554 1.690667 -0.011661 0.004481 405580.000000 1 0 0
13.269737 10.515745 7.673088 18.588789 0.670127 1.145292 0.029014 -0.012884 985614.000000 1 0 0
-1.043063 15.871445 7.120088 17.426600 -1.505171 1.149903 0.000618 -0.001663 4438250.000000 1 0 0
13.338437 13.294845 6.665488 19.977375 0.783761 1.230622 0.034751 -0.018072 66106.800000 1 0 0
5.377937 17.358745 4.451188 18.709925 1.270363 1.330588 0.007268 -0.019907 727574.000000 1 0 0
10.860637 9.576045 -1.839112 14.595767 0.722624 1.697135 0.000702 0.002194 1128780.000000 1 0 0
3.221637 12.708945 4.704588 13.929442 1.322532 1.226277 0.000031 -0.001392 2332380.000000 1 0 0
-0.115063 18.121345 3.760688 18.507813 -1.564447 1.366177 -0.002372 -0.001164 2586060.000000 1 0 0
-7.555763 15.906745 -5.876412 18.564652 -1.127345 1.892874 0.033214 -0.014596 -1318620.000000 1 0 0
-12.470263 -9.006455 8.274588 17.466897 0.625493 1.077275 0.009806 -0.006381 -542192.000000 1 0 0
-13.278963 -11.726555 6.949388 19.029896 0.723395 1.196967 0.011724 0.004135 -1491280.000000 1 0 0
-6.549663 -12.053755 12.303488 18.427341 1.073057 0.839714 0.019086 -0.013354 -972643.000000 1 0 0
-1.987263 -10.704355 14.319488 17.988334 1.387236 0.650067 0.005025 -0.008063 1185190.000000 1 0 0
-8.871863 2.889445 11.024888 14.443233 -0.314853 0.702351 0.004436 -0.001251 3009400.000000 1 0 0
0.436137 9.940145 15.223588 18.186652 1.526948 0.578882 -0.001092 -0.006717 539805.000000 1 0 0
0.933037 -6.847755 16.501788 17.890537 -1.435376 0.396612 0.005593 -0.011104 -156272.000000 1 0 0
6.214037 2.092145 17.841688 19.008344 0.324760 0.352177 0.031523 -0.004441 1708660.000000 1 0 0
-5.224563 -2.863255 17.683488 18.660118 0.501335 0.324964 0.022596 -0.009874 815604.000000 1 0 0
-4.410863 8.160545 13.090288 16.043872 -1.075268 0.616502 -0.004513 -0.002961 -456998.000000 1 0 0
-0.051063 -4.870155 18.448988 19.081042 1.560312 0.258106 0.017901 -0.016772 -1717230.000000 1 0 0
-11.699063 2.122645 11.132288 16.288079 -0.179485 0.818301 0.007578 -0.007828 919739.000000 1 0 0
-3.462663 -5.982155 14.293488 15.877027 1.046087 0.450425 0.009956 -0.013356 1912540.000000 1 0 0
-7.485463 -2.181755 14.603888 16.554931 0.283609 0.490394 0.011942 -0.005377 1439030.000000 1 0 0
-6.099263 -1.051355 10.683088 12.346445 0.170697 0.525095 0.005190 -0.002246 814778.000000 1 0 0
-3.945663 2.539945 11.196588 12.140146 -0.571955 0.396864 0.003205 -0.000907 1033200.000000 1 0 0
-6.496363 6.271345 13.650788 16.366933 -0.767776 0.584394 -0.001620 -0.008213 1164880.000000 1 0 0
-9.008563 5.462845 12.567488 16.399348 -0.545116 0.697671 0.006451 -0.010841 -182044.000000 1 0 0
-12.303963 -2.009955 15.778988 20.109795 0.161928 0.668678 0.002258 0.001815 1613000.000000 1 0 0
-3.619263 -7.497855 16.899288 18.838865 1.121079 0.457762 0.019960 -0.010378 -349998.000000 1 0 0
-0.560163 -5.392555 14.339688 15.330364 1.467291 0.361470 0.005182 -0.005910 2725740.000000 1 0 0
-14.310063 -2.026655 13.655588 19.883669 0.140689 0.813755 0.001795 -0.000273 -804224.000000 1 0 0
-6.466663 1.613445 12.187888 13.891203 -0.244510 0.500419 0.007813 -0.003845 2212540.000000 1 0 0
2.177037 -2.244955 14.532388 14.865046 -0.800756 0.211955 0.003493 -0.001822 398681.000000 1 0 0
-12.621263 4.079445 9.165388 16.122731 -0.312621 0.966144 -0.002860 -0.007681 -1423120.000000 1 0 0
-9.082463 -3.004455 12.511988 15.750165 0.319467 0.652771 0.006389 0.000322 823741.000000 1 0 0
-7.235863 -7.143255 15.351088 18.413031 0.778958 0.585008 0.026415 -0.011724 -479844.000000 1 0 0
-3.016863 5.948245 19.499788 20.608852 -1.101417 0.329559 0.013819 -0.015515 837663.000000 1 0 0
0.691637 5.448145 16.195788 17.101584 1.444523 0.326925 0.007124 -0.005195 572652.000000 1 0 0
3.476837 1.480345 16.788588 17.208617 0.402525 0.221396 0.018576 -0.002831 1474170.000000 1 0 0
-11.657363 11.392045 7.775388 18.059054 -0.773888 1.125690 -0.002188 -0.017347 -157581.000000 1 0 0
0.433237 -9.553455 15.410388 18.136600 -1.525479 0.555410 -0.005836 0.000241 1038970.000000 1 0 0
-2.607163 -3.647455 18.876388 19.401527 0.950213 0.233195 0.023257 -0.015187 1859610.000000 1 0 0
-12.935463 2.499745 13.715888 19.018425 -0.190894 0.765279 0.006451 -0.014438 1512550.000000 1 0 0
-5.426163 -0.564655 15.779888 16.696315 0.103688 0.332859 0.019254 -0.004554 1674220.000000 1 0 0
-4.462863 -5.973355 11.597188 13.787417 0.929136 0.571403 0.002984 -0.007278 -796292.000000 1 0 0
2.477537 1.793145 13.949688 14.281013 0.626495 0.215827 0.001811 -0.001561 -72533.200000 1 0 0
0.146237 3.305445 14.278088 14.656437 1.526584 0.227712 0.005127 -0.004561 430243.000000 1 0 0
-13.002263 7.088645 12.152288 19.156874 -0.499139 0.883621 0.002486 -0.016929 1812850.000000 1 0 0
0.892537 1.501845 18.197688 18.281356 1.034583 0.095710 0.006434 -0.001787 794625.000000 1 0 0
-2.056963 6.489445 12.538888 14.267715 -1.263844 0.497393 -0.002913 -0.000893 -213266.000000 1 0 0
-13.469863 -2.650355 10.837488 17.490361 0.194280 0.902530 0.006910 -0.001289 378351.000000 1 0 0
-2.478563 3.707945 13.508988 14.226204 -0.981563 0.318887 0.003419 -0.003181 -554157.000000 1 0 0
3.572437 5.999045 16.381288 17.807230 1.033691 0.402911 0.009355 -0.004463 -204968.000000 1 0 0
-3.802263 12.321945 12.405288 17.893537 -1.271490 0.804762 0.002749 -0.007568 -691229.000000 1 0 0
3.627337 -1.553155 17.041688 17.492541 -0.404562 0.227532 0.015834 -0.002733 -739069.000000 1 0 0
-15.833763 0.539845 9.065588 18.253338 -0.034081 1.051057 -0.001738 -0.000159 -775401.000000 1 0 0
-4.579363 4.650945 15.285588 16.620801 -0.793153 0.403567 0.012334 -0.008718 1305930.000000 1 0 0
-8.089563 -8.103155 10.619888 15.616791 0.786238 0.822993 0.017060 -0.009366 3219770.000000 1 0 0
-2.660763 -0.453255 14.751288 14.996186 0.168728 0.180971 0.010683 -0.003526 1823710.000000 1 0 0
-1.812863 0.926045 17.215388 17.335328 -0.472265 0.117702 0.010140 -0.006173 2269980.000000 1 0 0
-0.711063 -2.468555 14.467588 14.693892 1.290340 0.175733 0.005411 -0.003631 702164.000000 1 0 0
4.963737 -8.301555 16.469188 19.099441 -1.031901 0.531029 0.007203 -0.000197 245324.000000 1 0 0
-4.547363 9.938945 10.697488 15.293703 -1.141698 0.796141 -0.005925 -0.003612 -1025130.000000 1 0 0
-6.166263 2.168145 15.204588 16.550019 -0.338112 0.406007 0.017187 -0.006766 787346.000000 1 0 0
-4.888063 6.790045 17.394388 19.301880 -0.946848 0.448322 0.015635 -0.008937 56390.600000 1 0 0
-4.011363 9.072145 15.814788 18.668217 -1.154479 0.560197 0.001803 -0.008130 -330943.000000 1 0 0
-4.585763 -9.876655 18.324288 21.315653 1.136112 0.536186 0.030207 -0.011041 1044580.000000 1 0 0
-6.793963 -4.020355 11.108888 13.628227 0.534334 0.617829 0.008163 -0.001875 1891260.000000 1 0 0
-2.353863 -0.809255 19.546988 19.704829 0.331140 0.126657 0.019259 -0.007354 682549.000000 1 0 0
-5.776663 -4.445155 15.283288 16.932457 0.655866 0.445018 0.015759 -0.007421 2221130.000000 1 0 0
-12.976763 0.044745 9.634888 16.162594 -0.003448 0.932133 0.000530 0.000769 931266.000000 1 0 0
-14.544963 8.720445 10.307188 19.845408 -0.540089 1.024678 0.006255 -0.018095 -903558.000000 1 0 0
-8.416863 10.514945 12.838988 18.607720 -0.895771 0.809332 0.004484 -0.016281 155576.000000 1 0 0
-10.492263 7.131645 10.769188 16.641013 -0.596975 0.866960 0.002341 -0.013779 -1215830.000000 1 0 0
-9.991463 -6.469255 14.884188 19.058322 0.574600 0.674561 0.019313 -0.006856 -841825.000000 1 0 0
-0.935963 -13.491355 14.387088 19.745404 1.501532 0.754477 0.004405 -0.008366 678981.000000 1 0 0
3.648537 -5.705655 16.932688 18.236837 -1.001866 0.380475 0.014311 -0.006424 909793.000000 1 0 0
-7.342763 9.313945 10.372988 15.756414 -0.903192 0.852193 -0.006114 -0.008456 774511.000000 1 0 0
-10.420663 -6.657155 11.925988 17.179555 0.568491 0.803493 0.016599 -0.007901 1099370.000000 1 0 0
-10.966263 -3.962855 10.724188 15.842075 0.346766 0.827195 0.008241 0.002110 -2136180.000000 1 0 0
-10.195963 -10.155755 9.838288 17.432410 0.783423 0.971129 0.022342 -0.013333 1519460.000000 1 0 0
-9.870963 -3.572655 15.244388 18.509217 0.347268 0.603048 0.018429 -0.010389 573381.000000 1 0 0
5.495537 -3.422355 16.052788 17.309114 -0.556981 0.383346 0.021581 -0.003916 -86369.900000 1 0 0
-11.350863 0.728845 15.371188 19.121891 -0.064122 0.637052 0.013335 -0.005392 35418.300000 1 0 0
-3.028663 3.162445 18.779988 19.283718 -0.807004 0.229070 0.013078 -0.012389 -1963290.000000 1 0 0
0.527737 7.358145 13.858788 15.699898 1.499197 0.489153 0.007349 -0.007253 1913990.000000 1 0 0
-13.257263 -7.209955 12.201788 19.406754 0.498109 0.890865 0.010581 -0.010761 -471828.000000 1 0 0
-1.607363 -1.181155 12.169688 12.332074 0.633728 0.162461 -0.000101 -0.003220 1056040.000000 1 0 0
2.001637 -4.937355 13.116888 14.157569 -1.185638 0.385813 0.002261 -0.008786 492227.000000 1 0 0
-14.694263 -3.976255 8.603188 17.485617 0.264270 1.056393 0.004138 -0.004993 1070120.000000 1 0 0
8.137937 0.807945 15.982688 17.953415 0.098957 0.472944 0.026063 -0.006824 543837.000000 1 0 0
-1.403663 11.316345 13.458788 17.639980 -1.447388 0.702900 -0.005319 -0.003406 115327.000000 1 0 0
2.877837 -12.254555 -13.811012 18.686898 -1.340138 2.402492 -0.007909 0.011054 -484129.000000 1 0 0
0.760537 -10.650155 -13.915312 17.539674 -1.499506 2.487109 -0.006395 0.006741 -2572570.000000 1 0 0
3.233937 -14.337955 -12.394112 19.226267 -1.348958 2.271355 -0.016427 0.012080 -685950.000000 1 0 0
-5.260063 -10.308855 -16.222612 19.927717 1.098985 2.521927 0.007487 0.000330 147807.000000 1 0 0
-1.095663 -12.160555 -15.121012 19.435138 1.480939 2.462311 -0.000476 0.006322 -87136.100000 1 0 0
5.787237 -14.909955 -12.159312 20.090987 -1.200551 2.220829 -0.008202 0.012269 908941.000000 1 0 0
1.907737 -11.859955 -16.026812 20.028897 -1.411307 2.498399 -0.006902 0.004581 -739354.000000 1 0 0
1.163337 -14.235955 -13.967612 19.977737 -1.489259 2.345017 -0.002191 0.015402 -474429.000000 1 0 0
-1.087263 -10.556655 -15.931012 19.142160 1.468165 2.553945 -0.002085 0.000255 -445888.000000 1 0 0
-5.942863 -5.395255 -15.120012 17.118446 0.737138 2.653563 0.007784 0.001105 6560.500000 1 0 0
-6.436163 -7.531955 -16.488812 19.236306 0.863687 2.600549 0.009449 0.001933 -181247.000000 1 0 0
4.893437 -12.468355 -11.523812 17.669292 -1.196799 2.281272 -0.010964 0.008663 -135925.000000 1 0 0
-1.701563 -15.488755 -13.207212 20.426143 1.461377 2.273894 0.009272 0.003060 224180.000000 1 0 0
15.829437 -7.400555 -8.836512 19.581197 -0.437326 2.038990 0.014127 0.002595 550399.000000 1 0 0
19.188737 -3.740855 -4.342812 20.026524 -0.192536 1.789386 0.020492 -0.016184 886469.000000 1 0 0
14.793237 -11.755355 -8.934712 20.901133 -0.671466 2.012494 0.017180 -0.000802 248595.000000 1 0 0
17.846837 -3.452255 -6.483112 19.299182 -0.191078 1.913385 0.040456 -0.010555 521021.000000 1 0 0
9.613837 -8.922755 -15.325312 20.171927 -0.748133 2.433701 0.035702 -0.021647 -148859.000000 1 0 0
1.282337 1.912745 -15.314012 15.486186 0.980202 2.992338 0.011761 -0.007665 63367.500000 1 0 0
4.735737 -4.351255 -13.867912 15.286583 -0.743112 2.707364 0.006641 -0.005698 2600310.000000 1 0 0
13.204537 -5.573855 -8.742312 16.788559 -0.399426 2.118503 0.025105 -0.001530 -1996950.000000 1 0 0
2.945137 0.932445 -12.167612 12.553648 0.306620 2.892957 0.008642 -0.002753 -2283640.000000 1 0 0
0.650037 6.369545 -13.111812 14.591548 1.469094 2.687341 0.013787 -0.002713 -566977.000000 1 0 0
3.089937 -1.089855 -16.827712 17.143728 -0.339088 2.949290 0.019952 -0.008878 -365584.000000 1 0 0
13.269537 4.360445 -11.386112 18.020479 0.317490 2.254725 0.018543 -0.003633 67169.600000 1 0 0
-3.896463 9.436945 -16.486212 19.391584 -1.179224 2.587111 0.016595 -0.007428 -515721.000000 1 0 0
-0.246863 -4.906855 -17.628712 18.300538 1.520529 2.869793 0.009711 -0.011947 56473.600000 1 0 0
-0.524063 -8.615555 -17.586712 19.590684 1.510044 2.685336 0.002657 0.000485 -1845070.000000 1 0 0
5.531537 -10.129355 -12.313212 16.876521 -1.070960 2.388542 -0.002076 0.000643 498744.000000 1 0 0
1.779037 -9.763655 -18.006012 20.559923 -1.390563 2.637850 0.000796 -0.003014 -81095.100000 1 0 0
10.925837 8.955345 -14.639312 20.344080 0.686607 2.374002 0.039793 -0.015763 121532.000000 1 0 0
10.875437 -3.791555 -12.905512 17.297494 -0.335458 2.412969 0.019307 -0.009257 428283.000000 1 0 0
4.893437 7.474145 -12.268712 15.176623 0.991113 2.512217 -0.004520 0.000130 611471.000000 1 0 0
9.500737 -5.973855 -12.652912 16.912929 -0.561312 2.416022 0.014597 -0.007328 -1115610.000000 1 0 0
-3.306063 0.494645 -15.841512 16.190375 -0.148516 2.933625 0.008337 -0.004874 -1059470.000000 1 0 0
-0.719063 10.771345 -12.746312 16.703514 -1.504138 2.438880 0.006838 -0.006161 -3871480.000000 1 0 0
6.581737 -5.535955 -12.440512 15.123902 -0.699309 2.536717 0.007540 -0.004774 -39724.800000 1 0 0
17.969637 -5.936655 -8.269112 20.652602 -0.319083 1.982740 0.033532 -0.007822 -532585.000000 1 0 0
13.290137 4.877145 -13.856712 19.809664 0.351716 2.345484 0.028297 -0.011683 287822.000000 1 0 0
14.187737 0.907445 -11.427712 18.240284 0.063873 2.247863 0.022514 -0.002863 -597283.000000 1 0 0
15.143937 6.223345 -11.142412 19.804601 0.389907 2.168345 0.024684 -0.005845 454730.000000 1 0 0
8.303837 1.520545 -11.764012 14.479564 0.181107 2.519149 0.000514 0.004629 569448.000000 1 0 0
9.960737 1.174345 -8.823912 13.358773 0.117356 2.292325 0.002898 0.002337 213207.000000 1 0 0
-0.286363 -5.759055 -13.014712 14.234868 1.521113 2.724533 0.001098 -0.001992 174435.000000 1 0 0
10.650037 -5.774255 -8.996812 15.089995 -0.496821 2.209569 0.016066 -0.004589 -1200360.000000 1 0 0
10.195237 8.419945 -11.170612 17.309561 0.690318 2.272269 0.024233 -0.012018 623067.000000 1 0 0
8.416937 8.159745 -14.706612 18.807199 0.769884 2.468612 0.025018 -0.003260 307551.000000 1 0 0
8.720137 10.512545 -10.607812 17.293932 0.878326 2.231134 0.028708 -0.014205 -1020570.000000 1 0 0
7.098637 1.687945 -18.018312 19.439635 0.233449 2.756824 0.016293 0.004080 -1906030.000000 1 0 0
12.224937 2.662345 -12.837112 17.925642 0.214432 2.369040 0.020068 -0.004090 -1264700.000000 1 0 0
2.547337 -0.971655 -19.290512 19.482220 -0.364404 3.001191 0.022028 -0.013267 -616540.000000 1 0 0
10.433837 -2.330055 -15.465612 18.801045 -0.219712 2.536753 0.027313 -0.009533 401850.000000 1 0 0
8.330337 -0.822255 -13.009712 15.470076 -0.098387 2.569851 0.008508 -0.002196 420903.000000 1 0 0
0.555137 4.317045 -14.695512 15.326550 1.442906 2.853639 0.010442 -0.007518 -165542.000000 1 0 0
3.946137 -7.747555 -15.777712 18.014795 -1.099705 2.637928 0.014223 -0.010268 -548954.000000 1 0 0
11.453737 -5.804755 -14.452412 19.332757 -0.469073 2.415178 0.028262 -0.008124 -289584.000000 1 0 0
-5.888363 4.298845 -16.899912 18.405432 -0.630615 2.734315 0.012862 -0.004519 206753.000000 1 0 0
11.444737 7.852745 -9.002712 16.543773 0.601366 2.146202 0.020959 -0.007450 -602850.000000 1 0 0
9.535337 6.193645 -13.463412 17.622354 0.576056 2.440281 0.014162 0.001682 -682970.000000 1 0 0
12.123637 0.651045 -10.107012 15.797409 0.053649 2.265020 0.013509 0.000630 -1711000.000000 1 0 0
5.428437 -7.300255 -13.799512 16.528406 -0.931407 2.558741 0.006696 -0.004292 -1679170.000000 1 0 0
8.526437 -10.224055 -10.692212 17.074977 -0.875689 2.247456 0.010434 -0.000659 -364495.000000 1 0 0
10.182037 4.596645 -15.882612 19.418043 0.424056 2.528601 0.022026 -0.002031 128524.000000 1 0 0
9.917037 -0.286655 -11.015512 14.824686 -0.028897 2.408416 0.008202 0.000956 -968769.000000 1 0 0
-1.651563 5.447645 -14.094112 15.200280 -1.276434 2.757736 0.010678 -0.006696 890165.000000 1 0 0
1.388337 -0.649355 -14.917112 14.995646 -0.437493 3.039205 0.009664 -0.008816 -1079430.000000 1 0 0
11.490437 -10.302855 -14.435012 21.131696 -0.730959 2.322792 0.042229 -0.008536 222334.000000 1 0 0
9.264437 -7.708055 -10.769312 16.162364 -0.693954 2.300059 0.016509 -0.002922 -145977.000000 1 0 0
14.137337 -0.989955 -9.743612 17.198323 -0.069910 2.173103 0.020061 -0.000544 996052.000000 1 0 0
4.038137 11.068945 -12.254412 16.999962 1.220983 2.375823 0.005673 -0.012099 -1413130.000000 1 0 0
-1.377463 2.925945 -17.103012 17.406079 -1.130801 2.954711 0.009792 -0.003334 -9035.780000 1 0 0
5.907737 -0.556155 -17.550712 18.526688 -0.093864 2.815560 0.012430 -0.004935 115497.000000 1 0 0
6.288637 -6.489755 -16.092412 18.456154 -0.801136 2.629920 0.013090 -0.006761 4675.560000 1 0 0
-1.862663 -5.192655 -19.628112 20.388624 1.226382 2.867604 0.013582 -0.020820 -758172.000000 1 0 0
-0.160763 -4.246755 -15.119412 15.705331 1.532959 2.867581 0.007414 -0.009618 -134233.000000 1 0 0
0.553137 0.788745 -13.029712 13.065278 0.959206 3.067791 0.007789 -0.007775 525250.000000 1 0 0
15.608737 0.592645 -13.439012 20.605605 0.037951 2.281282 0.023101 -0.011412 651045.000000 1 0 0
-0.081663 6.987145 -16.384912 17.812698 -1.559109 2.738480 0.013809 -0.003633 -178522.000000 1 0 0
-4.967563 -0.619155 -18.280912 18.953939 0.124000 2.874308 0.000534 0.002286 -203785.000000 1 0 0
10.384037 -8.434855 -12.965912 18.630349 -0.682190 2.340547 0.019038 -0.014244 656816.000000 1 0 0
4.151837 8.730745 -17.212012 19.741252 1.126906 2.629826 0.007437 -0.010290 -441778.000000 1 0 0
9.247837 0.701145 -16.822712 19.209835 0.075672 2.637751 0.022608 -0.006079 -393781.000000 1 0 0
3.466637 4.931145 -18.472412 19.431001 0.958054 2.826176 0.009028 -0.002672 -530307.000000 1 0 0
1.378337 -8.175755 -15.880012 17.914173 -1.403778 2.660413 -0.001681 -0.005430 -203978.000000 1 0 0
4.623737 7.761945 -14.905112 17.429547 1.033550 2.596663 0.001108 0.001206 590430.000000 1 0 0
-5.746963 -0.333255 -15.207512 16.260599 0.057923 2.779724 0.001962 -0.002487 -501533.000000 1 0 0
2.825037 3.323945 -13.802712 14.475646 0.866357 2.835482 0.007639 -0.002807 1256860.000000 1 0 0
-2.471163 -10.258555 -18.044912 20.903671 1.334412 2.612452 0.008423 0.002292 -344602.000000 1 0 0
6.230337 -9.030155 -15.520212 19.006257 -0.966849 2.526265 0.009376 -0.008907 160807.000000 1 0 0
-1.698763 5.459645 -17.478212 18.389710 -1.269143 2.825426 0.012551 -0.004345 -181006.000000 1 0 0
9.940837 -12.145255 -11.821112 19.648567 -0.884879 2.216333 0.025069 0.000329 -116354.000000 1 0 0
10.971737 3.563845 -9.248612 14.785697 0.314069 2.246582 0.007481 0.000719 -495947.000000 1 0 0
4.846737 -0.464855 -11.004912 12.033913 -0.095619 2.725046 0.004752 -0.005627 413322.000000 1 0 0
6.390837 9.507545 -11.367412 16.138596 0.978982 2.352320 0.013399 -0.011312 23226.800000 1 0 0
10.729737 -9.576255 -9.415412 17.189588 -0.728654 2.150456 0.021650 -0.001751 -1550280.000000 1 0 0
3.197137 -2.436955 -14.544012 15.089358 -0.651283 2.871923 0.011681 -0.007675 88044.700000 1 0 0
9.160037 -4.583655 -14.728412 17.939964 -0.463965 2.533928 0.018955 -0.009434 292145.000000 1 0 0
-4.051963 -6.530755 -16.564012 18.260221 1.015481 2.707160 -0.000365 -0.001501 -1317360.000000 1 0 0
5.752237 -7.712455 -11.304812 14.844830 -0.929965 2.436470 -0.001964 -0.003949 -305161.000000 1 0 0
5.452437 6.458145 -16.934012 18.926106 0.869636 2.678653 0.009309 -0.003862 -1489590.000000 1 0 0
9.284437 1.146845 -19.431512 21.566170 0.122901 2.692907 0.038905 -0.007942 478655.000000 1 0 0
13.181937 5.808245 -9.332712 17.163878 0.415027 2.145685 0.007420 -0.003448 405694.000000 1 0 0
-1.588063 -0.710155 -17.302012 17.389247 0.420509 3.041385 0.008633 -0.006685 419176.000000 1 0 0
-0.430963 -0.544055 -19.510912 19.523254 0.900873 3.106035 0.011608 -0.014329 -431905.000000 1 0 0
2.916337 6.502945 -16.510112 17.982690 1.149220 2.734085 0.004019 0.000328 -1298770.000000 1 0 0
7.697437 3.778145 -15.653012 17.847737 0.456286 2.640443 0.012777 0.003939 -61871.200000 1 0 0
2.984737 -9.823255 -14.657112 17.895138 -1.275817 2.530559 -0.001792 -0.005960 263685.000000 1 0 0
8.985737 -10.479955 -13.407512 19.244073 -0.862010 2.341595 0.023686 -0.004020 -807327.000000 1 0 0
3.837137 0.063945 -14.781112 15.271182 0.016663 2.887568 0.012172 -0.006558 -2956550.000000 1 0 0
-1.309763 -2.824555 -18.748312 19.005073 1.136603 2.977029 0.017144 -0.012214 126978.000000 1 0 0
9.246737 10.013045 -13.028112 18.854573 0.825165 2.333639 0.039072 -0.018972 -298657.000000 1 0 0
4.694237 2.096745 -10.622612 11.801360 0.420076 2.690836 0.001146 0.002257 -154534.000000 1 0 0
-0.303263 7.177845 -18.930512 20.247907 -1.528572 2.778877 0.022052 -0.002978 -67429.000000 1 0 0
0.807937 -1.863055 -17.616412 17.733069 -1.161611 3.026826 0.019563 -0.015098 -2503820.000000 1 0 0
-4.488763 -2.128855 -13.973912 14.830753 0.442847 2.800009 0.003979 -0.006301 -3673990.000000 1 0 0
10.099837 5.968245 -10.349412 15.644072 0.533720 2.293687 0.013039 0.001154 101424.000000 1 0 0
8.264337 5.651645 -17.229812 19.927539 0.599811 2.615196 0.022913 -0.013165 -547656.000000 1 0 0
11.415837 0.297645 -13.619212 17.773376 0.026067 2.443813 0.015999 0.004070 621779.000000 1 0 0
6.880637 11.964645 -11.733012 18.115172 1.048901 2.275345 0.023818 -0.016347 1940.190000 1 0 0
-0.894163 0.603845 -15.234112 15.272274 -0.593968 3.070885 0.007725 -0.007696 -20882.300000 1 0 0
-4.397263 -3.065955 -18.855712 19.602905 0.608872 2.864605 -0.001261 0.002962 -217731.000000 1 0 0
5.742337 -11.995255 -13.961712 19.281857 -1.124319 2.380504 -0.006007 0.002798 -144655.000000 1 0 0
1.966637 -4.717855 -13.970012 14.875721 -1.175849 2.790842 0.005931 -0.004645 -996833.000000 1 0 0
11.904037 2.029145 -15.438412 19.600207 0.168836 2.477807 0.028327 -0.003557 473805.000000 1 0 0
9.744137 2.258745 -13.872512 17.102536 0.227782 2.516891 0.011299 0.001983 2685410.000000 1 0 0
-2.348663 -4.069155 -16.358312 17.019654 1.047320 2.861908 0.000114 -0.007772 -684820.000000 1 0 0
-2.788063 10.133145 -14.325212 17.766981 -1.302297 2.508637 0.013739 -0.009134 106995.000000 1 0 0
3.541537 5.751745 -13.632612 15.214243 1.018889 2.681571 0.002628 0.002372 28843.100000 1 0 0
-5.070863 -2.532755 -16.461212 17.409768 0.463225 2.809972 -0.004034 0.001086 164430.000000 1 0 0
-4.326163 6.279545 -13.679712 15.661510 -0.967539 2.633062 0.008355 -0.010159 1681710.000000 1 0 0
5.930837 -1.170555 -14.157412 15.394069 -0.194863 2.738027 0.010427 0.000278 -1147760.000000 1 0 0
6.797237 -3.012655 -12.700212 14.716451 -0.417199 2.611963 0.009101 -0.006893 1784630.000000 1 0 0
2.846537 -3.325055 -18.171112 18.690856 -0.862779 2.905215 0.024575 -0.020865 -241491.000000 1 0 0
7.381737 -11.986555 -12.093712 18.558703 -1.018815 2.280549 0.006809 0.007262 -3694590.000000 1 0 0
-6.125963 -5.361455 -17.690812 19.474020 0.718944 2.710313 0.021135 0.002018 175249.000000 1 0 0
0.442437 8.703045 -11.982912 14.816509 1.520003 2.512827 0.004970 -0.002554 -79076.800000 1 0 0
0.414937 8.602645 -14.482312 16.849779 1.522600 2.605079 0.006939 -0.003916 323052.000000 1 0 0
7.875237 -2.318455 -15.095212 17.183132 -0.286310 2.643489 0.019074 -0.010430 -118901.000000 1 0 0
14.287237 1.577945 -8.913112 16.913268 0.109999 2.125851 0.010990 0.001991 227012.000000 1 0 0
2.832637 10.959445 -14.629112 18.497140 1.317866 2.483050 0.003752 0.000786 -456331.000000 1 0 0
6.205137 0.942745 -15.522112 16.743013 0.150777 2.757343 0.015226 0.001120 553727.000000 1 0 0
16.606037 -5.462555 -10.428012 20.355428 -0.317800 2.108653 0.042910 -0.009270 298505.000000 1 0 0
4.796737 -4.192355 -11.230512 12.911582 -0.718264 2.625596 0.002663 -0.002372 -1679320.000000 1 0 0
8.814537 -3.667355 -17.136012 19.616026 -0.394272 2.633290 0.016286 -0.016397 474361.000000 1 0 0
13.291737 -9.537355 -8.955112 18.650080 -0.622401 2.071639 0.021384 -0.002782 -250378.000000 1 0 0
2.453137 -7.527855 -13.585612 15.724356 -1.255774 2.613928 0.002497 -0.004334 68738.600000 1 0 0
-6.838663 -2.366455 -18.510112 19.874398 0.333143 2.768912 0.000478 0.009593 -650866.000000 1 0 0
-1.454463 -6.490955 -15.859012 17.197565 1.350362 2.744440 -0.002927 -0.003625 2146730.000000 1 0 0
1.588137 -7.241755 -18.270412 19.717332 -1.354911 2.756110 0.018638 -0.017437 -78336.800000 1 0 0
5.453737 10.997945 -14.403512 18.925095 1.110445 2.435773 0.014971 -0.015857 -120628.000000 1 0 0
5.305437 -3.529955 -17.302612 18.438781 -0.587088 2.788714 0.017670 -0.017429 -884675.000000 1 0 0
4.111637 13.132545 -13.715812 19.429174 1.267376 2.354544 0.008525 -0.018700 -211939.000000 1 0 0
9.065737 10.538345 -15.599512 20.894714 0.860375 2.413698 0.041174 -0.016820 244700.000000 1 0 0
2.621637 3.851145 -16.280512 16.933971 0.973112 2.862883 0.008323 -0.005182 111527.000000 1 0 0
16.661737 1.792645 -11.360212 20.245530 0.107178 2.166537 0.028341 -0.005588 -1037870.000000 1 0 0
10.033837 -3.790455 -10.554512 15.048029 -0.361195 2.348140 0.016553 -0.004561 344107.000000 1 0 0
14.651837 -2.181455 -12.000312 19.064170 -0.147800 2.251667 0.031769 -0.006708 543454.000000 1 0 0
-2.760563 -8.667555 -16.005512 18.409879 1.262460 2.624779 -0.000569 0.002645 -155522.000000 1 0 0
14.067137 8.217945 -8.958012 18.592067 0.528717 2.073526 0.027459 -0.004353 330165.000000 1 0 0
-8.316363 0.168745 -16.465612 18.447405 -0.020288 2.673811 -0.001774 -0.000184 -340520.000000 1 0 0
-3.481563 4.157045 -15.977912 16.872936 -0.873599 2.814421 0.008986 -0.003947 -754721.000000 1 0 0
15.119137 3.975945 -9.718012 18.407504 0.257152 2.126967 0.017209 0.000159 905695.000000 1 0 0
5.416837 1.110545 -13.002212 14.129153 0.202215 2.739490 0.003690 0.001040 744492.000000 1 0 0
7.759437 -7.801355 -12.857312 16.922780 -0.788092 2.433746 0.011458 -0.004844 -2691080.000000 1 0 0
3.252337 -6.137055 -11.754612 13.653280 -1.083476 2.607905 0.000743 -0.002473 -1237720.000000 1 0 0
-3.277763 3.798545 -18.602612 19.267326 -0.858861 2.878155 0.012982 0.000082 14542.400000 1 0 0
0.986537 5.162545 -17.796212 18.556139 1.381978 2.854415 0.011268 -0.008984 -162641.000000 1 0 0
6.412437 7.167145 -10.160512 13.990115 0.840918 2.383667 0.003364 0.000626 235432.000000 1 0 0
9.848637 3.626445 -11.619412 15.657506 0.352811 2.406992 0.011483 0.000782 -154872.000000 1 0 0
4.624637 1.720245 -17.517812 18.199458 0.356115 2.867037 0.016808 -0.002859 -547547.000000 1 0 0
2.601137 8.160045 -13.279612 15.801910 1.262214 2.568781 -0.000279 -0.001124 -69990.600000 1 0 0
14.355337 -3.596555 -9.838312 17.770856 -0.245485 2.157502 0.025874 -0.001770 59030.700000 1 0 0
-1.300363 9.317545 -16.250812 18.777553 -1.432131 2.616821 0.017646 -0.005263 -1349570.000000 1 0 0
-5.229163 2.150945 -15.725512 16.711147 -0.390241 2.796427 0.012086 -0.007417 425390.000000 1 0 0
4.473437 4.267945 -11.880312 13.392864 0.761894 2.661740 0.002237 0.002379 601038.000000 1 0 0
9.141637 3.175345 -17.798312 20.259128 0.334312 2.643579 0.019920 0.002301 892084.000000 1 0 0
-4.262263 14.412045 -13.316412 20.079859 -1.283250 2.295846 0.016799 -0.006733 -448721.000000 1 0 0
15.567637 -4.966255 -8.044012 18.213214 -0.308806 2.028242 0.025530 -0.005562 1196790.000000 1 0 0
1.277937 9.272145 -16.761112 19.197413 1.433834 2.632305 0.007539 -0.003194 -636432.000000 1 0 0
0.374437 -3.181755 -12.746012 13.142473 -1.453653 2.895344 0.007292 -0.003571 313304.000000 1 0 0
7.646537 3.721945 -13.033612 15.562694 0.452991 2.563471 0.005734 0.004865 1822630.000000 1 0 0
-2.892463 7.555345 -15.179312 17.200613 -1.205173 2.651920 0.013245 -0.006075 443725.000000 1 0 0
12.080437 -5.207755 -11.060012 17.186668 -0.407018 2.269888 0.028840 -0.005830 -990748.000000 1 0 0
0.534837 -4.224555 -20.012212 20.460244 -1.444864 2.931936 0.022310 -0.017085 -877958.000000 1 0 0
3.329037 -4.720355 -16.067112 17.073850 -0.956555 2.796477 0.018144 -0.017155 784553.000000 1 0 0
-5.669463 4.341145 -14.455912 16.123329 -0.653478 2.682790 0.007214 -0.007021 127315.000000 1 0 0
12.217037 -7.553155 -9.931112 17.462335 -0.553729 2.175741 0.016853 0.000712 350524.000000 1 0 0
-2.099463 -1.767555 -14.998312 15.247340 0.699778 2.960611 0.007129 -0.004515 329888.000000 1 0 0
7.049137 5.964145 -14.354312 17.067737 0.702215 2.569963 0.007113 0.005499 -37478.600000 1 0 0
4.147937 -5.579355 -18.410712 19.679658 -0.931504 2.780524 0.028755 -0.017296 135901.000000 1 0 0
7.591737 7.513545 -12.350512 16.328594 0.780222 2.428547 0.009542 -0.002348 -876981.000000 1 0 0
12.344037 -2.596755 -11.019312 16.749437 -0.207342 2.288812 0.023665 -0.003837 -895359.000000 1 0 0
7.415237 -0.802455 -10.579712 12.944497 -0.107798 2.527529 0.003680 -0.001038 -1037100.000000 1 0 0
5.384837 3.950745 -14.303112 15.785559 0.632974 2.704742 0.003316 0.001345 -899867.000000 1 0 0
14.885537 2.977945 -12.816512 19.867319 0.197450 2.271957 0.026377 -0.012685 1570210.000000 1 0 0
-6.665063 6.624745 -15.821912 18.402261 -0.782364 2.605637 0.012691 -0.006966 492051.000000 1 0 0
-11.023763 4.034145 -16.574412 20.310313 -0.350813 2.525355 0.004413 -0.009395 -166338.000000 1 0 0
-5.113463 6.556845 -17.942312 19.775396 -0.908453 2.707626 0.013224 0.001115 675503.000000 1 0 0
-10.071963 1.771545 -15.563512 18.622721 -0.174108 2.560252 0.009230 -0.001673 157735.000000 1 0 0
-7.689563 5.818645 -17.992712 20.413812 -0.647771 2.649612 0.004567 -0.003852 -930728.000000 1 0 0
-8.644263 3.905345 -15.387212 18.075987 -0.424337 2.589162 -0.004958 -0.007995 197142.000000 1 0 0
9.045937 13.469145 -11.803612 20.064200 0.979383 2.199742 0.056758 -0.026362 334065.000000 1 0 0
14.068137 8.944545 -11.496212 20.250439 0.566329 2.174508 0.041298 -0.009245 421638.000000 1 0 0
8.382837 15.775945 -9.180212 20.085534 1.082370 2.045479 0.029697 -0.013572 109606.000000 1 0 0
7.167837 13.638545 -13.724012 20.633378 1.086913 2.298473 0.032549 -0.019072 -237373.000000 1 0 0
4.755737 16.004545 -12.453012 20.828826 1.281957 2.211643 0.029317 -0.019568 235677.000000 1 0 0
11.173337 10.834245 -11.638712 19.434092 0.769991 2.212900 0.047283 -0.015069 21603.000000 1 0 0
15.849937 9.843345 -9.801512 21.075616 0.555742 2.054503 0.040461 -0.000535 -304390.000000 1 0 0
13.290637 10.620145 -9.649112 19.558473 0.674173 2.086730 0.053996 -0.011280 453276.000000 1 0 0
10.354137 11.814545 -8.252112 17.745112 0.851180 2.054471 0.019216 -0.003630 125775.000000 1 0 0
5.200137 16.129145 -9.947312 19.650439 1.258912 2.101585 0.014451 -0.016969 -16284.300000 1 0 0
6.747437 14.526245 -11.300112 19.601843 1.135950 2.185213 0.023140 -0.012560 -605492.000000 1 0 0
11.005837 13.798545 -9.822812 20.199404 0.897515 2.078638 0.050314 -0.010844 -367006.000000 1 0 0
8.235237 -18.740155 -1.189912 20.504352 -1.156756 1.628861 0.029842 0.011852 14429.100000 1 0 0
7.235937 -17.556455 -3.245912 19.264575 -1.179858 1.740095 0.019550 0.011447 670145.000000 1 0 0
4.546037 -18.052755 5.616388 19.445109 -1.324106 1.277789 0.032351 -0.008947 25149.700000 1 0 0
9.825437 -17.179555 -2.490612 19.946917 -1.051275 1.695985 0.032091 0.007246 798199.000000 1 0 0
-9.740163 -12.249955 -9.934912 18.537386 0.899039 2.136416 0.021247 -0.013176 -226353.000000 1 0 0
-5.192363 -7.018755 -12.168712 14.976686 0.933866 2.519242 0.004385 0.002888 -131604.000000 1 0 0
-10.757063 -9.489155 -5.545412 15.378884 0.722855 1.939693 0.011751 -0.001309 -1067640.000000 1 0 0
-4.491663 -11.385555 -14.010012 18.603396 1.195036 2.423541 0.010844 -0.002026 123044.000000 1 0 0
-3.088463 -15.465555 7.429288 17.433196 1.373690 1.130555 0.011701 -0.003902 130165.000000 1 0 0
-4.754963 -12.154255 -11.536912 17.419413 1.197884 2.294683 0.012003 -0.000101 -1794.120000 1 0 0
-14.423263 -12.962455 -4.224712 19.847014 0.732107 1.785301 0.006017 0.003099 9427.550000 1 0 0
-3.305163 -12.329955 -3.153012 13.148893 1.308894 1.812949 0.008046 -0.002690 472461.000000 1 0 0
-2.432163 -17.370555 -1.423012 17.597630 1.431684 1.651749 0.001882 -0.007315 -51326.400000 1 0 0
-5.814663 -12.166955 3.787488 14.006790 1.124980 1.296984 -0.001174 -0.000725 -259259.000000 1 0 0
-8.894263 -10.813655 -11.955712 18.411467 0.882484 2.277542 0.017329 -0.001282 795592.000000 1 0 0
-9.967063 -11.982855 -7.453212 17.276618 0.876977 2.016845 0.020816 -0.006612 -535566.000000 1 0 0
-10.976763 -14.972755 6.140088 19.554370 0.938189 1.251392 0.013040 -0.008963 314008.000000 1 0 0
-9.430163 -15.810255 0.696888 18.422209 1.032985 1.532959 0.012280 0.003845 -1273000.000000 1 0 0
-14.842063 -7.897755 -8.186012 18.699523 0.489012 2.023909 0.001336 -0.000398 94536.500000 1 0 0
-2.458463 -16.623755 5.164488 17.580251 1.423972 1.272632 0.017206 -0.003436 1915600.000000 1 0 0
4.242737 -15.500255 5.935688 17.131583 -1.303620 1.216984 0.029976 -0.016405 -808394.000000 1 0 0
4.224337 -14.591755 -10.063212 18.221762 -1.288999 2.155873 -0.008958 0.009674 -253876.000000 1 0 0
-7.662363 -14.149855 -0.310512 16.094304 1.074491 1.590091 0.004589 0.004615 1271120.000000 1 0 0
2.877837 -14.768355 9.640488 17.869675 -1.378343 1.000967 0.031928 -0.018965 -163649.000000 1 0 0
2.447637 -17.179355 10.402988 20.232235 -1.429273 1.030746 0.053496 -0.016758 -397466.000000 1 0 0
-8.473063 -17.363655 -5.601412 20.116291 1.116813 1.852978 0.022117 -0.003816 -303788.000000 1 0 0
-6.359163 -9.274255 -7.773212 13.670172 0.969747 2.175631 0.012394 -0.001585 241529.000000 1 0 0
-6.108763 -13.185055 -4.888112 15.331546 1.136929 1.895288 0.006538 -0.003957 603175.000000 1 0 0
2.333237 -19.236355 -5.111012 20.040055 -1.450093 1.828685 0.005533 -0.004475 87649.500000 1 0 0
-5.467763 -12.800455 8.390588 16.252694 1.167103 1.028320 0.003117 -0.006399 1033840.000000 1 0 0
2.136837 -17.511655 3.445288 17.974820 -1.449373 1.377930 0.020165 -0.012023 -39840.900000 1 0 0
-17.441363 -10.258055 -2.305312 20.365247 0.531657 1.684238 -0.004462 0.001024 362656.000000 1 0 0
-3.484363 -15.390955 2.636088 15.999102 1.348159 1.405277 0.003169 -0.001146 -188906.000000 1 0 0
-10.281263 -10.166155 -14.166612 20.242233 0.779769 2.345990 0.028419 -0.002519 -237223.000000 1 0 0
5.989137 -14.573255 -5.714412 16.760192 -1.180871 1.918725 -0.010495 0.007496 254300.000000 1 0 0
-7.290263 -12.440155 -10.754912 17.988150 1.040715 2.211661 0.015503 -0.008129 364936.000000 1 0 0
-6.995863 -14.309955 4.116288 16.451770 1.116084 1.317906 -0.003427 0.004130 613823.000000 1 0 0
3.200437 -14.903755 -3.082712 15.552101 -1.359268 1.770336 -0.002891 0.000973 -732601.000000 1 0 0
-7.630363 -11.291955 7.881688 15.743306 0.976542 1.046461 0.006487 -0.010083 -39266.800000 1 0 0
-12.731363 -12.322155 -0.972212 17.744529 0.769066 1.625613 0.002360 0.007664 -916254.000000 1 0 0
-1.888763 -13.679655 4.007688 14.379220 1.433593 1.288342 0.003252 -0.001866 -3802500.000000 1 0 0
-3.166363 -13.949055 5.247688 15.236149 1.347584 1.219172 0.003018 -0.002387 -17325.900000 1 0 0
-14.477263 -10.297055 -4.326212 18.284874 0.618241 1.809662 0.001115 0.003064 814764.000000 1 0 0
-6.150763 -8.741355 -10.459512 14.954751 0.957632 2.345369 0.005715 0.002009 104777.000000 1 0 0
0.879337 -19.498555 2.330088 19.656963 -1.525729 1.451979 0.024169 -0.013308 71289.700000 1 0 0
6.421337 -14.127455 -8.281912 17.590016 -1.144183 2.061028 -0.006717 0.010561 -2219370.000000 1 0 0
-3.818963 -16.901355 -5.797212 18.271507 1.348572 1.893658 0.002803 -0.005943 -372602.000000 1 0 0
-3.482963 -13.636555 -13.294212 19.360340 1.320729 2.327698 0.018774 0.002017 -1622000.000000 1 0 0
-8.180363 -14.914355 -4.443412 17.581247 1.069114 1.826303 0.011516 0.000391 -1618400.000000 1 0 0
-4.799163 -14.438155 10.196688 18.315696 1.249891 0.980366 0.012872 -0.003425 184009.000000 1 0 0
-0.140963 -12.060155 -9.960712 15.642347 1.559109 2.261109 0.004227 0.003570 546889.000000 1 0 0
2.341337 -17.200055 6.775388 18.634099 -1.435504 1.198665 0.033838 -0.014827 -1023010.000000 1 0 0
-2.815263 -19.183855 -3.332712 19.673662 1.425085 1.741017 0.004475 -0.011593 -643729.000000 1 0 0
0.661437 -15.260255 -3.019912 15.570253 -1.527480 1.765987 -0.000523 -0.007503 -637105.000000 1 0 0
5.893337 -17.970055 0.535688 18.919336 -1.253896 1.542478 0.012145 0.000552 -333304.000000 1 0 0
-7.158163 -16.767555 3.972588 18.659359 1.167313 1.356254 0.005435 0.004691 580737.000000 1 0 0
-5.236863 -13.718055 -9.528112 17.504134 1.206121 2.146392 0.012299 -0.005401 138094.000000 1 0 0
5.649637 -15.195855 -2.051312 16.341368 -1.214845 1.696657 0.003791 0.006131 128044.000000 1 0 0
-8.838963 -10.314055 -0.464212 13.591265 0.862263 1.604958 -0.000558 0.005461 -1090840.000000 1 0 0
-7.519063 -18.572355 -2.975512 20.256415 1.186114 1.718222 0.023974 -0.007007 -201141.000000 1 0 0
7.854637 -16.111555 -1.099612 17.957915 -1.117186 1.632067 0.013589 0.007132 -759331.000000 1 0 0
-8.037863 -10.314455 -9.501212 16.163795 0.908817 2.199143 0.012927 -0.003079 -404194.000000 1 0 0
-9.249663 -15.247255 -6.854012 19.105302 1.025506 1.937724 0.020960 -0.010792 -137028.000000 1 0 0
-11.510363 -10.500155 -11.794312 19.540919 0.739534 2.218767 0.025979 0.000464 156897.000000 1 0 0
6.561137 -16.334755 2.458688 17.774080 -1.188853 1.432021 0.014956 -0.006635 531683.000000 1 0 0
-2.210663 -11.221155 -6.033912 12.930950 1.376279 2.056268 0.006676 -0.000662 -458352.000000 1 0 0
-12.453963 -15.283555 -3.300812 19.989588 0.887060 1.736683 0.011395 -0.004950 112521.000000 1 0 0
-0.232863 -19.631655 -2.776112 19.828336 1.558935 1.711265 0.016223 -0.012944 -128174.000000 1 0 0
-5.805863 -15.731355 -4.792412 17.439920 1.217241 1.849173 0.005054 -0.005462 -1676300.000000 1 0 0
1.931837 -15.978855 -0.987912 16.125501 -1.450481 1.632099 0.007915 -0.008378 764678.000000 1 0 0
-13.243563 -12.010655 5.357888 18.664264 0.736617 1.279633 0.012434 0.000838 441382.000000 1 0 0
2.100937 -15.260155 -9.022312 17.851846 -1.433982 2.100641 -0.003491 0.012257 -2541990.000000 1 0 0
-11.861163 -16.686655 0.121388 20.473065 0.952847 1.564867 0.022593 -0.002294 343421.000000 1 0 0
-7.752363 -16.669755 -1.170812 18.421473 1.135493 1.634396 0.011878 -0.000943 388328.000000 1 0 0
-2.916863 -14.484355 -1.717012 14.874568 1.372074 1.686487 0.004692 -0.004591 452966.000000 1 0 0
-1.853263 -10.432055 -13.253412 16.968067 1.394980 2.467189 0.000889 0.004394 243429.000000 1 0 0
1.616737 -19.575055 4.846988 20.230915 -1.488392 1.328860 0.040961 -0.015224 245501.000000 1 0 0
-17.261263 -9.372755 2.524388 19.803340 0.497448 1.442976 -0.003929 -0.003270 -334379.000000 1 0 0
-2.683963 -15.712755 -7.922312 17.800488 1.401615 2.032039 0.000562 -0.004989 -2070050.000000 1 0 0
-10.439663 -12.229155 0.250588 16.081094 0.864176 1.555213 0.001670 0.008216 241935.000000 1 0 0
-6.908963 -11.497355 -6.542012 14.923836 1.029702 2.024570 0.009381 -0.002379 286410.000000 1 0 0
-2.265563 -13.625255 -6.623512 15.318331 1.406027 2.017939 -0.000581 -0.002409 691756.000000 1 0 0
-14.127163 -14.518655 -0.860612 20.275817 0.799064 1.613254 0.005121 0.006535 -350682.000000 1 0 0
-9.556663 -11.311755 -4.309212 15.422546 0.869304 1.853976 0.011245 0.000254 650655.000000 1 0 0
9.319437 -15.283255 -5.111012 18.615914 -1.023216 1.848919 0.013813 0.011285 440963.000000 1 0 0
-5.523063 -11.016255 -9.482512 15.549281 1.106065 2.226650 0.009905 -0.000611 -470837.000000 1 0 0
-10.517463 -16.116855 -4.732912 19.818439 0.992613 1.811940 0.022967 -0.004487 -766987.000000 1 0 0
2.152237 -17.320855 -3.265312 17.756870 -1.447173 1.755739 0.005612 -0.002053 492739.000000 1 0 0
-0.344963 -14.521555 -8.123812 16.643044 1.547046 2.080731 0.000555 0.001710 -727505.000000 1 0 0
-0.682763 -18.261955 -7.014212 19.574585 1.533427 1.937278 0.002654 -0.003371 -12885.900000 1 0 0
-1.891663 -10.060155 -10.516612 14.675975 1.384931 2.369693 0.001673 0.002265 570804.000000 1 0 0
-5.099963 -17.224155 2.240688 18.102537 1.282927 1.446701 0.006477 -0.003616 -152613.000000 1 0 0
0.261637 -12.664855 -2.697212 12.951524 -1.550141 1.780586 0.002526 -0.005704 -2444820.000000 1 0 0
2.571037 -14.990755 3.087888 15.519924 -1.400941 1.370497 0.016747 -0.007358 -1091900.000000 1 0 0
-9.376063 -13.045655 6.865788 17.471082 0.947622 1.166926 0.001164 -0.004046 -1136480.000000 1 0 0
-0.880663 -17.777855 -4.397712 18.334874 1.521300 1.813013 0.008882 -0.007445 -336281.000000 1 0 0
-9.868763 -17.886655 -2.131312 20.539411 1.066619 1.674750 0.025946 0.001301 1167730.000000 1 0 0
1.283037 -16.174455 1.418788 16.287178 -1.491637 1.483575 0.009417 -0.011684 -504686.000000 1 0 0
-0.414963 -18.099655 4.147688 18.573450 1.547874 1.345585 0.020523 -0.012834 370724.000000 1 0 0
-17.393463 -9.131055 -0.014712 19.644565 0.483424 1.571545 -0.004321 0.002769 1031590.000000 1 0 0
-14.741963 -7.242355 -10.607112 19.552187 0.456643 2.144210 0.014337 -0.006586 308167.000000 1 0 0
2.812437 -12.722555 -8.929312 15.795754 -1.353236 2.171591 -0.013653 0.005939 543194.000000 1 0 0
-11.664063 -14.790555 1.840388 18.926117 0.903036 1.473402 0.004811 0.004496 160983.000000 1 0 0
-2.408763 -15.509855 10.699588 18.995761 1.416722 0.972468 0.019132 -0.007897 -174344.000000 1 0 0
-7.069463 -15.988555 1.347288 17.533579 1.154483 1.493880 0.010781 0.002460 -724502.000000 1 0 0
-12.495163 -15.088155 -5.958212 20.476372 0.879129 1.866047 0.012291 -0.003561 73838.900000 1 0 0
0.949237 -13.683855 -5.029712 14.609824 -1.501538 1.922257 0.002558 0.000777 360729.000000 1 0 0
6.011037 -16.421855 -7.435612 19.002585 -1.219905 1.972834 0.002413 0.004674 329484.000000 1 0 0
-6.685063 -12.729755 6.034588 15.593363 1.087230 1.173424 0.001840 -0.004051 -640127.000000 1 0 0
-2.578063 -13.566955 0.578988 13.821864 1.383010 1.528895 0.005726 -0.002669 2335200.000000 1 0 0
-4.221363 -15.537155 0.250988 16.102363 1.305506 1.555209 0.003291 -0.003493 153612.000000 1 0 0
-17.729963 -7.736155 -2.166012 19.465130 0.411430 1.682304 -0.001237 0.004534 771605.000000 1 0 0
1.263737 -12.712255 -11.940912 17.486677 -1.471711 2.322464 -0.006916 0.011027 -1179210.000000 1 0 0
1.241737 -16.969155 -5.775212 17.967950 -1.497750 1.898022 0.005940 0.000850 118314.000000 1 0 0
-12.799263 -6.426055 -8.911712 16.868134 0.465298 2.127413 0.007436 -0.003469 896916.000000 1 0 0
-11.745563 -13.439855 -8.777412 19.890473 0.852570 2.027829 0.038811 -0.020697 724621.000000 1 0 0
-4.287463 -9.866455 3.568488 11.334169 1.160865 1.250505 0.004972 -0.002443 -2586170.000000 1 0 0
-7.292663 -13.987955 9.639388 18.486850 1.090213 1.022284 0.005994 -0.016579 -1362270.000000 1 0 0
-5.255163 -15.847155 -7.823012 18.437695 1.250593 2.008979 0.006159 -0.021213 -1157680.000000 1 0 0
-0.237963 -13.510855 2.118988 13.678083 1.553185 1.415251 0.008715 -0.007127 849234.000000 1 0 0
-10.880563 -13.558855 -4.629612 17.990623 0.894552 1.831059 0.016745 0.001730 -842200.000000 1 0 0
-9.716863 -10.517855 6.624788 15.777532 0.824963 1.137475 0.011604 -0.004584 81695.100000 1 0 0
-15.487063 -8.032655 -4.811012 18.097472 0.478471 1.839870 0.007535 0.002439 187900.000000 1 0 0
-14.508063 -7.408855 5.467088 17.183250 0.472148 1.247004 0.004666 0.000219 771490.000000 1 0 0
-1.640863 -19.309455 0.137988 19.379539 1.486023 1.563676 0.019230 -0.009323 -405193.000000 1 0 0
-15.325663 -12.177755 -1.257012 19.615141 0.671439 1.634924 -0.000013 0.009084 -49087.000000 1 0 0
-4.419563 -12.214455 -6.816312 14.669273 1.223621 2.054054 0.010887 -0.002091 866048.000000 1 0 0
-7.332263 -18.579155 2.169288 20.091115 1.194911 1.462613 0.016227 0.005475 192474.000000 1 0 0
-2.397963 -11.895455 -8.615012 14.881886 1.371876 2.188166 0.003304 0.000595 -265864.000000 1 0 0
-1.202663 -20.259055 -5.103012 20.926454 1.511502 1.817135 0.006417 -0.002699 96768.800000 1 0 0
-5.418363 -8.902255 -13.933612 17.399838 1.024040 2.499409 0.006176 0.003126 237421.000000 1 0 0
-8.335663 -19.129455 -0.544412 20.873805 1.159856 1.596880 0.016249 0.002316 -80886.600000 1 0 0
-17.076763 -7.225855 5.632888 19.379325 0.400294 1.275875 0.003782 -0.000579 -401739.000000 1 0 0
-3.582363 -14.746555 -4.209312 15.748414 1.332484 1.841371 0.005189 -0.005023 -2107310.000000 1 0 0
-2.939363 -14.909955 -10.954412 18.733547 1.376151 2.195366 0.007803 -0.001408 -487218.000000 1 0 0
-0.162163 -16.656155 6.338488 17.822184 1.561061 1.207185 0.036362 -0.014405 -761303.000000 1 0 0
-11.156763 -11.693755 3.880488 16.621536 0.808894 1.335160 0.004758 -0.000189 182481.000000 1 0 0
-0.280263 -14.669755 -0.197912 14.673767 1.551694 1.584284 0.001684 -0.003906 786196.000000 1 0 0
-7.200863 -9.561955 -2.460412 12.220354 0.925331 1.773519 0.010083 0.001376 -31705.000000 1 0 0
-11.144063 -14.455655 -0.715512 18.266583 0.914044 1.609977 0.006935 -0.000463 -201023.000000 1 0 0
0.342937 -14.591455 -10.665112 18.076858 -1.547298 2.201839 -0.005796 0.008613 -351959.000000 1 0 0
-1.401063 -13.925655 -3.878512 14.523420 1.470524 1.841129 0.002938 -0.005717 -4426610.000000 1 0 0
-11.198963 -8.076755 -7.574712 15.748873 0.624817 2.072555 0.012851 -0.003390 639434.000000 1 0 0
-0.196963 -17.258655 -0.218012 17.261156 1.559384 1.583427 0.008344 -0.010382 -310326.000000 1 0 0
-12.861663 -9.617155 4.652588 16.720006 0.642052 1.288809 0.007534 0.001343 195055.000000 1 0 0
3.943737 -16.786755 1.637588 17.321372 -1.340049 1.476113 0.010820 -0.009941 1415190.000000 1 0 0
-3.850863 -17.996355 -8.035612 20.081559 1.359995 1.982476 0.007409 -0.011835 -417560.000000 1 0 0
-13.366663 -11.181955 2.723488 17.638628 0.696637 1.415771 -0.001826 0.001486 831914.000000 1 0 0
-8.542363 -12.312855 4.065288 15.527554 0.964260 1.305898 0.004888 0.001220 159042.000000 1 0 0
-8.232263 -9.446755 -5.779812 13.799187 0.853987 2.002977 0.013646 -0.001406 674719.000000 1 0 0
3.824137 -17.022955 -5.239212 18.216871 -1.349819 1.862519 -0.010761 0.000009 203923.000000 1 0 0
-2.872063 -12.914455 11.189788 17.327529 1.351966 0.868751 0.012466 -0.014578 251023.000000 1 0 0
0.306637 -16.789155 -9.385912 19.237077 -1.552534 2.080487 0.009437 0.007980 -221887.000000 1 0 0
-7.057063 -10.817555 -14.468512 19.394832 0.992756 2.412829 0.016423 -0.001022 -844533.000000 1 0 0
-4.594463 -18.955655 -1.514112 19.563192 1.333003 1.648270 0.013907 -0.011440 546907.000000 1 0 0
-2.491663 -17.199755 1.283388 17.426619 1.426931 1.497084 0.010669 -0.006607 -54088.800000 1 0 0
4.030237 -14.705155 -7.499012 16.991751 -1.303295 2.027879 -0.006938 0.010523 -460930.000000 1 0 0
-0.972263 -15.839755 -6.045112 16.981947 1.509492 1.934751 0.000852 -0.003181 -585761.000000 1 0 0
-9.695763 -15.169655 8.368488 19.853409 1.002083 1.135682 0.005947 -0.005141 -298158.000000 1 0 0
-7.259163 -12.145855 -1.753512 14.258052 1.032095 1.694092 0.001954 0.002745 1048350.000000 1 0 0
-7.308263 -15.260855 -9.279612 19.298073 1.124179 2.072428 0.019638 -0.011164 -118797.000000 1 0 0
-5.071163 -13.232755 -0.618712 14.184686 1.204832 1.614429 0.004635 0.000565 1835610.000000 1 0 0
-6.573463 -13.695955 -7.362412 16.881787 1.123312 2.022074 0.013308 -0.008228 702717.000000 1 0 0
5.732137 -15.352355 0.341088 16.391112 -1.213454 1.549986 0.004825 0.003246 157348.000000 1 0 0
-14.365863 -12.864455 1.027588 19.311348 0.730317 1.517560 -0.006105 -0.001443 955796.000000 1 0 0
0.807237 -15.326055 11.132188 18.959568 -1.518174 0.943258 0.032438 -0.010813 -159332.000000 1 0 0
-9.368363 -10.804355 2.067688 14.449071 0.856463 1.427202 0.000085 0.004883 402765.000000 1 0 0
-9.388763 -8.863455 -3.463312 13.368031 0.756626 1.832860 0.010898 -0.000301 34769.900000 1 0 0
-12.190363 -7.354055 -12.192612 18.744249 0.542819 2.279002 0.010118 -0.000399 -692988.000000 1 0 0
-13.266863 -8.253655 -0.573612 15.635265 0.556530 1.607492 -0.000098 0.002133 -1214450.000000 1 0 0
-11.242563 -9.688955 0.460988 14.848690 0.711311 1.539746 0.001279 0.004850 1291610.000000 1 0 0
-15.825363 -12.229255 3.048588 20.230934 0.657911 1.419531 0.010888 0.006714 620559.000000 1 0 0
-10.443663 -12.517655 -2.254512 16.457357 0.875479 1.708220 0.010995 0.003770 408644.000000 1 0 0
-3.444763 -8.918955 -12.189712 15.492038 1.202217 2.476464 0.002515 0.004220 -138098.000000 1 0 0
-0.340563 -15.566855 3.925588 16.057808 1.548922 1.323827 0.019569 -0.007826 -617144.000000 1 0 0
-15.539463 -7.734455 1.193288 17.398869 0.461830 1.502158 -0.015538 -0.001543 307624.000000 1 0 0
-5.967063 -13.457455 -13.439912 19.933394 1.153443 2.310733 0.014520 -0.002463 -1395810.000000 1 0 0
-15.343463 -10.380255 1.095988 18.557283 0.594797 1.511702 0.001702 0.000699 614742.000000 1 0 0
-9.848663 -8.459855 -12.313612 17.893864 0.709687 2.329729 0.011829 -0.003889 597112.000000 1 0 0
-13.342463 -11.620455 -6.209012 18.751217 0.716525 1.908293 0.014055 -0.002356 -46543.100000 1 0 0
-12.214563 -11.483855 -3.879512 17.208286 0.754574 1.798196 0.005159 0.007071 114172.000000 1 0 0
-11.728563 -10.805155 -8.899512 18.262308 0.744442 2.079810 0.016601 -0.013597 404745.000000 1 0 0
-13.072463 -8.457655 -5.814312 16.620092 0.574251 1.928193 0.000748 -0.000949 -286179.000000 1 0 0
-13.442363 -8.122155 -3.281312 16.044735 0.543517 1.776760 0.006597 -0.001314 -48428.300000 1 0 0
-4.370263 -17.015255 -3.166412 17.850610 1.319387 1.749124 0.003639 -0.011907 263893.000000 1 0 0
-15.375163 -8.826355 -1.736312 17.813337 0.521132 1.668424 0.001218 0.003647 -1731980.000000 1 0 0
-9.328763 -15.436855 3.604088 18.393253 1.027208 1.373574 0.002283 -0.006272 -1366100.000000 1 0 0
4.688837 -17.018655 7.988788 19.376289 -1.301955 1.145822 0.041005 -0.030625 349873.000000 1 0 0
-8.408163 -15.471155 6.028188 18.611633 1.072978 1.240954 0.000826 0.004336 250071.000000 1 0 0
0.861037 -16.012055 8.603988 18.197690 -1.517074 1.078323 0.033200 -0.014276 52613.700000 1 0 0
-10.762963 -7.762655 -10.075812 16.661998 0.624838 2.220208 0.011299 -0.003104 791822.000000 1 0 0
-4.978963 -15.847455 5.844288 17.609305 1.266381 1.232494 0.011837 -0.006152 -703760.000000 1 0 0
-1.282363 -13.231755 -12.072812 17.957634 1.474183 2.308100 0.000996 0.002990 -931245.000000 1 0 0
-6.422263 -14.354855 -2.599112 15.939345 1.150112 1.734590 0.005113 -0.003127 362450.000000 1 0 0
-17.639363 -6.931455 -7.009112 20.206926 0.374417 1.925025 0.003604 0.000237 259122.000000 1 0 0
-17.236263 -4.136155 -10.155612 20.428730 0.235515 2.091077 0.014735 -0.004586 884824.000000 1 0 0
-15.245363 -5.396955 -8.838312 18.429975 0.340240 2.070952 -0.000787 -0.011113 -522589.000000 1 0 0
-16.049063 -5.412955 -5.589912 17.835908 0.325294 1.889576 0.002564 0.005461 9708.390000 1 0 0
-15.215663 -4.497355 -12.444612 20.164597 0.287391 2.235914 0.016539 0.002435 -150857.000000 1 0 0
-18.713563 -5.098255 -5.531712 20.169023 0.265981 1.848624 0.005126 0.006247 -206188.000000 1 0 0
-17.371863 -4.490355 -7.666212 19.511938 0.252948 1.974578 0.000120 0.001016 529163.000000 1 0 0
12.115737 -7.818155 8.626388 16.802655 -0.573057 1.031661 0.019161 -0.009768 173581.000000 1 0 0
16.011537 -3.363555 1.618988 16.440923 -0.207060 1.472163 0.011962 -0.003422 6923.660000 1 0 0
12.030237 -2.250355 12.473088 17.474800 -0.184921 0.775922 0.027170 -0.007753 573893.000000 1 0 0
9.660337 -10.042555 5.185888 14.868371 -0.804795 1.214520 0.004417 -0.002614 303266.000000 1 0 0
16.850437 -2.008055 7.042588 18.373012 -0.118610 1.177417 0.031211 -0.012199 421179.000000 1 0 0
5.249037 -12.765255 9.047088 16.503149 -1.180675 0.990581 0.014861 -0.005432 -347817.000000 1 0 0
15.145837 -9.245355 -2.238112 17.885249 -0.548048 1.696263 0.015045 0.002851 92681.000000 1 0 0
11.062837 -8.491055 6.427588 15.355724 -0.654626 1.138916 0.012515 -0.007160 -2691030.000000 1 0 0
19.973037 -3.209255 3.457488 20.522567 -0.159318 1.401517 0.036134 -0.009323 -85485.700000 1 0 0
13.583437 -8.650255 6.657388 17.425771 -0.567057 1.178791 0.021442 -0.006474 100935.000000 1 0 0
8.292037 -11.060955 8.815588 16.395646 -0.927508 1.003115 0.004016 -0.003670 -1580630.000000 1 0 0
16.866037 0.011045 -0.773612 16.883774 0.000655 1.616632 0.012456 -0.002863 -234278.000000 1 0 0
12.401637 -12.302655 2.141388 17.599474 -0.781392 1.448821 0.006877 -0.003960 -2032820.000000 1 0 0
10.417137 -11.615855 3.562788 16.004321 -0.839750 1.346301 0.001503 -0.003182 -1361240.000000 1 0 0
16.306537 2.988045 2.271588 16.732952 0.181232 1.434621 0.009190 -0.003962 -339322.000000 1 0 0
18.229637 -3.304655 0.381888 18.530684 -0.179332 1.550186 0.018771 -0.006910 -39283.300000 1 0 0
13.564637 -11.823755 -0.267712 17.996451 -0.716935 1.585673 0.027137 0.003088 -450026.000000 1 0 0
16.860037 -7.802455 -0.894012 18.599420 -0.433429 1.618882 0.023782 -0.000089 305653.000000 1 0 0
10.204137 -5.733055 9.736588 15.224765 -0.511885 0.876919 0.017998 -0.006499 104163.000000 1 0 0
11.221037 -13.323055 6.079988 18.449437 -0.870832 1.234971 0.002462 -0.003566 -1390790.000000 1 0 0
13.168337 -1.732155 10.228388 16.763812 -0.130789 0.914550 0.032194 -0.007977 446730.000000 1 0 0
15.556937 -2.051655 -1.492312 15.762442 -0.131124 1.665614 0.007130 -0.002118 242572.000000 1 0 0
10.502937 -12.434455 9.064088 18.630219 -0.869408 1.062687 0.002409 -0.009229 414591.000000 1 0 0
14.594737 1.156245 3.356588 15.020318 0.079058 1.345423 0.014313 -0.003908 812818.000000 1 0 0
14.961737 -5.988155 5.216888 16.938935 -0.380706 1.257725 0.025720 -0.006370 -918641.000000 1 0 0
14.268637 -3.356955 -3.077112 14.977710 -0.231066 1.777716 0.008000 -0.001408 605918.000000 1 0 0
14.093037 0.615645 9.491988 17.002663 0.043657 0.978504 0.031099 -0.008968 839135.000000 1 0 0
15.565937 -3.557255 4.391588 16.560148 -0.224670 1.302395 0.020250 -0.003038 -860694.000000 1 0 0
18.608637 4.773845 -4.289512 19.684280 0.251124 1.790475 0.002619 -0.004285 562319.000000 1 0 0
17.933537 -5.810455 -5.325812 19.589217 -0.313327 1.846137 0.030118 -0.009279 523607.000000 1 0 0
17.323637 0.032945 5.725188 18.245198 0.001902 1.251613 0.031767 -0.008694 648038.000000 1 0 0
17.002237 -6.846555 3.882288 18.735623 -0.382819 1.362070 0.034343 -0.004586 -27446.000000 1 0 0
9.668437 -6.626355 14.226988 18.433514 -0.600832 0.689129 0.014279 -0.004447 -938498.000000 1 0 0
8.588537 -12.268355 5.155588 15.838422 -0.960033 1.239244 -0.000910 -0.006420 -2040570.000000 1 0 0
16.709537 -10.329655 -0.504312 19.651075 -0.553687 1.596462 0.019951 0.006247 -102254.000000 1 0 0
14.759737 -8.912955 0.328688 17.245250 -0.543260 1.551736 0.022313 -0.001193 -283242.000000 1 0 0
9.941037 -12.879955 1.428288 16.332712 -0.913475 1.483235 0.007349 -0.004335 -194672.000000 1 0 0
16.848037 -8.210355 8.930188 20.760890 -0.453451 1.126143 0.037702 -0.003686 604948.000000 1 0 0
19.124637 0.000945 -2.194212 19.250099 0.000049 1.685029 0.021830 -0.001363 -703321.000000 1 0 0
13.520637 -1.277455 7.693488 15.608628 -0.094202 1.055377 0.023000 -0.008456 -241638.000000 1 0 0
12.862137 -9.984255 -3.131112 16.580826 -0.660092 1.760776 0.013386 0.001388 -1716950.000000 1 0 0
8.805537 -15.243755 1.498288 17.667893 -1.046974 1.485892 0.011145 -0.000238 -793970.000000 1 0 0
11.378337 -8.217955 11.058788 17.868915 -0.625500 0.903475 0.014899 -0.010881 181878.000000 1 0 0
13.844737 -3.964455 -0.600212 14.413671 -0.278888 1.612450 0.008589 -0.002274 -400081.000000 1 0 0
7.151537 -13.132655 10.845788 18.472743 -1.072138 0.943295 0.011779 -0.001918 -73286.600000 1 0 0
15.396837 -6.826255 1.710288 16.928835 -0.417314 1.469596 0.018566 -0.002248 -1288070.000000 1 0 0
15.630137 -6.317755 -2.573212 17.053934 -0.384125 1.722262 0.020243 -0.004298 -148923.000000 1 0 0
11.105337 -8.543655 3.763888 14.508253 -0.655757 1.308364 0.011945 -0.004357 481648.000000 1 0 0
10.541937 -14.594255 -0.475212 18.009735 -0.945237 1.597186 0.021818 0.000126 829877.000000 1 0 0
13.218537 -12.915955 4.522188 19.026345 -0.773821 1.330819 0.000980 -0.002386 353258.000000 1 0 0
12.681937 -11.126955 6.375988 18.035906 -0.720180 1.209469 0.002325 -0.004485 23125.500000 1 0 0
10.893637 -10.480055 1.337688 15.175385 -0.766051 1.482533 0.003989 -0.005209 356469.000000 1 0 0
13.864037 -7.722455 11.911188 19.842486 -0.508212 0.926936 0.028598 -0.014473 434252.000000 1 0 0
15.264137 -1.890255 -5.007212 16.175263 -0.123209 1.885526 0.015601 -0.004272 -527440.000000 1 0 0
12.848437 -11.499655 -7.207712 18.688915 -0.730059 1.966728 0.020479 0.004327 291293.000000 1 0 0
17.575537 -5.402155 1.877188 18.482603 -0.298203 1.469056 0.031025 -0.005333 480366.000000 1 0 0
10.587637 -9.848555 9.088588 17.079067 -0.749249 1.009661 0.002318 -0.005407 -1140510.000000 1 0 0
16.554637 1.736145 9.741188 19.286289 0.104492 1.041318 0.051695 -0.015606 611858.000000 1 0 0
18.218937 3.550745 0.648088 18.573031 0.192480 1.535895 0.008095 -0.001810 595971.000000 1 0 0
13.448937 -4.082355 5.704588 15.168450 -0.294706 1.185232 0.018246 -0.006537 -933613.000000 1 0 0
12.197937 -6.211455 6.583288 15.189191 -0.470998 1.122513 0.019085 -0.006858 -258975.000000 1 0 0
16.597337 -10.301355 3.407988 19.829370 -0.555475 1.398073 0.019817 0.000670 514230.000000 1 0 0
16.254437 -8.193955 -5.585912 19.040747 -0.466927 1.868542 0.019914 -0.003731 259186.000000 1 0 0
14.020837 -0.475255 5.291188 14.993546 -0.033883 1.210130 0.014553 -0.003125 685628.000000 1 0 0
18.278337 -4.261355 5.073588 19.442172 -0.229046 1.306782 0.035334 -0.003575 -221629.000000 1 0 0
13.556237 -13.482455 7.040588 20.374446 -0.782669 1.217961 0.007900 -0.002091 -241257.000000 1 0 0
15.043137 -13.815655 -0.981512 20.448268 -0.742890 1.618815 0.033169 0.005949 338463.000000 1 0 0
17.879837 -6.017755 7.907388 20.455531 -0.324658 1.173892 0.050806 -0.004735 -168011.000000 1 0 0
14.370737 3.245345 9.274788 17.408964 0.222104 1.008939 0.030701 -0.009411 638494.000000 1 0 0
18.723237 3.840145 3.061488 19.356628 0.202295 1.411967 0.027041 -0.004272 337304.000000 1 0 0
14.673137 -10.687455 8.088988 19.873459 -0.629513 1.151602 0.011032 -0.007472 -178895.000000 1 0 0
14.840337 -4.895355 10.363688 18.751164 -0.318629 0.985201 0.037752 -0.014374 408801.000000 1 0 0
17.846837 -7.932855 1.809588 19.614138 -0.418268 1.478406 0.048359 -0.003044 226996.000000 1 0 0
18.226037 -6.120055 -2.262212 19.358748 -0.323957 1.687921 0.015089 -0.005552 -893020.000000 1 0 0
14.175337 -13.107355 -5.646112 20.115207 -0.746273 1.855308 0.024170 0.000724 -1241770.000000 1 0 0
15.569837 -1.490155 9.258588 18.175859 -0.095417 1.036321 0.043797 -0.014973 -240866.000000 1 0 0
12.955137 -9.981155 10.036288 19.188176 -0.656455 1.020376 0.006839 -0.019515 -1645390.000000 1 0 0
16.602937 2.218445 4.755088 17.412349 0.132831 1.294196 0.024196 -0.008936 -731921.000000 1 0 0
14.933137 2.352745 -0.057512 15.117450 0.156267 1.574601 0.001238 0.000278 -1073540.000000 1 0 0
14.978437 -9.980655 -7.078612 19.340988 -0.587773 1.945493 0.020495 0.000976 509034.000000 1 0 0
16.265537 -0.195955 -3.259812 16.590132 -0.012047 1.768574 0.012625 -0.000979 -129498.000000 1 0 0
12.060537 2.379845 13.513988 18.268773 0.194822 0.738125 0.035846 -0.002338 -342255.000000 1 0 0
17.761037 -3.034255 9.301488 20.277545 -0.169204 1.094255 0.043322 -0.017780 855684.000000 1 0 0
7.843837 -18.149955 4.602588 20.300997 -1.162870 1.342090 0.030673 -0.012866 -264429.000000 1 0 0
6.737237 -11.340155 6.645388 14.769924 -1.034723 1.104113 0.002482 -0.006328 536546.000000 1 0 0
17.889137 2.170145 -1.647312 18.095425 0.120721 1.661957 -0.000470 -0.000621 351878.000000 1 0 0
17.578137 -2.312655 3.516288 18.074943 -0.130813 1.375009 0.011745 -0.002048 -2073240.000000 1 0 0
12.613937 -13.644555 -1.965612 18.685528 -0.824627 1.676186 0.028699 0.005770 -120554.000000 1 0 0
15.032437 -8.405455 4.267888 17.743752 -0.509844 1.327885 0.023376 -0.003491 -42679.700000 1 0 0
11.647937 -3.200155 14.937588 19.210595 -0.268125 0.680004 0.014049 -0.002538 11537.700000 1 0 0
11.973637 -13.868555 -6.640412 19.488456 -0.858594 1.918496 0.022438 0.006024 616279.000000 1 0 0
10.673237 -12.056355 -1.325212 16.156419 -0.846174 1.652912 0.017499 -0.003571 -974493.000000 1 0 0
13.097337 -8.042255 2.089688 15.510800 -0.550677 1.435661 0.019073 -0.000387 -1010600.000000 1 0 0
8.668937 -7.931655 9.953088 15.398883 -0.741014 0.868003 0.008281 -0.007247 -1549830.000000 1 0 0
15.588537 -3.831455 8.096888 17.978936 -0.241009 1.103634 0.039690 -0.012757 -944647.000000 1 0 0
10.298437 -17.422555 5.211988 20.898997 -1.036948 1.318747 0.014633 -0.009761 -1339730.000000 1 0 0
15.335337 -6.347455 8.165888 18.497148 -0.392440 1.113563 0.040253 -0.007585 -833782.000000 1 0 0
16.540937 -5.108555 -0.503812 17.319174 -0.299550 1.599890 0.017283 -0.004301 -195071.000000 1 0 0
13.961537 -10.536655 3.286288 17.797340 -0.646497 1.385080 0.019753 -0.004765 550878.000000 1 0 0
14.942737 -10.246155 -4.579112 18.687894 -0.601060 1.818348 0.027339 0.000754 172009.000000 1 0 0
13.677837 -6.555655 -0.124812 15.168238 -0.446943 1.579025 0.013177 -0.001563 -335741.000000 1 0 0
17.780937 -0.977755 -5.002412 18.497077 -0.054934 1.844650 0.019001 -0.007762 -71832.000000 1 0 0
14.363037 0.261645 -1.722612 14.468334 0.018215 1.690140 0.006792 -0.001309 -1844070.000000 1 0 0
4.751737 -12.799355 11.710288 17.987033 -1.215319 0.861842 0.009416 -0.003968 -62060.500000 1 0 0
11.903037 -7.527955 13.536288 19.534162 -0.563931 0.805217 0.018832 -0.010995 -254151.000000 1 0 0
12.024237 -5.772955 11.654588 17.712671 -0.447609 0.852663 0.020035 -0.006441 671662.000000 1 0 0
13.223637 -4.794855 8.303688 16.334211 -0.347853 1.037515 0.028143 -0.009641 -1328980.000000 1 0 0
15.388737 -1.252055 3.088888 15.745542 -0.081183 1.373340 0.010870 -0.001479 -188016.000000 1 0 0
15.076937 -10.568355 5.628888 19.253274 -0.611371 1.274103 0.016071 -0.000770 -235301.000000 1 0 0
13.656437 -8.243755 -5.872012 16.998186 -0.543102 1.923514 0.015582 0.002147 -1650550.000000 1 0 0
9.651737 -2.151955 13.558388 16.781443 -0.219372 0.630150 0.020569 -0.005989 1065020.000000 1 0 0
9.742037 -9.131555 13.634488 19.083811 -0.753064 0.774954 0.012735 -0.008906 240236.000000 1 0 0
20.314437 6.179445 -2.845812 21.423365 0.295296 1.704027 0.019199 0.000362 -367699.000000 1 0 0
11.341537 -3.626755 10.418188 15.821582 -0.309500 0.852000 0.028076 -0.008109 941304.000000 1 0 0
10.180737 -14.057055 -2.949212 17.605285 -0.943984 1.739108 0.015351 0.004447 1203300.000000 1 0 0
14.804837 -12.890955 2.434988 19.781029 -0.716404 1.447386 0.014233 0.005724 -158831.000000 1 0 0
11.565137 -0.593855 14.404288 18.482115 -0.051304 0.677147 0.034786 -0.001290 282624.000000 1 0 0
19.061337 -1.970355 5.614788 19.968543 -0.103003 1.285771 0.036881 -0.009612 545973.000000 1 0 0
18.916037 -0.400155 7.673088 20.416975 -0.021151 1.185516 0.048698 -0.019442 541521.000000 1 0 0
19.235837 0.717645 0.262188 19.251005 0.037290 1.557176 0.031279 -0.006987 -295407.000000 1 0 0
18.442637 0.770045 3.487288 18.785234 0.041729 1.384073 0.016588 -0.009469 246687.000000 1 0 0
16.553537 -4.026755 -4.189612 17.543865 -0.238622 1.811934 0.017813 -0.008056 -2076130.000000 1 0 0
10.886737 -8.304955 15.789488 20.899791 -0.651675 0.714402 0.022625 -0.011031 342869.000000 1 0 0
16.598937 -7.626555 6.297788 19.322298 -0.430693 1.238797 0.032115 -0.004477 307758.000000 1 0 0
19.012437 2.055445 5.699488 19.954493 0.107692 1.281139 0.045954 -0.016405 236418.000000 1 0 0
15.449237 1.682945 7.586688 17.293613 0.108506 1.116646 0.036634 -0.008995 600838.000000 1 0 0
8.718937 -15.805155 3.907788 18.468720 -1.066686 1.357595 0.004476 -0.010326 843380.000000 1 0 0
11.294937 -15.045155 2.044388 18.923843 -0.926824 1.462553 0.018245 -0.000403 447213.000000 1 0 0
8.201337 -16.204555 6.274988 19.215229 -1.102270 1.238131 0.011637 -0.010122 156129.000000 1 0 0
14.484437 -11.922855 -2.646112 18.946116 -0.688698 1.710920 0.022801 0.004466 659651.000000 1 0 0
13.705737 -4.990555 3.184988 14.929736 -0.349200 1.355812 0.011875 -0.002942 -942446.000000 1 0 0
-1.054563 10.143745 -5.602712 11.636066 -1.467207 2.073156 -0.001532 0.001786 -1622230.000000 1 0 0
8.245237 -1.805955 -8.021112 11.644040 -0.215625 2.330711 0.002779 -0.002418 -679207.000000 1 0 0
2.972937 -10.169255 7.630188 13.056488 -1.286377 0.946658 0.002772 -0.006239 821207.000000 1 0 0
-6.270263 1.334045 8.265688 10.460280 -0.209632 0.659665 -0.000356 -0.000812 -593310.000000 1 0 0
7.188437 -6.261455 -7.241312 11.971469 -0.716586 2.220413 -0.001311 -0.002017 -204589.000000 1 0 0
-11.358963 -4.495655 -4.066512 12.875305 0.376864 1.892136 0.003016 -0.004453 -64295.100000 1 0 0
2.109237 -3.372855 2.797088 4.862996 -1.011941 0.957975 0.001380 -0.001926 1860540.000000 1 0 0
-3.619063 -4.286255 8.789388 10.427029 0.869597 0.568067 -0.001008 -0.003292 -3596590.000000 1 0 0
-4.828663 -1.041655 -2.462012 5.519288 0.212467 2.033171 -0.000052 -0.001728 -490085.000000 1 0 0
4.993237 -5.148855 -3.664512 8.054302 -0.800741 2.043141 0.001753 -0.004277 201152.000000 1 0 0
2.629437 13.950245 -8.647812 16.622513 1.384495 2.117936 0.000057 -0.015881 -510686.000000 1 0 0
5.417237 -5.564355 13.678388 15.729170 -0.798794 0.516366 0.011602 -0.005996 -726056.000000 1 0 0
-4.753563 -0.818855 9.838988 10.957762 0.170587 0.455818 0.004702 -0.001575 -2968460.000000 1 0 0
-1.066963 11.788645 -2.866812 12.179046 -1.480535 1.808415 -0.008835 0.000458 -70016.200000 1 0 0
3.072637 9.329445 -10.579012 14.435898 1.252637 2.393264 0.001451 -0.003822 -474694.000000 1 0 0
-10.643863 2.660645 1.109488 11.027321 -0.244950 1.470013 -0.004440 -0.000430 206024.000000 1 0 0
5.703437 -8.956855 -0.724612 10.643285 -1.003779 1.638931 -0.001177 -0.003893 419738.000000 1 0 0
-6.987263 5.386745 9.455488 12.932328 -0.656767 0.750788 -0.001912 -0.001571 41544.800000 1 0 0
-5.526963 -1.750855 5.178988 7.773977 0.306783 0.841701 -0.001259 -0.004041 554006.000000 1 0 0
6.564637 -3.823855 -7.263012 10.510361 -0.527447 2.333714 0.002679 -0.004052 256907.000000 1 0 0
6.359237 4.842645 11.061788 13.647500 0.650829 0.625730 0.001023 0.003603 -200882.000000 1 0 0
3.712137 -9.939655 3.176888 11.075619 -1.213370 1.279874 -0.001162 -0.003807 1505870.000000 1 0 0
-6.679463 6.684145 -5.789012 11.081772 -0.785749 2.120448 0.000414 -0.001887 330007.000000 1 0 0
-11.007763 8.496345 5.230688 14.856608 -0.657339 1.211006 -0.006930 -0.004171 367980.000000 1 0 0
-9.153263 -5.469055 5.099588 11.819415 0.538578 1.124687 0.001906 -0.002052 -1631710.000000 1 0 0
3.318137 9.837345 -7.984112 13.096925 1.245480 2.226374 0.002845 -0.005097 714966.000000 1 0 0
-8.130563 -8.512655 6.098688 13.257652 0.808352 1.092787 0.002412 -0.003381 -1707010.000000 1 0 0
-7.917063 -5.742355 -7.465712 12.304121 0.627514 2.222781 0.008211 -0.000686 -2005240.000000 1 0 0
9.230337 -1.758655 6.929288 11.675060 -0.188273 0.935381 0.010234 -0.008728 3145170.000000 1 0 0
-4.091163 -0.468955 -4.883912 6.388281 0.114128 2.441079 0.005978 -0.006192 -1652890.000000 1 0 0
9.083537 1.187045 -4.525312 10.217543 0.129944 2.029623 0.002199 -0.000992 -2977280.000000 1 0 0
-2.079463 -10.569055 10.492388 15.037264 1.376528 0.798532 -0.002419 -0.007321 392018.000000 1 0 0
-12.797163 0.315145 -2.673812 13.077307 -0.024621 1.776710 -0.001609 -0.003379 -166295.000000 1 0 0
-9.808763 -4.924555 -5.994712 12.505985 0.465292 2.070707 0.008735 -0.006040 -1007960.000000 1 0 0
-5.593563 8.285845 -0.293512 10.001465 -0.976995 1.600147 -0.005978 0.003633 261162.000000 1 0 0
6.258237 9.595245 0.508388 11.467027 0.992860 1.526447 0.009631 -0.004669 365079.000000 1 0 0
-0.560063 -12.053855 0.016988 12.066872 1.524366 1.569389 0.008209 -0.003192 -137015.000000 1 0 0
6.168237 4.609245 2.398488 8.065050 0.641742 1.268836 0.002204 -0.000215 177976.000000 1 0 0
3.479737 -7.490055 -8.192012 11.632651 -1.135883 2.352128 -0.004760 -0.001875 648464.000000 1 0 0
-6.628363 -9.895455 4.591888 12.764821 0.980601 1.202818 0.001148 -0.000011 -2540800.000000 1 0 0
-0.040263 6.546945 -9.196912 11.289256 -1.564647 2.522940 0.008294 -0.002216 -841484.000000 1 0 0
-17.332363 -2.695255 4.164888 18.028352 0.154269 1.337672 0.007283 -0.002742 -87090.500000 1 0 0
-8.277563 0.880845 -9.260212 12.451725 -0.106015 2.409368 0.001097 -0.003954 -554544.000000 1 0 0
-10.078863 -5.819555 -11.735012 16.527590 0.523638 2.360331 0.011418 0.002882 556236.000000 1 0 0
2.153737 9.428445 6.378588 11.585358 1.346220 0.987746 -0.001758 0.002606 351307.000000 1 0 0
-11.337763 1.698545 -1.203812 11.527319 -0.148707 1.675418 -0.002324 -0.002248 -1707410.000000 1 0 0
-5.860963 -5.280255 -3.112812 8.480659 0.733323 1.946630 0.008422 -0.001686 386165.000000 1 0 0
-6.975663 -8.277955 1.340288 10.907831 0.870568 1.447611 0.002148 0.001127 -306211.000000 1 0 0
-0.040063 11.085345 -7.820612 13.566446 -1.567182 2.185195 0.002182 -0.002403 688583.000000 1 0 0
-2.889763 9.189345 -4.262712 10.534016 -1.266119 1.987405 0.000499 -0.000953 -387067.000000 1 0 0
3.377937 -4.840855 9.383088 11.085426 -0.961550 0.561543 0.004719 -0.006119 -914549.000000 1 0 0
-8.972263 1.588945 -0.436412 9.122319 -0.175278 1.618655 -0.004847 -0.002362 -2391040.000000 1 0 0
2.528837 3.557945 -10.343712 11.227038 0.952887 2.742262 0.004477 -0.001286 -883854.000000 1 0 0
-13.717963 0.520545 1.147088 13.775677 -0.037928 1.487431 -0.000961 -0.002823 -539226.000000 1 0 0
9.328937 -12.709555 -5.078612 16.563640 -0.937608 1.882428 0.009447 0.007119 -2967250.000000 1 0 0
-4.730263 9.456345 -8.324612 13.457229 -1.106972 2.237753 -0.001164 -0.003357 -489.653000 1 0 0
-2.328363 7.164545 8.401188 11.284145 -1.256579 0.730992 -0.001258 -0.000319 -1411400.000000 1 0 0
-10.695763 -1.317355 -4.437812 11.654568 0.122549 1.961435 0.000709 -0.003216 -3457410.000000 1 0 0
2.634337 -7.121255 9.581188 12.225022 -1.216482 0.670138 -0.000988 -0.003776 -1302090.000000 1 0 0
-16.029963 -6.547055 3.387988 17.643755 0.387749 1.377574 -0.004647 -0.000785 -257129.000000 1 0 0
-10.723963 0.056745 6.180988 12.377851 -0.005291 1.047938 -0.000210 -0.000681 -1863760.000000 1 0 0
-8.344863 9.866945 9.287488 15.913854 -0.868781 0.947629 -0.008243 -0.009423 214709.000000 1 0 0
0.167637 -6.195055 -3.795612 7.267289 -1.543743 2.120327 -0.001077 -0.000890 310673.000000 1 0 0
4.926837 1.497345 -2.985112 5.952030 0.295046 2.096161 0.002123 -0.002073 -214041.000000 1 0 0
0.377037 5.351245 3.809788 6.579700 1.500455 0.953268 -0.001475 0.001385 -4141180.000000 1 0 0
6.068237 -11.286555 -1.593212 12.913101 -1.077483 1.694491 -0.005182 -0.004778 -1655170.000000 1 0 0
6.301637 -13.526755 5.228988 15.812212 -1.134828 1.233759 0.002904 -0.006484 -642245.000000 1 0 0
7.994937 -8.232855 -5.977512 12.939459 -0.800058 2.051000 -0.002899 -0.001656 704952.000000 1 0 0
-13.111963 -1.490655 -4.684612 14.003257 0.113201 1.911911 0.001701 -0.001265 -2681720.000000 1 0 0
-6.826663 -1.433355 -7.101512 9.954361 0.206958 2.365145 0.005623 -0.003944 -1236990.000000 1 0 0
-5.674663 13.035145 -4.469612 14.902826 -1.160204 1.875402 0.004975 -0.002161 287251.000000 1 0 0
-4.263463 6.918145 -6.776912 10.581322 -1.018498 2.265893 0.003577 -0.000835 -2409510.000000 1 0 0
-9.313563 -3.627855 -8.142412 12.891961 0.371443 2.254397 0.008766 -0.000778 568955.000000 1 0 0
-2.245663 -6.296555 9.112788 11.301881 1.228210 0.632914 -0.002362 -0.002989 -789070.000000 1 0 0
7.515137 -5.996055 10.004888 13.875437 -0.673437 0.765479 0.010106 -0.006421 237495.000000 1 0 0
9.639237 -4.960355 12.183188 16.307976 -0.475260 0.727154 0.018892 -0.005287 18842.600000 1 0 0
-6.368863 2.776345 -9.070512 11.425616 -0.411087 2.487952 0.005418 -0.006492 376135.000000 1 0 0
7.430637 5.403845 8.893188 12.786895 0.628774 0.801691 0.000352 0.000375 -399298.000000 1 0 0
12.696537 3.226545 11.119988 17.183328 0.248860 0.866972 0.030548 -0.002487 92709.600000 1 0 0
-7.439963 -7.265455 -3.764112 11.059314 0.773532 1.918093 0.010150 -0.003349 -1364000.000000 1 0 0
2.325437 1.395445 -5.801412 6.404007 0.540477 2.704305 0.001239 -0.002223 -401104.000000 1 0 0
12.841337 6.922245 -7.055012 16.204648 0.494405 2.021245 0.003417 -0.001046 220682.000000 1 0 0
0.883237 -7.928455 1.047988 8.046042 -1.459853 1.440176 -0.001064 -0.002735 37369.900000 1 0 0
-10.352463 -5.884755 -8.392712 14.568509 0.516890 2.184728 0.010680 -0.004014 -1077500.000000 1 0 0
-6.698063 0.251345 3.145588 7.404184 -0.037507 1.132012 0.000373 -0.005712 48447.300000 1 0 0
10.706137 -7.960455 1.162588 13.391857 -0.639355 1.483874 0.001919 -0.002285 -4860.510000 1 0 0
6.201337 1.055245 10.552588 12.285244 0.168550 0.537553 0.007328 -0.002811 637477.000000 1 0 0
-12.926263 5.439545 1.801588 14.139400 -0.398319 1.443033 -0.000795 -0.001278 -47312.900000 1 0 0
2.077437 7.345045 3.572088 8.427647 1.295160 1.133101 -0.003528 0.001335 -21339.400000 1 0 0
10.138437 -9.498055 -0.927912 13.923433 -0.752798 1.637490 0.001080 -0.000928 750992.000000 1 0 0
6.855137 -11.744455 -9.112112 16.369354 -1.042455 2.161152 -0.006201 0.003627 -844233.000000 1 0 0
10.293737 3.513445 11.960588 16.166662 0.328920 0.737978 0.016575 -0.000435 -1516670.000000 1 0 0
-11.081163 -3.050255 -1.826612 11.637557 0.268612 1.728406 -0.000719 -0.001913 719721.000000 1 0 0
12.389837 0.883345 6.866688 14.192948 0.071175 1.065794 0.013917 -0.004557 -180812.000000 1 0 0
-9.462763 9.132945 3.106188 13.513066 -0.767664 1.338857 -0.004563 -0.004570 510931.000000 1 0 0
-6.642163 7.714045 -8.903212 13.523757 -0.859923 2.289406 0.000895 -0.006738 -715002.000000 1 0 0
8.507737 5.464645 12.143988 15.802543 0.570954 0.694329 0.011696 0.000965 -2635240.000000 1 0 0
1.308337 4.853645 -2.684012 5.698555 1.307497 2.061219 0.004632 -0.002858 1171840.000000 1 0 0
1.265837 0.415945 9.467588 9.560887 0.317478 0.139817 0.000977 -0.001517 760036.000000 1 0 0
2.635037 12.534545 -3.876612 13.382315 1.363591 1.864691 -0.000618 -0.005760 341667.000000 1 0 0
2.111937 0.597745 12.938688 13.123537 0.275817 0.168039 0.002432 -0.004603 -31900.100000 1 0 0
-12.183863 -1.754355 0.866088 12.339951 0.143007 1.500553 -0.004795 -0.003799 -34099.400000 1 0 0
3.267337 8.651045 -1.243912 9.330776 1.209677 1.704507 0.006531 -0.001574 20598.600000 1 0 0
3.702737 -2.903755 -5.781012 7.454003 -0.665044 2.458395 -0.002047 -0.003360 -854127.000000 1 0 0
-7.877563 -7.053655 9.406988 14.152790 0.730274 0.843739 0.011432 -0.006934 101873.000000 1 0 0
-7.093763 11.005145 -3.504612 13.554224 -0.998236 1.832330 0.002908 0.000039 136266.000000 1 0 0
0.283237 0.477845 2.552388 2.612133 1.035733 0.214290 -0.001359 -0.001251 -2116640.000000 1 0 0
-7.125463 4.532945 -1.871912 8.650079 -0.566585 1.788926 -0.000547 -0.003208 -1884440.000000 1 0 0
-6.885563 -3.931855 -5.856412 9.857384 0.518845 2.206960 0.003724 -0.001608 -162851.000000 1 0 0
2.870237 -6.208555 13.451988 15.091070 -1.137758 0.470400 0.000553 -0.006347 -1188830.000000 1 0 0
-5.601263 -0.413055 -11.594712 12.883405 0.073610 2.690503 0.009384 -0.004718 -1374910.000000 1 0 0
11.814637 2.458545 -0.544012 12.079985 0.205165 1.615846 0.001290 -0.001198 -879978.000000 1 0 0
6.015037 -10.824855 10.840688 16.458392 -1.063611 0.851743 0.005866 -0.003280 683619.000000 1 0 0
-8.165263 6.425545 -10.542012 14.801796 -0.666725 2.363440 -0.000780 -0.009455 423915.000000 1 0 0
2.803137 7.827145 11.114988 13.880372 1.226897 0.642216 0.000748 0.002939 974752.000000 1 0 0
-6.213163 -10.249055 -0.391612 11.991659 1.025817 1.603459 0.006306 0.000328 204685.000000 1 0 0
11.246337 4.241845 5.940988 13.407784 0.360677 1.111743 0.003780 -0.000715 14377.100000 1 0 0
-7.707563 10.645145 1.528388 13.231084 -0.944114 1.455023 -0.006055 0.001223 704545.000000 1 0 0
4.274637 -2.696255 -3.478812 6.135508 -0.562728 2.173652 -0.001776 -0.004256 -5522900.000000 1 0 0
6.350637 6.369145 6.406688 11.042746 0.786853 0.951857 0.000637 -0.001067 -5455890.000000 1 0 0
-0.320663 10.354745 -10.180912 14.524963 -1.539839 2.347490 0.000939 -0.002910 -245738.000000 1 0 0
14.135337 6.532645 -2.464512 15.765691 0.432912 1.727761 0.002939 0.002603 613613.000000 1 0 0
1.455237 9.516745 -6.252212 11.479386 1.419058 2.146764 0.003938 -0.001844 -4198.600000 1 0 0
0.618437 7.364145 7.254288 10.355567 1.487013 0.794670 -0.002892 0.002022 -321993.000000 1 0 0
12.241837 6.323145 2.045388 13.929406 0.476775 1.423424 -0.000617 0.000430 -1118090.000000 1 0 0
-6.782463 6.725345 -3.119212 10.047962 -0.781170 1.886444 -0.003591 -0.001479 -464880.000000 1 0 0
0.977137 9.890945 11.122388 14.916202 1.472325 0.729274 -0.000307 0.001959 -84381.300000 1 0 0
-3.511663 13.604245 -10.963812 17.821684 -1.318181 2.233430 0.006534 -0.005032 -348733.000000 1 0 0
-10.037963 -5.498755 -2.213312 11.657434 0.501149 1.761819 0.001640 -0.001851 132626.000000 1 0 0
-4.027763 3.990345 -12.529612 13.752706 -0.780731 2.716657 0.008749 -0.011354 -10517.100000 1 0 0
-3.246163 8.437345 2.394188 9.351924 -1.203516 1.311904 -0.004522 0.004072 -2533780.000000 1 0 0
7.098237 8.868145 7.108588 13.400036 0.895800 1.011618 0.006148 0.000170 -964935.000000 1 0 0
-1.324263 -2.243955 -8.125612 8.533146 1.037653 2.831290 0.003834 -0.004163 -1889450.000000 1 0 0
0.796537 -1.298155 4.749288 4.987526 -1.020443 0.310329 0.000787 -0.003914 -5621.200000 1 0 0
2.775237 -8.808855 -6.120012 11.079370 -1.265589 2.156012 -0.005426 -0.000789 437604.000000 1 0 0
5.307337 3.886445 8.778988 10.970091 0.632062 0.643058 0.000349 0.000999 447736.000000 1 0 0
6.090737 -7.439555 -2.851112 10.028605 -0.884759 1.859070 -0.001358 -0.004525 777881.000000 1 0 0
1.840237 2.199145 -8.262612 8.746055 0.874017 2.807550 0.003968 -0.001663 224161.000000 1 0 0
-5.287263 10.984445 -0.603212 12.205615 -1.122187 1.620237 -0.006759 0.006163 573852.000000 1 0 0
-5.465363 3.385145 -3.387612 7.266726 -0.554549 2.055766 0.000159 -0.002132 -135859.000000 1 0 0
1.981837 13.690445 -6.147612 15.137671 1.427034 1.988993 -0.006157 -0.003872 10829.000000 1 0 0
-5.221663 -2.597255 2.627088 6.396334 0.461566 1.147555 -0.003646 -0.002756 199977.000000 1 0 0
10.387037 -3.303755 -1.969512 11.076296 -0.307947 1.749560 0.001809 -0.002755 181416.000000 1 0 0
2.260837 -3.297555 7.095388 8.144310 -0.969793 0.513139 0.000523 -0.004363 -1874540.000000 1 0 0
-2.838863 9.792045 -11.736612 15.546426 -1.288617 2.426358 0.009729 -0.005967 -2538210.000000 1 0 0
0.415437 -2.053655 9.269488 9.503341 -1.371198 0.222302 -0.000582 -0.004555 -405766.000000 1 0 0
9.418537 2.639445 4.931288 10.954137 0.273231 1.103834 0.002408 -0.001663 -857211.000000 1 0 0
13.489937 2.026745 -4.864012 14.482566 0.149126 1.913307 0.010496 -0.000494 -1364170.000000 1 0 0
-6.447963 3.834745 7.671388 10.729943 -0.536529 0.774242 0.001304 -0.004437 -64393.200000 1 0 0
10.607437 0.007945 1.858788 10.769071 0.000749 1.397323 0.005954 -0.001155 1347660.000000 1 0 0
15.475537 6.498545 -4.740012 17.441074 0.397563 1.846031 0.013063 0.002866 1207990.000000 1 0 0
8.105337 -4.939455 -9.196412 13.216229 -0.547308 2.340388 0.005219 -0.000633 1240640.000000 1 0 0
4.472537 5.656945 -2.165912 7.529661 0.901796 1.862569 0.005253 -0.001681 -164616.000000 1 0 0
-1.702363 -10.462755 1.454188 10.699624 1.409503 1.434464 0.008177 -0.004129 -994013.000000 1 0 0
-2.755663 12.179045 -12.821612 17.897389 -1.348280 2.369419 0.010530 -0.009609 220152.000000 1 0 0
8.449537 4.209345 -9.507212 13.397774 0.462186 2.359743 0.005319 0.001799 -706336.000000 1 0 0
4.164637 7.659345 -8.952612 12.496361 1.072777 2.369450 0.005257 -0.001928 -1601190.000000 1 0 0
-1.734863 -5.057855 -2.462112 5.886735 1.240368 2.002311 0.003357 -0.002094 102717.000000 1 0 0
-3.328463 -8.905355 7.386988 12.039585 1.213114 0.910237 -0.000354 -0.000838 -3658850.000000 1 0 0
1.066937 7.204345 -1.418312 7.419740 1.423769 1.763134 0.003725 -0.001590 1050440.000000 1 0 0
0.435337 -0.630555 -2.132012 2.265523 -0.966540 2.796572 0.001075 -0.003821 -2970150.000000 1 0 0
4.132637 -6.645555 7.514388 10.849337 -1.014455 0.805692 0.004021 -0.004201 -880444.000000 1 0 0
-13.921563 3.959445 5.962888 15.653854 -0.277094 1.180004 -0.004760 -0.000987 -908021.000000 1 0 0
4.372137 6.350145 12.483788 14.672589 0.967824 0.553245 0.005326 0.001087 -1692150.000000 1 0 0
8.299537 10.105645 -7.088612 14.874636 0.883215 2.067531 0.012399 -0.007829 320189.000000 1 0 0
12.557737 5.291845 9.463788 16.591072 0.398818 0.963786 0.030843 -0.001381 607432.000000 1 0 0
7.496437 3.979245 0.359188 8.494703 0.487997 1.528500 0.004802 0.001910 -2329250.000000 1 0 0
-10.809863 -7.531055 -1.023312 13.214276 0.608497 1.648314 0.003069 0.000076 -1917920.000000 1 0 0
10.520637 6.857645 0.246288 12.560723 0.577659 1.551187 0.001726 0.001893 -644559.000000 1 0 0
14.630337 3.604445 4.170088 15.634207 0.241557 1.300799 0.013879 -0.006803 249195.000000 1 0 0
2.137637 5.579745 8.198588 10.144944 1.204937 0.629800 -0.004104 0.001817 805555.000000 1 0 0
4.240837 0.003245 11.712788 12.456890 0.000765 0.347386 0.005092 -0.003779 -4065890.000000 1 0 0
-1.367663 -1.669755 -0.595012 2.238889 0.884529 1.839791 -0.000210 -0.003150 -1581710.000000 1 0 0
3.075037 -5.183455 -9.445412 11.204458 -1.035362 2.573642 -0.002520 -0.000168 174725.000000 1 0 0
-3.968363 -5.303455 -1.305512 6.751215 0.928410 1.765397 0.002784 -0.002411 -1037960.000000 1 0 0
-1.118563 -8.480255 8.459388 12.030260 1.439651 0.790942 -0.000914 -0.000879 -843660.000000 1 0 0
4.018337 8.601345 -5.955712 11.207171 1.133751 2.131072 0.006498 -0.001566 727980.000000 1 0 0
-14.161263 -1.757955 -2.565212 14.498692 0.123506 1.748660 -0.001911 -0.004439 -631171.000000 1 0 0
8.835337 -10.560255 -6.559112 15.251365 -0.874098 2.015364 -0.001332 0.002002 339916.000000 1 0 0
14.844337 6.160145 1.659388 16.157206 0.393355 1.467912 0.000887 0.003120 -1279570.000000 1 0 0
-5.772463 0.470445 -8.562512 10.337275 -0.081318 2.546888 0.009626 -0.006053 -1129460.000000 1 0 0
-8.040263 -4.509355 -12.953112 15.898529 0.511133 2.523071 0.007140 0.002344 773654.000000 1 0 0
0.672137 -10.625455 11.963988 16.015276 -1.507623 0.727204 -0.000722 -0.003581 -151105.000000 1 0 0
0.274737 11.638045 3.261888 12.089643 1.547194 1.297602 -0.002683 0.003882 -869056.000000 1 0 0
5.200637 -13.180155 -3.619212 14.624015 -1.194970 1.820879 -0.002418 0.002912 248346.000000 1 0 0
-7.481763 1.582945 -7.044312 10.397347 -0.208499 2.315169 0.000313 -0.001187 649090.000000 1 0 0
1.455337 2.767345 4.093488 5.151004 1.086647 0.652288 -0.003013 0.000156 -1164550.000000 1 0 0
17.256237 5.528945 1.989488 18.229235 0.310068 1.461441 0.011807 -0.006991 44544.200000 1 0 0
2.471837 -8.172755 -3.538912 9.242717 -1.277095 1.963715 -0.004823 -0.001696 432242.000000 1 0 0
-0.423363 -9.420255 -0.689912 9.454968 1.525885 1.643829 0.005711 -0.002537 -623087.000000 1 0 0
0.812837 11.752245 -5.437112 12.974519 1.501742 2.003207 -0.000773 -0.002878 -3035050.000000 1 0 0
5.981837 -4.992955 7.899988 11.096026 -0.695536 0.778503 0.006187 -0.004659 -1195490.000000 1 0 0
-5.966863 -1.893855 -9.410512 11.302561 0.307339 2.554582 0.010482 -0.004032 -147411.000000 1 0 0
2.077137 -1.339355 11.151188 11.421793 -0.572717 0.218111 -0.001036 -0.003272 -616113.000000 1 0 0
17.943037 2.253145 -5.675512 18.953646 0.124918 1.874904 0.006198 -0.005783 -1882260.000000 1 0 0
-8.896763 4.830145 7.803288 12.781783 -0.497384 0.914104 0.000019 -0.006046 -1652830.000000 1 0 0
11.587337 -7.159355 -4.915212 14.480403 -0.553449 1.917117 0.008513 0.000486 236353.000000 1 0 0
10.846237 0.480945 8.952788 14.072121 0.044313 0.881224 0.014410 -0.004489 -14108.200000 1 0 0
-8.389263 -7.330455 -1.411112 11.229717 0.718144 1.696788 0.005441 -0.001029 -1664100.000000 1 0 0
10.285137 -10.451455 -3.358012 15.043046 -0.793419 1.795920 0.010189 0.001441 12657.300000 1 0 0
7.585537 -14.001555 -3.767412 16.363903 -1.074298 1.803107 0.004719 0.006168 -625724.000000 1 0 0
1.806537 -1.179655 -11.587212 11.786376 -0.578476 2.957497 0.005726 -0.005637 310712.000000 1 0 0
-11.856063 -2.599155 -6.492212 13.764834 0.215812 2.061960 0.004271 -0.002890 331855.000000 1 0 0
2.750137 -12.191855 -6.435112 14.057570 -1.348938 2.046280 -0.006536 0.001295 122353.000000 1 0 0
-5.530863 1.450245 1.125188 5.827495 -0.256436 1.376493 -0.000724 -0.004914 264368.000000 1 0 0
0.115337 6.779645 -3.984912 7.864885 1.553786 2.102116 0.008464 -0.002848 1007300.000000 1 0 0
5.428437 -11.786455 3.651988 13.480559 -1.139191 1.296460 -0.005210 -0.005781 -3599940.000000 1 0 0
-4.398763 -9.243955 1.073088 10.293267 1.126652 1.466355 0.005444 -0.000290 81235.000000 1 0 0
7.160637 -6.164955 -4.662312 10.536535 -0.710817 2.029170 0.003250 -0.003608 609952.000000 1 0 0
-6.918763 -5.992555 2.204688 9.414916 0.713785 1.334432 0.000802 -0.000744 -297715.000000 1 0 0
-6.269863 -0.847955 7.155188 9.551278 0.134427 0.724043 -0.000981 -0.002071 -2044820.000000 1 0 0
4.267837 -5.068455 3.152588 7.337744 -0.870942 1.126702 -0.000675 -0.003148 -133571.000000 1 0 0
-2.390363 10.502445 -8.797712 13.907369 -1.347008 2.255694 0.004214 -0.003753 -1018400.000000 1 0 0
-2.318563 -4.927855 2.803588 6.125324 1.131025 1.095385 0.000081 -0.001236 307902.000000 1 0 0
15.095037 5.040145 6.359488 17.137861 0.322255 1.190626 0.024357 -0.012106 -33617.000000 1 0 0
6.708437 0.255845 0.117888 6.714349 0.038119 1.553238 0.001775 -0.002704 2604740.000000 1 0 0
-9.674263 9.291745 0.483288 13.422423 -0.765232 1.534783 -0.004349 -0.002181 -1814890.000000 1 0 0
7.287337 10.461445 -2.484712 12.989261 0.962363 1.763272 0.006567 -0.006141 -538473.000000 1 0 0
1.626137 -4.311255 -5.307812 7.028806 -1.210112 2.426681 -0.002808 -0.002304 -2161.140000 1 0 0
0.908637 -8.213855 -7.873012 11.413911 -1.460622 2.331972 -0.004779 0.000586 1834190.000000 1 0 0
-10.425563 0.337945 -10.518112 14.813415 -0.032404 2.360351 -0.000215 -0.003321 -3258300.000000 1 0 0
5.718837 -2.455955 0.548488 6.248012 -0.405634 1.482897 0.001105 -0.003204 -80511.100000 1 0 0
-3.465763 5.280045 -1.156812 6.420950 -0.989943 1.751948 -0.002120 -0.002727 1208200.000000 1 0 0
-0.286463 4.550145 -5.124812 6.859270 -1.507922 2.414540 0.006002 -0.002627 -862834.000000 1 0 0
3.957237 -9.670555 10.021088 14.477623 -1.182380 0.806294 0.004281 -0.004671 -1065190.000000 1 0 0
7.338237 -13.519055 -0.769712 15.401527 -1.073492 1.620794 0.005366 0.001635 358229.000000 1 0 0
13.010837 -0.046255 0.488188 13.020075 -0.003555 1.533293 0.004861 -0.004151 468589.000000 1 0 0
9.254237 2.353345 -0.600512 9.567641 0.249021 1.633603 0.004458 -0.001026 758550.000000 1 0 0
-0.738663 -5.802355 4.565988 7.420323 1.444173 0.907985 -0.000115 -0.000790 -251903.000000 1 0 0
11.481237 -3.726555 3.244488 12.499309 -0.313850 1.308216 0.008975 -0.004631 -2569110.000000 1 0 0
1.647637 -8.121855 11.737388 14.368212 -1.370648 0.614781 -0.001277 -0.004649 41803.800000 1 0 0
9.465437 -6.019455 -5.941112 12.693509 -0.566428 2.057872 0.003566 -0.002537 -326854.000000 1 0 0
3.258637 6.423545 -0.076512 7.203228 1.101329 1.581418 0.003796 0.002033 -990954.000000 1 0 0
6.359037 -1.401755 11.359388 13.093432 -0.216965 0.520514 0.009537 -0.006279 134348.000000 1 0 0
-4.814563 -7.502055 -3.912212 9.734796 1.000231 1.984365 0.009038 0.000993 -226099.000000 1 0 0
-3.372063 -8.503155 -5.764712 10.812325 1.193254 2.133129 0.008759 0.002003 -662939.000000 1 0 0
9.693837 5.354745 2.189088 11.288750 0.504674 1.375642 0.005511 -0.000552 753552.000000 1 0 0
8.817237 -1.463755 0.336388 8.944239 -0.164510 1.533178 0.006227 -0.003414 1245270.000000 1 0 0
-3.983463 9.604445 9.252088 13.918134 -1.177638 0.843636 -0.002799 -0.000129 -108253.000000 1 0 0
-14.347863 -3.575555 -6.189812 16.029958 0.244230 1.967240 0.001234 0.000752 -1570910.000000 1 0 0
10.722137 6.238345 -5.811912 13.698887 0.526944 2.008943 0.001465 -0.000883 -516120.000000 1 0 0
-1.734363 4.509745 2.695188 5.532616 -1.203652 1.061978 -0.002025 -0.001664 220675.000000 1 0 0
6.951537 -3.686455 2.676888 8.311411 -0.487599 1.242877 0.004658 -0.004892 -2244060.000000 1 0 0
8.372637 -11.284155 -1.649712 14.147607 -0.932447 1.687669 0.004078 -0.001752 -1643100.000000 1 0 0
4.532937 0.422345 1.878388 4.924859 0.092904 1.179476 -0.000189 -0.000529 -463450.000000 1 0 0
-10.873263 2.378945 3.792088 11.758705 -0.215394 1.242435 -0.001479 -0.002596 -122151.000000 1 0 0
-0.937163 -3.046855 4.383988 5.420420 1.272397 0.628703 0.000388 -0.003125 547064.000000 1 0 0
8.552637 -8.733055 -8.557212 14.921118 -0.795835 2.181564 0.007251 -0.002515 -895650.000000 1 0 0
12.113837 -4.794955 1.011288 13.067492 -0.376902 1.493329 0.004978 -0.001837 160669.000000 1 0 0
2.914037 4.827445 3.422788 6.596310 1.027705 1.025239 -0.003510 0.000893 -510800.000000 1 0 0
6.182137 7.386345 2.034688 9.844636 0.873917 1.362616 0.004520 -0.001738 -451873.000000 1 0 0
-1.634763 -1.245655 -10.284312 10.487668 0.651124 2.944347 0.009240 -0.003987 814462.000000 1 0 0
-1.135063 -8.665455 5.889488 10.538717 1.440551 0.977806 -0.000554 -0.004975 18087.000000 1 0 0
-4.273463 -0.230655 2.269088 4.844011 0.053922 1.083282 -0.000925 -0.002923 -74527.800000 1 0 0
-8.446763 6.377145 -7.960812 13.243501 -0.646681 2.215687 -0.004367 -0.004231 -1149440.000000 1 0 0
6.461337 11.151145 -9.385612 15.943231 1.045637 2.200233 0.011783 -0.010345 148006.000000 1 0 0
-11.023863 -5.668955 3.118188 12.782242 0.474978 1.324363 -0.000979 0.000413 546041.000000 1 0 0
1.570737 -6.425655 3.108288 7.308742 -1.331050 1.131521 -0.001767 -0.002729 886045.000000 1 0 0
10.132537 2.138645 7.199088 12.612255 0.208014 0.963315 0.009027 -0.000813 -738828.000000 1 0 0
-4.068263 -2.398655 -10.576312 11.582862 0.532739 2.721620 0.008218 -0.003855 -2366960.000000 1 0 0
-8.237563 11.739145 5.806988 15.472106 -0.958919 1.186055 -0.008052 0.001656 -309158.000000 1 0 0
6.934837 5.994145 -2.944312 9.627602 0.712768 1.881596 0.004780 0.000282 -1706710.000000 1 0 0
3.957437 -9.878555 -2.339712 10.895936 -1.189765 1.787214 -0.003946 -0.004181 -2204660.000000 1 0 0
8.455137 -13.002455 -7.349112 17.162828 -0.994230 2.013296 0.002288 0.006798 -181575.000000 1 0 0
-1.288863 9.463145 3.710988 10.246155 -1.435431 1.200187 -0.008146 0.004627 -102034.000000 1 0 0
0.518937 -13.183655 4.619688 13.979255 -1.531454 1.233998 0.011599 -0.009015 -1211000.000000 1 0 0
-11.045763 -6.959255 -5.107712 14.018874 0.562214 1.943726 0.009899 -0.003884 340822.000000 1 0 0
3.617637 10.285345 -3.322112 11.397896 1.232583 1.866557 0.006652 -0.003051 -1225820.000000 1 0 0
11.526037 -8.130355 -7.426112 15.940494 -0.614334 2.055408 0.019762 -0.002083 561164.000000 1 0 0
11.725837 -4.799255 -5.885112 13.970063 -0.388488 2.005637 0.009756 -0.004328 -566026.000000 1 0 0
1.361537 -10.260455 -2.613212 10.675187 -1.438870 1.818103 -0.003048 -0.001304 -668719.000000 1 0 0
2.459837 -12.009955 -3.882412 12.859353 -1.368774 1.877496 -0.004377 -0.002852 -1897960.000000 1 0 0
-7.693963 -5.676755 7.338988 12.053354 0.635660 0.916155 0.001849 -0.000667 -3419480.000000 1 0 0
-7.176663 -0.797555 9.546588 11.969875 0.110678 0.647572 0.004040 -0.000302 -348528.000000 1 0 0
16.189637 2.591545 -7.586012 18.065659 0.158728 2.004146 0.015923 -0.003415 -766698.000000 1 0 0
-1.986263 6.320545 -5.527512 8.628321 -1.266313 2.266107 0.004079 -0.000709 -1287520.000000 1 0 0
7.700537 0.993745 8.339288 11.394276 0.128339 0.749714 0.006037 -0.004058 -677962.000000 1 0 0
7.949737 8.234245 -3.718212 12.034376 0.802976 1.884902 0.004928 0.000098 -285327.000000 1 0 0
8.017237 0.520345 3.950388 8.952788 0.064812 1.113809 0.003391 -0.002743 161082.000000 1 0 0
-6.888363 5.820645 5.334488 10.477891 -0.701582 1.036636 0.003422 -0.005963 357485.000000 1 0 0
-6.077363 -2.063855 -4.621412 7.908937 0.327377 2.194848 0.003818 -0.002959 -1889310.000000 1 0 0
-15.095863 -2.139655 3.107788 15.560255 0.140800 1.369718 -0.001381 -0.002278 -300945.000000 1 0 0
1.052237 1.274545 -10.572512 10.700920 0.880652 2.986520 0.007820 -0.006533 663713.000000 1 0 0
1.411737 -9.290455 9.445288 13.323626 -1.419994 0.782841 0.004000 -0.006812 -153060.000000 1 0 0
-0.188763 -6.787355 -1.110912 6.880258 1.542993 1.732970 0.001223 -0.001142 646175.000000 1 0 0
-0.448963 -10.346255 -8.322112 13.285486 1.527430 2.247731 0.000215 -0.000023 -402462.000000 1 0 0
-4.240063 6.473045 3.804488 8.622793 -0.990891 1.113847 -0.002616 0.002344 -353530.000000 1 0 0
10.829337 -1.216355 -8.653512 13.915364 -0.111852 2.241921 0.014809 -0.001123 978768.000000 1 0 0
3.100837 -1.140355 6.238288 7.059167 -0.352406 0.487056 0.000715 -0.002775 1312660.000000 1 0 0
1.954837 -12.315655 6.688688 14.150452 -1.413382 1.078463 0.012384 -0.007991 -101367.000000 1 0 0
2.868037 -4.934955 -1.439012 5.886440 -1.044339 1.817761 0.003546 -0.003178 -1059690.000000 1 0 0
-0.958163 9.477845 -1.647812 9.667621 -1.470044 1.742079 0.001279 -0.000551 886482.000000 1 0 0
4.553437 -2.586855 2.777588 5.927951 -0.516641 1.083139 0.001387 -0.000734 -1469100.000000 1 0 0
17.702537 6.559245 -2.584612 19.054756 0.354842 1.706857 0.002534 0.006538 480814.000000 1 0 0
-7.129963 3.532945 -5.406012 9.619929 -0.460047 2.167549 -0.001787 -0.003478 -472190.000000 1 0 0
-13.735463 -5.972655 2.376688 15.165230 0.410171 1.413428 -0.004414 -0.001486 384815.000000 1 0 0
6.746737 -6.205055 3.203388 9.709937 -0.743600 1.234590 0.003308 -0.006395 -499348.000000 1 0 0
-4.609963 1.928945 3.559888 6.135583 -0.396292 0.951818 0.000921 -0.004562 408514.000000 1 0 0
6.882437 -12.056655 -5.452512 14.915119 -1.052093 1.945041 -0.003018 0.004642 -559959.000000 1 0 0
2.925337 -12.337455 3.309488 13.104317 -1.337985 1.315482 0.006071 -0.008144 -917385.000000 1 0 0
3.323437 11.329945 -5.988312 13.239062 1.285468 2.040163 0.000054 -0.002536 -471093.000000 1 0 0
-5.591963 -8.298055 6.396888 11.876361 0.977811 1.001994 0.001866 -0.000430 26420.500000 1 0 0
-4.016963 6.469445 6.368588 9.927165 -1.015141 0.874303 -0.001534 0.000895 172744.000000 1 0 0
4.338937 4.360245 -6.945512 9.277837 0.787847 2.416764 0.004434 0.001346 -2367380.000000 1 0 0
-0.286963 -2.832555 1.598088 3.264905 1.469832 1.059309 -0.000857 -0.000629 -1792890.000000 1 0 0
-13.170263 -0.892055 6.488788 14.709043 0.067629 1.113925 -0.002500 0.001357 -488535.000000 1 0 0
-0.548663 -9.302055 -5.921312 11.040435 1.511882 2.136879 0.000265 0.001564 191384.000000 1 0 0
2.005337 -1.680055 -3.869012 4.670463 -0.697364 2.547042 0.000454 -0.002327 1007580.000000 1 0 0
11.328537 -2.037155 1.057288 11.558703 -0.177924 1.479197 0.004556 -0.003764 1272630.000000 1 0 0
0.521837 -4.299955 -2.015912 4.777639 -1.450028 2.006389 0.000934 -0.000835 -1565550.000000 1 0 0
1.098137 -7.308655 -11.340812 13.536483 -1.421660 2.564030 -0.003370 0.000231 -1243070.000000 1 0 0
-4.368263 4.198045 -9.993512 11.686556 -0.765530 2.596596 0.006586 -0.008101 132715.000000 1 0 0
-1.122063 5.775245 -2.137312 6.259439 -1.378899 1.919260 0.003793 -0.002157 -1406270.000000 1 0 0
-11.264863 1.815145 -3.900012 12.058274 -0.159760 1.900149 -0.003015 -0.000422 -630836.000000 1 0 0
-1.806163 -11.306955 4.103988 12.163559 1.412395 1.226643 0.010643 -0.004745 -795172.000000 1 0 0
-3.609863 -5.408955 -9.709912 11.686330 0.982296 2.551480 0.002896 0.002984 -1090410.000000 1 0 0
-12.827563 -3.789755 -8.364112 15.775519 0.287267 2.129628 0.004497 0.000475 -12239.600000 1 0 0
11.466337 4.491445 0.581088 12.328326 0.373337 1.523645 0.004788 0.001365 182644.000000 1 0 0
-8.833663 -2.331255 -2.921312 9.591789 0.258023 1.880277 0.002843 -0.003574 -242822.000000 1 0 0
-2.546263 -6.043155 -6.421612 9.178251 1.172024 2.345711 0.002790 0.000173 -984750.000000 1 0 0
-0.100563 2.734445 -1.816212 3.284194 -1.534037 2.156776 0.001971 -0.003374 1453810.000000 1 0 0
8.141737 5.995645 -5.098312 11.323799 0.634746 2.037819 0.004863 0.000340 -787612.000000 1 0 0
-9.710963 -0.931455 -0.883012 9.795413 0.095625 1.661064 -0.002395 -0.003160 -1602080.000000 1 0 0
6.100037 0.525745 -8.849412 10.760993 0.085975 2.536343 0.004491 0.000676 386108.000000 1 0 0
-4.091863 2.498545 7.954988 9.288051 -0.548187 0.542394 -0.002526 -0.000319 589488.000000 1 0 0
-10.079663 -3.321955 1.452888 10.711950 0.318360 1.434745 -0.001929 -0.003129 934222.000000 1 0 0
-1.783063 -8.191755 -7.821212 11.465406 1.356474 2.321505 0.001235 0.000509 -1556570.000000 1 0 0
-9.451763 -9.887155 4.218188 14.313796 0.807908 1.271661 -0.000295 0.000871 -634463.000000 1 0 0
-1.200163 -10.696555 7.349888 13.033708 1.459063 0.971679 0.003948 -0.006302 96183.400000 1 0 0
9.579037 3.778745 -3.859812 10.997046 0.375739 1.929421 0.002923 0.000224 -622447.000000 1 0 0
12.854737 -0.825155 3.002288 13.226446 -0.064103 1.341809 0.009247 -0.002598 500906.000000 1 0 0
6.426037 11.890545 -6.783412 15.122622 1.075328 2.035951 0.007976 -0.005437 -227394.000000 1 0 0
-11.801563 -0.100655 -6.521212 13.483813 0.008529 2.075597 0.001416 -0.001428 511939.000000 1 0 0
-7.586063 -6.633955 -11.356412 15.183077 0.718543 2.415787 0.010988 -0.000497 -910964.000000 1 0 0
4.087337 5.997545 6.483688 9.732167 0.972593 0.841678 -0.003257 0.000856 -3760930.000000 1 0 0
-4.269263 -1.360555 -7.372612 8.627464 0.308511 2.595483 0.007636 -0.006802 -184421.000000 1 0 0
9.703637 9.332045 0.888588 13.492117 0.765880 1.504889 0.007257 -0.000291 -1417560.000000 1 0 0
-9.000563 4.071045 4.836888 10.999046 -0.424773 1.115470 0.002103 -0.005415 554372.000000 1 0 0
-6.929063 7.910145 -12.272312 16.161434 -0.851416 2.433122 0.004767 -0.009997 -880137.000000 1 0 0
11.226737 -3.751655 7.163488 13.835827 -0.322505 1.026578 0.016689 -0.005062 340806.000000 1 0 0
11.759437 6.906245 6.399388 15.064287 0.531024 1.132050 0.005680 -0.002016 -25282.600000 1 0 0
-10.046463 -0.589955 -14.587212 17.721914 0.058655 2.537675 0.004486 -0.003254 349999.000000 1 0 0
1.558037 -13.040155 12.001388 17.790628 -1.451880 0.830387 0.015404 -0.005493 161239.000000 1 0 0
2.977637 3.067745 13.066188 13.747823 0.800302 0.316217 0.001964 -0.001036 -617991.000000 1 0 0
-2.650163 -1.275155 10.994888 11.381429 0.448463 0.261368 0.003630 -0.002698 -656083.000000 1 0 0
2.603337 -10.107255 -8.285512 13.326053 -1.318705 2.241775 -0.011097 0.000262 -949057.000000 1 0 0
13.918237 3.620645 -7.483412 16.211967 0.254496 2.050592 0.010783 -0.001632 -1955380.000000 1 0 0
7.374737 -1.663255 4.944888 9.033553 -0.221823 0.991553 0.006779 -0.004800 440583.000000 1 0 0
-1.217163 8.704345 10.094188 13.384309 -1.431863 0.716391 0.000536 -0.000336 145026.000000 1 0 0
-12.235363 -4.589555 0.977288 13.104320 0.358863 1.496150 -0.000883 -0.001386 80647.600000 1 0 0
-4.911763 4.953945 -5.330512 8.779598 -0.789674 2.223262 0.004075 -0.003962 -123302.000000 1 0 0
-11.253063 0.430545 1.967288 11.431842 -0.038242 1.397847 -0.002665 -0.002487 -2598230.000000 1 0 0
-1.296263 2.283545 -4.119612 4.885292 -1.054500 2.574132 0.004429 -0.004374 740167.000000 1 0 0
2.940137 -9.885455 13.089188 16.664137 -1.281708 0.667340 0.003851 -0.000746 -2265480.000000 1 0 0
8.958137 4.550945 -1.565612 10.169094 0.470046 1.725369 0.004226 -0.002078 -999186.000000 1 0 0
4.069137 2.272345 3.745288 5.979014 0.509295 0.893863 -0.004952 0.001503 299157.000000 1 0 0
-5.420463 -3.205255 7.423788 9.734870 0.534016 0.703477 -0.001221 -0.003655 -142123.000000 1 0 0
1.648637 -5.748555 7.729088 9.772548 -1.291501 0.658521 -0.000723 -0.004249 -1326560.000000 1 0 0
-5.885063 -6.346555 -9.680612 12.985645 0.823110 2.412060 0.010512 -0.000221 -1038310.000000 1 0 0
-11.745963 -5.773355 5.529788 14.208372 0.456839 1.171042 0.004635 -0.000831 -266438.000000 1 0 0
10.534437 6.228545 4.440888 13.018856 0.533965 1.222697 0.002885 -0.000512 -288829.000000 1 0 0
1.392037 -3.735555 0.342088 4.001146 -1.214092 1.485194 0.006805 -0.002539 -1266820.000000 1 0 0
8.806737 4.331145 6.920788 12.008944 0.457065 0.956599 0.001129 0.002551 161028.000000 1 0 0
-7.772763 12.194745 3.446288 14.866221 -1.003340 1.336848 -0.007749 0.001956 -410156.000000 1 0 0
-5.986763 13.167045 -7.031112 16.082566 -1.144059 2.023267 0.012900 -0.009589 518411.000000 1 0 0
4.455637 -6.875955 -0.979512 8.251722 -0.995827 1.689781 -0.000307 -0.005389 -2042610.000000 1 0 0
-1.922163 -8.159455 10.999188 13.829445 1.339440 0.651219 -0.005988 -0.007007 -410160.000000 1 0 0
11.588737 8.836145 -5.717712 15.654664 0.651439 1.944687 0.004885 -0.000421 232221.000000 1 0 0
-3.294463 -2.937255 -1.870212 4.793605 0.728140 1.971588 0.003796 -0.002328 -3117710.000000 1 0 0
-1.915663 5.894745 4.834088 7.860418 -1.256584 0.908422 -0.005722 0.000598 1264980.000000 1 0 0
0.486537 -11.368955 -5.587012 12.676931 -1.528027 2.027200 -0.001059 -0.002156 1014470.000000 1 0 0
-8.853263 6.322245 -1.540112 10.987401 -0.620136 1.711430 -0.002659 0.000137 -1032340.000000 1 0 0
2.924137 -0.072455 3.956488 4.920327 -0.024773 0.636618 -0.002823 -0.001300 -144848.000000 1 0 0
-10.047963 3.995745 -1.028412 10.862097 -0.378494 1.665617 -0.000429 -0.001899 -329286.000000 1 0 0
6.470937 5.493545 13.676588 16.096618 0.703888 0.555464 0.011199 0.004529 -933641.000000 1 0 0
-8.781863 -1.559555 5.712688 10.591890 0.175756 1.001137 0.001187 -0.003960 -38269.000000 1 0 0
12.902537 -1.693455 -1.644312 13.116670 -0.130504 1.696488 0.005546 -0.001056 -1486610.000000 1 0 0
5.370137 -5.568955 5.388688 9.428128 -0.803571 0.962397 -0.000144 -0.005995 -281508.000000 1 0 0
-9.039163 -1.218855 3.198188 9.665427 0.134033 1.233550 -0.003426 -0.003820 618885.000000 1 0 0
1.959037 5.493645 5.569688 8.064699 1.228253 0.808443 -0.001627 -0.000555 -1049580.000000 1 0 0
9.303537 3.023545 -7.328912 12.223362 0.314222 2.213775 0.004866 0.001071 -277381.000000 1 0 0
2.260437 -2.358655 -1.516412 3.601713 -0.806658 2.005372 0.001080 -0.001772 -318468.000000 1 0 0
-6.244763 0.321045 -3.931312 7.386159 -0.051365 2.132057 -0.001136 -0.000961 -2896810.000000 1 0 0
-3.981963 4.130045 4.963588 7.586204 -0.803651 0.857551 -0.001029 -0.002985 1357670.000000 1 0 0
-6.479663 1.951145 -12.289612 14.029525 -0.292482 2.638264 0.001152 -0.006841 -2321140.000000 1 0 0
-0.120563 2.991445 6.279288 6.956488 -1.530516 0.444904 -0.002289 -0.001463 1087840.000000 1 0 0
-8.651563 9.469545 -2.084012 12.994803 -0.830507 1.731865 -0.004549 0.000068 464189.000000 1 0 0
-1.378263 -3.737755 -6.112312 7.295943 1.217525 2.563980 0.002384 -0.002496 227259.000000 1 0 0
-3.389963 7.029045 -2.972712 8.350828 -1.121426 1.934757 -0.000930 0.002173 1044110.000000 1 0 0
6.902937 -0.342655 -4.268512 8.123309 -0.049598 2.124058 0.003794 -0.002859 -20010.600000 1 0 0
-5.209963 -10.773655 6.995888 13.862100 1.120368 1.041788 -0.000164 -0.005823 572127.000000 1 0 0
9.842037 8.430045 -1.467012 13.041606 0.708275 1.683522 0.005018 0.000496 -318203.000000 1 0 0
13.674737 4.658745 -4.317912 15.078021 0.328350 1.861234 -0.000168 -0.001800 376985.000000 1 0 0
4.760337 1.098845 -6.774112 8.352058 0.226860 2.516777 0.000759 -0.001733 -2235870.000000 1 0 0
9.003337 -4.813955 3.527988 10.801896 -0.491010 1.238084 0.006373 -0.006064 -979973.000000 1 0 0
-8.683963 -3.264955 -0.685312 9.302731 0.359625 1.644531 -0.000842 -0.001601 460339.000000 1 0 0
-8.474763 -4.181355 -10.429312 14.073944 0.458345 2.405410 0.009405 -0.002182 -514389.000000 1 0 0
10.551837 -1.206655 10.667488 15.052992 -0.113860 0.783196 0.021663 -0.005635 -236825.000000 1 0 0
2.152337 -11.598155 9.870188 15.380844 -1.387308 0.874058 0.007553 -0.008615 1654240.000000 1 0 0
-6.337163 -10.568655 2.050888 12.492488 1.030657 1.405880 0.003264 0.001326 -938120.000000 1 0 0
-3.683263 -1.168655 6.619188 7.664582 0.307241 0.528415 0.001258 -0.002819 -2087500.000000 1 0 0
4.837137 -7.622355 3.925088 9.844009 -1.005324 1.160666 -0.001745 -0.002656 209730.000000 1 0 0
11.545837 -9.632955 -5.370612 15.966956 -0.695322 1.913843 0.014210 0.001142 267399.000000 1 0 0
11.399837 1.089245 11.466988 16.206003 0.095260 0.784734 0.023262 -0.003368 664964.000000 1 0 0
-10.171363 -3.434955 4.470388 11.629269 0.325683 1.176230 0.003410 -0.002389 1273670.000000 1 0 0
1.960237 8.713345 8.923188 12.624903 1.349511 0.785842 -0.001496 0.003115 -214330.000000 1 0 0
6.638437 8.769345 4.079788 11.730939 0.922827 1.215594 0.005695 -0.002060 711020.000000 1 0 0
-4.250263 3.569045 0.353788 5.561293 -0.698498 1.507137 0.000939 -0.004932 -1346290.000000 1 0 0
4.924037 6.882245 4.272388 9.479701 0.949763 1.103260 0.001885 -0.000869 -917440.000000 1 0 0
-8.229263 13.064445 0.973188 15.470862 -1.008683 1.507850 -0.002373 0.000056 -407397.000000 1 0 0
8.905237 8.158245 -9.040812 15.086302 0.741649 2.213389 0.007547 -0.008562 -842772.000000 1 0 0
7.160937 1.916045 6.065488 9.578120 0.261445 0.885032 0.002225 0.000088 -1615060.000000 1 0 0
11.464737 -6.245555 2.964388 13.387859 -0.498813 1.347522 0.007150 -0.002582 -256656.000000 1 0 0
11.441237 4.712245 -2.059512 12.543873 0.390693 1.735728 0.000143 0.001126 -674152.000000 1 0 0
-3.844663 14.355945 -6.013412 16.032333 -1.309127 1.955280 0.002596 -0.001057 -912550.000000 1 0 0
7.007237 -3.053655 6.839488 10.256938 -0.410971 0.840869 0.008554 -0.007248 -1043490.000000 1 0 0
-7.970063 -0.480555 0.925888 8.038041 0.060222 1.455352 -0.001506 -0.003859 180023.000000 1 0 0
-3.262163 1.163645 10.752288 11.296347 -0.342640 0.311622 0.002597 -0.000873 -60753.200000 1 0 0
7.111337 -1.280055 -1.861412 7.461536 -0.178095 1.822927 0.006178 -0.004456 -2851230.000000 1 0 0
-7.814463 5.359845 2.968288 9.929979 -0.601192 1.267234 -0.000544 -0.003419 860188.000000 1 0 0
9.437637 -2.245655 2.842788 10.109076 -0.233603 1.285740 0.003992 -0.004769 -1240910.000000 1 0 0
0.284237 3.363445 1.665688 3.764049 1.486489 1.112383 -0.001098 -0.000362 -4694760.000000 1 0 0
-7.534263 -3.005255 3.887488 8.994956 0.379539 1.123882 0.000164 -0.003455 -752682.000000 1 0 0
-2.204163 8.387345 -6.755812 10.993038 -1.313811 2.232616 0.001154 -0.000985 -394355.000000 1 0 0
4.487137 9.659845 7.332788 12.931232 1.135938 0.967864 0.000743 0.000012 929685.000000 1 0 0
-11.849363 -3.125955 6.788388 14.009325 0.257932 1.064934 0.003565 -0.001579 -56931.300000 1 0 0
-4.711363 2.404945 -5.579912 7.688701 -0.471978 2.382890 0.005640 -0.005242 -1146920.000000 1 0 0
-2.801463 2.922945 -1.919912 4.480833 -0.806617 2.013598 0.001026 -0.002350 947533.000000 1 0 0
2.356337 5.213345 11.398888 12.754055 1.146295 0.465168 0.001333 -0.001954 304733.000000 1 0 0
-0.685263 1.634445 4.534588 4.868622 -1.173795 0.372582 -0.000284 -0.002845 -132593.000000 1 0 0
5.106137 1.514745 7.624588 9.300614 0.288382 0.609745 0.001484 -0.000483 -213848.000000 1 0 0
3.410437 -8.218055 1.836288 9.085124 -1.177432 1.367274 0.001109 -0.003439 2139300.000000 1 0 0
5.124837 6.519445 -4.570812 9.468867 0.904598 2.074554 0.007231 -0.001121 -1811000.000000 1 0 0
-4.026863 2.981645 -7.960112 9.405808 -0.637354 2.579793 0.009963 -0.009325 207980.000000 1 0 0
-8.772163 -2.126055 -12.927812 15.767032 0.237779 2.532080 0.006692 0.000632 -587347.000000 1 0 0
-7.773163 8.161745 1.291488 11.344782 -0.809779 1.456709 -0.004006 -0.000428 -1006940.000000 1 0 0
7.416637 0.833945 -6.558312 9.935464 0.111972 2.291737 0.003045 0.000040 57830.100000 1 0 0
9.025337 8.815645 5.514988 13.769074 0.773645 1.158696 0.003536 0.000052 186413.000000 1 0 0
9.347737 -1.053955 -1.358612 9.504570 -0.112276 1.714231 0.005033 -0.004040 1917650.000000 1 0 0
5.429837 0.028845 4.306288 6.930229 0.005312 0.900297 0.000082 -0.000844 -955422.000000 1 0 0
-4.153763 -7.346455 -8.009412 11.635069 1.056199 2.330057 0.012830 0.000524 -818382.000000 1 0 0
-2.118363 7.406945 -0.566912 7.724744 -1.292235 1.644252 0.000770 -0.000248 398917.000000 1 0 0
13.389437 -3.422455 -7.472312 15.710687 -0.250250 2.066465 0.016026 -0.003705 816638.000000 1 0 0
-4.739163 -5.040755 1.596988 7.100651 0.816226 1.343949 0.002200 -0.001441 354917.000000 1 0 0
-8.907363 1.312845 2.556588 9.359530 -0.146335 1.294127 -0.002422 -0.004092 -149502.000000 1 0 0
-1.191563 11.154245 10.183888 15.150860 -1.464374 0.833666 -0.004765 -0.002837 409526.000000 1 0 0
-8.527663 0.337445 7.443988 11.324657 -0.039550 0.853532 -0.000032 -0.002493 -250755.000000 1 0 0
-6.121463 12.975545 -1.932812 14.476630 -1.129987 1.704709 -0.000695 0.006209 -95776.900000 1 0 0
-12.962263 -0.757355 3.267488 13.389187 0.058361 1.324267 0.000820 -0.003400 573913.000000 1 0 0
-6.700963 12.670045 8.619788 16.725240 -1.084311 1.029350 -0.002637 -0.006539 1479450.000000 1 0 0
-8.055363 1.029645 -14.072612 16.247691 -0.127132 2.618203 -0.001861 -0.003335 -199525.000000 1 0 0
7.312737 2.825945 3.702888 8.670263 0.368764 1.129536 0.001126 0.001329 -558480.000000 1 0 0
-1.691563 0.707045 -1.969712 2.690922 -0.395912 2.392026 0.003233 -0.003407 918202.000000 1 0 0
-6.282363 9.638345 -10.415612 15.519367 -0.993150 2.306537 0.002497 -0.007130 -318944.000000 1 0 0
-10.002463 13.660445 5.208788 17.714076 -0.938771 1.272337 -0.013475 -0.000007 598001.000000 1 0 0
-5.625763 8.156645 2.391988 10.193216 -0.967006 1.333923 -0.005883 0.001441 -2106390.000000 1 0 0
-2.493363 -10.858955 -1.253012 11.211771 1.345095 1.682789 0.006485 -0.001216 261497.000000 1 0 0
-2.304263 -12.462555 8.725888 15.387203 1.387966 0.967831 0.001331 -0.003703 353093.000000 1 0 0
-14.688863 -6.388355 -1.769412 16.115353 0.410236 1.680815 0.013773 -0.002516 616507.000000 1 0 0
-2.650463 -9.285655 3.260788 10.192207 1.292754 1.245141 0.005043 -0.003059 122491.000000 1 0 0
4.656637 -2.754055 7.576388 9.309712 -0.534091 0.620108 0.003669 -0.002954 -956937.000000 1 0 0
-14.980663 -1.269055 -0.209712 15.035782 0.084511 1.584744 -0.000254 -0.006864 -11160.900000 1 0 0
5.517537 8.773745 -2.749812 10.723026 1.009420 1.830134 0.006753 -0.001607 1801850.000000 1 0 0
-5.680063 -5.669355 8.508888 11.696404 0.784455 0.756156 0.001921 -0.003938 -3070680.000000 1 0 0
3.453837 3.571645 6.947688 8.541428 0.802165 0.620805 -0.003782 -0.000151 1004360.000000 1 0 0
3.339137 2.217945 9.252688 10.083717 0.586312 0.408829 0.001807 -0.003154 764822.000000 1 0 0
9.930737 -3.296155 5.158688 11.666029 -0.320473 1.112749 0.014076 -0.006970 -233653.000000 1 0 0
6.599537 10.013445 -4.956912 12.976669 0.988073 1.962741 0.009081 -0.004876 82188.800000 1 0 0
-4.472563 12.007445 -8.571712 15.416121 -1.214235 2.160389 0.005306 -0.005294 -535202.000000 1 0 0
-3.395163 -7.236155 2.084888 8.260498 1.132096 1.315644 0.002275 -0.001516 945161.000000 1 0 0
-7.412163 -4.086655 1.217388 8.551195 0.503875 1.427946 0.001774 -0.003294 1686910.000000 1 0 0
-2.063863 -3.888755 -10.914412 11.768872 1.082871 2.758189 0.005940 -0.001000 -536139.000000 1 0 0
-5.280363 8.335645 -4.406212 10.806475 -1.006131 1.990772 -0.003257 -0.001152 -1271530.000000 1 0 0
-10.959763 -3.299155 -10.164312 15.307321 0.292396 2.296974 0.006297 0.001437 -443011.000000 1 0 0
4.722837 -11.379155 -7.754712 14.557676 -1.177390 2.132571 -0.010486 0.000488 -2554310.000000 1 0 0
-9.400763 -3.912755 7.240688 12.494461 0.394408 0.952667 0.002681 -0.002327 -1015390.000000 1 0 0
-5.693263 -9.703655 -5.179912 12.385704 1.040204 2.002278 0.010907 -0.002007 488933.000000 1 0 0
4.918837 4.402345 -9.492112 11.561825 0.730044 2.533935 0.000668 0.004030 680670.000000 1 0 0
-3.440563 -7.092755 -14.044212 16.105420 1.119155 2.630106 -0.003101 0.001707 278457.000000 1 0 0
0.637237 -0.775355 -8.774512 8.831722 -0.882865 3.027709 0.003885 -0.006541 -221125.000000 1 0 0
-7.693363 2.150145 -2.940912 8.512339 -0.272527 1.923555 -0.000967 -0.001359 -539383.000000 1 0 0
-2.312863 7.454045 -12.669712 14.880649 -1.269933 2.589487 0.008109 -0.008385 -184710.000000 1 0 0
-9.812563 8.831145 7.578988 15.222239 -0.732806 1.049633 -0.005374 -0.009487 -262046.000000 1 0 0
-10.654763 -3.008455 -14.371912 18.141848 0.275194 2.485197 0.008757 0.011850 -595652.000000 1 0 0
-3.149063 4.869945 8.018188 9.895670 -0.996792 0.626180 -0.001777 -0.001762 -259734.000000 1 0 0
8.693637 -2.180755 -3.649312 9.677422 -0.245774 1.957455 0.006423 -0.004333 -4885030.000000 1 0 0
1.929637 -8.434755 -1.117012 8.724467 -1.345894 1.699181 0.000631 -0.002801 152846.000000 1 0 0
-13.646363 -2.786455 5.069288 14.821782 0.201421 1.221735 0.004441 -0.002811 50658.300000 1 0 0
7.041437 2.740345 -1.968112 7.807996 0.371139 1.825609 0.004074 -0.001994 1111570.000000 1 0 0
-11.150963 4.562545 8.931288 14.997622 -0.388379 0.932892 -0.003600 -0.005434 -2660020.000000 1 0 0
-1.907663 -2.394255 8.008388 8.573559 0.898030 0.365123 -0.002225 -0.004220 -963416.000000 1 0 0
3.188637 11.812445 -9.941112 15.764738 1.307142 2.253112 -0.001025 -0.009190 720318.000000 1 0 0
3.593837 -5.055755 -7.036412 9.380162 -0.952832 2.419067 -0.002777 -0.003146 233626.000000 1 0 0
8.271337 -13.748655 -9.860412 18.832639 -1.029193 2.121845 0.003903 0.013620 -207758.000000 1 0 0
-6.247463 -5.739255 -0.460812 8.496010 0.743026 1.625062 0.005008 -0.001450 -822379.000000 1 0 0
-1.251363 -3.989655 9.871588 10.720611 1.266862 0.400658 -0.002722 -0.004565 71040.900000 1 0 0
2.771037 3.229545 1.858088 4.643393 0.861660 1.159108 -0.004383 0.000917 -1063410.000000 1 0 0
-9.068663 13.266245 7.671588 17.806941 -0.971169 1.125395 -0.008654 -0.013871 -815736.000000 1 0 0
4.058637 -11.026155 0.062688 11.749578 -1.218096 1.565461 -0.003391 -0.004720 421365.000000 1 0 0
-12.484663 -1.426355 -9.115812 15.524153 0.113755 2.198394 0.004101 -0.002691 -175627.000000 1 0 0
-4.310663 1.026045 -13.507912 14.216127 -0.233676 2.824617 0.006457 -0.008239 1026140.000000 1 0 0
3.759337 -3.375755 4.995088 7.104874 -0.731690 0.791118 0.000789 0.001616 -633388.000000 1 0 0
1.770437 -1.267755 1.120588 2.448953 -0.621429 1.095527 -0.001416 -0.000944 897409.000000 1 0 0
8.127137 -9.071955 7.295788 14.197861 -0.840277 1.031112 0.005934 -0.005068 -1467150.000000 1 0 0
-0.088263 2.300645 -6.425512 6.825538 -1.532451 2.797532 0.005110 -0.004986 544635.000000 1 0 0
-3.759763 -9.703155 -3.379412 10.941091 1.201131 1.884805 0.010213 0.000378 757110.000000 1 0 0
-9.381463 2.342145 -5.496012 11.122214 -0.244655 2.087650 -0.003935 -0.000529 239907.000000 1 0 0
8.802437 -7.698655 5.274788 12.828702 -0.718606 1.147058 0.002894 -0.003536 1327840.000000 1 0 0
-5.527463 -4.196555 4.684288 8.372961 0.649375 0.977069 -0.003132 -0.002391 77806.400000 1 0 0
-0.319963 -12.471755 10.338988 16.203139 1.545147 0.878787 0.009296 -0.007543 -824443.000000 1 0 0
-14.057463 -8.348255 3.148088 16.649807 0.535897 1.380575 -0.009205 -0.003071 -832660.000000 1 0 0
10.950437 -1.298355 -3.633912 11.610475 -0.118016 1.889131 0.012025 -0.003745 -76493.900000 1 0 0
-13.594063 3.058345 2.614688 14.177045 -0.221292 1.385303 -0.004592 -0.000377 -169309.000000 1 0 0
-6.326363 6.080445 0.977088 8.828894 -0.765580 1.459900 -0.002819 -0.000769 849684.000000 1 0 0
7.094837 -6.834455 -0.480712 9.862940 -0.766707 1.619555 0.000174 -0.004822 -376231.000000 1 0 0
-6.918963 7.795245 10.074688 14.496110 -0.844881 0.802387 -0.004909 -0.003391 133941.000000 1 0 0
-12.572563 -5.006655 -1.890912 13.664241 0.378972 1.709626 0.000566 -0.003684 -3935840.000000 1 0 0
-9.413063 -5.559655 0.227288 10.934678 0.533503 1.550009 -0.000144 -0.000679 -1092490.000000 1 0 0
-1.865863 1.870045 2.198088 3.436582 -0.786518 0.876800 0.000191 -0.002106 280946.000000 1 0 0
-7.070263 7.342045 7.585888 12.705901 -0.804254 0.930994 -0.002590 -0.003298 84344.200000 1 0 0
5.729937 7.118845 -0.431712 9.148579 0.893076 1.618003 0.007336 -0.001032 -1249080.000000 1 0 0
-0.134963 -3.998355 7.507488 8.506905 1.537055 0.489609 -0.000058 -0.004738 -325622.000000 1 0 0
6.376337 0.650745 13.051988 14.540823 0.101704 0.456479 0.008523 -0.002104 377333.000000 1 0 0
5.928337 6.161145 -7.840512 11.600798 0.804653 2.312927 0.003221 0.000218 -374969.000000 1 0 0
10.034437 5.296245 8.991388 14.477057 0.485645 0.900678 0.008589 -0.000526 -1943620.000000 1 0 0
-1.254563 -4.978355 -8.509712 9.938469 1.323933 2.598742 0.004252 0.000233 554205.000000 1 0 0
9.980537 -3.586555 -7.969912 13.266273 -0.344984 2.215254 0.012461 -0.005527 530990.000000 1 0 0
8.367937 -5.414755 1.224188 10.041941 -0.574322 1.448585 0.005116 -0.004312 1033810.000000 1 0 0
15.730137 3.203745 -5.014912 16.818161 0.200921 1.873586 0.008282 -0.000040 -1003520.000000 1 0 0
-6.893563 3.602745 1.193088 7.869208 -0.481583 1.418595 -0.000995 -0.004132 729319.000000 1 0 0
-1.770663 3.819545 0.309688 4.221383 -1.136707 1.497369 0.000777 -0.003454 -691189.000000 1 0 0
-2.629663 9.996945 6.898188 12.427350 -1.313577 0.982336 -0.005551 0.004560 994116.000000 1 0 0
5.477137 -5.768055 -8.788512 11.853584 -0.811263 2.405984 0.000270 -0.002692 83225.500000 1 0 0
-1.136263 -1.005055 6.310588 6.490358 0.724201 0.235910 -0.001820 -0.001771 274389.000000 1 0 0
-5.685263 5.006445 -7.779712 10.858666 -0.721993 2.369499 0.003591 -0.004511 -295015.000000 1 0 0
6.702437 -1.233555 2.469788 7.248736 -0.182009 1.223114 0.002463 -0.002156 -1660590.000000 1 0 0
8.759737 7.528445 3.192788 11.983504 0.709947 1.301107 0.005358 -0.001513 -793317.000000 1 0 0
-5.343763 -5.001455 -7.657212 10.592604 0.752322 2.378762 0.004103 -0.002294 115678.000000 1 0 0
-2.220063 7.875445 -10.131312 13.022857 -1.296030 2.462215 0.005945 -0.004550 68374.400000 1 0 0
-2.797163 -2.166155 1.599088 3.882451 0.658942 1.146285 -0.003972 -0.000425 -235435.000000 1 0 0
5.887437 -2.084755 -9.170512 11.095333 -0.340325 2.543693 0.003249 -0.000521 1053440.000000 1 0 0
1.093037 -7.723055 5.121888 9.331348 -1.430201 0.989760 0.000149 -0.003431 356613.000000 1 0 0
1.652237 11.753745 1.179388 11.927756 1.431140 1.471757 -0.001671 -0.003237 12121.800000 1 0 0
-1.135163 7.070545 2.557588 7.604107 -1.411607 1.227765 -0.001106 0.002098 360027.000000 1 0 0
8.872937 7.842545 -6.569812 13.542413 0.723833 2.077307 0.005055 -0.004285 -511706.000000 1 0 0
3.694037 -10.977355 5.429788 12.791827 -1.246186 1.132416 0.007350 -0.002581 183085.000000 1 0 0
7.852937 -7.074655 12.384088 16.281431 -0.733308 0.706519 0.009818 -0.005824 -24812.100000 1 0 0
-8.707563 0.066145 -3.930212 9.553669 -0.007596 1.994767 -0.000664 -0.001122 -1048840.000000 1 0 0
-3.263163 -5.066955 11.136688 12.662862 0.998645 0.496036 0.001194 -0.005901 -771054.000000 1 0 0
-8.272563 0.217545 -11.636212 14.278798 -0.026291 2.523404 0.002234 -0.001552 -2367530.000000 1 0 0
1.413437 -5.127055 5.461988 7.623504 -1.301796 0.772072 -0.000549 -0.001205 -604860.000000 1 0 0
6.716837 3.734245 -7.609512 10.815044 0.507402 2.351254 0.003190 0.001062 -401763.000000 1 0 0
16.354737 4.222345 -1.128912 16.928676 0.252656 1.637532 -0.000446 0.008282 5645.930000 1 0 0
8.021637 7.546945 0.141288 11.014672 0.754917 1.557969 0.004767 -0.001888 -2069970.000000 1 0 0
5.304737 -10.399955 13.886988 18.142429 -1.099123 0.699068 0.004998 -0.002505 833475.000000 1 0 0
-5.405163 -9.098655 8.915988 13.838213 1.034755 0.870686 -0.001015 -0.007388 301355.000000 1 0 0
-12.453063 -3.117655 2.902088 13.161332 0.245310 1.348468 0.001864 -0.002271 -584101.000000 1 0 0
-2.027763 -1.211055 -5.903512 6.358454 0.538386 2.761017 0.005226 -0.006295 -1264180.000000 1 0 0
-2.381763 12.949345 -4.476412 13.906710 -1.388900 1.898520 -0.003669 0.004128 500262.000000 1 0 0
3.938337 -0.421755 -4.946012 6.336515 -0.106683 2.466353 0.001709 -0.002871 -430806.000000 1 0 0
-8.723963 3.931445 -7.471612 12.140378 -0.423393 2.233734 -0.000888 -0.002034 406597.000000 1 0 0
-4.532263 7.970045 -11.294712 14.547630 -1.053738 2.459722 0.007107 -0.009014 -2391800.000000 1 0 0
-10.097163 -6.421555 7.422788 14.081436 0.566453 1.015573 0.005198 -0.001349 -1671610.000000 1 0 0
8.084737 5.245045 4.199888 10.512494 0.575502 1.159810 0.000590 0.000758 -1389350.000000 1 0 0
-6.689263 -7.499655 4.063588 10.839917 0.842451 1.186537 0.004122 -0.000445 -522430.000000 1 0 0
-4.138363 11.769545 8.114388 14.882591 -1.232682 0.994137 -0.005534 -0.000166 -710983.000000 1 0 0
-7.297763 10.055545 -8.029412 14.793336 -0.943000 2.144531 0.002823 -0.005775 -1446410.000000 1 0 0
13.099037 5.473145 4.583888 14.918181 0.395780 1.258475 0.002052 -0.003663 -757034.000000 1 0 0
5.405237 4.030045 -3.827012 7.752669 0.640667 2.087064 0.004898 -0.000085 409893.000000 1 0 0
-2.882163 -4.195755 5.149388 7.240678 0.968901 0.779628 -0.001292 -0.002605 -2706210.000000 1 0 0
12.348337 -2.504955 -5.269212 13.657263 -0.200142 1.966890 0.011509 -0.003487 -2073220.000000 1 0 0
-5.280163 9.716545 7.040988 13.109800 -1.073019 1.003827 -0.008845 0.003775 -509748.000000 1 0 0
1.782237 3.769145 -0.430912 4.191480 1.129104 1.673785 -0.000166 -0.001485 486800.000000 1 0 0
-0.125363 9.670845 7.685688 12.353572 -1.557834 0.899319 -0.002952 0.003592 -940609.000000 1 0 0
-5.509563 2.062945 5.874888 8.314164 -0.358271 0.786098 0.000092 -0.003902 560402.000000 1 0 0
8.876237 0.821745 10.695688 13.923383 0.092315 0.694800 0.015845 -0.002704 -822096.000000 1 0 0
0.421337 -2.853455 -10.105012 10.508616 -1.424197 2.863545 0.003746 -0.001267 -1510520.000000 1 0 0
1.308137 10.553245 -2.572412 10.940727 1.447469 1.808141 0.001487 0.000160 -2004040.000000 1 0 0
2.271037 -4.298755 11.679388 12.650889 -1.084765 0.394453 -0.000249 -0.005358 -754971.000000 1 0 0
6.612837 -3.109955 9.411488 11.915433 -0.439599 0.660221 0.007789 -0.007240 357343.000000 1 0 0
-10.650963 -8.254955 5.680888 14.623945 0.659337 1.171831 0.006070 -0.001125 -1533850.000000 1 0 0
-2.984663 0.925645 -6.880512 7.556883 -0.300728 2.715279 0.009677 -0.007339 557411.000000 1 0 0
11.173737 2.527845 -5.002012 12.500501 0.222486 1.982471 0.002923 -0.000539 -3536830.000000 1 0 0
-1.989763 -4.122555 0.059188 4.578004 1.121123 1.557867 -0.001617 -0.001395 995418.000000 1 0 0
-1.390263 -6.393355 -10.681912 12.526415 1.356675 2.592026 0.000260 0.001389 1276560.000000 1 0 0
0.324037 6.807045 -6.595512 9.483757 1.523229 2.339847 0.007516 -0.001406 -3050960.000000 1 0 0
2.119037 3.757945 -6.167512 7.526664 1.057358 2.531198 0.004138 -0.000973 -1585090.000000 1 0 0
1.426237 -14.747455 6.408188 16.142691 -1.474385 1.162582 0.026527 -0.011029 -682006.000000 1 0 0
-1.573863 5.416645 -10.640812 12.043420 -1.288022 2.654158 0.010590 -0.007120 -515992.000000 1 0 0
13.694537 4.386745 -0.731812 14.398591 0.310000 1.621644 0.001003 0.001911 112330.000000 1 0 0
-2.435863 3.374745 -6.210512 7.476148 -0.945594 2.551178 0.007004 -0.006242 -1808750.000000 1 0 0
5.535237 7.880345 14.108088 17.081476 0.958454 0.598948 0.008036 -0.000433 366192.000000 1 0 0
15.906237 0.621045 -5.782412 16.936067 0.039024 1.919230 0.010100 -0.005455 220117.000000 1 0 0
6.131837 -8.179955 10.526788 14.673935 -0.927540 0.770762 0.002089 -0.002649 781716.000000 1 0 0
0.070937 -5.820255 -6.467312 8.700950 -1.558609 2.408768 -0.001010 -0.000564 -944216.000000 1 0 0
8.801437 5.520445 -7.456312 12.788167 0.560195 2.193291 0.004454 0.002449 71360.100000 1 0 0
-15.961063 -0.690755 5.191888 16.798463 0.043251 1.256582 -0.002826 -0.001689 -212864.000000 1 0 0
-0.245363 4.097845 -12.362412 13.026196 -1.510992 2.820980 0.009937 -0.006594 552326.000000 1 0 0
-11.358663 3.801245 5.809688 13.312443 -0.322940 1.119191 -0.000420 -0.006660 -759532.000000 1 0 0
5.140437 -9.720255 -9.722312 14.677562 -1.084346 2.294805 -0.005895 0.000810 164168.000000 1 0 0
1.620837 11.043245 -11.867812 16.291879 1.425065 2.386852 0.002692 -0.003614 -3263920.000000 1 0 0
5.843137 2.318445 1.233988 6.406260 0.377728 1.376963 0.002532 -0.000725 -346446.000000 1 0 0
5.765537 4.467745 4.969688 8.826095 0.659251 0.972703 -0.001938 0.000669 -471948.000000 1 0 0
0.425137 -1.587255 -6.287512 6.498687 -1.309095 2.885966 0.001728 -0.004358 492998.000000 1 0 0
12.911137 7.004045 -4.559412 15.379933 0.497052 1.871772 0.003889 0.001340 -1129230.000000 1 0 0
7.335637 3.162845 12.728488 15.027626 0.407078 0.560469 0.009185 0.002563 -117047.000000 1 0 0
-2.451063 -0.057055 8.603388 8.945906 0.023274 0.277613 -0.000521 -0.003060 958947.000000 1 0 0
2.129137 -15.259055 13.287988 20.345580 -1.432159 0.859107 0.026517 -0.004709 116169.000000 1 0 0
18.897237 4.561545 -1.599312 19.505668 0.236856 1.652881 0.009886 0.003141 698282.000000 1 0 0
-0.474963 -13.196855 7.096488 14.991422 1.534821 1.077684 0.007019 -0.007632 -1758200.000000 1 0 0
4.332437 1.527645 -0.561412 4.628055 0.338995 1.692402 0.001992 -0.001530 296813.000000 1 0 0
2.743437 -0.479255 -7.339012 7.849665 -0.172946 2.778903 0.000828 -0.003742 498041.000000 1 0 0
7.235337 -11.282855 0.811188 13.427992 -1.000584 1.510349 -0.005860 -0.001404 190053.000000 1 0 0
-11.782963 -7.324655 1.339788 13.938573 0.556173 1.474527 0.000295 0.002624 -56736.300000 1 0 0
0.130037 -6.968755 10.015188 12.201821 -1.552138 0.607996 -0.001396 -0.006962 -1770920.000000 1 0 0
-4.645563 -7.175255 10.538388 13.569199 0.996221 0.681481 0.002809 -0.006023 -1337430.000000 1 0 0
11.864237 0.744645 -1.644912 12.000848 0.062682 1.708296 0.004395 -0.003335 -259769.000000 1 0 0
6.526237 -9.651255 -7.548212 13.882147 -0.976219 2.145678 -0.008107 -0.001483 -498826.000000 1 0 0
-11.021863 4.848845 3.432588 12.520999 -0.414448 1.293094 -0.004048 -0.004400 285399.000000 1 0 0
6.022237 -9.132155 2.009288 11.122088 -0.987804 1.389142 -0.001124 -0.005150 2504420.000000 1 0 0
11.602537 -1.414055 5.864888 13.077283 -0.121277 1.105733 0.015208 -0.008273 317655.000000 1 0 0
-6.493163 3.563845 4.109388 8.470491 -0.501968 1.064271 -0.001049 -0.005418 -1339550.000000 1 0 0
9.560937 6.277045 -3.028412 11.831487 0.580952 1.829639 0.005452 0.001110 972283.000000 1 0 0
-2.394763 6.628745 10.996888 13.061649 -1.224117 0.569961 -0.004562 -0.001624 503542.000000 1 0 0
1.897337 9.766445 2.994788 10.389999 1.378915 1.278411 -0.001929 0.000666 96678.200000 1 0 0
2.894537 6.131245 -5.599712 8.793593 1.129720 2.261130 0.005015 -0.000619 -1746360.000000 1 0 0
12.037837 0.002845 -5.588112 13.271644 0.000236 2.005406 0.011872 -0.001817 188863.000000 1 0 0
-2.802763 -12.409455 6.178488 14.142976 1.348666 1.118692 0.000935 -0.004334 1058280.000000 1 0 0
10.866537 1.846545 -2.723312 11.353757 0.168322 1.813018 0.003575 -0.001537 355208.000000 1 0 0
-8.898563 5.303145 0.861788 10.394731 -0.537440 1.487795 -0.002186 -0.003041 -1419200.000000 1 0 0
1.092837 -10.160355 5.643988 11.673976 -1.463649 1.066185 0.003352 -0.005739 431361.000000 1 0 0
9.363537 -5.669355 -1.198012 11.011478 -0.544433 1.679809 0.002228 -0.003047 796128.000000 1 0 0
-7.831863 8.661145 -4.400012 12.478526 -0.835637 1.931152 -0.004043 -0.000731 -1002780.000000 1 0 0
-7.466063 -0.064055 -1.636912 7.643669 0.008579 1.786621 -0.002261 -0.002001 -1626880.000000 1 0 0
4.183537 8.778045 2.635488 10.074812 1.126051 1.306125 0.005065 -0.003634 2262020.000000 1 0 0
-1.322763 -10.593355 -3.682512 11.292908 1.446572 1.902962 0.005995 -0.000907 -120862.000000 1 0 0
3.185137 7.855645 -3.661012 9.233594 1.185593 1.978485 0.010354 -0.002577 -358501.000000 1 0 0
-4.279463 1.756545 -11.092212 12.018171 -0.389490 2.746481 0.008552 -0.008633 -514291.000000 1 0 0
1.375237 2.693445 10.951788 11.361671 1.098715 0.269425 0.000625 -0.002526 615215.000000 1 0 0
2.178237 5.542345 -8.025612 9.993636 1.196324 2.503230 0.004300 0.000369 868900.000000 1 0 0
15.562037 6.108745 4.034988 17.198107 0.374060 1.333971 0.012787 -0.005992 563219.000000 1 0 0
-4.427563 8.973245 4.617188 11.020020 -1.112428 1.138473 -0.006491 0.004008 -307030.000000 1 0 0
-0.932563 -8.253555 -12.331712 14.868153 1.458284 2.548837 -0.003149 0.000986 -426438.000000 1 0 0
14.253037 -4.293355 -5.285212 15.796058 -0.292579 1.911967 0.012641 -0.002789 -1052190.000000 1 0 0
-6.105863 -6.182355 -5.586812 10.330322 0.791623 2.142204 0.007909 0.000282 615203.000000 1 0 0
-8.999663 2.657345 -12.188612 15.382382 -0.287113 2.485488 -0.003804 -0.004410 -549749.000000 1 0 0
10.511037 5.398345 13.809988 18.175252 0.474459 0.707754 0.018800 0.003675 956348.000000 1 0 0
-0.440763 10.925745 5.551588 12.263209 -1.530477 1.101002 -0.006459 0.007882 694606.000000 1 0 0
0.032637 11.432545 -0.569712 11.446777 1.567942 1.620587 0.001354 -0.000251 116523.000000 1 0 0
-1.530963 -0.533855 3.813688 4.144039 0.335521 0.401994 -0.000722 -0.001053 -374369.000000 1 0 0
-4.801563 6.769545 8.850388 12.133058 -0.953863 0.753287 -0.001594 -0.001081 -1175500.000000 1 0 0
3.413237 -8.769455 -11.494012 14.854826 -1.199618 2.455545 -0.007773 0.000227 657062.000000 1 0 0
6.658837 -3.828055 11.991788 14.240684 -0.521747 0.569669 0.013048 -0.006138 -420428.000000 1 0 0
-2.470063 -1.780155 -12.498812 12.864310 0.624479 2.902648 0.005993 -0.007283 999549.000000 1 0 0
-15.975463 -4.884855 5.272388 17.517856 0.296744 1.265084 -0.008789 -0.002479 551923.000000 1 0 0
-8.900063 7.190545 5.771088 12.814855 -0.679552 1.103646 -0.005470 -0.001684 -3901540.000000 1 0 0
-12.811763 1.551745 5.927288 14.201476 -0.120532 1.140246 -0.003145 -0.002933 84125.000000 1 0 0
-3.503663 3.732145 10.196288 11.409156 -0.816964 0.465286 0.001497 -0.002438 525933.000000 1 0 0
2.075137 -12.301655 -1.152412 12.528566 -1.403682 1.662909 -0.000603 -0.006232 -2103220.000000 1 0 0
10.220337 -5.248855 -3.678712 12.063942 -0.474444 1.880666 0.007986 -0.001555 942783.000000 1 0 0
3.178737 -13.489055 0.971388 13.892537 -1.339366 1.500818 0.003333 -0.006855 352377.000000 1 0 0
10.075037 -1.629055 -6.213612 11.948606 -0.160305 2.117680 0.010909 -0.003251 305155.000000 1 0 0
11.960337 -5.344055 -1.640712 13.202293 -0.420202 1.695393 0.006695 -0.000739 -945408.000000 1 0 0
1.474937 0.904545 5.988888 6.233812 0.550125 0.281246 -0.001780 -0.003258 120033.000000 1 0 0
-10.635963 11.554945 6.553688 17.017381 -0.826787 1.175461 -0.010831 -0.007996 -935164.000000 1 0 0
4.744837 -14.102155 3.088688 15.196192 -1.246233 1.366116 0.004815 -0.005277 -4925400.000000 1 0 0
5.265937 -3.347855 -1.732112 6.475990 -0.566297 1.841559 0.002641 -0.004648 -1389560.000000 1 0 0
2.056537 -2.922955 -7.663312 8.455730 -0.957671 2.705210 -0.001938 -0.002283 -236684.000000 1 0 0
-2.733263 14.791445 -8.766012 17.409783 -1.388071 2.098454 0.011003 -0.010339 -2626330.000000 1 0 0
-2.302963 6.107445 -8.144112 10.437005 -1.210208 2.465960 0.008791 -0.004223 -297176.000000 1 0 0
2.512037 -3.531155 -11.362312 12.160655 -0.952465 2.777228 0.003856 -0.001519 -1574190.000000 1 0 0
14.737337 2.866345 -2.668012 15.248716 0.192097 1.746668 0.008839 -0.000472 669687.000000 1 0 0
-3.467863 13.281245 2.267488 13.912549 -1.315389 1.407085 -0.009988 0.009034 -240834.000000 1 0 0
7.859337 -4.973055 13.934888 16.753553 -0.564158 0.588531 0.016513 -0.005189 -1209100.000000 1 0 0
-11.384663 7.303145 2.807688 13.814108 -0.570369 1.366122 -0.006170 -0.002839 861116.000000 1 0 0
-2.275663 12.029045 4.162688 12.930759 -1.383825 1.243038 -0.007608 0.006788 1062790.000000 1 0 0
1.766837 1.373645 0.706588 2.346887 0.660845 1.264977 -0.003832 0.000096 -1416100.000000 1 0 0
-6.914563 8.578945 5.198588 12.183381 -0.892412 1.129961 -0.004881 -0.001007 -229559.000000 1 0 0
-1.188263 9.180345 1.063988 9.317873 -1.442076 1.456359 -0.000827 0.002755 144894.000000 1 0 0
4.915637 13.023245 -8.549912 16.336138 1.209879 2.121602 0.003991 -0.011873 -3934430.000000 1 0 0
8.912237 6.866145 7.211988 13.363558 0.656441 1.000744 -0.001362 -0.000630 -1466450.000000 1 0 0
7.192237 -13.765555 2.872988 15.794710 -1.089326 1.387883 0.005330 -0.006816 -157455.000000 1 0 0
4.248037 -13.288155 -1.251612 14.006692 -1.261378 1.660274 -0.005127 0.003109 -3211650.000000 1 0 0
11.961437 -11.947055 -4.764512 17.564416 -0.784797 1.845498 0.011342 0.006172 -869105.000000 1 0 0
2.987237 -0.093055 -2.008812 3.601052 -0.031141 2.162578 0.000787 -0.001737 246152.000000 1 0 0
-13.510363 -3.273455 -10.790012 17.597437 0.237711 2.230849 0.000353 -0.000068 14040.600000 1 0 0
-6.570563 13.703045 5.031088 16.008047 -1.123686 1.251093 -0.007891 0.002546 117005.000000 1 0 0
7.241737 -4.223655 -0.608712 8.405507 -0.528003 1.643278 -0.000118 -0.003106 -2318670.000000 1 0 0
11.789437 1.983445 -7.199912 13.955774 0.166678 2.112865 0.010918 -0.001483 -778004.000000 1 0 0
-7.457663 -4.377055 9.658988 12.964235 0.530747 0.730188 0.009262 -0.003026 658726.000000 1 0 0
1.030537 2.879945 8.511788 9.044701 1.227161 0.344986 -0.001006 -0.001807 -2338700.000000 1 0 0
1.631537 7.982045 -8.713812 11.929186 1.369173 2.389794 0.005961 -0.004714 970985.000000 1 0 0
-8.521363 -2.061955 -5.493012 10.345940 0.237411 2.130499 0.006018 -0.002543 -1750580.000000 1 0 0
6.613237 -0.502155 7.062788 9.688655 -0.075786 0.753973 0.005776 -0.002979 1329760.000000 1 0 0
-10.945463 6.505145 7.083888 14.570570 -0.536235 1.063086 -0.000651 -0.006547 990617.000000 1 0 0
-5.911463 11.020145 4.869488 13.420167 -1.078436 1.199473 -0.010460 0.004335 -288475.000000 1 0 0
6.071837 -1.183655 -6.910712 9.275031 -0.192527 2.411463 0.003856 -0.002928 -633852.000000 1 0 0
4.456037 -5.837755 11.426788 13.583340 -0.918829 0.571232 0.004875 -0.008303 -1114240.000000 1 0 0
-8.955563 -7.297555 2.749288 11.874974 0.683738 1.337157 0.003540 -0.000570 -3191380.000000 1 0 0
-1.236963 12.751545 -9.388212 15.883025 -1.474094 2.203199 0.009707 -0.003465 123728.000000 1 0 0
-4.620663 9.333545 -2.365012 10.679834 -1.111109 1.794094 -0.005490 0.002282 585001.000000 1 0 0
-3.255863 9.629545 -0.256012 10.168299 -1.244751 1.595977 -0.001324 0.000842 -2210640.000000 1 0 0
-3.435863 10.682845 -6.491012 12.963856 -1.259621 2.095204 -0.000309 -0.000042 578744.000000 1 0 0
4.806937 -4.828355 0.394688 6.824620 -0.787621 1.512931 0.000294 -0.004552 -715917.000000 1 0 0
-2.165063 3.010745 -10.996812 11.605256 -0.947358 2.816345 0.010528 -0.007345 -1537580.000000 1 0 0
-3.634563 12.177645 -2.355512 12.924918 -1.280751 1.754066 -0.006761 0.004948 -327889.000000 1 0 0
-0.264063 0.353945 0.124488 0.458806 -0.929824 1.296022 -0.003244 -0.000126 -1429810.000000 1 0 0
-4.735763 -1.682755 0.103288 5.026906 0.341415 1.550248 -0.000559 -0.002894 55658.100000 1 0 0
2.568137 2.485545 -2.491412 4.356650 0.769057 2.179573 -0.002769 -0.001369 1576140.000000 1 0 0
6.038537 -9.786455 8.463488 14.278279 -1.017949 0.936324 0.003157 -0.003369 -348181.000000 1 0 0
-4.278363 -5.541455 6.535588 9.577370 0.913323 0.819757 -0.001905 -0.004836 201219.000000 1 0 0
-6.395063 5.271545 -12.132212 14.692739 -0.689392 2.542289 0.006446 -0.011838 838937.000000 1 0 0
-12.933463 3.132045 7.930488 15.491184 -0.237592 1.033360 -0.002181 -0.007617 778925.000000 1 0 0
4.682537 -7.390455 -4.940612 10.047619 -1.006042 2.084860 -0.003605 -0.002467 563028.000000 1 0 0
-6.057463 2.474845 -0.992012 6.618293 -0.387865 1.721253 0.000950 -0.003182 -853378.000000 1 0 0
-6.877763 -2.747055 -14.514812 16.295083 0.379999 2.669785 0.001055 0.002660 -658307.000000 1 0 0
2.666037 -6.146455 0.861188 6.754873 -1.161536 1.442957 0.001387 -0.002694 -280876.000000 1 0 0
4.766637 -7.999855 12.951388 15.951707 -1.033441 0.623376 0.003260 -0.003095 211415.000000 1 0 0
-10.092163 -1.670355 8.115088 13.057430 0.164023 0.900151 0.006783 -0.001534 4823.030000 1 0 0
-4.383163 13.349445 -0.130312 14.051219 -1.253546 1.580071 -0.008271 0.008822 360268.000000 1 0 0
6.839037 2.218245 -4.476212 8.469328 0.313644 2.127653 0.003486 -0.000334 -1000930.000000 1 0 0
5.030437 4.505445 0.034688 6.753187 0.730399 1.565660 0.000208 -0.000480 -989111.000000 1 0 0
-5.792763 12.367845 1.805188 13.776007 -1.132769 1.439380 -0.009826 0.007237 -749155.000000 1 0 0
6.492337 -7.306655 6.602288 11.795247 -0.844343 0.976723 0.001945 -0.004329 -1658850.000000 1 0 0
-0.270263 4.891745 7.547388 8.998070 -1.515604 0.575760 -0.002219 -0.000441 -1224990.000000 1 0 0
-5.795663 -3.367055 -1.578312 6.886061 0.526303 1.802056 0.000503 -0.001722 -707179.000000 1 0 0
2.231937 -6.550555 -5.282612 8.706165 -1.242408 2.222783 -0.004756 -0.000438 -1218730.000000 1 0 0
-14.340763 -4.706555 -3.802712 15.565017 0.317118 1.817606 0.005165 -0.003996 -502977.000000 1 0 0
-12.425463 -5.190855 -6.223812 14.834856 0.395722 2.003735 0.009404 -0.005260 -2221300.000000 1 0 0
-14.753263 -3.779555 -1.223112 15.278737 0.250791 1.650935 0.003434 -0.004096 463417.000000 1 0 0
11.979537 2.882145 8.641388 15.049573 0.236102 0.959176 0.017886 -0.004250 -1278920.000000 1 0 0
8.741737 -6.582855 7.666788 13.361571 -0.645442 0.959666 0.008732 -0.006369 -139771.000000 1 0 0
-8.865363 -1.674155 -9.746512 13.281263 0.186644 2.394775 0.004095 -0.001159 -81023.500000 1 0 0
-8.752063 5.126745 -3.819212 10.838288 -0.529895 1.930911 -0.003835 -0.002740 -65156.000000 1 0 0
-4.113563 -6.213455 4.063388 8.487611 0.986003 1.071574 0.001088 -0.001437 -1818950.000000 1 0 0
-0.207263 -9.322555 3.516488 9.965876 1.548568 1.210178 0.004461 -0.005580 -541569.000000 1 0 0
7.977337 -10.450655 3.250188 13.543184 -0.918816 1.328444 -0.002899 -0.002532 -181191.000000 1 0 0
-0.090863 6.447745 9.614888 11.577034 -1.556705 0.590767 -0.003466 -0.001621 -738425.000000 1 0 0
-0.009263 3.509145 -9.735612 10.348736 -1.568157 2.795643 0.010667 -0.004497 1073050.000000 1 0 0
4.426337 -3.141055 10.903888 12.180043 -0.617159 0.461859 0.008216 -0.006284 -926928.000000 1 0 0
8.538537 -9.165955 1.209188 12.585050 -0.820822 1.474567 -0.002528 -0.002833 -980485.000000 1 0 0
-0.303063 -0.547655 11.465188 11.482260 1.065360 0.054539 0.001056 -0.001850 -656749.000000 1 0 0
10.904537 6.018045 11.349488 16.850420 0.504289 0.831804 0.023712 -0.000553 264443.000000 1 0 0
-6.409863 -2.912655 -11.816512 13.754994 0.426509 2.604248 0.006811 -0.001567 -41178.600000 1 0 0
-1.583063 2.875045 8.647088 9.249005 -1.067476 0.362760 0.000373 -0.004225 484716.000000 1 0 0
-1.440363 13.498545 -6.827212 15.195268 -1.464494 2.036776 0.010552 -0.003411 596881.000000 1 0 0
7.726137 2.998745 9.820388 12.850124 0.370232 0.700957 0.005308 0.000035 1479020.000000 1 0 0
6.555637 8.457945 -7.889312 13.294903 0.911432 2.206084 0.009272 -0.003353 688670.000000 1 0 0
6.642537 -2.986055 -3.924012 8.272708 -0.422467 2.065002 0.005425 -0.005242 -1765260.000000 1 0 0
1.973437 8.265245 0.987888 8.554802 1.336421 1.455061 0.002119 0.002460 785517.000000 1 0 0
-17.587463 6.232245 6.205888 19.663996 -0.340551 1.249711 0.019631 -0.008188 -213588.000000 1 0 0
-14.426163 3.060545 -10.155312 17.905627 -0.209053 2.173847 0.000295 -0.004822 -605997.000000 1 0 0
-18.250363 0.116445 -4.227312 18.733912 -0.006380 1.798407 0.009852 -0.001761 368294.000000 1 0 0
-12.971963 7.984545 0.161388 15.233214 -0.551756 1.560202 -0.003501 -0.000620 357639.000000 1 0 0
-12.707363 -4.410155 -13.062412 18.749751 0.334049 2.341543 0.008131 0.017450 -176162.000000 1 0 0
-17.346363 -0.873955 -8.583612 19.373655 0.050340 2.029801 0.000467 -0.005035 -1153790.000000 1 0 0
-16.647763 -2.074455 -2.067512 16.903431 0.123970 1.693417 0.005000 -0.004800 -874699.000000 1 0 0
-15.312363 4.178045 1.619888 15.954577 -0.266370 1.469090 0.004301 0.000101 -2115120.000000 1 0 0
-13.152263 5.991845 4.294488 15.077362 -0.427481 1.281967 -0.003924 -0.003438 -320452.000000 1 0 0
-9.867963 14.245045 2.698988 17.538030 -0.964967 1.416289 0.003932 -0.002434 489295.000000 1 0 0
-11.891763 2.492945 -6.447912 13.755158 -0.206644 2.058686 -0.000335 0.000230 536774.000000 1 0 0
-15.935663 10.712845 3.884488 19.590805 -0.591862 1.371192 0.019261 -0.004721 -275264.000000 1 0 0
-12.844663 1.062045 -8.514312 15.446903 -0.082496 2.154596 0.003030 -0.004784 461574.000000 1 0 0
-12.235463 14.314645 4.034288 19.258532 -0.863550 1.359753 0.012874 -0.009103 -196539.000000 1 0 0
-10.483963 11.122945 -1.123712 15.326320 -0.814963 1.644181 0.005031 -0.002298 889409.000000 1 0 0
-16.953063 5.677745 8.727188 19.894897 -0.323169 1.116684 0.008630 -0.012196 722720.000000 1 0 0
-11.709663 12.489645 -8.976012 19.330707 -0.817619 2.053685 0.011444 -0.018599 -502620.000000 1 0 0
-17.168763 -0.465655 2.976688 17.431119 0.027116 1.399187 0.003349 -0.001562 617329.000000 1 0 0
-13.257363 14.947945 -0.727112 19.993184 -0.845265 1.607172 0.045315 -0.006371 307869.000000 1 0 0
-16.569263 4.473345 -10.136812 19.932542 -0.263692 2.104303 0.027585 -0.010423 449937.000000 1 0 0
-11.849663 7.633645 -8.994312 16.720786 -0.572293 2.138755 0.000143 -0.003112 -202363.000000 1 0 0
-14.878463 13.475645 -2.137212 20.187356 -0.735964 1.676864 0.049185 -0.019987 297101.000000 1 0 0
-11.862963 10.570145 -5.581712 16.840824 -0.727832 1.908625 0.016974 -0.011854 1321400.000000 1 0 0
-17.630563 3.007845 -0.811612 17.903703 -0.168977 1.616144 0.011865 -0.005701 -417230.000000 1 0 0
-9.397463 15.352645 0.426588 18.005498 -1.021522 1.547102 0.014655 -0.005439 260069.000000 1 0 0
-8.131563 13.324845 -3.640912 16.029037 -1.022870 1.799941 0.012255 -0.004149 -400726.000000 1 0 0
-17.791763 11.720945 2.263688 21.425490 -0.582526 1.464945 0.062091 0.004725 -75317.100000 1 0 0
-7.968463 15.721045 -7.439412 19.130930 -1.101671 1.970199 0.041117 -0.020050 126740.000000 1 0 0
-6.111763 15.298245 -5.740912 17.445573 -1.190715 1.906121 0.012887 -0.002564 -946120.000000 1 0 0
-17.258363 5.502245 -0.227612 18.115672 -0.308629 1.583361 0.023077 0.000291 648578.000000 1 0 0
-5.276763 12.210545 -12.223912 18.065593 -1.162887 2.313987 0.000702 -0.009283 -1434430.000000 1 0 0
-11.141863 3.807145 -11.365712 16.365050 -0.329259 2.338537 -0.001586 -0.009493 107870.000000 1 0 0
-11.944463 11.053045 1.081188 16.309781 -0.746656 1.504457 0.005145 -0.001143 79745.500000 1 0 0
-12.970763 0.144345 -11.021212 17.021417 -0.011128 2.275084 0.008007 -0.007835 10224.400000 1 0 0
-14.115663 -2.171255 -13.044812 19.342529 0.152623 2.310963 0.011081 0.002071 68267.400000 1 0 0
-18.671463 -2.334555 -3.507612 19.140977 0.124388 1.755089 -0.001209 0.000840 793571.000000 1 0 0
-18.326663 4.810645 -5.232112 19.656649 -0.256703 1.840219 0.032160 -0.009254 400726.000000 1 0 0
-8.158663 15.677045 -2.358612 17.829654 -1.090946 1.703471 0.020907 -0.002583 -820236.000000 1 0 0
-16.064163 9.097645 -5.310312 19.209994 -0.515295 1.850879 0.039535 -0.009365 -760933.000000 1 0 0
-18.245463 1.747645 1.983288 18.435959 -0.095494 1.463011 0.015930 -0.005952 -155418.000000 1 0 0
-15.680763 -2.782355 -8.654812 18.125496 0.175610 2.068596 -0.002189 -0.004241 -641004.000000 1 0 0
-9.740863 10.492545 -7.214012 16.031839 -0.822532 2.037540 0.004205 -0.011612 502712.000000 1 0 0
-13.986963 12.000745 -7.635112 19.948632 -0.709117 1.963555 0.032012 -0.022385 557139.000000 1 0 0
-10.893463 6.553145 -3.888112 13.293933 -0.541571 1.867608 -0.002671 -0.000500 -665465.000000 1 0 0
-13.149063 5.121045 -12.521512 18.865609 -0.371388 2.296580 0.007788 -0.009461 176075.000000 1 0 0
-17.672763 9.153745 2.677588 20.082008 -0.477910 1.437065 0.038970 -0.005862 751112.000000 1 0 0
-13.461563 8.681145 -6.539812 17.301592 -0.572770 1.958420 0.012425 -0.009626 -1298270.000000 1 0 0
-15.666663 6.956945 -3.707812 17.538280 -0.417904 1.783816 0.016374 -0.004384 -737879.000000 1 0 0
-14.876463 -0.376055 -9.264012 17.529190 0.025273 2.127618 0.004440 -0.008171 442798.000000 1 0 0
-9.848563 5.862745 -6.076612 12.972709 -0.536949 2.058292 -0.004743 0.000715 94824.700000 1 0 0
-12.693563 12.437945 -0.992912 17.799294 -0.775227 1.626609 0.024411 -0.007080 -1037930.000000 1 0 0
-10.724563 3.540345 -13.924312 17.928658 -0.318852 2.460128 0.002931 -0.006501 352635.000000 1 0 0
-10.999463 6.375245 -11.850312 17.379926 -0.525281 2.321070 -0.006093 -0.007015 -784736.000000 1 0 0
-5.828763 11.685345 -14.777512 19.720462 -1.108101 2.417875 0.012490 -0.011247 -138289.000000 1 0 0
-15.524963 13.323745 3.465688 20.749882 -0.709244 1.402988 0.023830 -0.015558 33841.500000 1 0 0
-15.100963 11.085645 -3.211612 19.006447 -0.633248 1.740586 0.043412 -0.010052 712930.000000 1 0 0
-18.061463 7.806345 -4.522012 20.189206 -0.407962 1.796694 0.034683 -0.005127 192999.000000 1 0 0
-3.921363 16.193845 -10.568012 19.730701 -1.333218 2.136029 0.021675 -0.008722 -289922.000000 1 0 0
-15.810963 4.346745 -4.543612 17.015438 -0.268292 1.841105 0.015201 -0.001306 -1278940.000000 1 0 0
-18.692963 -1.713555 -6.068512 19.727898 0.091413 1.883477 0.003709 0.001806 529854.000000 1 0 0
-10.845363 8.536845 -5.944012 15.027671 -0.666852 1.977450 -0.001234 -0.003337 321241.000000 1 0 0
-10.979763 13.580645 -6.614612 18.674640 -0.890902 1.932858 0.016405 -0.014311 579358.000000 1 0 0
-9.474063 10.393745 -4.465812 14.755720 -0.831655 1.878268 -0.004634 -0.005338 -556172.000000 1 0 0
-11.016263 6.327645 -0.234312 12.706378 -0.521377 1.589238 -0.004001 0.000091 -861902.000000 1 0 0
-14.529263 9.432845 -1.436412 17.382212 -0.575834 1.653528 0.026549 -0.003491 429195.000000 1 0 0
-18.665663 3.505845 4.737588 19.574030 -0.185660 1.326334 0.015154 -0.001124 374060.000000 1 0 0
-14.725563 13.090745 0.392188 19.706943 -0.726694 1.550894 0.027285 -0.011088 100607.000000 1 0 0
-16.569263 2.374145 -8.763312 18.893720 -0.142317 2.053100 -0.003228 -0.009317 500951.000000 1 0 0
-9.161263 8.535045 -9.142012 15.503294 -0.750026 2.201461 0.000744 -0.002241 -2935880.000000 1 0 0
-17.559063 4.786245 -2.717512 18.401459 -0.266115 1.719018 0.010438 -0.003764 421125.000000 1 0 0
-13.437363 5.793745 -4.404212 15.281599 -0.407082 1.863147 0.005590 0.000286 -574461.000000 1 0 0
-12.066963 9.746145 3.267788 15.851730 -0.679401 1.363161 -0.007811 -0.001653 1232090.000000 1 0 0
-17.632463 2.615645 -4.032412 18.275822 -0.147269 1.793269 0.020143 -0.001221 1147920.000000 1 0 0
-11.364063 1.531345 -12.532812 16.987005 -0.133946 2.400584 0.007100 -0.006043 87112.300000 1 0 0
-11.084263 12.082945 3.420288 16.749830 -0.828479 1.365152 -0.001073 -0.003947 672766.000000 1 0 0
-15.850963 13.145245 -4.541812 21.087402 -0.692355 1.787878 0.028103 -0.012494 86157.000000 1 0 0
-11.083363 4.155445 -4.645512 12.715716 -0.358706 1.944790 -0.006335 0.000956 -565112.000000 1 0 0
-11.329363 15.022745 -8.793712 20.769369 -0.924646 2.007989 0.035935 -0.019307 421962.000000 1 0 0
-15.354463 7.305845 -0.323212 17.007038 -0.444111 1.589802 0.016284 0.001967 -1258940.000000 1 0 0
-12.697663 8.353745 -4.123112 15.748516 -0.581906 1.835693 0.007057 -0.005527 657897.000000 1 0 0
-19.321963 1.910845 -5.800212 20.264058 -0.098574 1.861088 0.028705 -0.007073 459857.000000 1 0 0
-12.573463 10.091745 -8.794512 18.365150 -0.676338 2.070163 0.006018 -0.014807 512985.000000 1 0 0
-16.706163 11.068945 -1.083912 20.069685 -0.585159 1.624830 0.040852 -0.002962 918445.000000 1 0 0
-10.799663 6.522045 -14.397112 19.142796 -0.543291 2.422024 -0.000747 -0.014715 -217845.000000 1 0 0
-13.399963 12.736945 -4.242412 18.968047 -0.760036 1.796365 0.024904 -0.021835 -459617.000000 1 0 0
-17.866363 7.984045 -0.086912 19.569349 -0.420253 1.575238 0.038081 -0.000283 -61608.700000 1 0 0
-12.746363 6.751245 -2.091512 14.574755 -0.487093 1.714796 -0.004605 0.001286 803145.000000 1 0 0
-13.772363 8.479845 -10.569012 19.320708 -0.551894 2.149609 0.001734 -0.006712 -728103.000000 1 0 0
-14.900463 1.473045 -0.947412 15.003041 -0.098539 1.633986 0.000407 -0.001716 -646979.000000 1 0 0
-13.350963 2.779045 -2.546412 13.872833 -0.205223 1.755397 -0.003259 -0.000909 143929.000000 1 0 0
-11.302963 9.398945 -10.875512 18.285893 -0.693683 2.207749 -0.001469 -0.007627 -796768.000000 1 0 0
-15.073963 4.308145 -7.920712 17.564798 -0.278379 2.038617 -0.002755 -0.001986 504819.000000 1 0 0
-18.388763 10.769545 4.650788 21.811912 -0.529808 1.355924 0.055327 -0.017923 342539.000000 1 0 0
-15.207963 6.265445 -6.152612 17.561109 -0.390795 1.928746 0.017720 -0.001541 508689.000000 1 0 0
-7.680063 11.321345 -12.949012 18.837015 -0.974735 2.328732 -0.000693 -0.004733 -245956.000000 1 0 0
-16.787463 9.225745 -2.823112 19.362418 -0.502507 1.717122 0.040321 -0.006546 849142.000000 1 0 0
-20.620763 -0.852155 -4.619112 21.148953 0.041302 1.790980 0.013922 -0.003217 1198360.000000 1 0 0
-15.362563 4.401645 4.151788 16.511213 -0.279042 1.316616 0.002454 -0.001137 10435.500000 1 0 0
-6.891563 12.591045 -9.435812 17.177386 -1.069999 2.152342 0.008416 -0.010548 -902959.000000 1 0 0
-17.258663 1.590345 5.708488 18.247670 -0.091888 1.252621 0.004039 -0.005390 -224868.000000 1 0 0
-10.274463 14.481245 -3.104512 18.025233 -0.953722 1.743891 0.024683 -0.012792 326217.000000 1 0 0
-9.950063 8.513545 -12.888812 18.374049 -0.707752 2.348252 -0.014256 -0.009256 228512.000000 1 0 0
-13.692263 11.623645 2.826888 18.181817 -0.703867 1.414684 0.010595 -0.006663 -27044.000000 1 0 0
-16.685763 6.931545 1.899388 18.167792 -0.393726 1.466058 0.015210 -0.000377 490882.000000 1 0 0
-9.309563 13.397745 -8.473012 18.383674 -0.963528 2.049804 0.025477 -0.016358 -689552.000000 1 0 0
-5.550463 9.828145 -12.971912 17.195074 -1.056698 2.425531 0.005915 -0.007244 -401811.000000 1 0 0
-15.967463 1.962145 3.128788 16.388996 -0.122271 1.378709 -0.001140 -0.000095 -592658.000000 1 0 0
-18.452363 -4.919455 4.235688 19.560976 0.260543 1.352530 0.003171 -0.004450 24319.400000 1 0 0
-5.201063 14.405745 -9.164412 17.848333 -1.224320 2.110009 0.011912 -0.009709 -154618.000000 1 0 0
-15.460263 -0.916555 -6.757912 16.897609 0.059215 1.982240 0.005165 -0.003775 573792.000000 1 0 0
-8.983063 11.079445 -9.611412 17.199673 -0.889513 2.163751 0.003716 -0.008888 288714.000000 1 0 0
-16.690463 1.221945 -6.031912 17.789004 -0.073082 1.916736 -0.000029 -0.003300 721245.000000 1 0 0
-11.055163 8.647545 -1.508512 14.116383 -0.663804 1.677863 -0.001336 -0.004826 -1332360.000000 1 0 0
-10.745663 11.060745 -12.673412 19.960579 -0.799846 2.258704 0.007277 -0.001541 -372785.000000 1 0 0
-13.905363 11.698245 -10.282012 20.878884 -0.699407 2.085710 0.024865 -0.015124 202320.000000 1 0 0
-13.115063 5.859845 -7.595712 16.249231 -0.420192 2.057201 0.002492 -0.003799 -2159560.000000 1 0 0
-8.742563 15.395745 -4.965812 18.388057 -1.054348 1.844248 0.027559 -0.015105 394969.000000 1 0 0
-8.651963 6.259845 -13.087012 16.891181 -0.626336 2.457169 -0.000330 -0.012060 -511796.000000 1 0 0
-16.322163 7.744845 4.405488 18.595804 -0.443039 1.331615 0.018021 0.003729 816908.000000 1 0 0
-12.664663 5.429245 -10.087312 17.077009 -0.404994 2.202717 0.001044 -0.008571 434563.000000 1 0 0
-12.383463 9.185445 -13.385912 20.418256 -0.638201 2.285754 0.005215 -0.001313 -875115.000000 1 0 0
-10.736063 5.328845 -8.491912 14.689187 -0.460723 2.187202 -0.004659 -0.001009 -1779030.000000 1 0 0
-17.612363 -4.417555 -2.595112 18.342430 0.245751 1.712754 -0.001127 -0.000625 390866.000000 1 0 0
-8.816663 13.322445 -11.026612 19.411524 -0.986177 2.174924 0.018541 -0.006975 280316.000000 1 0 0
-15.027563 6.252245 6.088288 17.377728 -0.394267 1.212852 -0.002159 -0.005469 -1062170.000000 1 0 0
-16.232763 -3.041355 -4.485512 17.113511 0.185212 1.835998 -0.005736 0.001025 172713.000000 1 0 0
-11.270463 -1.177955 -12.472012 16.851172 0.104139 2.404056 0.003284 0.000430 532647.000000 1 0 0
-15.388163 6.837745 -8.604412 18.909950 -0.418146 2.043191 0.014038 -0.006074 372079.000000 1 0 0
-14.925763 9.531945 1.099588 17.743885 -0.568336 1.508787 0.019258 -0.003417 -413431.000000 1 0 0
-19.406563 5.404845 7.785188 21.597133 -0.271623 1.202021 0.030071 -0.013708 -755077.000000 1 0 0
-16.346463 0.557345 0.880488 16.379644 -0.034083 1.517015 0.006230 -0.005046 -1772710.000000 1 0 0
-17.429563 3.796745 6.992688 19.159922 -0.214483 1.197202 -0.000047 -0.000967 515521.000000 1 0 0
-15.380963 4.043445 -1.573212 15.981191 -0.257070 1.669398 0.008228 -0.002215 -386455.000000 1 0 0
-10.810663 13.279445 0.443988 17.129250 -0.887523 1.544874 0.013546 -0.007268 -546538.000000 1 0 0
-13.396163 3.480445 -0.039712 13.840963 -0.254189 1.573666 -0.001640 0.000105 -343030.000000 1 0 0
-15.062363 0.082145 -4.319712 15.669762 -0.005454 1.850085 0.000453 -0.000176 642747.000000 1 0 0
-18.634663 6.849145 3.530088 20.164894 -0.352222 1.394829 0.028214 -0.005059 -59779.800000 1 0 0
-14.116563 1.316245 -6.283912 15.507979 -0.092972 1.988000 0.000560 -0.002756 -803744.000000 1 0 0
-14.141363 12.050045 5.313888 19.324055 -0.705720 1.292219 0.010250 -0.014626 102630.000000 1 0 0
17.604037 5.386845 6.247888 19.441099 0.296953 1.243615 0.034234 -0.018028 -660940.000000 1 0 0
18.539137 7.663045 -0.294712 20.062620 0.391957 1.585486 0.016913 0.007097 77188.800000 1 0 0
16.441837 5.200845 8.608788 19.274180 0.306359 1.107780 0.043557 -0.009656 223095.000000 1 0 0
11.634437 12.408745 11.009288 20.261823 0.817592 0.996372 0.035813 -0.012250 648007.000000 1 0 0
-2.224763 16.182945 -0.417812 16.340497 -1.434177 1.596368 -0.009544 0.004027 271883.000000 1 0 0
15.170537 12.776145 3.418188 20.126080 0.699930 1.400130 0.032024 -0.007143 439701.000000 1 0 0
13.479037 11.745245 6.707588 19.095207 0.716771 1.211868 0.027930 -0.009357 616403.000000 1 0 0
-0.680963 15.727245 8.656088 17.964904 -1.527525 1.068051 -0.001099 -0.002981 240014.000000 1 0 0
0.676637 12.770245 9.413388 15.879195 1.517860 0.936249 -0.001521 -0.001581 -551652.000000 1 0 0
0.827237 15.555245 -3.881812 16.053611 1.517666 1.815020 -0.006689 -0.001044 -1760490.000000 1 0 0
5.382837 10.351745 13.375388 17.749212 1.091282 0.717311 0.006998 -0.007935 -398999.000000 1 0 0
-1.254263 16.550045 -2.785512 16.829624 -1.495155 1.737074 -0.007202 0.002920 -668069.000000 1 0 0
8.576237 10.057745 3.360288 13.638240 0.864737 1.321846 0.007931 -0.004392 503875.000000 1 0 0
12.599537 13.623445 -4.775312 19.161164 0.824425 1.822669 0.027308 -0.010958 94652.300000 1 0 0
2.434137 11.457745 7.761488 14.051535 1.361464 0.985605 0.003990 0.000197 135852.000000 1 0 0
-0.203063 14.899745 -8.717712 17.263897 -1.557169 2.100141 0.006806 -0.007561 -1022380.000000 1 0 0
2.407937 15.984245 0.220688 16.166105 1.421276 1.557145 -0.002912 -0.006580 -369230.000000 1 0 0
1.878537 13.451645 5.233588 14.555620 1.432043 1.203002 0.000329 0.002271 945227.000000 1 0 0
17.448037 9.139545 -2.156112 19.814492 0.482518 1.679827 -0.000886 0.010675 -15122.800000 1 0 0
-7.169463 14.880645 7.274988 18.048829 -1.121816 1.155925 -0.001408 -0.006283 -2007220.000000 1 0 0
8.406337 15.768345 -0.108012 17.869495 1.081009 1.576841 0.007422 -0.019814 -1473300.000000 1 0 0
15.679037 10.469645 2.212088 18.982597 0.588751 1.453999 0.020760 0.001879 336637.000000 1 0 0
14.182437 7.528645 8.822888 18.321172 0.488016 1.068354 0.034383 -0.005629 -825947.000000 1 0 0
4.163237 18.362745 -1.793312 18.913987 1.347844 1.665753 -0.003431 -0.012650 -834237.000000 1 0 0
-0.380363 17.607745 -4.897912 18.280232 -1.549198 1.842045 0.001669 0.002271 494901.000000 1 0 0
1.353437 13.711245 -0.748112 13.798177 1.472405 1.625041 -0.003182 -0.005016 -125687.000000 1 0 0
10.266937 14.716445 4.201388 18.429200 0.961649 1.340799 0.021518 -0.020793 -163815.000000 1 0 0
-1.609763 15.383645 -5.109112 16.289594 -1.466535 1.889823 0.001867 -0.003188 178341.000000 1 0 0
15.064437 8.702345 -5.997612 18.402158 0.523842 1.902780 0.010210 -0.000933 -209323.000000 1 0 0
-2.285063 18.460645 0.981788 18.627421 -1.447643 1.518065 -0.007363 0.004177 57871.600000 1 0 0
-3.636363 19.344445 3.452188 19.983700 -1.384985 1.397175 -0.000786 0.000176 -419899.000000 1 0 0
1.859437 17.695245 -2.686012 17.994273 1.466099 1.720627 -0.010156 -0.000318 -412165.000000 1 0 0
2.910137 12.214745 3.250188 12.970451 1.336909 1.317513 0.001826 -0.001997 40621.600000 1 0 0
-2.577563 16.103445 1.984588 16.428735 -1.412080 1.449701 -0.007742 0.004148 -312243.000000 1 0 0
11.746437 12.871645 -2.601012 17.618833 0.831073 1.718965 0.001536 0.002213 407512.000000 1 0 0
7.048237 11.638745 4.733188 14.406286 1.026281 1.236028 0.008742 -0.004925 378491.000000 1 0 0
6.957637 15.520745 1.893188 17.113924 1.149374 1.459947 0.001706 -0.019724 -1873650.000000 1 0 0
5.481437 12.135945 10.189688 16.767738 1.146555 0.917640 0.004835 0.002900 310375.000000 1 0 0
-1.241163 14.202345 3.286488 14.630382 -1.483626 1.344228 -0.006582 0.008049 -739489.000000 1 0 0
4.530537 15.933845 1.701888 16.652615 1.293773 1.468418 -0.004839 -0.018240 -1942140.000000 1 0 0
7.287037 12.967845 11.963688 19.089152 1.058839 0.893450 0.008128 -0.002646 314303.000000 1 0 0
0.798337 17.241045 -9.522912 19.712352 1.524525 2.074981 0.010577 -0.005859 487634.000000 1 0 0
9.553537 9.522245 15.588588 20.614249 0.783758 0.713303 0.007537 -0.003677 -391452.000000 1 0 0
13.566637 7.499545 -0.073512 15.501684 0.504985 1.575539 -0.003745 0.003003 89761.700000 1 0 0
12.512037 13.611645 -0.074712 18.488741 0.827466 1.574837 0.018599 -0.006877 222943.000000 1 0 0
9.357837 12.374545 3.553588 15.916232 0.923328 1.345630 0.007776 -0.006499 530037.000000 1 0 0
-0.660963 13.051245 0.797788 13.092300 -1.520196 1.509823 -0.004739 -0.000435 -490777.000000 1 0 0
16.075837 7.271745 -0.891112 17.666491 0.424798 1.621259 0.012861 0.005642 -1920480.000000 1 0 0
-4.121363 18.484245 -2.474212 19.099075 -1.351418 1.700708 0.006630 0.003330 17208.800000 1 0 0
11.564937 9.297245 -3.199812 15.179767 0.677125 1.783184 0.004454 0.000917 -195516.000000 1 0 0
14.689437 9.739445 7.733388 19.246860 0.585476 1.157315 0.030958 -0.015617 365792.000000 1 0 0
4.462637 13.721745 4.687988 15.171639 1.256362 1.256658 0.008589 -0.004811 -21202.000000 1 0 0
2.213537 15.896045 5.781288 17.058935 1.432435 1.225048 0.004681 -0.003862 175341.000000 1 0 0
6.179337 18.405845 5.353188 20.139909 1.246893 1.301763 0.018265 -0.025180 -381499.000000 1 0 0
10.467137 17.074645 -0.770812 20.042420 1.020857 1.609265 0.015128 -0.021012 -624826.000000 1 0 0
9.915037 13.678345 -4.391712 17.455435 0.943573 1.825125 0.015013 -0.007331 604377.000000 1 0 0
16.619337 7.970945 2.317388 18.577099 0.447210 1.445726 0.013039 0.000449 272970.000000 1 0 0
4.013237 14.021045 -0.473512 14.591778 1.292020 1.603253 -0.001618 -0.009167 -26971.500000 1 0 0
5.593937 13.138645 -2.313112 14.466050 1.168280 1.731385 0.002058 -0.010778 -995728.000000 1 0 0
-5.960563 16.721145 -3.142812 18.027819 -1.228371 1.746023 0.013535 -0.009351 -1186690.000000 1 0 0
18.154437 9.854245 2.748088 20.838467 0.497299 1.438535 0.030227 -0.001774 -1363420.000000 1 0 0
7.971037 12.840145 9.443888 17.821160 1.015230 1.012284 0.014721 -0.007436 68067.700000 1 0 0
-2.660163 15.809145 6.814888 17.419765 -1.404091 1.168844 -0.003251 0.003231 1451060.000000 1 0 0
11.252937 16.020545 6.198288 20.535462 0.958457 1.264181 0.034086 -0.018370 25755.200000 1 0 0
13.650137 11.893845 1.470988 18.164625 0.716751 1.489727 0.026747 -0.006325 904939.000000 1 0 0
17.557637 7.974745 -5.438112 20.035974 0.426344 1.845662 0.012759 0.015217 -233437.000000 1 0 0
9.473737 9.229545 8.051088 15.484063 0.772343 1.023993 0.013339 -0.004105 -132839.000000 1 0 0
-1.831063 14.124945 -2.061512 14.391549 -1.441882 1.714535 -0.012617 0.003664 765068.000000 1 0 0
11.092037 11.693145 0.734288 16.133880 0.811774 1.525268 0.008494 0.002175 -368088.000000 1 0 0
11.867637 9.782245 -0.574812 15.390371 0.689371 1.608154 -0.001309 0.002128 -870834.000000 1 0 0
-0.166563 16.109245 11.181988 19.610516 -1.560457 0.964043 0.003189 -0.001089 167833.000000 1 0 0
2.184237 20.127545 -1.700312 20.316988 1.462700 1.654584 -0.001477 -0.003144 -617497.000000 1 0 0
9.168437 14.230845 1.840288 17.028325 0.998463 1.462513 0.007343 -0.015127 -731951.000000 1 0 0
8.420337 11.724145 -5.050312 15.292590 0.947957 1.907360 0.009549 -0.005659 -348273.000000 1 0 0
10.561337 10.027745 10.241588 17.804146 0.759488 0.957904 0.019003 -0.008724 239773.000000 1 0 0
-5.120863 15.826345 5.874388 17.640999 -1.257862 1.231317 -0.010151 0.003435 -506315.000000 1 0 0
14.470037 9.040345 -1.858912 17.162907 0.558429 1.679319 0.014875 0.003585 -660204.000000 1 0 0
12.153837 9.656645 6.906288 16.990096 0.671399 1.152188 0.013374 -0.006438 -903948.000000 1 0 0
3.098237 12.891745 9.772588 16.471175 1.334942 0.935626 0.000974 -0.003323 -416162.000000 1 0 0
8.453537 12.664845 -2.524912 15.434888 0.982230 1.735120 0.005525 -0.005829 -999381.000000 1 0 0
9.175337 16.890945 2.143288 19.341264 1.073181 1.459754 0.009519 -0.021575 -209148.000000 1 0 0
9.737037 14.268145 -7.521212 18.840342 0.971959 1.981449 0.026025 -0.013119 309246.000000 1 0 0
6.309337 11.429445 7.334388 14.974417 1.066400 1.058942 0.002832 -0.002996 -875892.000000 1 0 0
5.467337 16.807445 -5.609612 18.543185 1.256300 1.878128 -0.003035 -0.006689 -939641.000000 1 0 0
-3.916063 17.120745 -4.761912 18.197012 -1.345933 1.835566 0.010665 -0.005309 -380883.000000 1 0 0
-0.075063 18.612345 -0.271012 18.614469 -1.566763 1.585356 -0.008889 0.002398 -256579.000000 1 0 0
6.351037 15.813245 -2.739812 17.259807 1.188888 1.730210 0.001231 -0.003047 929208.000000 1 0 0
-0.996763 20.695845 1.018888 20.744870 -1.522671 1.521661 -0.006181 0.002778 -83111.700000 1 0 0
-1.307763 18.907545 4.552588 19.491833 -1.501740 1.335055 0.004040 0.001247 1904460.000000 1 0 0
7.144437 13.799145 -4.278212 16.117149 1.093054 1.839462 0.007387 -0.007088 -379368.000000 1 0 0
-1.144163 12.025345 7.714088 14.332661 -1.475936 1.002476 -0.003514 0.007885 299902.000000 1 0 0
7.661337 10.758745 10.869488 17.105333 0.951993 0.882212 0.005100 -0.003814 158261.000000 1 0 0
1.590537 16.004745 -7.430512 17.717059 1.471742 2.003579 -0.000940 -0.003340 -287326.000000 1 0 0
8.729737 7.104745 14.787788 18.583981 0.683132 0.650588 0.011187 -0.001011 450370.000000 1 0 0
11.272137 11.424145 -4.810412 16.754469 0.792096 1.862007 0.014127 -0.002500 -501665.000000 1 0 0
-3.380463 17.138445 4.656888 18.078728 -1.376052 1.310270 -0.008229 0.009322 -190463.000000 1 0 0
3.949137 15.131445 -6.665012 16.999373 1.315502 1.973681 0.001327 -0.015451 -750662.000000 1 0 0
-4.558863 13.939445 9.610988 17.534606 -1.254714 0.990687 0.006990 -0.004859 279268.000000 1 0 0
6.035437 17.528245 0.347988 18.541493 1.239185 1.552027 -0.003447 -0.027550 -586031.000000 1 0 0
9.831537 10.783145 -2.045112 14.734918 0.831527 1.710039 0.001169 -0.000289 -1260890.000000 1 0 0
7.478337 18.206045 -2.424312 19.830857 1.181048 1.693352 0.007157 -0.005527 131453.000000 1 0 0
3.501537 10.279845 10.303688 14.970035 1.242501 0.811671 0.001958 0.001468 985247.000000 1 0 0
0.106837 18.641545 2.258488 18.778162 1.565065 1.450232 -0.001627 -0.005097 151288.000000 1 0 0
-0.871063 17.061545 -7.454512 18.639335 -1.519786 1.982242 0.014746 -0.004990 263011.000000 1 0 0
9.991337 8.767745 13.192488 18.728104 0.720264 0.789188 0.018044 -0.000582 -178137.000000 1 0 0
3.661437 11.379945 5.469388 13.146234 1.259512 1.141708 0.000916 -0.000811 454112.000000 1 0 0
12.853237 13.910845 8.109188 20.602821 0.824894 1.166256 0.029701 -0.017253 -43407.700000 1 0 0
-0.465563 17.384545 6.947188 18.727054 -1.544022 1.190742 0.000020 -0.000861 -263836.000000 1 0 0
12.214037 13.709345 5.608488 19.198541 0.843016 1.274342 0.028994 -0.016033 3298.820000 1 0 0
4.792337 14.542245 -4.325612 15.910823 1.252458 1.846128 -0.008948 -0.005550 -2135760.000000 1 0 0
3.798637 17.597445 4.632988 18.589359 1.358195 1.318913 0.008412 -0.015315 -879520.000000 1 0 0
7.122737 11.671545 2.063488 13.828099 1.022863 1.421013 0.010192 -0.006615 1099110.000000 1 0 0
6.490737 8.648645 11.687688 15.922649 0.926980 0.746560 0.005104 -0.000454 620080.000000 1 0 0
-5.367263 14.979145 1.681888 16.000345 -1.226733 1.465486 -0.007456 0.010489 -162491.000000 1 0 0
6.764937 13.733845 6.086888 16.475226 1.113107 1.192372 0.009837 -0.009980 -207148.000000 1 0 0
5.867637 15.904345 4.834788 17.628174 1.217355 1.292971 0.006107 -0.018783 582881.000000 1 0 0
1.290337 18.006245 4.503888 18.605774 1.499258 1.326298 0.004591 -0.007853 -528837.000000 1 0 0
7.334937 17.882445 -7.089712 20.587548 1.181549 1.922363 0.002315 -0.007443 147304.000000 1 0 0
-2.324363 18.762545 -6.193912 19.894730 -1.447541 1.887393 0.021495 0.004278 44936.700000 1 0 0
13.479637 10.255545 -4.512712 17.528303 0.650388 1.831182 0.005152 0.007814 -1754050.000000 1 0 0
-1.389663 17.992845 9.854788 20.561869 -1.493715 1.070968 0.010746 -0.005066 -330603.000000 1 0 0
3.543637 11.773545 -1.520112 12.388884 1.278438 1.693806 0.003559 -0.008105 -703460.000000 1 0 0
4.247737 14.002245 -10.792612 18.182041 1.276259 2.206304 0.006704 -0.016680 -128956.000000 1 0 0
11.507137 13.526345 2.315688 17.909177 0.865884 1.441132 0.022937 -0.010095 269151.000000 1 0 0
16.204537 6.629245 -7.162112 18.916389 0.388325 1.959101 0.020586 0.000347 516536.000000 1 0 0
2.313237 16.130245 2.995088 16.568235 1.428358 1.389024 -0.001059 -0.008236 -946165.000000 1 0 0
13.459837 10.707545 3.609788 17.574109 0.672002 1.363920 0.015221 0.000761 -295896.000000 1 0 0
-4.892963 19.312545 -5.937812 20.788773 -1.322661 1.860456 0.020787 -0.008113 136040.000000 1 0 0
5.551337 12.126345 0.125088 13.337212 1.141482 1.561417 0.005605 -0.010372 -256208.000000 1 0 0
4.482037 15.405545 9.519488 18.655833 1.287675 1.035299 0.006081 0.000321 -399916.000000 1 0 0
7.618437 9.391445 13.967088 18.474830 0.889257 0.713606 0.002488 -0.005802 -2345200.000000 1 0 0
-4.990563 13.610145 7.084888 16.134974 -1.219340 1.116198 -0.011121 0.003385 -1664480.000000 1 0 0
-4.471263 17.171745 0.552788 17.752931 -1.316068 1.539653 -0.003202 0.006815 -3264940.000000 1 0 0
-0.688963 16.672045 3.695088 17.090506 -1.529495 1.352868 -0.000078 0.002907 -1637170.000000 1 0 0
7.793937 16.858545 -4.720512 19.163487 1.137750 1.819686 -0.000616 -0.007450 462901.000000 1 0 0
3.016237 16.396545 -4.590812 17.292192 1.388875 1.839503 -0.012256 -0.004863 -84466.100000 1 0 0
9.582937 14.234345 7.989988 18.928527 0.978266 1.135021 0.028884 -0.018491 177396.000000 1 0 0
12.811937 10.931945 9.141288 19.162888 0.706385 1.073523 0.033993 -0.016358 1585740.000000 1 0 0
3.690937 12.149545 12.138188 17.566162 1.275864 0.807927 0.003881 -0.003157 319230.000000 1 0 0
-3.375363 19.330945 6.074288 20.542041 -1.397930 1.270608 0.016222 -0.002905 -42954.300000 1 0 0
-2.668963 15.696745 10.368388 19.000384 -1.402374 0.993580 0.005085 -0.005255 171517.000000 1 0 0
2.077937 14.136745 7.681988 16.222771 1.424853 1.077501 0.006465 -0.001988 39702.300000 1 0 0
4.414637 17.337045 7.835188 19.530804 1.321459 1.158002 0.013536 -0.006325 491258.000000 1 0 0
-2.026163 13.347745 9.532588 16.526882 -1.420148 0.955999 0.003143 -0.002237 -1481510.000000 1 0 0
5.889337 17.697645 2.971888 18.887113 1.249548 1.412790 0.002601 -0.024755 567897.000000 1 0 0
7.396037 15.286845 -6.735512 18.268993 1.120179 1.948391 0.006650 -0.009361 454268.000000 1 0 0
11.054237 7.620345 9.409188 16.395079 0.603549 0.959532 0.016824 -0.006790 91310.500000 1 0 0
8.924237 16.014945 -2.599412 18.516949 1.062408 1.711642 0.005840 -0.023324 -886922.000000 1 0 0
14.523237 11.067245 -6.801112 19.484955 0.651160 1.927347 0.027934 -0.005287 431963.000000 1 0 0
11.041837 6.423445 16.029988 20.497398 0.526883 0.672848 0.028715 -0.010040 -236118.000000 1 0 0
8.570137 8.399545 10.183488 15.738584 0.775346 0.867101 0.008242 -0.002074 -377236.000000 1 0 0
16.337737 9.399545 4.507288 19.380112 0.522080 1.336074 0.027977 -0.006030 88952.400000 1 0 0
-3.367763 14.374345 4.723488 15.500804 -1.340657 1.261146 -0.011606 0.009805 -1394860.000000 1 0 0
4.802637 14.577245 12.584688 19.847815 1.252535 0.884005 0.007213 -0.001441 -239954.000000 1 0 0
16.007337 10.871145 -4.657612 19.902512 0.596585 1.807008 0.017951 0.005469 992390.000000 1 0 0
14.732337 14.017845 6.291088 21.286604 0.760552 1.270773 0.036980 -0.011701 -63777.200000 1 0 0
6.194637 9.313645 9.220988 14.496348 0.983869 0.881376 0.001164 0.000398 874309.000000 1 0 0
10.431437 11.998645 8.655788 18.102624 0.855156 1.072248 0.026893 -0.013991 298907.000000 1 0 0
8.028737 11.603545 -0.212312 14.111979 0.965513 1.585842 0.010659 -0.005972 -92908.100000 1 0 0
7.453537 13.460345 -8.600312 17.626726 1.065086 2.080494 0.017649 -0.010469 -476105.000000 1 0 0
2.732437 15.224845 -2.246512 15.630385 1.393215 1.715023 -0.010302 -0.004713 116558.000000 1 0 0
12.252037 13.589445 -7.675612 19.841886 0.837106 1.967997 0.031039 -0.017749 606460.000000 1 0 0
-8.163363 14.539645 9.745188 19.313478 -1.059201 1.041901 0.015821 -0.019680 203338.000000 1 0 0
11.595237 9.554045 2.178288 15.181378 0.689183 1.426815 0.010550 0.002184 -2293710.000000 1 0 0
12.041737 8.678845 4.547988 15.524496 0.624504 1.273480 0.006111 -0.001584 408901.000000 1 0 0
13.968537 7.887345 6.171888 17.187857 0.514022 1.203510 0.012949 -0.006110 -2569090.000000 1 0 0
16.208437 7.363245 7.229988 19.214670 0.426411 1.185024 0.047056 -0.013582 485205.000000 1 0 0
13.634137 8.298645 2.438788 16.146358 0.546768 1.419173 0.002450 0.003008 -1982210.000000 1 0 0
-4.175663 17.398445 -7.409812 19.366139 -1.335249 1.963423 0.017918 -0.009944 25780.600000 1 0 0
3.207137 19.417645 -3.986112 20.080332 1.407108 1.770632 -0.005510 -0.006063 401294.000000 1 0 0
-0.161463 14.780445 6.318888 16.075321 -1.559873 1.166817 -0.000155 -0.000079 770332.000000 1 0 0
6.722437 15.988045 8.291388 19.223835 1.172772 1.124855 0.018103 -0.011875 532512.000000 1 0 0
12.796537 15.227345 -1.992612 19.989845 0.871922 1.670643 0.026688 -0.015832 -365638.000000 1 0 0
12.696337 15.760545 4.068088 20.643185 0.892664 1.372431 0.032603 -0.015919 -25798.400000 1 0 0
3.012037 18.094645 1.388288 18.396083 1.405849 1.495258 0.007277 -0.013168 -833074.000000 1 0 0
10.400637 14.532845 -1.132012 17.906934 0.949635 1.634055 0.010940 -0.003325 -781006.000000 1 0 0
-6.256063 15.862745 -0.695512 17.066011 -1.195138 1.611562 0.003938 0.005609 33304.300000 1 0 0
-3.721663 15.917745 -2.538612 16.542972 -1.341116 1.724861 -0.003491 0.002339 -1171390.000000 1 0 0
-6.851163 17.221845 1.525688 18.597260 -1.192172 1.488666 0.003630 0.005376 1641720.000000 1 0 0
0.196737 19.262245 -6.691312 20.392313 1.560583 1.905119 0.011029 -0.002072 -39570.100000 1 0 0
4.744437 14.893645 6.978088 17.117945 1.262405 1.150920 0.009293 -0.007136 -857147.000000 1 0 0
8.621637 12.191245 6.890588 16.445038 0.955255 1.138445 0.017068 -0.011002 -1938990.000000 1 0 0
-7.455263 17.514145 -5.618812 19.846845 -1.168358 1.857830 0.038704 -0.016265 328309.000000 1 0 0
-7.589663 18.028645 -1.548312 19.622239 -1.172337 1.649784 0.020549 0.004812 543026.000000 1 0 0
-13.807163 -9.138455 9.130588 18.908113 0.584670 1.066841 0.013300 -0.010916 -21312.500000 1 0 0
-12.480163 -12.829255 7.804388 19.525694 0.799190 1.159609 0.012031 -0.000888 -259063.000000 1 0 0
-4.009963 -14.781755 12.566688 19.811656 1.305894 0.883684 0.008668 -0.018294 -172674.000000 1 0 0
-2.312863 -14.142655 14.911688 20.681452 1.408693 0.765527 0.022704 -0.008569 -534707.000000 1 0 0
-7.288463 -13.422155 12.723788 19.878901 1.073330 0.876214 0.022594 -0.020360 247071.000000 1 0 0
-9.998463 -11.494755 9.001388 17.695300 0.854903 1.037136 0.014353 -0.008499 306864.000000 1 0 0
-10.824463 -10.537955 11.321988 18.878689 0.771987 0.927641 0.032382 -0.015166 623346.000000 1 0 0
-5.947463 -12.076755 10.821288 17.271960 1.113189 0.893712 0.015763 -0.010631 357983.000000 1 0 0
-12.580463 -10.276755 7.303088 17.810526 0.684951 1.148295 0.012862 -0.003123 686624.000000 1 0 0
-7.678463 -10.938055 12.549988 18.333086 0.958733 0.816805 0.020175 -0.016960 347538.000000 1 0 0
-14.777063 -11.841955 7.465588 20.355060 0.675578 1.195264 0.011717 0.008371 -768836.000000 1 0 0
-11.150763 -9.064555 9.162888 17.043010 0.682563 1.003169 0.012340 -0.011153 -207605.000000 1 0 0
-5.392063 -11.831855 13.381288 18.658135 1.143192 0.771045 0.015220 -0.015716 -1211420.000000 1 0 0
3.950537 -12.592155 14.654588 19.721208 -1.266791 0.733124 0.003251 0.005809 -644075.000000 1 0 0
6.511937 -12.751955 14.153588 20.133101 -1.098656 0.791188 0.010327 -0.001497 147613.000000 1 0 0
6.509537 -8.535055 16.112888 19.360950 -0.919228 0.587667 0.006346 0.001281 -150399.000000 1 0 0
0.689037 -1.697355 14.390388 14.506517 -1.185173 0.126618 0.004511 -0.004387 -1616120.000000 1 0 0
-0.169663 -6.368855 15.508388 16.766073 1.544163 0.389797 0.007475 -0.008286 -774518.000000 1 0 0
-1.576763 -4.687655 18.239988 18.898609 1.246320 0.264781 0.018459 -0.022067 -2859870.000000 1 0 0
-5.266963 12.511045 12.983888 18.784261 -1.172331 0.807633 0.005020 -0.012884 -957443.000000 1 0 0
-4.080663 8.884245 11.754088 15.288564 -1.140223 0.693809 -0.008023 0.002661 -380399.000000 1 0 0
-0.650863 -3.959155 15.036488 15.562599 1.407859 0.260762 0.003836 -0.005111 -212965.000000 1 0 0
-4.557363 9.202545 14.291688 17.598543 -1.110973 0.623063 -0.000981 -0.007953 348536.000000 1 0 0
-13.553863 -2.350755 16.743888 21.670049 0.171730 0.687753 0.001949 0.002200 -63122.200000 1 0 0
-0.190463 0.875545 17.231688 17.254968 -1.356597 0.051952 0.010533 -0.003179 104117.000000 1 0 0
-3.332963 -7.191155 15.342488 17.268853 1.136788 0.476843 0.012251 -0.011343 479448.000000 1 0 0
-7.424163 5.541445 12.638588 15.670344 -0.641197 0.632539 0.000558 -0.006948 -1655620.000000 1 0 0
-9.866763 10.246845 13.558288 19.651412 -0.804293 0.809391 0.015404 -0.012311 755653.000000 1 0 0
-5.534563 2.365245 11.138788 12.660899 -0.403867 0.495400 0.004828 -0.000911 -1202850.000000 1 0 0
-7.134563 -7.295355 16.890988 19.733972 0.796541 0.543441 0.025030 -0.016438 -356148.000000 1 0 0
-4.589063 2.939045 18.738888 19.515209 -0.569629 0.283009 0.018320 -0.010609 -1714700.000000 1 0 0
0.823937 -8.417355 16.449388 18.496300 -1.473222 0.474910 0.003747 -0.006562 645447.000000 1 0 0
-15.215063 -3.236455 14.086788 20.985956 0.209590 0.834905 0.017517 -0.010113 -225871.000000 1 0 0
-14.376863 2.546845 12.963188 19.524980 -0.175330 0.844736 -0.000282 -0.009208 153088.000000 1 0 0
-5.398563 1.016245 16.032188 16.947220 -0.186066 0.330109 0.022234 -0.008271 340341.000000 1 0 0
4.396637 5.643045 15.084188 16.694523 0.908914 0.442834 0.006816 -0.002113 -400750.000000 1 0 0
-1.246063 -12.046855 13.801588 18.362005 1.467728 0.720254 0.006339 -0.007349 76705.600000 1 0 0
-5.917563 -4.005955 16.795688 18.252681 0.595095 0.402265 0.016942 -0.009644 32414.800000 1 0 0
-13.000463 -1.553455 9.790588 16.348726 0.118928 0.928720 0.001603 0.002716 -1065190.000000 1 0 0
-14.544763 10.334445 10.182088 20.543266 -0.617756 1.052223 0.000360 -0.010330 448340.000000 1 0 0
-3.653763 -3.182055 17.742688 18.392347 0.716502 0.266579 0.018279 -0.014001 -654043.000000 1 0 0
-8.064863 9.303145 11.790888 17.047450 -0.856574 0.807024 -0.001973 -0.012541 -544228.000000 1 0 0
-4.002963 10.474545 16.568388 20.006280 -1.205762 0.594981 -0.005752 -0.005898 210468.000000 1 0 0
-12.212663 12.798045 8.213688 19.503942 -0.808799 1.136106 0.001423 -0.017311 -657014.000000 1 0 0
-12.640163 3.175245 10.431188 16.693279 -0.246110 0.895827 0.002927 -0.004868 56962.700000 1 0 0
-10.084463 -3.489955 13.652788 17.328439 0.333172 0.663432 0.011748 -0.002567 -1193130.000000 1 0 0
-4.406963 -6.332955 17.703188 19.311408 0.962842 0.411000 0.022358 -0.012354 -845641.000000 1 0 0
0.729637 -3.681955 17.776188 18.168159 -1.375165 0.208099 0.013686 -0.013222 -1272290.000000 1 0 0
-5.946763 1.980245 13.654088 15.023963 -0.321446 0.430348 0.013232 -0.004343 -1206870.000000 1 0 0
-10.518663 8.657945 10.298988 17.078390 -0.688670 0.923487 0.001581 -0.016963 -455297.000000 1 0 0
4.719637 2.353545 17.360888 18.144271 0.462584 0.294922 0.024313 -0.004505 -472720.000000 1 0 0
0.493837 -5.425455 13.111588 14.198351 -1.480024 0.393798 0.004113 -0.005834 -878249.000000 1 0 0
-3.770863 5.624545 20.890188 21.960301 -0.980193 0.313466 0.015855 -0.012791 -174191.000000 1 0 0
-10.774063 10.828045 8.961188 17.709598 -0.787897 1.040247 -0.001512 -0.015177 143669.000000 1 0 0
0.766437 4.157545 13.072588 13.739183 1.388495 0.312779 0.004418 -0.002230 -2369850.000000 1 0 0
-3.233963 7.111345 13.367588 15.482963 -1.143990 0.528877 -0.001094 -0.000098 -1359790.000000 1 0 0
0.764437 8.900245 14.103088 16.694184 1.485117 0.564623 0.004286 -0.004435 507539.000000 1 0 0
-4.194663 -6.619355 13.045488 15.218272 1.005968 0.540939 0.008828 -0.010288 -149203.000000 1 0 0
-4.981263 8.193645 16.662088 19.224306 -1.024557 0.522208 0.009743 -0.002867 -437658.000000 1 0 0
1.362137 -10.809655 15.802588 19.194422 -1.445446 0.603612 -0.002661 0.000660 -124673.000000 1 0 0
-15.085263 -0.703355 14.152288 20.696548 0.046592 0.817839 -0.000458 -0.000229 547715.000000 1 0 0
-13.822163 -5.269155 8.261388 16.943043 0.364204 1.061460 0.014950 -0.007677 -540209.000000 1 0 0
-14.176263 -1.895955 12.095088 18.731049 0.132953 0.868825 0.006574 -0.002353 781533.000000 1 0 0
9.489837 1.157945 16.792188 19.322924 0.121419 0.517559 0.032232 -0.006397 -162480.000000 1 0 0
4.824237 -6.725555 16.805288 18.732967 -0.948554 0.457642 0.008273 -0.005597 -321356.000000 1 0 0
-6.064963 -2.561255 11.190488 12.983482 0.399585 0.531788 0.005129 -0.001668 379164.000000 1 0 0
0.413337 -6.278155 17.912688 18.985533 -1.505054 0.337784 0.013685 -0.013914 -165239.000000 1 0 0
-8.465963 11.929745 12.104488 18.987099 -0.953622 0.879533 0.003396 -0.013664 -122171.000000 1 0 0
-6.768863 -5.664055 14.912888 17.328971 0.696770 0.534398 0.020982 -0.010279 -78068.500000 1 0 0
-4.349963 -8.943555 17.081688 19.765966 1.118104 0.527244 0.023282 -0.011849 379482.000000 1 0 0
2.349337 -6.238355 16.173788 17.493652 -1.210627 0.390939 0.007516 -0.006618 -1823330.000000 1 0 0
2.240037 5.190245 16.239488 17.195271 1.163360 0.334983 0.008983 -0.000309 -3380050.000000 1 0 0
0.752637 -8.915955 13.993588 16.609672 -1.486581 0.568896 0.001015 -0.001699 -468498.000000 1 0 0
-9.907863 -2.869255 11.133388 15.177308 0.281883 0.747259 0.003062 -0.001546 -620039.000000 1 0 0
-1.324663 10.091045 12.397488 16.040000 -1.440272 0.687381 -0.000306 -0.002867 -574687.000000 1 0 0
-12.373763 -3.682655 11.320588 17.170546 0.289270 0.850905 0.004920 0.002419 -2905280.000000 1 0 0
-1.626463 6.663145 19.952388 21.098356 -1.331380 0.331103 0.004433 -0.014241 131338.000000 1 0 0
0.094837 -13.427555 15.596588 20.580617 -1.563734 0.710817 0.005234 -0.010760 -854983.000000 1 0 0
3.939737 -8.750455 15.275588 18.039833 -1.147749 0.560913 0.002024 -0.001471 579293.000000 1 0 0
4.330537 -4.529955 16.102488 17.279009 -0.807901 0.371151 0.012546 -0.001821 -351345.000000 1 0 0
8.068337 1.760345 14.686288 16.848855 0.214813 0.512240 0.016982 0.000178 -454524.000000 1 0 0
-6.234563 0.025845 11.862988 13.401526 -0.004145 0.483880 0.008028 -0.000140 152718.000000 1 0 0
-3.327163 -10.839055 18.566988 21.755187 1.272966 0.548225 0.020295 -0.007533 -123138.000000 1 0 0
3.257437 -1.596055 13.538788 14.016314 -0.455594 0.261781 0.006972 -0.004341 613464.000000 1 0 0
-2.491563 8.521745 15.920088 18.228472 -1.286348 0.508730 0.002107 -0.009319 -810711.000000 1 0 0
-3.124063 4.142645 14.885188 15.763568 -0.924662 0.335403 0.010654 -0.006152 -325056.000000 1 0 0
-5.023863 -8.969955 19.578688 22.113894 1.060250 0.483535 0.050942 -0.016325 189941.000000 1 0 0
-5.920963 -2.948255 19.090988 20.204351 0.461994 0.333523 0.026249 -0.013209 -914516.000000 1 0 0
-6.655863 -8.478755 11.189788 15.537089 0.905266 0.766708 0.018345 -0.012150 -785604.000000 1 0 0
-11.688763 2.525045 12.679888 17.429359 -0.212754 0.756123 0.008547 -0.012723 393607.000000 1 0 0
-11.746163 -7.482455 11.789088 18.246700 0.567191 0.868340 0.014810 -0.005742 -1386570.000000 1 0 0
-11.156663 -7.315855 15.587988 20.517754 0.580399 0.707896 0.026654 -0.020310 -175695.000000 1 0 0
0.199637 5.816945 17.684188 18.617389 1.536490 0.317961 0.004504 -0.005932 -461797.000000 1 0 0
-2.356463 -0.152755 13.180388 13.390253 0.064733 0.177280 0.005316 -0.001752 676166.000000 1 0 0
-5.966763 -10.737655 18.008288 21.799035 1.063598 0.598636 0.034137 -0.013343 1679490.000000 1 0 0
0.356837 2.691445 19.086688 19.278819 1.438983 0.141298 0.017677 -0.012744 -858353.000000 1 0 0
-0.885963 10.747545 14.849688 18.352326 -1.488548 0.628101 -0.001829 -0.007234 -512776.000000 1 0 0
-12.861863 -2.173355 14.306988 19.360808 0.167395 0.739261 0.008837 -0.000212 -341309.000000 1 0 0
-13.705763 8.434645 11.651888 19.868509 -0.551672 0.944127 0.002087 -0.021327 741244.000000 1 0 0
-18.099563 -0.611155 6.801288 19.344901 0.033753 1.211538 0.014605 -0.004542 658278.000000 1 0 0
-2.193563 -7.685555 17.650688 19.375919 1.292775 0.425191 0.017515 -0.011124 -1076040.000000 1 0 0
5.699837 2.667645 14.590888 15.890200 0.437739 0.407204 0.016656 -0.001990 -2380600.000000 1 0 0
-14.175463 -6.664955 11.021188 19.152857 0.439505 0.957663 0.016078 -0.013685 495961.000000 1 0 0
3.313337 7.583645 16.547888 18.501958 1.158885 0.463740 0.006796 -0.003996 -124099.000000 1 0 0
1.072337 2.089745 14.607588 14.795221 1.096690 0.159430 0.003783 -0.005430 -2256750.000000 1 0 0
-14.409563 0.684445 9.689388 17.377807 -0.047464 0.979338 -0.001242 -0.000296 -3613420.000000 1 0 0
-9.712063 -5.114155 15.631588 19.100400 0.484683 0.612192 0.015783 -0.001619 -153557.000000 1 0 0
-2.517863 -0.226855 18.079688 18.255580 0.089856 0.138928 0.016188 -0.008782 302209.000000 1 0 0
6.996637 3.519845 17.661388 19.320115 0.466106 0.417402 0.033684 0.000317 -158649.000000 1 0 0
-4.213963 -0.837155 14.762088 15.374574 0.196109 0.283214 0.017263 -0.004024 -343139.000000 1 0 0
4.601237 -9.169855 17.748788 20.500661 -1.105727 0.524116 0.008194 0.002614 -94219.500000 1 0 0
1.980837 6.883145 13.372388 15.169777 1.290587 0.491735 0.005611 -0.001252 -651068.000000 1 0 0
-3.773963 -0.661455 20.346088 20.703710 0.173506 0.186136 0.022418 -0.006528 215552.000000 1 0 0
-10.687463 1.827345 16.331188 19.602774 -0.169343 0.586097 0.018690 -0.007860 -310871.000000 1 0 0
-3.927863 6.953045 18.649988 20.287803 -1.056576 0.404572 0.019473 -0.010115 -246229.000000 1 0 0
-12.706863 1.286445 14.705388 19.477364 -0.100896 0.715144 0.010993 -0.009463 284543.000000 1 0 0
-16.242863 -4.537255 8.475288 18.874527 0.272395 1.105113 0.010726 -0.004595 1120600.000000 1 0 0
-2.306263 0.790545 15.707088 15.895169 -0.330230 0.153987 0.013533 -0.005827 44180.300000 1 0 0
-13.948163 -8.558755 12.784688 20.766602 0.550368 0.907602 0.019017 -0.018239 389025.000000 1 0 0
5.996537 -3.273055 14.561388 16.084320 -0.499632 0.438674 0.011830 -0.004736 627616.000000 1 0 0
-15.752663 0.468045 7.477688 17.443660 -0.029703 1.127769 -0.002878 -0.001822 281581.000000 1 0 0
-14.202663 5.981345 12.253288 19.688453 -0.398599 0.899043 0.009780 -0.023876 761211.000000 1 0 0
0.345937 9.308545 16.695888 19.118612 1.533650 0.508904 0.001120 -0.011774 -376365.000000 1 0 0
-10.448463 -5.456055 10.915688 16.065215 0.481240 0.823769 0.014370 -0.004778 203383.000000 1 0 0
-3.378063 -11.089455 15.096588 19.034030 1.275107 0.654854 0.016532 -0.008698 -223188.000000 1 0 0
-3.532263 2.835045 12.729188 13.510980 -0.676333 0.341849 0.006912 -0.003056 -2040290.000000 1 0 0
-12.362563 -7.620555 7.460588 16.326855 0.552407 1.096231 0.010128 -0.004039 -328919.000000 1 0 0
-8.260263 -1.811455 13.214888 15.689059 0.215880 0.569261 0.007714 -0.002556 52644.700000 1 0 0
-9.774463 6.423945 9.543088 15.095619 -0.581432 0.886438 -0.004016 -0.008870 -738517.000000 1 0 0
-17.949963 -3.671355 6.424288 19.415238 0.201750 1.233551 0.007387 -0.006374 174474.000000 1 0 0
-1.313663 0.049745 20.438888 20.481121 -0.037849 0.064230 0.012075 -0.010183 -895853.000000 1 0 0
-2.623463 2.665945 20.227688 20.570590 -0.793429 0.182844 0.012080 -0.009229 -831807.000000 1 0 0
-3.877263 11.305645 11.182988 16.367956 -1.240417 0.818627 -0.001584 -0.005044 -825877.000000 1 0 0
-4.225663 -4.701655 14.871788 16.159575 0.838666 0.401929 0.011802 -0.010485 878647.000000 1 0 0
-0.395163 -14.454855 13.232188 19.600760 1.543465 0.829716 0.017663 -0.015267 408711.000000 1 0 0
-12.139863 0.435145 8.288688 14.706052 -0.035829 0.972030 0.001160 -0.002050 -316281.000000 1 0 0
-7.748763 2.189545 15.520688 17.485113 -0.275387 0.478576 0.011684 -0.001840 -89193.600000 1 0 0
3.383337 -2.254655 18.429788 18.872931 -0.587818 0.217130 0.023060 -0.003507 -426421.000000 1 0 0
-2.041163 4.932745 12.584188 13.669678 -1.178452 0.401204 0.000085 -0.000156 -362882.000000 1 0 0
-10.456663 -6.132955 13.411788 18.078467 0.530443 0.734948 0.010251 -0.005748 -340606.000000 1 0 0
2.268837 -3.819955 14.260188 14.936286 -1.034842 0.302030 0.003849 -0.005586 -927806.000000 1 0 0
6.861937 0.965645 16.896888 18.262625 0.139807 0.389190 0.024712 -0.007621 -1145260.000000 1 0 0
-2.013063 -5.607455 13.707288 14.946093 1.226128 0.410014 0.000842 -0.009139 -870415.000000 1 0 0
-12.764363 3.880145 14.479788 19.688797 -0.295107 0.744491 -0.006311 -0.005664 33700.300000 1 0 0
-13.428263 -6.094455 13.341488 19.886073 0.426053 0.835380 0.013131 -0.020019 -175572.000000 1 0 0
-9.612563 6.834545 12.063588 16.871352 -0.618071 0.774124 0.008459 -0.010565 -653434.000000 1 0 0
-1.244663 -2.517255 12.947388 13.248419 1.111597 0.213582 0.001765 -0.004626 476997.000000 1 0 0
0.184137 6.664745 15.267988 16.660257 1.543175 0.411725 0.009853 -0.006744 633563.000000 1 0 0
-16.432663 -0.836855 9.647288 19.073618 0.050882 1.040496 0.004464 0.001983 -164259.000000 1 0 0
-1.270963 2.769845 13.807188 14.139512 -1.140601 0.217237 0.005519 -0.003706 -2213660.000000 1 0 0
-11.196663 -3.129055 16.008788 19.784780 0.272511 0.628098 0.009767 -0.010793 -487582.000000 1 0 0
-5.325963 -1.348355 17.173188 18.030594 0.247957 0.309627 0.032544 -0.006026 189536.000000 1 0 0
-11.930063 6.577945 11.072788 17.555693 -0.503899 0.888311 0.003613 -0.013676 -1984250.000000 1 0 0
-2.650463 4.681945 18.644488 19.405218 -1.055674 0.280931 0.014172 -0.015627 -114503.000000 1 0 0
5.019237 -1.956755 16.409488 17.271158 -0.371727 0.317210 0.018494 -0.003010 -1071730.000000 1 0 0
-8.042363 -4.156555 12.129888 15.135743 0.477023 0.641153 0.013477 -0.002721 -1048240.000000 1 0 0
-11.695063 -0.578655 16.195688 19.985235 0.049438 0.625991 0.022327 -0.000885 426447.000000 1 0 0
2.184237 2.067745 17.449588 17.706907 0.758008 0.170690 0.010197 -0.002670 -1788530.000000 1 0 0
-9.040363 -7.450755 11.737688 16.583583 0.689303 0.784432 0.020048 -0.009938 588103.000000 1 0 0
-7.306163 6.791845 14.961188 17.981832 -0.748933 0.588063 0.006889 -0.012203 -349315.000000 1 0 0
-5.565463 3.523645 15.785288 17.104553 -0.564422 0.395328 0.013016 -0.011257 69363.000000 1 0 0
-9.358763 4.316445 11.564788 15.490721 -0.432145 0.727916 0.001371 -0.006002 -180561.000000 1 0 0
-10.306563 0.379945 14.213888 17.561440 -0.036848 0.627700 0.010834 -0.005827 -541371.000000 1 0 0
8.187937 -0.735855 15.548288 17.587866 -0.089630 0.486371 0.019999 -0.006759 54175.900000 1 0 0
-8.729463 -7.386955 14.842488 18.736864 0.702289 0.656466 0.023309 -0.009499 -2230980.000000 1 0 0
-0.002663 4.119045 15.652588 16.185488 -1.570150 0.257320 0.005692 -0.005829 -7306.590000 1 0 0
-8.021163 3.097845 9.662088 12.934126 -0.368561 0.727224 -0.001271 -0.000243 -415720.000000 1 0 0
-2.237463 -9.753855 13.085888 16.473748 1.345305 0.652863 -0.000829 -0.006030 343135.000000 1 0 0
-6.095063 10.274445 10.621688 15.985439 -1.035373 0.844025 -0.002514 -0.007039 -2247930.000000 1 0 0
-8.591763 -2.730455 15.638788 18.051190 0.307705 0.522934 0.015537 -0.007263 -666410.000000 1 0 0
4.350137 5.506045 17.653588 18.997089 0.902142 0.378341 0.016518 -0.006162 -314459.000000 1 0 0
-6.880163 -0.913455 15.244588 16.750179 0.131995 0.427235 0.014673 -0.002143 -675672.000000 1 0 0
-1.132763 -9.962555 15.404288 18.380091 1.457581 0.577012 -0.004184 -0.005138 -299314.000000 1 0 0
-4.269463 5.751245 16.392388 17.888977 -0.932206 0.411954 0.011575 -0.010305 -39981.100000 1 0 0
3.663437 -0.011455 17.310788 17.694187 -0.003127 0.208551 0.023764 -0.007399 -291206.000000 1 0 0
1.401137 0.353145 19.208788 19.263058 0.246899 0.075082 0.010167 -0.005350 -230121.000000 1 0 0
-6.346163 6.356145 17.954988 20.076253 -0.786184 0.463843 0.014529 -0.009561 -17960.100000 1 0 0
-12.261863 0.680945 10.896288 16.417857 -0.055477 0.845062 0.007486 -0.003946 -379548.000000 1 0 0
-5.337563 5.245345 14.042888 15.912445 -0.776685 0.489624 0.001707 -0.005167 -753839.000000 1 0 0
-8.769163 -9.496655 10.097888 16.402805 0.825205 0.907624 0.021406 -0.009130 -161019.000000 1 0 0
6.727937 -3.731855 17.030988 18.688136 -0.506430 0.424302 0.017485 -0.001651 -539551.000000 1 0 0
-16.637463 1.816045 9.517188 19.253053 -0.108723 1.053743 0.002841 -0.003615 -71195.900000 1 0 0
-4.207063 -9.455355 11.390188 15.389590 1.152159 0.737543 0.001577 -0.010430 905835.000000 1 0 0
-11.074363 -3.944555 9.172688 14.911044 0.342177 0.908207 0.004280 0.002282 -60194.100000 1 0 0
3.499537 -5.253755 18.437288 19.488003 -0.983185 0.329872 0.013224 -0.010321 -484157.000000 1 0 0
2.475137 -1.955555 16.037888 16.345163 -0.668663 0.194208 0.011231 -0.004152 -910178.000000 1 0 0
-3.298563 -4.340055 20.128488 20.853599 0.920908 0.264480 0.024533 -0.015006 -783472.000000 1 0 0
-6.304163 -3.243255 14.355988 16.011107 0.475151 0.458705 0.016073 -0.004415 56227.500000 1 0 0
-9.575963 5.126845 13.997588 17.717676 -0.491555 0.659930 0.016638 -0.012725 -482025.000000 1 0 0
-5.827663 -5.150055 11.695088 14.044921 0.723751 0.586845 0.008454 -0.004472 -461377.000000 1 0 0
6.249137 1.696145 19.406688 20.458449 0.265035 0.322044 0.038481 -0.009615 132623.000000 1 0 0
-2.895963 11.789445 13.606288 18.234820 -1.329925 0.728505 0.001516 -0.010985 -1867420.000000 1 0 0
3.398837 1.400745 15.184688 15.623345 0.390915 0.237527 0.004727 -0.001346 -1222610.000000 1 0 0
-5.770863 7.456945 12.890888 15.971345 -0.912179 0.631529 -0.009176 -0.010650 -1807020.000000 1 0 0
-1.814963 -1.696455 15.302688 15.503041 0.751662 0.160944 0.008302 -0.003758 -28882.100000 1 0 0
-7.445563 10.491845 14.137588 19.115088 -0.953622 0.738315 0.022510 -0.018914 -213818.000000 1 0 0
-10.202063 2.069045 10.563088 14.830436 -0.200093 0.778087 0.001349 -0.001657 302396.000000 1 0 0
-13.713563 5.194345 9.066288 17.240667 -0.362075 1.017063 -0.002551 -0.008625 -806304.000000 1 0 0
0.281537 -4.944955 19.989188 20.593675 -1.513923 0.242890 0.024453 -0.019256 -253993.000000 1 0 0
-14.460363 -2.789855 7.588388 16.567106 0.190590 1.095008 0.001716 -0.002160 -166757.000000 1 0 0
-2.306263 2.374145 17.648388 17.956085 -0.799901 0.185393 0.010118 -0.008940 -568293.000000 1 0 0
-6.363563 -8.220955 14.614388 17.934864 0.912070 0.618310 0.024441 -0.012617 -606535.000000 1 0 0
-8.017763 2.075145 12.110288 14.671394 -0.253261 0.599823 0.002420 -0.002861 809075.000000 1 0 0
-14.625863 -3.484155 10.099388 18.112229 0.233860 0.979304 0.005330 -0.001984 564745.000000 1 0 0
-0.676563 7.157945 12.848388 14.723280 -1.476557 0.510177 0.005963 -0.001626 -1512650.000000 1 0 0
-1.871863 -2.332255 19.366588 19.596122 0.894473 0.153207 0.023603 -0.007882 -96344.100000 1 0 0
-12.822563 10.367345 7.315688 18.039380 -0.679917 1.153227 -0.002460 -0.015812 211349.000000 1 0 0
-19.519163 2.174045 6.844188 20.798247 -0.110923 1.235472 0.019419 -0.008697 949640.000000 1 0 0
-16.206163 8.384245 6.920288 19.514755 -0.477430 1.208291 0.017261 -0.002174 254416.000000 1 0 0
-12.273863 7.348145 13.561888 19.712121 -0.539450 0.812070 0.015790 -0.016066 -87938.400000 1 0 0
-16.042963 8.191945 10.461888 20.831123 -0.472112 1.044628 0.009597 -0.012068 -651287.000000 1 0 0
1.722837 10.956545 15.155788 18.780626 1.414831 0.631758 -0.001669 -0.005294 506162.000000 1 0 0
2.205037 14.283945 12.610288 19.181048 1.417634 0.853387 -0.001741 -0.005049 -909266.000000 1 0 0
-3.272363 13.696545 11.852888 18.406375 -1.336274 0.871139 -0.000917 -0.001864 38930.600000 1 0 0
9.055237 4.735345 15.837788 18.848245 0.481831 0.572998 0.025819 0.001796 145831.000000 1 0 0
-0.509863 12.564545 12.962588 18.059801 -1.530239 0.770218 -0.002757 -0.002803 -407089.000000 1 0 0
3.694737 13.267545 14.498488 19.997124 1.299198 0.759720 0.000071 -0.003503 -19746.300000 1 0 0
-2.851163 -4.027455 -13.734112 14.593676 0.954767 2.796666 -0.000861 -0.005042 -768568.000000 1 0 0
5.650037 -11.491455 16.271288 20.705827 -1.113833 0.666757 -0.000842 -0.000413 188304.000000 1 0 0
7.826237 -13.650355 7.268588 17.332471 -1.050214 1.138053 -0.005470 -0.006798 -108654.000000 1 0 0
-0.001463 15.635845 1.485588 15.706260 -1.570703 1.476069 -0.006842 0.000498 -3046220.000000 1 0 0
-13.780763 8.122145 9.012188 18.360234 -0.532576 1.057727 -0.001742 -0.009603 612746.000000 1 0 0
-15.502163 -9.721355 4.878088 18.937200 0.560106 1.310266 0.009459 -0.001256 -553072.000000 1 0 0
9.423237 -11.061355 11.137688 18.308443 -0.865197 0.916834 0.003215 -0.006669 212190.000000 1 0 0
-6.039063 -10.523355 -16.722212 20.660196 1.049810 2.513914 0.018313 -0.002992 90741.900000 1 0 0
-1.961263 -12.488455 -14.907212 19.545666 1.415023 2.438253 0.001478 0.005098 -88297.700000 1 0 0
5.514337 -15.302155 -12.980412 20.809973 -1.224919 2.244339 -0.010976 0.006350 124295.000000 1 0 0
2.667537 -11.926655 -16.593112 20.608063 -1.350756 2.506768 -0.006125 0.003646 156790.000000 1 0 0
0.324837 -13.907755 -14.270512 19.929343 -1.547444 2.368931 0.004537 0.009222 251161.000000 1 0 0
-6.618163 -5.747055 -14.552012 16.987931 0.715066 2.599457 0.009557 0.001782 -13387.700000 1 0 0
-6.169963 -8.124255 -17.182212 19.982502 0.921275 2.605797 0.005451 -0.000491 -3239.630000 1 0 0
-2.021563 -16.377555 -13.106212 21.073297 1.447983 2.242007 0.008233 -0.000455 158863.000000 1 0 0
16.303437 -8.126755 -9.224412 20.419011 -0.462422 2.039529 0.023098 -0.000859 -51210.000000 1 0 0
19.034437 -3.268855 -3.532912 19.633560 -0.170075 1.751724 0.015028 -0.017713 207805.000000 1 0 0
15.653737 -11.370055 -9.051012 21.359740 -0.628191 2.008369 0.021178 -0.006606 70274.600000 1 0 0
18.552137 -2.822955 -6.578112 19.885232 -0.151005 1.907952 0.136114 -0.009453 -229749.000000 1 0 0
8.848237 -9.293555 -15.748312 20.314301 -0.809940 2.457880 0.035156 -0.015336 181796.000000 1 0 0
-4.739063 9.174445 -16.134712 19.156150 -1.093996 2.572283 0.016528 -0.018543 497498.000000 1 0 0
2.707137 -9.665755 -18.183612 20.770151 -1.297718 2.637201 0.007962 -0.001253 429869.000000 1 0 0
11.034637 8.159945 -15.147312 20.439887 0.636737 2.405453 0.039793 -0.032109 513964.000000 1 0 0
18.351637 -5.069755 -8.339812 20.785511 -0.269534 1.983658 0.024706 -0.014336 303896.000000 1 0 0
12.399437 5.151145 -14.041412 19.427856 0.393740 2.378564 0.022591 -0.004558 117163.000000 1 0 0
16.053437 6.028045 -10.949612 20.345618 0.359208 2.139073 0.022561 -0.007558 253513.000000 1 0 0
3.270737 -0.364655 -19.187412 19.467601 -0.111032 2.971727 0.026950 -0.007124 194757.000000 1 0 0
10.376837 -1.541155 -14.939412 18.254861 -0.147441 2.529383 0.021448 -0.001186 160091.000000 1 0 0
12.259237 -5.982455 -13.981212 19.533381 -0.453998 2.368508 0.031200 -0.003428 193801.000000 1 0 0
10.091037 6.781845 -12.965712 17.774480 0.591731 2.388324 0.023685 -0.004096 402261.000000 1 0 0
10.486537 5.446445 -16.178412 20.034277 0.479027 2.510760 0.019765 -0.015385 354690.000000 1 0 0
11.905637 -9.960855 -15.218012 21.738232 -0.696693 2.346274 0.051101 -0.017601 246442.000000 1 0 0
-1.840863 2.147945 -17.390312 17.618894 -0.862232 2.980336 -0.002844 -0.009471 397219.000000 1 0 0
6.587637 -1.136855 -17.229712 18.481136 -0.170891 2.771480 0.023937 0.004108 88787.700000 1 0 0
7.232337 -6.596955 -16.070812 18.817480 -0.739486 2.594492 0.016245 -0.000687 233613.000000 1 0 0
-2.483063 -4.674655 -20.127412 20.811793 1.082520 2.884431 0.021916 -0.026579 241782.000000 1 0 0
15.842837 -0.299655 -13.212212 20.631235 -0.018912 2.265813 0.016867 -0.006241 -22642.000000 1 0 0
-4.044763 -0.398255 -18.326712 18.771977 0.098146 2.923354 0.000649 -0.006586 88499.600000 1 0 0
4.475337 8.638945 -18.100512 20.549661 1.092819 2.648384 0.016853 -0.008710 76905.600000 1 0 0
9.210737 1.085945 -15.954912 18.454706 0.117358 2.615039 0.021400 -0.053943 -261672.000000 1 0 0
4.077137 4.208545 -18.385112 19.296302 0.801256 2.833056 0.008387 -0.005559 372666.000000 1 0 0
-2.989763 -10.990255 -17.731412 21.074330 1.305186 2.570619 0.012450 -0.012928 403249.000000 1 0 0
5.899037 -9.493255 -16.280612 19.747883 -1.014795 2.539979 0.011930 -0.009277 132172.000000 1 0 0
9.659437 -13.047655 -11.915612 20.137722 -0.933519 2.203970 -0.000762 0.049776 197462.000000 1 0 0
6.176237 6.988645 -17.245812 19.606252 0.847030 2.645833 0.017375 -0.006000 273492.000000 1 0 0
8.769537 1.286145 -20.217612 22.075117 0.145622 2.728429 0.038977 -0.004169 79499.000000 1 0 0
-1.199563 -0.382855 -20.045412 20.084922 0.308943 3.078859 0.015146 -0.014749 112525.000000 1 0 0
-0.944663 7.003045 -19.609112 20.843520 -1.436713 2.795712 0.020029 -0.005818 -170453.000000 1 0 0
8.417937 5.715245 -18.165112 20.820591 0.596449 2.631008 0.018775 -0.014263 261645.000000 1 0 0
11.795137 0.080445 -12.775612 17.388157 0.006820 2.396066 -0.008674 -0.004960 -71545.000000 1 0 0
-4.260763 -2.712155 -19.726712 20.363032 0.566856 2.890942 -0.010675 -0.004885 359307.000000 1 0 0
5.683937 -11.285055 -14.590012 19.300987 -1.104217 2.427855 -0.008472 -0.003134 99765.300000 1 0 0
11.265537 1.678445 -16.048212 19.679294 0.147901 2.524367 0.024243 0.000792 -537770.000000 1 0 0
-2.968763 -4.207255 -17.064612 17.824577 0.956302 2.848532 0.001164 -0.009233 236872.000000 1 0 0
-6.769163 -4.737255 -17.375712 19.240024 0.610611 2.697736 0.012614 -0.003579 46083.100000 1 0 0
3.091437 10.314045 -15.276412 18.689710 1.279586 2.527628 -0.001274 -0.011057 267122.000000 1 0 0
16.710537 -6.263255 -10.928512 20.926128 -0.358603 2.120275 0.029874 -0.008676 -76807.800000 1 0 0
9.626937 -3.576555 -17.619912 20.394386 -0.355712 2.613876 0.012557 -0.018233 100426.000000 1 0 0
-7.198563 -1.777655 -19.163012 20.547516 0.242102 2.772401 -0.007398 0.022521 481243.000000 1 0 0
1.630137 -7.538855 -19.171712 20.665097 -1.357843 2.759091 0.020688 -0.019680 246014.000000 1 0 0
5.667037 10.132345 -14.075212 18.245310 1.060840 2.451902 0.012652 -0.013730 380623.000000 1 0 0
6.034137 -4.099955 -17.086512 18.578734 -0.596807 2.738064 0.024570 -0.036983 488578.000000 1 0 0
4.694937 13.572845 -14.322812 20.283183 1.237773 2.354831 0.014689 -0.017695 51534.900000 1 0 0
9.351637 11.410345 -15.353612 21.292780 0.884233 2.376144 0.058749 -0.024855 111762.000000 1 0 0
17.289937 1.082345 -11.416812 20.747458 0.062518 2.153490 0.046288 -0.000816 155767.000000 1 0 0
14.569037 -2.911055 -12.603212 19.482609 -0.197214 2.274303 0.023315 0.000793 9974.490000 1 0 0
-8.533563 0.713845 -17.212712 19.225211 -0.083457 2.679945 -0.007273 -0.005713 388843.000000 1 0 0
-3.116463 4.493845 -19.229512 19.992027 -0.964449 2.864516 0.012276 0.000983 206119.000000 1 0 0
3.907837 1.381945 -16.994112 17.492308 0.339909 2.902356 0.007711 -0.002113 365910.000000 1 0 0
-5.078063 14.538845 -13.786312 20.669473 -1.234767 2.300957 0.020561 -0.006645 44595.100000 1 0 0
1.188937 9.202245 -17.704312 19.988436 1.442307 2.658856 0.017365 -0.013731 363733.000000 1 0 0
1.118437 -4.970255 -19.935712 20.576369 -1.349457 2.891399 0.021004 -0.005605 460948.000000 1 0 0
3.910937 -6.402755 -18.000412 19.501425 -1.022458 2.746681 0.028832 -0.021858 -63801.800000 1 0 0
-7.024263 7.495545 -15.945712 18.968110 -0.817845 2.569295 0.008465 -0.006219 -9238.770000 1 0 0
-11.859163 3.582045 -16.590912 20.705776 -0.293335 2.500211 0.029921 -0.019292 122833.000000 1 0 0
-4.545563 7.088545 -17.397012 19.327846 -1.000594 2.690797 0.012123 0.007156 393988.000000 1 0 0
-8.264163 5.228945 -17.518812 20.063575 -0.564135 2.632455 0.012451 -0.013037 250508.000000 1 0 0
-8.494163 4.669845 -14.843512 17.728173 -0.502667 2.563093 -0.011995 -0.024741 467239.000000 1 0 0
9.518437 13.480145 -12.627712 20.779174 0.955983 2.223970 0.057880 -0.032220 439648.000000 1 0 0
13.848537 9.649645 -12.093912 20.764401 0.608574 2.192517 0.040294 -0.016950 219829.000000 1 0 0
8.955337 15.435745 -9.857712 20.387123 1.045086 2.075475 0.030654 -0.015303 23426.300000 1 0 0
7.586237 12.965845 -14.248312 20.704553 1.041409 2.329764 0.051681 -0.036789 198411.000000 1 0 0
4.014537 15.631345 -12.915512 20.670411 1.319403 2.245711 0.028718 -0.020097 186193.000000 1 0 0
11.309837 11.428745 -10.910412 19.431050 0.790627 2.166986 0.055581 -0.030974 275530.000000 1 0 0
16.071637 10.433545 -10.512112 21.855454 0.575806 2.072572 0.046554 -0.002167 190713.000000 1 0 0
13.564337 11.500045 -9.880312 20.343619 0.703224 2.077927 0.066379 -0.011397 161074.000000 1 0 0
10.774437 11.287245 -7.583012 17.349134 0.808638 2.023149 0.018426 -0.010232 107338.000000 1 0 0
5.955837 16.704445 -9.928512 20.324513 1.228305 2.081165 0.038223 -0.015425 91842.200000 1 0 0
11.839637 13.584045 -10.224412 20.718154 0.853904 2.086906 0.060272 -0.030183 283298.000000 1 0 0
8.479137 -19.485155 -1.726612 21.320137 -1.160353 1.651870 0.029099 0.009509 243528.000000 1 0 0
7.191237 -16.754955 -3.753812 18.615411 -1.165373 1.773839 0.017071 -0.005805 325780.000000 1 0 0
3.981237 -18.320455 4.900988 19.378055 -1.356812 1.315105 0.040382 -0.029053 19439.200000 1 0 0
10.201637 -17.987655 -2.818912 20.870444 -1.054884 1.706278 0.028642 0.008960 599640.000000 1 0 0
-3.448463 -14.736355 7.920388 17.081704 1.340922 1.088656 0.031870 -0.034709 104446.000000 1 0 0
-15.348363 -12.748355 -4.196012 20.388706 0.693123 1.778078 0.001730 0.001831 76027.300000 1 0 0
-9.592563 -12.814455 -7.187612 17.546775 0.928209 1.992840 0.021047 -0.004709 272900.000000 1 0 0
-11.602363 -15.456355 6.666688 20.444033 0.926877 1.238627 0.010935 0.002018 305395.000000 1 0 0
-15.127963 -7.413855 -7.420112 18.408655 0.455677 1.985673 0.039843 -0.016083 -8776.840000 1 0 0
4.876237 -15.006455 6.442888 17.043538 -1.256616 1.183134 0.028795 -0.021654 151299.000000 1 0 0
2.682037 -13.942855 9.213088 16.925647 -1.380758 0.995210 0.024712 -0.013113 164961.000000 1 0 0
3.252237 -17.464755 9.986088 20.379320 -1.386688 1.058694 0.049906 -0.012712 348699.000000 1 0 0
-7.553563 -17.424555 -5.370612 19.736132 1.161747 1.846393 -0.014961 -0.008311 8724.570000 1 0 0
1.783037 -19.749255 -4.530712 20.340592 -1.480757 1.795423 0.013014 -0.002925 16912.000000 1 0 0
-18.079063 -10.655055 -1.723812 21.055979 0.532558 1.652756 -0.015996 0.002327 -157353.000000 1 0 0
-4.245463 -14.885255 2.895788 15.747392 1.292961 1.385854 0.003759 0.003238 168426.000000 1 0 0
-11.060863 -9.795755 -14.563712 20.746114 0.724815 2.348994 0.029164 0.003311 -16524.600000 1 0 0
0.187437 -20.146955 2.386388 20.288662 -1.561493 1.452902 0.023788 -0.018935 267521.000000 1 0 0
5.162237 -18.574655 0.586488 19.287573 -1.299719 1.540384 -0.001555 0.006934 172121.000000 1 0 0
-7.927663 -19.139955 -3.618512 21.030439 1.178114 1.743718 0.031851 -0.013559 -50004.800000 1 0 0
-9.134763 -15.849455 -7.579612 19.801506 1.047951 1.963599 0.022365 -0.010373 -10684.800000 1 0 0
-11.995263 -11.173255 -12.257012 20.468569 0.749934 2.212825 0.034217 0.002817 301952.000000 1 0 0
-13.384863 -15.368255 -3.470512 20.673226 0.854269 1.739470 0.007148 0.007116 183163.000000 1 0 0
-0.330163 -20.481155 -2.362212 20.619573 1.554677 1.685610 0.021813 -0.013508 419921.000000 1 0 0
-12.050963 -16.734455 -0.808212 20.637851 0.946688 1.609968 0.017000 -0.000746 23897.000000 1 0 0
0.955337 -19.863155 5.464988 20.623378 -1.522737 1.302603 0.045021 -0.024411 204342.000000 1 0 0
-18.203863 -9.344955 2.409388 20.603736 0.474271 1.453589 0.015483 0.004288 -12497.300000 1 0 0
-14.512463 -14.982755 -0.126612 20.859304 0.801342 1.576866 -0.006754 -0.001140 -73048.400000 1 0 0
9.372737 -15.006155 -6.018112 18.688247 -1.012490 1.898666 0.016199 0.005711 51314.000000 1 0 0
0.134837 -18.652355 -7.300012 20.030445 -1.563567 1.943834 0.009641 -0.004181 242897.000000 1 0 0
-9.989463 -16.969655 -2.348212 19.831104 1.038752 1.689485 0.017194 0.002449 471745.000000 1 0 0
-15.281463 -6.641655 -11.107712 20.025383 0.409992 2.158777 0.046204 -0.007068 115028.000000 1 0 0
-11.999963 -15.424255 2.463288 19.697070 0.909619 1.445409 0.009566 -0.000784 210581.000000 1 0 0
-2.803763 -16.187555 10.163788 19.318401 1.399293 1.016765 0.024466 -0.019834 410836.000000 1 0 0
-12.228263 -14.517855 -6.669612 20.119201 0.870795 1.908694 0.004356 -0.001198 152890.000000 1 0 0
5.284737 -16.968155 -7.158712 19.159695 -1.268868 1.953720 0.002637 0.004907 145606.000000 1 0 0
-17.628963 -7.629155 -3.104512 19.458220 0.408427 1.731029 -0.009841 0.007277 1720.210000 1 0 0
-11.864063 -13.810655 -9.644012 20.603329 0.861071 2.057913 0.022204 -0.016714 225.082000 1 0 0
-7.898763 -13.949655 10.369988 19.092406 1.055575 0.996615 0.017359 0.001516 495184.000000 1 0 0
-15.831963 -8.153355 -5.687912 18.694400 0.475570 1.879955 0.019149 0.004215 341082.000000 1 0 0
-0.779963 -19.664655 -0.049612 19.680180 1.531154 1.573317 0.017914 -0.009800 302747.000000 1 0 0
-15.041863 -11.495555 -1.854112 19.022176 0.652551 1.668422 0.003643 0.006191 124618.000000 1 0 0
-6.953763 -18.935155 1.373988 20.218377 1.218845 1.502787 0.006122 -0.006531 103651.000000 1 0 0
-2.070263 -20.601655 -5.283012 21.368772 1.470642 1.820617 0.007433 -0.004686 197683.000000 1 0 0
-8.819763 -19.911255 -0.782912 21.791266 1.153818 1.606732 0.008583 0.009823 134005.000000 1 0 0
-17.681163 -7.481955 4.946188 19.825941 0.400311 1.318652 0.007206 -0.001929 -107498.000000 1 0 0
-3.374663 -15.754355 -10.942812 19.476478 1.359780 2.167414 0.010427 0.003523 141134.000000 1 0 0
-3.111463 -18.522255 -7.754112 20.319483 1.404365 1.962334 0.003176 -0.001016 160312.000000 1 0 0
4.398937 -16.904355 -4.492212 18.035738 -1.316217 1.822519 -0.001289 -0.019338 447556.000000 1 0 0
1.057437 -17.368555 -9.330112 19.744262 -1.509989 2.062976 0.014501 0.008887 -35588.200000 1 0 0
-7.679063 -10.127155 -14.270912 19.109846 0.922027 2.414008 0.014909 -0.019927 342327.000000 1 0 0
-5.006263 -19.577455 -2.102612 20.316506 1.320445 1.674475 0.010665 -0.009892 347147.000000 1 0 0
-10.539563 -15.009055 8.774388 20.330863 0.958586 1.124553 0.009614 -0.026749 150595.000000 1 0 0
-7.188963 -15.192755 -10.219612 19.670828 1.128831 2.117099 0.017182 -0.013908 294341.000000 1 0 0
-12.527963 -8.241755 -12.171512 19.313780 0.581887 2.252605 0.009082 -0.000572 205067.000000 1 0 0
-15.695463 -13.150855 3.239188 20.731254 0.697413 1.413907 0.007802 0.004441 36255.700000 1 0 0
-5.993463 -14.387655 -13.248612 20.456098 1.176088 2.275307 -0.002690 -0.000369 291908.000000 1 0 0
-14.178863 -11.413355 -6.609312 19.364603 0.677755 1.919105 0.019034 -0.012635 136020.000000 1 0 0
-12.417563 -10.646655 -8.265012 18.326417 0.708767 2.038669 0.045905 -0.002049 296038.000000 1 0 0
-9.736563 -14.579655 3.567388 17.891150 0.981997 1.370057 -0.001896 -0.009058 423108.000000 1 0 0
5.334937 -17.709255 7.898788 20.111443 -1.278192 1.167175 0.058271 -0.038853 197414.000000 1 0 0
-5.114263 -16.769955 5.662188 18.424100 1.274790 1.258416 0.010485 0.014143 584335.000000 1 0 0
-18.485363 -7.325355 -6.831212 21.024627 0.377294 1.901718 0.003030 0.001121 -208345.000000 1 0 0
-17.125563 -3.278255 -10.548412 20.378932 0.189137 2.114856 0.027244 -0.014203 -38710.600000 1 0 0
-15.762363 -4.171655 -13.150012 20.947019 0.258727 2.249488 0.020169 -0.000388 258545.000000 1 0 0
-19.426263 -4.849055 -6.108312 20.933335 0.244615 1.866903 0.017818 0.009037 -494980.000000 1 0 0
5.017437 -13.684655 8.987788 17.123808 -1.219369 1.018233 0.018996 -0.006530 110775.000000 1 0 0
19.706737 -3.579355 2.624088 20.200325 -0.179672 1.440525 0.023076 -0.008050 -47664.500000 1 0 0
17.958437 -2.619355 -0.217512 18.149760 -0.144835 1.582781 0.017904 -0.010046 240677.000000 1 0 0
14.313937 -11.611455 0.276388 18.433423 -0.681533 1.555802 0.031895 0.004823 53045.900000 1 0 0
10.987437 -13.867755 5.337488 18.480454 -0.900768 1.277804 0.002574 0.002135 459038.000000 1 0 0
9.827037 -13.097355 9.144188 18.754401 -0.927099 1.061486 -0.000720 -0.005291 446783.000000 1 0 0
17.694337 4.826245 -4.542012 18.894763 0.266279 1.813559 -0.012049 0.000564 -88858.700000 1 0 0
18.694137 -6.242455 -4.955212 20.322233 -0.322284 1.817112 0.020540 -0.010073 -13922.000000 1 0 0
17.643737 -10.158255 -0.484012 20.364820 -0.522392 1.594566 0.037126 0.003058 370163.000000 1 0 0
17.642937 -8.723355 8.843088 21.577080 -0.459189 1.148521 0.070757 -0.005179 9061.660000 1 0 0
19.925937 0.508845 -2.244812 20.058442 0.025531 1.682945 0.025553 -0.006149 -41540.100000 1 0 0
7.430637 -12.934955 11.732088 18.978127 -1.049367 0.904359 0.010452 -0.009788 325577.000000 1 0 0
15.924837 -6.788455 -3.344012 17.631392 -0.402955 1.761615 0.017798 -0.002177 467577.000000 1 0 0
14.424337 -6.965055 12.032988 20.034128 -0.449849 0.926514 0.037063 -0.024873 282444.000000 1 0 0
16.989137 0.892545 9.786688 19.626683 0.052488 1.048765 0.081189 -0.031291 306562.000000 1 0 0
16.604237 -10.419955 2.465488 19.757399 -0.560429 1.445682 0.015960 0.005452 164949.000000 1 0 0
16.277537 -7.525555 -6.260712 18.994439 -0.433058 1.906684 0.023820 0.004458 252395.000000 1 0 0
18.879437 -4.622855 5.714288 20.259739 -0.240137 1.284865 0.139914 -0.011219 -140960.000000 1 0 0
13.024737 -13.452755 7.827388 20.295034 -0.801562 1.174852 0.000598 -0.009268 389456.000000 1 0 0
15.240937 -14.570155 -1.523812 21.139953 -0.762901 1.642941 0.034911 0.005941 178161.000000 1 0 0
18.671037 -6.305455 8.347588 21.402070 -0.325687 1.170125 0.053436 -0.006043 357305.000000 1 0 0
19.604737 3.665945 2.753088 20.133663 0.184858 1.433626 0.033510 -0.001473 367898.000000 1 0 0
15.593837 -10.916855 8.134088 20.700456 -0.610776 1.166967 0.032331 -0.014999 317236.000000 1 0 0
14.176337 -4.282255 10.656288 18.244526 -0.293355 0.947048 0.035062 -0.015269 -69236.500000 1 0 0
18.696237 -7.921655 2.234788 20.427829 -0.400772 1.461178 0.045139 -0.000344 57759.000000 1 0 0
18.759337 -5.336855 -2.194312 19.626762 -0.277168 1.682833 0.020271 -0.005465 390531.000000 1 0 0
14.559337 -13.760755 -6.218912 20.976357 -0.757207 1.871793 0.029559 -0.001179 344760.000000 1 0 0
13.706937 -9.564055 10.440188 19.706568 -0.609216 1.012453 0.015024 -0.011694 373132.000000 1 0 0
14.203137 2.410545 0.547688 14.416650 0.168117 1.532797 -0.003160 -0.002793 -145132.000000 1 0 0
13.010237 2.388345 13.536388 18.926285 0.181553 0.773863 0.030767 -0.008937 124029.000000 1 0 0
18.415337 -3.472155 8.769888 20.690371 -0.186359 1.133090 0.046146 -0.019056 217186.000000 1 0 0
6.978337 -18.019455 4.971788 19.952860 -1.201315 1.318966 0.019693 -0.022979 227066.000000 1 0 0
12.584937 -3.117755 15.070988 19.880536 -0.242848 0.710436 0.020876 0.008812 243745.000000 1 0 0
12.436137 -14.189855 -7.405612 20.269499 -0.851168 1.944813 0.049860 0.014766 206802.000000 1 0 0
10.334537 -18.342755 5.445188 21.746480 -1.057714 1.317709 -0.008504 0.012502 459567.000000 1 0 0
18.398337 -0.329855 -4.683812 18.988042 -0.017927 1.820041 0.035893 -0.017090 315721.000000 1 0 0
4.345737 -13.653555 11.621288 18.448830 -1.262649 0.889346 0.017957 -0.010295 313582.000000 1 0 0
9.194037 -2.734855 14.152888 17.097192 -0.289125 0.595639 0.020474 -0.005491 424681.000000 1 0 0
8.980137 -9.322655 14.168888 19.191460 -0.804110 0.740263 0.014435 -0.004955 275867.000000 1 0 0
21.034537 5.562445 -2.902312 21.950307 0.258526 1.703407 0.024878 -0.001061 508498.000000 1 0 0
14.592937 -13.646055 1.898788 20.069231 -0.751880 1.476043 0.015311 0.005611 164953.000000 1 0 0
10.917837 0.021745 14.080888 17.817717 0.001992 0.659539 0.015747 -0.022393 130417.000000 1 0 0
19.477237 0.348545 7.508588 20.877336 0.017893 1.202901 0.063890 -0.021599 -5743.230000 1 0 0
19.892137 1.404345 0.253388 19.943257 0.070481 1.558091 0.026861 -0.003928 137379.000000 1 0 0
17.866037 0.215445 2.974988 18.113317 0.012058 1.405806 0.014176 -0.003368 64384.200000 1 0 0
10.083937 -8.546755 16.236188 20.936729 -0.703077 0.683308 0.017175 -0.001330 151358.000000 1 0 0
19.040837 2.996045 5.569088 20.063512 0.156069 1.289529 0.034183 -0.009831 190636.000000 1 0 0
15.201137 2.436645 7.064288 16.938594 0.158941 1.140596 0.029546 -0.011459 45137.300000 1 0 0
11.133637 -15.935355 2.334588 19.579166 -0.960960 1.451274 -0.004268 0.007869 115402.000000 1 0 0
8.627437 -16.469555 7.081588 19.895422 -1.088258 1.206876 0.008978 -0.000532 268297.000000 1 0 0
6.132937 6.656345 7.285588 11.618934 0.826301 0.893043 0.001075 0.001116 -742228.000000 1 0 0
18.496637 2.157945 -6.441712 19.704770 0.116142 1.903830 0.012067 -0.004601 158272.000000 1 0 0
14.308137 4.413045 -7.133312 16.585593 0.299172 2.015390 0.014245 -0.006062 411188.000000 1 0 0
-10.619163 -3.859755 -13.951612 17.953045 0.348625 2.460868 0.007370 0.009064 -314727.000000 1 0 0
7.643637 -14.046455 -10.508212 19.135063 -1.072441 2.152155 -0.004641 0.012500 -38457.900000 1 0 0
1.812937 -15.924555 13.887688 21.207217 -1.457439 0.856803 0.018673 -0.008432 369722.000000 1 0 0
-9.469963 -8.021255 2.411488 12.642626 0.702762 1.378878 0.002640 0.002738 492615.000000 1 0 0
-13.612463 2.994845 -9.669312 16.963603 -0.216558 2.177306 0.001411 -0.005092 279671.000000 1 0 0
-13.104063 -5.216355 -13.371012 19.434783 0.378843 2.329517 0.015032 0.016490 168747.000000 1 0 0
-17.479463 0.042545 -8.795412 19.567644 -0.002434 2.036988 0.008544 -0.005455 408827.000000 1 0 0
-12.164263 15.254745 4.151088 19.947633 -0.897638 1.361165 0.013210 -0.014596 393943.000000 1 0 0
-17.184563 6.538245 9.056588 20.495844 -0.363559 1.113109 0.007880 -0.011408 121678.000000 1 0 0
-13.557563 15.218245 0.132788 20.381857 -0.843045 1.564281 0.040054 -0.028282 174143.000000 1 0 0
-15.938363 5.093845 -10.482412 19.744863 -0.309337 2.130450 0.016007 -0.009799 291563.000000 1 0 0
-18.214963 3.187545 -0.084412 18.491956 -0.173242 1.575361 0.036268 -0.009348 -60972.200000 1 0 0
-9.899963 15.371145 -0.379512 18.287301 -0.998607 1.591551 0.017089 -0.007725 94386.300000 1 0 0
-18.079363 12.524045 2.681688 22.156410 -0.605827 1.449464 0.076134 -0.011950 102778.000000 1 0 0
-8.640763 16.341545 -7.695212 20.023115 -1.084406 1.965264 0.057927 -0.028832 138894.000000 1 0 0
-15.012463 -1.858055 -13.036912 19.969664 0.123141 2.282118 0.015047 -0.008861 159372.000000 1 0 0
-18.986663 5.374745 -4.846612 20.319225 -0.275862 1.811642 0.047086 -0.012518 -11265.000000 1 0 0
-16.573963 9.859745 -5.558712 20.070129 -0.536656 1.851430 0.041892 0.003839 7530.480000 1 0 0
-18.982163 1.281445 2.360788 19.171278 -0.067406 1.447341 0.019646 -0.010081 343214.000000 1 0 0
-13.529563 12.325345 -6.868312 19.548322 -0.738856 1.929809 0.024548 -0.006509 9254.440000 1 0 0
-13.100563 4.449845 -13.192012 19.116879 -0.327441 2.332384 0.016190 -0.016453 -102569.000000 1 0 0
-14.177063 9.305445 -6.512512 18.165716 -0.580842 1.937463 0.025182 -0.014564 -242463.000000 1 0 0
-6.391563 11.116845 -15.289912 19.955393 -1.049004 2.443710 0.011649 -0.039472 210024.000000 1 0 0
-14.909963 13.911245 3.042488 20.617625 -0.750760 1.422688 0.026503 -0.020309 11396.400000 1 0 0
-18.570063 8.602045 -4.626012 20.981954 -0.433794 1.793099 0.050507 -0.012608 181711.000000 1 0 0
-3.765363 16.945745 -10.008712 20.037728 -1.352148 2.093810 0.020290 -0.005418 153442.000000 1 0 0
-19.356663 -2.288155 -6.431612 20.525148 0.117664 1.889518 0.010856 0.003098 -36061.000000 1 0 0
-10.244763 13.171245 -6.173312 17.791757 -0.909731 1.925141 0.014899 -0.037454 14884.300000 1 0 0
-19.505063 3.220645 4.396188 20.252074 -0.163642 1.351981 0.037810 -0.000127 113311.000000 1 0 0
-14.879063 12.154145 0.434088 19.217132 -0.684939 1.548206 0.016457 -0.013262 74599.300000 1 0 0
-17.509763 2.505745 -8.788512 19.751164 -0.142141 2.031928 0.010073 -0.005032 280316.000000 1 0 0
-16.180363 12.426545 -5.068612 21.021750 -0.654923 1.814309 0.019743 -0.014179 193121.000000 1 0 0
-11.092963 15.700645 -8.171512 20.888697 -0.955702 1.972724 0.051469 -0.024447 147888.000000 1 0 0
-19.231063 2.470045 -6.562812 20.469621 -0.127741 1.897172 0.032750 -0.008496 90762.900000 1 0 0
-17.593663 10.736345 -1.018512 20.635974 -0.547914 1.620173 0.066985 0.003778 4634.340000 1 0 0
-11.714663 6.774845 -14.434812 19.786249 -0.524327 2.388442 0.001341 -0.016501 429926.000000 1 0 0
-13.391163 13.373945 -4.947212 19.561711 -0.784755 1.826476 0.042092 -0.007088 322453.000000 1 0 0
-18.705363 7.761945 0.299488 20.254088 -0.393335 1.556009 0.036865 -0.006954 90823.600000 1 0 0
-14.557963 8.791445 -10.135212 19.797634 -0.543277 2.108239 0.010029 -0.008555 566833.000000 1 0 0
-18.713563 11.658545 4.732188 22.550226 -0.557160 1.359374 0.058229 -0.020048 172640.000000 1 0 0
-8.190763 12.017645 -13.345112 19.738399 -0.972553 2.313252 -0.003831 -0.005745 543019.000000 1 0 0
-20.855063 0.047745 -4.813012 21.403294 -0.002289 1.797609 0.006752 -0.002020 1802.630000 1 0 0
-10.618563 13.667845 -3.454612 17.649311 -0.910300 1.767805 0.023245 -0.003250 357363.000000 1 0 0
-18.726563 -4.583955 3.390288 19.575261 0.240063 1.396726 0.015073 -0.010212 -109012.000000 1 0 0
-11.081863 11.462545 -13.465912 20.869317 -0.802282 2.272146 0.004471 0.005396 254551.000000 1 0 0
-14.811563 11.976645 -10.220112 21.616501 -0.679963 2.063253 0.025218 0.009582 287008.000000 1 0 0
-12.998863 8.695245 -12.853412 20.243219 -0.589563 2.258739 0.039585 -0.030604 26617.800000 1 0 0
-18.198863 -4.867955 -3.191412 19.107085 0.261368 1.738611 -0.013743 0.000645 -261721.000000 1 0 0
-9.549263 12.878345 -11.437212 19.693908 -0.932759 2.190444 0.023538 -0.006783 151623.000000 1 0 0
-15.519663 7.694145 -8.215012 19.171495 -0.460256 2.013630 0.007690 -0.007967 63476.200000 1 0 0
-14.581163 9.371545 1.970288 17.444718 -0.571238 1.457610 0.017008 -0.001519 -173727.000000 1 0 0
-19.692763 6.295145 7.952488 22.151203 -0.309402 1.203590 0.039397 -0.010525 277013.000000 1 0 0
-18.442463 5.918845 3.524288 19.686994 -0.310551 1.390810 0.009521 -0.004446 156546.000000 1 0 0
-14.531463 12.739445 5.838288 20.187681 -0.719781 1.277405 0.020734 -0.017029 38081.600000 1 0 0
17.954937 6.188445 5.878088 19.880355 0.331914 1.270636 0.031804 -0.012502 122296.000000 1 0 0
18.188437 7.402145 0.548688 19.644644 0.386500 1.542862 0.015699 0.001365 -193036.000000 1 0 0
16.910837 4.374745 8.616888 19.477309 0.253145 1.112516 0.048397 -0.012224 -63470.200000 1 0 0
11.973437 13.206645 10.620888 20.750468 0.834335 1.033473 0.040025 -0.018328 93829.500000 1 0 0
15.514237 12.663445 4.296688 20.482088 0.684569 1.359449 0.035888 -0.005399 182663.000000 1 0 0
4.525737 10.147645 13.730688 17.663204 1.151283 0.680336 0.011374 -0.018509 238693.000000 1 0 0
13.284937 13.197445 -5.276512 19.455171 0.782094 1.845450 0.034029 -0.004697 554249.000000 1 0 0
17.125137 9.113545 -3.049212 19.637330 0.489054 1.726703 -0.029463 0.007472 -42680.600000 1 0 0
14.827137 7.590745 9.517888 19.184723 0.473161 1.051674 0.049445 -0.004792 182045.000000 1 0 0
4.712137 19.050345 -1.435012 19.676868 1.328312 1.643790 -0.009971 -0.010437 475636.000000 1 0 0
-4.516363 18.989445 3.497188 19.829948 -1.337299 1.393510 -0.000987 -0.010988 149159.000000 1 0 0
6.728437 12.648945 12.662788 19.121032 1.081927 0.846987 0.014973 -0.000713 -60926.900000 1 0 0
1.130837 16.674045 -10.208712 19.583676 1.503080 2.119155 0.005983 -0.008887 141219.000000 1 0 0
10.475737 9.732445 15.500188 21.088323 0.748633 0.745111 0.022489 -0.001408 130186.000000 1 0 0
-1.366563 12.433045 0.948088 12.543802 -1.461322 1.495142 -0.007139 0.003660 455244.000000 1 0 0
-4.708763 19.196745 -2.697412 19.949022 -1.330256 1.706427 0.016703 0.012554 -12142.900000 1 0 0
6.402637 18.124645 6.232688 20.207496 1.231224 1.257250 0.022213 -0.028888 150589.000000 1 0 0
11.037137 17.368845 -1.471512 20.631542 1.004713 1.642180 0.018617 -0.015874 364249.000000 1 0 0
18.504937 10.494445 3.356088 21.536699 0.515889 1.414328 0.031354 -0.001070 304687.000000 1 0 0
11.738237 16.832345 6.108188 21.410838 0.961843 1.281493 0.044543 -0.008806 -152340.000000 1 0 0
18.236237 7.332145 -5.608312 20.439517 0.382285 1.848747 0.010110 0.010258 314681.000000 1 0 0
0.385437 15.340645 11.097288 18.937627 1.545676 0.944693 -0.002340 0.001079 462211.000000 1 0 0
1.347437 20.417245 -2.044212 20.563518 1.504897 1.670370 -0.007464 0.009456 238440.000000 1 0 0
14.482037 9.604545 -1.094812 17.411930 0.585602 1.633715 0.017483 -0.006270 40325.800000 1 0 0
10.099637 17.018045 1.964388 19.886562 1.035195 1.471855 0.036222 -0.030521 251069.000000 1 0 0
0.031537 17.669245 -0.311812 17.672024 1.569011 1.588442 -0.014978 0.000684 -36785.000000 1 0 0
-0.309263 21.214645 1.419788 21.264350 -1.556220 1.503978 -0.000946 0.006070 246033.000000 1 0 0
5.955737 16.892345 -0.353212 17.914990 1.231834 1.590514 -0.002847 -0.036051 -40230.300000 1 0 0
6.635137 18.603445 -2.607712 19.922685 1.228199 1.702065 -0.011453 -0.016406 -7860.710000 1 0 0
10.044437 9.569145 12.685088 18.798157 0.761170 0.830096 0.015996 -0.006869 132468.000000 1 0 0
12.414137 14.753245 8.105388 20.915696 0.871286 1.172849 0.022944 -0.017549 195274.000000 1 0 0
0.346737 17.523145 7.419888 19.032487 1.551012 1.170323 0.002833 -0.001613 311012.000000 1 0 0
7.186737 17.785545 -8.023012 20.792872 1.186780 1.966930 0.007867 -0.012417 28904.500000 1 0 0
-0.578763 18.473745 9.971288 21.000971 -1.539478 1.076058 0.005740 0.003522 105935.000000 1 0 0
16.204037 7.267945 -7.865312 19.423104 0.421628 1.987716 0.037086 0.001147 -176089.000000 1 0 0
-4.866763 19.719345 -6.795912 21.417805 -1.328830 1.893679 0.011281 -0.009350 360752.000000 1 0 0
3.611037 15.771445 9.620088 18.823500 1.345715 1.034370 0.009399 -0.000468 166749.000000 1 0 0
8.859537 14.802845 7.753188 18.913686 1.031479 1.148425 0.022490 -0.012487 94036.500000 1 0 0
-2.865763 20.101445 6.296288 21.258502 -1.429186 1.270108 0.021376 0.001768 108192.000000 1 0 0
4.813037 18.039945 8.334788 20.446848 1.310070 1.150937 0.016455 -0.009664 58434.100000 1 0 0
13.626937 11.093445 -7.114712 18.957243 0.683269 1.955520 -0.058321 -0.025447 14785.100000 1 0 0
11.549137 7.155345 15.699088 20.761572 0.554675 0.713370 0.029357 -0.008605 206349.000000 1 0 0
17.031637 8.830845 4.819788 19.781073 0.478335 1.324662 0.037345 -0.013690 254549.000000 1 0 0
4.735437 15.033545 11.754288 19.662022 1.265643 0.930021 -0.006734 -0.009869 467562.000000 1 0 0
15.975837 11.820445 -4.676312 20.416126 0.637003 1.801898 0.032642 0.039364 162462.000000 1 0 0
15.164237 14.316545 7.082688 22.024577 0.756652 1.243398 0.033043 0.013118 256057.000000 1 0 0
12.573137 14.433445 -7.970512 20.734926 0.854173 1.965354 0.046183 -0.019566 318743.000000 1 0 0
-8.407863 15.455445 9.681188 20.082040 -1.072566 1.067767 0.020172 -0.012890 248312.000000 1 0 0
-4.631663 16.572645 -7.297212 18.691018 -1.298273 1.971876 0.012806 -0.011147 84513.000000 1 0 0
2.644937 19.188445 -4.716712 19.935884 1.433819 1.809655 -0.006076 -0.017937 -19217.600000 1 0 0
6.942337 16.625645 8.960388 20.122044 1.175237 1.109285 0.016926 -0.006810 534380.000000 1 0 0
13.363137 15.627545 -1.343512 20.605791 0.863348 1.636043 0.042317 -0.020729 192018.000000 1 0 0
12.982037 16.580045 4.454688 21.523834 0.906513 1.362324 0.038897 -0.025020 164601.000000 1 0 0
2.592737 18.382745 0.585988 18.573932 1.430679 1.539242 -0.000111 -0.013046 101022.000000 1 0 0
-6.899163 18.093145 1.150088 19.398016 -1.206502 1.511473 -0.015275 0.023703 267193.000000 1 0 0
0.300937 19.855745 -5.956812 20.732216 1.555641 1.862226 0.004537 0.005237 258505.000000 1 0 0
-7.604263 17.903445 -6.472412 20.500006 -1.169148 1.892019 0.057158 -0.020601 136047.000000 1 0 0
-7.145463 18.808745 -1.859212 20.206018 -1.207736 1.662939 0.018872 0.001933 -18326.500000 1 0 0
-14.599563 -9.551155 8.807488 19.543378 0.579328 1.103288 0.018338 0.003795 487279.000000 1 0 0
-12.972463 -13.636355 7.898388 20.411259 0.810343 1.173461 0.005288 0.004964 133905.000000 1 0 0
-4.012663 -15.729455 12.632788 20.569505 1.321019 0.909486 0.031337 -0.015515 170302.000000 1 0 0
-2.533663 -14.952655 14.467188 20.959505 1.402945 0.808969 0.025207 -0.030035 176306.000000 1 0 0
-7.647763 -13.388055 13.602488 20.561030 1.051794 0.847891 0.005837 -0.010723 294016.000000 1 0 0
-10.181863 -10.794655 11.972988 19.066918 0.814603 0.891886 0.036409 -0.012211 44920.700000 1 0 0
-7.384663 -10.373455 13.255288 18.380546 0.952141 0.765323 0.022955 -0.010532 375516.000000 1 0 0
-15.293463 -12.458455 6.959888 20.917532 0.683596 1.231599 0.008863 0.000520 258746.000000 1 0 0
-4.563963 -12.136755 13.029288 18.381864 1.211110 0.782984 0.015589 -0.025058 95127.400000 1 0 0
3.418037 -12.264455 13.939288 18.878654 -1.298999 0.740157 0.005575 -0.003162 477169.000000 1 0 0
6.707237 -13.410155 14.810188 21.075126 -1.107020 0.791565 0.017419 0.000958 418815.000000 1 0 0
6.795537 -9.392255 16.406088 20.088641 -0.944455 0.615154 -0.000397 -0.001511 349518.000000 1 0 0
-5.321663 13.356745 13.413088 19.663002 -1.191648 0.820099 0.003515 -0.009577 402347.000000 1 0 0
-13.822263 -1.753155 17.431888 22.315896 0.126162 0.674303 0.012688 -0.003965 352437.000000 1 0 0
-10.161863 11.027845 14.011588 20.523192 -0.826243 0.819318 0.010796 0.033193 453866.000000 1 0 0
-7.533963 -8.125755 17.122088 20.394960 0.823171 0.574387 0.033460 -0.015067 305343.000000 1 0 0
-4.948763 2.216845 18.237288 19.026384 -0.421156 0.289011 0.025492 -0.013154 588204.000000 1 0 0
-14.999963 -3.613555 14.931788 21.471258 0.236400 0.801776 -0.003110 -0.004223 72310.900000 1 0 0
-14.559963 3.459845 12.774788 19.676337 -0.233300 0.864203 0.003148 0.004394 293694.000000 1 0 0
-13.874363 10.512045 9.532888 19.846334 -0.648385 1.069760 -0.049036 -0.003465 -261460.000000 1 0 0
-4.474663 11.102145 16.033388 20.008741 -1.187668 0.641299 0.009570 -0.006989 253412.000000 1 0 0
-13.099563 12.847345 7.876888 19.967427 -0.775678 1.165287 0.008827 -0.034834 66215.100000 1 0 0
-4.812263 -6.631455 18.508888 20.241368 0.943048 0.416751 0.029830 -0.011195 342576.000000 1 0 0
0.351137 -2.850355 18.036388 18.263600 -1.448223 0.157903 0.008134 -0.009154 24917.300000 1 0 0
-3.840063 6.480045 21.297488 22.590264 -1.035837 0.339945 0.020632 -0.010402 167449.000000 1 0 0
2.126337 -10.644755 16.342388 19.619015 -1.373637 0.586312 0.000853 -0.006122 336396.000000 1 0 0
-15.244763 -0.112955 13.425288 20.313884 0.007409 0.848789 0.000205 -0.007207 -18345.400000 1 0 0
-14.238663 -5.949855 7.745788 17.266659 0.395813 1.105600 0.014647 -0.001999 19891.400000 1 0 0
10.138337 0.471845 16.686088 19.530336 0.046507 0.546464 0.028827 0.012095 560458.000000 1 0 0
-7.681463 12.328745 11.746988 18.681395 -1.013598 0.890779 0.006950 -0.014039 95187.600000 1 0 0
-1.817763 7.582045 20.098788 21.558129 -1.335492 0.370057 0.009816 -0.020244 628891.000000 1 0 0
0.533337 -14.249955 15.780588 21.269053 -1.533386 0.734821 -0.000583 0.010975 572697.000000 1 0 0
-3.098063 -11.467555 17.892488 21.476590 1.306936 0.586079 0.013412 -0.008945 588782.000000 1 0 0
-2.157563 8.529645 16.809388 18.972755 -1.323044 0.482204 0.002722 -0.016701 493010.000000 1 0 0
-5.710963 -9.376455 20.093588 22.897276 1.023731 0.500060 0.089694 -0.022468 225384.000000 1 0 0
-6.865563 -3.027255 19.153988 20.571229 0.415289 0.373364 0.029952 -0.012798 307113.000000 1 0 0
-11.275563 -8.176755 15.204388 20.619676 0.627423 0.741624 0.081456 -0.028408 306443.000000 1 0 0
-0.682963 6.168145 17.669188 18.727323 -1.460521 0.337765 0.013977 -0.016881 -118766.000000 1 0 0
-6.258963 -11.267155 18.740988 22.745286 1.063736 0.602449 0.051505 -0.018786 470979.000000 1 0 0
0.598537 3.468145 18.596088 18.926192 1.399898 0.187043 0.012554 -0.014352 74004.600000 1 0 0
-18.047763 -1.052855 7.640688 19.626776 0.058271 1.170926 -0.011778 0.004296 188611.000000 1 0 0
-1.645163 -8.331855 17.221688 19.201898 1.375850 0.458146 0.013982 -0.017380 91639.100000 1 0 0
6.001837 3.337245 15.193288 16.673189 0.507466 0.424510 0.015290 -0.000988 389232.000000 1 0 0
-13.770963 -6.894255 10.192788 18.467893 0.464157 0.986132 0.008176 -0.005394 169244.000000 1 0 0
3.806037 7.990645 17.250788 19.388811 1.126278 0.474045 0.011234 0.003913 309473.000000 1 0 0
6.444137 4.288145 17.578188 19.206972 0.587148 0.414797 0.031646 -0.018965 134446.000000 1 0 0
5.350737 -9.395255 18.287188 21.244351 -1.053094 0.533952 0.019491 0.009425 354288.000000 1 0 0
-4.537163 -0.526555 19.796688 20.316790 0.115537 0.226758 0.022464 -0.010588 815989.000000 1 0 0
-11.187963 2.217545 17.038188 20.503362 -0.195672 0.589903 0.036509 -0.009417 190886.000000 1 0 0
-16.897163 -4.203155 9.077588 19.636273 0.243801 1.090224 0.010646 -0.000405 537500.000000 1 0 0
-14.815363 -8.772755 12.461088 21.254056 0.534619 0.944322 0.099401 -0.031040 154114.000000 1 0 0
-14.827463 6.175345 12.942088 20.627316 -0.394632 0.892555 0.009201 -0.021822 407524.000000 1 0 0
0.995337 9.610145 17.320288 19.832749 1.467593 0.508825 -0.006128 -0.000571 268448.000000 1 0 0
-4.087263 -10.474355 14.951288 18.707187 1.198753 0.644788 0.022154 -0.011155 566069.000000 1 0 0
-18.412063 -4.370055 6.872388 20.132838 0.233035 1.222441 0.058130 -0.000256 -94565.100000 1 0 0
-0.779163 -0.503655 20.996188 21.016676 0.573845 0.044159 0.020194 -0.011523 425852.000000 1 0 0
-1.684763 2.611545 20.363188 20.598980 -0.997859 0.151451 0.006948 -0.010705 28530.700000 1 0 0
-7.970863 2.057345 16.434888 18.381318 -0.252595 0.464360 0.012667 0.004516 643393.000000 1 0 0
2.493637 -2.512155 18.640888 18.973978 -0.789097 0.187652 0.012346 -0.008130 -547798.000000 1 0 0
-11.933963 4.285445 14.259288 19.081713 -0.344756 0.726844 -0.023116 -0.012995 71098.600000 1 0 0
-13.796463 -5.257755 13.082888 19.726843 0.364103 0.845707 0.035581 -0.012983 100483.000000 1 0 0
-17.124463 -0.780555 10.295988 19.996596 0.045550 1.029920 0.001453 0.003024 316256.000000 1 0 0
-7.825063 7.536545 14.680788 18.263533 -0.766619 0.637089 0.014232 -0.021786 124810.000000 1 0 0
-9.805663 1.183945 14.142788 17.250252 -0.120159 0.609630 0.023739 -0.007547 129325.000000 1 0 0
7.369037 -0.938355 15.111288 16.838475 -0.126656 0.456896 0.020666 -0.003543 285334.000000 1 0 0
4.161437 5.979745 18.455188 19.841090 0.962812 0.375975 0.020160 -0.005873 99372.700000 1 0 0
1.782237 0.638245 20.030888 20.120144 0.343885 0.094228 0.018944 -0.003173 221041.000000 1 0 0
-6.997863 7.040045 17.854488 20.428290 -0.788403 0.507406 0.015635 -0.009172 628966.000000 1 0 0
7.534737 -3.399755 16.655188 18.593705 -0.423860 0.460696 0.015050 0.001900 389937.000000 1 0 0
-16.199463 2.633445 9.311188 18.869442 -0.161154 1.054741 0.004676 -0.008535 134618.000000 1 0 0
4.083537 -5.757355 18.992088 20.261338 -0.953874 0.355835 0.029425 -0.014208 111254.000000 1 0 0
-4.141563 -4.019455 20.427088 21.226739 0.770437 0.275357 0.029805 -0.015704 297097.000000 1 0 0
-9.925463 5.800145 14.569488 18.558730 -0.528848 0.668023 0.022793 -0.013627 84320.000000 1 0 0
6.727937 2.281445 19.981688 21.207026 0.326932 0.341599 0.041926 -0.004119 89648.200000 1 0 0
-7.122463 11.369145 14.306288 19.612669 -1.011138 0.753292 0.013983 -0.023999 143364.000000 1 0 0
-14.448263 4.999445 9.636188 18.072157 -0.333128 1.008410 -0.001492 -0.006669 287276.000000 1 0 0
0.008937 -5.783855 20.342088 21.148371 -1.569251 0.277019 0.012456 -0.012224 115814.000000 1 0 0
-6.289863 -7.965055 13.702488 17.051764 0.902378 0.637507 0.023696 -0.012027 288525.000000 1 0 0
-12.729263 9.988145 6.449688 17.418256 -0.665317 1.191482 -0.018062 -0.020972 233582.000000 1 0 0
-19.245763 1.873545 7.702888 20.814515 -0.097043 1.191709 -0.009794 -0.005326 230063.000000 1 0 0
-15.307263 8.671845 7.029188 18.945254 -0.515437 1.190682 -0.009251 -0.009906 40804.100000 1 0 0
-11.914163 8.223845 13.640788 19.890952 -0.604158 0.815124 -0.020590 -0.021436 259733.000000 1 0 0
-16.654963 8.787145 10.878688 21.747357 -0.485482 1.046932 0.016733 -0.016518 447082.000000 1 0 0
2.538037 10.483045 15.273288 18.697839 1.333258 0.614871 0.002248 -0.019681 314155.000000 1 0 0
1.709237 14.368945 13.416188 19.732768 1.452399 0.823178 -0.000304 -0.015856 482656.000000 1 0 0
9.306137 4.523845 16.729288 19.670750 0.452477 0.553927 0.035745 -0.002806 132950.000000 1 0 0
-0.499263 13.209445 13.660088 19.008858 -1.533018 0.768985 -0.004653 0.012486 246428.000000 1 0 0
4.615337 13.220945 14.728588 20.323041 1.234930 0.760163 0.021781 0.010691 121545.000000 1 0 0
-3.645963 -4.462755 -14.019412 15.157611 0.885790 2.751593 -0.003190 -0.003445 124313.000000 1 0 0
5.035237 -11.906555 16.864788 21.249488 -1.170709 0.654001 -0.046051 0.019980 185410.000000 1 0 0
8.749337 -13.874055 7.287788 17.948598 -1.008162 1.152683 -0.004450 -0.003538 380255.000000 1 0 0
-0.184463 15.374945 0.590688 15.387393 -1.558799 1.532399 -0.010839 0.001198 -367003.000000 1 0 0
-14.273363 7.478845 8.516188 18.226010 -0.482641 1.084613 0.005599 -0.008509 23059.200000 1 0 0
-16.007663 -9.654155 5.679688 19.537319 0.542693 1.275828 0.012235 -0.000565 222391.000000 1 0 0
8.795737 -10.425555 11.461188 17.816173 -0.869988 0.871992 -0.007485 -0.001062 127167.000000 1 0 0
-25.387783 6.401045 30.576058 40.254294 -0.246983 0.708141 0.063924 -0.024748 -194545.000000 0 0 1
-24.151463 5.734945 30.544108 39.358929 -0.233140 0.682434 0.056448 -0.020993 -185914.000000 0 0 1
-23.687463 5.264245 31.804838 40.004449 -0.218684 0.651735 0.058352 -0.020086 -602568.000000 0 0 1
-22.319863 4.616445 31.814698 39.136465 -0.203955 0.621653 0.039132 -0.020984 -1004340.000000 0 0 1
-22.201163 3.415745 31.076368 38.344486 -0.152657 0.625873 0.031455 -0.027817 -97617.600000 0 0 1
-20.862463 2.967545 30.976008 37.464140 -0.141295 0.597370 0.020513 -0.021377 204601.000000 0 0 1
-20.386263 2.055245 32.132368 38.109222 -0.100476 0.567653 0.010543 -0.017098 -434118.000000 0 0 1
-20.725663 0.687345 31.918038 38.062931 -0.033152 0.576162 0.014776 -0.012218 122264.000000 0 0 1
-20.692063 -0.030055 33.113858 39.047279 0.001453 0.558511 0.010534 -0.008399 85848.400000 0 0 1
-21.406263 -1.400655 32.918904 39.291783 0.065339 0.577544 0.015606 -0.016482 289206.000000 0 0 1
-20.552563 -2.234855 32.116448 38.195139 0.108313 0.571941 0.014743 -0.012412 292499.000000 0 0 1
-20.725063 -3.615255 32.279708 38.530220 0.172701 0.577598 0.018718 -0.016968 -496457.000000 0 0 1
-22.038763 -4.311755 31.797778 38.928100 0.193204 0.614896 0.016053 -0.012287 353060.000000 0 0 1
-23.143163 -4.003355 32.627055 40.201462 0.171287 0.623930 0.005632 -0.006749 119454.000000 0 0 1
-23.248063 -4.773155 33.797492 41.298014 0.202500 0.612209 0.004829 -0.009496 -947298.000000 0 0 1
-24.456163 -4.402255 -33.996462 42.109894 0.178099 2.510405 0.003403 -0.002007 -303350.000000 0 0 1
-24.692363 -5.201455 -32.848872 41.422413 0.207615 2.486550 0.012572 -0.002180 979076.000000 0 0 1
-25.902783 -4.784255 -32.173232 41.580766 0.182642 2.455540 0.022237 -0.005488 657322.000000 0 0 1
-26.030943 -5.378055 -30.799682 40.683583 0.203736 2.429589 0.013924 0.005322 -550547.000000 0 0 1
-26.337043 -6.753055 -30.729602 41.031111 0.251002 2.417249 0.004046 -0.003620 484546.000000 0 0 1
-26.108543 -7.131055 -29.337712 39.915026 0.266628 2.396469 -0.009210 0.005964 -89486.800000 0 0 1
-26.254373 -8.635555 -29.010822 40.068600 0.317772 2.380422 -0.008708 0.002446 -248909.000000 0 0 1
-27.595733 -9.000455 -28.806272 40.894180 0.315275 2.352388 0.018314 -0.004263 -424176.000000 0 0 1
-27.756393 -10.390955 -28.685812 41.246395 0.358212 2.339876 0.015742 0.004908 -444959.000000 0 0 1
-29.158803 -10.817455 -28.312082 42.057427 0.355245 2.309293 0.058308 -0.000817 -468567.000000 0 0 1
-29.214813 -11.227955 -26.956952 41.306774 0.366920 2.281812 0.058965 -0.007388 317626.000000 0 0 1
-30.524763 -11.663055 -26.582962 42.124125 0.364968 2.253719 0.061008 -0.005665 321094.000000 0 0 1
-30.656843 -12.452755 -25.312272 41.660824 0.385838 2.223806 0.063991 -0.008839 -78543.800000 0 0 1
-30.164743 -11.737455 -24.221412 40.427174 0.371085 2.213219 0.057915 -0.009881 177004.000000 0 0 1
-30.099253 -12.507155 -23.082312 39.939793 0.393823 2.186983 0.066183 -0.012850 -266242.000000 0 0 1
-29.601813 -11.557455 -21.935512 38.613583 0.372230 2.174964 0.071991 -0.016059 75187.700000 0 0 1
-29.403383 -12.230755 -20.708612 37.986799 0.394192 2.147368 0.075666 -0.016685 669814.000000 0 0 1
-28.317873 -13.173455 -20.618112 37.423902 0.435422 2.154280 0.069612 -0.021940 107687.000000 0 0 1
-28.018233 -13.596555 -19.184612 36.577822 0.451799 2.122909 0.072765 -0.025274 -121288.000000 0 0 1
-27.515763 -12.480855 -18.544812 35.451361 0.425835 2.121287 0.071561 -0.030400 9430.150000 0 0 1
-27.199083 -12.734055 -17.219712 34.618850 0.437869 2.091405 0.062494 -0.026118 -66595.500000 0 0 1
-26.796583 -11.503455 -16.325512 33.420184 0.405497 2.081158 0.063728 -0.031374 527739.000000 0 0 1
-25.499533 -10.943355 -16.586512 32.327938 0.405388 2.109555 0.052479 -0.033505 800508.000000 0 0 1
-25.457033 -9.589355 -16.263212 31.693979 0.360250 2.109627 0.059683 -0.034555 -762455.000000 0 0 1
-24.079963 -9.015855 -16.528112 30.566465 0.358256 2.142097 0.065368 -0.037918 -607539.000000 0 0 1
-23.104863 -9.438255 -15.598012 29.431503 0.387809 2.129369 0.044544 -0.039974 -614360.000000 0 0 1
-21.965763 -8.649055 -15.728812 28.367172 0.375108 2.158525 0.063451 -0.052483 -588956.000000 0 0 1
-20.896863 -9.159155 -14.736712 27.161364 0.413084 2.144280 0.039581 -0.009088 -549601.000000 0 0 1
-20.318063 -10.399055 -14.900512 27.257830 0.473054 2.149156 0.023571 -0.012430 -154905.000000 0 0 1
-19.235463 -10.454655 -14.013212 25.993710 0.497846 2.140165 0.028034 0.000784 -240153.000000 0 0 1
-18.103863 -11.454155 -14.304612 25.759842 0.564111 2.159528 0.025737 -0.003159 36510.800000 0 0 1
-17.338163 -11.322855 -15.506312 25.870150 0.578523 2.213535 0.044714 -0.019601 446246.000000 0 0 1
-18.077563 -11.355555 -16.722512 27.118063 0.560867 2.235284 0.034495 -0.020390 -587573.000000 0 0 1
-17.268563 -10.943155 -17.964912 27.215694 0.564834 2.291740 0.026537 -0.006569 -259770.000000 0 0 1
-18.024463 -10.933655 -19.159312 28.486933 0.545259 2.308466 0.030913 -0.016531 132929.000000 0 0 1
-17.338063 -10.351655 -20.226712 28.581202 0.538246 2.357024 0.028762 -0.013825 -60077.700000 0 0 1
-18.079263 -10.685855 -21.559512 30.097505 0.533817 2.369314 0.037591 -0.011694 793696.000000 0 0 1
-19.407963 -10.183155 -21.638812 30.799414 0.483204 2.349802 0.029410 -0.030358 500356.000000 0 0 1
-20.199063 -10.724055 -22.678112 32.207209 0.488075 2.351996 0.038175 -0.020192 224233.000000 0 0 1
-21.455163 -9.967655 -23.111112 33.072673 0.434913 2.344512 0.029869 -0.025414 -124126.000000 0 0 1
-21.096463 -8.693855 -23.581512 32.813589 0.390894 2.372656 0.025087 -0.033075 465216.000000 0 0 1
-22.046563 -8.094055 -24.447312 33.900380 0.351857 2.376259 0.024406 -0.033214 257472.000000 0 0 1
-21.242963 -7.384955 -25.578092 34.059358 0.334573 2.420350 0.022297 -0.029890 453014.000000 0 0 1
-20.502263 -8.333455 -26.377522 34.432005 0.386067 2.443510 0.028302 -0.030477 289750.000000 0 0 1
-19.810263 -7.633255 -27.394102 34.657610 0.367786 2.482292 0.022910 -0.036780 -266088.000000 0 0 1
-18.663163 -8.483355 -27.955162 34.666584 0.426632 2.508837 0.034161 -0.034444 -253097.000000 0 0 1
-19.133363 -9.529855 -28.786082 35.854459 0.462107 2.502872 0.032649 -0.031819 346697.000000 0 0 1
-18.003363 -10.179455 -29.346412 35.902010 0.514605 2.527685 0.008764 -0.024971 -7286.070000 0 0 1
-18.215763 -11.350055 -30.277882 37.113177 0.557224 2.524952 0.003342 -0.018191 -496391.000000 0 0 1
-18.769763 -11.008255 -31.509052 38.292376 0.530426 2.537212 0.001730 -0.011600 173145.000000 0 0 1
-19.048063 -12.213455 -32.157292 39.320334 0.570158 2.528424 -0.010369 -0.012932 -172542.000000 0 0 1
-19.526563 -11.985055 -33.640592 40.701568 0.550492 2.543691 -0.008863 -0.014697 -680668.000000 0 0 1
-18.631263 -11.304255 34.215585 40.566198 0.545358 0.567122 -0.006705 -0.013038 -300123.000000 0 0 1
-19.144763 -11.175055 32.851820 39.631375 0.528358 0.593596 -0.005199 -0.016100 125753.000000 0 0 1
-18.649363 -12.217455 31.825838 38.858061 0.579962 0.611082 0.009550 -0.010703 -138160.000000 0 0 1
-17.299463 -11.993855 31.434658 37.832020 0.606221 0.590072 0.007611 -0.015143 386868.000000 0 0 1
-16.705263 -12.819255 30.486928 37.052016 0.654531 0.604451 0.019467 -0.012062 45245.600000 0 0 1
-16.673663 -14.325555 30.852128 37.882534 0.709795 0.619075 0.017216 -0.010484 -609985.000000 0 0 1
-17.797663 -15.002155 30.242848 38.163482 0.700374 0.655972 0.016052 -0.012188 767093.000000 0 0 1
-17.963563 -16.409055 30.647348 39.130636 0.740204 0.670991 0.021391 -0.012252 -51852.700000 0 0 1
-18.449863 -16.596655 32.071278 40.551366 0.732569 0.658550 -0.000281 -0.014208 336478.000000 0 0 1
-17.369163 -16.430755 33.016173 40.764264 0.757642 0.626765 0.008292 -0.014081 788524.000000 0 0 1
-17.956563 -16.210155 34.266399 41.945124 0.734328 0.614722 -0.001018 -0.018293 118226.000000 0 0 1
-16.911163 -15.743655 -33.355292 40.576171 0.749660 2.535783 0.011986 -0.012397 253419.000000 0 0 1
-16.388763 -14.447755 -33.751092 40.205291 0.722536 2.567102 0.007549 -0.011981 540760.000000 0 0 1
-15.224163 -13.963455 -33.050272 38.975296 0.742232 2.582959 0.007509 -0.010689 342203.000000 0 0 1
-15.385263 -13.590755 -31.503442 37.601620 0.723546 2.564077 0.013718 -0.015428 -450060.000000 0 0 1
-15.341363 -14.693055 -30.629352 37.274663 0.763816 2.535220 0.018164 -0.015482 5097.780000 0 0 1
-15.678563 -14.314755 -29.296472 36.180283 0.739959 2.514498 0.010557 -0.009453 -265718.000000 0 0 1
-15.679763 -15.452455 -28.220472 35.791457 0.778097 2.479113 0.020161 -0.004363 245672.000000 0 0 1
-14.409363 -15.938755 -27.822342 35.153327 0.835751 2.483985 0.019158 -0.008499 -26031.900000 0 0 1
-13.764163 -16.742255 -28.775402 36.024701 0.882712 2.496042 0.018447 -0.010193 -122480.000000 0 0 1
-12.294663 -17.055455 -28.374652 35.315269 0.946205 2.503892 0.016222 -0.000701 121041.000000 0 0 1
-11.476663 -15.939255 -28.394942 34.526025 0.946757 2.536451 0.016106 0.001969 -422015.000000 0 0 1
-10.125263 -16.255155 -28.133702 34.033164 1.013712 2.543934 0.022900 -0.004344 430098.000000 0 0 1
-9.107963 -15.125955 -27.967312 33.074463 1.028804 2.578459 0.016474 -0.004258 -59122.800000 0 0 1
-9.306463 -14.303355 -26.797492 31.769511 0.993965 2.574557 0.013297 -0.006562 218631.000000 0 0 1
-8.268963 -13.329455 -26.543352 30.831797 1.015546 2.607849 0.020426 -0.007957 364631.000000 0 0 1
-8.404963 -12.017055 -27.376492 31.056809 0.960460 2.649820 0.019874 -0.016814 -79084.300000 0 0 1
-7.880763 -12.015055 -28.696522 32.092965 0.990280 2.677367 0.038138 -0.015693 162918.000000 0 0 1
-7.832663 -10.708055 -29.267382 32.133981 0.939258 2.715995 0.046358 -0.010249 141651.000000 0 0 1
-6.819963 -10.652655 -30.456442 32.978567 1.001332 2.747961 0.049072 -0.003421 -1221200.000000 0 0 1
-5.528763 -11.029255 -30.099952 32.530276 1.106124 2.752597 0.041468 -0.006870 -349930.000000 0 0 1
-4.513463 -10.724055 -31.030422 33.140064 1.172427 2.782858 0.053999 -0.008740 53308.700000 0 0 1
-4.385663 -9.216255 -31.420802 33.036953 1.126645 2.827511 0.036992 -0.008448 -1677300.000000 0 0 1
-3.398563 -8.868355 -32.367702 33.732271 1.204836 2.856185 0.042311 -0.007209 -161106.000000 0 0 1
-3.395363 -7.478755 -32.640882 33.658394 1.144620 2.895081 0.035156 -0.008401 -390650.000000 0 0 1
-2.031663 -6.879855 -33.011562 33.781997 1.283651 2.927615 0.040885 -0.013308 -372724.000000 0 0 1
-1.457263 -7.523255 -34.103597 34.953946 1.379465 2.920563 0.051177 -0.015529 -484808.000000 0 0 1
-0.316763 -6.789655 34.159174 34.828852 1.524176 0.196416 0.042709 0.002141 145634.000000 0 0 1
0.421037 -7.293655 32.888986 33.690653 -1.513134 0.218586 0.046784 0.002075 174887.000000 0 0 1
-0.197263 -6.894855 31.652228 32.395085 1.542194 0.214566 0.040288 0.005366 74592.000000 0 0 1
0.548037 -7.328355 30.558308 31.429530 -1.496152 0.236004 0.048166 -0.003087 -334238.000000 0 0 1
0.126637 -6.822555 29.185098 29.972208 -1.552237 0.229683 0.046385 -0.000257 -164222.000000 0 0 1
0.554537 -5.537555 28.843698 29.375687 -1.470988 0.190603 0.051163 -0.009678 -88605.600000 0 0 1
0.292137 -5.211155 27.471308 27.962730 -1.514795 0.187755 0.047155 0.000181 124634.000000 0 0 1
-0.903563 -4.227055 27.157068 27.498923 1.360209 0.157844 0.034653 0.009358 586195.000000 0 0 1
-2.072263 -4.978755 27.488908 28.012896 1.176385 0.193721 0.022293 0.011594 -310720.000000 0 0 1
-3.150563 -4.137255 27.066858 27.561889 0.919969 0.189814 0.008483 0.006491 1576750.000000 0 0 1
-4.619663 -4.684955 27.389888 28.169062 0.792415 0.235750 0.004760 0.007316 1528340.000000 0 0 1
-4.973263 -5.878855 26.660688 27.750434 0.868654 0.281173 0.004609 0.014878 -1141430.000000 0 0 1
-6.291363 -6.132355 26.988128 28.382144 0.772600 0.314717 0.001806 0.012400 -490131.000000 0 0 1
-6.719763 -7.572955 26.743978 28.596245 0.845022 0.361897 0.012465 0.010637 405426.000000 0 0 1
-6.078763 -8.419355 27.736808 29.617013 0.945458 0.358238 0.013527 0.009833 113284.000000 0 0 1
-6.217763 -9.815155 27.576488 29.924247 1.006118 0.398760 0.026426 0.007320 206300.000000 0 0 1
-5.458163 -10.551755 28.739698 31.098253 1.093424 0.391971 0.025268 0.002076 185018.000000 0 0 1
-5.603263 -11.934555 28.726158 31.607315 1.131846 0.430289 0.040106 -0.002545 88047.400000 0 0 1
-4.977963 -12.547455 29.823088 32.735842 1.193111 0.425039 0.045070 -0.002242 -193125.000000 0 0 1
-4.954563 -14.106255 29.756408 33.301321 1.233025 0.465604 0.050030 -0.010822 235754.000000 0 0 1
-6.216963 -14.652655 30.095138 34.045092 1.169528 0.486491 0.062966 -0.016084 -46105.600000 0 0 1
-6.185163 -16.064755 30.049688 34.631148 1.203275 0.520226 0.061281 -0.018458 72708.300000 0 0 1
-6.299363 -16.733955 31.414148 36.146313 1.210762 0.517451 0.072058 -0.017308 316755.000000 0 0 1
-7.604063 -16.555355 31.944208 36.774094 1.140226 0.518304 0.068883 -0.018288 -53794.000000 0 0 1
-7.794963 -16.800555 33.309775 38.112481 1.136385 0.507451 0.072260 -0.018068 868215.000000 0 0 1
-9.244363 -17.201255 33.821435 39.054205 1.077660 0.523624 0.077431 -0.015277 1427730.000000 0 0 1
-9.944263 -18.393855 33.438423 39.437931 1.075176 0.558833 0.078774 -0.022342 398042.000000 0 0 1
-10.264263 -18.414555 32.037498 38.351692 1.062290 0.582008 0.062423 -0.022007 -422492.000000 0 0 1
-10.862363 -19.753855 31.482178 38.721225 1.068041 0.621429 0.063968 -0.019069 -878779.000000 0 0 1
-12.049463 -20.082455 32.095518 39.731812 1.030377 0.630379 0.068173 -0.022039 -905224.000000 0 0 1
-12.289263 -21.454555 32.349718 40.716437 1.050614 0.652592 0.062146 -0.022442 -246529.000000 0 0 1
-11.507863 -22.068955 33.529794 41.757835 1.090136 0.638555 0.067726 -0.019622 1069600.000000 0 0 1
-10.106463 -22.290855 33.220696 41.263028 1.145126 0.634959 0.062075 -0.023076 1350310.000000 0 0 1
-9.285563 -22.841955 34.248917 42.201480 1.184688 0.623984 0.070309 -0.031859 387891.000000 0 0 1
-9.675063 -24.313555 -34.007222 42.909754 1.192077 2.485741 0.065010 -0.017149 -279051.000000 0 0 1
-9.396363 -25.197205 33.562767 43.007559 1.213857 0.675503 0.067531 -0.023766 -87299.300000 0 0 1
-9.511763 -26.570765 33.921223 44.126280 1.227031 0.693942 0.067184 -0.023525 -1234670.000000 0 0 1
-9.158663 -27.542535 32.787929 43.789504 1.249771 0.724604 0.070297 -0.022705 195451.000000 0 0 1
-7.787363 -27.592775 32.468398 43.315138 1.295726 0.723361 0.062595 -0.023409 -242270.000000 0 0 1
-6.923363 -28.099575 33.440066 44.223943 1.329221 0.713382 0.046971 -0.021139 -470499.000000 0 0 1
-5.424763 -27.721785 33.226374 43.610978 1.377552 0.704584 0.032112 -0.023991 557966.000000 0 0 1
-5.195763 -26.502255 33.878689 43.325871 1.377202 0.673007 0.030621 -0.021171 23099.700000 0 0 1
-4.924763 -25.348695 33.088652 41.972236 1.378906 0.662680 0.057990 -0.022731 -55890.900000 0 0 1
-4.579863 -24.102255 33.931946 41.872077 1.383017 0.626010 0.054736 -0.019928 -137437.000000 0 0 1
-3.382363 -24.356755 -34.025322 41.981121 1.432811 2.515786 0.037361 -0.028219 -242541.000000 0 0 1
-2.888263 -23.171755 -33.472352 40.812629 1.446790 2.532464 0.039988 -0.024136 -151348.000000 0 0 1
34.017720 -16.425555 2.149288 37.836802 -0.449836 1.513962 0.088728 -0.043834 -721037.000000 0 0 1
34.870460 -16.855955 3.163188 38.859722 -0.450270 1.489306 0.076285 -0.034429 -147661.000000 0 0 1
34.426970 -16.700555 4.528688 38.530946 -0.451657 1.452990 0.085090 -0.044136 -258603.000000 0 0 1
35.564580 -16.503555 5.560688 39.599595 -0.434472 1.429908 0.072885 -0.021421 88875.400000 0 0 1
-35.313358 -17.695655 5.536188 39.885070 0.464530 1.431543 0.074148 -0.023623 -450580.000000 0 0 1
-34.364262 -17.602655 6.535488 39.159527 0.473389 1.403118 0.066341 -0.014659 -640807.000000 0 0 1
-33.158153 -18.538855 6.360388 38.517616 0.509806 1.404907 0.050963 -0.016361 -317001.000000 0 0 1
-33.447873 -19.952155 6.320988 39.456350 0.537853 1.409901 0.068109 -0.020142 362056.000000 0 0 1
-32.356883 -20.668555 6.904188 39.010574 0.568439 1.392877 0.048906 -0.011173 308935.000000 0 0 1
-32.655173 -22.182755 7.098988 40.110230 0.596700 1.392872 0.035422 -0.005933 -540334.000000 0 0 1
-32.521763 -23.005055 5.934088 40.275439 0.615658 1.422920 0.046046 -0.004197 13493.000000 0 0 1
-32.767853 -24.380155 6.166588 41.305580 0.639667 1.420944 0.060194 -0.013379 -1203.790000 0 0 1
-32.238933 -25.307425 5.065888 41.297431 0.665525 1.447818 0.042715 -0.005951 -201679.000000 0 0 1
-32.959113 -25.230605 3.907388 41.691177 0.653355 1.476936 0.035571 0.004180 -677860.000000 0 0 1
-32.329863 -25.954905 2.946088 41.563885 0.676455 1.499856 0.021488 0.002884 -793998.000000 0 0 1
-32.718163 -25.521405 1.532288 41.523105 0.662450 1.533886 0.029514 0.001422 -406038.000000 0 0 1
-33.977293 -26.055335 1.183188 42.833828 0.654195 1.543170 0.023103 0.003852 109453.000000 0 0 1
-34.623828 -25.338685 0.140488 42.905456 0.631769 1.567522 0.017082 0.003222 153253.000000 0 0 1
-35.543754 -24.166855 0.548188 42.984833 0.597121 1.558043 0.030830 -0.004328 -362337.000000 0 0 1
34.784740 -24.365155 0.250588 42.470010 -0.611031 1.564896 0.020390 -0.001191 -324202.000000 0 0 1
33.862400 -23.415855 0.707688 41.176027 -0.604999 1.553609 0.049100 -0.011104 -325763.000000 0 0 1
32.421140 -23.706255 0.327388 40.164960 -0.631358 1.562645 0.029969 -0.004164 -504187.000000 0 0 1
32.095940 -23.496455 -1.027912 39.790569 -0.631926 1.596632 0.030731 -0.017316 -219357.000000 0 0 1
30.696800 -23.445355 -1.203412 38.644876 -0.652257 1.601942 0.037344 -0.010334 121935.000000 0 0 1
30.261350 -23.319155 -2.702612 38.299300 -0.656550 1.641421 0.029718 -0.003980 -167037.000000 0 0 1
30.644790 -22.027455 -3.194912 37.875050 -0.623232 1.655251 0.047202 -0.013727 116265.000000 0 0 1
30.351140 -21.877155 -4.533612 37.687601 -0.624551 1.691383 0.041256 -0.030803 -160514.000000 0 0 1
30.454180 -20.427855 -4.906812 36.997718 -0.590840 1.703813 0.052719 -0.034775 522313.000000 0 0 1
29.421930 -19.698055 -4.235012 35.659482 -0.589963 1.689840 0.055316 -0.029667 390098.000000 0 0 1
29.391020 -18.296455 -4.458212 34.906561 -0.556813 1.698865 0.055384 -0.030088 436923.000000 0 0 1
28.391290 -17.608055 -3.444412 33.585308 -0.555135 1.673534 0.062723 -0.017495 628727.000000 0 0 1
28.945960 -17.349455 -2.123012 33.813893 -0.539959 1.633623 0.062777 -0.012200 199754.000000 0 0 1
29.444890 -18.406655 -1.272612 34.748037 -0.558687 1.607429 0.061466 -0.003683 -316908.000000 0 0 1
28.612700 -19.653055 -0.878012 34.723192 -0.601856 1.596085 0.049452 -0.000579 162075.000000 0 0 1
27.507850 -19.287855 -0.037512 33.596199 -0.611515 1.571913 0.045109 0.016328 -69826.900000 0 0 1
26.693130 -20.362355 0.158588 33.573410 -0.651663 1.566073 0.023369 0.016467 -829048.000000 0 0 1
25.586270 -20.043355 1.193188 32.524099 -0.664514 1.534102 0.021916 0.016208 -758846.000000 0 0 1
24.740370 -21.174855 1.352388 32.592781 -0.707899 1.529291 0.017955 0.016077 197326.000000 0 0 1
23.944870 -21.141855 2.557088 32.044868 -0.723309 1.490914 -0.001730 0.021655 -10325.600000 0 0 1
22.616170 -20.414855 2.335888 30.556731 -0.734286 1.494277 -0.006474 0.018810 -1492260.000000 0 0 1
22.707270 -19.084055 1.953788 29.726059 -0.698917 1.505022 0.029523 0.000949 36552.500000 0 0 1
22.759970 -18.243755 3.087288 29.332272 -0.675699 1.465349 0.045448 0.000882 -317093.000000 0 0 1
22.774270 -16.769455 2.666788 28.407636 -0.634697 1.476782 0.044154 0.008236 359318.000000 0 0 1
21.502070 -16.482655 2.094288 27.173571 -0.654016 1.493649 0.030927 0.009367 287308.000000 0 0 1
21.433170 -15.169655 1.578088 26.305695 -0.615919 1.510770 0.045992 -0.001395 176927.000000 0 0 1
20.045270 -14.925155 0.915588 25.008227 -0.640018 1.534177 0.030029 0.003725 703712.000000 0 0 1
19.047270 -14.753955 1.944788 24.171468 -0.659058 1.490251 0.030742 -0.001772 828226.000000 0 1 0
18.179070 -13.611655 1.801088 22.781564 -0.642703 1.491655 0.046225 -0.010446 326804.000000 0 1 0
18.825870 -12.234055 2.165588 22.556047 -0.576272 1.474639 0.060227 -0.005201 -542072.000000 0 1 0
19.757270 -11.715555 1.254788 23.003879 -0.535238 1.516222 0.060498 -0.003823 301963.000000 0 1 0
20.236370 -10.448555 1.646288 22.834037 -0.476623 1.498636 0.071673 -0.010154 -341554.000000 0 1 0
21.151470 -9.777655 0.641088 23.310903 -0.433009 1.543291 0.083517 -0.010205 -319405.000000 0 1 0
20.448470 -9.374155 -0.523412 22.500859 -0.429841 1.594060 0.070484 -0.005400 821842.000000 0 1 0
21.286970 -8.720655 -1.466912 23.050743 -0.388816 1.634478 0.064125 -0.002638 -145248.000000 0 1 0
20.532370 -8.484255 -2.792412 22.391033 -0.391845 1.695833 0.066590 -0.002493 -348866.000000 0 1 0
21.185470 -7.733455 -3.822812 22.874535 -0.350006 1.738705 0.056411 -0.007129 93539.500000 0 1 0
22.246070 -8.365355 -4.473312 24.184237 -0.359680 1.756836 0.053589 -0.011662 -878103.000000 0 1 0
21.845470 -9.572055 -5.375912 24.448911 -0.412974 1.792491 0.045179 -0.014013 -305246.000000 0 1 0
21.142470 -9.204455 -6.604512 23.986363 -0.410608 1.849744 0.033293 -0.021015 -167362.000000 0 1 0
19.781470 -8.980655 -6.441112 22.659361 -0.426170 1.859029 0.029905 -0.009824 -1464580.000000 0 1 0
19.007970 -9.188855 -7.707812 22.475506 -0.450297 1.920844 0.020883 -0.003173 -678930.000000 0 1 0
18.985370 -10.509855 -8.188612 23.193851 -0.505585 1.931626 0.022402 -0.002071 1286970.000000 0 1 0
20.122770 -10.820455 -9.036512 24.569629 -0.493368 1.947430 0.015411 -0.001087 420869.000000 0 1 0
20.023170 -12.235155 -9.666112 25.378339 -0.548505 1.961545 0.008877 -0.006209 -323273.000000 0 0 1
18.962170 -12.363855 -10.584912 24.989381 -0.577799 2.008186 0.026456 -0.008384 234032.000000 0 1 0
18.922170 -13.675955 -11.015012 25.814933 -0.625830 2.011628 0.038412 -0.005026 -188164.000000 0 0 1
17.708270 -14.022955 -11.909512 25.535516 -0.669775 2.056002 0.041700 -0.009924 38342.400000 0 0 1
17.669770 -15.377155 -12.264012 26.440191 -0.716135 2.053121 0.040616 -0.018436 83610.300000 0 0 1
16.665970 -15.608555 -13.214112 26.381704 -0.752647 2.095413 0.054679 -0.019870 -341532.000000 0 0 1
16.696170 -17.068455 -13.760412 27.557997 -0.796424 2.093617 0.048423 -0.021347 -437973.000000 0 0 1
16.310470 -17.927655 -12.800612 27.409632 -0.832597 2.056704 0.027725 -0.020360 26991.000000 0 0 1
16.041070 -19.171255 -13.294212 28.312348 -0.874060 2.059583 0.035465 -0.023951 -75015.600000 0 0 1
15.148470 -20.038055 -12.324312 27.980144 -0.923476 2.026914 0.029792 -0.019901 416949.000000 0 0 1
13.782870 -19.687855 -12.433612 27.058712 -0.960024 2.048234 0.030103 -0.019778 -339235.000000 0 0 1
12.977070 -20.512955 -11.629012 26.915044 -1.006731 2.017576 0.020191 -0.014487 542455.000000 0 0 1
11.458970 -20.290955 -11.894212 26.163011 -1.056712 2.042741 0.020063 -0.016380 517718.000000 0 0 1
10.623370 -21.151155 -11.135912 26.157903 -1.105343 2.010552 0.013398 -0.011108 -550821.000000 0 0 1
9.294070 -20.780955 -11.327112 25.426980 -1.150240 2.032502 0.011029 -0.008814 -268076.000000 0 0 1
8.256770 -21.438855 -10.373412 25.207270 -1.203173 1.994923 0.005550 -0.005464 100220.000000 0 0 1
8.218370 -22.841755 -10.479512 26.440643 -1.225421 1.978324 0.017213 -0.006019 104264.000000 0 0 1
7.470070 -23.404055 -9.400012 26.304220 -1.261839 1.936233 0.017409 -0.019272 213149.000000 0 0 1
7.475670 -24.937255 -9.408612 27.681661 -1.279542 1.917592 0.021570 -0.014065 9055.380000 0 0 1
8.735470 -25.379965 -8.980112 28.303595 -1.239309 1.893654 0.009266 -0.003302 -432757.000000 0 0 1
8.859070 -26.753485 -9.385912 29.703997 -1.251024 1.892287 0.000378 0.001561 527724.000000 0 0 1
10.342570 -27.212885 -9.282112 30.555973 -1.207596 1.879448 -0.000163 0.005229 394377.000000 0 0 1
10.751570 -27.227705 -7.954712 30.335155 -1.194715 1.836126 0.010497 0.002643 389102.000000 0 0 1
12.101370 -27.697155 -7.852312 31.228743 -1.158875 1.824969 0.013211 0.009446 123036.000000 0 0 1
12.423670 -28.145235 -6.415812 31.427130 -1.155106 1.776390 0.012140 0.006509 37065.900000 0 0 1
11.893670 -29.411535 -5.954912 32.279386 -1.186513 1.756339 0.025528 0.003686 238484.000000 0 0 1
10.484370 -29.506075 -5.929812 31.869942 -1.229382 1.757950 0.031652 0.007220 -550891.000000 0 0 1
9.938670 -30.525675 -4.918912 32.477526 -1.256036 1.722837 0.040049 0.004443 -212046.000000 0 0 1
10.050070 -31.955815 -4.997312 33.869620 -1.266091 1.718883 0.059170 -0.013333 -322586.000000 0 0 1
9.371870 -32.509535 -6.092912 34.377688 -1.290126 1.748972 0.059294 -0.014590 20057.300000 0 0 1
9.639870 -34.026955 -6.208912 35.906982 -1.294729 1.744586 0.055006 -0.013912 -144800.000000 0 0 1
9.243970 33.973378 -5.101312 35.576183 1.305133 1.714684 0.055052 -0.017547 -273617.000000 0 0 1
9.605070 32.635113 -5.129312 34.403747 1.284561 1.720446 0.053279 -0.009149 -81923.000000 0 0 1
9.185170 31.769963 -3.936912 33.304612 1.289356 1.689283 0.065910 -0.017247 940640.000000 0 0 1
7.767170 31.530543 -3.937112 32.710930 1.329267 1.691450 0.058489 -0.015561 263510.000000 0 0 1
7.458170 30.512163 -3.065912 31.559725 1.331064 1.668096 0.043819 -0.014139 447893.000000 0 0 1
6.004770 29.969313 -3.275112 30.739931 1.373051 1.677542 0.038144 -0.015980 653521.000000 0 0 1
5.783770 29.270453 -4.464712 30.168611 1.375712 1.719334 0.038870 -0.019701 -255395.000000 0 0 1
5.231270 30.041763 -5.473212 30.981120 1.398392 1.748391 0.030966 -0.015247 -579745.000000 0 0 1
5.272470 29.452343 -6.906612 30.707340 1.393656 1.797655 0.026546 -0.017793 -33900.500000 0 0 1
4.457270 28.353743 -7.240512 29.601132 1.414870 1.817906 0.020936 -0.014903 -18820.600000 0 0 1
4.958270 27.150213 -6.714812 28.404352 1.390163 1.809456 0.020946 -0.018850 195105.000000 0 0 1
4.105270 25.886913 -7.120512 27.160398 1.413521 1.836062 0.017003 -0.010870 616048.000000 0 0 1
2.784270 25.731673 -6.603612 26.711025 1.463012 1.820611 0.011759 -0.013695 894549.000000 0 0 1
1.696970 26.307543 -7.370912 27.373288 1.506381 1.843435 0.017210 -0.010107 654556.000000 0 0 1
1.339670 25.653233 -8.731912 27.131704 1.518621 1.898463 0.031768 -0.010101 -404244.000000 0 0 1
2.405170 25.530473 -9.683412 27.410917 1.476866 1.931859 0.028221 -0.014784 11955.600000 0 0 1
2.117070 24.851403 -10.879312 27.210911 1.485812 1.982111 0.051851 -0.013429 -421710.000000 0 0 1
2.026170 23.294613 -10.777012 25.746619 1.484035 2.002677 0.059287 -0.012064 -227680.000000 0 0 1
0.836170 22.868313 -10.176312 25.044286 1.534248 1.989233 0.059909 -0.011569 -313020.000000 0 0 1
0.871570 21.433613 -10.096612 23.708669 1.530155 2.010710 0.030671 -0.016120 168716.000000 0 1 0
-0.372230 20.763413 -9.465512 22.822222 -1.552871 1.998464 0.037658 -0.005792 1399540.000000 0 1 0
-1.664730 20.906713 -10.107212 23.281274 -1.491337 2.019874 0.055363 -0.010515 1131450.000000 0 1 0
-2.718830 20.456413 -9.238012 22.609683 -1.438662 1.991701 0.049651 -0.004411 -143285.000000 0 1 0
-3.877930 20.037113 -10.093012 22.768249 -1.379622 2.030066 0.048650 -0.012969 -1381270.000000 0 1 0
-4.984130 19.623013 -9.384012 22.315105 -1.322062 2.004818 0.045929 -0.013866 -875601.000000 0 1 0
-5.938630 19.085613 -10.258812 22.467114 -1.269135 2.044983 0.046186 -0.014849 -663569.000000 0 1 0
-6.834930 18.046513 -9.582512 21.545706 -1.208751 2.031695 0.049179 -0.017020 654155.000000 0 1 0
-7.860730 18.569113 -8.686612 21.955871 -1.170347 1.977561 0.063653 -0.019005 1970780.000000 0 1 0
-9.156430 18.810513 -9.324212 22.904510 -1.117787 1.990063 0.069186 -0.019179 1022890.000000 0 1 0
-10.227330 19.135613 -8.296512 23.229337 -1.079958 1.936018 0.085095 -0.022531 -162535.000000 0 1 0
-10.582530 18.020613 -7.480912 22.196768 -1.039808 1.914554 0.079502 -0.021978 56453.900000 0 1 0
-11.559730 18.411113 -6.514912 22.694505 -1.010138 1.861963 0.065622 -0.015866 129087.000000 0 1 0
-11.982930 17.232213 -5.611712 21.726277 -0.963178 1.832050 0.059961 -0.020425 260535.000000 0 1 0
-13.056230 17.583213 -4.754712 22.410753 -0.932087 1.784583 0.061982 -0.015391 95785.100000 0 1 0
-13.550130 16.478513 -4.084512 21.721664 -0.882610 1.759961 0.073905 -0.015510 -240587.000000 0 1 0
-14.809830 16.676813 -3.205512 22.532698 -0.844623 1.713541 0.065174 -0.018079 -673428.000000 0 1 0
-15.870130 16.865513 -4.074612 23.514018 -0.815796 1.744960 0.074434 -0.029907 -1010740.000000 0 1 0
-16.996030 17.277713 -3.345012 24.465762 -0.793617 1.707948 0.066418 -0.025901 -942021.000000 0 1 0
-18.219330 17.443213 -4.214612 25.572889 -0.763639 1.736360 0.065838 -0.031129 -882186.000000 0 0 1
-18.048030 18.444813 -5.176712 26.319971 -0.796271 1.768771 0.056243 -0.026312 -1482180.000000 0 0 1
-19.210330 18.783713 -5.781612 27.482571 -0.774170 1.782754 0.041204 -0.027498 -1166530.000000 0 0 1
-19.027730 19.793513 -6.905112 28.311098 -0.805121 1.817183 0.031920 -0.019047 -321081.000000 0 0 1
-18.633630 21.064513 -6.418212 28.846479 -0.846556 1.795170 0.029584 -0.022355 -104405.000000 0 0 1
-18.288930 21.925813 -7.460612 29.510795 -0.875589 1.826379 0.018845 -0.001980 -611066.000000 0 0 1
-18.060230 23.331213 -6.845812 30.288324 -0.912061 1.798788 0.024150 -0.006531 499498.000000 0 0 1
-16.783230 23.390413 -6.187012 29.446008 -0.948405 1.782488 0.020167 -0.002279 616694.000000 0 0 1
-16.797030 24.349003 -5.213012 30.036473 -0.966919 1.745236 0.029067 -0.008720 -1274480.000000 0 0 1
-15.460330 24.869333 -4.823312 29.677768 -1.014601 1.734043 0.016333 -0.001587 -1342860.000000 0 0 1
-15.561930 25.822883 -3.778312 30.385368 -1.028437 1.695465 0.026471 -0.002031 -73794.100000 0 0 1
-14.346930 26.517563 -3.643212 30.369204 -1.074862 1.691050 0.024431 -0.005902 33413.600000 0 0 1
-14.071130 27.610393 -4.696512 31.343065 -1.099473 1.721205 0.033509 -0.001276 -320283.000000 0 0 1
-14.928330 28.706543 -4.522412 32.670673 -1.091252 1.709666 0.046870 -0.008911 -383700.000000 0 0 1
-14.503630 29.879463 -5.106312 33.603750 -1.118893 1.723344 0.035858 -0.007570 -274989.000000 0 0 1
-15.279730 31.110723 -4.636312 34.969167 -1.114262 1.703771 0.044899 -0.015092 -649915.000000 0 0 1
-16.563330 31.247103 -5.132312 35.736060 -1.083379 1.714912 0.047661 -0.004265 -867604.000000 0 0 1
-17.255730 32.233733 -4.414912 36.827507 -1.079285 1.690966 0.059174 -0.013981 -69014.300000 0 0 1
12.315537 -8.685255 18.876378 24.154167 -0.614226 0.673737 0.028395 -0.006680 135711.000000 0 1 0
13.081337 -9.767055 19.402778 25.357140 -0.641348 0.699475 0.035243 -0.007759 90231.500000 0 0 1
13.181937 -10.747255 18.390278 25.049338 -0.684002 0.746364 0.040395 -0.011643 -83423.100000 0 0 1
13.588437 -12.120155 18.925678 26.262618 -0.728348 0.766083 0.067961 -0.020139 936098.000000 0 0 1
15.000537 -12.015455 19.276678 27.220904 -0.675351 0.783912 0.062220 -0.017685 1384320.000000 0 0 1
15.483137 -13.149655 19.923178 28.453014 -0.704081 0.795100 0.052118 -0.014046 -160805.000000 0 0 1
15.899837 -14.307555 19.043478 28.638524 -0.732735 0.843356 0.043936 -0.019591 -695265.000000 0 0 1
14.832137 -14.820655 18.288078 27.822616 -0.785011 0.853553 0.054054 -0.020767 148413.000000 0 0 1
15.194637 -16.022355 17.612978 28.245529 -0.811907 0.897499 0.054877 -0.019626 262788.000000 0 0 1
14.291937 -16.179155 16.343578 27.076505 -0.847254 0.922778 0.047787 -0.023122 135444.000000 0 0 1
12.895737 -16.232255 16.564078 26.535916 -0.899448 0.896672 0.059018 -0.028691 64868.300000 0 0 1
12.211837 -16.160555 15.291178 25.379375 -0.923685 0.924161 0.065000 -0.035803 72605.900000 0 0 1
11.829937 -17.461055 14.626778 25.666681 -0.975328 0.964444 0.048114 -0.022100 -186738.000000 0 0 1
12.948937 -18.230455 14.191678 26.484490 -0.953197 1.005284 0.039847 -0.019646 283139.000000 0 0 1
12.574137 -19.395855 13.491678 26.764408 -0.995624 1.042468 0.033799 -0.017791 -593754.000000 0 0 1
13.708037 -20.294455 13.013078 27.732930 -0.976733 1.082380 0.040956 -0.024752 -163929.000000 0 0 1
14.483337 -21.002355 14.007678 29.104657 -0.967081 1.068675 0.040030 -0.021965 363445.000000 0 0 1
14.900237 -22.214255 13.457878 29.943358 -0.979971 1.104653 0.040279 -0.018987 -367956.000000 0 0 1
15.650037 -23.148655 14.421178 31.444464 -0.976314 1.094350 0.034249 -0.020101 -219260.000000 0 0 1
16.817237 -22.574755 14.951678 31.874625 -0.930530 1.082550 0.010785 -0.017114 -321480.000000 0 0 1
17.462237 -23.562855 15.714878 33.273042 -0.933021 1.078897 0.014795 -0.023770 -960029.000000 0 0 1
18.811937 -23.122955 16.247678 33.949184 -0.887841 1.071750 0.018916 -0.006928 -897365.000000 0 0 1
19.803537 -23.509655 15.308578 34.340014 -0.870756 1.108735 0.015782 -0.024282 -253337.000000 0 0 1
21.029237 -23.011355 15.839278 34.966184 -0.830374 1.100682 0.015926 -0.017381 102970.000000 0 0 1
22.269937 -23.708055 15.247578 35.923678 -0.816666 1.132449 0.016135 -0.029855 -181632.000000 0 0 1
22.541837 -24.998855 15.844178 37.203699 -0.837035 1.130866 0.020936 -0.024086 1022050.000000 0 0 1
23.718537 -25.603325 15.250678 38.087826 -0.823594 1.158834 0.025534 -0.029760 483225.000000 0 0 1
24.268837 -26.813105 15.973578 39.535734 -0.835165 1.154879 0.035074 -0.023955 -487290.000000 0 0 1
24.864037 -26.358015 17.170078 40.097094 -0.814557 1.128282 0.032532 -0.011600 12797.800000 0 0 1
25.371637 -27.448175 17.911778 41.448210 -0.824692 1.123923 0.033048 -0.004586 -252077.000000 0 0 1
25.786037 -26.986755 19.267978 42.005472 -0.808147 1.094263 0.032159 -0.005051 -352726.000000 0 0 1
24.707737 -26.516625 20.058678 41.424079 -0.820697 1.065316 0.036533 0.001696 -100808.000000 0 0 1
24.849437 -26.437465 21.452778 42.150395 -0.816352 1.036823 0.037226 0.006131 352556.000000 0 0 1
23.466737 -26.303865 22.197378 41.656989 -0.842341 1.008819 0.046501 -0.007538 496763.000000 0 0 1
22.795037 -27.517045 22.045178 41.985610 -0.878978 1.018005 0.036919 -0.004132 -328023.000000 0 0 1
21.611937 -27.501585 22.814378 41.760135 -0.904747 0.992833 0.041413 -0.004590 -185955.000000 0 0 1
21.211937 -28.947175 23.062978 42.658952 -0.938407 0.999603 0.039351 -0.002437 -382545.000000 0 0 1
22.215237 -29.649785 23.754158 44.010074 -0.927772 1.000664 0.043317 -0.011926 481275.000000 0 0 1
22.114737 -31.008165 23.434278 44.718378 -0.951272 1.019207 0.044080 -0.015048 882462.000000 0 0 1
23.357437 -31.835665 24.016328 46.215403 -0.937817 1.024343 0.023066 -0.009439 833589.000000 0 0 1
23.128637 -32.088175 25.408638 47.012592 -0.946257 0.999807 0.019785 -0.009996 448199.000000 0 0 1
24.240637 -32.506045 26.170168 48.261053 -0.930036 0.997669 0.019807 -0.008392 -971340.000000 0 0 1
23.764437 -32.685175 27.583038 48.927428 -0.942132 0.971872 0.008976 -0.008973 260785.000000 0 0 1
23.152037 -33.917275 27.939548 49.669073 -0.971842 0.973373 0.002435 -0.000546 -237131.000000 0 0 1
21.921437 -34.194701 27.353598 48.969852 -1.000719 0.978123 0.006431 -0.002238 -1010870.000000 0 0 1
21.247237 33.243524 27.974388 48.364692 1.002094 0.954024 0.025805 -0.019742 -8932.970000 0 0 1
20.606937 33.474167 29.231888 48.986417 1.018980 0.931371 0.003096 -0.008545 149858.000000 0 0 1
20.085937 32.272643 29.664948 48.218021 1.014081 0.908125 0.014433 -0.014275 -593973.000000 0 0 1
19.675737 32.296073 31.134958 48.985269 1.023618 0.882013 0.005191 -0.006277 35844.800000 0 0 1
20.800737 32.246123 31.999918 49.964767 0.997901 0.875713 -0.008337 0.004788 551197.000000 0 0 1
20.393037 32.499533 33.361974 50.844046 1.010411 0.855074 -0.015656 0.009448 -226795.000000 0 0 1
21.633837 32.650753 34.250670 52.030789 0.985626 0.852269 -0.020482 0.015807 375522.000000 0 0 1
22.338737 31.422113 -34.079612 51.456665 0.952776 2.294677 -0.014471 0.008616 1082490.000000 0 0 1
23.591937 31.688203 -33.409702 51.739056 0.930823 2.272781 -0.017574 0.013451 883426.000000 0 0 1
24.226637 30.398813 -32.815312 50.871038 0.897912 2.271909 -0.003162 -0.000837 -370252.000000 0 0 1
24.637037 29.486453 -33.804652 51.178013 0.874759 2.292322 0.009503 -0.012710 52973.300000 0 0 1
23.648537 28.535673 -34.170508 50.409936 0.878777 2.315634 0.014687 -0.014309 -62646.300000 0 0 1
23.902537 27.869143 33.048994 49.398952 0.861866 0.837904 0.046964 -0.020664 -142890.000000 0 0 1
25.108437 27.157463 32.946192 49.531939 0.824582 0.843101 0.039377 -0.021648 116924.000000 0 0 1
25.079037 26.276243 31.815338 48.286798 0.808706 0.851464 0.052506 -0.036333 79848.300000 0 0 1
26.294837 25.305543 31.656138 48.310455 0.766228 0.856263 0.032392 -0.025214 192937.000000 0 0 1
26.324837 24.416933 32.766841 48.609151 0.747816 0.831067 0.048761 -0.028977 142323.000000 0 0 1
27.463637 24.640633 33.563227 49.878877 0.731271 0.832681 0.050168 -0.033781 -868594.000000 0 0 1
27.420337 23.792363 -33.812082 49.610567 0.714675 2.320675 0.047585 -0.035529 -343676.000000 0 0 1
26.586837 24.292183 -32.734952 48.667722 0.740329 2.308542 0.052176 -0.021905 996145.000000 0 0 1
25.172337 24.211783 -32.904182 47.984813 0.765950 2.326390 0.038853 -0.021693 298981.000000 0 0 1
24.567937 22.787913 -33.132052 47.123300 0.747828 2.350534 0.027132 -0.021647 -1124830.000000 0 0 1
24.603237 21.973513 -31.954242 45.926334 0.728998 2.340290 0.017308 -0.030774 323414.000000 0 0 1
24.424137 20.632613 -32.240252 45.405695 0.701446 2.360364 0.015844 -0.020487 -347452.000000 0 0 1
24.278337 19.795913 -30.925022 44.019006 0.684045 2.349754 0.007059 -0.020545 -569275.000000 0 0 1
23.074937 19.847113 -30.204072 42.879443 0.710337 2.352367 -0.001900 -0.014739 -155819.000000 0 0 1
23.137937 19.058913 -29.049902 41.743301 0.689031 2.340493 -0.000537 -0.011667 1048880.000000 0 0 1
21.779337 19.039013 -28.197062 40.396756 0.718364 2.343401 0.009607 -0.019532 1126150.000000 0 0 1
21.886537 18.373013 -26.936012 39.270051 0.698347 2.326660 0.016412 -0.012096 27285.400000 0 0 1
22.656737 19.061413 -25.937812 39.362868 0.699429 2.290207 0.013485 0.001253 -2073.330000 0 0 1
22.612137 18.381513 -24.578412 38.122003 0.682560 2.271467 0.031075 0.003144 177167.000000 0 0 1
23.431137 17.205613 -24.576112 38.066214 0.633381 2.272624 0.016921 -0.010035 546795.000000 0 0 1
23.362237 16.459513 -23.373612 36.919310 0.613763 2.256348 0.028351 -0.001557 -654398.000000 0 0 1
24.238637 15.214813 -23.415812 36.977052 0.560545 2.256545 0.041429 -0.010929 570933.000000 0 0 1
25.635337 15.544213 -23.221412 37.921328 0.545082 2.229836 0.064612 -0.018210 1362080.000000 0 0 1
26.595637 14.500913 -23.253812 38.188273 0.499179 2.225502 0.058124 -0.025289 213897.000000 0 0 1
26.622237 13.486913 -22.075012 37.120702 0.468916 2.207666 0.045416 -0.014151 -882910.000000 0 0 1
25.497637 12.661013 -22.020812 35.990929 0.460889 2.229185 0.033453 -0.006235 -381974.000000 0 0 1
25.217137 12.299113 -20.706612 34.870274 0.453782 2.206593 0.029951 -0.014398 -793324.000000 0 0 1
23.771637 11.873413 -20.527912 33.577729 0.463230 2.228568 0.031663 -0.009259 -615742.000000 0 0 1
22.860037 12.945613 -20.462812 33.300104 0.515271 2.232545 0.053990 -0.012138 313617.000000 0 0 1
21.547237 12.506213 -20.815512 32.464971 0.525890 2.266816 0.043728 -0.015637 150794.000000 0 0 1
20.485837 13.585913 -20.778512 32.186848 0.585589 2.272551 0.052232 -0.016485 -901687.000000 0 0 1
20.839537 14.691113 -21.632612 33.437779 0.614049 2.274376 0.039119 -0.009417 355703.000000 0 0 1
19.981337 15.814413 -21.725112 33.486266 0.669511 2.276772 0.030971 -0.011620 370527.000000 0 0 1
18.679037 15.737013 -22.609512 33.282880 0.700121 2.317623 0.034774 0.001467 489341.000000 0 0 1
17.672437 15.003213 -21.980112 31.945842 0.703891 2.329585 0.036577 -0.009798 800906.000000 0 0 1
16.485037 14.800613 -22.782512 31.778255 0.731610 2.370173 0.036406 -0.013803 1177260.000000 0 0 1
15.293437 14.099613 -22.070412 30.328063 0.744805 2.385792 0.019553 -0.013143 63071.100000 0 0 1
14.186437 13.977013 -22.915512 30.360050 0.777962 2.426133 0.029185 -0.010549 -4635.220000 0 0 1
13.018637 13.506313 -22.224112 29.082926 0.803782 2.440540 0.046973 -0.018601 903738.000000 0 0 1
11.752037 13.522613 -23.163612 29.283517 0.855337 2.483258 0.047214 -0.012899 163407.000000 0 0 1
11.291637 14.813513 -22.999412 29.595848 0.919500 2.460867 0.039046 -0.015754 -239407.000000 0 0 1
10.791937 15.376513 -24.181012 30.620654 0.958833 2.481110 0.036968 -0.009447 -1088210.000000 0 0 1
10.856837 16.924213 -24.258912 31.508646 1.000422 2.449501 0.028101 -0.004144 84405.400000 0 0 1
12.176837 17.443113 -24.111312 32.154206 0.961354 2.418654 0.027316 0.000167 443831.000000 0 0 1
13.159937 17.124113 -25.074312 33.092905 0.915558 2.430569 0.023869 -0.007007 -541742.000000 0 0 1
12.924937 17.628813 -26.527562 34.373546 0.938153 2.452375 0.033094 -0.007967 -79868.400000 0 0 1
13.998837 17.345313 -27.433782 35.347415 0.891761 2.459283 0.030077 -0.012487 147555.000000 0 0 1
13.523937 17.269213 -28.754292 36.165342 0.906431 2.489934 0.032091 -0.018216 -416858.000000 0 0 1
14.452637 17.627413 -29.908112 37.604516 0.884041 2.490353 0.028750 -0.017345 39017.700000 0 0 1
15.603037 16.791413 -30.055672 37.798807 0.822066 2.490049 0.021590 -0.018875 86141.300000 0 0 1
16.363737 17.119513 -31.174542 39.149735 0.807966 2.491933 0.018479 -0.010543 -165671.000000 0 0 1
17.615637 16.219413 -31.293132 39.403556 0.744156 2.488437 0.012278 -0.005081 353362.000000 0 0 1
18.742137 16.736913 -30.557092 39.561697 0.728940 2.453393 0.012640 -0.009891 357286.000000 0 0 1
19.855537 15.892313 -30.703762 39.868898 0.674983 2.449823 0.014937 -0.006751 -75451.400000 0 0 1
21.105637 16.627813 -31.233672 41.200417 0.667281 2.431177 0.010676 -0.006909 -412108.000000 0 0 1
20.980637 17.146413 -32.546932 42.349610 0.685171 2.447336 0.019905 -0.007690 373487.000000 0 0 1
22.233537 17.660213 -32.969712 43.511093 0.671259 2.430626 0.025901 -0.002066 101743.000000 0 0 1
22.145837 18.159513 34.207638 44.613547 0.686816 0.697026 0.017015 0.007845 143151.000000 0 0 1
23.208637 19.032413 33.868316 45.254132 0.686852 0.725146 0.021993 -0.000194 118741.000000 0 0 1
23.003937 19.533113 32.585808 44.413495 0.703983 0.747057 0.029244 0.002259 -693462.000000 0 0 1
23.938037 20.627113 32.117578 45.056035 0.711240 0.777262 0.041102 -0.009010 -1364320.000000 0 0 1
25.237837 20.193713 31.998638 45.482385 0.674824 0.790431 0.038396 -0.018524 -1462190.000000 0 0 1
26.050137 21.297013 31.759228 46.269007 0.685345 0.814264 0.035691 -0.031845 -85226.400000 0 0 1
27.554737 20.953913 31.629398 46.890819 0.650154 0.830465 0.048127 -0.031009 -108143.000000 0 0 1
28.050337 20.274213 32.740085 47.642191 0.625851 0.813158 0.036837 -0.028175 756583.000000 0 0 1
29.483337 20.232113 32.544308 48.350156 0.601419 0.832409 0.036374 -0.026408 1122020.000000 0 0 1
30.327937 19.553313 33.639557 49.332906 0.572661 0.820455 0.026218 -0.022325 -55406.600000 0 0 1
30.281037 20.185913 -33.753432 49.635738 0.587970 2.318590 0.023568 -0.024894 -200360.000000 0 0 1
29.154537 19.910213 -32.963692 48.301228 0.599171 2.321920 0.028869 -0.031205 -421837.000000 0 0 1
29.288037 20.463113 -31.499662 47.631469 0.609843 2.293374 0.035769 -0.024172 -264423.000000 0 0 1
30.249537 19.618913 -30.928992 47.503040 0.575369 2.279823 0.030838 -0.023966 -165734.000000 0 0 1
30.450437 19.937313 -29.594982 46.910431 0.579705 2.253487 0.021327 -0.021892 -1212040.000000 0 0 1
31.823837 19.615413 -29.080022 47.362103 0.552373 2.231906 0.052461 -0.013468 -1092350.000000 0 0 1
32.791537 20.261313 -29.870232 48.765116 0.553465 2.230057 0.019670 -0.018219 -32019.200000 0 0 1
34.093037 19.968913 -29.377372 49.235381 0.529852 2.210144 0.032932 -0.012579 597190.000000 0 0 1
35.253237 20.908413 -29.796642 50.673389 0.535325 2.199397 0.034826 -0.018494 291687.000000 0 0 1
-35.674795 20.543013 -30.947972 51.502266 -0.522466 2.215429 0.025669 -0.017162 -22585.000000 0 0 1
-34.652695 21.501413 -31.126482 51.302807 -0.555345 2.222725 0.032115 -0.026664 -415962.000000 0 0 1
-33.690795 21.113513 -32.228822 51.181511 -0.559810 2.251959 0.035366 -0.032085 -413267.000000 0 0 1
-32.912195 19.963213 -32.000072 50.057438 -0.545229 2.264341 0.055682 -0.021240 347489.000000 0 0 1
-32.116595 19.577013 -33.131132 50.123917 -0.547420 2.292926 0.044687 -0.006838 423779.000000 0 0 1
-31.275495 18.298513 -32.912882 48.951507 -0.529373 2.308185 0.025369 -0.004989 -86774.700000 0 0 1
-32.121795 17.199213 -32.754862 48.994935 -0.491594 2.303034 0.023530 -0.008914 299476.000000 0 0 1
-31.433595 15.949113 -33.039272 48.311889 -0.469543 2.323856 0.006284 -0.000381 172346.000000 0 0 1
-32.374195 14.708413 -33.126102 48.597990 -0.426445 2.320792 0.002402 0.000905 -158044.000000 0 0 1
-31.848895 13.478013 -33.610152 48.225007 -0.400333 2.341924 0.004722 -0.004911 -344379.000000 0 0 1
-32.769695 12.453513 -33.396152 48.417413 -0.363174 2.331947 0.012601 -0.011062 -304879.000000 0 0 1
-32.143495 11.002313 -33.261112 47.545313 -0.329787 2.345587 0.014754 -0.013549 15351.400000 0 0 1
-31.561795 10.492713 34.193853 47.701819 -0.320955 0.771558 -0.006091 -0.012638 370019.000000 0 0 1
-32.258695 9.319713 33.756068 47.612526 -0.281248 0.782753 0.031124 -0.022671 -113124.000000 0 0 1
-31.625195 8.672513 32.499888 46.169343 -0.267648 0.789884 0.041860 -0.019429 432538.000000 0 0 1
-30.354995 8.210413 32.953625 45.549731 -0.264159 0.761988 0.037826 -0.015520 278816.000000 0 0 1
-29.547295 7.634313 31.933978 44.171307 -0.252846 0.762723 0.042142 -0.014408 281147.000000 0 0 1
20.158537 -4.081655 -30.798622 37.034871 -0.199777 2.552799 0.062852 -0.026014 -737590.000000 0 0 1
21.202537 -4.368855 -31.672182 38.363546 -0.203209 2.542026 0.074111 -0.021634 -144277.000000 0 0 1
22.252237 -3.395055 -31.592562 38.791474 -0.151404 2.522526 0.055959 -0.022341 266277.000000 0 0 1
22.041737 -2.017755 -32.215632 39.086526 -0.091288 2.539608 0.059637 -0.018297 -254640.000000 0 0 1
23.010537 -1.089255 -31.701942 39.187810 -0.047302 2.513202 0.049649 -0.014247 526676.000000 0 0 1
22.877237 0.228645 -32.265502 39.553545 0.009994 2.524808 0.056495 -0.016432 -240293.000000 0 0 1
23.989237 1.179845 -31.771252 39.828232 0.049143 2.494279 0.043114 -0.008859 278312.000000 0 0 1
25.259637 0.872245 -32.347522 41.050850 0.034517 2.478328 0.038476 -0.011526 -505039.000000 0 0 1
26.188337 1.686845 -31.760812 41.199802 0.064323 2.451045 0.027079 -0.005127 -723991.000000 0 0 1
27.627837 1.498445 -32.278312 42.513906 0.054184 2.432943 0.015101 -0.012345 -111295.000000 0 0 1
27.945737 2.159245 -33.491302 43.672576 0.077112 2.444750 0.018360 -0.017395 -216020.000000 0 0 1
28.749637 1.400345 34.323248 44.794955 0.048670 0.697843 0.008754 -0.013992 -81563.200000 0 0 1
29.798337 2.111245 33.428884 44.831781 0.070733 0.729284 0.021520 -0.015314 125564.000000 0 0 1
29.168437 2.973545 32.487018 43.761239 0.101593 0.734196 0.039966 -0.006879 348621.000000 0 0 1
29.051037 4.349545 32.896981 44.103205 0.148617 0.728898 0.025636 -0.000895 -380099.000000 0 0 1
28.123637 5.178545 32.001988 42.917171 0.182095 0.729259 0.039693 -0.000380 -617829.000000 0 0 1
28.051937 6.498045 32.357468 43.314449 0.227629 0.727204 0.037216 -0.003527 -297633.000000 0 0 1
27.162137 7.270545 31.625658 42.318138 0.261541 0.726760 0.027145 0.000377 -505492.000000 0 0 1
27.415037 8.776545 31.815288 42.904832 0.309826 0.735446 0.021683 -0.000541 -386307.000000 0 0 1
28.608637 9.273645 31.303748 43.409438 0.313468 0.765368 0.018411 0.000144 -353915.000000 0 0 1
28.575237 10.685445 31.550348 43.887896 0.357842 0.768599 0.013596 -0.001330 -91666.300000 0 0 1
29.921937 11.264445 31.089668 44.595712 0.360051 0.799389 0.010151 0.005225 157859.000000 0 0 1
31.019937 10.819845 31.894008 45.787917 0.335608 0.800205 0.015946 -0.005034 1789660.000000 0 0 1
32.332237 10.918345 31.257048 46.277283 0.325668 0.829249 0.007612 -0.005149 1926450.000000 0 0 1
33.121637 12.311845 31.219458 47.151659 0.355888 0.847169 0.016223 -0.009965 -89174.500000 0 0 1
33.667937 12.566345 32.448948 48.418770 0.357230 0.836355 0.017418 -0.015013 -8538.380000 0 0 1
34.269037 13.866645 32.664440 49.331698 0.384500 0.847127 0.016865 -0.013964 -131579.000000 0 0 1
33.369637 15.080545 32.543678 48.990270 0.424453 0.844255 0.025592 -0.016176 -872299.000000 0 0 1
32.916837 15.525445 31.254538 47.972948 0.440717 0.861232 0.022928 -0.025752 66107.000000 0 0 1
32.022637 16.597845 31.319318 47.768582 0.478193 0.855757 0.031762 -0.034595 78970.600000 0 0 1
30.531937 16.231245 31.521728 46.789655 0.488619 0.831606 0.030124 -0.022859 55915.000000 0 0 1
29.861937 15.693545 30.361118 45.385242 0.483868 0.837981 0.037541 -0.022127 816131.000000 0 0 1
28.548137 15.200445 30.625288 44.541643 0.489269 0.812666 0.029571 -0.025257 359306.000000 0 0 1
27.795337 14.476945 29.504368 43.042659 0.480181 0.815550 0.025208 -0.007181 -141165.000000 0 0 1
28.254937 13.224145 29.076828 42.646001 0.437746 0.820551 0.023273 -0.011938 -479077.000000 0 0 1
27.510937 12.882345 27.986308 41.304236 0.437937 0.826349 0.022707 -0.008288 -589909.000000 0 0 1
27.130937 11.387345 28.002598 40.619021 0.397388 0.810141 0.017748 0.002925 -460926.000000 0 0 1
28.059337 10.628045 27.289628 40.558668 0.362072 0.832751 0.017825 0.011252 -246053.000000 0 0 1
27.705737 9.279945 27.336068 40.012322 0.323202 0.818672 0.023454 0.015038 59625.500000 0 0 1
28.673437 8.206245 26.732598 40.051720 0.278746 0.840015 0.012639 0.014434 151447.000000 0 0 1
29.012537 8.429645 25.360708 39.445554 0.282766 0.872479 0.013809 0.010453 90020.900000 0 0 1
30.155437 7.729745 24.937388 39.886999 0.250927 0.895407 0.014595 0.019493 23601.700000 0 0 1
30.503437 7.910345 23.417778 39.260993 0.253737 0.931708 0.025254 0.016522 -511509.000000 0 0 1
31.212837 9.106345 23.141378 39.908522 0.283871 0.952239 0.026694 0.004726 216126.000000 0 0 1
30.531737 10.350145 22.806978 39.490135 0.326838 0.955089 0.030040 -0.003718 -431437.000000 0 0 1
30.092637 10.346245 21.335278 38.311952 0.331153 0.980168 0.034327 0.009111 -145313.000000 0 0 1
31.094537 10.592045 20.362378 38.648261 0.328312 1.015890 0.047504 -0.007236 333414.000000 0 0 1
30.622337 10.257545 19.069678 37.504632 0.323222 1.037399 0.048321 -0.011846 -515889.000000 0 0 1
31.537237 10.882345 17.929678 37.874743 0.332270 1.077656 0.055428 -0.032618 843955.000000 0 0 1
32.857537 10.443745 17.689878 38.750759 0.307751 1.096734 0.065650 -0.026759 206797.000000 0 0 1
33.752737 10.435245 18.783578 40.012053 0.299846 1.082131 0.056725 -0.024734 -1119920.000000 0 0 1
35.066537 9.798545 18.316178 40.757280 0.272477 1.104707 0.071219 -0.035157 -710697.000000 0 0 1
35.082337 8.392745 18.345178 40.469175 0.234817 1.100318 0.060370 -0.026672 729807.000000 0 0 1
-35.382195 7.877045 17.792578 40.379740 -0.219055 1.114494 0.066167 -0.023235 222459.000000 0 0 1
-35.460195 6.339645 17.618178 40.100084 -0.176913 1.115916 0.063034 -0.023331 -369607.000000 0 0 1
35.321237 6.032845 16.570878 39.478843 0.169167 1.137637 0.048650 -0.012739 319907.000000 0 0 1
35.542837 4.758245 16.011878 39.272311 0.133082 1.150847 0.051430 -0.009317 -1054910.000000 0 0 1
34.257337 3.908645 16.009578 38.015119 0.113605 1.136098 0.039712 -0.005501 -101667.000000 0 0 1
34.003337 3.167045 17.164278 38.221324 0.092871 1.105065 0.040056 -0.000551 125283.000000 0 0 1
32.694037 2.635945 17.138878 37.007964 0.080451 1.089292 0.034463 -0.002126 62512.300000 0 0 1
32.455437 1.687845 18.363578 37.328612 0.051958 1.056475 0.032481 0.001935 -73051.700000 0 0 1
33.157537 0.446945 18.375478 37.911479 0.013479 1.064783 0.035057 0.005845 35255.500000 0 0 1
33.003537 -0.252755 19.552078 38.361193 -0.007658 1.035979 0.039623 0.006458 -196571.000000 0 0 1
33.725237 -1.577755 19.767678 39.123421 -0.046749 1.041108 0.041579 0.007786 -240612.000000 0 0 1
33.310237 -2.245055 20.933478 39.405871 -0.067297 1.010748 0.054581 0.013525 -55495.500000 0 0 1
33.796737 -3.538055 21.071878 39.984514 -0.104306 1.015728 0.036832 0.016612 -163889.000000 0 0 1
33.220637 -4.284455 22.337378 40.260722 -0.128262 0.982652 0.037223 0.009916 -139744.000000 0 0 1
33.845237 -3.876555 23.517978 41.395931 -0.114041 0.966573 0.038757 0.005207 102951.000000 0 0 1
33.255337 -4.449155 24.687738 41.655694 -0.132998 0.936437 0.038056 0.003149 33086.800000 0 0 1
33.780737 -3.955955 26.049708 42.841278 -0.116576 0.917192 0.030341 0.003036 -199983.000000 0 0 1
32.993137 -4.422655 27.110728 42.931324 -0.133253 0.887322 0.034785 -0.002324 -73569.200000 0 0 1
33.161237 -3.757555 28.386328 43.812904 -0.112830 0.865974 0.024198 -0.002346 -387154.000000 0 0 1
32.120137 -4.230955 29.387048 43.740174 -0.130969 0.834086 0.023816 -0.008991 -280314.000000 0 0 1
32.289637 -5.596355 29.673068 44.208945 -0.171613 0.834969 0.036976 -0.015936 301206.000000 0 0 1
31.261337 -5.987655 30.576278 44.136516 -0.189244 0.805479 0.055606 -0.029905 -34498.300000 0 0 1
31.475737 -7.431455 31.072628 44.849268 -0.231855 0.805399 0.046920 -0.025621 450871.000000 0 0 1
32.661437 -7.571055 31.849138 46.243464 -0.227781 0.811064 0.043253 -0.027978 83263.900000 0 0 1
33.352137 -8.742555 31.528618 46.720992 -0.256361 0.830065 0.039156 -0.018874 -81332.600000 0 0 1
34.680237 -8.998255 32.248988 48.204613 -0.253865 0.837931 0.049601 -0.009331 -21952.700000 0 0 1
34.514737 -9.550455 33.497814 49.036536 -0.269952 0.818771 0.032566 -0.017907 104598.000000 0 0 1
35.782737 -9.708055 34.083318 50.361922 -0.264928 0.827433 0.013110 -0.016271 -59258.400000 0 0 1
35.619737 -9.785455 -33.022062 49.547729 -0.268106 2.300260 0.031498 -0.019665 -277757.000000 0 0 1
35.046537 -8.700955 -32.385182 48.505324 -0.243348 2.301861 0.028933 -0.025249 326832.000000 0 0 1
-35.800395 -7.542255 -32.295992 48.801486 0.207639 2.293991 0.037135 -0.016232 137300.000000 0 0 1
35.185037 -6.368155 -31.552822 47.687743 -0.179052 2.293820 0.040176 -0.018083 -284912.000000 0 0 1
35.306337 -6.534755 -30.125782 46.870068 -0.183016 2.268880 0.025895 -0.004181 265643.000000 0 0 1
34.410237 -5.638955 -29.499082 45.673385 -0.162431 2.272959 0.030897 -0.008228 -38259.000000 0 0 1
34.757837 -5.446955 -27.967922 44.944202 -0.155447 2.242450 0.039197 -0.001764 508084.000000 0 0 1
-35.593895 -4.914855 -27.957582 45.526999 0.137214 2.232026 0.045019 -0.001509 239962.000000 0 0 1
-35.298295 -4.618655 -26.622662 44.452984 0.130107 2.212917 0.041756 -0.002114 181191.000000 0 0 1
-33.771695 -4.547955 -26.372852 43.089890 0.133862 2.229437 0.046154 0.007387 -380666.000000 0 0 1
-33.466695 -4.347755 -24.991212 41.993849 0.129189 2.208206 0.058133 0.006454 690544.000000 0 0 1
-32.093195 -4.446455 -24.606112 40.684210 0.137672 2.220320 0.065116 0.004993 876284.000000 0 0 1
-31.028195 -3.467255 -25.159762 40.097187 0.111284 2.249095 0.063505 0.002056 -365570.000000 0 0 1
-30.586095 -3.770555 -26.455232 40.615337 0.122658 2.280173 0.057305 0.004803 -237304.000000 0 0 1
-29.681195 -2.830155 -26.948062 40.189317 0.095064 2.305717 0.060949 -0.001399 -265727.000000 0 0 1
-29.062195 -3.350155 -28.254342 40.671152 0.114769 2.338802 0.054083 0.004705 -510823.000000 0 0 1
-29.981395 -3.434455 -29.303592 42.064000 0.114056 2.341504 0.067658 0.004671 -40179.500000 0 0 1
-29.534195 -4.366055 -30.304152 42.540249 0.146768 2.363658 0.058840 0.007468 -748595.000000 0 0 1
-30.516795 -4.580355 -31.485702 44.086323 0.148981 2.366253 0.044381 0.002026 256954.000000 0 0 1
-31.703495 -5.316155 -31.204312 44.800471 0.166138 2.341329 0.038321 0.001149 840447.000000 0 0 1
-32.745595 -4.750855 -30.419742 44.946695 0.144078 2.314198 0.046495 -0.007041 -43194.100000 0 0 1
-33.712395 -3.754655 -31.146612 46.051433 0.110916 2.313584 0.079062 -0.015582 -522589.000000 0 0 1
-33.244395 -2.552555 -31.713182 46.015555 0.076631 2.331159 0.083539 -0.012432 -139443.000000 0 0 1
-33.012995 -1.520355 -30.800622 45.175742 0.046021 2.321011 0.083264 -0.016598 69361.500000 0 0 1
-32.735195 -0.088355 -31.395932 45.357528 0.002699 2.335313 0.080186 -0.018232 -118829.000000 0 0 1
-33.942695 0.348545 -31.943892 46.611590 -0.010268 2.325840 0.098774 -0.021153 -133067.000000 0 0 1
-33.924795 1.760345 -32.119612 46.751043 -0.051843 2.328197 0.113292 -0.016677 -397952.000000 0 0 1
-35.294595 2.365045 -32.399652 47.969150 -0.066909 2.312340 0.077933 -0.012604 -621980.000000 0 0 1
-35.793495 2.159545 -33.649092 49.174174 -0.060260 2.324417 0.060125 -0.016136 66728.900000 0 0 1
34.560037 2.640645 -33.790462 48.406245 0.076259 2.343481 0.018812 -0.011955 -111759.000000 0 0 1
33.870337 2.093745 33.587661 47.746356 0.061738 0.790542 -0.004230 -0.007357 -60201.000000 0 0 1
34.467237 2.538245 32.353348 47.341021 0.073510 0.818372 0.005160 -0.005503 608876.000000 0 0 1
35.503137 1.663245 31.912518 47.766599 0.046814 0.839154 -0.001597 -0.005327 -19613.700000 0 0 1
35.821837 1.700145 30.363678 46.989866 0.047426 0.868234 0.013598 -0.007437 -223844.000000 0 0 1
-35.170395 2.899845 30.054208 46.353222 -0.082265 0.865350 0.027883 -0.008755 299843.000000 0 0 1
-34.805895 2.904045 28.667318 45.185163 -0.083243 0.883511 0.034719 -0.008805 40794.100000 0 0 1
-34.408595 4.319645 28.204658 44.700263 -0.124886 0.887990 0.036480 -0.007158 -530645.000000 0 0 1
-33.890095 4.395345 26.930688 43.509994 -0.128974 0.903386 0.036279 -0.000139 30539.600000 0 0 1
-33.468695 5.707345 26.717958 43.203896 -0.168903 0.904072 0.034688 0.006286 -237921.000000 0 0 1
-32.804595 5.922045 25.297808 41.847236 -0.178601 0.921624 0.043722 0.008006 526010.000000 0 0 1
-31.576295 5.192845 25.234778 40.753185 -0.162995 0.903060 0.038071 0.008616 1068090.000000 0 0 1
-30.603895 5.567445 24.248128 39.440671 -0.179952 0.908664 0.036146 0.005737 470567.000000 0 0 1
-30.815695 5.107945 22.799578 38.671940 -0.164264 0.940278 0.048326 -0.000428 -270049.000000 0 0 1
-30.765295 3.709845 22.625078 38.368744 -0.120006 0.940140 0.037545 0.006183 79060.100000 0 0 1
-31.518395 3.355545 21.480078 38.289198 -0.106064 0.975208 0.049199 -0.000328 -713473.000000 0 0 1
-31.421195 1.881445 21.039678 37.861582 -0.059807 0.981592 0.040401 0.006038 624381.000000 0 0 1
-30.134695 1.490045 20.529678 36.493668 -0.049406 0.973324 0.035858 0.010205 776877.000000 0 0 1
-29.928995 1.917045 19.157978 35.587188 -0.063966 1.002331 0.032904 0.000530 -472936.000000 0 0 1
-28.695695 1.401945 18.420378 34.127975 -0.048817 1.000663 0.033729 0.000670 -394497.000000 0 0 1
-28.871895 0.013245 18.246078 34.154149 -0.000459 1.007203 0.042248 -0.004482 784376.000000 0 0 1
-27.802595 -0.667755 17.554578 32.887588 0.024013 1.007738 0.051476 -0.006875 365882.000000 0 0 1
-27.765595 -0.513555 16.012478 32.056068 0.018494 1.047758 0.055211 -0.000368 -3015.690000 0 0 1
-27.361695 0.795345 15.663978 31.538154 -0.029060 1.051041 0.066667 -0.001166 178302.000000 0 0 1
-27.329995 0.954945 14.287678 30.854146 -0.034927 1.089339 0.074566 -0.005610 15211.300000 0 0 1
-26.772095 2.325945 13.804678 30.211326 -0.086662 1.096247 0.068776 -0.004845 -363546.000000 0 0 1
-25.380895 2.410845 13.662878 28.925357 -0.094702 1.078842 0.069152 -0.010427 -187569.000000 0 0 1
-25.077595 3.729245 13.120178 28.547016 -0.147626 1.093253 0.060976 -0.006110 -369849.000000 0 0 1
-23.584895 3.953945 12.877478 27.160825 -0.166103 1.076833 0.052104 -0.006978 -315348.000000 0 0 1
-22.817795 4.178745 14.073478 27.132572 -0.181128 1.025475 0.034683 -0.000823 -56234.600000 0 0 1
-21.498695 4.479345 13.683978 25.874885 -0.205415 1.013549 0.028492 -0.007633 -355116.000000 0 0 1
-20.685795 4.806145 14.958278 25.975974 -0.228290 0.957152 0.018995 -0.007528 -348990.000000 0 0 1
-20.837595 6.194345 15.256478 26.558151 -0.288948 0.958857 0.008192 -0.001334 351696.000000 0 0 1
-20.517895 6.567645 16.621278 27.210014 -0.309788 0.913661 0.015081 0.007633 -107760.000000 0 0 1
-20.767895 8.076345 16.964278 28.005706 -0.370889 0.920096 0.011628 0.009974 -340460.000000 0 0 1
-19.899695 8.941045 16.225578 27.188408 -0.422276 0.931310 0.010806 0.005763 549568.000000 0 0 1
-20.045895 10.333645 16.356378 27.859527 -0.475970 0.943322 0.005370 0.013926 -159396.000000 0 0 1
-19.529695 11.019845 17.662278 28.544738 -0.513726 0.903636 0.017526 0.011886 -378501.000000 0 0 1
-20.364795 10.757245 18.737578 29.690740 -0.485974 0.887837 0.025173 0.011279 78073.900000 0 0 1
-19.806695 11.258845 19.908278 30.255682 -0.516887 0.852635 0.031543 0.012400 -176006.000000 0 0 1
-12.152663 -34.093224 -21.076412 41.883771 1.228384 2.098108 0.052313 -0.023311 -227117.000000 0 0 1
-13.053663 -34.260224 -19.980012 41.753586 1.206763 2.069767 0.073131 -0.019752 -789687.000000 0 0 1
-14.211863 -33.548524 -20.225712 41.672053 1.170094 2.077565 0.073463 -0.030558 -169585.000000 0 0 1
-15.377163 -34.108224 -19.301912 42.099785 1.147249 2.047080 0.076980 -0.022919 -443063.000000 0 0 1
-15.823863 33.362145 -19.853612 41.923660 -1.127914 2.064131 0.064328 -0.027935 -331626.000000 0 0 1
-16.603263 32.561845 -19.043612 41.214090 -1.099261 2.051119 0.071364 -0.018447 -364315.000000 0 0 1
-17.987163 33.023445 -18.581712 41.944796 -1.072048 2.029743 0.067975 -0.017199 -991283.000000 0 0 1
-17.958163 34.105945 -17.649612 42.393630 -1.086142 2.000198 0.074655 -0.011363 489590.000000 0 0 1
-19.251963 -34.268024 -17.128412 42.875612 1.058935 1.981758 0.057331 -0.005905 660610.000000 0 0 1
-19.614263 33.772045 -15.747512 42.110028 -1.044626 1.954073 0.060967 -0.009944 -50222.000000 0 0 1
-19.666163 32.370045 -15.782412 41.032454 -1.024850 1.965606 0.070118 -0.018515 147067.000000 0 0 1
-20.106263 31.858845 -14.493412 40.364672 -1.007819 1.938059 0.059399 -0.016807 244395.000000 0 0 1
-20.226063 30.395545 -14.370712 39.236464 -0.983651 1.945782 0.051164 -0.016603 237815.000000 0 0 1
-18.968263 29.896345 -13.943412 38.052663 -1.005418 1.945959 0.058597 -0.022281 320140.000000 0 0 1
-18.967563 28.434845 -14.043712 36.953142 -0.982526 1.960637 0.048238 -0.016114 473335.000000 0 0 1
-17.678363 27.762245 -13.450312 35.555276 -1.003773 1.958748 0.050629 -0.014319 944132.000000 0 0 1
-16.480063 28.161445 -14.117412 35.552226 -1.041331 1.979140 0.071237 -0.026868 -358109.000000 0 0 1
-15.428663 27.299645 -13.765612 34.246260 -1.056389 1.984452 0.073319 -0.029386 -396498.000000 0 0 1
-14.201463 27.740645 -14.583312 34.407817 -1.097645 2.008474 0.069863 -0.033085 -488950.000000 0 0 1
-14.329263 27.709745 -15.973412 35.047220 -1.093547 2.044032 0.057734 -0.033289 745620.000000 0 0 1
-13.112263 28.210445 -16.579712 35.251205 -1.135702 2.060461 0.084419 -0.037795 754493.000000 0 0 1
-13.174563 28.067445 -18.111912 35.908104 -1.131936 2.099479 0.094565 -0.047262 -35168.500000 0 0 1
-13.068063 26.770845 -18.655612 35.149456 -1.116677 2.130283 0.067844 -0.042467 51731.800000 0 0 1
-13.259563 26.830845 -20.061512 36.030189 -1.111807 2.161321 0.071854 -0.049777 -148591.000000 0 0 1
-12.481663 25.705445 -20.743712 35.310953 -1.118763 2.198711 0.055222 -0.035011 -129932.000000 0 0 1
-11.163163 26.077145 -21.083312 35.343171 -1.166318 2.209969 0.036546 -0.025358 -576838.000000 0 0 1
-10.459863 24.992545 -21.584712 34.640090 -1.174428 2.243514 0.053770 -0.027332 -150543.000000 0 0 1
-9.134663 25.453945 -22.202712 34.990081 -1.226241 2.258213 0.044540 -0.025077 -175212.000000 0 0 1
-9.437063 26.320445 -23.297712 36.395156 -1.226529 2.265467 0.046416 -0.018825 52128.300000 0 0 1
-8.266763 26.617045 -24.028212 36.798932 -1.269660 2.282282 0.025348 -0.022549 -320375.000000 0 0 1
-8.435463 27.342745 -25.351142 38.229088 -1.271552 2.295799 0.022135 -0.012409 -1160860.000000 0 0 1
-9.311763 26.752245 -26.234402 38.608748 -1.235838 2.317869 0.033642 -0.012964 -607965.000000 0 0 1
-9.562963 27.442545 -27.435012 39.965278 -1.235483 2.327421 0.054070 -0.011491 -178689.000000 0 0 1
-10.852363 26.868545 -28.028292 40.314732 -1.186927 2.339546 0.034856 -0.008637 -236730.000000 0 0 1
-11.164163 27.398945 -29.349782 41.674338 -1.183870 2.352184 0.050765 -0.003626 -625111.000000 0 0 1
-12.384463 26.910945 -29.804582 42.022458 -1.139491 2.359235 0.055247 0.001027 -468430.000000 0 0 1
-12.664063 27.164945 -31.343562 43.367403 -1.134560 2.378562 0.042954 -0.005548 -145767.000000 0 0 1
-12.002763 26.461245 -32.380192 43.505639 -1.144954 2.410246 0.046646 -0.005559 -147825.000000 0 0 1
-12.019263 25.068645 -32.307922 42.622781 -1.123720 2.431032 0.047627 -0.013318 294048.000000 0 0 1
-11.291563 24.490945 -33.598322 43.083094 -1.138791 2.465221 0.031878 -0.001872 773831.000000 0 0 1
-11.944263 24.721945 33.745900 43.504319 -1.120724 0.682987 0.042235 0.001130 736453.000000 0 0 1
-11.310363 23.842245 32.768214 42.072946 -1.127851 0.677977 0.042632 -0.000860 240087.000000 0 0 1
-12.023863 23.993145 31.386338 41.295841 -1.106239 0.707427 0.050026 0.002592 -956622.000000 0 0 1
-13.295063 23.479345 31.389038 41.392149 -1.055567 0.710044 0.054537 -0.003979 -1168740.000000 0 0 1
-13.806163 23.474345 30.054398 40.557636 -1.039144 0.736194 0.063954 0.001534 -174033.000000 0 0 1
-15.026463 22.570945 29.924228 40.381946 -0.983433 0.736194 0.049377 0.003752 -229933.000000 0 0 1
-14.690963 21.207345 30.067558 39.618606 -0.964966 0.709135 0.031929 -0.005446 26614.000000 0 0 1
-15.872563 20.415645 30.085558 39.672126 -0.909945 0.710010 0.027099 -0.006566 226168.000000 0 0 1
-15.691763 18.925445 30.316818 39.032209 -0.878540 0.681366 0.022486 -0.012760 -167896.000000 0 0 1
-15.320363 18.180245 29.206778 37.659935 -0.870560 0.683227 0.025654 -0.000636 54804.500000 0 0 1
-14.770163 16.937445 29.608228 37.170982 -0.853644 0.649243 0.012099 -0.017051 12411.400000 0 0 1
-14.174463 16.160745 28.424058 35.637230 -0.850783 0.647500 0.026763 -0.005099 -195348.000000 0 0 1
-13.293463 16.908245 27.624518 35.010268 -0.904520 0.661551 0.021567 -0.002383 -165748.000000 0 0 1
-12.632563 16.013445 26.734388 33.626471 -0.902877 0.651723 0.011453 0.005463 288200.000000 0 0 1
-11.729463 16.704845 25.641118 32.773451 -0.958623 0.672327 0.022995 0.005545 344966.000000 0 0 1
-12.380763 17.525345 24.667508 32.694142 -0.955755 0.715915 0.020340 0.003053 -117353.000000 0 0 1
-12.947263 18.760845 25.092978 33.900715 -0.966731 0.737443 0.011757 0.000910 257842.000000 0 0 1
-11.962463 19.797945 25.727908 34.597462 -1.027274 0.732304 0.004891 0.002715 368534.000000 0 0 1
-11.413863 19.540845 27.025878 35.249383 -1.042148 0.697103 0.016288 -0.000824 425166.000000 0 0 1
-12.302863 19.972945 28.054478 36.569560 -1.018712 0.696404 0.029050 -0.004194 26175.900000 0 0 1
-11.791463 19.587545 29.428248 37.265699 -1.028916 0.660497 0.034779 -0.005487 -301736.000000 0 0 1
-10.726363 20.308645 29.984538 37.769941 -1.084870 0.653644 0.015100 -0.012421 -233175.000000 0 0 1
-10.499163 20.029845 31.327338 38.637148 -1.087996 0.625264 0.007196 -0.013760 -619364.000000 0 0 1
-9.394463 20.814645 31.979098 39.295904 -1.146829 0.620131 0.010371 -0.014582 -1280150.000000 0 0 1
-8.213063 20.134245 32.164898 38.825544 -1.183485 0.594468 0.015761 -0.017704 -865915.000000 0 0 1
-7.230963 20.979445 32.722276 39.536961 -1.238879 0.595911 0.016076 -0.009085 815867.000000 0 0 1
-5.904963 20.245945 33.152428 39.291861 -1.287007 0.566568 0.025992 -0.011210 406446.000000 0 0 1
-6.120763 19.548945 -34.294337 39.946546 -1.267365 2.603145 0.026383 -0.016460 367496.000000 0 0 1
-4.916863 19.143645 -33.641512 39.018022 -1.319390 2.610402 0.024543 -0.017051 533409.000000 0 0 1
-4.182063 17.953545 34.309667 38.948334 -1.341939 0.493032 0.021150 -0.013256 -321349.000000 0 0 1
-4.778563 16.691545 -34.248981 38.398373 -1.291968 2.672410 0.026717 -0.017223 -323116.000000 0 0 1
-4.649863 16.040345 33.134809 37.105653 -1.288645 0.466861 0.026548 -0.013231 -120267.000000 0 0 1
-5.442063 14.697645 32.959205 36.495836 -1.216181 0.443874 0.037614 -0.016939 -111227.000000 0 0 1
-4.901263 13.613345 33.647570 36.626555 -1.225211 0.406106 0.042412 -0.016015 -150498.000000 0 0 1
-5.679263 12.468145 33.460757 36.157032 -1.143377 0.388631 0.052584 -0.017606 -185023.000000 0 0 1
-4.841263 11.209145 33.674096 35.819373 -1.163093 0.347848 0.080882 -0.024039 61779.600000 0 0 1
-4.636263 10.932745 -33.592062 35.629293 -1.169713 2.801793 0.075218 -0.020654 -208961.000000 0 0 1
-3.603063 9.996945 -33.402842 35.052401 -1.224872 2.833587 0.088989 -0.024794 228003.000000 0 0 1
-3.425263 9.646345 -31.897152 33.499444 -1.229600 2.831056 0.084749 -0.022439 250527.000000 0 0 1
-4.607863 8.999745 -31.468662 33.053056 -1.097595 2.830714 0.089833 -0.020325 79451.800000 0 0 1
-4.583563 8.741345 -30.076182 31.654335 -1.087856 2.824494 0.099127 -0.012855 300813.000000 0 0 1
-5.911163 8.123845 -29.568512 31.228763 -0.941766 2.814050 0.087745 -0.014532 184707.000000 0 0 1
-5.708163 7.356945 -28.434382 29.920258 -0.910932 2.825119 0.081295 -0.010751 30029.100000 0 0 1
-6.735963 6.407945 -28.277642 29.766760 -0.760447 2.823948 0.088739 -0.024637 -641124.000000 0 0 1
-6.610963 5.464845 -27.017892 28.346708 -0.690771 2.834190 0.072826 -0.023807 -316348.000000 0 0 1
-6.732263 5.983245 -25.717182 27.248781 -0.726560 2.804717 0.054394 -0.017159 163067.000000 0 0 1
-5.671363 6.792945 -25.237802 26.744254 -0.875140 2.804354 0.054987 -0.016819 -113950.000000 0 0 1
-6.094063 7.707945 -24.077912 26.005689 -0.901801 2.754131 0.034109 -0.014784 105170.000000 0 0 1
-6.402863 7.040345 -22.867812 24.768931 -0.832783 2.747241 0.026857 -0.011475 -316962.000000 0 1 0
-7.599463 7.566645 -22.358112 24.796999 -0.783234 2.694357 0.022452 -0.005558 -232897.000000 0 1 0
-7.727063 7.682545 -20.854412 23.529460 -0.782509 2.660113 0.020522 -0.010911 -287606.000000 0 1 0
-7.250163 8.878445 -20.410512 23.408987 -0.886013 2.629884 0.009929 -0.008706 -228045.000000 0 1 0
-7.080963 9.120545 -19.044412 22.271372 -0.910628 2.596554 0.013248 -0.006814 637598.000000 0 1 0
-8.386963 9.360645 -18.179912 22.101403 -0.840206 2.536709 0.013553 -0.004963 -20004.800000 0 1 0
-8.123463 9.315145 -16.819812 20.872677 -0.853628 2.507871 0.011279 -0.007866 718583.000000 0 1 0
-9.185363 9.765345 -15.925012 20.816793 -0.815993 2.441850 0.006554 -0.011039 642511.000000 0 1 0
-9.604763 11.216445 -16.172112 21.899710 -0.862650 2.401584 0.005841 -0.005099 -681369.000000 0 1 0
-8.603563 12.132345 -15.849712 21.735419 -0.953961 2.387965 -0.001962 -0.008709 -444873.000000 0 1 0
-8.931963 13.487545 -16.159212 22.865125 -0.985866 2.355646 0.012533 -0.009096 -75369.900000 0 1 0
-7.727963 14.429345 -15.990912 22.883109 -1.079097 2.344527 0.025151 -0.006888 -154110.000000 0 1 0
-7.214263 14.650145 -14.642812 21.933633 -1.113218 2.301772 0.020470 0.000956 98484.100000 0 1 0
-8.096163 15.316845 -13.773612 22.132916 -1.084548 2.242491 0.015249 -0.008307 -703092.000000 0 1 0
-7.402463 16.132645 -12.684912 21.816638 -1.140607 2.191285 0.008281 -0.010827 183241.000000 0 1 0
-6.868763 17.450645 -12.951012 22.791086 -1.195810 2.175173 0.020805 -0.010595 -364429.000000 0 1 0
-5.658063 17.543345 -13.627612 22.923665 -1.258810 2.207413 0.022376 -0.009927 -564135.000000 0 1 0
-5.382963 18.956445 -14.225012 24.303787 -1.294115 2.196047 0.027293 0.001616 53282.600000 0 1 0
-5.173563 19.977345 -13.270012 24.534736 -1.317392 2.142263 0.042052 -0.002401 -101983.000000 0 1 0
-5.087563 21.267945 -13.866312 25.893694 -1.335996 2.135907 0.042317 0.002610 -58334.300000 0 0 1
-4.763863 22.270745 -12.738912 26.095217 -1.360065 2.080788 0.053847 0.004711 -251629.000000 0 0 1
-5.060363 23.613545 -13.103612 27.475651 -1.359690 2.067940 0.044368 0.001707 575389.000000 0 0 1
-6.406763 24.092145 -13.040512 28.134196 -1.310884 2.052750 0.047090 0.000185 700388.000000 0 0 1
-7.173163 24.179345 -11.684012 27.795883 -1.282402 2.004628 0.029320 0.001111 9147.660000 0 0 1
-7.490063 22.903945 -11.178012 26.563879 -1.254738 2.005121 0.033786 0.005530 76334.000000 0 0 1
-8.215663 22.823445 -9.952412 26.219406 -1.225271 1.960141 0.047080 0.000778 237627.000000 0 0 1
-7.414463 23.261345 -8.701112 25.918599 -1.262231 1.913154 0.049332 0.000203 89314.500000 0 0 1
-7.301563 24.691345 -8.608112 27.149124 -1.283277 1.893432 0.048499 0.001508 -236360.000000 0 0 1
-6.787063 25.023745 -7.330512 26.944172 -1.305943 1.846333 0.038437 -0.000232 41600.300000 0 0 1
-6.793863 26.593245 -7.062212 28.341349 -1.320673 1.822634 0.030248 -0.004795 557310.000000 0 0 1
-5.871863 27.506845 -7.714812 29.165452 -1.360484 1.838501 0.022179 -0.005203 322231.000000 0 0 1
-5.921363 27.447145 -9.149812 29.531802 -1.358316 1.885810 0.026607 -0.003545 -157586.000000 0 0 1
-5.303463 28.670345 -9.877012 30.784261 -1.387883 1.897419 0.018674 -0.002631 474611.000000 0 0 1
-6.131363 29.845345 -9.980112 32.061517 -1.368178 1.887336 0.023016 -0.000218 898416.000000 0 0 1
-7.177763 29.715945 -10.987212 32.485019 -1.333790 1.915825 0.035298 -0.003395 1011110.000000 0 0 1
-8.265663 30.817745 -11.061312 33.769915 -1.308753 1.904505 0.034005 -0.005256 165708.000000 0 0 1
-9.254463 30.750845 -10.071712 33.655593 -1.278468 1.874711 0.038769 -0.005138 292633.000000 0 0 1
-10.462263 31.418545 -10.442412 34.722152 -1.249349 1.876267 0.034292 -0.017624 521563.000000 0 0 1
-11.663063 31.206145 -9.524112 34.649087 -1.213129 1.849254 0.047238 -0.009836 61315.300000 0 0 1
-12.222363 29.890245 -9.595412 33.688051 -1.182634 1.859627 0.056981 -0.011343 -567444.000000 0 0 1
-13.373063 29.740345 -8.831612 33.783491 -1.148225 1.835287 0.055112 -0.006915 -1773.350000 0 0 1
-14.403063 28.691645 -9.315712 33.428149 -1.105554 1.853214 0.055347 -0.005961 199610.000000 0 0 1
-14.050163 27.324745 -8.987112 32.012762 -1.095860 1.855356 0.051835 0.003094 142733.000000 0 0 1
-14.994463 26.458445 -9.575212 31.883662 -1.055209 1.875822 0.055960 0.002099 11557.100000 0 0 1
-14.922563 25.116445 -8.834612 30.521616 -1.034700 1.864453 0.048812 0.002884 321827.000000 0 0 1
-13.904763 24.201745 -9.253712 29.405749 -1.049311 1.890927 0.042225 0.006849 467256.000000 0 0 1
-14.298463 22.873145 -8.939212 28.417183 -1.012111 1.890801 0.040887 0.004321 58751.600000 0 0 1
-13.319663 21.772845 -9.425212 27.208543 -1.021778 1.924534 0.047348 0.003777 -112283.000000 0 0 1
-13.385263 21.515645 -10.805912 27.547340 -1.014272 1.973891 0.050677 0.006306 28703.300000 0 0 1
-12.521363 20.479145 -11.156912 26.469918 -1.022022 2.005889 0.058175 -0.001071 -211294.000000 0 0 1
-12.564263 20.249745 -12.710112 27.008514 -1.015465 2.060763 0.069554 0.005928 80431.200000 0 0 1
-13.796763 19.638745 -13.024112 27.306747 -0.958376 2.067984 0.076387 0.005129 -143896.000000 0 0 1
-13.844763 19.146345 -14.357712 27.647855 -0.944733 2.116836 0.078758 0.002084 -16993.400000 0 0 1
-15.211563 18.598945 -14.823412 28.232002 -0.885252 2.123579 0.062251 0.003037 39595.000000 0 0 1
-16.091163 19.671745 -15.069112 29.546255 -0.885186 2.106002 0.040116 -0.001878 -89373.100000 0 0 1
-17.396763 19.176245 -15.364512 30.107208 -0.834015 2.106361 0.034723 -0.004924 126858.000000 0 0 1
-18.280763 20.222945 -16.001612 31.610210 -0.835797 2.101588 0.028419 -0.009960 -433139.000000 0 0 1
-18.659463 21.413345 -15.302112 32.262385 -0.854012 2.064967 0.027616 -0.008040 236817.000000 0 0 1
-19.473163 22.183045 -16.151412 33.647580 -0.850360 2.071470 0.033064 -0.015761 -120358.000000 0 0 1
-19.795663 23.540345 -15.437212 34.414003 -0.871594 2.035965 0.023999 -0.014373 -332165.000000 0 0 1
-20.974463 23.544545 -14.684212 34.783613 -0.843064 2.006622 0.026318 -0.004720 -67146.000000 0 0 1
-21.205263 24.733645 -13.979912 35.452141 -0.862054 1.976137 0.021818 -0.009514 -91491.200000 0 0 1
-25.410033 -0.944755 3.855388 25.718210 0.037163 1.420320 0.087640 -0.033103 51107.400000 0 0 1
-25.888593 -0.194255 4.974488 26.362900 0.007503 1.380966 0.087202 -0.025773 -405672.000000 0 0 1
-27.283313 -0.212555 5.010288 27.740355 0.007791 1.389186 0.087393 -0.023707 -502397.000000 0 0 1
-27.789053 0.524045 6.292288 28.497350 -0.018856 1.348159 0.078364 -0.014767 -357049.000000 0 0 1
-27.662493 1.938645 6.184288 28.411569 -0.069968 1.351372 0.075794 -0.020814 211448.000000 0 0 1
-28.144153 2.600645 7.311988 29.194552 -0.092143 1.317644 0.072422 -0.013278 230514.000000 0 0 1
-26.954033 2.847145 8.278388 28.340039 -0.105239 1.274365 0.077535 -0.014477 359719.000000 0 0 1
-26.433013 1.699145 8.957588 27.961216 -0.064193 1.244689 0.079008 -0.018858 -192405.000000 0 0 1
-25.353423 2.057345 9.748588 27.240846 -0.080969 1.204814 0.080187 -0.029242 -419560.000000 0 0 1
-24.620563 0.783245 10.330488 26.711506 -0.031802 1.173699 0.069274 -0.024003 282662.000000 0 0 1
-23.687263 0.092545 9.480688 25.514279 -0.003907 1.190082 0.060436 -0.026955 697599.000000 0 0 1
-24.223163 -0.683255 8.410888 25.650955 0.028199 1.236719 0.053976 -0.014411 163662.000000 0 0 1
-23.012263 -1.391155 7.731788 24.316251 0.060379 1.247211 0.036365 -0.017092 439443.000000 0 1 0
-22.344563 -2.207055 8.691188 24.076697 0.098454 1.201479 0.048336 -0.018317 -65124.300000 0 1 0
-21.139463 -2.734155 8.165188 22.825923 0.128625 1.204976 0.048357 -0.016788 364079.000000 0 1 0
-20.141063 -2.928955 9.358088 22.401227 0.144410 1.139830 0.025664 -0.006049 26963.700000 0 1 0
-19.634963 -1.742355 9.986488 22.097454 0.088506 1.101869 0.019222 0.004664 512896.000000 0 1 0
-20.568963 -1.013555 10.773488 23.241720 0.049236 1.088809 0.043517 -0.010033 -325333.000000 0 1 0
-20.104563 0.423545 11.001988 22.921967 -0.021064 1.070169 0.038018 -0.007450 -138653.000000 0 1 0
-20.421063 1.358745 9.930888 22.748374 -0.066438 1.119032 0.028043 -0.005331 474419.000000 0 1 0
-20.775863 2.620045 10.467088 23.410703 -0.125448 1.107268 0.029003 -0.007293 -253405.000000 0 1 0
-21.490463 3.568345 9.462688 23.751116 -0.164542 1.161013 0.032289 -0.017096 -391936.000000 0 1 0
-21.893363 4.703545 10.151688 24.586570 -0.211622 1.145165 0.035570 -0.014848 454947.000000 0 1 0
-22.459563 5.695245 9.330088 24.978357 -0.248343 1.187988 0.040625 -0.014211 -314453.000000 0 1 0
-22.630163 6.995445 10.146788 25.768543 -0.299803 1.166071 0.040927 -0.010212 258733.000000 0 0 1
-23.593863 6.908445 11.191288 27.011884 -0.284845 1.143612 0.033934 -0.005635 558687.000000 0 0 1
-23.265363 7.935945 12.144988 27.418188 -0.328729 1.111906 0.018268 -0.007724 95321.800000 0 0 1
-23.952563 7.609545 13.520688 28.538385 -0.307608 1.077227 0.029793 -0.004213 1834020.000000 0 0 1
-25.391893 7.419945 13.379788 29.644941 -0.284301 1.102536 0.039562 -0.002008 1476610.000000 0 0 1
-26.096523 7.078945 14.559988 30.710474 -0.264886 1.076849 0.040168 -0.002837 -145772.000000 0 0 1
-27.576583 6.831945 14.255788 31.786331 -0.242855 1.105723 0.044831 0.000914 -335863.000000 0 0 1
-27.730553 5.664045 13.461088 31.341120 -0.201481 1.126855 0.060168 0.005171 320878.000000 0 0 1
-28.854843 5.835645 12.589688 32.018072 -0.199550 1.166681 0.057075 -0.001560 79392.200000 0 0 1
-29.207913 4.509245 11.863188 31.846046 -0.153175 1.189077 0.073961 -0.002060 -48778.900000 0 0 1
-29.991593 3.572245 12.594688 32.724344 -0.118550 1.175727 0.059396 -0.006799 283044.000000 0 0 1
-30.265773 2.439645 11.786988 32.571490 -0.080433 1.200512 0.066391 -0.001992 -909266.000000 0 0 1
-31.448833 1.582945 12.128388 33.743630 -0.050292 1.203142 0.042226 0.005117 -954378.000000 0 0 1
-31.209683 0.474045 12.947088 33.791953 -0.015188 1.177602 0.053085 0.001646 -368744.000000 0 0 1
-32.372403 -0.183555 13.386388 35.031436 0.005670 1.178702 0.043566 0.004648 -331587.000000 0 0 1
-32.074703 -1.404355 14.305288 35.148258 0.043756 1.151631 0.040393 -0.000781 -172855.000000 0 0 1
-31.845843 -2.645955 13.692688 34.765622 0.082896 1.165972 0.036647 -0.000333 105106.000000 0 0 1
-31.904783 -3.718255 14.624088 35.293123 0.116019 1.143556 0.041075 0.008183 -220437.000000 0 0 1
-31.726883 -5.126155 14.025888 35.065625 0.160187 1.159291 0.043375 0.002777 27330.800000 0 0 1
-32.784713 -5.459455 13.137488 35.738447 0.165010 1.194368 0.036708 -0.010969 233088.000000 0 0 1
-32.734083 -6.790255 12.701488 35.762488 0.204536 1.207709 0.049928 -0.013630 -569301.000000 0 0 1
-33.914443 -7.141355 11.777088 36.604483 0.207538 1.243231 0.057685 -0.005475 1601770.000000 0 0 1
-35.286636 -7.184355 12.255088 38.038780 0.200855 1.242772 0.053612 -0.001439 1224380.000000 0 0 1
-35.820210 -5.964955 12.637688 38.449698 0.165011 1.235890 0.054490 -0.007847 211098.000000 0 0 1
34.317540 -5.848455 12.336688 36.933614 -0.168800 1.230228 0.066582 -0.010841 1045940.000000 0 0 1
33.457140 -6.530355 13.199688 36.554856 -0.192762 1.201357 0.055060 -0.003251 -396234.000000 0 0 1
32.094480 -6.346355 12.895188 35.165576 -0.195221 1.195338 0.055692 -0.000712 20791.000000 0 0 1
31.196820 -7.448155 13.447688 34.778684 -0.234360 1.173784 0.025539 -0.001170 -329303.000000 0 0 1
30.785870 -7.398555 14.785988 34.944725 -0.235850 1.133905 0.025364 0.004619 -57585.200000 0 0 1
29.897960 -8.469155 14.978188 34.495807 -0.276037 1.121643 0.023715 0.002949 -82287.100000 0 0 1
29.251060 -8.609155 16.359488 34.603105 -0.286237 1.078359 0.019505 -0.005469 469939.000000 0 0 1
30.234120 -8.919355 17.357088 35.985072 -0.286872 1.067471 0.016396 -0.001933 499531.000000 0 0 1
29.570340 -9.129855 18.563288 36.088155 -0.299465 1.030503 0.025993 -0.004162 329507.000000 0 0 1
30.594300 -9.498955 19.695288 37.605128 -0.301045 1.019562 0.029578 0.001459 509775.000000 0 0 1
31.539900 -8.508655 20.053288 38.331408 -0.263501 1.020247 0.030654 0.003573 587052.000000 0 0 1
32.817880 -8.956055 19.573888 39.247436 -0.266414 1.048663 0.014260 0.006756 -32012.200000 0 0 1
34.085380 -8.378655 20.165888 40.480588 -0.241035 1.049319 0.006070 0.018549 -295174.000000 0 0 1
34.248560 -8.644855 21.553588 41.379397 -0.247250 1.022918 0.013187 0.012003 419731.000000 0 0 1
35.552770 -8.255755 22.015388 42.624338 -0.228168 1.028040 0.012808 0.015894 599139.000000 0 0 1
-35.797769 -8.619455 23.507188 43.684816 0.236284 1.002604 0.019194 0.018445 -324858.000000 0 0 1
35.349260 -7.968055 24.612188 43.804336 -0.221704 0.974156 0.022878 0.019003 -156150.000000 0 0 1
35.222840 -8.836755 25.691888 44.483815 -0.245808 0.955065 0.020914 0.008156 101275.000000 0 0 1
34.731320 -8.150755 26.975388 44.725506 -0.230509 0.923374 0.027298 0.012141 666530.000000 0 0 1
-35.822708 -7.574855 27.646288 45.879865 0.208384 0.924066 0.015807 -0.002474 720215.000000 0 0 1
35.432730 -6.758455 28.774288 46.142331 -0.188477 0.897459 0.019008 -0.010936 796094.000000 0 0 1
-34.968182 -6.251655 29.512688 46.182850 0.176912 0.877547 0.021295 -0.007770 805782.000000 0 0 1
-34.529414 -7.047555 30.547788 46.638136 0.201338 0.856619 0.017712 -0.005216 152607.000000 0 0 1
-33.146533 -6.925355 30.866588 45.819203 0.205969 0.831646 0.018501 -0.016624 525958.000000 0 0 1
-32.716513 -7.734855 32.110988 46.489931 0.232158 0.808328 0.015734 -0.009747 -104692.000000 0 0 1
-32.769643 -9.153855 31.984988 46.697773 0.272396 0.816280 0.021831 -0.009195 531786.000000 0 0 1
-32.095653 -9.793655 33.094188 47.130371 0.296165 0.792336 0.022244 -0.007838 28289.100000 0 0 1
-32.140013 -11.375255 33.009488 47.455275 0.340170 0.801553 0.023298 -0.006409 60222.500000 0 0 1
-33.442543 -11.810855 33.355288 48.687526 0.339495 0.816070 0.017077 -0.009186 128024.000000 0 0 1
-33.646093 -13.190955 33.259988 49.115045 0.373634 0.826866 0.013865 -0.012227 -468890.000000 0 0 1
-35.125270 -13.532155 33.361688 50.298171 0.367730 0.845605 0.001297 -0.010103 -501443.000000 0 0 1
-35.422475 -14.896355 33.500888 50.980021 0.398082 0.853781 0.000718 -0.016897 -727978.000000 0 0 1
34.881680 -15.065455 33.501188 50.655988 -0.407702 0.848183 -0.011846 -0.013018 -956299.000000 0 0 1
34.371320 -16.453255 33.940788 51.030131 -0.446456 0.843152 -0.010079 -0.010324 -412996.000000 0 0 1
34.721280 -16.877755 -33.425003 51.065221 -0.452460 2.284390 -0.003578 -0.017942 47416.900000 0 0 1
34.656190 -18.279755 -33.386803 51.476981 -0.485374 2.276510 -0.003817 -0.027120 -442976.000000 0 0 1
35.254690 -18.935855 -32.120503 51.314584 -0.492898 2.247149 -0.000109 -0.019819 537040.000000 0 0 1
34.294550 -18.758455 -31.072703 49.935045 -0.500522 2.242426 -0.003966 -0.013584 671132.000000 0 0 1
34.725230 -19.585955 -29.998303 49.893381 -0.513548 2.215859 -0.004232 -0.010813 -189915.000000 0 0 1
33.602900 -19.720155 -28.922903 48.523950 -0.530701 2.209374 -0.015295 -0.005339 262834.000000 0 0 1
32.524080 -20.528155 -29.336803 48.372192 -0.563022 2.222423 -0.000342 -0.008519 89819.000000 0 0 1
31.482680 -19.695455 -29.836303 47.636909 -0.559028 2.247630 0.000702 -0.006777 -142365.000000 0 0 1
30.202080 -20.480555 -30.278003 47.417046 -0.595888 2.263405 0.008394 -0.002912 1195840.000000 0 0 1
29.161210 -19.621455 -30.822003 46.747979 -0.592279 2.290714 0.000701 0.000948 658539.000000 0 0 1
27.911250 -20.258955 -30.855103 46.276350 -0.627855 2.300646 0.007551 0.004176 232082.000000 0 0 1
26.954910 -19.659755 -31.938603 46.186010 -0.630158 2.334389 0.009997 0.007217 548388.000000 0 0 1
27.537150 -19.891855 -33.191803 47.493961 -0.625578 2.344604 0.003714 -0.001853 413723.000000 0 0 1
26.518670 -19.723055 -34.162303 47.532113 -0.639484 2.372757 0.035759 -0.000089 362883.000000 0 0 1
26.964740 -19.999455 33.021388 47.090205 -0.638161 0.793665 0.034156 -0.004622 -19272.800000 0 0 1
27.926630 -19.116855 32.453188 46.888807 -0.600274 0.806359 0.022013 -0.005439 295434.000000 0 0 1
27.949800 -19.113655 31.013688 45.917012 -0.599809 0.829250 0.022947 -0.006326 61536.600000 0 0 1
26.856200 -18.244555 30.310488 44.416719 -0.596727 0.819739 0.033292 -0.007950 60337.400000 0 0 1
26.921520 -16.919355 30.632088 44.151530 -0.561090 0.804052 0.040230 -0.008168 -137613.000000 0 0 1
25.880770 -16.236955 30.036988 42.844761 -0.560306 0.793906 0.054685 -0.013428 -653495.000000 0 0 1
25.711870 -14.756655 30.479188 42.518702 -0.521025 0.771534 0.067498 -0.014206 -891107.000000 0 0 1
26.790290 -13.947055 30.238488 42.738813 -0.479992 0.784816 0.054362 -0.008052 -455777.000000 0 0 1
26.663870 -12.828655 31.033288 42.878914 -0.448434 0.761586 0.082220 -0.017447 111684.000000 0 0 1
28.008300 -12.064855 30.997088 43.483848 -0.406739 0.777255 0.071260 -0.011494 132925.000000 0 0 1
28.265350 -11.444455 29.733188 42.590703 -0.384718 0.798036 0.056009 -0.012674 -417249.000000 0 0 1
29.631820 -11.146955 29.702988 43.411598 -0.359806 0.817266 0.049938 -0.008558 -431311.000000 0 0 1
30.162170 -10.654155 28.370388 42.756829 -0.339549 0.845271 0.037013 -0.004560 -302619.000000 0 0 1
29.886920 -9.263255 28.269188 42.168505 -0.300554 0.836067 0.044042 -0.009522 -62965.300000 0 0 1
30.537710 -8.701255 27.152788 41.779629 -0.277579 0.863337 0.040990 -0.004038 -14192.200000 0 0 1
30.384560 -7.129355 27.054988 41.304013 -0.230468 0.856586 0.045372 -0.006962 320178.000000 0 0 1
29.024270 -6.735455 27.057588 40.247828 -0.228027 0.833519 0.059988 -0.008488 -164827.000000 0 0 1
28.976500 -5.314055 26.951688 39.928313 -0.181376 0.829829 0.064093 -0.009271 -344368.000000 0 0 1
27.567410 -4.790955 26.728888 38.695591 -0.172072 0.808274 0.058610 -0.004169 -586492.000000 0 0 1
27.089560 -5.059955 25.428288 37.497269 -0.184658 0.825572 0.066678 -0.009542 -964245.000000 0 0 1
25.746070 -4.739155 25.413988 36.485483 -0.182035 0.800217 0.074439 -0.010717 -1216570.000000 0 0 1
25.045670 -5.105355 24.128688 35.150303 -0.201087 0.814210 0.078002 -0.008004 -425794.000000 0 0 1
25.105570 -4.095155 23.166388 34.405544 -0.161693 0.832089 0.085007 0.002777 228915.000000 0 0 1
24.679770 -4.622755 21.888088 33.309898 -0.185164 0.853825 0.089368 -0.004640 73450.100000 0 0 1
25.131070 -3.737755 20.759588 32.810089 -0.147648 0.885736 0.094345 -0.002229 564967.000000 0 0 1
24.254170 -2.579855 20.620288 31.939265 -0.105969 0.868975 0.095526 -0.000520 488462.000000 0 0 1
24.645670 -1.635855 19.613988 31.540348 -0.066278 0.899668 0.097588 -0.002138 -1004330.000000 0 0 1
23.512070 -0.855655 19.063788 30.281637 -0.036376 0.889823 0.056336 0.003345 -1211780.000000 0 0 1
22.529270 -1.618355 18.440388 29.158789 -0.071710 0.886132 0.083639 0.002456 -50796.600000 0 0 1
21.489070 -0.763255 17.930488 27.997590 -0.035503 0.875739 0.070870 0.001289 606806.000000 0 0 1
20.428370 -1.568755 17.155788 26.722656 -0.076643 0.873700 0.051013 -0.000583 -49746.000000 0 0 1
20.915370 -1.986555 15.890388 26.342048 -0.094697 0.923248 0.053250 -0.001695 216439.000000 0 0 1
19.959770 -2.778855 15.203088 25.243778 -0.138334 0.924479 0.071038 -0.013869 -156054.000000 0 0 1
20.379170 -3.314055 13.839188 24.855918 -0.161209 0.980296 0.068231 -0.027088 -448916.000000 0 1 0
19.423170 -4.204055 13.345088 23.937940 -0.213157 0.979441 0.080395 -0.026682 400359.000000 0 1 0
19.714170 -4.665355 12.034188 23.563440 -0.232375 1.034781 0.074193 -0.027230 -182501.000000 0 1 0
18.733970 -5.761555 11.546588 22.748205 -0.298365 1.038420 0.069416 -0.031626 -48322.700000 0 1 0
18.845570 -6.986555 12.216388 23.520365 -0.355019 1.024652 0.084255 -0.030778 1166660.000000 0 1 0
17.530870 -7.526955 12.365188 22.735090 -0.405553 0.995741 0.060258 -0.008352 433864.000000 0 1 0
17.569770 -8.988855 12.753288 23.497716 -0.472892 0.997093 0.065996 -0.019487 -202960.000000 0 1 0
18.255170 -9.750355 11.798088 23.822584 -0.490566 1.052676 0.051341 -0.027154 684121.000000 0 1 0
17.656170 -11.057555 11.615588 23.852290 -0.559513 1.062168 0.040458 -0.028209 307929.000000 0 1 0
18.321370 -11.766455 10.415288 24.137114 -0.570891 1.124636 0.039590 -0.027324 157024.000000 0 1 0
17.927370 -11.203155 9.177388 23.046165 -0.558541 1.161223 0.051077 -0.026329 237311.000000 0 1 0
18.690070 -11.746555 8.139788 23.527780 -0.561106 1.217529 0.061234 -0.026665 -332133.000000 0 1 0
18.529670 -11.047255 6.785788 22.614982 -0.537615 1.266044 0.059008 -0.017766 -265760.000000 0 1 0
19.009770 -9.691055 6.810488 22.398005 -0.471452 1.261838 0.066247 -0.012979 684899.000000 0 1 0
19.432870 -9.409055 5.478088 22.275013 -0.450914 1.322318 0.045202 -0.013177 -204726.000000 0 1 0
20.020070 -7.974255 5.279888 22.187139 -0.379051 1.330520 0.069769 -0.007933 -341981.000000 0 1 0
20.563770 -7.699055 4.024088 22.323471 -0.358244 1.389543 0.061171 -0.008220 564492.000000 0 1 0
20.967270 -6.359355 3.987788 22.270390 -0.294481 1.390763 0.069790 -0.012251 -333981.000000 0 1 0
21.602670 -6.007555 2.630588 22.576228 -0.271240 1.454011 0.068763 -0.010994 -352109.000000 0 1 0
20.633770 -5.899455 1.643788 21.523431 -0.278483 1.494350 0.048022 -0.021456 323936.000000 0 1 0
21.266670 -5.781055 0.389988 22.041868 -0.265423 1.553102 0.053335 -0.011969 299595.000000 0 1 0
-25.433803 -15.713255 0.216988 29.897020 0.553412 1.563538 0.054500 -0.024947 -370223.000000 0 0 1
-24.518163 -15.100955 -0.718912 28.804444 0.552035 1.595757 0.035892 -0.017984 1630740.000000 0 0 1
-23.122363 -15.432255 -0.474512 27.803297 0.588522 1.587864 0.022543 -0.012083 1529130.000000 0 0 1
-22.455563 -14.836455 0.777188 26.925392 0.583862 1.541928 0.028046 -0.022461 -913920.000000 0 0 1
-22.868963 -15.464455 1.983488 27.678025 0.594587 1.499072 0.024843 -0.005872 -238216.000000 0 0 1
-22.175163 -15.020055 3.105288 26.962617 0.595353 1.455370 0.028056 0.000110 -179208.000000 0 0 1
-22.551763 -15.720755 4.435888 27.846028 0.608775 1.410814 0.030765 0.005912 -699125.000000 0 0 1
-22.019663 -16.992655 4.488088 28.173726 0.657247 1.410814 0.044351 -0.008957 -141716.000000 0 0 1
-22.567263 -17.762155 5.524088 29.245360 0.666811 1.380767 0.041283 -0.011901 -281171.000000 0 0 1
-22.464663 -19.261955 5.304488 30.063626 0.708794 1.393426 0.025815 -0.010823 68659.400000 0 0 1
-23.297063 -19.855255 6.302188 31.252230 0.705807 1.367748 0.023048 -0.015831 300576.000000 0 0 1
-23.580663 -21.203355 5.960088 32.266896 0.732364 1.385017 0.038250 -0.021392 459154.000000 0 0 1
-24.400063 -21.937155 7.082388 33.567277 0.732296 1.358208 0.032846 -0.014046 712454.000000 0 0 1
-23.462963 -22.333655 8.079888 33.385436 0.760744 1.326351 0.030006 -0.012106 39250.400000 0 0 1
-24.116763 -23.064755 9.054988 34.577362 0.763105 1.305831 0.035709 -0.015526 117788.000000 0 0 1
-23.207063 -23.542955 10.232888 34.605643 0.792583 1.270608 0.022751 -0.020687 226807.000000 0 0 1
-23.032263 -22.582155 11.202488 34.145784 0.775531 1.236528 0.030527 -0.018571 -25618.700000 0 0 1
-22.182963 -23.098455 12.209588 34.273846 0.805613 1.206560 0.027768 -0.015969 -414987.000000 0 0 1
-22.455063 -22.270855 13.521588 34.395555 0.781280 1.166774 0.027142 -0.010348 -155942.000000 0 0 1
-23.647263 -22.736055 14.128688 35.717518 0.765756 1.164111 0.033933 -0.016086 -151714.000000 0 0 1
-24.082863 -21.813655 15.111288 35.835330 0.735997 1.135491 0.028966 0.001371 -1119560.000000 0 0 1
-25.505983 -22.114955 15.541188 37.163893 0.714309 1.139356 0.015241 0.000375 -694053.000000 0 0 1
-26.511933 -21.749855 14.593788 37.268182 0.687045 1.168439 0.014753 0.001498 328212.000000 0 0 1
-26.718203 -22.887255 13.730488 37.765263 0.708323 1.198694 0.011772 -0.004262 -827672.000000 0 0 1
-27.822713 -23.884355 14.111988 39.290126 0.709378 1.203414 0.004814 -0.004663 -498459.000000 0 0 1
-27.423993 -24.576755 15.292988 39.874400 0.730699 1.177182 0.005198 -0.000531 -36526.900000 0 0 1
-28.288743 -25.579805 15.838088 41.296785 0.735153 1.177193 0.008544 -0.005618 -166544.000000 0 0 1
-28.129103 -26.973355 15.235388 41.844060 0.764427 1.198131 0.020656 -0.006429 21641.000000 0 0 1
-28.818413 -27.173585 13.981988 42.004769 0.756030 1.231454 0.026207 -0.015126 516854.000000 0 0 1
-30.189513 -27.539725 14.228688 43.270067 0.739530 1.235727 0.040940 -0.020329 515388.000000 0 0 1
-30.827393 -27.826885 12.859088 43.474358 0.734287 1.270519 0.053636 -0.026389 -25047.400000 0 0 1
-30.068013 -28.845265 12.236288 43.426506 0.764646 1.285158 0.055953 -0.036483 512955.000000 0 0 1
-30.763563 -29.254695 11.076388 43.873914 0.760263 1.315575 0.046960 -0.029825 -2188.460000 0 0 1
-30.037333 -30.407815 10.377488 43.983734 0.791527 1.332611 0.041867 -0.034338 -273153.000000 0 0 1
-30.175983 -31.665335 11.014088 45.106469 0.809477 1.324123 0.040568 -0.023102 85820.200000 0 0 1
-29.558053 -32.749905 10.337788 45.311198 0.836580 1.340618 0.043746 -0.027422 -410166.000000 0 0 1
-29.722573 -34.097272 11.016488 46.555540 0.853839 1.331899 0.039589 -0.019752 903408.000000 0 0 1
-31.081773 34.148324 11.068588 47.483663 -0.832375 1.335529 0.040261 -0.016416 662147.000000 0 0 1
-31.095723 32.889922 11.670888 46.742920 -0.813431 1.318444 0.034992 -0.014700 245155.000000 0 0 1
-32.490723 32.483403 12.256788 47.550472 -0.785286 1.310089 0.036566 -0.011236 713650.000000 0 0 1
-33.595033 32.271973 11.423588 47.964621 -0.765314 1.330318 0.014162 -0.010071 -9302.600000 0 0 1
-34.097254 33.363912 10.670088 48.883782 -0.774528 1.350750 0.028630 -0.007743 -977064.000000 0 0 1
-35.525803 33.216076 10.150988 49.683326 -0.751811 1.365034 0.025165 0.002252 -328912.000000 0 0 1
-35.700386 32.336813 9.019788 49.005547 -0.736001 1.385684 0.008904 -0.000531 -533366.000000 0 0 1
34.677960 32.409083 8.540388 48.227044 0.751591 1.392770 0.007398 0.005159 -691727.000000 0 0 1
34.515190 31.872533 7.127288 47.517943 0.745613 1.420237 0.008225 0.004685 -55287.200000 0 0 1
34.749620 30.452023 7.051888 46.739608 0.719581 1.419342 0.018241 0.002304 41012.800000 0 0 1
34.400770 29.982563 5.785988 45.998312 0.716882 1.444675 0.032913 0.003522 -17826.100000 0 0 1
34.507400 28.490733 5.580988 45.095786 0.690181 1.446720 0.046183 -0.001750 -379250.000000 0 0 1
33.560740 27.738953 6.251488 43.986974 0.690710 1.428192 0.041443 0.004695 -591804.000000 0 0 1
34.137140 27.090283 7.357488 44.196837 0.670809 1.403547 0.024137 0.004458 167148.000000 0 0 1
33.259650 25.948613 7.986188 42.933833 0.662540 1.383695 0.023008 0.007323 97166.400000 0 0 1
33.269020 24.800283 7.151588 42.107326 0.640581 1.400127 0.023700 0.005322 567174.000000 0 0 1
32.193570 23.879783 7.435788 40.767155 0.638204 1.387373 0.020584 0.006410 -22544.900000 0 0 1
32.095770 22.568813 6.626288 39.791927 0.612851 1.403494 0.028078 0.006036 -147717.000000 0 0 1
32.951720 21.493313 6.932688 39.947973 0.577967 1.396370 0.038495 0.005098 843455.000000 0 0 1
34.355010 21.746113 6.697988 41.207077 0.564319 1.407527 0.050882 0.000964 706750.000000 0 0 1
35.306200 20.567913 6.886588 41.436601 0.527496 1.403826 0.038110 -0.000569 -211803.000000 0 0 1
35.151330 19.718513 5.778888 40.716474 0.511219 1.428385 0.059039 -0.015357 -32659.200000 0 0 1
35.689083 18.437913 5.941688 40.607523 0.476860 1.423949 0.069053 -0.016867 -374754.000000 0 0 1
35.458880 17.426713 4.863088 39.807940 0.456794 1.448327 0.070625 -0.029867 -593578.000000 0 0 1
-35.504495 17.435613 3.666688 39.724229 -0.456488 1.478361 0.082724 -0.034142 -220586.000000 0 0 1
35.717612 16.410213 2.810988 39.407417 0.430679 1.499404 0.070326 -0.039591 -462678.000000 0 0 1
-34.973507 15.900013 1.713588 38.456378 -0.426698 1.526222 0.076529 -0.022187 1313960.000000 0 0 1
-33.731863 15.303113 2.181788 37.105041 -0.425901 1.511962 0.078451 -0.026313 1185250.000000 0 0 1
-32.706363 16.225013 2.483288 36.594042 -0.460508 1.502884 0.092821 -0.031075 305077.000000 0 0 1
-31.321283 15.475813 2.666088 35.037574 -0.458916 1.494630 0.055041 -0.021754 721184.000000 0 0 1
-31.295873 14.580413 3.741888 34.727825 -0.435989 1.462838 0.063194 -0.026032 -698051.000000 0 0 1
-29.987333 14.186213 3.961988 33.409372 -0.441875 1.451927 0.042408 -0.024612 -979806.000000 0 0 1
-29.809983 13.569613 5.377588 33.191684 -0.427173 1.408063 0.053696 -0.029694 -272525.000000 0 0 1
-30.235713 12.244913 5.405488 33.065927 -0.384794 1.406583 0.045622 -0.022314 399422.000000 0 0 1
-29.996893 11.681913 6.731088 32.887508 -0.371368 1.364670 0.026381 -0.013662 -189046.000000 0 0 1
-29.956193 10.148313 6.748488 32.340436 -0.326637 1.360581 0.024068 -0.014657 -104248.000000 0 0 1
-31.223233 9.545013 6.699088 33.329796 -0.296680 1.368424 0.033026 -0.009903 -165641.000000 0 0 1
-31.093963 8.148813 6.630288 32.820701 -0.256307 1.367381 0.027736 -0.009646 974107.000000 0 0 1
-32.522033 7.476013 6.525388 34.002266 -0.225950 1.377688 0.025669 -0.004110 797099.000000 0 0 1
-33.226783 7.518113 7.740888 34.935118 -0.222520 1.347363 0.033119 -0.000872 -85277.000000 0 0 1
-34.423637 6.794413 7.526288 35.885872 -0.194872 1.359499 0.042323 -0.000870 56304.800000 0 0 1
-35.135463 6.241813 8.760288 36.745117 -0.175816 1.330071 0.042023 -0.002242 -90684.700000 0 0 1
-35.746080 7.147813 9.686988 37.718844 -0.197358 1.311065 0.046341 0.005675 95451.300000 0 0 1
-34.887025 7.839313 10.543588 37.279036 -0.221034 1.284054 0.052011 -0.006770 -241675.000000 0 0 1
-35.661963 8.709613 11.597488 38.498502 -0.239538 1.264798 0.058283 -0.016894 30056.200000 0 0 1
35.353100 8.121513 12.722588 38.440407 0.225808 1.233466 0.048894 -0.019873 721465.000000 0 0 1
34.764040 9.193513 13.423588 38.382963 0.258536 1.213516 0.077377 -0.023313 -396991.000000 0 0 1
34.107960 8.838513 14.764688 38.202987 0.253556 1.173984 0.053788 -0.022397 136478.000000 0 0 1
32.845510 8.184813 14.694888 36.902011 0.244217 1.161228 0.054729 -0.018294 483606.000000 0 0 1
32.475210 7.681313 15.947388 36.985957 0.232260 1.125003 0.034118 -0.010805 -71460.500000 0 0 1
30.977130 7.318313 16.038688 35.642387 0.231995 1.104043 0.036506 0.001964 62026.200000 0 0 1
30.105760 8.440213 16.162488 35.196874 0.273335 1.093699 0.020490 0.000540 613832.000000 0 0 1
28.718350 8.188513 15.984688 33.871900 0.277761 1.079334 0.022073 0.010304 899940.000000 0 0 1
27.954440 7.581413 17.236888 33.705175 0.264836 1.033981 0.026647 0.007749 -301557.000000 0 0 1
28.068750 8.402513 18.430488 34.614156 0.290865 1.009298 0.039241 -0.004975 265913.000000 0 0 1
27.295650 8.075613 19.579988 34.549152 0.287652 0.968267 0.046255 -0.001949 -168092.000000 0 0 1
27.602510 6.704913 20.246288 34.882181 0.238294 0.951553 0.041244 -0.001320 -82133.300000 0 0 1
26.912880 6.553013 21.473388 35.047845 0.238842 0.911339 0.020526 0.008204 214738.000000 0 0 1
27.302800 5.395813 22.207988 35.605511 0.195114 0.897299 0.025576 0.013355 -528617.000000 0 0 1
26.600470 5.340313 23.582288 35.947576 0.198126 0.855265 0.026691 0.017991 605225.000000 0 0 1
25.220770 4.997513 23.491288 34.826756 0.195617 0.830484 0.025530 0.016633 -235380.000000 0 0 1
24.373370 6.069113 23.640588 34.493081 0.244043 0.815682 0.030000 0.022566 -1108800.000000 0 0 1
22.904970 5.654613 23.657588 33.410982 0.242033 0.784023 0.031383 0.011648 -573126.000000 0 0 1
22.489670 5.202213 22.404188 32.168243 0.227318 0.800331 0.033596 0.013180 169123.000000 0 0 1
21.073170 5.167213 22.477888 31.241543 0.240459 0.767733 0.031085 0.002207 -646509.000000 0 0 1
20.475070 4.099413 21.480088 29.957100 0.197602 0.771267 0.043637 -0.002594 872899.000000 0 0 1
19.121370 4.297413 21.059988 28.768344 0.221071 0.749464 0.038136 -0.004924 672352.000000 0 0 1
18.101670 4.163013 21.998488 28.791224 0.226049 0.701199 0.040785 -0.008657 -971816.000000 0 0 1
16.718170 4.151713 21.339288 27.424426 0.243411 0.679141 0.041788 -0.012424 -371227.000000 0 0 1
16.376670 2.879513 20.765388 26.602410 0.174051 0.675198 0.030133 -0.007413 -279659.000000 0 0 1
15.060570 2.805913 20.302588 25.434012 0.184197 0.646419 0.036871 -0.017594 -914338.000000 0 0 1
14.123870 1.942713 21.105588 25.469661 0.136690 0.594094 0.041253 -0.018409 -828562.000000 0 0 1
14.363670 0.559213 20.918688 25.381474 0.038913 0.602059 0.017946 -0.008638 431478.000000 0 0 1
13.521370 -0.230787 21.754088 25.614859 -0.017067 0.556184 0.015999 -0.013105 -137937.000000 0 0 1
13.897470 -1.728287 21.800388 25.911070 -0.123725 0.571012 -0.005191 -0.007867 -79474.200000 0 0 1
13.547270 -2.485187 20.641188 24.814578 -0.181428 0.588423 0.002511 -0.000737 171188.000000 0 1 0
13.620570 -3.876387 20.867788 25.219256 -0.277267 0.596237 0.002057 0.013889 -139213.000000 0 0 1
13.389470 -4.643187 19.561988 24.155919 -0.333802 0.626948 0.013013 0.003832 981548.000000 0 1 0
12.012270 -4.577787 19.126788 23.045276 -0.364101 0.591750 0.009654 0.000328 834524.000000 0 1 0
11.889270 -5.198087 17.879388 22.091793 -0.412166 0.627798 0.021136 -0.001191 -556571.000000 0 1 0
10.442970 -5.481487 17.529388 21.127748 -0.483366 0.592252 0.032189 -0.005871 -694866.000000 0 1 0
9.833570 -6.323987 18.451988 21.844170 -0.571511 0.564773 0.027100 0.005719 -665433.000000 0 1 0
8.475670 -6.433287 18.108988 21.003799 -0.649255 0.531246 0.026712 -0.007443 86590.900000 0 1 0
7.568770 -7.189987 19.129788 21.792911 -0.759739 0.499549 0.014130 -0.009996 -173473.000000 0 1 0
7.533670 -8.619787 19.162588 22.321776 -0.852535 0.538516 0.002526 -0.001200 245070.000000 0 1 0
8.657070 -9.258187 19.775388 23.488823 -0.818939 0.569990 0.018221 -0.002608 295639.000000 0 1 0
8.760670 -10.643887 19.149788 23.595678 -0.882145 0.623944 0.032991 -0.010973 181770.000000 0 1 0
9.313070 -10.596487 17.839188 22.743250 -0.849771 0.669112 0.030615 -0.004718 115235.000000 0 1 0
9.429570 -11.882187 17.285588 22.997710 -0.899977 0.720278 0.023407 -0.012416 190495.000000 0 1 0
9.818270 -11.869987 15.790288 22.059651 -0.879718 0.773028 0.029115 -0.017557 99001.800000 0 1 0
10.056270 -13.072187 15.133888 22.384038 -0.915065 0.828337 0.009889 -0.015589 4795.760000 0 1 0
10.031770 -12.835687 13.721988 21.299864 -0.907405 0.870782 0.017830 -0.019280 -519335.000000 0 1 0
10.467170 -14.073687 12.860688 21.749197 -0.931313 0.938104 0.017374 -0.023905 129381.000000 0 1 0
11.830370 -14.120887 12.511188 22.268518 -0.873432 0.974196 0.002116 -0.017510 -333142.000000 0 1 0
12.183570 -13.273087 11.503988 21.376528 -0.828171 1.002544 -0.008304 -0.015529 -1015530.000000 0 1 0
13.663970 -13.196287 11.083588 21.992998 -0.767988 1.042619 0.010359 -0.015101 48407.900000 0 1 0
14.087270 -14.349487 10.375788 22.627768 -0.794619 1.094442 0.010482 -0.012179 295281.000000 0 1 0
15.344970 -14.219887 9.720588 23.068660 -0.747362 1.135834 0.023888 -0.017682 -32972.800000 0 1 0
16.108570 -15.495287 9.515388 24.292644 -0.765995 1.168320 0.023254 -0.022565 -288332.000000 0 1 0
16.526470 -16.051287 10.747788 25.422096 -0.770813 1.134293 0.029713 -0.020501 244775.000000 0 0 1
15.644270 -17.054187 11.295388 25.752170 -0.828490 1.116735 0.043539 -0.013731 247144.000000 0 0 1
16.077170 -17.644787 12.646588 27.013886 -0.831851 1.083599 0.045610 -0.014805 531927.000000 0 0 1
17.275770 -18.424287 12.432888 28.151079 -0.817558 1.113361 0.074156 -0.020053 600438.000000 0 0 1
17.611170 -19.119487 13.610288 29.341915 -0.826439 1.088459 0.056614 -0.018247 38923.800000 0 0 1
18.821470 -20.045987 13.358288 30.570135 -0.816893 1.118567 0.029443 -0.020222 150463.000000 0 0 1
19.962570 -19.389687 12.877688 30.664295 -0.770841 1.137398 0.030208 -0.021529 -186858.000000 0 0 1
21.046070 -20.253687 12.584588 31.804414 -0.766214 1.163981 0.022442 -0.028731 667756.000000 0 0 1
22.057570 -19.718187 11.526088 31.752070 -0.729458 1.199308 0.032629 -0.015372 -10697.500000 0 0 1
21.654370 -19.797387 10.178188 31.055495 -0.740629 1.236884 0.025574 -0.017718 360593.000000 0 0 1
20.448070 -19.151187 9.757088 29.666349 -0.752660 1.235664 0.036066 -0.019871 406952.000000 0 0 1
20.154970 -17.600687 9.827688 28.505972 -0.717848 1.218814 0.071199 -0.016076 93788.700000 0 0 1
21.043170 -16.790187 9.047688 28.400458 -0.673455 1.246570 0.065163 -0.019671 182222.000000 0 0 1
20.763970 -15.439087 9.198288 27.461179 -0.639361 1.229238 0.063156 -0.026885 -6523.510000 0 0 1
-34.803551 24.731445 8.096488 43.456698 -0.617805 1.383390 0.030826 0.012078 -139433.000000 0 0 1
-33.918073 24.088945 8.978488 42.559677 -0.617545 1.358237 0.017010 0.006430 1054180.000000 0 0 1
-32.804213 24.983345 9.315588 42.273680 -0.650877 1.348609 0.031376 0.003771 584067.000000 0 0 1
-31.739523 24.330745 10.225988 41.278969 -0.654025 1.320461 0.041453 -0.007828 -256723.000000 0 0 1
-30.959233 23.406345 9.521588 39.962378 -0.647354 1.330219 0.045353 -0.013128 174094.000000 0 0 1
-30.184773 22.486845 10.326488 39.030950 -0.640276 1.303036 0.048065 -0.010882 499475.000000 0 0 1
-29.326683 21.619245 9.338688 37.611928 -0.635250 1.319881 0.045411 -0.022784 -143879.000000 0 0 1
-30.090013 20.877645 8.443888 37.584360 -0.606580 1.344197 0.050643 -0.024569 -374369.000000 0 0 1
-29.287923 20.115945 7.617288 36.338089 -0.601835 1.359607 0.054689 -0.028938 -496530.000000 0 0 1
-30.099143 19.390645 6.546388 36.397949 -0.572305 1.389956 0.057204 -0.024804 131707.000000 0 0 1
-30.853013 18.242945 6.954088 36.511269 -0.533987 1.379161 0.062738 -0.022251 510559.000000 0 0 1
-31.544233 17.587845 5.927788 36.599311 -0.508630 1.408115 0.067739 -0.024049 -157388.000000 0 0 1
-32.379433 16.362145 6.283188 36.818825 -0.467899 1.399306 0.064230 -0.023016 -366052.000000 0 0 1
-33.461943 16.599845 7.145388 38.030422 -0.460508 1.381787 0.055835 -0.016357 -96007.500000 0 0 1
-34.022833 15.414045 7.566488 38.110335 -0.425387 1.370927 0.064821 -0.020153 -576157.000000 0 0 1
-35.022791 15.582345 8.696388 39.306901 -0.418621 1.347707 0.059185 -0.016542 -180055.000000 0 0 1
35.557170 16.405245 8.338788 40.037230 0.432274 1.360985 0.073314 -0.028079 -133630.000000 0 0 1
34.761890 16.613345 9.449088 39.669604 0.445827 1.330290 0.073446 -0.017919 -394138.000000 0 0 1
33.903280 17.882345 9.401888 39.466519 0.485367 1.330259 0.043956 -0.014049 -50276.600000 0 0 1
32.841000 17.819945 8.467688 38.311662 0.497154 1.347935 0.042542 -0.022020 136452.000000 0 0 1
32.020260 18.980645 8.611988 38.206390 0.535086 1.343436 0.028881 -0.012895 -446958.000000 0 0 1
30.568840 18.859145 8.171188 36.835982 0.552782 1.347109 0.020495 -0.010315 -1425510.000000 0 0 1
29.940870 20.062745 8.536588 37.038395 0.590361 1.338226 0.014736 -0.001450 -845952.000000 0 0 1
28.571980 20.088045 8.308188 35.901442 0.612782 1.337263 0.006867 0.000815 -680301.000000 0 0 1
28.102060 20.145745 6.808988 35.241156 0.621964 1.376362 0.002270 -0.001785 -1093880.000000 0 0 1
28.408590 18.913245 6.119088 34.672785 0.587373 1.393386 0.007332 -0.003597 -131263.000000 0 0 1
28.236030 18.874745 4.720988 34.290189 0.589245 1.432680 0.005551 -0.005683 -610066.000000 0 0 1
26.878310 19.257945 4.155988 33.325429 0.621705 1.445762 0.026338 -0.005100 -211375.000000 0 0 1
25.816070 18.307645 4.454888 31.960684 0.616845 1.430954 0.024237 -0.005446 1967590.000000 0 0 1
24.451770 18.717245 4.229388 31.082342 0.653332 1.434302 0.032878 -0.005392 1199370.000000 0 0 1
23.833370 20.079545 4.797188 31.531423 0.700122 1.418063 0.033452 -0.003423 -413654.000000 0 0 1
24.361370 21.248645 4.204088 32.598398 0.717257 1.441470 0.032400 -0.005880 114307.000000 0 0 1
23.963070 22.409845 4.878988 33.169781 0.751916 1.423169 0.030328 0.000554 81531.400000 0 0 1
24.834270 23.667245 4.484388 34.597531 0.761341 1.440815 0.019866 0.000633 706365.000000 0 0 1
26.102770 23.565045 5.128288 35.538222 0.734349 1.425987 0.025203 -0.005301 298621.000000 0 0 1
26.981430 24.655445 4.923688 36.879957 0.740384 1.436891 0.025144 -0.001308 -168923.000000 0 0 1
28.331990 24.466245 5.700888 37.865537 0.712311 1.419666 0.016280 0.000743 913045.000000 0 0 1
29.159460 23.300645 5.301788 37.700173 0.674178 1.429698 0.011249 0.001248 793721.000000 0 0 1
29.425660 23.128645 3.905288 37.630505 0.666147 1.466829 0.010843 0.000745 -703408.000000 0 0 1
30.277060 24.231045 3.193788 38.910720 0.674930 1.488624 0.036007 -0.016910 -245269.000000 0 0 1
29.646240 25.521845 3.084488 39.240007 0.710776 1.492109 0.024789 -0.011086 106075.000000 0 0 1
30.384550 26.428045 2.235588 40.331876 0.715869 1.515338 0.067554 -0.008415 -750818.000000 0 0 1
30.038490 27.928845 2.330088 41.082363 0.749021 1.514048 0.058300 -0.004412 932520.000000 0 0 1
28.734780 28.362245 1.895788 40.419036 0.778874 1.523876 0.089147 -0.007983 499869.000000 0 0 1
27.660900 27.856745 2.637588 39.345654 0.788926 1.503710 0.065602 -0.005401 -1514290.000000 0 0 1
26.339670 28.392145 2.120588 38.786453 0.822881 1.516096 0.021948 -0.001918 -680114.000000 0 0 1
26.240470 29.824045 2.321188 39.792258 0.849230 1.512431 0.026413 0.000478 1106340.000000 0 0 1
24.912470 30.289145 1.961188 39.267158 0.882493 1.520831 0.023435 -0.005526 1180910.000000 0 0 1
24.591870 31.736745 2.466088 40.225149 0.911567 1.509451 0.024569 -0.011414 -167954.000000 0 0 1
24.552970 31.938045 3.885088 40.471977 0.915391 1.474654 0.006206 -0.019470 191833.000000 0 0 1
25.769870 31.721745 4.597988 41.127810 0.888557 1.458765 0.003464 -0.019467 102994.000000 0 0 1
25.686770 31.738245 6.185288 41.296296 0.890391 1.420452 0.018594 -0.031050 -164749.000000 0 0 1
25.192270 30.549145 6.761488 40.169869 0.881206 1.401669 0.024626 -0.032064 -177388.000000 0 0 1
26.016570 29.446045 6.572888 39.838854 0.847154 1.405052 0.020801 -0.029057 -156267.000000 0 0 1
25.379170 28.109345 7.068688 38.525366 0.836396 1.386270 0.044087 -0.026569 701652.000000 0 0 1
24.194270 27.727545 6.352688 37.343487 0.853343 1.399850 0.023269 -0.027766 468181.000000 0 0 1
23.607370 26.542145 6.822688 36.171016 0.843852 1.381036 0.035119 -0.021607 544692.000000 0 0 1
22.270270 26.135445 6.078488 34.870824 0.865079 1.395587 0.036161 -0.010528 554994.000000 0 0 1
22.271870 25.930745 4.673588 34.500465 0.861159 1.434914 0.016567 -0.008263 -60204.600000 0 0 1
22.683170 27.003645 3.908488 35.482380 0.872134 1.460419 0.011128 -0.011046 -480533.000000 0 0 1
22.626870 26.844145 2.390788 35.189476 0.870440 1.502804 0.017524 -0.001807 -275569.000000 0 0 1
23.615670 25.988145 1.881488 35.165658 0.833190 1.517267 0.018729 0.011032 -46918.000000 0 0 1
23.509470 25.870245 0.482688 34.959944 0.833170 1.556989 0.034430 0.003668 911799.000000 0 0 1
24.826070 25.331445 -0.232212 35.469279 0.795474 1.577343 0.046237 -0.006590 733302.000000 0 0 1
25.990870 26.196845 -0.205812 36.903148 0.789345 1.576373 0.040742 -0.002315 651125.000000 0 0 1
26.983710 25.660645 -1.029912 37.251174 0.760271 1.598448 0.043830 0.001131 -165882.000000 0 0 1
27.900930 24.548545 -0.493812 37.166339 0.721569 1.584083 0.040084 -0.008478 -745255.000000 0 0 1
27.121720 23.409345 -0.273112 35.828197 0.712063 1.578419 0.036866 -0.006939 386311.000000 0 0 1
27.861950 22.457545 0.473588 35.789018 0.678406 1.557563 0.036816 -0.008893 187683.000000 0 0 1
26.866960 21.473545 1.133288 34.412657 0.674286 1.537858 0.033167 -0.007829 201886.000000 0 0 1
26.395270 20.583945 0.119988 33.472727 0.662323 1.567212 0.047486 -0.021556 571289.000000 0 0 1
25.185870 19.948845 0.506588 32.133177 0.669884 1.555030 0.042323 -0.005549 -71714.500000 0 0 1
24.637570 18.918245 -0.472912 31.066597 0.654835 1.586019 0.044061 -0.015685 -772162.000000 0 0 1
23.379570 18.474445 -0.063112 29.797875 0.668734 1.572914 0.038370 -0.005901 -68744.200000 0 0 1
22.761570 17.419045 -0.819612 28.673750 0.653211 1.599384 0.046059 -0.027621 404289.000000 0 0 1
21.329570 17.070845 -0.331412 27.321678 0.674946 1.582927 0.048952 -0.007851 -584969.000000 0 0 1
20.811070 15.927945 -0.989912 26.225559 0.653259 1.608551 0.053916 -0.018294 1088580.000000 0 0 1
19.448570 15.518845 -0.762512 24.893028 0.673485 1.601433 0.056852 -0.020363 1340150.000000 0 1 0
18.329370 16.427245 -1.361212 24.651025 0.730726 1.626044 0.051874 -0.029644 -320745.000000 0 1 0
18.421070 17.729945 -0.799612 25.579799 0.766283 1.602061 0.044992 -0.019977 -340342.000000 0 0 1
17.272770 18.486145 -1.067212 25.322422 0.819317 1.612954 0.031059 -0.029189 -152740.000000 0 0 1
17.339570 19.928045 -0.609612 26.422704 0.854743 1.593870 0.027248 -0.013481 -149955.000000 0 0 1
17.104670 20.118845 0.805488 26.419433 0.866197 1.540303 0.032513 -0.008720 152433.000000 0 0 1
17.219970 21.468545 1.282288 27.551225 0.894775 1.524238 0.029032 -0.007176 175363.000000 0 0 1
16.037470 22.396645 0.818788 27.558674 0.949369 1.541081 0.025110 -0.016281 1189510.000000 0 0 1
14.824670 22.103345 1.552788 26.659704 0.980008 1.512519 0.018889 -0.010068 653254.000000 0 0 1
13.824470 23.056945 1.289288 26.914697 1.030686 1.522875 0.013753 -0.007343 -547845.000000 0 0 1
12.452470 22.925945 1.898388 26.158494 1.073219 1.498160 0.015631 -0.009211 -206258.000000 0 0 1
12.596970 23.194945 3.321888 26.603083 1.073273 1.445601 0.003690 -0.001224 -520638.000000 0 0 1
11.318570 23.394045 3.824788 26.268238 1.120174 1.424672 -0.000031 0.001107 -270016.000000 0 0 1
11.245970 23.644745 5.327188 26.719369 1.126840 1.370076 0.004435 -0.000432 5946.570000 0 0 1
11.627170 22.521545 6.084188 26.065847 1.094219 1.335207 0.019200 -0.029539 -179258.000000 0 0 1
10.973070 22.438545 7.309788 26.025555 1.115965 1.286096 0.021129 -0.023055 -404930.000000 0 0 1
11.670470 21.416445 8.281788 25.757561 1.071854 1.243453 0.023346 -0.019583 332176.000000 0 0 1
12.988470 21.708045 8.665788 26.740146 1.031609 1.240764 0.025067 -0.017442 583372.000000 0 0 1
14.067070 21.340845 7.777488 26.717100 0.988007 1.275414 0.014327 -0.017658 792737.000000 0 0 1
15.470870 21.542945 8.420088 27.827040 0.947999 1.263391 0.016965 -0.016237 -38806.500000 0 0 1
15.709870 20.290745 9.134588 27.238851 0.911962 1.228818 0.018150 -0.020247 131660.000000 0 0 1
16.919770 20.248845 9.860288 28.169480 0.874727 1.213188 0.016706 -0.019236 -183033.000000 0 0 1
17.035270 21.268845 11.045288 29.403444 0.895477 1.185703 0.001616 -0.007325 -1186030.000000 0 0 1
16.206270 20.985145 12.103688 29.146504 0.913192 1.142556 0.007111 -0.010722 -411501.000000 0 0 1
16.251570 21.872045 13.170088 30.264683 0.931771 1.120576 0.015755 -0.004405 -757132.000000 0 0 1
17.278070 21.546345 14.246588 31.076388 0.894896 1.094560 0.035775 -0.000826 -256908.000000 0 0 1
18.576870 21.495245 13.678488 31.531677 0.858098 1.122089 0.038700 -0.000769 -92726.400000 0 0 1
19.469570 20.985745 14.669988 32.166351 0.822858 1.097226 0.025022 0.000360 136720.000000 0 0 1
20.939970 21.431745 14.525788 33.298656 0.797004 1.119394 0.035035 -0.007604 44251.000000 0 0 1
21.476170 20.968245 13.312388 32.834628 0.773432 1.153339 0.032110 -0.006869 -828168.000000 0 0 1
22.838870 21.226445 13.247288 33.877228 0.748823 1.169037 0.045468 -0.007421 -569330.000000 0 0 1
23.532070 20.669645 11.948988 33.522691 0.720730 1.206336 0.038883 -0.008765 43473.400000 0 0 1
23.299270 21.407445 10.740988 33.414121 0.743107 1.243535 0.049754 -0.014375 147541.000000 0 0 1
24.282270 21.163345 9.770688 33.659800 0.716876 1.276279 0.057084 -0.026149 -486129.000000 0 0 1
24.200770 22.011345 8.507588 33.801710 0.738056 1.316369 0.053532 -0.022573 -113477.000000 0 0 1
24.525670 23.385845 8.705088 34.988352 0.761612 1.319356 0.050519 -0.016661 1201140.000000 0 0 1
25.947970 23.625945 8.661488 36.145591 0.738593 1.328814 0.040761 -0.019237 346119.000000 0 0 1
26.438070 24.907345 9.344488 37.505557 0.755595 1.318994 0.055921 -0.015190 -954327.000000 0 0 1
27.610590 25.338045 8.762388 38.485590 0.742505 1.341102 0.043890 -0.013524 -528897.000000 0 0 1
28.221150 26.337845 9.572988 39.771314 0.750893 1.327709 0.049313 -0.011302 720899.000000 0 0 1
29.453140 27.072245 8.911888 40.985554 0.743302 1.351606 0.050321 -0.012503 650005.000000 0 0 1
29.167320 27.811345 7.730188 41.036072 0.761605 1.381289 0.057549 -0.016684 319823.000000 0 0 1
30.381050 28.186345 7.088888 42.044388 0.747943 1.401382 0.045245 -0.005635 223109.000000 0 0 1
30.168320 29.171945 5.915588 42.380704 0.768609 1.430757 0.065484 -0.003826 103934.000000 0 0 1
29.908300 30.499745 6.353188 43.186848 0.795189 1.423151 0.069396 -0.011625 130449.000000 0 0 1
30.151390 31.357645 5.232288 43.815351 0.805007 1.451094 0.058304 -0.009241 41315.800000 0 0 1
30.144270 32.852145 5.590088 44.935392 0.828356 1.446070 0.028817 -0.003394 -306342.000000 0 0 1
28.960320 33.236445 6.224488 44.520845 0.854042 1.430526 0.021070 -0.015289 -405735.000000 0 0 1
28.944390 -34.171124 6.713288 45.282576 -0.868022 1.421995 0.010948 -0.001225 -306185.000000 0 0 1
27.575420 -33.702624 7.228888 44.142128 -0.885057 1.406291 0.031496 -0.018212 49800.200000 0 0 1
26.620670 -33.674424 6.168688 43.366803 -0.901856 1.428068 0.019678 -0.022968 -150544.000000 0 0 1
25.474470 -32.929724 6.569188 42.148186 -0.912361 1.414299 0.021212 -0.036154 220662.000000 0 0 1
24.341470 -33.105724 5.541288 41.463261 -0.936793 1.436752 0.028464 -0.025216 -157998.000000 0 0 1
24.729870 -32.492624 4.288288 41.057600 -0.920234 1.466160 -0.002594 0.000950 611763.000000 0 0 1
23.604070 -32.453324 3.371488 40.270800 -0.941967 1.486978 0.017544 -0.010830 678614.000000 0 0 1
24.004670 -31.872724 1.972088 39.949767 -0.925288 1.521412 0.019855 0.005056 -34048.000000 0 0 1
24.366370 -30.504724 2.090688 39.097687 -0.896804 1.517297 0.033009 0.011669 -236039.000000 0 0 1
25.005970 -30.024024 0.962288 39.085375 -0.876334 1.546174 0.019443 0.013385 -521401.000000 0 0 1
25.328370 -28.508924 1.073188 38.150188 -0.844407 1.542662 0.027779 0.009562 223644.000000 0 0 1
24.293670 -27.512524 1.074088 36.718865 -0.847451 1.541541 0.018414 0.011114 265468.000000 0 0 1
23.614570 -27.358524 -0.192212 36.141025 -0.858716 1.576115 0.030919 0.010493 -148033.000000 0 0 1
22.359770 -26.496224 -0.181712 34.670481 -0.869863 1.576037 0.011453 0.014979 -419659.000000 0 0 1
22.561170 -25.089824 -0.152912 33.742096 -0.838415 1.575328 0.010690 0.004387 -187362.000000 0 0 1
22.769370 -24.355524 1.075088 33.358531 -0.819044 1.538562 -0.004063 0.012820 -282086.000000 0 0 1
21.589970 -24.259624 2.049288 32.540064 -0.843559 1.507777 -0.006462 0.010003 -470596.000000 0 0 1
21.751570 -23.562724 3.270288 32.233950 -0.825346 1.469167 -0.005033 0.003231 -577034.000000 0 0 1
20.544770 -23.301724 3.950888 31.315610 -0.848193 1.444296 0.013926 -0.000025 -292836.000000 0 0 1
20.593170 -22.537524 5.271788 30.980807 -0.830448 1.399801 0.010293 -0.007573 -218589.000000 0 0 1
20.730170 -21.117524 5.132288 30.033817 -0.794654 1.399070 0.028882 -0.009155 -15058.300000 0 0 1
19.588370 -20.431124 4.663588 28.685957 -0.806454 1.407498 0.017435 -0.001406 -607751.000000 0 0 1
19.597270 -18.966424 5.091788 27.743549 -0.769041 1.386220 0.022231 -0.003287 -14524.700000 0 0 1
19.081270 -18.659124 6.360988 27.435742 -0.774213 1.336817 0.047721 -0.009833 433085.000000 0 0 1
17.652070 -18.657924 6.412488 26.473264 -0.813093 1.326138 0.023269 -0.011507 597414.000000 0 0 1
18.498737 -26.382425 -12.093612 34.416437 -0.959281 1.929852 0.084181 -0.030785 -238670.000000 0 0 1
18.805137 -25.288925 -12.832012 34.026805 -0.931396 1.957475 0.080403 -0.028972 -286730.000000 0 0 1
17.685737 -24.735355 -13.494312 33.267395 -0.950075 1.988466 0.058258 -0.022570 56638.000000 0 0 1
17.859237 -23.233055 -13.865112 32.418645 -0.915435 2.012731 0.053834 -0.032983 4131.650000 0 0 1
17.910537 -22.258855 -12.845112 31.324765 -0.893228 1.993319 0.056769 -0.029775 -937389.000000 0 0 1
19.115537 -22.127555 -12.185112 31.678217 -0.858300 1.965628 0.055278 -0.029318 -1100800.000000 0 0 1
19.261937 -22.813355 -10.783212 31.745064 -0.869605 1.917375 0.056471 -0.025758 316032.000000 0 0 1
18.356237 -22.332255 -9.786012 30.519619 -0.882807 1.897208 0.045351 -0.022725 -707036.000000 0 0 1
17.083537 -22.848555 -9.780312 30.158883 -0.928778 1.901060 0.048837 -0.013939 -1259260.000000 0 0 1
16.194737 -22.202955 -8.728812 28.834579 -0.940613 1.878342 0.022348 -0.008222 -772237.000000 0 0 1
16.036237 -20.794855 -8.933412 27.737930 -0.913887 1.898706 0.017868 -0.011864 367177.000000 0 0 1
15.360137 -20.168755 -7.810912 26.527775 -0.919925 1.869669 0.023565 -0.017034 -426836.000000 0 0 1
13.842937 -20.105055 -7.973812 25.679211 -0.967810 1.886532 0.024595 -0.005243 -727516.000000 0 0 1
13.297437 -21.377055 -7.731612 26.335872 -1.014327 1.868763 0.010835 -0.009547 -1845950.000000 0 0 1
11.992837 -21.356855 -8.123612 25.805746 -1.059133 1.891041 0.015015 -0.010047 -1230060.000000 0 0 1
11.219237 -22.687255 -7.854812 26.500584 -1.111545 1.871719 0.015617 -0.003355 95745.400000 0 0 1
11.316137 -23.068555 -6.525112 26.510193 -1.114742 1.819488 0.016920 0.000227 125097.000000 0 0 1
10.703737 -24.291255 -6.277812 27.277207 -1.155752 1.803027 0.007106 0.002799 103793.000000 0 0 1
11.220437 -24.831255 -4.866312 27.679784 -1.146390 1.747522 0.017783 -0.000232 202320.000000 0 0 1
10.269237 -25.670605 -4.209812 27.967119 -1.190257 1.721898 0.031432 -0.005176 689298.000000 0 0 1
10.966037 -26.351005 -3.133912 28.713253 -1.176443 1.680159 0.026137 -0.001302 236869.000000 0 0 1
10.053337 -27.253285 -2.308112 29.139982 -1.217397 1.650087 0.038257 -0.002094 -66035.400000 0 0 1
9.185937 -26.558555 -1.430612 28.138674 -1.237801 1.621660 0.025145 0.001184 -195661.000000 0 0 1
8.429337 -27.451045 -0.647612 28.723388 -1.272868 1.593345 0.035483 -0.005945 48432.600000 0 0 1
7.757937 -26.704395 0.519088 27.813302 -1.288067 1.552132 0.039679 -0.004578 -541973.000000 0 0 1
6.618137 -25.985155 0.216988 26.815576 -1.321409 1.562704 0.030733 -0.016581 -652953.000000 0 0 1
5.992737 -25.558315 1.426888 26.290234 -1.340484 1.516495 0.031722 -0.007414 427782.000000 0 0 1
4.584737 -24.913255 1.290088 25.364433 -1.388805 1.519912 0.048197 -0.016787 1285410.000000 0 0 1
3.504337 -25.811325 0.961488 26.065866 -1.435854 1.533901 0.058170 -0.021677 591437.000000 0 0 1
2.245137 -25.165965 0.954588 25.283942 -1.481819 1.533033 0.042898 -0.022964 970303.000000 0 0 1
1.005237 -25.991725 0.423988 26.014612 -1.532140 1.554498 0.040073 -0.020725 937418.000000 0 0 1
0.553537 -27.026235 1.282588 27.062314 -1.550318 1.523385 0.042650 -0.014449 -200211.000000 0 0 1
1.025937 -28.330055 0.927688 28.363801 -1.534598 1.538084 0.041303 -0.022299 -146095.000000 0 0 1
0.336437 -29.508045 1.637288 29.555349 -1.559395 1.515371 0.051291 -0.007132 156911.000000 0 0 1
0.698737 -29.626355 3.032088 29.789306 -1.547216 1.468835 0.052778 -0.003352 73045.800000 0 0 1
0.036537 -30.695535 3.687988 30.916314 -1.569606 1.451222 0.055874 0.000307 45281.000000 0 0 1
0.179037 -30.548925 5.223088 30.992734 -1.564936 1.401462 0.048537 0.000455 683814.000000 0 0 1
1.510637 -30.772955 5.719388 31.336372 -1.521746 1.387252 0.049190 0.006488 705700.000000 0 0 1
1.573537 -30.824125 7.136888 31.678666 -1.519792 1.343556 0.045354 0.003153 611060.000000 0 0 1
3.020637 -31.177975 7.617488 32.236881 -1.474214 1.332243 0.038274 0.002549 727139.000000 0 0 1
3.429137 -32.495455 7.242488 33.468900 -1.465659 1.352676 0.040439 -0.003612 -980473.000000 0 0 1
4.729937 -32.779945 7.603188 33.980959 -1.427492 1.345138 0.025080 -0.006523 -829229.000000 0 0 1
4.981337 -34.278967 7.478588 35.437136 -1.426489 1.358159 0.038279 -0.000650 -277059.000000 0 0 1
5.247237 33.923891 6.220488 34.886364 1.417336 1.391531 0.032668 -0.004985 -106617.000000 0 0 1
5.098837 32.519483 6.262488 33.507218 1.415269 1.382791 0.029132 -0.009710 -94501.800000 0 0 1
5.544937 31.895133 4.917888 32.744946 1.398668 1.420038 0.035473 -0.013726 765233.000000 0 0 1
6.894437 32.123223 4.497988 33.161222 1.359379 1.434737 0.034603 -0.011604 719542.000000 0 0 1
7.738837 30.952813 4.493488 32.220454 1.325798 1.430880 0.031984 -0.003754 685935.000000 0 0 1
9.117437 31.279983 3.825588 32.805489 1.287176 1.453916 0.000434 0.001298 97278.800000 0 0 1
10.014637 31.730133 4.783088 33.615060 1.265072 1.428022 -0.004956 -0.003064 162638.000000 0 0 1
11.362537 31.731273 4.259588 33.972416 1.226936 1.445082 -0.000279 0.001049 990339.000000 0 0 1
12.424837 31.883743 5.377888 34.639159 1.199208 1.414911 0.000971 -0.001384 101668.000000 0 0 1
12.649137 30.788753 6.278388 33.872794 1.180983 1.384366 0.002833 -0.004798 166107.000000 0 0 1
13.729737 31.138943 7.139888 34.772366 1.155520 1.363993 0.021314 -0.010995 99806.100000 0 0 1
14.226737 30.092863 8.118688 34.262130 1.129176 1.331563 0.023641 -0.003385 -152533.000000 0 0 1
13.400337 29.880743 9.258588 34.031593 1.149223 1.295265 0.016701 -0.003419 144995.000000 0 0 1
13.906337 28.818893 10.036688 33.535801 1.121212 1.266855 0.012299 -0.002043 -117380.000000 0 0 1
13.772537 29.013843 11.556588 34.132691 1.127602 1.225391 0.013159 -0.006891 28729.100000 0 0 1
14.712737 29.892873 12.157788 35.466326 1.113423 1.220903 0.024003 -0.014190 149013.000000 0 0 1
14.434137 30.101553 13.504988 36.011561 1.123671 1.186380 0.033184 -0.008907 -337022.000000 0 0 1
15.352637 31.163903 14.097288 37.491677 1.113053 1.185309 0.035660 -0.005177 485920.000000 0 0 1
16.611037 30.605043 14.530388 37.732312 1.073533 1.175490 0.038209 -0.009901 270752.000000 0 0 1
17.238537 31.667983 15.207188 39.131661 1.072300 1.171667 0.043711 -0.007908 -519457.000000 0 0 1
18.556137 31.288653 15.921588 39.709029 1.035493 1.158236 0.042447 -0.006418 182449.000000 0 0 1
19.588637 30.876773 15.051788 39.542966 1.005456 1.180304 0.024419 0.001382 12279.300000 0 0 1
19.540937 29.480743 14.820488 38.348524 0.985449 1.173997 0.017761 0.001609 -796213.000000 0 0 1
20.727437 28.845093 14.070188 38.205186 0.947711 1.193639 0.029624 0.002394 791189.000000 0 0 1
21.897737 28.900443 14.919688 39.208973 0.922388 1.180441 0.028012 -0.006042 610626.000000 0 0 1
23.144437 29.037723 14.241288 39.770198 0.897858 1.204575 0.025367 0.002951 192774.000000 0 0 1
24.247337 29.128683 15.295488 40.870105 0.876597 1.187212 0.027475 -0.000153 -562436.000000 0 0 1
24.465937 27.904543 15.943688 40.391172 0.850963 1.165020 0.019348 0.008274 92254.700000 0 0 1
25.303437 28.200743 17.066288 41.554832 0.839496 1.147582 -0.000852 0.007473 -149614.000000 0 0 1
26.025537 26.907423 17.549088 41.343784 0.802057 1.132423 -0.030748 0.019556 -539425.000000 0 0 1
25.322937 26.088073 18.388888 40.742974 0.800280 1.102531 -0.020697 0.016922 -433365.000000 0 0 1
25.419537 26.344413 19.798288 41.619144 0.803263 1.075035 0.007788 0.016729 -522930.000000 0 0 1
25.055637 25.013913 20.517088 40.919820 0.784565 1.045583 0.026119 0.010685 -501847.000000 0 0 1
25.871537 23.883103 20.564688 40.775550 0.745455 1.042180 -0.002052 0.009210 -515503.000000 0 0 1
25.129137 22.684213 20.535388 39.594813 0.734308 1.025539 0.006844 -0.000384 -127914.000000 0 0 1
26.071737 21.506213 20.773988 39.671290 0.689732 1.019663 -0.015797 0.005857 -206170.000000 0 0 1
25.318837 20.296813 20.718588 38.500182 0.675745 1.002564 -0.016799 0.015773 262820.000000 0 0 1
26.020137 19.039913 20.785288 38.361361 0.631710 0.998185 -0.019090 0.007714 -4310.160000 0 0 1
26.740937 18.595513 22.079388 39.349335 0.607629 0.975068 0.012909 0.010758 122353.000000 0 0 1
25.829937 18.331113 23.130688 39.220455 0.617196 0.940034 -0.002097 0.018547 31177.500000 0 0 1
26.497037 17.874713 24.301888 40.151963 0.593470 0.920719 0.024816 0.007891 88964.400000 0 0 1
25.612837 17.180013 25.384188 39.944052 0.590830 0.882149 0.014177 0.007176 190620.000000 0 0 1
25.298037 15.857713 24.986288 38.932921 0.559918 0.873982 0.012055 0.003237 104968.000000 0 0 1
24.183737 15.299413 25.645288 38.426631 0.564069 0.840107 0.008360 0.006010 11907.700000 0 0 1
23.745837 13.969913 24.978088 37.187742 0.531780 0.834329 0.010620 0.010932 231919.000000 0 0 1
22.476937 13.485313 25.399188 36.499111 0.540392 0.801145 0.000643 0.004021 495107.000000 0 0 1
22.055437 12.351713 24.705488 35.346404 0.510511 0.796863 0.010131 0.006706 -91607.300000 0 0 1
20.805537 11.637313 25.268688 34.739085 0.509984 0.756293 0.014731 0.000667 34024.100000 0 0 1
19.671737 12.474613 25.269488 34.367721 0.565144 0.744734 0.018826 -0.000151 64361.900000 0 0 1
18.499737 11.723013 25.537188 33.642492 0.564821 0.708905 0.020576 0.000075 378773.000000 0 0 1
17.162837 12.514013 25.393088 33.105474 0.630013 0.696588 0.018752 -0.005063 200224.000000 0 0 1
17.073837 13.451713 26.446788 34.232982 0.667292 0.687944 0.027297 -0.002742 434188.000000 0 0 1
15.817637 14.116413 26.479288 33.920841 0.728627 0.675139 0.037381 -0.003340 108867.000000 0 0 1
15.443037 14.534513 27.895488 35.041371 0.755101 0.650018 0.034619 0.003805 -155477.000000 0 0 1
15.147437 13.424713 28.734988 35.147792 0.725177 0.613657 0.027333 0.003806 85293.600000 0 0 1
15.444337 13.623413 30.132188 36.497584 0.722836 0.599542 0.024772 0.007003 -1096750.000000 0 0 1
16.861837 13.302113 30.536088 37.332565 0.667929 0.612962 0.023424 0.011405 -593922.000000 0 0 1
17.763137 14.389413 30.249788 37.916143 0.680852 0.647146 0.035490 0.001651 -947490.000000 0 0 1
19.032737 13.922013 30.088288 38.227903 0.631541 0.664741 0.024669 0.016616 -1879700.000000 0 0 1
19.953037 15.055513 29.627988 38.763511 0.646405 0.700800 0.035364 0.008339 -708440.000000 0 0 1
19.744437 15.740213 28.416188 38.014166 0.673030 0.726482 0.037410 0.002985 153596.000000 0 0 1
19.967237 14.859213 27.285388 36.932088 0.639766 0.739510 0.038719 -0.001398 -352852.000000 0 0 1
19.923937 15.571513 25.876988 36.180848 0.663388 0.773869 0.022567 -0.004443 -579186.000000 0 0 1
20.851437 16.586213 25.677888 37.003227 0.671959 0.803855 0.021047 0.006014 -66045.300000 0 0 1
20.775837 17.141713 24.371988 36.324476 0.689847 0.835304 0.010570 0.001776 -289954.000000 0 0 1
21.884737 18.184913 24.208588 37.358915 0.693324 0.865840 0.007904 0.005686 -252378.000000 0 0 1
21.608537 18.989013 23.065788 36.871969 0.720963 0.894942 0.006669 -0.004932 358965.000000 0 0 1
22.773237 19.568713 22.474788 37.505612 0.709860 0.928247 0.012873 0.005324 -85826.700000 0 0 1
23.049937 20.971013 23.053988 38.762989 0.738207 0.933851 0.021832 -0.010476 -578137.000000 0 0 1
22.041937 21.924013 22.839488 38.576567 0.782716 0.937189 0.024707 -0.004869 -87429.200000 0 0 1
22.369337 23.176913 23.360088 39.790077 0.803127 0.943345 0.034568 -0.010503 -2395.530000 0 0 1
21.447937 24.327053 22.894588 39.698636 0.848213 0.956101 0.032844 -0.025924 -60317.800000 0 0 1
21.832637 24.889183 21.682788 39.576240 0.850725 0.990976 0.036652 -0.015051 293502.000000 0 0 1
20.961237 25.929363 21.269688 39.548767 0.890956 1.002960 0.052025 -0.020838 58213.700000 0 0 1
21.554037 26.622733 20.009088 39.670014 0.890223 1.042123 0.046932 -0.016353 -160311.000000 0 0 1
21.585537 25.864703 18.903888 38.629979 0.875337 1.059443 0.050465 -0.009436 53335.200000 0 0 1
21.924037 26.633703 17.802488 38.819404 0.882087 1.094380 0.041100 -0.018611 -452776.000000 0 0 1
21.746737 25.969123 16.426788 37.645123 0.873658 1.119248 0.019010 0.003624 598691.000000 0 0 1
20.375537 25.691683 16.104988 36.532119 0.900290 1.114257 0.017457 0.003745 460485.000000 0 0 1
20.377437 25.363413 14.741288 35.719018 0.893974 1.145379 0.021828 0.004399 -843132.000000 0 0 1
19.099537 24.883263 14.048988 34.370673 0.916148 1.149713 0.016525 0.000308 43715.400000 0 0 1
18.028737 25.808203 13.878088 34.404942 0.961033 1.155594 0.015092 0.007158 -138093.000000 0 0 1
17.268637 25.918083 15.059188 34.593815 0.983063 1.120409 0.020852 -0.006442 -1133890.000000 0 0 1
15.783037 26.135223 14.626788 33.854056 1.027515 1.124027 0.016650 -0.005151 -113836.000000 0 0 1
14.962637 25.004413 14.446288 32.523782 1.031554 1.110542 0.022684 -0.002248 57545.200000 0 0 1
14.720137 24.252883 15.620588 32.386533 1.025287 1.067498 0.027437 -0.004957 -386273.000000 0 0 1
13.713137 24.832763 16.674188 32.905088 1.066251 1.039402 0.049581 -0.017990 -231556.000000 0 0 1
14.184937 25.979473 17.234088 34.251412 1.071025 1.043540 0.049653 -0.016903 440878.000000 0 0 1
13.319937 26.471853 18.291888 34.824889 1.104613 1.017784 0.049981 -0.021755 619395.000000 0 0 1
14.010637 27.741033 18.896488 36.372244 1.103116 1.024495 0.049728 -0.024524 -3265.510000 0 0 1
14.147337 28.835043 18.074188 36.854893 1.114673 1.058231 0.044593 -0.022996 19856.800000 0 0 1
14.815237 29.877453 18.752288 38.259662 1.110461 1.058555 0.042164 -0.023564 -66613.500000 0 0 1
14.665637 31.291803 18.063988 38.994429 1.132523 1.089143 0.044114 -0.022382 -479144.000000 0 0 1
13.303837 31.546213 17.904088 38.635631 1.171703 1.088958 0.037920 -0.015938 -529710.000000 0 0 1
13.179337 32.826793 17.296788 39.376035 1.189014 1.116008 0.039081 -0.008390 -62487.000000 0 0 1
11.776137 33.470419 17.274288 39.463241 1.232486 1.117723 0.044112 -0.010797 -365701.000000 0 0 1
11.590837 -34.010805 16.675888 39.612720 -1.242342 1.136279 0.041770 -0.009759 -312880.000000 0 0 1
12.206637 -32.817205 17.155388 38.990746 -1.214695 1.115213 0.036803 -0.018479 -116717.000000 0 0 1
12.186737 -32.444615 18.607488 39.337110 -1.211485 1.078074 0.042958 -0.019176 -69450.900000 0 0 1
12.931537 -33.347815 19.412488 40.695775 -1.200871 1.073541 0.056885 -0.020117 279943.000000 0 0 1
12.644937 -33.106815 20.789488 41.087206 -1.205952 1.040273 0.050820 -0.015725 487299.000000 0 0 1
13.639137 -33.914085 21.756388 42.538590 -1.188423 1.033924 0.064766 -0.021303 528102.000000 0 0 1
14.973437 -33.593805 21.456388 42.580796 -1.151507 1.042690 0.056733 -0.024012 -1017370.000000 0 0 1
15.815637 -33.825405 22.499388 43.594895 -1.133430 1.028503 0.048895 -0.023145 830116.000000 0 0 1
17.268537 -33.242985 22.154588 43.521537 -1.091699 1.036717 0.067169 -0.023494 1341790.000000 0 0 1
17.357337 -31.831185 22.078288 42.449409 -1.071574 1.023819 0.067984 -0.014788 -160199.000000 0 0 1
18.646337 -31.522915 21.629088 42.534663 -1.036638 1.037349 0.073444 -0.010860 -728712.000000 0 0 1
-4.575863 13.251945 18.588378 23.282619 -1.238317 0.646196 0.012700 0.007186 -812732.000000 0 1 0
-4.379663 14.530645 18.130278 23.643774 -1.278048 0.696940 0.005778 0.002592 609989.000000 0 1 0
-5.638463 15.156845 17.904378 24.126520 -1.214652 0.734593 0.019315 -0.005171 403865.000000 0 1 0
-5.336163 16.665345 17.644078 24.849987 -1.260916 0.781265 0.024600 -0.001365 -58776.300000 0 1 0
-4.852963 17.329645 18.828778 26.045935 -1.297752 0.762797 0.013658 0.005079 379129.000000 0 0 1
-4.558963 18.690245 18.600778 26.760014 -1.331546 0.802243 0.012463 -0.006613 -528088.000000 0 0 1
-3.875263 19.330545 19.792478 27.936174 -1.372945 0.783441 0.011464 -0.012003 -484999.000000 0 0 1
-4.751963 19.504045 20.867878 28.956126 -1.331813 0.766025 0.001211 -0.004567 153370.000000 0 0 1
-4.139063 20.042545 22.065378 30.095122 -1.367145 0.747798 0.005997 -0.008789 -271175.000000 0 0 1
-5.189963 20.396545 23.109578 31.257117 -1.321631 0.738709 0.004300 0.000663 -226697.000000 0 0 1
-5.725163 19.252545 23.762198 31.113984 -1.281753 0.701749 0.006307 -0.003436 130534.000000 0 0 1
-6.483963 19.586645 24.907538 32.342911 -1.251111 0.691786 -0.002378 -0.000578 -28363.900000 0 0 1
-5.581263 20.008345 26.068228 33.332220 -1.298765 0.672811 -0.006022 -0.003437 -595744.000000 0 0 1
-5.068963 21.315245 25.866978 33.898888 -1.337324 0.702758 0.003763 -0.004437 468008.000000 0 0 1
-4.014363 21.690345 26.781958 34.696678 -1.387791 0.688990 0.015159 -0.004211 475746.000000 0 0 1
-2.635163 21.341845 26.197028 33.892517 -1.447944 0.687328 0.024897 0.000785 -861379.000000 0 0 1
-2.209163 20.129245 26.622908 33.449157 -1.461485 0.650268 0.035422 0.000160 -774047.000000 0 0 1
-0.908963 19.812345 26.252138 32.901823 -1.524950 0.647004 0.044153 0.002542 -519421.000000 0 0 1
-0.259563 18.652945 27.040038 32.850622 -1.556882 0.603911 0.040219 0.010226 -189546.000000 0 0 1
-0.660563 17.362245 26.610998 31.780955 -1.532769 0.578424 0.039327 0.010048 -161111.000000 0 0 1
0.000537 16.274745 27.255798 31.745013 1.570763 0.538293 0.041334 0.003620 54987.400000 0 0 1
1.458737 15.971245 26.857628 31.281636 1.479714 0.538313 0.040081 0.003490 -390395.000000 0 0 1
1.594737 15.929345 25.430408 30.049840 1.471016 0.561844 0.030569 0.015604 -11853.400000 0 0 1
1.038637 14.770445 24.735068 28.828257 1.500593 0.539404 0.034964 0.007974 53844.700000 0 0 1
1.013637 14.971445 23.194278 27.625100 1.503195 0.574234 0.035060 -0.013980 879540.000000 0 0 1
2.350137 14.861745 22.666678 27.206119 1.413962 0.586024 0.026097 -0.005122 733376.000000 0 0 1
2.502737 13.994045 21.555878 25.821558 1.393824 0.583024 0.020405 -0.007068 -793325.000000 0 0 1
3.906137 13.878945 21.009978 25.481409 1.296450 0.601440 0.009430 -0.003468 -624547.000000 0 0 1
4.379937 14.962045 20.203978 25.519549 1.286016 0.657200 0.019226 -0.009708 73892.300000 0 0 1
5.796537 14.890445 20.134278 25.704364 1.199566 0.670837 0.023045 -0.007104 233529.000000 0 0 1
6.347237 15.754245 18.982578 25.471983 1.187801 0.729911 0.035956 -0.012057 -40499.700000 0 0 1
6.072037 15.256345 17.645078 24.103412 1.192015 0.749459 0.028184 -0.022678 136740.000000 0 1 0
6.578637 16.221645 16.754278 24.230684 1.185517 0.807304 0.033467 -0.015682 -128238.000000 0 1 0
6.647737 15.743745 15.259478 22.910905 1.171260 0.841915 0.025099 -0.013834 -189305.000000 0 1 0
7.610037 14.807845 14.861378 22.316933 1.096075 0.842065 0.022054 -0.017994 -114769.000000 0 1 0
7.751237 13.647645 15.654078 22.167319 1.054273 0.786710 0.020358 -0.010328 -525597.000000 0 1 0
8.819237 12.688945 15.073978 21.587336 0.963412 0.797806 0.026507 -0.011691 181361.000000 0 1 0
10.103437 13.293445 15.120378 22.526006 0.920906 0.834915 0.029535 -0.017595 -41521.300000 0 1 0
11.059537 12.438345 14.504578 22.077332 0.844009 0.853978 0.033759 -0.010309 -800226.000000 0 1 0
12.367937 13.183545 14.403478 23.113457 0.817307 0.898014 0.037852 -0.010033 -1278580.000000 0 1 0
13.120637 13.072345 15.611178 24.222845 0.783554 0.870451 0.037851 -0.013072 1329230.000000 0 1 0
14.447537 13.650845 15.701678 25.330211 0.757052 0.902207 0.037400 -0.007306 1093420.000000 0 0 1
15.528937 12.928545 14.893878 25.102246 0.694273 0.935609 0.040676 -0.013441 -379029.000000 0 0 1
16.822237 13.544545 15.003778 26.297447 0.677878 0.963632 0.044303 -0.014411 971041.000000 0 0 1
17.663137 13.062345 13.962178 26.029861 0.636764 1.004642 0.050440 -0.014509 -101971.000000 0 0 1
19.065637 13.690445 13.875978 27.266638 0.622750 1.036890 0.054947 -0.007180 236089.000000 0 0 1
19.892837 13.383845 15.004478 28.284035 0.592235 1.011614 0.041445 -0.002820 -483897.000000 0 0 1
21.187437 13.799545 14.748878 29.272245 0.577294 1.042744 0.032320 -0.007334 -300147.000000 0 0 1
22.206637 13.579245 15.928478 30.516341 0.548829 1.021643 0.049652 -0.003202 333116.000000 0 0 1
22.455437 12.231745 16.168078 30.253413 0.498774 1.006973 0.047037 0.002494 323437.000000 0 0 1
23.308437 12.115245 17.283778 31.445054 0.479346 0.988851 0.042365 0.000786 -482072.000000 0 0 1
23.526237 10.629245 17.579178 31.232870 0.424353 0.972976 0.044334 0.008777 96872.400000 0 0 1
22.374937 9.901745 18.060678 30.411683 0.416631 0.934932 0.033187 0.004277 1009800.000000 0 0 1
22.442837 8.513345 17.798078 29.881927 0.362565 0.932767 0.024820 0.008454 -550160.000000 0 0 1
21.128537 7.806545 18.122078 28.909634 0.353921 0.893289 0.042902 -0.003227 -597284.000000 0 0 1
21.056637 6.474745 17.681378 28.247751 0.298316 0.894461 0.048715 -0.000864 631775.000000 0 0 1
19.965037 5.791945 18.309878 27.702003 0.282354 0.848701 0.042197 0.000617 131069.000000 0 0 1
19.778737 4.393745 17.698678 26.902540 0.218595 0.852794 0.052628 0.002965 -517558.000000 0 0 1
19.293837 4.291545 16.331378 25.639490 0.218868 0.880245 0.055917 -0.009549 470113.000000 0 0 1
19.178937 2.977445 15.810178 25.033149 0.154016 0.887220 0.050634 -0.015537 -129754.000000 0 0 1
18.102837 2.063445 16.442878 24.542591 0.113495 0.836624 0.063183 -0.005231 16010.500000 0 1 0
18.485937 1.590745 17.748078 25.675954 0.085840 0.807602 0.057196 -0.005708 -756494.000000 0 0 1
17.411737 0.996445 18.346478 25.313134 0.057166 0.760080 0.038559 -0.006033 -1181220.000000 0 0 1
17.697537 0.293645 19.724578 26.501850 0.016591 0.731353 0.050907 -0.006073 -276738.000000 0 0 1
18.075937 -1.067155 19.546478 26.644758 -0.058969 0.747198 0.048388 -0.003557 36421.300000 0 0 1
16.998737 -1.970255 19.722278 26.111439 -0.115391 0.714667 0.030631 0.000391 -159401.000000 0 0 1
17.246937 -3.404555 19.240578 26.062381 -0.194895 0.740323 0.014933 -0.002553 -172192.000000 0 0 1
17.266637 -3.408355 17.812878 25.041012 -0.194890 0.779382 0.028642 -0.009052 242072.000000 0 0 1
17.152337 -4.762755 17.307278 24.827976 -0.270850 0.799469 0.048308 -0.005982 -75357.500000 0 1 0
16.703937 -4.839755 15.816778 23.507770 -0.282015 0.832766 0.038779 -0.009550 61292.800000 0 1 0
15.355437 -4.550055 15.489978 22.280752 -0.288073 0.802073 0.028018 -0.011820 293815.000000 0 1 0
15.184737 -4.528655 14.088378 21.203004 -0.289839 0.844036 0.037793 -0.017336 269322.000000 0 1 0
15.839237 -3.355955 13.270378 20.934345 -0.208788 0.884205 0.042038 -0.017657 -14946.700000 0 1 0
15.207837 -2.195855 13.695278 20.583021 -0.143399 0.842810 0.036540 -0.006991 311478.000000 0 1 0
15.609337 -1.040155 12.913378 20.285184 -0.066538 0.880726 0.034510 -0.011878 -128152.000000 0 1 0
14.761037 0.205845 13.173978 19.785962 0.013944 0.842198 0.044349 -0.003490 -482165.000000 0 1 0
15.157037 1.440945 12.578578 19.749246 0.094783 0.880307 0.048184 -0.008805 903767.000000 0 1 0
16.248737 2.099845 13.271478 21.084661 0.128519 0.889967 0.062312 -0.016157 671215.000000 0 1 0
16.430737 3.501045 12.730878 21.078465 0.209939 0.922316 0.064727 -0.019443 8797.150000 0 1 0
15.369337 4.307445 13.195978 20.710009 0.273252 0.879964 0.063280 -0.012161 572224.000000 0 1 0
15.473837 5.588745 12.513478 20.670289 0.346594 0.920547 0.070439 -0.017728 292123.000000 0 1 0
14.264337 6.502545 12.851278 20.270909 0.427717 0.884112 0.061939 -0.014499 282810.000000 0 1 0
14.471937 7.694045 12.100778 20.373123 0.488648 0.934827 0.047927 -0.020541 342798.000000 0 1 0
13.385137 8.586345 12.166678 20.022869 0.570365 0.917712 0.035921 -0.016515 -264154.000000 0 1 0
13.357637 9.507145 13.441778 21.201266 0.618561 0.884071 0.024931 -0.020564 -202564.000000 0 1 0
13.036337 8.861545 14.614578 21.495557 0.597011 0.823186 0.031573 -0.022301 430692.000000 0 1 0
13.584437 9.626845 15.652178 22.851778 0.616519 0.816270 0.039394 -0.026490 -253095.000000 0 1 0
13.271637 9.159245 17.084278 23.492567 0.604076 0.756532 0.041098 -0.025862 668742.000000 0 1 0
11.911837 9.382045 17.490978 23.148411 0.667149 0.714224 0.030142 -0.022496 580400.000000 0 1 0
11.316837 8.733145 18.585378 23.446853 0.657242 0.655637 0.039795 -0.013881 -68807.700000 0 1 0
11.992837 8.865045 19.977778 24.930479 0.636550 0.641265 0.052151 -0.022092 375860.000000 0 1 0
13.282937 8.240545 20.038778 25.414477 0.555274 0.662464 0.051196 -0.026004 488115.000000 0 0 1
13.833637 8.320145 21.354278 26.769377 0.541480 0.647303 0.039971 -0.015884 34078.800000 0 0 1
15.358537 8.085245 21.363078 27.525206 0.484570 0.682295 0.039603 -0.010748 5007.640000 0 0 1
16.037437 9.151645 20.751678 27.777404 0.518553 0.727152 0.052806 -0.011713 916594.000000 0 0 1
17.276237 8.748645 20.107378 27.916193 0.468753 0.766595 0.050683 -0.012669 863066.000000 0 0 1
17.945137 9.799945 19.223378 28.064304 0.499849 0.816225 0.055959 -0.012867 -494871.000000 0 0 1
18.527537 10.779045 19.984378 29.305850 0.526918 0.820406 0.038096 -0.011433 355486.000000 0 0 1
19.415437 11.593945 19.185978 29.656037 0.538322 0.867218 0.039740 -0.009393 -40999.000000 0 0 1
20.439437 12.340445 19.979078 31.132310 0.543177 0.874022 0.031116 -0.000917 -1085210.000000 0 0 1
19.853337 13.381145 20.648378 31.615907 0.593062 0.859124 0.025854 0.003414 279760.000000 0 0 1
20.626437 13.827445 21.761678 33.018461 0.590565 0.851207 0.008616 0.013788 -182975.000000 0 0 1
21.820437 14.780345 21.558278 34.049221 0.595371 0.885180 0.000601 0.011941 -293425.000000 0 0 1
22.989837 14.050745 21.319578 34.358121 0.548594 0.901403 -0.006245 0.021930 183588.000000 0 0 1
24.156237 14.880345 21.254278 35.449863 0.552104 0.927847 -0.007640 0.021969 879538.000000 0 0 1
25.517737 14.141045 21.082478 35.994374 0.506036 0.945033 -0.005151 0.012532 167029.000000 0 0 1
25.734037 13.473645 19.842878 35.178397 0.482328 0.971497 -0.004001 0.011546 195167.000000 0 0 1
26.780037 12.528745 19.992378 35.690826 0.437589 0.976224 0.014138 -0.000216 59604.900000 0 0 1
26.984937 11.875445 18.601278 34.860014 0.414571 1.007946 0.030934 -0.001231 -7067.560000 0 0 1
27.641837 12.752245 17.626178 35.176314 0.432243 1.045949 0.030382 -0.007244 723626.000000 0 0 1
27.892237 12.166545 16.351978 34.545461 0.411317 1.077710 0.040740 -0.016766 -78087.200000 0 0 1
26.600737 11.958545 15.527778 33.041155 0.422485 1.081559 0.044663 -0.019093 -111028.000000 0 0 1
26.364437 13.059245 14.603078 32.846268 0.459909 1.110081 0.056238 -0.011729 363142.000000 0 0 1
25.496637 12.672845 13.539878 31.527889 0.461277 1.126905 0.052645 -0.005161 173906.000000 0 0 1
25.146137 13.863445 12.541178 31.333759 0.503852 1.159012 0.046532 -0.005818 92649.000000 0 0 1
24.272337 14.821545 13.123578 31.321763 0.548203 1.138461 0.043121 -0.011763 408167.000000 0 0 1
24.129837 15.976845 12.276378 31.435936 0.584848 1.169599 0.045303 -0.010603 -388824.000000 0 0 1
23.113637 16.976745 12.888778 31.441544 0.633501 1.148421 0.039274 -0.012475 287540.000000 0 0 1
21.804337 16.719545 12.392078 30.141929 0.654166 1.147109 0.037720 -0.017170 884463.000000 0 0 1
20.871237 17.695245 12.926678 30.262671 0.703232 1.129459 0.037384 -0.013248 -56248.800000 0 0 1
19.946037 18.412945 11.898478 29.638737 0.745452 1.157697 0.040881 -0.000787 972109.000000 0 0 1
18.822537 17.686745 11.335778 28.206537 0.754298 1.157222 0.031069 -0.006755 1450200.000000 0 0 1
17.789437 17.340145 12.276278 27.710137 0.772609 1.111826 0.014895 0.004980 -1258670.000000 0 0 1
16.570237 16.781045 11.631878 26.295947 0.791719 1.112585 0.016988 -0.003850 -1228040.000000 0 0 1
16.680337 15.440545 11.346078 25.404282 0.746820 1.107811 0.031680 -0.006852 795434.000000 0 0 1
15.407937 14.946945 10.927878 24.088051 0.770213 1.099924 0.031411 -0.015061 482774.000000 0 1 0
15.588937 13.613945 10.106278 23.032397 0.717871 1.116550 0.043040 -0.020948 25464.300000 0 1 0
15.999237 12.531845 10.986578 23.102546 0.664461 1.075199 0.063146 -0.014344 692533.000000 0 1 0
16.576937 11.441745 10.248578 22.599596 0.604132 1.100125 0.068747 -0.014166 -111026.000000 0 1 0
16.887637 10.218145 11.118278 22.654335 0.544137 1.057812 0.075707 -0.019884 -416364.000000 0 1 0
17.640637 9.203645 10.383478 22.443613 0.480880 1.089817 0.086393 -0.015805 1093120.000000 0 1 0
18.222737 8.136845 11.151778 22.861289 0.419957 1.061226 0.098750 -0.013053 243118.000000 0 1 0
19.320137 8.502045 12.163778 24.362060 0.414558 1.048015 0.074531 -0.017609 -735313.000000 0 1 0
18.795937 9.287045 13.183478 24.765713 0.458915 1.009448 0.061135 -0.018113 -20436.400000 0 1 0
19.760037 9.567345 14.178178 26.134535 0.450909 0.997377 0.054359 -0.006059 -994825.000000 0 0 1
19.124537 9.964745 15.554378 26.589147 0.480342 0.945929 0.037970 -0.009164 90191.900000 0 0 1
18.581037 8.871945 16.268278 26.241632 0.445464 0.902128 0.049191 -0.017022 -58127.100000 0 0 1
17.415337 8.349145 15.696478 24.887379 0.447043 0.888341 0.059173 -0.028711 -1286450.000000 0 1 0
17.056837 6.983345 16.337378 24.629509 0.388597 0.845543 0.058533 -0.016570 -729320.000000 0 1 0
16.374937 7.003645 17.590278 25.032129 0.404160 0.791600 0.066003 -0.014290 273360.000000 0 0 1
15.681537 5.838145 17.933778 24.527840 0.356396 0.750775 0.059922 0.003400 844972.000000 0 1 0
14.485837 5.364145 17.000778 22.970416 0.354646 0.737553 0.057737 -0.024602 253238.000000 0 1 0
13.948937 4.060145 17.363078 22.639216 0.283246 0.696726 0.054537 -0.014642 158204.000000 0 1 0
13.493937 3.369745 16.249078 21.388643 0.244718 0.707936 0.055311 -0.015633 -169699.000000 0 1 0
13.284537 1.892745 16.523678 21.285990 0.141525 0.682069 0.044578 -0.010646 -126989.000000 0 1 0
14.483337 1.186845 16.766478 22.187619 0.081763 0.714123 0.032216 -0.007920 -56642.100000 0 1 0
14.371837 -0.239355 16.729378 22.056271 -0.016653 0.709809 0.029276 0.003213 -462814.000000 0 1 0
13.524137 -0.970255 17.793078 22.370457 -0.071620 0.651157 0.033229 0.000755 -450248.000000 0 1 0
12.178137 -0.701555 17.547278 21.370685 -0.057544 0.607476 0.034994 -0.001382 -753186.000000 0 1 0
11.323337 -1.355655 18.454178 21.693604 -0.119155 0.553531 0.022843 -0.007452 69142.000000 0 1 0
-26.048673 13.794345 28.805918 41.214054 -0.487015 0.796890 0.030505 -0.005528 34592.100000 0 0 1
-24.937363 13.907245 29.686028 41.189122 -0.508726 0.765949 0.031098 0.002435 330642.000000 0 0 1
-24.339163 12.652645 29.800158 40.503502 -0.479399 0.744034 0.033277 -0.004273 -64782.300000 0 0 1
-23.159063 12.669945 30.831848 40.589069 -0.500601 0.708084 0.028275 -0.005620 92132.200000 0 0 1
-23.440763 13.007945 32.184718 41.887135 -0.506619 0.694510 0.033653 -0.014772 -508462.000000 0 0 1
-22.276563 12.937945 32.943856 41.820250 -0.526173 0.663650 0.028981 -0.006800 -559216.000000 0 0 1
-22.533263 13.116045 -34.156091 42.969956 -0.527135 2.489611 0.022788 -0.001865 53190.700000 0 0 1
-23.172363 12.022945 -33.523072 42.488892 -0.478612 2.479951 0.031014 -0.008706 -95886.500000 0 0 1
-23.658963 12.348345 -32.275712 41.880183 -0.481038 2.450685 0.009895 -0.001751 137004.000000 0 0 1
-24.714663 11.360445 -31.677612 41.753388 -0.430862 2.432086 0.008060 -0.008937 99267.300000 0 0 1
-24.214763 10.197345 -31.027242 40.657476 -0.398580 2.438951 0.019805 -0.015986 167647.000000 0 0 1
-23.624563 9.244045 -31.878712 40.740945 -0.372975 2.469425 0.019208 -0.017812 -171108.000000 0 0 1
-22.722163 8.235245 -31.145082 39.422482 -0.347707 2.481660 0.022007 -0.009731 -691409.000000 0 0 1
-23.379063 7.440245 -30.227132 38.930930 -0.308109 2.459777 0.022318 -0.013254 -120414.000000 0 0 1
-22.531163 6.685845 -29.372272 37.617605 -0.288461 2.466761 0.013347 -0.005739 -219321.000000 0 0 1
-23.283163 5.827045 -28.330722 37.130714 -0.245231 2.438737 0.014209 -0.001006 -64203.900000 0 0 1
-23.939163 4.732645 -28.951232 37.863641 -0.195178 2.441245 0.031245 -0.001848 29881.200000 0 0 1
-24.235863 3.796045 -27.947142 37.186419 -0.155367 2.421192 0.047161 0.001676 -356874.000000 0 0 1
-24.832163 2.495045 -28.618662 37.972219 -0.100140 2.424430 0.048200 0.008122 1279510.000000 0 0 1
-26.229233 2.490445 -28.982672 39.168486 -0.094665 2.403791 0.065861 -0.003512 1228090.000000 0 0 1
-26.530533 3.416145 -30.068002 40.244552 -0.128058 2.414533 0.064207 -0.014434 -447574.000000 0 0 1
-28.003423 3.408145 -30.509272 41.552651 -0.121109 2.395331 0.080523 -0.028195 -316932.000000 0 0 1
-29.059723 3.788845 -29.661222 41.696654 -0.129650 2.362224 0.070150 -0.028072 355060.000000 0 0 1
-30.301643 3.745945 -30.343042 43.045579 -0.122998 2.353085 0.080226 -0.034317 275769.000000 0 0 1
-30.795573 5.082845 -30.898232 43.919283 -0.163576 2.351139 0.079905 -0.042297 -443287.000000 0 0 1
-30.041433 5.366045 -32.094472 44.286988 -0.176757 2.381385 0.078903 -0.039473 577480.000000 0 0 1
-30.375183 6.578745 -32.741492 45.143515 -0.213289 2.382231 0.083952 -0.034841 -880127.000000 0 0 1
-29.906223 7.931745 -32.143282 44.614856 -0.259252 2.375264 0.049116 -0.029614 -951281.000000 0 0 1
-28.510653 8.004445 -32.093822 43.668546 -0.273707 2.396377 0.037662 -0.023815 -166850.000000 0 0 1
-27.955113 7.672745 -30.788332 42.288069 -0.267870 2.386287 0.018711 -0.028910 -702213.000000 0 0 1
-28.099263 8.702745 -29.626042 41.749356 -0.300345 2.359750 0.005172 -0.016530 -990390.000000 0 0 1
-29.333113 8.908745 -29.038262 42.225797 -0.294857 2.329099 0.015645 -0.018163 -383216.000000 0 0 1
-29.829373 7.760345 -28.322882 41.859289 -0.254516 2.313961 0.023063 -0.000825 131466.000000 0 0 1
-30.973173 8.096945 -27.268632 42.053255 -0.255696 2.276318 0.010664 -0.005327 328249.000000 0 0 1
-30.664553 8.896545 -26.116102 41.249413 -0.282372 2.256382 -0.013422 0.002397 -56321.100000 0 0 1
-30.466463 8.152445 -24.930312 40.201843 -0.261462 2.239703 -0.013804 0.011373 -88273.200000 0 0 1
-30.079713 8.976445 -23.652512 39.304033 -0.290008 2.216528 -0.011845 0.013905 123507.000000 0 0 1
-31.008453 9.920945 -23.106712 39.923294 -0.309651 2.188025 -0.009458 0.017602 620609.000000 0 0 1
-30.237883 10.812245 -22.286012 39.088368 -0.343405 2.177478 -0.003280 0.013007 429476.000000 0 0 1
-31.061733 11.809545 -21.406612 39.528972 -0.363318 2.143067 -0.005398 0.011854 104847.000000 0 0 1
-31.714553 11.198545 -20.293112 39.281429 -0.339438 2.113681 -0.011534 0.010769 325730.000000 0 0 1
-32.437923 12.138745 -19.500612 39.747224 -0.358082 2.083593 -0.011277 0.006771 -54477.100000 0 0 1
-31.593373 13.040145 -18.561812 38.893797 -0.391449 2.068312 -0.004090 0.010032 -398425.000000 0 0 1
-30.919353 12.365045 -17.530112 37.632506 -0.380431 2.055362 0.013812 0.008998 -57885.000000 0 0 1
-31.670643 11.971845 -16.420112 37.629440 -0.361408 2.022349 0.011448 0.011589 -491310.000000 0 0 1
-32.160523 13.104345 -15.473612 38.019150 -0.386927 1.989958 0.011486 0.003198 229728.000000 0 0 1
-33.116203 13.910945 -16.174712 39.393129 -0.397683 1.993905 0.003466 0.005269 298168.000000 0 0 1
-33.609913 14.951445 -15.380612 39.871483 -0.418565 1.966822 0.001811 0.002219 -149927.000000 0 0 1
-34.241378 16.070045 -16.232212 41.160697 -0.438801 1.976170 -0.001574 0.002251 -583637.000000 0 0 1
-35.525969 15.707645 -16.640412 42.257874 -0.416303 1.975539 -0.008957 0.005385 -546638.000000 0 0 1
35.537830 16.794845 -17.236512 42.919710 0.441481 1.984058 -0.010525 0.005129 -832370.000000 0 0 1
35.205820 16.444745 -18.731012 43.136182 0.436985 2.019979 -0.015725 0.006316 -137843.000000 0 0 1
34.052440 15.680445 -18.951912 42.007380 0.431534 2.038857 0.007714 -0.002042 345297.000000 0 0 1
32.792930 16.338345 -18.852612 41.203625 0.462229 2.046031 0.034624 -0.007961 446871.000000 0 0 1
31.663580 15.263445 -19.162112 40.034255 0.449185 2.069905 0.048960 -0.014287 333015.000000 0 0 1
31.385110 15.021745 -20.601512 40.436373 0.446403 2.105376 0.046965 -0.012927 232244.000000 0 0 1
30.635110 13.860045 -20.867912 39.573736 0.424868 2.126236 0.027837 -0.012966 -439560.000000 0 0 1
31.247560 12.482245 -20.585412 39.445857 0.380043 2.119832 0.023546 0.002959 -272531.000000 0 0 1
31.239830 12.157945 -19.242812 38.652664 0.371145 2.091902 0.023112 0.003657 -21418.800000 0 0 1
31.913110 10.950245 -19.071212 38.756491 0.330539 2.085271 0.015259 0.007570 -307326.000000 0 0 1
32.141260 10.631645 -17.552512 38.133753 0.319450 2.049116 0.012010 0.016145 -110234.000000 0 0 1
30.959070 10.377945 -16.801612 36.721382 0.323443 2.046026 0.012271 0.009194 267214.000000 0 0 1
31.238190 10.013345 -15.431012 36.252003 0.310200 2.010487 -0.005789 0.005066 -350725.000000 0 0 1
30.939370 11.086045 -14.387312 35.876730 0.344063 1.983427 0.003606 0.001558 -371083.000000 0 0 1
29.556250 11.221645 -14.172812 34.646296 0.362859 1.992233 0.005751 0.009077 -15261.100000 0 0 1
29.287840 12.370145 -13.356012 34.484505 0.399636 1.968503 0.004366 0.006513 396135.000000 0 0 1
27.756560 12.583945 -13.156612 33.194559 0.425651 1.978332 0.028074 0.005148 537903.000000 0 0 1
27.038170 11.539845 -12.478212 31.936443 0.403393 1.972210 0.008393 0.008537 756016.000000 0 0 1
25.652070 11.463045 -12.812812 30.880386 0.420245 1.998648 0.004906 0.009191 508544.000000 0 0 1
25.313470 10.644145 -14.093612 30.865830 0.398047 2.044976 0.008993 0.009905 -586893.000000 0 0 1
25.619970 9.257145 -13.947912 30.604278 0.346728 2.044011 0.008629 0.008929 1288910.000000 0 0 1
26.905870 8.986245 -14.557312 31.884068 0.322340 2.044933 0.016366 0.003721 899668.000000 0 0 1
27.681810 7.706445 -14.113612 32.013527 0.271519 2.027357 0.021150 0.010044 -213342.000000 0 0 1
26.987180 6.492345 -14.350012 31.247100 0.236085 2.047939 0.015966 0.000156 380700.000000 0 0 1
26.252470 6.085245 -13.209212 30.011759 0.227774 2.026545 0.020597 0.001352 -90270.900000 0 0 1
25.676770 4.644645 -13.446212 29.354214 0.178954 2.046616 0.029628 0.000375 73622.200000 0 0 1
24.989070 4.147245 -12.291012 28.155323 0.164463 2.022549 0.025393 -0.003754 339590.000000 0 0 1
24.749570 2.768845 -12.453212 27.844034 0.111411 2.034483 0.021173 -0.005604 293906.000000 0 0 1
23.871170 2.234845 -11.254812 26.485809 0.093349 2.009689 0.019958 -0.008770 632707.000000 0 0 1
24.679470 2.013345 -10.067912 26.729995 0.081399 1.956976 0.024360 -0.008370 947529.000000 0 0 1
23.904170 2.090745 -8.882912 25.586846 0.087242 1.925345 0.027178 -0.007063 -533940.000000 0 0 1
24.556670 1.470445 -7.637012 25.758808 0.059808 1.871803 0.038010 -0.009580 -575289.000000 0 0 1
24.505270 0.085345 -7.338912 25.580758 0.003483 1.861777 0.017501 -0.016177 514452.000000 0 0 1
25.291370 -0.728955 -8.201112 26.597801 -0.028814 1.884242 0.023333 -0.014525 -309077.000000 0 0 1
25.338470 -2.239355 -7.677812 26.570690 -0.088149 1.863935 0.033068 -0.020297 -237287.000000 0 0 1
26.158970 -2.385655 -6.521612 27.065005 -0.090947 1.814152 0.042852 -0.026689 677364.000000 0 0 1
26.350770 -3.796855 -6.255712 27.348000 -0.143104 1.801584 0.043256 -0.028285 -536132.000000 0 0 1
27.649330 -4.115255 -5.500612 28.489954 -0.147753 1.765088 0.053400 -0.019740 -742142.000000 0 0 1
28.772230 -4.082755 -6.313112 29.738283 -0.140958 1.784713 0.062101 -0.020027 583830.000000 0 0 1
29.974220 -4.459555 -5.582612 30.814072 -0.147696 1.752973 0.077301 -0.017246 1788420.000000 0 0 1
31.214040 -4.767855 -6.535412 32.245315 -0.151576 1.774888 0.095387 -0.018317 645314.000000 0 0 1
30.958290 -5.935655 -7.325112 32.362092 -0.189432 1.799124 0.094812 -0.023961 167493.000000 0 0 1
31.705690 -6.029355 -8.522712 33.380241 -0.187923 1.828977 0.089756 -0.030533 -602022.000000 0 0 1
30.916730 -6.831955 -9.610412 33.088968 -0.217484 1.865485 0.072885 -0.029493 625302.000000 0 0 1
29.716010 -6.176055 -10.023712 31.963412 -0.204919 1.889778 0.056753 -0.024703 457240.000000 0 0 1
28.635070 -6.649955 -9.247212 30.817204 -0.228186 1.875559 0.064382 -0.026916 -531008.000000 0 0 1
27.333430 -5.800655 -9.312312 29.453067 -0.209116 1.892491 0.055334 -0.019433 -817726.000000 0 0 1
26.718430 -5.764055 -10.570012 29.305699 -0.212477 1.939794 0.031970 -0.016246 -157755.000000 0 0 1
25.461470 -5.164255 -10.420412 27.991802 -0.200112 1.952246 0.020019 -0.008604 -105161.000000 0 0 1
24.328870 -6.181355 -10.108912 27.060916 -0.248810 1.953642 0.043108 -0.004839 -1256280.000000 0 0 1
24.250170 -6.616355 -8.745012 26.614322 -0.266355 1.905599 0.044336 -0.015127 943689.000000 0 0 1
22.993070 -7.074655 -8.229312 25.425452 -0.298494 1.900396 0.028742 -0.017105 176559.000000 0 0 1
22.131070 -5.938755 -7.618412 24.147324 -0.262168 1.891777 0.031308 -0.011277 -354241.000000 0 1 0
21.693870 -5.003455 -8.539912 23.845097 -0.226675 1.937073 0.039485 -0.006308 339752.000000 0 1 0
21.544770 -3.725755 -7.975312 23.273675 -0.171237 1.920559 0.035439 -0.014816 -225838.000000 0 1 0
21.433870 -2.704455 -9.068912 23.430109 -0.125513 1.968240 0.039149 -0.012198 633165.000000 0 1 0
22.614370 -2.829255 -9.908912 24.851578 -0.124462 1.980921 0.028388 -0.006956 1436280.000000 0 1 0
22.515270 -2.017255 -11.095112 25.181505 -0.089356 2.027070 0.036578 -0.003876 -63829.800000 0 0 1
23.826870 -1.999755 -11.908512 26.712009 -0.083732 2.032877 0.028541 -0.009576 134632.000000 0 0 1
24.970770 -1.437655 -11.295812 27.444518 -0.057510 1.994991 0.017550 -0.010192 675750.000000 0 0 1
26.098470 -1.522955 -12.149512 28.828114 -0.058288 2.005836 0.017406 -0.007267 312716.000000 0 0 1
27.315370 -0.703855 -11.630312 29.696616 -0.025762 1.973207 0.018991 -0.006721 529991.000000 0 0 1
28.570130 -0.809355 -12.318812 31.123311 -0.028321 1.977742 0.028198 -0.008156 660153.000000 0 0 1
29.444670 0.193545 -11.931112 31.770702 0.006573 1.955774 0.041786 -0.010914 -431612.000000 0 0 1
29.280290 1.537545 -12.752712 31.973913 0.052463 1.981056 0.039693 -0.008505 -371886.000000 0 0 1
29.461210 1.288545 -14.145412 32.706512 0.043709 2.018055 0.022484 -0.007679 402032.000000 0 0 1
29.424740 2.473145 -14.909312 33.078987 0.083853 2.038366 0.023438 -0.007165 -224919.000000 0 0 1
29.718770 2.276445 -16.393412 34.016635 0.076450 2.073645 0.026262 -0.013271 -521353.000000 0 0 1
28.706540 1.652945 -17.099912 33.454516 0.057517 2.107306 0.026788 -0.009999 -673147.000000 0 0 1
29.139770 1.438145 -18.380812 34.482586 0.049313 2.132993 0.021126 -0.014251 -357852.000000 0 0 1
28.131840 0.762645 -19.326512 34.139363 0.027103 2.172571 0.026839 -0.007451 -208628.000000 0 0 1
28.038220 -0.630555 -19.093912 33.928113 -0.022485 2.168536 0.036486 -0.005771 194349.000000 0 0 1
27.583280 -1.140855 -20.336412 34.288607 -0.041337 2.205694 0.031725 -0.008331 -162204.000000 0 0 1
27.414120 -2.659355 -20.284012 34.205954 -0.096704 2.205572 0.023798 -0.002243 -343099.000000 0 0 1
26.137870 -3.027655 -19.831812 32.949290 -0.115320 2.216661 0.030110 -0.004745 -46531.200000 0 0 1
25.838370 -4.412555 -19.792312 32.845512 -0.169144 2.217536 0.037553 -0.008528 -317190.000000 0 0 1
26.515270 -5.286055 -18.696712 32.872009 -0.196779 2.175810 0.021100 -0.007492 497708.000000 0 0 1
27.939130 -5.282855 -18.882712 34.132981 -0.186878 2.157009 0.009875 -0.006663 1055980.000000 0 0 1
28.598120 -5.773055 -17.680412 34.114185 -0.199191 2.115625 0.002916 -0.001405 439181.000000 0 0 1
30.134360 -5.582755 -17.644912 35.363678 -0.183185 2.093190 0.020486 0.008689 55587.200000 0 0 1
30.862960 -6.442055 -18.483512 36.546718 -0.205776 2.101048 0.016213 0.007268 -308574.000000 0 0 1
32.161760 -5.921155 -18.618712 37.631042 -0.182067 2.088367 0.024834 0.010105 -592372.000000 0 0 1
33.049430 -6.868355 -19.409012 38.937757 -0.204904 2.092621 0.024431 0.012850 -573928.000000 0 0 1
33.402180 -7.944855 -18.586612 39.042138 -0.233515 2.066972 0.028740 0.007354 30144.900000 0 0 1
33.844700 -9.049655 -19.324912 40.010151 -0.261275 2.074874 0.021386 0.012333 98578.500000 0 0 1
34.595180 -10.109255 -18.394512 40.464572 -0.284300 2.042700 0.024544 0.006981 111361.000000 0 0 1
33.721430 -10.752955 -17.486012 39.478114 -0.308683 2.029660 0.019671 0.000482 363932.000000 0 0 1
34.394250 -11.563855 -16.551912 39.882991 -0.324342 1.998752 0.035992 -0.012347 -64687.600000 0 0 1
35.391310 -10.933855 -15.475112 40.144403 -0.299640 1.966531 0.043183 -0.011761 376618.000000 0 0 1
-35.779244 -11.769455 -14.445612 40.340427 0.317797 1.937021 0.031120 -0.011795 647257.000000 0 0 1
-35.047862 -12.917955 -14.914012 40.220070 0.353131 1.950678 0.029518 -0.007576 133778.000000 0 0 1
-33.538983 -12.766755 -15.277012 39.003083 0.363719 1.973261 0.029214 -0.010679 194027.000000 0 0 1
-33.431723 -12.212355 -16.542312 39.248819 0.350233 2.005865 0.023836 -0.006385 -72908.900000 0 0 1
-32.147943 -12.410655 -17.091112 38.465838 0.368421 2.031211 0.046653 -0.010193 21963.500000 0 0 1
-31.849083 -11.474555 -18.273012 38.469891 0.345803 2.065755 0.052922 -0.007203 57973.200000 0 0 1
-31.907773 -10.160455 -17.823112 37.934208 0.308280 2.059909 0.055440 -0.003341 124119.000000 0 0 1
-32.880603 -9.427455 -18.539512 38.906612 0.279227 2.067481 0.041087 0.004305 -78836.800000 0 0 1
-33.357413 -8.106455 -17.832412 38.683673 0.238397 2.049896 0.038632 -0.000414 499175.000000 0 0 1
-34.429138 -7.447055 -18.530212 39.801921 0.213019 2.055064 0.039603 -0.002833 759759.000000 0 0 1
-35.083566 -6.494155 -17.673512 39.816877 0.183034 2.030709 0.035780 0.001417 99340.200000 0 0 1
23.988437 27.638445 -26.856152 45.393630 0.855980 2.203873 0.026341 0.004643 98142.300000 0 0 1
24.809437 27.099645 -25.819112 44.905740 0.829489 2.183355 0.033892 -0.000058 357359.000000 0 0 1
25.847037 26.322445 -26.419202 45.375265 0.794511 2.192275 0.034710 -0.005601 120983.000000 0 0 1
26.444937 25.314745 -25.418952 44.567860 0.763566 2.177719 0.031649 -0.004591 -308182.000000 0 0 1
27.163337 25.820345 -24.308412 44.670303 0.760056 2.146200 0.039013 0.003092 171045.000000 0 0 1
27.274937 24.897445 -23.276112 43.652977 0.739860 2.133184 0.039023 0.007356 260008.000000 0 0 1
28.153737 25.353145 -22.081412 43.852065 0.733105 2.098491 0.025866 0.012031 250728.000000 0 0 1
27.464837 26.386445 -21.388712 43.681103 0.765375 2.082491 0.025749 0.015800 339447.000000 0 0 1
28.283737 26.957045 -20.411012 44.082440 0.761386 2.052195 0.016918 0.017753 -66191.800000 0 0 1
27.575137 28.176745 -19.819712 44.126388 0.796189 2.036619 0.027472 0.015124 -136633.000000 0 0 1
26.484937 27.801945 -19.026312 42.853245 0.809654 2.030840 0.027611 0.008584 -195076.000000 0 0 1
25.711537 28.864845 -18.556612 42.879019 0.843112 2.018356 0.032511 0.008758 106796.000000 0 0 1
24.691737 28.500645 -17.454512 41.552721 0.856882 2.004304 0.033370 0.006593 322769.000000 0 0 1
23.657437 27.647845 -17.929212 40.565186 0.863020 2.028607 0.033545 0.002960 908382.000000 0 0 1
22.472037 27.650345 -17.124712 39.532136 0.888346 2.018819 0.036363 0.002082 798583.000000 0 0 1
21.391137 26.589845 -17.389312 38.301289 0.893326 2.042061 0.029728 0.000320 38501.800000 0 0 1
20.703537 26.779545 -18.618612 38.632023 0.912668 2.073673 0.029410 0.002389 -3264.050000 0 0 1
19.751837 25.742845 -18.823712 37.512148 0.916331 2.096478 0.024763 0.002678 155288.000000 0 0 1
19.034037 26.041045 -20.177712 38.046953 0.939616 2.129795 0.014360 0.007098 92542.300000 0 0 1
18.113937 27.102745 -20.102212 38.298465 0.981634 2.123374 0.006006 0.004728 -622416.000000 0 0 1
17.298437 27.226545 -21.217512 38.609630 1.004788 2.152609 0.001060 0.009409 -6003.620000 0 0 1
16.140937 28.254245 -20.967712 38.710169 1.051766 2.143206 -0.000178 0.008789 211767.000000 0 0 1
15.264537 27.761745 -19.967512 37.448927 1.068075 2.133167 0.008821 0.005237 178762.000000 0 0 1
14.336337 28.762845 -19.502112 37.592076 1.108403 2.116223 0.010097 -0.003057 410871.000000 0 0 1
13.871337 28.424945 -18.061612 36.422703 1.116796 2.089654 0.022640 -0.011437 41355.700000 0 0 1
12.953137 27.353045 -17.935612 35.180378 1.128529 2.105770 0.025996 -0.004638 -181049.000000 0 0 1
12.419237 27.411145 -16.633912 34.384522 1.145390 2.075744 0.037234 -0.005624 -180028.000000 0 0 1
11.474437 26.284045 -16.281612 32.978851 1.159179 2.087134 0.048332 -0.005027 -458231.000000 0 0 1
12.202637 25.092345 -16.301312 32.315057 1.118161 2.099541 0.042095 -0.005039 15290.400000 0 0 1
11.416737 23.954345 -15.951612 30.961370 1.126040 2.112049 0.051431 -0.005308 322264.000000 0 0 1
12.221737 22.615245 -16.072612 30.317471 1.075338 2.129566 0.040131 -0.003910 -34508.700000 0 0 1
12.585837 22.498545 -17.438912 31.124002 1.060760 2.165549 0.032964 0.001925 -1263710.000000 0 0 1
13.662037 21.660145 -17.482612 31.007336 1.008076 2.169802 0.033381 0.003147 -993663.000000 0 0 1
13.343537 20.154345 -17.605912 29.903440 0.985984 2.200319 0.052629 -0.002845 -205700.000000 0 0 1
12.636837 19.644145 -16.497412 28.596271 0.999154 2.185734 0.054805 -0.006349 -201948.000000 0 0 1
12.120937 18.335245 -16.715012 27.613221 0.986676 2.220972 0.048019 -0.006817 95620.100000 0 0 1
13.092937 17.124345 -16.902812 27.392942 0.918029 2.235785 0.049581 -0.010570 -202406.000000 0 0 1
13.802637 16.736245 -15.777512 26.824328 0.881166 2.199602 0.042202 -0.012440 185158.000000 0 0 1
14.854937 15.834245 -16.173012 27.073212 0.817298 2.211027 0.053065 -0.013527 -213394.000000 0 0 1
15.475337 15.031045 -14.948112 26.246227 0.770835 2.176735 0.083826 -0.005206 -459865.000000 0 0 1
16.176837 15.800845 -14.017812 26.605560 0.773641 2.125716 0.031860 0.000727 638713.000000 0 0 1
17.432437 16.370545 -14.376112 27.902638 0.753994 2.112065 0.015874 -0.003207 -16591.400000 0 0 1
18.631337 15.518845 -14.877312 28.448123 0.694508 2.121120 0.013770 -0.010783 -334465.000000 0 0 1
19.273237 14.619245 -13.972812 27.935989 0.648935 2.094594 0.050254 -0.010512 488517.000000 0 0 1
19.995237 15.237945 -12.945112 28.276853 0.651187 2.046314 0.040259 -0.011029 -1110920.000000 0 0 1
20.497737 14.157145 -11.967212 27.636862 0.604436 2.018633 0.043035 -0.007445 -1032630.000000 0 0 1
19.539137 13.442445 -11.266812 26.256776 0.602610 2.014294 0.072263 -0.009395 -209714.000000 0 0 1
20.024237 12.395145 -10.433012 25.757668 0.554278 1.987824 0.076899 -0.005729 -175587.000000 0 0 1
20.421337 11.064845 -11.144912 25.761810 0.496547 2.018186 0.069854 -0.007241 -205585.000000 0 0 1
21.579037 11.151845 -11.967612 27.078446 0.476990 2.028580 0.050595 0.000329 600003.000000 0 0 1
21.874837 9.914945 -12.655412 27.147267 0.425560 2.055760 0.030187 0.004332 -202713.000000 0 0 1
22.473537 8.774045 -11.826312 26.868297 0.372218 2.026572 0.031189 0.008877 -370683.000000 0 0 1
21.520937 8.047745 -11.020612 25.482756 0.357849 2.018030 0.036306 0.003191 689590.000000 0 0 1
22.069237 7.031545 -10.175912 25.299072 0.308444 1.984742 0.025789 0.004168 -1210540.000000 0 0 1
22.258737 5.663345 -10.893912 25.420507 0.249146 2.013682 0.031486 -0.005766 -650631.000000 0 0 1
21.193337 4.844945 -11.275312 24.490074 0.224745 2.049246 0.040986 -0.014696 -22934.900000 0 1 0
20.478637 5.309345 -12.424912 24.534510 0.253677 2.101831 0.014040 -0.012838 127382.000000 0 1 0
19.473937 4.259045 -12.949512 23.771066 0.215315 2.146899 0.025344 -0.024590 54849.100000 0 1 0
20.155937 3.252245 -13.672112 24.571641 0.159975 2.160865 0.033389 -0.015289 300396.000000 0 1 0
19.393237 2.097145 -13.821812 23.906864 0.107719 2.187259 0.044116 -0.013922 -570140.000000 0 1 0
20.043937 1.050845 -14.723812 24.892857 0.052379 2.203699 0.055562 -0.011387 50053.800000 0 1 0
21.161537 0.445345 -14.062512 25.411872 0.021042 2.157217 0.065349 -0.003934 515569.000000 0 0 1
22.252637 0.169545 -14.898712 26.780221 0.007619 2.160762 0.037618 -0.008928 -420696.000000 0 0 1
22.237537 -1.240455 -15.499312 27.134397 -0.055724 2.178770 0.040750 -0.008005 121759.000000 0 0 1
21.149537 -1.534455 -16.387912 26.799648 -0.072426 2.228748 0.035857 -0.004747 861155.000000 0 0 1
21.594537 -2.691155 -17.067612 27.656279 -0.123983 2.235891 0.049222 -0.012246 113787.000000 0 0 1
20.463937 -3.365655 -17.875112 27.379189 -0.163008 2.282166 0.040897 -0.011028 -185678.000000 0 0 1
19.729237 -4.191755 -17.029612 26.397373 -0.209351 2.271984 0.056100 -0.014448 632368.000000 0 0 1
18.675937 -4.943755 -17.655112 26.171250 -0.258777 2.311218 0.055201 -0.019667 739352.000000 0 0 1
18.015137 -6.140755 -16.853912 25.422597 -0.328515 2.295549 0.063811 -0.024047 70385.400000 0 0 1
19.003837 -7.090555 -16.518512 26.158805 -0.357114 2.254244 0.057354 -0.012771 505509.000000 0 0 1
18.459537 -8.263455 -15.953612 25.759600 -0.420900 2.238681 0.065697 -0.003261 -250609.000000 0 0 1
19.519937 -9.253955 -15.425912 26.544725 -0.442695 2.190912 0.080938 -0.001454 -102487.000000 0 0 1
20.197237 -9.867455 -16.529712 27.902087 -0.454450 2.204854 0.079600 -0.008785 47414.600000 0 0 1
21.064337 -10.808755 -16.007712 28.579405 -0.474097 2.165319 0.069136 -0.014727 -988495.000000 0 0 1
21.686737 -11.681355 -17.084812 29.977649 -0.494080 2.177203 0.058632 -0.012152 244575.000000 0 0 1
22.724337 -11.096655 -17.907012 30.986971 -0.454257 2.186935 0.049802 -0.007443 816770.000000 0 0 1
23.264937 -12.087955 -18.759912 32.238336 -0.479187 2.191876 0.047194 -0.004940 -336880.000000 0 0 1
22.538037 -12.187155 -20.155712 32.599734 -0.495704 2.237347 0.066672 -0.008560 944216.000000 0 0 1
21.217537 -12.752755 -20.126512 31.904438 -0.541190 2.253428 0.084579 -0.019019 681565.000000 0 0 1
21.174737 -14.145455 -20.037612 32.403230 -0.588949 2.237480 0.068792 -0.006452 -608991.000000 0 0 1
19.697237 -14.525655 -19.925512 31.559497 -0.635418 2.254106 0.071189 -0.012904 -172576.000000 0 0 1
18.960137 -14.128855 -21.053312 31.659964 -0.640414 2.298266 0.065068 -0.008939 -304543.000000 0 0 1
17.566537 -14.183155 -20.870912 30.746384 -0.679235 2.316935 0.080209 -0.010402 395944.000000 0 0 1
16.722337 -13.335555 -21.887212 30.602674 -0.673196 2.367715 0.069197 -0.009563 273375.000000 0 0 1
16.813437 -13.984155 -23.157712 31.851655 -0.693788 2.384810 0.056607 -0.002620 325257.000000 0 0 1
15.947537 -13.248955 -23.992012 31.709233 -0.693232 2.428933 0.058860 -0.010346 -36327.800000 0 0 1
15.946037 -13.971155 -25.375882 33.066671 -0.719482 2.445597 0.047442 -0.011220 -253582.000000 0 0 1
15.231937 -15.202355 -25.387142 33.281084 -0.784426 2.438444 0.058448 -0.017154 328933.000000 0 0 1
15.120237 -15.775255 -26.678312 34.484962 -0.806596 2.455333 0.058901 -0.015172 -90819.700000 0 0 1
16.002437 -17.057655 -26.870732 35.624119 -0.817306 2.425360 0.057694 -0.012389 530358.000000 0 0 1
17.390437 -16.745555 -26.773932 36.051136 -0.766509 2.407838 0.056855 -0.004311 858511.000000 0 0 1
18.219437 -17.891055 -27.088912 37.226965 -0.776305 2.385714 0.041481 -0.004839 449075.000000 0 0 1
19.734537 -17.642955 -27.170472 37.933632 -0.729498 2.369229 0.037145 -0.000029 233585.000000 0 0 1
20.349337 -17.318355 -25.896842 37.211120 -0.705105 2.340529 0.046176 -0.002134 131423.000000 0 0 1
21.688837 -16.928355 -26.104582 37.926562 -0.662743 2.329929 0.044680 0.002794 3978.260000 0 0 1
22.436337 -16.305855 -24.909412 37.279337 -0.628462 2.302560 0.046066 0.004505 -86959.200000 0 0 1
22.161037 -14.936355 -24.564812 36.299260 -0.593057 2.314109 0.061638 -0.000490 107301.000000 0 0 1
20.822337 -14.514155 -24.315512 35.149318 -0.608742 2.334744 0.073231 -0.001292 313065.000000 0 0 1
20.804137 -13.205355 -23.591112 34.113548 -0.565577 2.334424 0.076940 -0.004829 27562.700000 0 0 1
20.981737 -12.087955 -24.424512 34.393441 -0.522674 2.360508 0.083495 -0.016315 181147.000000 0 0 1
20.558637 -10.984455 -23.703412 33.244061 -0.490709 2.364581 0.086085 -0.017917 -15120.000000 0 0 1
20.658737 -9.709555 -24.600912 33.559854 -0.439359 2.393586 0.099213 -0.017235 -226162.000000 0 0 1
20.132237 -8.633955 -23.931212 32.443106 -0.405137 2.400359 0.104184 -0.022904 -31643.000000 0 0 1
20.053137 -7.472655 -24.769212 32.733512 -0.356702 2.429036 0.084339 -0.022669 -174482.000000 0 0 1
19.352737 -6.316855 -23.995312 31.467541 -0.315503 2.438029 0.097654 -0.027630 987590.000000 0 0 1
18.015437 -6.748555 -23.624912 30.466957 -0.358419 2.458188 0.091590 -0.019089 1019590.000000 0 0 1
17.389737 -5.853355 -22.703312 29.190840 -0.324686 2.461882 0.070470 -0.019122 -144672.000000 0 0 1
17.993637 -5.794255 -21.274112 28.459309 -0.311531 2.415128 0.082031 -0.019994 -660530.000000 0 0 1
17.770137 -6.859155 -20.344012 27.869421 -0.368374 2.389083 0.085288 -0.016685 267999.000000 0 0 1
18.130837 -8.170155 -20.752012 28.742386 -0.423371 2.377485 0.092642 -0.018917 -238180.000000 0 0 1
17.897537 -9.301555 -19.715512 28.205358 -0.479292 2.344793 0.080197 -0.015526 -45769.000000 0 0 1
16.507337 -9.451455 -19.545912 27.273887 -0.519999 2.369788 0.069259 -0.013062 -232787.000000 0 0 1
16.137537 -10.697355 -18.920312 27.070865 -0.585381 2.344680 0.071967 -0.008277 -329095.000000 0 0 1
14.635637 -10.861055 -18.601212 26.041688 -0.638424 2.366400 0.070790 -0.013591 164673.000000 0 0 1
13.978337 -10.074655 -17.587912 24.621683 -0.624506 2.366457 0.065223 -0.014859 507578.000000 0 1 0
14.130337 -8.699355 -17.812312 24.343864 -0.551848 2.391603 0.061912 -0.022359 -1771520.000000 0 1 0
13.131037 -7.821255 -17.122312 22.951465 -0.537201 2.412866 0.063244 -0.015026 -784162.000000 0 1 0
11.886537 -7.908155 -17.791712 22.811702 -0.587058 2.465363 0.046319 -0.021771 -437589.000000 0 1 0
11.229737 -6.728055 -17.575512 21.915117 -0.539778 2.501401 0.041302 -0.015778 -613748.000000 0 1 0
9.737137 -6.842555 -17.948212 21.535337 -0.612554 2.556083 0.039957 -0.013988 -115478.000000 0 1 0
9.428337 -6.541255 -19.298612 22.452573 -0.606544 2.605142 0.030628 -0.019237 910133.000000 0 1 0
8.005737 -6.325555 -19.428412 21.944651 -0.668692 2.658015 0.030393 -0.026980 972005.000000 0 1 0
7.480637 -5.947155 -20.796412 22.887100 -0.671689 2.710841 0.026173 -0.034495 -141279.000000 0 1 0
7.343437 -7.049955 -21.646412 23.920600 -0.765011 2.702006 0.028787 -0.032259 -135122.000000 0 1 0
6.747237 -6.643955 -22.858612 24.742343 -0.777686 2.748859 0.041859 -0.033029 -114626.000000 0 1 0
6.723437 -7.754255 -23.926312 26.034622 -0.856479 2.736381 0.033474 -0.025027 -390326.000000 0 0 1
5.964137 -8.877255 -23.572512 25.885130 -0.979217 2.715671 0.034571 -0.024482 -55201.200000 0 0 1
6.044037 -9.800555 -24.631812 27.190209 -1.018185 2.704314 0.039255 -0.012636 83035.000000 0 0 1
5.079537 -11.015555 -24.520512 27.356895 -1.138730 2.682194 0.030730 -0.009389 209009.000000 0 0 1
5.433037 -11.931555 -23.450712 26.866630 -1.143502 2.631822 0.028810 -0.014755 -22480.500000 0 0 1
4.684137 -13.130655 -23.480712 27.307492 -1.228136 2.605798 0.040395 -0.011087 -749363.000000 0 0 1
5.323537 -14.270455 -22.688512 27.326810 -1.213740 2.550381 0.047095 -0.008284 1019440.000000 0 0 1
6.464337 -14.943655 -23.342512 28.460031 -1.162522 2.532532 0.050748 -0.004760 1910140.000000 0 0 1
7.703637 -14.230155 -23.526412 28.554079 -1.074611 2.539099 0.053339 -0.009589 1304430.000000 0 0 1
8.505337 -13.763355 -22.204812 27.474068 -1.017268 2.511902 0.047553 -0.007205 212704.000000 0 0 1
9.042537 -14.686355 -21.225912 27.349513 -1.018905 2.459251 0.053125 -0.003284 914971.000000 0 0 1
7.977437 -15.148655 -20.385612 26.621316 -1.086088 2.443023 0.042373 -0.004733 454274.000000 0 0 1
8.509637 -15.645055 -19.045212 26.074927 -1.072634 2.389709 0.043742 -0.004414 34307.400000 0 0 1
9.298937 -16.787355 -19.265012 27.192393 -1.064945 2.358125 0.065520 -0.011602 -464407.000000 0 0 1
9.989637 -17.119355 -18.072012 26.822804 -1.042576 2.310076 0.073471 -0.008989 -406136.000000 0 0 1
9.228037 -17.853755 -16.937412 26.282869 -1.093745 2.271071 0.040967 -0.008936 -690239.000000 0 0 1
9.045137 -19.257755 -17.119312 27.308360 -1.131691 2.248350 0.035946 -0.012888 509641.000000 0 0 1
8.048237 -19.631255 -18.074512 27.871999 -1.181724 2.276386 0.043542 -0.008814 146837.000000 0 0 1
6.539837 -19.457355 -17.807812 27.174921 -1.246548 2.285380 0.031634 -0.001223 -209218.000000 0 0 1
6.143837 -18.116655 -17.733512 26.085195 -1.243841 2.318328 0.030131 0.001090 -8729.140000 0 0 1
4.731537 -18.007255 -17.848512 25.791822 -1.313847 2.335083 0.022491 0.002623 533190.000000 0 0 1
4.145637 -16.605855 -17.547112 24.512077 -1.326148 2.368645 -0.006041 0.013656 -306029.000000 0 1 0
4.297937 -16.322155 -16.185112 23.384672 -1.313322 2.335225 -0.024103 0.018395 11746.700000 0 1 0
4.068237 -14.983455 -15.926212 22.241824 -1.305673 2.368921 -0.023132 0.020697 20875.300000 0 1 0
10.459837 30.146945 -17.999912 36.636639 1.236831 2.084388 0.032641 -0.017777 94085.200000 0 0 1
9.606237 29.544345 -18.986912 36.409490 1.256432 2.119384 0.056180 -0.025011 707237.000000 0 0 1
8.504437 28.881645 -18.323312 35.245122 1.284431 2.117509 0.055207 -0.019581 768651.000000 0 0 1
7.522737 28.356945 -19.425512 35.186054 1.311482 2.155653 0.062511 -0.016094 213648.000000 0 0 1
6.611737 29.319245 -19.947712 36.072765 1.348998 2.156739 0.076741 -0.029618 -296067.000000 0 0 1
5.766837 28.774845 -20.912912 36.036065 1.373004 2.189934 0.065743 -0.029857 188560.000000 0 0 1
4.707537 29.798945 -21.416012 36.997075 1.414115 2.188122 0.060578 -0.039911 306546.000000 0 0 1
3.557337 29.886645 -20.611612 36.478826 1.452326 2.171265 0.066814 -0.035968 -996174.000000 0 0 1
2.602137 30.752945 -21.088812 37.379844 1.486383 2.170231 0.059575 -0.038252 -734331.000000 0 0 1
1.215937 30.355645 -20.517412 36.659349 1.530761 2.164793 0.057861 -0.027415 -157549.000000 0 0 1
0.777837 29.062045 -20.958012 35.839165 1.544038 2.195405 0.054984 -0.043018 -23478.200000 0 0 1
0.389837 28.885945 -22.304812 36.497321 1.557301 2.228291 0.063911 -0.045455 -440397.000000 0 0 1
-0.195763 27.493245 -22.621412 35.604004 -1.563676 2.259273 0.062439 -0.043153 -577667.000000 0 0 1
-1.252963 27.174745 -21.800012 34.860826 -1.524721 2.246369 0.066832 -0.044937 -965658.000000 0 0 1
-1.860963 26.046545 -22.367512 34.383009 -1.499470 2.279091 0.059189 -0.045721 -232485.000000 0 0 1
-2.976163 25.468645 -21.468112 33.442327 -1.454468 2.267828 0.039962 -0.040195 -8068.730000 0 0 1
-4.006963 26.423445 -21.278212 34.161623 -1.420299 2.243201 0.038907 -0.038480 243932.000000 0 0 1
-4.982163 25.937345 -20.367512 33.352711 -1.381023 2.227703 0.035814 -0.033971 465300.000000 0 0 1
-6.003763 26.948045 -19.781812 33.964134 -1.351586 2.192514 0.032481 -0.039314 964168.000000 0 0 1
-7.298763 26.407745 -19.483712 33.619280 -1.301141 2.188960 0.037650 -0.036250 137339.000000 0 0 1
-8.083363 27.397345 -18.892512 34.247369 -1.283894 2.155136 0.031508 -0.039768 -13219.100000 0 0 1
-9.413063 26.936245 -18.276312 33.884961 -1.234605 2.140477 0.047587 -0.029786 -7741.370000 0 0 1
-9.281863 26.179345 -17.088012 32.611520 -1.230075 2.122322 0.052371 -0.033955 -652496.000000 0 0 1
-10.542463 25.710745 -16.714112 32.427573 -1.181664 2.112305 0.031669 -0.025528 -491174.000000 0 0 1
-10.518763 24.713345 -15.488812 31.004791 -1.168391 2.093889 0.040011 -0.014230 17781.100000 0 0 1
-9.751263 23.512245 -15.591412 29.849705 -1.177655 2.120378 0.051744 -0.018683 -201538.000000 0 0 1
-9.819463 22.689045 -14.421812 28.621727 -1.162351 2.098877 0.054566 -0.002280 -149070.000000 0 0 1
-9.040463 21.360345 -14.367912 27.284266 -1.170421 2.125393 0.059768 0.006950 135176.000000 0 0 1
-9.673463 20.153645 -14.890012 26.859965 -1.123288 2.158387 0.057899 0.007297 129290.000000 0 0 1
-10.103963 20.143345 -16.260612 27.789421 -1.105867 2.195845 0.069214 0.005081 134115.000000 0 0 1
-8.928563 20.015945 -17.248912 27.890540 -1.151213 2.237565 0.063410 -0.004354 277018.000000 0 0 1
-8.319163 18.729145 -17.239312 26.780277 -1.152791 2.270161 0.060837 0.001299 142037.000000 0 0 1
-7.212063 18.555345 -18.105312 26.909422 -1.200088 2.308816 0.056517 -0.003476 331999.000000 0 0 1
-6.761363 17.088045 -18.273012 25.915638 -1.194021 2.353355 0.040269 -0.006949 197854.000000 0 0 1
-7.770063 16.305145 -18.896912 26.140484 -1.126092 2.378784 0.051866 -0.015159 -53232.300000 0 0 1
-7.353163 15.632045 -20.034712 26.454102 -1.131116 2.430024 0.037219 -0.013292 564220.000000 0 0 1
-6.180863 14.588845 -19.901812 25.438545 -1.170052 2.469224 0.029660 -0.009032 456036.000000 0 0 1
-6.545963 13.488445 -19.071112 24.258918 -1.118976 2.475349 0.023408 -0.010526 932821.000000 0 1 0
-5.400763 12.693345 -18.658312 23.203919 -1.168519 2.504959 0.023020 -0.006831 622553.000000 0 1 0
-4.616963 13.134245 -17.461012 22.331853 -1.232767 2.468485 0.029404 -0.005078 -452146.000000 0 1 0
-4.046363 14.407245 -17.638712 23.131492 -1.296994 2.438028 0.025284 -0.007171 -396878.000000 0 1 0
-3.755163 15.027045 -16.390412 22.551251 -1.325918 2.384458 0.036197 0.003672 310609.000000 0 1 0
-2.867063 16.325945 -16.411612 23.325898 -1.396955 2.351218 0.040863 -0.000104 679463.000000 0 1 0
-3.477363 17.538745 -16.894012 24.598928 -1.375067 2.327844 0.031313 -0.000507 -245368.000000 0 1 0
-2.500063 18.530145 -16.818812 25.149334 -1.436687 2.303333 0.037700 -0.006561 105059.000000 0 0 1
-2.994863 19.873545 -17.423312 26.598849 -1.421226 2.285032 0.044218 -0.011290 332812.000000 0 0 1
-3.098263 19.943345 -18.820012 27.595817 -1.416675 2.321274 0.054352 -0.011845 -187119.000000 0 0 1
-3.620763 21.179745 -19.351312 28.916514 -1.401479 2.303946 0.059944 -0.012781 218944.000000 0 0 1
-2.652463 22.354745 -19.488812 29.775560 -1.452695 2.284349 0.038037 -0.018387 -494333.000000 0 0 1
-1.556263 22.300945 -20.379512 30.250266 -1.501125 2.309996 0.056347 -0.013112 602541.000000 0 0 1
-0.437163 23.152545 -20.110412 30.670183 -1.551917 2.285905 0.062122 -0.023428 820526.000000 0 0 1
0.459337 22.688445 -18.930012 29.552020 1.550554 2.266031 0.072335 -0.024459 -715354.000000 0 0 1
-0.220063 22.715845 -17.685912 28.789747 -1.561109 2.232311 0.063707 -0.020624 -143575.000000 0 0 1
0.723537 22.367245 -16.691012 27.917862 1.538460 2.211627 0.077780 -0.023326 169974.000000 0 0 1
0.117937 22.265445 -15.275512 27.001948 1.565499 2.172101 0.083327 -0.020365 -153506.000000 0 0 1
-0.665463 21.120945 -15.085112 25.963393 -1.539300 2.190771 0.072327 -0.010852 -292781.000000 0 0 1
-0.729263 20.896745 -13.666512 24.979578 -1.535912 2.149701 0.084749 -0.014714 -57953.400000 0 1 0
-1.528863 19.709945 -13.156712 23.746966 -1.493383 2.158003 0.055439 -0.008220 -195562.000000 0 1 0
-0.874763 18.477745 -13.240712 22.748818 -1.523490 2.192031 0.044740 -0.010955 -351315.000000 0 1 0
-1.686063 17.505645 -12.679112 21.680643 -1.474777 2.195445 0.030446 -0.011995 -249845.000000 0 1 0
-1.262163 16.029745 -12.918812 20.626233 -1.492220 2.247632 0.016347 -0.009562 -859514.000000 0 1 0
-0.256463 15.694345 -11.988112 19.750774 -1.554457 2.223038 0.014653 -0.012481 -3040.170000 0 1 0
0.022637 14.293845 -12.024412 18.678892 1.569213 2.270176 0.013280 -0.010653 -123949.000000 0 1 0
0.777837 13.732645 -13.247712 19.096922 1.514215 2.337423 0.009438 -0.010450 -1001580.000000 0 1 0
0.237737 14.019045 -14.502612 20.172156 1.553840 2.373075 0.006002 -0.003827 -323644.000000 0 1 0
0.546137 13.008045 -15.433912 20.191908 1.528836 2.440846 0.010061 -0.008267 -456515.000000 0 1 0
-0.264863 13.033645 -16.735812 21.213992 -1.550478 2.479820 0.015875 -0.001503 -2492.590000 0 1 0
0.170037 14.107745 -17.550012 22.518000 1.558744 2.464467 0.014616 -0.004026 245.897000 0 1 0
-0.394763 13.895945 -18.819612 23.397242 -1.542395 2.505380 0.027195 -0.008477 -91152.900000 0 1 0
-1.064163 15.210445 -19.362612 24.645503 -1.500948 2.474534 0.024092 -0.002874 -78141.700000 0 1 0
-0.180763 16.293045 -19.577112 25.470754 -1.559702 2.447464 0.016008 -0.004642 69511.200000 0 0 1
-0.838863 17.520445 -19.907512 26.532597 -1.522954 2.419318 0.038668 -0.014848 -195385.000000 0 0 1
0.213137 18.575245 -20.203312 27.445564 1.559323 2.398121 0.054137 -0.018187 -1588.630000 0 0 1
0.893937 18.241945 -21.414512 28.145142 1.521831 2.435434 0.045840 -0.022781 176000.000000 0 0 1
1.493637 19.401445 -21.997912 29.369289 1.493962 2.417364 0.044498 -0.020626 -51327.900000 0 0 1
2.021537 19.249145 -23.389912 30.359581 1.466160 2.450311 0.049423 -0.031187 -226304.000000 0 0 1
3.123937 18.390945 -23.502012 30.005506 1.402540 2.470683 0.043608 -0.028122 -178030.000000 0 0 1
3.555037 18.194545 -24.849912 31.003192 1.377837 2.500642 0.042204 -0.036600 456526.000000 0 0 1
4.703837 17.174245 -25.070612 30.750876 1.303463 2.524011 0.033781 -0.029124 -775963.000000 0 0 1
5.933737 17.417945 -24.478912 30.623703 1.242459 2.497001 0.025286 -0.018967 -324469.000000 0 0 1
6.858137 16.337945 -24.493412 30.230609 1.173366 2.515322 0.023009 -0.018545 324842.000000 0 0 1
7.459437 15.961945 -25.883552 31.311103 1.133628 2.543937 0.020310 -0.022081 -877581.000000 0 0 1
8.394137 16.959345 -26.325542 32.420905 1.111192 2.518355 0.003759 -0.012677 304624.000000 0 0 1
8.569637 17.200545 -27.726002 33.734680 1.108575 2.535507 0.006145 -0.015244 -15329.700000 0 0 1
9.180737 16.043545 -28.594282 34.048704 1.051040 2.567721 0.010425 -0.018169 811425.000000 0 0 1
10.522937 15.708945 -28.175632 33.931835 0.980580 2.550549 0.019729 -0.022291 882947.000000 0 0 1
10.896237 14.351645 -28.425742 33.655914 0.921412 2.576612 0.013042 -0.019524 -39137.600000 0 0 1
10.405937 13.318045 -27.381642 32.177759 0.907537 2.588586 0.014196 -0.023531 907818.000000 0 0 1
8.995737 13.030845 -27.331072 31.586607 0.966582 2.616493 0.031055 -0.025188 732529.000000 0 0 1
8.627037 12.074945 -26.334602 30.228155 0.950433 2.628427 0.029047 -0.021702 606181.000000 0 0 1
7.090737 11.792945 -26.381252 29.754371 1.029444 2.660813 0.025152 -0.027901 435858.000000 0 0 1
6.326637 12.922845 -26.019042 29.732420 1.115527 2.636453 0.036339 -0.021144 -1039430.000000 0 0 1
5.020137 12.453945 -25.879552 29.155681 1.187624 2.662977 0.045099 -0.028000 -373043.000000 0 0 1
3.901737 13.475145 -26.174772 29.697168 1.288953 2.649592 0.056495 -0.027363 -569577.000000 0 0 1
3.567937 13.709345 -27.530712 30.961532 1.316189 2.666370 0.052419 -0.031132 445423.000000 0 0 1
4.429737 14.542845 -28.351942 32.170632 1.275126 2.649400 0.057502 -0.038509 233099.000000 0 0 1
4.079037 14.476945 -29.857962 33.432296 1.296155 2.674958 0.061021 -0.036215 -370952.000000 0 0 1
4.697237 13.412645 -30.469792 33.620995 1.233935 2.705177 0.048923 -0.032694 -241704.000000 0 0 1
4.846137 13.586445 -31.882522 34.993882 1.228175 2.716713 0.049076 -0.029717 -1065690.000000 0 0 1
6.002337 12.749245 -32.434422 35.363301 1.130781 2.731735 0.047458 -0.025851 148818.000000 0 0 1
7.317937 13.169545 -32.090112 35.450873 1.063609 2.702645 0.048859 -0.017062 434972.000000 0 0 1
7.741937 13.014445 -30.742492 34.269727 1.034155 2.683900 0.038813 -0.023605 -889166.000000 0 0 1
7.666737 11.601145 -30.052912 33.114090 0.986824 2.708225 0.040361 -0.023583 -51427.600000 0 0 1
8.696437 10.695045 -30.417582 33.395229 0.888102 2.716102 0.029272 -0.015396 107062.000000 0 0 1
8.523637 9.518845 -29.659042 32.294266 0.840501 2.734813 0.033396 -0.016607 -219661.000000 0 0 1
9.515737 8.406245 -30.060532 32.632037 0.723570 2.741942 0.027547 -0.015862 742164.000000 0 0 1
10.800237 8.650645 -29.476562 32.562962 0.675331 2.702688 0.023582 -0.016500 137538.000000 0 0 1
11.628337 7.543345 -29.320852 32.431970 0.575463 2.700001 0.004729 -0.001812 -95463.700000 0 0 1
13.069237 7.894945 -28.808912 32.605039 0.543419 2.654233 0.006006 -0.008338 671769.000000 0 0 1
13.810337 6.772445 -28.387352 32.286734 0.455930 2.645032 0.013080 -0.005555 284052.000000 0 0 1
14.372237 5.949345 -29.460712 33.315004 0.392472 2.655805 0.017865 -0.005401 -495080.000000 0 0 1
15.059437 4.679545 -29.002672 33.012722 0.301279 2.643573 0.023587 -0.011571 -515143.000000 0 0 1
16.048537 4.809745 -28.052702 32.674812 0.291181 2.603216 0.013666 -0.011750 -150682.000000 0 0 1
16.878937 3.660045 -27.952752 32.858040 0.213535 2.588136 0.032826 -0.017392 35923.800000 0 0 1
17.741837 3.772445 -26.688142 32.268577 0.209510 2.544659 0.032839 -0.015848 162357.000000 0 0 1
18.710737 4.838145 -26.664852 32.931955 0.253034 2.514429 0.048481 -0.016687 631508.000000 0 0 1
19.224637 4.947445 -25.346092 32.194538 0.251883 2.477180 0.049826 -0.014379 47529.100000 0 0 1
20.241137 6.132545 -25.227712 32.920347 0.294183 2.443899 0.042400 -0.011001 102285.000000 0 0 1
19.729637 7.434445 -25.546642 33.123413 0.360362 2.451609 0.045609 -0.009199 259411.000000 0 0 1
20.725037 8.260945 -26.122032 34.353034 0.379297 2.434724 0.043791 -0.017785 -326436.000000 0 0 1
20.832037 8.202745 -27.698552 35.615567 0.375112 2.461810 0.055938 -0.016871 140123.000000 0 0 1
19.621237 8.636545 -28.281862 35.488683 0.414644 2.492986 0.045132 -0.010934 158499.000000 0 0 1
18.649637 7.627945 -28.453522 34.865419 0.388252 2.525419 0.042033 -0.012788 -70679.700000 0 0 1
17.308037 8.163645 -29.023062 34.764226 0.440726 2.558664 0.028261 -0.007171 -89870.700000 0 0 1
17.447937 8.498945 -30.394082 36.061930 0.453277 2.573317 0.018294 -0.003541 431139.000000 0 0 1
16.403137 9.320245 -30.889122 36.194858 0.516708 2.593293 0.003495 0.000277 -86780.900000 0 0 1
15.761537 8.886145 -32.207102 36.941671 0.513366 2.629736 -0.008571 0.004918 51593.800000 0 0 1
15.058237 7.643845 -32.278742 36.429330 0.469724 2.659582 0.005951 0.000440 427460.000000 0 0 1
13.892037 7.834445 -33.059812 36.705836 0.513492 2.692103 -0.003974 0.007498 515372.000000 0 0 1
13.152337 6.508745 -33.535422 36.605632 0.459538 2.729108 -0.002477 0.003174 317759.000000 0 0 1
12.739837 5.685045 -32.489602 35.358131 0.419724 2.736009 0.009476 -0.003489 22463.800000 0 0 1
11.990437 4.593045 -32.988632 35.399386 0.365817 2.770408 0.013220 -0.003805 -35665.600000 0 0 1
11.697437 3.408345 -31.989742 34.231425 0.283526 2.777687 0.019997 -0.002992 359011.000000 0 0 1
12.843537 2.732745 -31.441082 34.072951 0.209646 2.745973 0.021315 -0.007892 408310.000000 0 0 1
12.530637 1.779045 -30.454372 32.979549 0.141033 2.747726 0.027440 -0.005745 -153649.000000 0 0 1
11.842437 0.456745 -30.950382 33.141788 0.038549 2.775904 0.025582 0.002837 237830.000000 0 0 1
12.591237 -0.553655 -31.646532 34.063893 -0.043943 2.762591 0.028048 -0.003792 614646.000000 0 0 1
13.532837 -1.300755 -30.824432 33.689394 -0.095824 2.726204 0.034872 -0.011309 823834.000000 0 0 1
13.967937 -2.634555 -31.490772 34.550151 -0.186424 2.717594 0.029150 -0.013531 338333.000000 0 0 1
12.973537 -3.644755 -31.407952 34.176840 -0.273878 2.736291 0.024955 -0.009154 315526.000000 0 0 1
13.279537 -4.600755 -32.406092 35.322343 -0.333513 2.732391 0.039245 -0.019327 -209869.000000 0 0 1
12.592837 -5.942055 -32.286842 35.161453 -0.440883 2.734423 0.041314 -0.018290 -28456.000000 0 0 1
13.056837 -6.692455 -31.125722 34.410472 -0.473648 2.701101 0.044463 -0.017772 279515.000000 0 0 1
12.761337 -8.056555 -31.288982 34.738455 -0.563135 2.692178 0.048848 -0.023130 -25820.500000 0 0 1
13.046737 -8.853155 -29.980582 33.873752 -0.596200 2.657437 0.032199 -0.023350 -578097.000000 0 0 1
14.438737 -8.946055 -29.862012 34.354750 -0.554697 2.624429 0.052189 -0.021412 -170631.000000 0 0 1
14.944137 -9.446755 -28.607282 33.629526 -0.563716 2.588035 0.060187 -0.013128 124047.000000 0 0 1
14.808337 -10.921255 -28.411092 33.848942 -0.635458 2.566882 0.037286 -0.010991 35129.500000 0 0 1
13.436637 -11.293955 -28.371842 33.362525 -0.698973 2.587561 0.027760 -0.015381 291900.000000 0 0 1
13.298837 -12.566055 -28.774992 34.099340 -0.757075 2.575229 0.037454 -0.023905 168189.000000 0 0 1
-10.167963 -2.357855 -17.759212 20.599431 0.227863 2.610238 0.014324 0.005221 203984.000000 0 1 0
-10.886263 -2.017055 -18.951412 21.948468 0.183207 2.612866 0.013398 0.007057 299094.000000 0 1 0
-11.753363 -3.054855 -19.387012 22.876406 0.254287 2.581993 0.004935 0.008506 -287403.000000 0 1 0
-12.538363 -2.642255 -20.659912 24.310986 0.207695 2.586436 0.003609 -0.002241 565891.000000 0 1 0
-13.625163 -1.715955 -20.377812 24.573254 0.125281 2.548593 0.000174 0.005018 958940.000000 0 1 0
-14.330163 -1.328555 -21.566612 25.927541 0.092446 2.553145 0.000092 0.001652 468526.000000 0 0 1
-15.086363 0.018345 -21.453412 26.226849 -0.001216 2.528712 0.008631 0.002210 436989.000000 0 0 1
-14.304463 1.132845 -21.864112 26.152254 -0.079030 2.560807 0.015628 -0.005882 424960.000000 0 0 1
-15.109763 2.241245 -21.536212 26.403344 -0.147257 2.524669 0.015841 -0.001353 364312.000000 0 0 1
-14.494763 3.567945 -22.095212 26.665086 -0.241356 2.547434 0.030478 -0.017852 -330757.000000 0 0 1
-13.327763 3.861845 -21.399912 25.504889 -0.282035 2.566334 0.031529 -0.019643 -271516.000000 0 0 1
-12.706363 5.050245 -21.942412 25.853938 -0.378313 2.584332 0.036015 -0.022993 -725595.000000 0 0 1
-11.638263 5.667145 -21.077012 24.734715 -0.453146 2.590824 0.019303 -0.023855 -942263.000000 0 1 0
-12.092563 6.137045 -19.820112 24.015209 -0.469634 2.541556 0.031850 -0.027275 376770.000000 0 1 0
-11.104063 6.472645 -18.839912 22.806526 -0.527757 2.542904 0.018284 -0.027786 -17617.700000 0 1 0
-11.727263 7.123545 -17.576812 22.298384 -0.545868 2.478764 0.039161 -0.021989 -146861.000000 0 1 0
-12.108263 8.467845 -17.715112 23.068152 -0.610286 2.446426 0.030254 -0.017396 89664.100000 0 1 0
-13.068463 8.730745 -16.729912 22.954315 -0.588979 2.387415 0.035855 -0.009303 -287513.000000 0 1 0
-13.725463 10.124145 -16.840712 23.968651 -0.635529 2.349861 0.038340 0.001983 -209438.000000 0 1 0
-12.902563 11.170145 -16.379212 23.654320 -0.713556 2.335663 0.011230 0.024456 595625.000000 0 1 0
-13.626463 12.397445 -16.522712 24.746255 -0.738207 2.301892 0.028759 0.014177 563866.000000 0 1 0
-12.883763 13.621245 -15.835712 24.541790 -0.813215 2.272153 0.033343 0.022729 210113.000000 0 1 0
-12.805463 13.461545 -14.452312 23.538530 -0.810370 2.231896 0.050255 0.018013 62999.800000 0 1 0
-12.231263 14.568545 -13.824612 23.515233 -0.872391 2.199257 0.055532 0.008334 -974547.000000 0 1 0
-12.546163 14.542645 -12.269712 22.791238 -0.858967 2.139277 0.043598 -0.003839 2064810.000000 0 1 0
-13.891363 14.914245 -11.752712 23.527237 -0.820893 2.093860 0.035443 -0.005657 1874640.000000 0 1 0
-14.845663 14.000745 -12.264212 23.808096 -0.756116 2.111953 0.037452 -0.003125 -418116.000000 0 1 0
-16.315463 14.376945 -11.873112 24.776232 -0.722322 2.070555 0.019476 0.002017 331576.000000 0 1 0
-17.252463 13.448045 -12.367612 25.128773 -0.662106 2.085376 0.019780 -0.004943 -569361.000000 0 0 1
-18.501263 13.880745 -11.881312 26.002642 -0.643667 2.045334 0.061746 -0.008673 -302603.000000 0 0 1
-19.722763 13.442845 -12.708212 27.040638 -0.598263 2.060050 0.045864 -0.008109 -177588.000000 0 0 1
-20.148563 12.135545 -12.357412 26.569563 -0.542111 2.054540 0.058345 -0.010645 594849.000000 0 0 1
-21.351363 11.732645 -13.009712 27.618622 -0.502462 2.061275 0.078659 -0.011780 117807.000000 0 0 1
-21.926963 10.503445 -12.337212 27.263911 -0.446723 2.040375 0.074094 -0.012156 -748173.000000 0 0 1
-21.157763 9.385645 -12.527512 26.318811 -0.417521 2.066887 0.073186 -0.008081 -155069.000000 0 0 1
-21.508063 8.344345 -11.642212 25.841168 -0.370087 2.038155 0.059739 -0.008183 -152933.000000 0 0 1
-20.457463 7.216645 -11.659412 24.627822 -0.339135 2.063971 0.066765 -0.012201 -88206.000000 0 1 0
-20.495163 6.409945 -12.845812 25.023069 -0.303116 2.109890 0.076569 -0.006650 -347065.000000 0 0 1
-19.331463 5.676345 -12.923712 23.936346 -0.285605 2.141138 0.064561 -0.013027 -862386.000000 0 1 0
-19.355763 4.497545 -13.911012 24.256746 -0.228311 2.181557 0.069681 -0.015450 -24955.900000 0 1 0
-20.314663 3.484145 -13.595612 24.691405 -0.169856 2.153905 0.074316 -0.018686 514752.000000 0 1 0
-20.220363 2.355245 -14.461912 24.971126 -0.115956 2.188476 0.066384 -0.021477 -454004.000000 0 1 0
-20.979863 1.104345 -14.111112 25.308056 -0.052590 2.162257 0.065206 -0.015648 -409279.000000 0 0 1
-22.207763 0.922045 -14.764712 26.683921 -0.041495 2.157140 0.062903 -0.014406 -14058.800000 0 0 1
-22.747163 -0.336855 -14.537612 26.997945 0.014808 2.139418 0.057280 -0.023116 -543760.000000 0 0 1
-23.919963 -0.790655 -15.419312 28.470071 0.033042 2.143132 0.063987 -0.011012 453703.000000 0 0 1
-25.127543 -0.264155 -14.847112 29.187325 0.010512 2.104451 0.074764 -0.021067 326587.000000 0 0 1
-26.308993 -0.751555 -15.423012 30.505692 0.028559 2.100848 0.070841 -0.010432 248373.000000 0 0 1
-27.640093 -0.324155 -14.759312 31.335557 0.011727 2.061230 0.062606 -0.017201 89435.500000 0 0 1
-27.897723 -0.869655 -13.433912 30.975946 0.031163 2.019379 0.069702 -0.017363 47061.800000 0 0 1
-29.028793 -0.310855 -12.795112 31.725106 0.010708 1.985930 0.082494 -0.019415 143177.000000 0 0 1
-29.244263 -0.996855 -11.422712 31.411765 0.034074 1.942973 0.078833 -0.022199 -269888.000000 0 0 1
-29.645943 -2.367755 -11.310412 31.818448 0.079699 1.934210 0.084750 -0.020802 15289.400000 0 0 1
-28.790043 -3.282155 -11.902912 31.326002 0.113513 1.960559 0.079403 -0.021276 -476220.000000 0 0 1
-28.763573 -4.673955 -11.231212 31.230259 0.161088 1.938663 0.087022 -0.026059 901252.000000 0 0 1
-30.091243 -5.269055 -11.340212 32.585982 0.173345 1.926243 0.078826 -0.026631 1485520.000000 0 0 1
-30.275793 -6.550255 -10.782312 32.799203 0.213069 1.905762 0.084209 -0.026622 -4647.350000 0 0 1
-29.502493 -7.701255 -11.490012 32.584149 0.255340 1.931172 0.076316 -0.020985 -104733.000000 0 0 1
-28.121333 -7.787755 -11.282612 31.285074 0.270163 1.939749 0.062716 -0.022553 -143816.000000 0 0 1
-27.490103 -8.735855 -12.139212 31.295070 0.307690 1.969143 0.080081 -0.023952 863606.000000 0 0 1
-25.948513 -8.935455 -11.945612 29.931010 0.331636 1.981337 0.079920 -0.026839 268806.000000 0 0 1
-25.144793 -7.838655 -12.291312 29.065125 0.302193 2.007427 0.064600 -0.030419 -258158.000000 0 0 1
-23.867563 -7.902855 -11.726112 27.741979 0.319751 2.007202 0.059835 -0.028521 -467587.000000 0 0 1
-23.699163 -7.524655 -10.234412 26.888919 0.307440 1.961261 0.046483 -0.021435 -555808.000000 0 0 1
-23.950663 -6.169955 -9.896812 26.639247 0.252129 1.951434 0.042080 -0.010300 -377416.000000 0 0 1
-25.282913 -5.904055 -9.601912 27.681768 0.229409 1.925026 0.058220 -0.017627 -968329.000000 0 0 1
-25.568073 -4.524355 -9.026012 27.489362 0.175140 1.905348 0.060313 -0.027918 -509968.000000 0 0 1
-25.068183 -4.376955 -7.748012 26.600812 0.172859 1.866350 0.039542 -0.018485 199575.000000 0 0 1
-25.340283 -3.071755 -7.227512 26.529277 0.120632 1.846720 0.066868 -0.024171 -98519.900000 0 0 1
-25.031263 -2.958855 -5.722312 25.846930 0.117660 1.794038 0.058814 -0.020101 550738.000000 0 0 1
-23.693563 -3.131655 -5.242112 24.467773 0.131412 1.786716 0.008363 -0.004665 540343.000000 0 1 0
-23.675063 -2.909855 -3.886712 24.167796 0.122295 1.732320 0.002014 -0.006709 707768.000000 0 1 0
-22.438163 -3.562655 -3.155312 22.937298 0.157462 1.708796 -0.002579 0.000332 664501.000000 0 1 0
-22.590863 -4.964755 -2.953712 23.317811 0.216329 1.697810 0.020708 -0.000320 -837324.000000 0 1 0
-21.385563 -5.557155 -2.756012 22.267013 0.254233 1.694886 0.017106 -0.005241 -1292780.000000 0 1 0
-21.508163 -7.068755 -2.489412 22.776425 0.317534 1.680313 0.029820 0.001539 -169494.000000 0 1 0
-22.137463 -7.427655 -1.306012 23.386812 0.323721 1.626669 0.039615 0.007662 356645.000000 0 1 0
-22.860863 -8.648055 -1.466012 24.485855 0.361653 1.630704 0.040260 0.004035 169782.000000 0 1 0
-23.031763 -9.427755 -0.164212 24.887178 0.388530 1.577395 0.026899 -0.009985 209239.000000 0 1 0
-21.845463 -10.113155 0.201288 24.073651 0.433563 1.562435 0.009522 0.002007 471949.000000 0 1 0
-22.084863 -10.934655 1.365288 24.681407 0.459736 1.515452 -0.005661 0.004070 -251829.000000 0 1 0
-20.800463 -11.514555 1.953688 23.855002 0.505582 1.488806 -0.000314 0.000241 -357572.000000 0 1 0
-20.024263 -12.202755 0.996788 23.470661 0.547302 1.528314 -0.001972 0.002284 55124.700000 0 1 0
-18.909863 -12.756555 1.644788 22.869585 0.593473 1.498814 -0.017991 0.000195 -203117.000000 0 1 0
-18.210363 -13.858855 0.803388 22.898267 0.650531 1.535704 -0.011411 0.004388 306981.000000 0 1 0
-19.092763 -14.987655 0.793788 24.285665 0.665522 1.538105 -0.002542 0.002897 776934.000000 0 1 0
-18.533963 -16.067555 0.093388 24.529224 0.714238 1.566989 -0.001338 -0.000586 77600.000000 0 1 0
-17.471363 -16.922755 0.832588 24.337653 0.769449 1.536580 0.001544 0.005690 390270.000000 0 1 0
-16.196063 -16.297655 0.899688 22.994248 0.788525 1.531660 0.004845 0.007134 327852.000000 0 1 0
-15.235863 -16.869055 1.756788 22.798747 0.836225 1.493664 0.018346 0.002230 123250.000000 0 1 0
-15.362463 -16.577355 3.296388 22.840318 0.823417 1.425967 0.032953 -0.007707 -526102.000000 0 1 0
-15.070463 -15.260355 3.592188 21.746289 0.791659 1.404849 0.020174 -0.006512 63732.700000 0 1 0
-14.226363 -15.121555 4.725288 21.292702 0.815891 1.347013 0.011184 -0.005296 -335914.000000 0 1 0
-14.599163 -15.608255 6.139188 22.236070 0.818791 1.291071 0.017952 -0.005184 -933544.000000 0 1 0
-15.472263 -14.748355 6.856288 22.448020 0.761449 1.260407 0.010039 -0.000102 417170.000000 0 1 0
-15.760363 -15.113255 8.176788 23.316504 0.764441 1.212492 0.009356 0.005973 -402436.000000 0 1 0
-16.698663 -16.324555 8.410888 24.820948 0.774070 1.225089 -0.002385 0.005104 -672389.000000 0 1 0
-16.280663 -17.674555 8.202388 25.391515 0.826426 1.241860 0.003044 0.006653 -304626.000000 0 0 1
-17.091363 -18.611555 8.857988 26.776270 0.827951 1.233629 0.006986 -0.001542 -250382.000000 0 0 1
-16.697463 -18.861455 10.328988 27.225865 0.846180 1.181669 0.008202 -0.001935 222619.000000 0 0 1
-15.415163 -19.436555 10.527388 26.948707 0.900276 1.169464 0.010895 0.001178 134054.000000 0 0 1
-15.211563 -19.812155 11.882688 27.660647 0.916007 1.126760 0.011242 -0.001568 -196897.000000 0 0 1
-13.858663 -20.487355 12.107888 27.538976 0.976051 1.115572 0.011873 0.006203 623726.000000 0 0 1
-12.692163 -19.653755 11.945488 26.268913 0.997388 1.098718 0.004486 0.005527 349857.000000 0 0 1
-11.541863 -20.348855 12.378388 26.467244 1.054844 1.084124 0.004183 0.007446 149266.000000 0 0 1
-10.347363 -19.463955 12.757788 25.469091 1.082176 1.046144 0.013033 0.002826 71459.300000 0 0 1
-9.870763 -18.758355 11.662488 24.193418 1.086404 1.067801 0.013939 -0.000423 -801258.000000 0 1 0
-8.784763 -17.964755 12.023388 23.333803 1.115988 1.029465 0.011597 -0.003582 50358.400000 0 1 0
-8.035863 -17.186455 10.867888 21.864591 1.133428 1.050596 -0.000447 -0.010294 595045.000000 0 1 0
-7.148663 -18.047255 10.147288 21.903750 1.193650 1.089118 0.014895 -0.009441 -68228.200000 0 1 0
-6.372463 -17.292655 9.252788 20.621792 1.217730 1.105498 0.020106 -0.009282 -333425.000000 0 1 0
-5.183163 -17.982855 8.598488 20.595685 1.290174 1.140115 0.019109 -0.013077 -339496.000000 0 1 0
-4.067563 -18.138855 9.431188 20.844914 1.350200 1.101291 0.036412 -0.011913 38858.800000 0 1 0
-2.979163 -18.694355 8.657088 20.815847 1.412764 1.141876 0.047094 -0.012038 487149.000000 0 1 0
-1.646763 -18.826755 9.394388 21.104811 1.483549 1.109477 0.046863 -0.023255 239861.000000 0 1 0
-0.621863 -19.279655 8.505988 21.081832 1.538553 1.155485 0.058350 -0.019066 117765.000000 0 1 0
0.612337 -19.518655 9.159488 21.569633 -1.539435 1.132224 0.065660 -0.017239 322735.000000 0 1 0
1.693637 -20.094955 8.203888 21.771068 -1.486713 1.184430 0.059274 -0.023911 153257.000000 0 1 0
1.549637 -21.462355 7.731388 22.865005 -1.498719 1.225865 0.057119 -0.019388 -196570.000000 0 1 0
1.832037 -22.424055 8.737588 24.135867 -1.489278 1.200366 0.053430 -0.016982 -42069.200000 0 1 0
1.637737 -23.886655 8.298188 25.339977 -1.502341 1.237167 0.053735 -0.010488 206687.000000 0 0 1
1.832237 -24.770155 9.357588 26.542082 -1.496961 1.210495 0.051741 -0.000238 -241531.000000 0 0 1
1.619137 -26.075505 8.966688 27.621641 -1.508782 1.240181 0.049493 -0.005766 -788398.000000 0 0 1
1.909237 -27.194745 9.939888 29.017249 -1.500705 1.221165 0.040385 -0.002127 350921.000000 0 0 1
1.078637 -27.320875 11.112488 29.514083 -1.531336 1.184765 0.041738 -0.005474 1464790.000000 0 0 1
-0.350163 -27.507575 10.876988 29.582058 1.558067 1.194274 0.029660 -0.001557 1500740.000000 0 0 1
-1.108163 -27.487615 12.233588 30.107436 1.530503 1.152361 0.029276 0.000048 169657.000000 0 0 1
-0.726863 -28.696095 12.889488 31.466381 1.545472 1.148751 0.030067 -0.001440 -59472.900000 0 0 1
-1.110463 -28.694255 14.276988 32.069079 1.532116 1.109405 0.029400 -0.004823 -215428.000000 0 0 1
-0.291063 -29.693295 15.081788 33.305207 1.560994 1.100853 0.024730 0.008655 47168.300000 0 0 1
-0.618063 -29.625235 16.450688 33.891912 1.549937 1.063991 0.026223 0.009378 -144541.000000 0 0 1
-0.089763 -30.710725 17.115888 35.158361 1.567873 1.062348 0.026727 0.007275 -157469.000000 0 0 1
-0.421663 -30.565875 18.623388 35.794987 1.557002 1.023618 0.032386 0.006081 -530020.000000 0 0 1
-1.793263 -30.720785 18.776088 36.048910 1.512490 1.022950 0.008694 0.004461 -661178.000000 0 0 1
-2.166563 -30.418695 20.119988 36.534982 1.499692 0.987588 0.030311 -0.001743 1261950.000000 0 0 1
-3.711963 -30.441305 20.485688 36.879739 1.449457 0.981865 0.048756 -0.009393 1250760.000000 0 0 1
-4.479463 -29.412975 19.840988 35.761061 1.419662 0.982649 0.033510 -0.011087 729713.000000 0 0 1
-5.815563 -29.293855 20.340088 36.134055 1.374819 0.972898 0.044867 -0.021907 792996.000000 0 0 1
-5.971563 -28.263505 21.483488 36.000355 1.362577 0.931342 0.071229 -0.029527 -381611.000000 0 0 1
-5.104563 -28.540695 22.548888 36.729827 1.393816 0.909789 0.068998 -0.028656 -53954.800000 0 0 1
-5.468363 -27.784325 23.688688 36.919177 1.376465 0.874166 0.080755 -0.032546 -12762.800000 0 0 1
-4.445263 -27.864585 24.880688 37.619730 1.412598 0.848148 0.088206 -0.029253 292110.000000 0 0 1
-4.499563 -29.063575 25.591388 38.985338 1.417198 0.854711 0.092475 -0.028569 179833.000000 0 0 1
-3.697763 -30.104065 25.053488 39.339617 1.448576 0.880389 0.078202 -0.022397 -218663.000000 0 0 1
-3.814463 -31.465275 25.779788 40.855980 1.450157 0.887965 0.080458 -0.023832 58752.600000 0 0 1
-3.347563 -31.353945 27.110688 41.584438 1.464432 0.860652 0.073016 -0.025704 94331.200000 0 0 1
-3.672763 -32.513595 27.869288 42.980464 1.458312 0.865292 0.067812 -0.030355 -155556.000000 0 0 1
-3.333263 -32.513425 29.373088 43.943279 1.468634 0.838698 0.068870 -0.027002 -462651.000000 0 0 1
-1.928963 -32.560415 29.519088 43.991796 1.511623 0.835221 0.064224 -0.028888 213470.000000 0 0 1
-1.519163 -32.388785 30.886088 44.780483 1.523927 0.809691 0.055812 -0.024106 -15192.900000 0 0 1
-28.307653 3.046545 -10.153512 30.227445 -0.107210 1.913361 0.076044 -0.012464 86397.500000 0 0 1
-29.191143 2.756645 -11.231012 31.398368 -0.094155 1.936594 0.063145 -0.023805 427833.000000 0 0 1
-29.714013 3.971045 -11.786712 32.212084 -0.132855 1.945406 0.048472 -0.021032 -289787.000000 0 0 1
-30.354743 3.763145 -13.124012 33.283800 -0.123343 1.976109 0.059953 -0.014907 -687808.000000 0 0 1
-31.408463 2.867245 -13.012712 34.118079 -0.091037 1.962109 0.064868 -0.018740 -490193.000000 0 0 1
-32.082383 2.699045 -14.197912 35.187282 -0.083931 1.986130 0.071289 -0.018800 -951915.000000 0 0 1
-33.307803 1.821345 -14.121212 36.223413 -0.054628 1.971250 0.066814 -0.017447 -503686.000000 0 0 1
-32.991163 0.469245 -13.914212 35.808411 -0.014222 1.969880 0.073702 -0.015291 567816.000000 0 0 1
-34.038723 -0.114455 -13.140812 36.487377 0.003362 1.939222 0.065917 -0.022816 503754.000000 0 0 1
-33.582593 -1.505855 -12.698012 35.934630 0.044810 1.931961 0.057539 -0.020688 51230.700000 0 0 1
-33.566613 -2.486455 -13.715712 36.345849 0.073940 1.957747 0.054272 -0.009954 200848.000000 0 0 1
-33.240613 -3.766355 -13.119412 35.933866 0.112825 1.944535 0.060808 -0.011945 105840.000000 0 0 1
-33.473543 -4.981455 -14.019812 36.631245 0.147733 1.963544 0.056892 -0.006409 29473.900000 0 0 1
-33.255243 -6.178055 -13.323712 36.353829 0.183683 1.946042 0.057827 -0.012031 67982.200000 0 0 1
-33.794503 -7.330755 -13.931512 37.281301 0.213612 1.953776 0.057140 -0.009946 -357968.000000 0 0 1
-33.411243 -8.629555 -13.180512 36.939224 0.252759 1.935654 0.056231 -0.015697 615251.000000 0 0 1
-32.068063 -9.122555 -13.302212 35.896107 0.277153 1.950425 0.052750 -0.014698 907586.000000 0 0 1
-31.671563 -9.620855 -14.544512 36.155105 0.294911 1.984803 0.047635 -0.012541 -183615.000000 0 0 1
-30.344643 -10.419355 -14.487512 35.202959 0.330754 1.994942 0.051041 -0.019342 109109.000000 0 0 1
-30.565363 -11.674755 -13.880112 35.541509 0.364859 1.972006 0.048272 -0.017618 -160096.000000 0 0 1
-29.358753 -12.357155 -13.779012 34.705862 0.398394 1.979067 0.064657 -0.024304 -668210.000000 0 0 1
-29.484903 -13.855955 -13.980112 35.451242 0.439307 1.976154 0.071516 -0.022043 -183616.000000 0 0 1
-29.576053 -14.296955 -15.313812 36.244430 0.450277 2.007015 0.065574 -0.017086 -81396.300000 0 0 1
-29.583433 -15.707455 -15.490812 36.903508 0.488103 2.003983 0.069019 -0.017389 5298.200000 0 0 1
-28.278933 -16.552855 -15.384512 36.199148 0.529572 2.009754 0.048726 -0.008792 140144.000000 0 0 1
-27.276603 -16.038455 -16.224812 35.559663 0.531544 2.044595 0.059800 -0.017427 -817654.000000 0 0 1
-26.144373 -16.861455 -16.234412 35.091210 0.572807 2.051761 0.060420 -0.020568 -810501.000000 0 0 1
-24.959463 -16.247555 -16.903812 34.244660 0.577048 2.087042 0.054443 -0.025940 -776469.000000 0 0 1
-25.187953 -15.940655 -18.286612 34.970526 0.564237 2.121064 0.070026 -0.030404 1580330.000000 0 0 1
-23.916763 -15.550955 -18.924312 34.234096 0.576524 2.156507 0.046035 -0.025346 1604530.000000 0 0 1
-24.272263 -15.228755 -20.439212 35.196863 0.560333 2.190398 0.056207 -0.025859 188876.000000 0 0 1
-24.603563 -16.336155 -21.227612 36.370549 0.586137 2.194011 0.069418 -0.031824 131990.000000 0 0 1
-25.990133 -16.410955 -21.484212 37.501705 0.563210 2.180819 0.080498 -0.034632 -117698.000000 0 0 1
-26.442283 -17.723955 -22.149512 38.780586 0.590506 2.178702 0.083409 -0.032516 -5735.930000 0 0 1
-26.053923 -17.724055 -23.545012 39.335946 0.597371 2.212501 0.084901 -0.024676 210707.000000 0 0 1
-26.630883 -18.831555 -24.166212 40.593561 0.615497 2.208462 0.070315 -0.017417 -439491.000000 0 0 1
-26.015673 -19.095955 -25.555622 41.165041 0.633194 2.240570 0.057824 -0.020201 704163.000000 0 0 1
-24.702263 -19.658755 -25.623162 40.659746 0.672192 2.252588 0.068366 -0.031415 485591.000000 0 0 1
-24.559063 -20.969055 -25.099592 40.900347 0.706708 2.231505 0.056957 -0.022717 -1476410.000000 0 0 1
-23.124963 -21.337555 -24.868512 40.106085 0.745219 2.239626 0.045652 -0.015351 -779187.000000 0 0 1
-22.266563 -21.381055 -25.989722 40.353625 0.765113 2.270576 0.033813 -0.019416 -1031900.000000 0 0 1
-20.951863 -21.618855 -25.631152 39.538733 0.801065 2.276086 0.042927 -0.023846 -498697.000000 0 0 1
-20.017163 -21.355055 -26.840742 39.713356 0.817725 2.312930 0.041263 -0.023253 -283083.000000 0 0 1
-20.049363 -22.302555 -27.897362 40.959050 0.838550 2.320065 0.040827 -0.014348 141271.000000 0 0 1
-20.968963 -21.936655 -28.938062 41.932395 0.807948 2.332441 0.029610 -0.014608 229605.000000 0 0 1
-20.272163 -21.914455 -30.300522 42.536168 0.824308 2.363633 0.034569 -0.018647 34367.800000 0 0 1
-20.071963 -23.237155 -30.800412 43.491545 0.858352 2.357732 0.031216 -0.011598 -93673.100000 0 0 1
-19.620763 -23.221255 -32.135192 44.236542 0.869242 2.383924 0.027578 -0.007673 -121700.000000 0 0 1
-18.899663 -24.520755 -32.560972 44.929741 0.914140 2.381408 0.029849 -0.012539 -286927.000000 0 0 1
-18.343163 -24.584355 -33.855392 45.684240 0.929776 2.405465 0.035003 -0.011200 -278115.000000 0 0 1
-19.196763 -24.693255 33.678998 45.962457 0.909983 0.748442 0.033411 -0.006560 -756955.000000 0 0 1
-18.371063 -24.692655 32.391378 44.681367 0.931153 0.759847 0.034294 -0.000806 -273114.000000 0 0 1
-17.644363 -23.526455 32.046088 43.494476 0.927308 0.742493 0.038047 -0.007262 -178549.000000 0 0 1
-16.924563 -23.830955 30.851998 42.499424 0.953263 0.758397 0.041008 -0.003584 24254.800000 0 0 1
-15.941663 -22.682955 30.516398 41.229888 0.958191 0.737499 0.029948 0.001987 88654.100000 0 0 1
-16.679463 -21.492155 30.234438 40.672331 0.910817 0.732707 0.037525 -0.008819 77954.000000 0 0 1
-15.859363 -20.393055 29.933748 39.540174 0.909811 0.712016 0.033849 -0.008153 -276383.000000 0 0 1
-15.350663 -19.633755 31.168138 39.907143 0.907221 0.674504 0.034628 -0.016233 54177.100000 0 0 1
-14.672763 -18.415655 30.941908 38.882233 0.898037 0.650493 0.030596 -0.020333 -92613.100000 0 0 1
-14.427063 -17.697255 32.110978 39.401116 0.886847 0.618108 0.032049 -0.023268 -89327.000000 0 0 1
-13.930763 -16.294855 31.700948 38.269290 0.863454 0.594613 0.035688 -0.020338 259122.000000 0 0 1
-12.585463 -16.234155 31.224268 37.375080 0.911333 0.581881 0.043302 -0.017243 426231.000000 0 0 1
-12.314863 -14.874655 30.805558 36.357855 0.879268 0.559939 0.029108 -0.016443 -29806.300000 0 0 1
-10.840863 -14.670355 30.412548 35.463597 0.934396 0.540268 0.041073 -0.017093 117358.000000 0 0 1
-10.458763 -13.321555 30.100998 34.538669 0.905207 0.512511 0.044103 -0.009208 -944839.000000 0 0 1
-9.145363 -13.138355 30.495508 34.441691 0.962705 0.483390 0.046751 -0.008186 -700237.000000 0 0 1
-8.788563 -11.655155 30.416118 33.737542 0.924709 0.447455 0.042196 -0.006619 -74686.900000 0 0 1
-9.622363 -10.979355 31.329948 34.564458 0.851171 0.436065 0.041779 -0.006353 68144.000000 0 0 1
-9.384963 -9.601755 31.290888 34.049830 0.796816 0.405327 0.034733 -0.004070 -73287.100000 0 0 1
-10.172963 -8.750555 32.329118 35.003332 0.710373 0.393426 0.027484 -0.007458 124578.000000 0 0 1
-11.515363 -8.509755 31.923808 34.987842 0.636418 0.421623 0.029273 -0.014713 -303596.000000 0 0 1
-12.237563 -7.797955 32.874813 35.934933 0.567335 0.415678 0.023097 -0.016313 -331623.000000 0 0 1
-11.863663 -6.363755 33.250935 35.872951 0.492348 0.384707 0.018818 -0.006708 -636510.000000 0 0 1
-12.261263 -5.396555 32.331948 34.997375 0.414616 0.392804 0.028153 -0.009002 91876.000000 0 0 1
-12.266363 -4.085755 32.845098 35.298124 0.321528 0.375006 0.024637 -0.014305 -367647.000000 0 0 1
-11.822963 -2.981555 31.857678 34.111344 0.247033 0.365537 0.013027 -0.004885 -538134.000000 0 0 1
-10.466663 -2.695155 31.985808 33.762506 0.252024 0.325857 0.013347 -0.007758 -579743.000000 0 0 1
-10.088363 -1.524155 31.253758 32.876976 0.149947 0.315545 0.004506 -0.000721 216248.000000 0 0 1
-8.550863 -1.317855 31.288458 32.462619 0.152916 0.269777 0.002801 -0.002834 256085.000000 0 0 1
-8.193663 -0.690855 32.495188 33.519407 0.084117 0.247842 0.003151 -0.012778 -185418.000000 0 0 1
-6.841563 -0.284855 32.492218 33.205909 0.041612 0.207703 0.021034 -0.016819 -78692.500000 0 0 1
-6.339663 0.340945 33.823476 34.414170 -0.053728 0.185546 0.041061 -0.025805 -753137.000000 0 0 1
-7.007363 1.553145 34.153766 34.899787 -0.218118 0.207136 0.046155 -0.021943 -22256.300000 0 0 1
-6.478963 2.689145 33.492273 34.219012 -0.393420 0.206463 0.053531 -0.019180 -143294.000000 0 0 1
-7.334263 3.969045 33.646353 34.664417 -0.496035 0.242957 0.061925 -0.023035 -878583.000000 0 0 1
-8.543163 3.924445 33.001169 34.314196 -0.430616 0.277530 0.026825 -0.010241 -1154470.000000 0 0 1
-9.218863 5.143445 33.232195 34.868629 -0.508908 0.307581 0.030113 -0.002735 -598394.000000 0 0 1
-10.580063 5.117945 32.547738 34.604716 -0.450551 0.346527 0.020946 -0.000730 -499670.000000 0 0 1
-11.360963 6.245745 32.860414 35.325453 -0.502655 0.375787 0.027033 -0.001602 -115860.000000 0 0 1
-12.483863 6.395145 32.023458 34.960643 -0.473418 0.412838 0.007516 0.001324 -368698.000000 0 0 1
-13.195563 7.673645 32.177088 35.614221 -0.526730 0.442953 0.019321 -0.008559 -601752.000000 0 0 1
-13.809363 7.970745 33.384778 36.996955 -0.523485 0.445569 0.022895 -0.007099 47174.200000 0 0 1
-14.551663 9.190445 33.287305 37.473455 -0.563312 0.477187 0.021561 0.000249 104209.000000 0 0 1
-15.546763 9.327045 -34.175628 38.686809 -0.540372 2.653849 0.019986 -0.001833 145304.000000 0 0 1
-14.927263 9.442545 -32.880462 37.324384 -0.564025 2.648637 0.016227 -0.005654 394668.000000 0 0 1
-15.841063 9.955745 -31.895072 36.977720 -0.561096 2.611081 0.030742 -0.010477 -644410.000000 0 0 1
-15.109363 10.201245 -30.556632 35.581821 -0.593860 2.603662 0.046605 -0.014440 770143.000000 0 0 1
-14.140363 11.253345 -30.530112 35.477815 -0.672194 2.607127 0.044481 -0.018042 215444.000000 0 0 1
-12.928763 11.059445 -31.217332 35.552582 -0.707629 2.642591 0.055004 -0.023233 -591886.000000 0 0 1
-11.889263 12.160945 -31.125462 35.468825 -0.796694 2.641513 0.051744 -0.018457 -326213.000000 0 0 1
-12.363663 13.339745 -31.749762 36.590386 -0.823355 2.621368 0.045502 -0.024821 144945.000000 0 0 1
-11.382463 14.358645 -31.874262 36.765469 -0.900507 2.619870 0.044327 -0.025004 93434.800000 0 0 1
-11.735763 15.528945 -30.981482 36.588639 -0.923635 2.580645 0.058826 -0.024680 249066.000000 0 0 1
-12.794563 16.394445 -31.369972 37.637134 -0.908109 2.556181 0.060698 -0.028097 30251.900000 0 0 1
-13.059763 17.397145 -30.434812 37.409836 -0.926857 2.521029 0.050551 -0.026387 524534.000000 0 0 1
-14.517663 17.920145 -30.671042 38.374561 -0.889908 2.496850 0.040411 -0.028409 176533.000000 0 0 1
-14.731063 18.596545 -31.861582 39.723999 -0.900867 2.501556 0.039484 -0.026919 1088460.000000 0 0 1
-16.067463 19.146745 -32.057242 40.650067 -0.872621 2.479349 0.041532 -0.024455 1384940.000000 0 0 1
-16.452163 20.331645 -31.138882 40.665457 -0.890477 2.442977 0.014025 -0.027159 -983677.000000 0 0 1
-15.915263 21.567345 -31.470222 41.337886 -0.935063 2.436100 0.022181 -0.024078 60124.300000 0 0 1
-16.560663 22.686645 -30.853052 41.723497 -0.940235 2.403071 0.001946 -0.015568 488291.000000 0 0 1
-17.982063 23.049445 -31.392272 42.896460 -0.908276 2.391778 0.026210 -0.015571 392878.000000 0 0 1
-18.960963 22.121445 -30.986142 42.532546 -0.862177 2.386967 0.015096 -0.017679 298935.000000 0 0 1
-20.086263 21.944045 -31.858082 43.588261 -0.829570 2.390417 0.033306 -0.020241 754852.000000 0 0 1
-21.390063 21.526145 -31.077822 43.436629 -0.788569 2.368100 0.029719 -0.026331 28496.400000 0 0 1
-22.143763 22.574545 -30.473032 43.915396 -0.795031 2.337692 0.038413 -0.024967 655127.000000 0 0 1
-22.885663 23.480445 -31.321792 45.344675 -0.798225 2.333321 0.058126 -0.017797 123029.000000 0 0 1
-24.040463 22.888945 -32.176092 46.229304 -0.760866 2.340623 0.056590 -0.022562 -530651.000000 0 0 1
-23.631763 21.875645 -33.062352 46.153258 -0.746828 2.369368 0.060332 -0.018963 -466026.000000 0 0 1
-24.639663 21.598145 -33.990502 47.211726 -0.719713 2.374539 0.063169 -0.018537 -323137.000000 0 0 1
-24.308763 20.513645 33.631762 46.290614 -0.700930 0.757530 0.060668 -0.009912 -141803.000000 0 0 1
-24.196363 19.150545 34.080516 45.974873 -0.669514 0.735812 0.059895 -0.015881 287372.000000 0 0 1
-24.078763 18.320245 32.925976 44.716195 -0.650407 0.743163 0.045778 -0.013798 -406310.000000 0 0 1
-23.962563 16.850745 33.328196 44.372522 -0.612878 0.721070 0.037735 -0.003212 -114641.000000 0 0 1
-25.131793 16.159545 33.721637 45.054264 -0.571433 0.725049 0.043742 -0.004264 331663.000000 0 0 1
-25.613513 15.325945 32.668925 44.251500 -0.539208 0.740316 0.050836 -0.007033 -32823.900000 0 0 1
-26.480893 14.064245 33.086666 44.651631 -0.488224 0.736244 0.034654 -0.008374 78450.300000 0 0 1
-27.603563 14.506345 33.824174 46.005059 -0.483858 0.744794 0.030203 -0.009915 236998.000000 0 0 1
-28.729243 13.612345 33.731093 46.351397 -0.442481 0.755796 0.018893 -0.004352 457565.000000 0 0 1
-28.751263 12.229645 -34.182672 46.310414 -0.402176 2.401077 0.004708 -0.004245 -1385260.000000 0 0 1
-27.570763 11.574945 34.215226 45.440159 -0.397481 0.718228 0.022988 -0.017620 -1046280.000000 0 0 1
-27.886003 10.196345 34.275492 45.347590 -0.350543 0.713861 0.031152 -0.015289 -548506.000000 0 0 1
-26.756593 9.145245 -34.320762 44.468702 -0.329346 2.452457 0.038421 -0.019919 -220146.000000 0 0 1
-25.905663 8.985645 33.203869 43.062073 -0.333875 0.690277 0.039783 -0.024107 -79892.400000 0 0 1
-24.872363 9.951245 33.195440 42.656757 -0.380586 0.679004 0.029314 -0.022261 -1101700.000000 0 0 1
-23.697463 9.318845 32.447578 41.246284 -0.374667 0.665386 0.046255 -0.021565 -660375.000000 0 0 1
-23.800163 9.320645 31.006688 40.183789 -0.373262 0.689409 0.043045 -0.021102 149272.000000 0 0 1
-22.564363 8.921745 30.449148 38.934543 -0.376527 0.672832 0.044527 -0.019977 197323.000000 0 0 1
-22.559063 8.932845 28.911278 37.743463 -0.377032 0.698210 0.049602 -0.019156 50708.300000 0 0 1
-22.768163 10.260045 28.394158 37.813833 -0.423379 0.721382 0.043545 -0.012455 157366.000000 0 0 1
-22.433763 10.310145 27.010958 36.594599 -0.430793 0.740527 0.034216 -0.008848 -846843.000000 0 0 1
-22.766863 11.749745 26.437318 36.814648 -0.476436 0.769700 0.029399 -0.006109 792214.000000 0 0 1
-24.150563 12.105145 26.394958 37.768744 -0.464636 0.796998 0.035081 -0.005438 1056870.000000 0 0 1
-24.981463 11.516545 25.352328 37.409154 -0.431967 0.826161 0.032325 0.000630 287516.000000 0 0 1
-26.434823 12.007445 25.439568 38.602464 -0.426365 0.851289 0.032282 -0.003043 -191665.000000 0 0 1
-26.576313 13.369745 25.133698 38.945517 -0.466101 0.869308 0.027477 -0.008878 407822.000000 0 0 1
-27.760553 14.020045 25.632678 40.301912 -0.467667 0.881471 0.030630 -0.014425 557872.000000 0 0 1
-27.999033 15.443845 25.150698 40.681885 -0.504059 0.904310 0.023760 -0.017445 -396792.000000 0 0 1
-27.080423 16.423345 25.538168 40.685054 -0.545160 0.892196 0.032981 -0.016486 -362498.000000 0 0 1
-27.374783 17.586045 24.781578 40.899564 -0.571026 0.919883 0.018564 -0.010697 -241956.000000 0 0 1
-22.533463 -9.791655 31.612448 40.037237 0.409922 0.660678 0.016464 -0.024609 102239.000000 0 0 1
-21.588363 -9.266055 30.694908 38.653520 0.405436 0.653265 0.010206 -0.018356 219007.000000 0 0 1
-22.055563 -9.456855 29.337988 37.902474 0.405063 0.685601 0.014511 -0.013042 -283999.000000 0 0 1
-21.110763 -8.854855 28.329698 36.423132 0.397158 0.679648 0.018026 -0.017450 -524860.000000 0 0 1
-20.776763 -7.464255 28.339608 35.923841 0.344900 0.661812 0.019852 -0.016150 -181279.000000 0 0 1
-19.642263 -7.139755 29.079568 35.810835 0.348641 0.623170 0.019019 -0.013049 105559.000000 0 0 1
-18.168263 -7.353155 28.614798 34.683733 0.384573 0.600557 0.028110 -0.007693 88342.100000 0 0 1
-17.658763 -8.694255 28.813898 34.895024 0.457507 0.599300 0.021350 -0.013147 282588.000000 0 0 1
-17.149163 -9.026755 30.077158 35.780044 0.484518 0.572383 0.021253 -0.015578 -1445780.000000 0 0 1
-15.706463 -8.650255 30.251008 35.165941 0.503415 0.535064 0.022721 -0.008759 -538920.000000 0 0 1
-14.813063 -9.502255 29.451468 34.309017 0.570361 0.538619 0.029306 -0.009695 654151.000000 0 0 1
-13.444063 -9.174355 29.622598 33.799556 0.598822 0.502420 0.034929 -0.013071 728634.000000 0 0 1
-12.393763 -10.110955 28.935308 33.061894 0.684307 0.504976 0.035494 -0.005113 309596.000000 0 0 1
-12.175963 -9.936355 27.545588 31.713478 0.684459 0.518473 0.043496 -0.010215 -715381.000000 0 0 1
-11.058463 -10.678155 27.187128 31.232236 0.767904 0.514614 0.049672 -0.007380 -511324.000000 0 0 1
-10.718863 -10.411155 25.689318 29.719140 0.770837 0.526834 0.043247 -0.000863 -785397.000000 0 0 1
-11.543963 -10.969255 24.764028 29.442227 0.759876 0.571472 0.038383 -0.008355 -672746.000000 0 0 1
-11.192163 -10.670555 23.393478 28.042469 0.761544 0.584087 0.035759 -0.017377 -179604.000000 0 0 1
-12.299563 -11.080955 22.408778 27.860728 0.733325 0.636276 0.037360 -0.020765 -781799.000000 0 0 1
-12.389663 -12.485455 22.390678 28.473370 0.789249 0.665881 0.046908 -0.021224 847488.000000 0 0 1
-13.701163 -12.994355 22.140778 29.099643 0.758928 0.706158 0.046981 -0.020210 602283.000000 0 0 1
-14.891563 -12.652555 23.056378 30.223209 0.704288 0.703056 0.025372 -0.014369 -383775.000000 0 0 1
-16.088163 -13.371155 22.826278 30.962167 0.693429 0.741833 0.015446 -0.007722 728949.000000 0 0 1
-17.147263 -13.105555 23.771958 32.107479 0.652587 0.737150 0.013143 0.000904 678820.000000 0 0 1
-18.438163 -13.825555 23.297578 32.770245 0.643395 0.779967 0.025563 0.000208 -294388.000000 0 0 1
-18.260463 -15.236055 23.195278 33.220518 0.695352 0.797886 0.026621 0.000632 1081810.000000 0 0 1
-19.478763 -16.013955 23.038178 34.155916 0.688086 0.830509 0.016880 0.005613 1076350.000000 0 0 1
-20.310063 -16.254255 24.331858 35.619360 0.674927 0.818787 0.024513 0.005469 -2058.240000 0 0 1
-19.585163 -17.067355 25.232878 36.215623 0.716812 0.799953 0.037227 0.003310 7092.100000 0 0 1
-20.141663 -16.950955 26.521248 37.368410 0.699589 0.781690 0.029380 0.000573 -437224.000000 0 0 1
-19.513263 -17.688255 27.682358 38.209354 0.736380 0.760500 0.033988 0.001576 -401122.000000 0 0 1
-19.526663 -19.094155 27.508128 38.763055 0.774200 0.781798 0.043925 0.003300 132886.000000 0 0 1
-19.463963 -19.744855 28.756748 39.945660 0.792562 0.767143 0.045248 0.000822 -252298.000000 0 0 1
-19.395563 -21.252555 28.509588 40.505007 0.831051 0.789989 0.042787 0.004486 92073.300000 0 0 1
-20.645563 -21.855355 28.204408 41.223591 0.813856 0.817316 0.051687 0.004705 154146.000000 0 0 1
-20.512163 -23.239255 27.877558 41.688968 0.847649 0.838333 0.059856 0.011806 -320075.000000 0 0 1
-21.783563 -23.829855 27.309808 42.287247 0.830230 0.868704 0.060786 0.009361 -106289.000000 0 0 1
-22.923663 -23.962155 28.154558 43.501246 0.807544 0.866874 0.054488 0.006485 522426.000000 0 0 1
-23.980263 -24.502755 27.351628 43.858290 0.796175 0.897410 0.037935 0.012922 189506.000000 0 0 1
-24.994363 -25.272135 28.225018 45.387781 0.790924 0.899676 0.019606 0.014479 -510723.000000 0 0 1
-25.623243 -24.597355 29.256118 46.016312 0.764973 0.881781 0.011347 0.014183 -207181.000000 0 0 1
-26.214833 -25.518195 30.109428 47.381151 0.771933 0.882176 0.008027 0.003988 -795150.000000 0 0 1
-27.378543 -25.011955 30.948238 48.300890 0.740257 0.875337 0.006812 0.006388 -1266110.000000 0 0 1
-28.431533 -24.724955 30.104818 48.228369 0.715781 0.896671 0.014444 0.005944 -508169.000000 0 0 1
-29.359043 -23.911755 30.831878 48.829603 0.683496 0.887416 0.019259 -0.004510 -660321.000000 0 0 1
-30.711723 -23.671955 30.189428 49.142375 0.656668 0.909265 0.017410 -0.003476 -733092.000000 0 0 1
-31.579933 -24.751055 30.425288 50.354792 0.664759 0.922012 0.023139 -0.003432 -161746.000000 0 0 1
-32.733723 -24.795955 29.629488 50.638351 0.648287 0.945769 0.019808 -0.007271 109344.000000 0 0 1
-33.873943 -25.680325 30.202178 52.144939 0.648674 0.953053 0.024075 -0.013160 222662.000000 0 0 1
-33.659273 -27.009155 29.933928 52.521245 0.676220 0.964364 0.028569 -0.014745 -567340.000000 0 0 1
-34.514931 -27.737445 30.717768 53.890886 0.676954 0.964291 0.032279 -0.019108 -598924.000000 0 0 1
-34.064190 -29.113395 31.186018 54.594199 0.707195 0.962789 0.036535 -0.024081 -421321.000000 0 0 1
-33.250083 -29.082065 32.330008 54.740880 0.718630 0.938993 0.036274 -0.014069 -151785.000000 0 0 1
-32.567523 -30.341585 32.431148 55.072995 0.750030 0.941129 0.032766 -0.017176 352422.000000 0 0 1
-31.642383 -30.433635 33.659947 55.321231 0.765929 0.916696 0.028316 -0.023227 763021.000000 0 0 1
-32.428023 -30.307785 -33.765492 55.769588 0.751615 2.221123 0.032859 -0.014483 390554.000000 0 0 1
-31.509783 -30.348715 -32.710392 54.624909 0.766631 2.212821 0.026688 -0.011639 -84610.200000 0 0 1
-32.050363 -29.749735 -31.404472 53.837844 0.748188 2.193602 0.022873 -0.008151 20618.600000 0 0 1
-31.995063 -28.305275 -31.366032 52.997176 0.724284 2.204140 0.025646 -0.015989 -225799.000000 0 0 1
-30.710903 -27.860945 -30.972022 51.755753 0.736779 2.212332 0.027259 -0.010234 -190177.000000 0 0 1
-30.581443 -26.359105 -31.012462 50.909723 0.711380 2.225805 0.019677 -0.004485 127879.000000 0 0 1
-31.435233 -25.716645 -30.042402 50.517974 0.685671 2.207673 0.021945 -0.008848 217841.000000 0 0 1
-31.362823 -24.304055 -29.979412 49.730061 0.659268 2.217856 0.027682 -0.010615 273017.000000 0 0 1
-30.076253 -23.716255 -29.316942 48.234063 0.667712 2.224091 0.031570 -0.011841 231828.000000 0 0 1
-29.996133 -22.304455 -29.348622 47.524713 0.639378 2.236413 0.035965 -0.009768 254377.000000 0 0 1
-28.933753 -21.905255 -28.491982 46.138870 0.648019 2.236391 0.038648 -0.010410 98887.600000 0 0 1
-28.496693 -20.435755 -28.597472 45.249277 0.622129 2.254926 0.050214 -0.017643 -15376.100000 0 0 1
-27.996713 -20.206855 -29.913822 45.683364 0.625180 2.284725 0.043262 -0.008414 334910.000000 0 0 1
-27.741193 -18.813755 -30.029202 45.003157 0.595937 2.301332 0.048733 -0.016548 -525939.000000 0 0 1
-27.606933 -18.278455 -31.511152 45.707739 0.584832 2.331464 0.051774 -0.018542 -137426.000000 0 0 1
-28.644843 -18.131755 -32.446832 46.926373 0.564321 2.334279 0.055825 -0.026014 -50151.700000 0 0 1
-29.727953 -17.313655 -32.039112 47.010835 0.527380 2.320642 0.044382 -0.024072 378217.000000 0 0 1
-30.711153 -16.829655 -33.210172 48.263110 0.501305 2.329673 0.036059 -0.028733 641976.000000 0 0 1
-31.532363 -17.804755 -33.773742 49.517319 0.514021 2.321371 0.045448 -0.027711 -529176.000000 0 0 1
-32.853083 -17.400555 -33.902442 50.313815 0.487083 2.310163 0.056305 -0.030821 -501648.000000 0 0 1
-33.687233 -18.024055 33.613333 50.887645 0.491286 0.849258 0.046501 -0.027857 -457568.000000 0 0 1
-34.029423 -19.346555 33.940747 51.809894 0.516954 0.856479 0.021895 -0.027386 39939.700000 0 0 1
-34.925421 -19.885955 33.004235 52.004959 0.517603 0.883259 0.020068 -0.022445 -326265.000000 0 0 1
-35.196995 -21.300455 33.513813 53.063297 0.544218 0.887205 0.012763 -0.021385 -379501.000000 0 0 1
-34.129965 -22.154155 33.237065 52.539163 0.575750 0.885871 0.028183 -0.019346 -317138.000000 0 0 1
-34.297562 -23.455055 33.699164 53.498561 0.599818 0.889362 0.031215 -0.023094 -834977.000000 0 0 1
-32.956013 -24.174555 33.583889 52.899768 0.632883 0.882970 0.029324 -0.017652 401163.000000 0 0 1
-31.934433 -23.846055 -34.110746 52.459369 0.641398 2.278686 0.021108 -0.018837 462118.000000 0 0 1
-31.198253 -22.656455 34.311916 51.613502 0.628100 0.843589 0.022985 -0.013450 -737809.000000 0 0 1
-29.933553 -22.612655 -33.460902 50.269093 0.646966 2.299142 0.029082 -0.006287 -234120.000000 0 0 1
-28.966163 -23.548855 -33.937262 50.451214 0.682604 2.308614 0.027936 -0.007830 743422.000000 0 0 1
-27.629373 -23.404355 -33.448832 49.294731 0.702798 2.316580 0.038540 -0.006273 842021.000000 0 0 1
-27.393903 -23.889655 -31.984262 48.416264 0.717173 2.292427 0.025068 0.002252 -804290.000000 0 0 1
-27.326823 -25.311295 -31.792792 48.971406 0.747127 2.277343 0.034238 0.001406 30986.900000 0 0 1
-26.834003 -25.627775 -30.469292 48.012752 0.762410 2.258298 0.025924 0.003104 -40440.800000 0 0 1
-26.469903 -27.114675 -30.250442 48.486603 0.797430 2.244510 0.032087 -0.003746 337689.000000 0 0 1
-27.584273 -28.002605 -30.339932 49.654300 0.792924 2.228149 0.021392 -0.001821 394010.000000 0 0 1
-27.254863 -29.194725 -29.607622 49.716907 0.819749 2.208714 0.027267 -0.010416 -15703.400000 0 0 1
-28.184343 -30.384985 -29.880992 51.092839 0.822954 2.195476 0.036882 0.001247 -294445.000000 0 0 1
-28.115033 -30.663335 -31.246292 52.029088 0.828725 2.214990 0.041166 -0.013683 311695.000000 0 0 1
-28.427133 -32.016665 -31.604032 53.216385 0.844715 2.206667 0.053038 -0.004114 -298923.000000 0 0 1
-27.907483 -32.326595 -33.035012 53.992114 0.858633 2.229192 0.032878 -0.010439 845568.000000 0 0 1
-26.474513 -32.362015 -33.118412 53.338814 0.885132 2.240695 0.022099 -0.011915 644923.000000 0 0 1
-26.060853 -33.286425 -34.132360 54.333895 0.906553 2.250029 0.020352 -0.013789 -236926.000000 0 0 1
-24.564763 -33.209035 34.171991 53.609632 0.933919 0.879648 0.015844 -0.013641 -122501.000000 0 0 1
-24.284663 -33.926045 33.000166 53.195229 0.949537 0.901595 0.021054 -0.006333 -59296.600000 0 0 1
-23.672763 33.547321 33.184244 52.792201 -0.956287 0.891067 0.016552 0.001562 -497848.000000 0 0 1
-23.522163 32.700013 31.911928 51.390215 -0.947213 0.900813 0.025892 -0.007511 -348552.000000 0 0 1
-24.766963 32.243143 31.457138 51.405975 -0.915792 0.912291 0.029411 -0.018431 -349304.000000 0 0 1
-24.657763 31.514463 30.231898 50.151115 -0.906863 0.923770 0.027315 -0.010903 -591598.000000 0 0 1
-26.010243 31.076573 29.684418 50.233961 -0.873914 0.938593 0.030728 -0.012344 -302565.000000 0 0 1
-26.678763 30.220463 30.614968 50.619256 -0.847563 0.921271 0.043014 -0.016618 158638.000000 0 0 1
-27.843873 29.645723 30.072198 50.581491 -0.816730 0.934116 0.038263 -0.019874 100350.000000 0 0 1
-28.408263 28.396653 30.798248 50.615525 -0.785194 0.916660 0.044481 -0.017954 20468.700000 0 0 1
-27.536593 27.296943 30.740038 49.480673 -0.781028 0.900455 0.032317 -0.012474 214279.000000 0 0 1
-28.201793 26.088693 31.159628 49.465983 -0.746496 0.889346 0.043083 -0.012478 825407.000000 0 0 1
-29.096403 25.394883 30.087588 48.956754 -0.717574 0.908949 0.047690 -0.010794 544595.000000 0 0 1
-28.257143 25.095563 28.993248 47.632571 -0.726209 0.916394 0.027763 -0.009701 -368883.000000 0 0 1
-28.945693 24.206243 28.224398 47.121248 -0.696465 0.928577 0.030845 -0.009537 -444501.000000 0 0 1
-28.141273 23.989063 26.967728 45.767508 -0.705915 0.940687 0.031467 -0.004431 -262302.000000 0 0 1
-27.002723 23.236013 27.299798 44.881381 -0.710562 0.916923 0.041958 -0.009316 256556.000000 0 0 1
-26.169353 22.880013 26.175288 43.514087 -0.718437 0.925374 0.030721 -0.013180 551109.000000 0 0 1
-24.939363 21.991913 26.536908 42.542021 -0.722677 0.897225 0.011062 -0.014361 -22189.500000 0 0 1
-25.198533 20.730213 27.057628 42.388950 -0.688415 0.878485 0.038850 -0.018200 146043.000000 0 0 1
-24.013463 20.075813 27.430918 41.618985 -0.696324 0.851180 0.018570 -0.010791 10688.900000 0 0 1
-24.339063 18.697413 28.038958 41.571221 -0.655051 0.830536 0.039550 -0.008922 213189.000000 0 0 1
-23.096163 18.080113 28.312318 40.766538 -0.664177 0.803073 0.020679 -0.006850 342061.000000 0 0 1
-23.264663 17.075613 29.290888 41.119062 -0.633164 0.777965 0.023797 -0.004425 89895.600000 0 0 1
-21.987263 16.226513 29.498478 40.210691 -0.635774 0.747195 0.031217 -0.008088 333135.000000 0 0 1
-20.986963 16.847113 30.308048 40.532155 -0.676411 0.726125 0.042243 -0.003690 -271720.000000 0 0 1
-19.909463 15.985113 30.356198 39.666224 -0.676501 0.699303 0.039785 -0.001736 -950889.000000 0 0 1
-18.682063 16.397413 31.136758 39.842093 -0.720362 0.673723 0.040252 -0.013030 -506427.000000 0 0 1
-19.017863 16.352313 32.491308 41.045857 -0.710179 0.657397 0.033939 -0.013779 236752.000000 0 0 1
-17.915663 16.564813 33.338565 41.313726 -0.746241 0.631808 0.031611 -0.012143 -632494.000000 0 0 1
-18.244463 16.206013 -33.847492 41.727066 -0.726297 2.516936 0.019301 -0.021336 688273.000000 0 0 1
-19.161763 17.035513 -33.111212 41.877610 -0.726725 2.482693 0.029658 -0.018793 1214980.000000 0 0 1
-20.533663 17.066913 -33.528072 42.860734 -0.693459 2.469076 0.032690 -0.016569 336989.000000 0 0 1
-21.462463 17.853013 -32.569182 42.896609 -0.693847 2.432954 0.039651 -0.018174 20588.000000 0 0 1
-21.788263 17.174113 -31.412212 41.909494 -0.667521 2.418141 0.034630 -0.023040 -232146.000000 0 0 1
-22.678063 17.955413 -30.675312 42.162379 -0.669692 2.385543 0.012695 -0.020164 -990234.000000 0 0 1
-22.624063 17.850013 -29.138292 40.981841 -0.667987 2.361723 0.020620 -0.023766 -116010.000000 0 0 1
-23.186563 16.774913 -28.495022 40.385402 -0.626308 2.354034 0.008319 -0.021347 -133398.000000 0 0 1
-24.534363 16.504213 -28.829182 41.297043 -0.592166 2.343527 0.032668 -0.023789 -176139.000000 0 0 1
-25.242303 15.367413 -28.030672 40.731435 -0.546862 2.329778 0.037924 -0.023224 29553.400000 0 0 1
-24.746663 14.072913 -28.327612 40.160899 -0.517071 2.353717 0.010933 -0.008675 24457.300000 0 0 1
-25.692043 13.159913 -27.862252 40.119440 -0.473374 2.338497 -0.005612 -0.005317 -66292.400000 0 0 1
-25.192963 11.743413 -28.001852 39.454998 -0.436193 2.359892 0.008179 -0.007134 -337403.000000 0 0 1
-24.210363 11.342013 -27.109522 38.075046 -0.438113 2.363142 0.012054 -0.006946 -516383.000000 0 0 1
-23.389163 10.352213 -27.697492 37.701092 -0.416689 2.395962 0.013443 -0.002132 152168.000000 0 0 1
-22.305163 9.783413 -26.758222 36.183393 -0.413347 2.403148 0.037168 -0.010271 43959.500000 0 0 1
-22.894663 8.923713 -25.811282 35.637348 -0.371659 2.380780 0.038224 -0.008987 222779.000000 0 0 1
-21.906963 8.220313 -25.059912 34.285387 -0.358979 2.390467 0.053756 -0.004479 54998.700000 0 0 1
-22.413663 7.005713 -24.313712 33.802499 -0.302944 2.373572 0.051754 -0.001104 -84126.000000 0 0 1
-22.921363 5.985613 -25.146982 34.548331 -0.255433 2.386019 0.051480 -0.009359 206415.000000 0 0 1
-23.082763 4.869213 -24.318412 33.880796 -0.207898 2.371382 0.047162 0.010017 -264241.000000 0 0 1
34.291400 24.187645 -10.490412 43.254953 0.614312 1.815764 -0.023085 0.006181 -316009.000000 0 0 1
35.064300 23.777045 -9.364612 43.388350 0.595875 1.788341 -0.009553 0.001287 125912.000000 0 0 1
-35.609361 22.903345 -9.881012 43.476708 -0.571568 1.800071 -0.007550 0.003757 327025.000000 0 0 1
-34.636757 22.500945 -8.738812 42.218056 -0.576112 1.779296 0.024714 0.000913 98211.700000 0 0 1
-35.218292 21.456745 -7.959912 42.000954 -0.547193 1.761467 -0.003145 -0.003347 484809.000000 0 0 1
-34.230289 20.949445 -7.058512 40.748184 -0.549207 1.744897 0.033994 -0.007692 -22058.200000 0 0 1
-34.728155 20.048045 -5.891512 40.529973 -0.523550 1.716675 0.017479 -0.008472 -352111.000000 0 0 1
-35.272734 18.798145 -6.294612 40.461811 -0.489649 1.727000 0.009959 -0.005681 423148.000000 0 0 1
-35.795232 18.125745 -5.138312 40.450507 -0.468733 1.698168 0.019945 -0.015323 -65387.200000 0 0 1
35.133390 16.812345 -5.516812 39.337580 0.446324 1.711503 0.024451 -0.008621 65466.400000 0 0 1
33.956720 17.156245 -6.218712 38.549552 0.467830 1.732822 0.041890 -0.010738 -199384.000000 0 0 1
33.797850 16.274245 -7.350912 38.225405 0.448752 1.764306 0.060759 -0.011321 -454359.000000 0 0 1
32.640200 16.585045 -8.266412 37.533717 0.470120 1.792856 0.052554 -0.020545 -528769.000000 0 0 1
32.197190 15.494045 -9.031212 36.854949 0.448514 1.818365 0.065554 -0.025163 -393708.000000 0 0 1
31.429280 15.981245 -10.089512 36.674215 0.470411 1.849502 0.057282 -0.014362 -525021.000000 0 0 1
30.814690 14.768045 -10.868312 35.857502 0.446913 1.878738 0.043802 -0.010973 863027.000000 0 0 1
29.606500 14.171245 -10.335312 34.412028 0.446425 1.875846 0.043478 -0.002770 1162700.000000 0 0 1
29.688490 13.662645 -9.034612 33.907204 0.431304 1.840505 0.047932 -0.009490 -166766.000000 0 0 1
28.502320 12.650145 -8.843412 32.413181 0.417710 1.847134 0.039162 0.001945 415941.000000 0 0 1
28.781390 11.434745 -9.425912 32.372359 0.378174 1.866248 0.035927 0.006806 -161727.000000 0 0 1
27.738070 10.530845 -9.441612 31.135884 0.362844 1.878886 0.039283 -0.000059 -847510.000000 0 0 1
28.215850 9.163545 -9.932412 31.285101 0.314020 1.893868 0.038649 0.007935 276562.000000 0 0 1
29.338810 8.672245 -9.194812 31.945550 0.287406 1.862754 0.051479 0.001767 742142.000000 0 0 1
29.581420 7.312345 -9.558012 31.935660 0.242336 1.874744 0.045891 -0.000361 -501954.000000 0 0 1
30.721290 6.764545 -8.686512 32.634525 0.216732 1.840220 0.067076 -0.010172 -698517.000000 0 0 1
31.954640 7.202345 -9.177112 34.017527 0.221688 1.843957 0.071404 -0.015459 -936221.000000 0 0 1
32.944000 6.747745 -8.299712 34.637038 0.202030 1.812770 0.094036 -0.023925 -310766.000000 0 0 1
34.374780 6.899545 -8.869412 36.164840 0.198083 1.818573 0.083056 -0.021318 94763.700000 0 0 1
34.784830 6.046145 -9.956512 36.683408 0.172096 1.845662 0.073249 -0.020183 -1205020.000000 0 0 1
-35.559456 6.213145 -10.151812 37.498498 -0.172979 1.844943 0.058625 -0.018646 -1978970.000000 0 0 1
-34.930122 5.436545 -11.332412 37.122675 -0.154402 1.881018 0.051969 -0.017060 782704.000000 0 0 1
-33.542433 5.655745 -11.639312 35.952132 -0.167043 1.900481 0.059300 -0.015339 1147700.000000 0 0 1
-33.202473 6.821245 -12.301212 36.059027 -0.202625 1.918927 0.044425 -0.015363 -483259.000000 0 0 1
-32.502293 7.907145 -11.454712 35.357211 -0.238644 1.900720 0.030854 -0.007929 -209620.000000 0 0 1
-33.416803 8.606745 -10.605712 36.100414 -0.252079 1.868979 0.033921 -0.012149 426293.000000 0 0 1
-34.097037 9.672045 -11.197412 37.169052 -0.276402 1.876806 0.031327 -0.013534 358215.000000 0 0 1
-34.908659 10.517745 -10.127112 37.839078 -0.292643 1.841735 0.040019 -0.013161 460570.000000 0 0 1
-34.075641 11.347745 -9.365312 37.116434 -0.321465 1.825876 0.039621 -0.015092 390934.000000 0 0 1
-34.877702 12.100545 -8.447312 37.871286 -0.333948 1.795742 0.057273 -0.018222 30211.500000 0 0 1
-33.997013 12.965745 -7.532812 37.157108 -0.364351 1.774940 0.062459 -0.016608 -50603.000000 0 0 1
-33.315193 13.936745 -8.258112 37.044991 -0.396208 1.795606 0.036474 -0.021747 -57114.500000 0 0 1
-32.381283 14.653245 -7.448112 36.314452 -0.424949 1.777363 0.039455 -0.019207 277910.000000 0 0 1
-31.427403 15.541345 -8.260612 36.020171 -0.459251 1.802189 0.020444 -0.012962 -33574.800000 0 0 1
-32.129193 16.590845 -8.851312 37.227502 -0.476665 1.810858 0.017307 -0.006944 72112.700000 0 0 1
-31.267643 17.714045 -9.052312 37.059374 -0.515445 1.817558 0.028316 -0.002235 383660.000000 0 0 1
-31.933943 18.830245 -9.903512 38.372312 -0.532784 1.831841 0.011583 -0.005896 175888.000000 0 0 1
-31.931483 18.583445 -11.268712 38.625741 -0.527063 1.866843 0.010312 -0.003033 362243.000000 0 0 1
-33.035163 19.272145 -11.878812 40.048018 -0.528111 1.871942 0.003165 -0.007303 220813.000000 0 0 1
-32.777643 19.503545 -13.390212 40.423507 -0.536754 1.908422 -0.006790 0.007542 -92469.400000 0 0 1
-31.725073 20.407545 -13.695112 40.131088 -0.571624 1.919053 0.005772 0.000598 255573.000000 0 0 1
-31.745683 20.671045 -15.087012 40.776199 -0.577180 1.949801 -0.016307 0.007658 -181975.000000 0 0 1
-30.698023 21.700445 -15.584812 40.695998 -0.615342 1.963791 0.010860 -0.002719 835445.000000 0 0 1
-29.352603 21.392645 -15.117812 39.341693 -0.629805 1.965213 0.015835 0.001652 1097130.000000 0 0 1
-28.498443 22.441245 -14.867712 39.202290 -0.667045 1.959789 0.031659 0.000668 -274950.000000 0 0 1
-28.003123 23.258345 -16.106212 39.806225 -0.693101 1.987355 0.020742 -0.002716 -1363080.000000 0 0 1
-29.009723 24.049245 -16.696912 41.215495 -0.692179 1.987898 0.022215 0.004187 267007.000000 0 0 1
-28.520273 24.698445 -17.893812 41.756528 -0.713708 2.013659 0.011087 0.003315 208223.000000 0 0 1
-27.549403 25.898445 -17.711612 41.754045 -0.754519 2.008863 0.014694 0.003184 289233.000000 0 0 1
-28.242613 27.103745 -17.544112 42.895851 -0.764824 1.992147 0.023935 0.003125 -24477.000000 0 0 1
-27.332223 28.152845 -17.372012 42.911768 -0.800187 1.987590 0.019546 0.003951 -24554.100000 0 0 1
-28.008533 29.491745 -17.043712 44.099082 -0.811187 1.967616 0.015168 0.004107 -246835.000000 0 0 1
-28.467563 29.665745 -15.708912 44.013957 -0.806006 1.935752 0.017024 -0.004656 704281.000000 0 0 1
-27.481263 29.535045 -14.645312 42.918805 -0.821404 1.919025 0.013308 -0.001089 331108.000000 0 0 1
-27.840883 30.377545 -13.380712 43.323821 -0.828942 1.884784 0.015930 -0.007590 -331859.000000 0 0 1
-27.514653 31.752845 -13.291412 44.067685 -0.856786 1.877181 0.026317 -0.004657 -3681.440000 0 0 1
-27.934763 32.412345 -12.099412 44.466918 -0.859460 1.846370 0.018525 -0.002357 66335.000000 0 0 1
-27.231633 33.774445 -12.071712 45.033334 -0.892238 1.842177 0.007614 -0.001662 -33994.400000 0 0 1
-27.522903 -34.249424 -13.257912 45.894504 0.893863 1.863851 0.003258 -0.012993 -178910.000000 0 0 1
-26.794353 -33.053824 -13.412012 44.613616 0.889608 1.876145 0.025456 -0.010819 -200686.000000 0 0 1
-26.986773 -32.260924 -14.734612 44.566377 0.874183 1.907759 0.021317 -0.011408 -105125.000000 0 0 1
-26.471183 -32.875824 -15.859512 45.089549 0.892901 1.930219 0.005469 -0.011644 60394.600000 0 0 1
-27.130533 -32.362924 -17.040212 45.538923 0.873121 1.954320 0.011858 0.001219 362129.000000 0 0 1
-26.380863 -32.640124 -18.389512 45.820321 0.891055 1.983775 0.002323 0.002357 -120785.000000 0 0 1
-26.628973 -33.864224 -19.021112 47.092362 0.904437 1.986584 0.002445 0.003289 228144.000000 0 0 1
-26.026613 33.684945 -18.392912 46.371967 -0.912957 1.978649 -0.005267 0.003797 -453563.000000 0 0 1
-26.076233 32.324745 -19.193012 45.751839 -0.891986 2.003694 0.001287 -0.004052 1005170.000000 0 0 1
-27.380613 31.727545 -19.313812 46.144971 -0.858808 2.002641 0.007635 -0.001541 1059610.000000 0 0 1
-28.355023 32.407945 -20.111712 47.526447 -0.852000 2.007736 0.014155 -0.000104 310501.000000 0 0 1
-29.777443 31.798745 -19.973812 47.925040 -0.818212 2.000688 0.022653 -0.006072 259094.000000 0 0 1
-29.897303 30.605645 -20.673112 47.517699 -0.797105 2.020903 0.024905 -0.013373 646888.000000 0 0 1
-31.278373 30.252745 -20.733312 48.202027 -0.768731 2.015437 0.037167 -0.016659 381717.000000 0 0 1
-31.520213 28.867145 -21.391012 47.795515 -0.741492 2.034823 0.036504 -0.015922 -677911.000000 0 0 1
-32.882783 28.581845 -21.484912 48.577780 -0.715538 2.028934 0.041066 -0.018210 -305930.000000 0 0 1
-32.985243 27.323245 -22.099512 48.197244 -0.691789 2.047128 0.036571 -0.015393 715392.000000 0 0 1
-34.477512 26.802045 -22.118212 48.951647 -0.660794 2.039621 0.039628 -0.007624 879490.000000 0 0 1
-35.166328 27.592245 -23.056712 50.295274 -0.665293 2.047021 0.027995 -0.004609 -492742.000000 0 0 1
35.344170 26.936945 -23.512412 50.275669 0.651221 2.057449 0.029150 -0.002890 238358.000000 0 0 1
34.598680 27.639545 -24.690412 50.701376 0.674046 2.079422 0.030871 -0.005834 141794.000000 0 0 1
35.245450 27.574045 -25.940052 51.724810 0.663882 2.096129 0.043108 -0.012086 -216821.000000 0 0 1
34.327620 27.943245 -26.928232 51.810618 0.683229 2.117347 0.042855 -0.007541 313349.000000 0 0 1
35.085490 28.083545 -28.295402 53.106561 0.675004 2.132707 0.041866 -0.013828 374232.000000 0 0 1
35.578180 26.942245 -28.854372 53.143826 0.648137 2.144741 0.037831 -0.009277 -160560.000000 0 0 1
-35.342288 27.208845 -30.026542 53.767944 -0.656095 2.163309 0.022047 -0.006982 -517941.000000 0 0 1
-34.841325 25.931845 -30.741402 53.211017 -0.639833 2.186737 0.022372 -0.009835 742754.000000 0 0 1
-33.812783 25.194345 -30.056272 51.782611 -0.640366 2.190055 0.033433 -0.014259 939789.000000 0 0 1
-32.492843 25.753345 -30.138932 51.257925 -0.670203 2.199363 0.030986 -0.007794 491207.000000 0 0 1
-31.565763 25.111645 -29.061332 49.714717 -0.672012 2.195136 0.027270 -0.011367 -569690.000000 0 0 1
-31.145013 23.789445 -29.401392 48.993789 -0.652293 2.214428 0.052250 -0.018740 28775.900000 0 0 1
-31.805753 22.756245 -28.742182 48.534170 -0.621037 2.204589 0.044205 -0.016201 -84268.800000 0 0 1
-31.295713 21.338945 -29.263472 47.865677 -0.598440 2.228583 0.048036 -0.022334 901944.000000 0 0 1
-29.939273 20.965745 -28.957982 46.631398 -0.610911 2.240811 0.049471 -0.025242 749568.000000 0 0 1
-29.720193 19.648845 -29.419042 46.204405 -0.584158 2.261027 0.046139 -0.023296 -292864.000000 0 0 1
-28.245203 19.248345 -29.598132 45.214375 -0.598183 2.284473 0.057467 -0.026941 -358043.000000 0 0 1
-27.758943 19.710145 -30.853552 45.945516 -0.617437 2.307061 0.056517 -0.031594 529244.000000 0 0 1
-26.488723 19.203145 -31.263382 45.252760 -0.627279 2.333476 0.058929 -0.028834 460889.000000 0 0 1
-26.633753 17.899945 -32.023502 45.335080 -0.591739 2.355158 0.037534 -0.016735 -160204.000000 0 0 1
-26.945473 16.810045 -31.191352 44.514453 -0.557775 2.347177 0.015974 -0.011585 103872.000000 0 0 1
-27.032463 15.619545 -31.982862 44.694829 -0.523941 2.368255 0.001805 -0.006806 -199992.000000 0 0 1
-27.567113 14.383345 -31.284292 44.108199 -0.480902 2.359248 0.004416 -0.006917 761549.000000 0 0 1
-29.001783 14.478145 -31.109672 44.928074 -0.463020 2.335652 0.004004 -0.008674 1389720.000000 0 0 1
-29.681983 13.217845 -30.886802 44.829969 -0.418951 2.330873 -0.001208 -0.009928 80482.900000 0 0 1
-29.282953 12.353345 -29.680302 43.485823 -0.399209 2.322013 -0.011896 -0.010449 -566013.000000 0 0 1
-29.560533 13.022145 -28.448052 43.042921 -0.414946 2.292844 -0.018723 -0.014278 377654.000000 0 0 1
-29.903773 12.063045 -27.452912 42.348732 -0.383430 2.276091 -0.010332 -0.000263 -30506.200000 0 0 1
-29.843773 12.554945 -26.017922 41.535644 -0.398213 2.247722 -0.013708 -0.000422 -408158.000000 0 0 1
-28.533753 12.813845 -25.610272 40.425929 -0.422086 2.256879 -0.007287 -0.003293 -392911.000000 0 0 1
-28.488703 13.545345 -24.389612 39.873998 -0.443827 2.228962 -0.011920 0.001061 286321.000000 0 0 1
-27.018043 13.689445 -23.910112 38.588457 -0.468976 2.239053 -0.005552 0.006082 -91492.000000 0 0 1
-26.220583 14.568545 -24.704712 38.859803 -0.507144 2.259763 0.006304 -0.004306 1331350.000000 0 0 1
-24.800363 14.611145 -24.425712 37.751278 -0.532404 2.274462 0.012147 -0.012506 1428230.000000 0 0 1
-24.476363 15.213745 -23.032612 36.892433 -0.556128 2.245055 0.017932 -0.010564 -1104770.000000 0 0 1
-24.784963 16.613045 -22.962612 37.650620 -0.590505 2.226714 0.036230 -0.016344 67419.000000 0 0 1
-24.847363 16.972945 -21.605312 37.044052 -0.599285 2.193499 0.028022 -0.004388 -325265.000000 0 0 1
-26.272413 17.339845 -21.181512 37.941618 -0.583374 2.163091 0.016664 -0.003166 113065.000000 0 0 1
-27.194503 16.243645 -21.082612 38.050933 -0.538442 2.158033 0.021062 0.002562 121529.000000 0 0 1
-28.433543 16.671345 -20.569912 38.852559 -0.530305 2.128731 0.021781 0.010937 -425228.000000 0 0 1
-29.446863 15.454045 -20.673712 39.157983 -0.483299 2.126989 -0.006758 0.007352 280820.000000 0 0 1
-29.979633 15.141745 -21.965012 40.131192 -0.467694 2.149967 -0.008775 0.007934 356464.000000 0 0 1
-30.915913 16.123545 -22.376412 41.430257 -0.480722 2.141350 -0.015850 0.001584 -657758.000000 0 0 1
-31.317523 16.145145 -23.858912 42.552328 -0.475995 2.166022 -0.012223 -0.001646 -927674.000000 0 0 1
-32.447023 15.376345 -24.037012 43.209018 -0.442543 2.160718 0.000408 0.000107 -726962.000000 0 0 1
-32.750953 15.448445 -25.401962 44.232782 -0.440748 2.182520 0.011523 -0.010503 706061.000000 0 0 1
-34.028113 14.563145 -25.722702 45.073884 -0.404387 2.178128 0.005524 -0.007480 727722.000000 0 0 1
-33.796983 13.204145 -25.929912 44.597599 -0.372455 2.191269 0.001240 -0.008007 162478.000000 0 0 1
-33.697243 12.484045 -24.672712 43.590117 -0.354799 2.172462 -0.007456 -0.004068 -209994.000000 0 0 1
-33.587383 10.940945 -24.797712 43.159507 -0.314906 2.182862 0.002763 -0.004231 753872.000000 0 0 1
-34.834277 10.351245 -25.233722 44.241562 -0.288846 2.177743 0.018056 -0.014922 829184.000000 0 0 1
-34.653597 9.174745 -25.941922 44.249645 -0.258818 2.197234 0.014038 -0.009886 -2020.030000 0 0 1
35.748444 8.474745 -26.472912 45.283414 0.232769 2.195189 0.035290 -0.011884 -214474.000000 0 0 1
34.942340 7.897845 -25.478262 43.960038 0.222290 2.189007 0.029097 -0.010054 -512242.000000 0 0 1
33.890260 7.349945 -26.240692 43.487301 0.213567 2.218567 0.029998 -0.010110 329806.000000 0 0 1
32.868730 6.462845 -25.428502 42.056278 0.194149 2.220098 0.034276 -0.013226 638132.000000 0 0 1
33.616210 5.420245 -24.821512 42.137111 0.159863 2.200698 0.040114 -0.020652 140991.000000 0 0 1
32.807910 4.545245 -24.085912 40.953014 0.137665 2.199548 0.038082 -0.012134 -333015.000000 0 0 1
33.576160 3.554245 -23.217212 40.975970 0.105463 2.173177 0.039721 -0.013915 -185246.000000 0 0 1
34.224180 2.591245 -24.001512 41.881758 0.075570 2.181053 0.041046 -0.019613 691144.000000 0 0 1
35.452800 2.125345 -23.399812 42.531980 0.059877 2.153364 0.045385 -0.013484 633796.000000 0 0 1
-35.508720 1.093745 -24.271512 43.025246 -0.030792 2.170167 0.052481 -0.013080 -258308.000000 0 0 1
35.496480 -0.077055 -24.585812 43.179488 -0.002171 2.176556 0.042390 -0.008650 -306154.000000 0 0 1
-35.237790 -1.109155 -24.717612 43.056851 0.031466 2.182263 0.052640 -0.010823 304077.000000 0 0 1
-23.051363 29.830845 27.278418 46.533394 -0.912902 0.944421 0.041625 -0.012744 -262249.000000 0 0 1
-24.254163 30.090045 26.543178 46.885131 -0.892376 0.968990 0.026468 -0.018246 895243.000000 0 0 1
-24.329063 29.329845 25.308248 45.745497 -0.878325 0.984547 0.025216 -0.006312 -356615.000000 0 0 1
-24.633263 27.818745 25.342568 44.976949 -0.846055 0.972232 0.027193 -0.013688 104419.000000 0 0 1
-25.840723 27.347145 25.942598 45.701506 -0.813713 0.967144 0.031391 -0.014560 436820.000000 0 0 1
-26.052173 27.570545 27.334898 46.755185 -0.813706 0.946361 0.032493 -0.015554 -821949.000000 0 0 1
-25.541363 26.438545 28.335018 46.413695 -0.802657 0.914119 0.034350 -0.005941 -1401600.000000 0 0 1
-24.193463 26.482945 28.568228 45.856446 -0.830546 0.898234 0.045068 -0.008520 -1409460.000000 0 0 1
-23.848863 27.290745 29.688078 46.850133 -0.852600 0.884493 0.040436 -0.010835 -255601.000000 0 0 1
-22.558763 26.862245 30.398078 46.416819 -0.872257 0.856754 0.049334 -0.002923 560404.000000 0 0 1
-21.348363 27.042545 29.620018 45.435639 -0.902530 0.860694 0.055777 -0.008300 1188040.000000 0 0 1
-20.213363 26.574045 30.371378 45.135136 -0.920518 0.832676 0.081410 -0.010121 554061.000000 0 0 1
-19.643263 25.265445 29.778168 43.714297 -0.909942 0.821396 0.069512 -0.006911 -40194.000000 0 0 1
-18.962663 25.349845 28.505848 42.600242 -0.928552 0.837735 0.064408 -0.001093 242272.000000 0 0 1
-19.376163 24.386545 27.518328 41.561973 -0.899392 0.847174 0.055438 0.000281 -55360.100000 0 0 1
-19.159263 22.880845 27.716308 40.728419 -0.873693 0.822331 0.045972 0.010519 244858.000000 0 0 1
-20.043763 22.337345 28.717628 41.538074 -0.839463 0.807431 0.027542 0.003809 422185.000000 0 0 1
-19.811763 20.977645 28.911778 40.846768 -0.813973 0.784402 0.028869 0.001399 -4374.670000 0 0 1
-20.242463 20.364945 30.242468 41.702460 -0.788414 0.759477 0.036286 -0.001621 361674.000000 0 0 1
-19.278063 20.612245 31.264738 42.118787 -0.818832 0.734301 0.035888 -0.012266 620629.000000 0 0 1
-19.777163 20.033645 32.448058 42.957649 -0.791841 0.714608 0.035241 -0.010504 281281.000000 0 0 1
-18.905563 20.663445 33.573028 43.721236 -0.829795 0.695258 0.047164 -0.016284 -535428.000000 0 0 1
-19.035363 22.098945 33.673612 44.549080 -0.859738 0.713804 0.038749 -0.014161 87331.600000 0 0 1
-18.151363 22.818045 32.813419 43.895964 -0.898816 0.726465 0.056555 -0.012913 240265.000000 0 0 1
-16.680063 22.871345 33.325931 43.725743 -0.940676 0.704156 0.058207 -0.009713 126221.000000 0 0 1
-16.086563 21.603045 33.444306 42.941712 -0.930732 0.677998 0.059597 -0.015811 451065.000000 0 0 1
-14.689263 21.687545 33.814987 42.773560 -0.975459 0.659076 0.039030 -0.011573 724176.000000 0 0 1
-13.859963 20.387245 33.545255 41.629586 -0.973732 0.633766 0.037070 -0.015550 1310930.000000 0 0 1
-12.495163 20.330345 34.035884 41.567937 -1.019706 0.611476 0.022672 -0.014532 1177890.000000 0 0 1
-12.357763 20.518245 -33.203552 40.941282 -1.028701 2.516663 0.033346 -0.017372 -241067.000000 0 0 1
-10.891863 20.277145 -32.726972 40.010623 -1.077872 2.528647 0.029316 -0.018550 703881.000000 0 0 1
-10.003863 21.326145 -33.132312 40.652575 -1.132182 2.523545 0.028712 -0.014129 223392.000000 0 0 1
-8.853963 21.213745 -32.283212 39.631066 -1.175407 2.522825 0.023793 -0.017934 592531.000000 0 0 1
-7.885163 22.455245 -32.352922 40.163732 -1.233097 2.507359 0.024469 -0.015565 327704.000000 0 0 1
-8.152563 23.520445 -31.507552 40.154719 -1.237139 2.472934 0.027365 -0.009545 -25066.200000 0 0 1
-7.755963 23.245545 -30.164972 38.864326 -1.248757 2.459351 0.021697 -0.015870 -72894.100000 0 0 1
-7.213663 24.451045 -29.352822 38.877740 -1.283910 2.426455 0.014847 -0.013345 409342.000000 0 0 1
-6.014863 24.993845 -29.893272 39.426876 -1.334633 2.431337 0.007830 -0.007521 182873.000000 0 0 1
-5.810963 26.317645 -29.526642 39.977598 -1.353482 2.401758 0.010638 -0.000199 424719.000000 0 0 1
-4.476363 26.905545 -30.106862 40.624738 -1.405933 2.405499 0.014680 0.000770 943397.000000 0 0 1
-3.329463 26.251145 -29.507702 39.634737 -1.444639 2.410568 0.019691 -0.009144 483639.000000 0 0 1
-2.090463 26.570145 -30.092152 40.198013 -1.492281 2.416741 0.022104 -0.004140 163170.000000 0 0 1
-1.434963 27.905845 -29.678912 40.763134 -1.519420 2.386316 0.022352 -0.011611 -588570.000000 0 0 1
-1.023363 27.909745 -28.330842 39.782380 -1.534146 2.363346 0.034201 -0.022733 248619.000000 0 0 1
-0.454063 29.162245 -27.985482 40.420662 -1.555227 2.335545 0.033016 -0.020451 -522100.000000 0 0 1
0.032737 29.376745 -26.521332 39.577459 1.569682 2.305156 0.052056 -0.036997 753938.000000 0 0 1
1.160837 28.656645 -25.990832 38.704963 1.530310 2.307043 0.077114 -0.046980 1247350.000000 0 0 1
2.431437 28.934045 -26.609422 39.384669 1.486960 2.312614 0.085873 -0.045306 89667.700000 0 0 1
3.540837 28.969745 -25.557472 38.793917 1.449174 2.290020 0.085035 -0.053629 -461169.000000 0 0 1
3.872737 27.680645 -25.093472 37.561929 1.431791 2.302390 0.100813 -0.045057 465270.000000 0 0 1
5.111337 27.816445 -24.390312 37.346589 1.389071 2.282441 0.076331 -0.033040 625218.000000 0 0 1
5.741637 26.452845 -23.935412 36.133410 1.357060 2.294838 0.075809 -0.033724 526191.000000 0 0 1
7.002537 26.633645 -23.296012 36.070636 1.313694 2.272925 0.060023 -0.029837 -119421.000000 0 0 1
7.437037 25.424145 -22.693712 34.881245 1.286217 2.279170 0.059475 -0.016539 1702410.000000 0 0 1
8.961237 25.494545 -22.219512 34.985459 1.232789 2.258943 0.050131 0.003680 1149540.000000 0 0 1
9.163637 26.292245 -21.051112 34.905640 1.235432 2.218161 0.054110 -0.000727 -81834.000000 0 0 1
10.473837 26.781445 -20.848912 35.519350 1.197998 2.198112 0.054472 -0.002708 515450.000000 0 0 1
11.519837 25.788045 -20.189212 34.717923 1.150680 2.191394 0.034252 0.013240 314722.000000 0 0 1
11.836037 24.753745 -21.074212 34.597140 1.124780 2.225762 0.028020 0.004133 -198169.000000 0 0 1
11.999337 23.541245 -20.398212 33.380554 1.099407 2.228221 0.013280 0.015699 -44583.400000 0 0 1
12.253537 22.338345 -21.395112 33.270132 1.069073 2.269300 0.015793 0.011276 -175480.000000 0 0 1
11.139737 22.121245 -22.207812 33.266051 1.104292 2.301753 0.020910 -0.004143 -304701.000000 0 0 1
11.241937 20.844545 -22.866612 32.920482 1.076188 2.338662 0.023390 0.012574 93502.200000 0 0 1
10.493937 20.788045 -24.222812 33.600746 1.103311 2.375898 0.030806 0.012865 1187950.000000 0 0 1
9.056837 20.842645 -24.226212 33.216735 1.160878 2.388150 0.023169 0.006055 626348.000000 0 0 1
8.501837 20.481745 -25.457242 33.761728 1.177346 2.424967 0.019451 0.004094 844635.000000 0 0 1
6.947137 20.212645 -25.304972 33.123335 1.239743 2.440228 0.024186 -0.009961 1679530.000000 0 0 1
6.166337 21.463145 -25.155352 33.637510 1.291032 2.415593 0.048760 -0.012741 301191.000000 0 0 1
6.100537 21.904445 -23.816712 32.928059 1.299173 2.379359 0.048843 -0.009774 -725038.000000 0 0 1
4.766937 22.334845 -23.185612 32.544456 1.360521 2.363750 0.062413 -0.019260 -21989.100000 0 0 1
4.151237 23.431445 -23.832812 33.678900 1.395451 2.356960 0.059204 -0.025289 -385499.000000 0 0 1
2.757237 23.451145 -23.664012 33.429688 1.453760 2.357280 0.067280 -0.023632 -229914.000000 0 0 1
2.230637 24.624145 -24.506812 34.812470 1.480455 2.351763 0.064402 -0.018675 193428.000000 0 0 1
0.832937 24.586845 -24.777612 34.916139 1.536932 2.359772 0.070253 -0.040700 398178.000000 0 0 1
0.477737 25.361545 -25.914002 36.262538 1.551961 2.366880 0.063120 -0.035044 -15233.600000 0 0 1
-0.995163 25.205745 -26.323182 36.458604 -1.531335 2.377488 0.068378 -0.031464 -63802.000000 0 0 1
-1.211163 23.907845 -26.833802 35.959768 -1.520180 2.413158 0.081751 -0.040692 416504.000000 0 0 1
-2.551963 23.821045 -27.334932 36.347671 -1.464073 2.421949 0.076708 -0.029301 695520.000000 0 0 1
-3.015163 22.363345 -27.582992 35.637506 -1.436778 2.455911 0.077087 -0.027597 -104766.000000 0 0 1
-2.398663 21.775545 -28.742912 36.139770 -1.461085 2.490342 0.094618 -0.031622 360228.000000 0 0 1
-3.166663 20.629245 -29.169702 35.867325 -1.418482 2.520541 0.085284 -0.040839 -209614.000000 0 0 1
-4.272063 20.951045 -30.156372 36.967602 -1.369647 2.524823 0.058936 -0.030366 -652549.000000 0 0 1
-3.984363 21.364845 -31.531472 38.295763 -1.386423 2.538115 0.065686 -0.028707 64156.700000 0 0 1
-3.282963 22.615545 -31.739472 39.110546 -1.426639 2.517566 0.070832 -0.023700 288005.000000 0 0 1
-2.720363 22.770545 -33.149752 40.308860 -1.451891 2.536402 0.045188 -0.017961 390391.000000 0 0 1
-1.653763 21.878645 -33.496462 40.042765 -1.495352 2.561692 0.048378 -0.014532 397986.000000 0 0 1
-1.315663 21.949745 33.753749 40.284462 -1.510928 0.577399 0.042903 -0.000817 245769.000000 0 0 1
-0.218363 20.948745 33.309697 39.350140 -1.560373 0.561429 0.042163 0.001901 247608.000000 0 0 1
-0.729463 19.644645 33.094294 38.492551 -1.533680 0.536000 0.036738 0.011607 -171873.000000 0 0 1
0.243637 18.832345 32.529048 37.587971 1.557860 0.524826 0.047108 0.002265 -221301.000000 0 0 1
-0.288263 17.391345 32.234558 36.627977 -1.554223 0.494823 0.043658 0.003553 349133.000000 0 0 1
-1.263263 17.322445 31.211138 35.718316 -1.497999 0.507806 0.040866 0.005189 96801.200000 0 0 1
-1.826863 16.069145 31.036758 34.997646 -1.457595 0.480370 0.033695 0.001622 -367314.000000 0 0 1
-2.810363 15.926845 29.811558 33.915948 -1.396140 0.497070 0.042848 0.002692 632220.000000 0 0 1
-4.132363 16.405045 30.017528 34.456551 -1.324034 0.513215 0.035775 -0.006697 347670.000000 0 0 1
-4.191963 17.819845 29.921708 35.077458 -1.339756 0.549055 0.030097 -0.001125 190423.000000 0 0 1
-5.700563 18.252845 29.926358 35.514077 -1.268084 0.568588 0.027024 -0.009277 721336.000000 0 0 1
-6.322063 17.839745 28.724288 34.399269 -1.230224 0.582616 0.011433 -0.006636 -581777.000000 0 0 1
-7.664763 18.245145 28.801228 34.944880 -1.173084 0.602026 -0.000373 0.002013 -843737.000000 0 0 1
-8.616063 17.475045 27.866128 34.001983 -1.112725 0.610181 0.006188 0.001771 300103.000000 0 0 1
-9.243063 16.210545 28.270418 33.873773 -1.052586 0.583424 0.030021 -0.011373 576923.000000 0 0 1
-9.979063 16.317645 29.497328 35.155933 -1.021927 0.575275 0.036042 -0.009877 -898046.000000 0 0 1
-10.546163 14.924345 29.762358 34.924999 -0.955627 0.550660 0.048676 -0.018999 387952.000000 0 0 1
-9.563863 13.846945 29.850188 34.267172 -0.966350 0.513355 0.042488 -0.011451 1239710.000000 0 0 1
-8.670263 13.756245 30.979258 34.987457 -1.008410 0.483359 0.035213 -0.016691 182394.000000 0 0 1
-9.354263 13.457145 32.320888 36.238609 -0.963356 0.469287 0.063179 -0.027758 -315023.000000 0 0 1
-9.548163 12.033745 32.337718 35.800928 -0.900063 0.443478 0.059995 -0.016617 337095.000000 0 0 1
-10.197863 11.651145 33.529291 36.931815 -0.851815 0.432621 0.062752 -0.011650 -377753.000000 0 0 1
-10.427463 10.094745 33.580288 36.582395 -0.769187 0.407951 0.052286 -0.014307 872699.000000 0 0 1
-9.239463 9.291345 33.900455 36.344706 -0.788198 0.368835 0.061157 -0.012625 1125580.000000 0 0 1
-9.388163 8.644845 -33.491022 35.840194 -0.744202 2.777520 0.086793 -0.023415 -43356.800000 0 0 1
-8.549063 9.296445 -32.380242 34.756157 -0.827254 2.769698 0.072816 -0.024480 140214.000000 0 0 1
-9.149663 10.487845 -31.819422 34.730201 -0.853437 2.729261 0.060673 -0.023455 477026.000000 0 0 1
-8.277363 11.138245 -30.906422 33.878934 -0.931695 2.719566 0.058741 -0.009903 379718.000000 0 0 1
-7.310863 12.248145 -31.465222 34.547445 -1.032663 2.715973 0.051561 -0.013658 159584.000000 0 0 1
-7.899663 13.473245 -31.734262 35.369428 -1.040495 2.684236 0.057031 -0.018276 -126663.000000 0 0 1
-6.898763 14.352545 -32.184142 35.908321 -1.122736 2.682120 0.041588 -0.015721 -31431.200000 0 0 1
-7.348263 15.792545 -32.513532 36.885380 -1.135292 2.649773 0.033463 -0.017381 -154628.000000 0 0 1
-8.139363 15.858445 -33.681882 38.107856 -1.096604 2.654840 0.031454 -0.018874 -162946.000000 0 0 1
-8.554163 17.177645 -33.863682 38.922926 -1.108764 2.626037 0.047314 -0.020860 -303297.000000 0 0 1
-9.346563 17.315645 33.406193 38.770653 -1.075837 0.532312 0.019103 -0.021666 1212040.000000 0 0 1
-10.517763 16.523745 33.167886 38.519685 -1.003953 0.533439 0.031244 -0.025900 811607.000000 0 0 1
-11.644063 16.823145 33.979985 39.664112 -0.965361 0.541971 0.037096 -0.041247 117674.000000 0 0 1
-13.012763 16.364045 33.400980 39.404815 -0.898986 0.559281 0.044715 -0.038364 247521.000000 0 0 1
-13.024263 14.941845 33.200926 38.667708 -0.853859 0.538222 0.038705 -0.036601 -47862.400000 0 0 1
-13.882163 14.218145 34.033582 39.410085 -0.797354 0.528478 0.036138 -0.029969 -303292.000000 0 0 1
-14.006763 12.684745 33.710617 38.645800 -0.735909 0.510916 0.029855 -0.027466 188419.000000 0 0 1
-14.484863 12.311945 32.405848 37.570390 -0.704486 0.530534 0.017641 -0.023084 527918.000000 0 0 1
-13.319863 11.989145 31.669448 36.388354 -0.732868 0.514948 0.032519 -0.012834 -49912.900000 0 0 1
-13.547563 11.559045 30.228728 35.084526 -0.706360 0.532388 0.024650 -0.006120 -49955.700000 0 0 1
-14.130363 10.258745 30.106648 34.804012 -0.627968 0.525579 0.025279 -0.005543 137068.000000 0 0 1
-14.052963 9.717745 28.748338 33.442298 -0.605004 0.536232 0.016574 -0.005703 100915.000000 0 0 1
-14.829563 8.410345 28.459738 33.175390 -0.515902 0.539712 0.022351 -0.007382 326855.000000 0 0 1
-14.205663 7.269745 29.054498 33.148362 -0.473003 0.502256 0.009558 -0.007078 139167.000000 0 0 1
-15.014463 6.143045 28.876728 33.121542 -0.388362 0.511847 0.023525 -0.000596 212508.000000 0 0 1
-14.140963 4.836045 28.805798 32.451936 -0.329520 0.478590 0.022396 0.000770 1085900.000000 0 0 1
-13.148563 4.753045 27.748828 31.072071 -0.346872 0.466724 0.017140 -0.000996 653061.000000 0 0 1
-13.699663 4.830545 26.402018 30.134391 -0.338992 0.502996 0.026029 0.003340 -249784.000000 0 0 1
-12.778063 4.523045 25.214728 28.627248 -0.340207 0.493258 0.022161 0.017116 -346385.000000 0 0 1
-12.176363 3.257445 25.215378 28.190248 -0.261401 0.463548 0.010691 0.012009 127933.000000 0 0 1
-11.599563 2.953045 23.939598 26.765177 -0.249287 0.463640 0.014304 0.013846 -90750.700000 0 0 1
-10.630263 1.744345 23.912048 26.226538 -0.162643 0.423271 0.012589 0.008826 992152.000000 0 0 1
-9.271763 2.109345 24.227188 26.026363 -0.223695 0.374006 0.013999 -0.001985 1055330.000000 0 0 1
-8.373363 0.994745 24.251198 25.675345 -0.118245 0.334628 0.004466 0.001701 319864.000000 0 0 1
-6.878963 1.339145 24.227388 25.220622 -0.192268 0.281578 0.016649 -0.005635 -653858.000000 0 0 1
-6.502363 1.781745 22.949878 23.919704 -0.267450 0.285734 0.027908 -0.009998 1261280.000000 0 1 0
-5.097863 1.984145 22.620978 23.273025 -0.371171 0.237272 0.024419 -0.014183 1360870.000000 0 1 0
-4.502163 3.275745 23.239078 23.896752 -0.629006 0.235154 0.028891 -0.015286 -731827.000000 0 1 0
-4.535163 3.177345 24.659548 25.273633 -0.611130 0.220891 0.030819 -0.018155 -26398.300000 0 0 1
-4.213263 4.478745 25.086608 25.829221 -0.815932 0.240373 0.023335 -0.020914 -136145.000000 0 0 1
4.078137 -23.342655 13.031688 27.043218 -1.397834 1.067993 0.064930 0.001590 195727.000000 0 0 1
3.780837 -24.710055 13.278588 28.305520 -1.418966 1.082506 0.051534 -0.001754 -314841.000000 0 0 1
2.411237 -24.912455 13.540888 28.456988 -1.474308 1.074881 0.043246 0.005161 -114884.000000 0 0 1
2.067637 -26.296605 14.090688 29.905419 -1.492330 1.080174 0.027069 -0.001397 -122121.000000 0 0 1
2.200737 -26.351695 15.551888 30.677619 -1.487476 1.039159 0.040826 -0.006411 -447763.000000 0 0 1
2.912537 -27.387125 16.035888 31.869848 -1.464848 1.043536 0.023717 -0.003114 -1054570.000000 0 0 1
2.805737 -27.672445 17.527188 32.876111 -1.469751 1.008502 0.030805 0.001691 76281.600000 0 0 1
3.498637 -26.806005 18.447688 32.727963 -1.441013 0.971977 0.022552 -0.007987 389203.000000 0 0 1
3.360437 -27.304365 19.783888 33.885441 -1.448339 0.947338 0.015725 -0.004782 -53630.300000 0 0 1
3.916637 -26.306465 20.821188 33.777093 -1.422997 0.906597 0.011577 -0.000727 128099.000000 0 0 1
3.200437 -25.094445 20.824188 32.766153 -1.443945 0.882089 0.021882 0.000396 267139.000000 0 0 1
3.796937 -24.379255 21.852788 32.959204 -1.416293 0.845943 0.036408 -0.001459 179732.000000 0 0 1
2.832737 -23.261755 22.352688 32.384816 -1.449616 0.809002 0.049093 -0.007137 -14247.200000 0 0 1
2.506537 -22.188155 21.432588 30.950812 -1.458306 0.805886 0.063835 -0.007765 531429.000000 0 0 1
3.610837 -21.312555 21.155788 30.246165 -1.402967 0.796164 0.065841 0.003666 316824.000000 0 0 1
3.244037 -20.080855 20.292288 28.732237 -1.410631 0.786602 0.054162 -0.006615 -192763.000000 0 0 1
2.394837 -19.195855 21.030088 28.574126 -1.446680 0.743678 0.027129 -0.009378 -31119.400000 0 0 1
1.473037 -18.578855 20.179688 27.469319 -1.491676 0.745680 0.019969 -0.012946 -582977.000000 0 0 1
0.912237 -17.292155 20.766688 27.038974 -1.518091 0.695040 0.020027 -0.017284 -286264.000000 0 0 1
1.890537 -16.307655 20.991488 26.648758 -1.455382 0.663714 0.003499 0.003127 -470912.000000 0 0 1
1.373737 -15.021455 21.137188 25.967518 -1.479598 0.619815 0.005592 0.001086 -131314.000000 0 0 1
2.426437 -13.877955 21.086488 25.359913 -1.397705 0.589014 -0.011932 0.011599 -151695.000000 0 0 1
2.986237 -13.534955 19.824688 24.189478 -1.353644 0.610157 -0.023593 0.016551 58784.600000 0 1 0
2.107537 -12.972655 18.834188 22.966456 -1.409743 0.609256 -0.010696 0.012522 367123.000000 0 1 0
1.256637 -11.699655 19.198088 22.517274 -1.463798 0.549868 -0.008169 0.005651 -420160.000000 0 1 0
1.981937 -10.521855 19.433788 22.188051 -1.384614 0.503566 -0.006144 0.023388 -655278.000000 0 1 0
1.479937 -9.605555 20.373988 22.573353 -1.417927 0.445099 -0.002243 0.008004 -1213140.000000 0 1 0
0.100137 -9.065755 20.118388 22.066886 -1.559751 0.423393 0.013315 -0.004878 -766219.000000 0 1 0
-0.348063 -8.227555 21.150488 22.697069 1.528517 0.371291 0.016390 -0.012857 -1711790.000000 0 1 0
-1.671463 -7.922855 21.039688 22.544043 1.362878 0.367383 0.021104 -0.012791 -1341330.000000 0 1 0
-2.122663 -7.204855 22.338988 23.567902 1.284287 0.324355 0.024828 -0.011244 -251857.000000 0 1 0
-2.244763 -7.997555 23.482288 24.908185 1.297156 0.340002 0.024308 -0.002607 145805.000000 0 1 0
-2.432763 -7.236955 24.688088 25.841701 1.246505 0.299926 0.027465 -0.000560 -15151.900000 0 0 1
-2.611763 -8.192355 25.865388 27.257187 1.262178 0.320943 0.030120 0.001979 -580400.000000 0 0 1
-1.356563 -8.624755 26.256988 27.670491 1.414787 0.321012 0.023064 -0.004651 -661603.000000 0 0 1
-1.394263 -9.780755 27.070888 28.817358 1.429199 0.349934 0.042228 -0.006347 -706704.000000 0 0 1
-0.121463 -10.591655 27.138188 29.132098 1.559329 0.372127 0.043426 -0.009226 -485250.000000 0 0 1
0.903137 -10.065355 27.984988 29.753766 -1.481309 0.346542 0.038698 -0.008537 -136177.000000 0 0 1
1.869137 -11.077955 28.101888 30.264350 -1.403645 0.380316 0.045513 -0.015667 -355238.000000 0 0 1
3.056937 -10.788955 29.027688 31.118372 -1.294694 0.368649 0.053844 -0.015111 -93232.400000 0 0 1
2.649037 -10.519855 30.369188 32.248602 -1.324112 0.343086 0.053369 -0.019548 442229.000000 0 0 1
3.709837 -9.973055 31.160488 32.927203 -1.214671 0.329065 0.051260 -0.008317 344476.000000 0 0 1
3.267337 -9.820455 32.659088 34.259785 -1.249609 0.306890 0.046479 -0.007907 -51667.900000 0 0 1
3.345437 -11.118355 33.330688 35.295106 -1.278520 0.335205 0.041142 -0.009575 182328.000000 0 0 1
2.651337 -11.251355 -34.081403 35.988396 -1.339372 2.814595 0.042318 -0.005764 40504.900000 0 0 1
3.332437 -10.575955 -32.847003 34.668164 -1.265549 2.816023 0.031188 0.005586 37751.900000 0 0 1
2.882137 -9.214555 -32.700903 34.096390 -1.267656 2.854504 0.033351 -0.001322 423071.000000 0 0 1
3.545737 -8.532455 -31.643503 32.964926 -1.176950 2.857493 0.028928 0.000960 214574.000000 0 0 1
2.882637 -7.110755 -31.385003 32.309300 -1.185651 2.901821 0.005387 -0.000449 101149.000000 0 0 1
2.976837 -6.149855 -32.393203 33.105920 -1.119990 2.933717 0.031632 -0.002710 86614.400000 0 0 1
3.142137 -4.828155 -31.917703 32.433376 -0.993863 2.963033 0.019815 0.000716 -108128.000000 0 0 1
3.204637 -3.796855 -33.014703 33.386471 -0.869782 2.992221 0.024690 0.008608 466765.000000 0 0 1
2.014137 -3.711455 -33.799603 34.062367 -1.073589 3.017302 0.026918 0.009145 332638.000000 0 0 1
2.279437 -2.744855 33.811388 33.999118 -0.877768 0.105135 0.054294 0.009511 457889.000000 0 0 1
1.704037 -3.099155 32.373488 32.566105 -1.068077 0.108816 0.063227 0.003839 672395.000000 0 0 1
0.307037 -2.920855 32.214788 32.348388 -1.466062 0.090916 0.054789 -0.001289 106270.000000 0 0 1
-0.205563 -3.462155 30.990288 31.183757 1.511492 0.111450 0.058185 -0.004666 1398190.000000 0 0 1
-1.776363 -3.500455 30.882288 31.130762 1.101194 0.126430 0.038557 -0.004960 1348830.000000 0 0 1
-2.535963 -2.343655 30.519888 30.714612 0.746008 0.112663 0.022884 -0.006487 296574.000000 0 0 1
-3.919563 -2.673455 30.527788 30.894274 0.598598 0.154182 0.009502 -0.004108 365917.000000 0 0 1
-4.767863 -1.574655 29.864488 30.283653 0.318986 0.166574 0.009653 -0.003114 -549445.000000 0 0 1
-4.793663 -1.658955 28.425788 28.874846 0.333172 0.176592 0.004087 -0.001177 -41143.400000 0 0 1
-5.840463 -0.915555 27.824188 28.445292 0.155495 0.209356 -0.014789 -0.004330 278976.000000 0 0 1
-5.890463 0.587445 28.002188 28.621061 -0.099399 0.208333 0.003780 -0.007211 -58299.100000 0 0 1
-6.367363 0.876045 29.298088 29.994811 -0.136725 0.215957 0.003384 -0.002231 -426765.000000 0 0 1
-6.812563 2.209445 29.313988 30.176191 -0.313616 0.239622 0.011659 -0.007474 -14797.700000 0 0 1
-8.277763 2.389045 29.772888 30.994414 -0.280975 0.281684 0.002241 -0.003532 332895.000000 0 0 1
-9.199663 1.771645 28.878588 30.360259 -0.190248 0.313704 -0.002746 0.008151 925199.000000 0 0 1
-10.517963 2.365345 28.964488 30.905726 -0.221206 0.356316 -0.007185 0.007007 1063140.000000 0 0 1
-11.579963 1.564245 28.182088 30.508564 -0.134269 0.393054 0.006426 0.008697 -83672.300000 0 0 1
-11.800363 0.296745 28.722288 31.053283 -0.025142 0.389930 0.007249 0.008890 -201400.000000 0 0 1
-12.132263 -0.528155 27.661688 30.209927 0.043506 0.413677 0.006690 0.018269 -845243.000000 0 0 1
-11.904263 -2.049155 27.892088 30.395379 0.170466 0.408690 0.013048 0.017669 1041750.000000 0 0 1
-10.550263 -2.524555 28.024188 30.050566 0.234872 0.369335 0.007891 0.013085 1516480.000000 0 0 1
-9.550363 -2.197955 27.030188 28.751895 0.226205 0.347819 0.015215 0.007867 62941.600000 0 0 1
-9.606163 -2.909655 25.612688 27.509166 0.294110 0.373489 0.004924 0.015371 364126.000000 0 0 1
-10.736563 -2.456955 24.825588 27.159164 0.224966 0.417568 -0.005298 0.018179 1029610.000000 0 0 1
-10.598163 -3.022255 23.539788 25.991858 0.277794 0.437862 -0.001062 0.015568 327158.000000 0 0 1
-9.542463 -2.401455 22.557788 24.610554 0.246540 0.411330 0.009793 0.005158 1015480.000000 0 1 0
-8.209663 -2.560355 23.037188 24.589957 0.302312 0.357274 0.009989 0.004090 -54880.400000 0 1 0
-7.253663 -2.211255 22.048688 23.316301 0.295897 0.331258 0.012509 -0.002683 462181.000000 0 1 0
-5.804763 -2.263455 22.626488 23.468627 0.371796 0.268702 0.011014 -0.001386 353977.000000 0 1 0
-5.178463 -3.562655 22.683088 23.537873 0.602610 0.270323 0.010505 -0.002312 3948.790000 0 1 0
-5.733363 -4.548255 23.564988 24.675225 0.670640 0.301116 0.007643 0.002411 -192756.000000 0 1 0
-5.650663 -6.041355 23.193088 24.624120 0.818801 0.342598 0.022763 0.001608 400830.000000 0 1 0
-6.627263 -6.512355 22.216588 24.081282 0.776653 0.396116 0.032931 -0.007077 486708.000000 0 1 0
-6.378663 -6.072355 20.886388 22.667201 0.760802 0.399035 0.034362 -0.012964 -29037.800000 0 1 0
-7.596763 -6.206955 19.927688 22.211480 0.685053 0.457455 0.034779 -0.011737 481133.000000 0 1 0
-8.499163 -5.110355 20.088488 22.403099 0.541358 0.458577 0.039275 -0.011710 -648607.000000 0 1 0
-9.483763 -5.051355 19.135188 21.945691 0.489411 0.511658 0.037761 -0.008414 -90378.600000 0 1 0
-10.188163 -3.664355 19.047288 21.909480 0.345262 0.516885 0.024561 -0.012472 1193090.000000 0 1 0
-9.123063 -2.734055 18.724088 21.007065 0.291169 0.470541 0.023880 -0.010762 916716.000000 0 1 0
-9.605363 -1.417555 18.760588 21.124206 0.146522 0.477583 0.015197 -0.008864 595011.000000 0 1 0
-8.497263 -0.409555 18.260188 20.144619 0.048161 0.435984 0.018863 -0.010606 863495.000000 0 1 0
-7.434263 -0.024555 19.127088 20.521071 0.003303 0.370709 0.030840 -0.004380 496711.000000 0 1 0
-7.843663 0.909545 20.115888 21.610165 -0.115444 0.374056 0.042475 -0.008309 -87676.400000 0 1 0
-7.814263 2.451845 19.767688 21.397096 -0.304037 0.392779 0.043898 -0.021804 -306400.000000 0 1 0
-8.736463 2.765445 18.787888 20.903545 -0.306562 0.453796 0.035690 -0.031387 -318507.000000 0 1 0
-8.679963 4.192045 18.698788 21.037102 -0.449920 0.475971 0.035911 -0.020446 112768.000000 0 1 0
-9.579263 4.832445 17.605088 20.616835 -0.467217 0.547328 0.035065 -0.011858 -626502.000000 0 1 0
-10.928363 4.837245 17.969988 21.581207 -0.416710 0.586887 0.041570 -0.006987 -668615.000000 0 1 0
-11.727263 5.482545 16.982388 21.353887 -0.437315 0.651322 0.031226 0.001786 142236.000000 0 1 0
-11.770763 7.055345 17.013588 21.858429 -0.539975 0.678757 0.037549 0.002602 -901459.000000 0 1 0
-10.473163 7.530045 16.811588 21.190049 -0.623354 0.654468 0.036314 -0.000209 -533127.000000 0 1 0
-10.403563 8.981245 16.811388 21.714503 -0.712157 0.685345 0.028420 -0.004697 -530319.000000 0 1 0
-8.970863 9.475845 16.803888 21.275306 -0.812767 0.660264 0.018702 -0.006201 -627157.000000 0 1 0
-8.364163 9.554345 18.102888 22.112423 -0.851723 0.611696 0.029910 0.004543 409124.000000 0 1 0
-7.296063 10.502945 18.221088 22.261006 -0.963658 0.611966 0.025400 -0.001257 280006.000000 0 1 0
-7.653163 11.984545 17.919188 22.875696 -1.002487 0.670794 0.015372 -0.001254 -873681.000000 0 1 0
-7.751463 12.339245 16.575688 22.070241 -1.009902 0.721157 0.007012 -0.013180 -292081.000000 0 1 0
-8.688063 13.354045 16.398488 22.863143 -0.994004 0.770955 0.029626 -0.019246 -267087.000000 0 1 0
-8.628963 13.940045 14.997788 22.219754 -1.016519 0.829865 0.029138 -0.014928 836435.000000 0 1 0
-7.467263 14.755945 14.774988 22.176523 -1.102320 0.841635 0.032636 -0.007301 294562.000000 0 1 0
-7.437763 15.253445 13.445788 21.651261 -1.117108 0.900758 0.019151 -0.016279 -152449.000000 0 1 0
-6.417163 16.402045 13.365688 22.109922 -1.197863 0.921645 0.003873 -0.009058 -842280.000000 0 1 0
-5.139663 15.944845 13.609088 21.583824 -1.258972 0.888570 0.003280 -0.013677 -630675.000000 0 1 0
-4.205363 17.073445 13.437488 22.130379 -1.329293 0.918269 0.004051 -0.015659 874191.000000 0 1 0
-2.715563 16.674745 13.436888 21.586369 -1.409359 0.898900 0.014150 -0.027257 458222.000000 0 1 0
-1.985863 16.403845 14.661388 22.090406 -1.450322 0.845043 0.013589 -0.019239 422575.000000 0 1 0
-2.460063 15.223945 15.286188 21.713773 -1.410590 0.789802 0.006688 -0.006839 89803.400000 0 1 0
-1.389863 14.761545 16.335788 22.061117 -1.476919 0.737014 -0.000719 0.002029 -390401.000000 0 1 0
-0.390863 14.029645 15.704188 21.061937 -1.542944 0.729333 0.000614 -0.017014 -689073.000000 0 1 0
0.747337 13.697845 16.452688 21.421493 1.516292 0.695012 0.000093 -0.002285 221215.000000 0 1 0
1.731937 14.830045 16.797688 22.474255 1.454537 0.726628 -0.002042 -0.010824 -822045.000000 0 1 0
1.374337 15.528245 17.998488 23.810937 1.482521 0.713781 0.003508 -0.007603 -304527.000000 0 1 0
2.223637 16.596245 18.367988 24.854836 1.437605 0.739196 0.019995 -0.013632 -324639.000000 0 1 0
1.455237 17.848645 18.928788 26.057452 1.489444 0.757691 0.021280 -0.010032 218548.000000 0 0 1
0.724937 18.649545 18.060088 25.971096 1.531944 0.801831 0.010011 -0.014042 141602.000000 0 0 1
-0.530363 18.117545 17.637688 25.290605 -1.541531 0.799032 0.012734 -0.012225 -190195.000000 0 0 1
-1.291763 19.019345 16.678788 25.329549 -1.502982 0.852010 0.001772 -0.010747 -286165.000000 0 0 1
-1.845163 20.173545 17.332288 26.660546 -1.479586 0.863067 0.003359 -0.006232 -36047.700000 0 0 1
-2.535163 20.944745 16.368688 26.702871 -1.450342 0.910952 0.012350 -0.009709 -456503.000000 0 0 1
-3.278163 22.175645 16.970888 28.116127 -1.424032 0.922788 0.012495 -0.004910 -124254.000000 0 0 1
-4.356863 21.778545 17.808888 28.468293 -1.373350 0.894935 0.017469 -0.010662 114598.000000 0 0 1
-4.775663 22.933845 18.557388 29.885528 -1.365494 0.900844 0.020803 -0.015501 -555394.000000 0 0 1
-5.928063 22.622045 19.488988 30.442067 -1.314511 0.876039 0.007785 -0.017575 809277.000000 0 0 1
-7.157463 22.259745 18.793788 29.998866 -1.259694 0.893763 -0.001351 -0.017089 1441390.000000 0 0 1
-8.205563 21.779645 19.640088 30.453525 -1.210489 0.869878 -0.018915 -0.014569 620605.000000 0 0 1
-9.646463 22.183845 19.285788 30.937337 -1.160619 0.897735 -0.002847 -0.018539 12751.700000 0 0 1
-9.843363 23.541845 19.660988 32.212803 -1.174766 0.914298 0.000444 -0.011682 -483957.000000 0 0 1
-10.832463 24.066045 18.841188 32.426950 -1.147848 0.950797 0.003190 -0.014933 -367125.000000 0 0 1
-11.350163 25.472345 19.182188 33.847051 -1.151618 0.968263 0.006166 -0.011319 -143571.000000 0 0 1
-12.322763 25.502645 20.186588 34.781226 -1.120682 0.951592 0.003122 0.000186 -47143.800000 0 0 1
-12.829863 26.789945 20.397988 36.033101 -1.124166 0.969041 0.016360 -0.007390 148006.000000 0 0 1
-13.821963 26.953845 21.628288 37.220145 -1.096960 0.950728 0.037836 -0.002536 -55484.600000 0 0 1
-15.110063 26.459145 21.414988 37.242476 -1.051919 0.958174 0.030225 -0.001754 158065.000000 0 0 1
-16.041163 27.057445 22.334688 38.578005 -1.035646 0.953358 0.018666 0.002374 -115874.000000 0 0 1
-17.418063 26.430245 22.363788 38.756751 -0.988106 0.955709 0.039881 0.006882 -610232.000000 0 0 1
-17.387863 25.144145 22.990188 38.250680 -0.965779 0.925995 0.055757 -0.003962 539199.000000 0 0 1
-18.657263 24.497245 22.851088 38.345543 -0.919908 0.932379 0.066842 0.009573 433436.000000 0 0 1
27.723537 24.467545 23.845138 43.998249 0.723093 0.998033 0.013829 -0.001063 57401.400000 0 0 1
27.211237 23.615145 24.853158 43.769921 0.714763 0.966949 0.015262 -0.020105 -37402.700000 0 0 1
26.529637 22.523545 24.381918 42.492466 0.703911 0.959666 0.016485 -0.011732 -559863.000000 0 0 1
26.110837 21.555645 25.496078 42.384804 0.690124 0.925371 0.037242 -0.018103 801944.000000 0 0 1
24.934937 21.975145 26.232738 42.341642 0.722387 0.902628 0.032902 -0.021612 867772.000000 0 0 1
24.893437 21.233345 27.449248 42.708306 0.706216 0.872760 0.040199 -0.025232 510179.000000 0 0 1
23.549237 21.450345 28.223548 42.558813 0.738789 0.845756 0.046007 -0.025478 501024.000000 0 0 1
23.607737 22.654845 28.936698 43.679512 0.764804 0.846675 0.047759 -0.033961 575409.000000 0 0 1
22.288437 22.904145 29.415128 43.435286 0.799021 0.826822 0.060806 -0.031709 200203.000000 0 0 1
22.129737 24.309345 30.018338 44.517077 0.832299 0.830766 0.053785 -0.034492 -419845.000000 0 0 1
21.849737 25.339745 29.076528 44.327849 0.859221 0.855365 0.057575 -0.046503 75433.100000 0 0 1
21.366037 26.539145 29.607038 45.137683 0.892968 0.855386 0.043346 -0.041393 306372.000000 0 0 1
19.939537 26.630145 30.243058 44.959897 0.928090 0.832989 0.045132 -0.040335 -162825.000000 0 0 1
18.860337 26.572345 29.309108 43.827225 0.953541 0.838281 0.040628 -0.049991 453589.000000 0 0 1
17.660737 26.955745 29.952878 43.996463 0.990792 0.821939 0.022580 -0.035812 -78845.200000 0 0 1
16.836237 25.962145 30.780978 43.645853 0.995482 0.788029 0.017752 -0.025732 -606388.000000 0 0 1
17.466637 25.508845 31.987888 44.486060 0.970393 0.768356 0.013501 -0.021717 214379.000000 0 0 1
16.697737 24.502745 32.656248 44.109290 0.972619 0.737208 0.015706 -0.018139 124467.000000 0 0 1
16.995737 24.221645 34.142202 45.180008 0.958947 0.714085 0.020160 -0.011991 -338744.000000 0 0 1
16.903237 25.367345 -33.631422 45.390464 0.983021 2.405259 0.008899 -0.005137 370355.000000 0 0 1
17.473637 25.018845 -32.344072 44.468074 0.961132 2.385256 0.002338 0.002739 110271.000000 0 0 1
17.794937 26.225245 -31.387052 44.604600 0.974617 2.351350 -0.003704 0.015995 -651082.000000 0 0 1
16.706437 26.989545 -30.980322 44.354492 1.016526 2.344055 0.003754 0.004415 113287.000000 0 0 1
17.255537 28.217745 -30.491862 44.986091 1.021954 2.315571 0.010886 0.003524 137075.000000 0 0 1
16.488837 28.606645 -29.241042 44.105107 1.047911 2.295596 0.021803 0.000850 -269734.000000 0 0 1
16.741937 27.797945 -28.130912 42.946087 1.028708 2.285017 0.002740 0.005550 168881.000000 0 0 1
16.242437 28.326845 -26.902002 42.307737 1.050170 2.259925 0.000914 0.009977 -381030.000000 0 0 1
16.858137 27.580145 -25.739312 41.320375 1.022152 2.243267 -0.009726 0.018033 -27113.000000 0 0 1
18.242937 27.896845 -25.735642 42.111305 0.991654 2.228289 0.004066 0.015173 23642.700000 0 0 1
18.878037 27.122145 -24.679212 41.243843 0.962735 2.212266 0.006287 0.015040 -688928.000000 0 0 1
20.376037 27.021645 -24.676312 41.884037 0.924700 2.200813 0.011173 0.008146 -752149.000000 0 0 1
20.885137 26.438545 -23.457512 41.054117 0.902213 2.178983 0.028379 0.010458 -741231.000000 0 0 1
22.272637 26.581745 -23.422512 41.848221 0.873374 2.164822 0.028185 0.008922 -369232.000000 0 0 1
22.811137 26.444945 -21.980712 41.265419 0.859039 2.132545 0.027080 0.010343 18768.200000 0 0 1
22.954037 25.071445 -21.602612 40.275775 0.829459 2.136923 0.039242 0.015808 56548.800000 0 0 1
23.668137 25.086745 -20.391412 40.066634 0.814487 2.104746 0.039064 0.010311 -115918.000000 0 0 1
23.116737 24.016145 -19.400112 38.568421 0.804478 2.097869 0.034389 0.000368 -750137.000000 0 0 1
23.269837 22.635045 -19.736812 37.991740 0.771571 2.117065 0.033756 0.008368 243482.000000 0 0 1
23.129837 21.863345 -18.543912 36.835742 0.757257 2.098351 0.035746 0.003773 -1095080.000000 0 0 1
23.272237 20.337445 -18.864812 36.208974 0.718203 2.118816 0.043012 0.001318 263425.000000 0 0 1
22.390037 19.845545 -19.862512 35.912098 0.725226 2.156861 0.030399 0.000485 -516724.000000 0 0 1
21.031637 19.975445 -19.636512 35.027714 0.759648 2.165906 0.026002 -0.007892 -1220140.000000 0 0 1
20.114637 19.713645 -20.893412 35.067950 0.775330 2.209055 0.014968 0.001050 257709.000000 0 0 1
20.074037 20.508545 -22.087412 36.213549 0.796104 2.226758 0.017026 0.008769 3863.600000 0 0 1
20.252437 21.912545 -21.913112 37.020337 0.824750 2.204236 0.013392 0.016555 -244330.000000 0 0 1
19.819337 22.671545 -23.164312 37.991979 0.852423 2.226498 0.007517 0.022282 -449021.000000 0 0 1
18.437037 22.725545 -23.340712 37.432120 0.889208 2.244069 0.008646 0.020806 -811440.000000 0 0 1
18.130637 23.208445 -24.676512 38.422418 0.907619 2.268217 0.004568 0.022898 498587.000000 0 0 1
16.578637 23.290745 -24.813212 37.855059 0.952187 2.285614 0.000981 0.026559 364443.000000 0 0 1
16.093737 24.414845 -24.125612 37.909606 0.987996 2.260616 -0.001279 0.013207 -572255.000000 0 0 1
14.691637 24.321445 -24.125712 37.275017 1.027396 2.274749 0.003432 0.014381 -33952.500000 0 0 1
14.082237 25.555545 -23.345712 37.368671 1.067152 2.245595 0.005905 0.013140 125112.000000 0 0 1
14.262437 26.799945 -23.956812 38.672768 1.081736 2.238870 0.001553 0.015297 -105038.000000 0 0 1
13.364037 27.769345 -23.451712 38.726177 1.122260 2.221288 0.027624 0.002732 164461.000000 0 0 1
13.416337 29.094145 -24.216512 40.161011 1.138721 2.218035 0.025167 -0.005684 -111797.000000 0 0 1
13.034437 29.018245 -25.609472 40.838709 1.148624 2.248606 0.025231 -0.014333 -93511.900000 0 0 1
12.592437 30.256745 -26.174982 41.942458 1.176415 2.244736 0.048206 -0.024772 -65124.500000 0 0 1
13.628137 31.401545 -26.278872 43.155095 1.161331 2.225520 0.044930 -0.023899 -373053.000000 0 0 1
14.724537 31.200245 -27.100792 43.871633 1.129850 2.236648 0.030039 -0.010940 -621058.000000 0 0 1
15.335837 32.401445 -27.523322 45.194854 1.128730 2.225586 0.032385 -0.015387 -298383.000000 0 0 1
16.802237 32.253245 -27.941522 45.861919 1.090532 2.225915 0.028802 0.001708 -149783.000000 0 0 1
17.624537 31.954345 -26.810052 45.282263 1.066761 2.204415 0.002120 0.005501 312028.000000 0 0 1
18.899637 31.496345 -27.252572 45.737498 1.030334 2.209117 0.009200 -0.002254 313175.000000 0 0 1
19.735237 30.743645 -26.127942 44.914593 1.000116 2.191644 0.005007 0.000638 -377140.000000 0 0 1
20.186237 31.554345 -25.066512 45.072063 1.001675 2.160534 0.013074 -0.000775 -53556.400000 0 0 1
21.147337 32.547545 -25.314652 46.339877 0.994606 2.148716 0.016053 -0.006420 -846460.000000 0 0 1
22.562937 32.081345 -25.612552 46.843374 0.957856 2.149298 0.012519 -0.005796 -1125320.000000 0 0 1
22.632237 31.572445 -26.934292 47.270430 0.948861 2.177049 0.004150 -0.004631 613848.000000 0 0 1
23.960237 31.548845 -27.492382 48.220884 0.921265 2.177466 -0.000681 -0.002925 245218.000000 0 0 1
24.058837 30.777045 -28.811192 48.540076 0.907305 2.206265 -0.002965 -0.005297 -461024.000000 0 0 1
23.260437 31.297945 -29.813392 49.086125 0.931665 2.223541 0.006112 0.006439 -425113.000000 0 0 1
21.921237 30.897745 -29.851842 48.232186 0.953738 2.238163 0.005370 -0.000555 -124518.000000 0 0 1
20.869537 31.632345 -30.740952 48.797018 0.987595 2.252319 -0.003236 -0.000144 150105.000000 0 0 1
20.424837 32.879245 -30.259242 49.130850 1.014929 2.234313 0.007638 -0.001798 348011.000000 0 0 1
19.708337 33.613145 -31.287082 49.971428 1.040490 2.247337 0.018474 -0.002322 418413.000000 0 0 1
18.169137 33.776345 -31.179252 49.427773 1.077271 2.253386 0.004100 -0.005700 699353.000000 0 0 1
17.331137 32.591445 -31.395742 48.458882 1.082057 2.275600 0.021660 -0.004005 805358.000000 0 0 1
17.316637 31.914545 -32.684992 48.853995 1.073657 2.303705 0.020387 -0.005642 -632973.000000 0 0 1
16.786337 32.776545 -33.880992 50.040030 1.097480 2.314581 0.040551 -0.019223 -717377.000000 0 0 1
17.570537 33.883645 -34.210083 51.255780 1.092415 2.301560 0.027409 -0.010329 -242396.000000 0 0 1
17.335337 -34.272524 33.138747 50.727669 -1.102513 0.858904 0.032924 -0.011077 -950142.000000 0 0 1
15.979837 -33.708224 32.718594 49.619613 -1.128112 0.850791 0.049935 -0.018472 -751088.000000 0 0 1
15.085837 33.920145 32.524928 49.356151 1.152320 0.851329 0.050999 -0.019647 775619.000000 0 0 1
13.740437 34.312945 32.165848 48.998159 1.189907 0.854666 0.046853 -0.019627 1185120.000000 0 0 1
13.304637 -33.747024 30.827918 47.604995 -1.195260 0.866395 0.036996 -0.017915 -482878.000000 0 0 1
13.934137 -32.452224 30.683608 46.784515 -1.165227 0.855489 0.052036 -0.023451 490320.000000 0 0 1
13.583037 -31.790824 29.452348 45.415815 -1.167011 0.865179 0.049203 -0.029792 43619.000000 0 0 1
13.969637 -30.299624 29.416658 44.480982 -1.138791 0.848204 0.050317 -0.025888 130785.000000 0 0 1
13.228737 -29.504224 30.354378 44.349600 -1.149301 0.816969 0.047370 -0.017834 339182.000000 0 0 1
13.464137 -28.156824 30.267408 43.476497 -1.124753 0.800736 0.060946 -0.018979 -482260.000000 0 0 1
12.936337 -27.501224 31.555048 43.810812 -1.131115 0.766623 0.050834 -0.018322 1422430.000000 0 0 1
11.541737 -27.069924 31.569678 43.158280 -1.167768 0.750298 0.024883 -0.017822 1413650.000000 0 0 1
11.111437 -26.059524 30.690178 41.766612 -1.167752 0.745422 0.019489 -0.016200 -876212.000000 0 0 1
11.473037 -24.637124 31.158568 41.345796 -1.134979 0.717261 0.011462 -0.015589 60340.400000 0 0 1
10.742937 -24.211024 32.291558 41.765167 -1.153176 0.686972 0.028374 -0.019442 277515.000000 0 0 1
11.319137 -22.992524 32.599279 41.466758 -1.113331 0.666234 0.025165 -0.014597 312250.000000 0 0 1
10.451437 -22.293224 33.675168 41.716152 -1.132405 0.631326 0.040231 -0.018807 -379519.000000 0 0 1
10.315537 -23.007024 -33.745032 42.124348 -1.149303 2.499896 0.039902 -0.014903 918663.000000 0 0 1
11.489637 -23.353124 -32.952542 41.991073 -1.113573 2.473091 0.037656 -0.009956 1007530.000000 0 0 1
12.295637 -22.146624 -32.358542 41.094172 -1.063975 2.477415 0.040197 -0.017952 -102016.000000 0 0 1
12.850837 -21.276024 -33.298672 41.552555 -1.027437 2.500366 0.026644 -0.010932 -43503.200000 0 0 1
13.767737 -20.439624 -32.624522 40.886285 -0.978022 2.494655 0.028196 -0.014458 -284023.000000 0 0 1
14.135737 -19.248924 -33.484452 41.128442 -0.937377 2.522049 0.015101 -0.009670 -402056.000000 0 0 1
14.878537 -19.572624 33.994409 41.953288 -0.920818 0.626146 0.015460 0.002047 398683.000000 0 0 1
14.651437 -18.667824 32.881658 40.550656 -0.905362 0.625144 -0.001858 0.007085 -262324.000000 0 0 1
15.438237 -17.329224 32.888053 40.252518 -0.843044 0.614532 0.005724 0.001212 -917111.000000 0 0 1
15.037137 -16.458524 33.938615 40.605765 -0.830497 0.581194 0.002178 -0.000829 304063.000000 0 0 1
15.481137 -15.089024 33.885985 40.194580 -0.772572 0.567870 0.019463 -0.001405 -787923.000000 0 0 1
16.976637 -14.884124 34.182404 40.965597 -0.719816 0.583722 0.031245 -0.001402 -497659.000000 0 0 1
17.781237 -15.494924 33.204248 40.728211 -0.716799 0.617611 0.026707 -0.003165 -551367.000000 0 0 1
19.121137 -15.195124 33.523714 41.477091 -0.671487 0.629628 0.053077 -0.004298 -663463.000000 0 0 1
20.140837 -15.784024 32.572194 41.421451 -0.664712 0.665901 0.066039 -0.015641 -759384.000000 0 0 1
20.295037 -15.125924 31.347748 40.290985 -0.640487 0.679266 0.052554 -0.006760 62754.000000 0 0 1
20.974237 -15.960724 30.480828 40.295710 -0.650484 0.712961 0.050491 -0.008038 -559101.000000 0 0 1
20.996737 -15.293824 29.097778 39.005701 -0.629527 0.728779 0.053668 0.002705 35238.100000 0 0 1
21.983037 -14.260924 29.192908 39.228227 -0.575478 0.731488 0.057186 -0.005170 705662.000000 0 0 1
22.230737 -13.626724 27.931918 38.211063 -0.549900 0.751024 0.047063 -0.003594 -125137.000000 0 0 1
22.938637 -12.320024 28.092838 38.303677 -0.492875 0.747451 0.037490 0.003341 -131544.000000 0 0 1
22.052537 -11.331124 28.541268 37.806253 -0.474646 0.715241 0.042959 -0.003986 219732.000000 0 0 1
22.774137 -10.169624 28.904688 38.178051 -0.419975 0.711930 0.048226 -0.010237 118879.000000 0 0 1
21.898537 -8.887524 28.933008 37.358439 -0.385539 0.684919 0.058180 -0.009754 307184.000000 0 0 1
21.123937 -8.839524 30.151608 37.861292 -0.396318 0.649526 0.063911 -0.015376 -166814.000000 0 0 1
20.128137 -7.879724 29.901568 36.896284 -0.373138 0.625924 0.052435 -0.016292 -2444.000000 0 0 1
18.960237 -7.806624 30.930888 37.110023 -0.390583 0.585399 0.031261 -0.003781 77031.500000 0 0 1
19.159237 -7.231524 32.239848 38.193967 -0.360911 0.565896 0.041381 -0.004233 31524.400000 0 0 1
19.474337 -8.322424 33.085563 39.283165 -0.403862 0.569385 0.043743 -0.014209 -611367.000000 0 0 1
19.512737 -7.926924 -34.075622 40.059095 -0.385877 2.587986 0.044871 -0.019862 161156.000000 0 0 1
18.259337 -7.437124 -33.610522 38.966414 -0.386788 2.611086 0.037153 -0.019661 225753.000000 0 0 1
18.334837 -6.777424 -32.356502 37.802685 -0.354070 2.598146 0.044626 -0.027290 -692951.000000 0 0 1
17.050537 -6.565224 -31.576232 36.481248 -0.367548 2.617038 0.041131 -0.027870 -578175.000000 0 0 1
17.171537 -5.676924 -30.479852 35.441650 -0.319289 2.606068 0.049558 -0.027926 14847.200000 0 0 1
15.973737 -5.600124 -29.742742 34.222104 -0.337194 2.624195 0.051900 -0.024819 -49907.100000 0 0 1
16.117337 -4.653124 -28.508242 33.077787 -0.281061 2.609712 0.045995 -0.020285 -418287.000000 0 0 1
16.904537 -5.259024 -27.509522 32.713828 -0.301610 2.569767 0.046087 -0.017612 234337.000000 0 0 1
16.294437 -6.193424 -26.561122 31.770433 -0.363229 2.560809 0.076143 -0.023650 687685.000000 0 0 1
14.956737 -5.870824 -25.795912 30.390783 -0.374042 2.584521 0.049718 -0.018117 554002.000000 0 0 1
14.947537 -4.612924 -25.072712 29.552476 -0.299335 2.583777 0.057201 -0.007067 -924719.000000 0 0 1
13.836837 -4.455324 -24.258912 28.280785 -0.311507 2.601747 0.018851 -0.012328 -510134.000000 0 0 1
13.726137 -3.136524 -23.525412 27.416959 -0.224650 2.602278 0.029191 -0.013803 -50878.600000 0 0 1
13.274837 -2.020524 -24.287012 27.751807 -0.151048 2.636543 0.019029 -0.015220 252809.000000 0 0 1
12.987337 -0.926524 -23.453712 26.825473 -0.071220 2.634804 0.018066 -0.013805 -174947.000000 0 0 1
13.554237 0.380476 -23.981912 27.549850 0.028063 2.626997 0.022008 -0.017158 -546448.000000 0 0 1
12.946337 0.763476 -25.205962 28.346624 0.058904 2.666401 0.021510 -0.015174 72082.400000 0 0 1
13.535737 1.902476 -25.771092 29.171644 0.139637 2.653928 0.019950 -0.005770 -392896.000000 0 0 1
12.774737 2.476476 -26.973202 29.947963 0.191482 2.692103 0.021624 -0.005962 274066.000000 0 0 1
11.600937 3.169476 -26.539032 29.136705 0.266700 2.716124 0.027934 -0.014870 715109.000000 0 0 1
10.808037 3.678476 -27.602122 29.870086 0.328049 2.749398 0.030100 -0.010672 -116490.000000 0 0 1
9.578737 4.487476 -27.192512 29.177429 0.438118 2.770608 0.030958 -0.009857 -201407.000000 0 0 1
9.895937 5.800476 -26.631382 28.996649 0.530171 2.734889 0.027968 -0.024622 -718733.000000 0 0 1
8.782037 6.593476 -26.630282 28.805729 0.644007 2.750462 0.031694 -0.026274 -867460.000000 0 0 1
7.529537 5.619045 -31.315972 32.694919 0.641108 2.850127 0.015076 -0.004086 -108114.000000 0 0 1
7.489637 4.468845 -30.523212 31.744791 0.537968 2.863274 0.028279 0.007070 286925.000000 0 0 1
7.919737 3.353145 -31.249232 32.411115 0.400507 2.873024 0.021560 0.011343 -188698.000000 0 0 1
7.753237 2.055245 -30.373262 31.414516 0.259122 2.883405 0.026643 0.006883 157097.000000 0 0 1
8.885437 1.729545 -29.599952 30.953183 0.192245 2.844807 0.031321 0.000656 286628.000000 0 0 1
8.426437 0.724345 -28.726642 29.945776 0.085750 2.855269 0.033630 -0.011957 416106.000000 0 0 1
9.420237 0.167845 -27.640612 29.202269 0.017816 2.813078 0.038176 -0.012344 648971.000000 0 0 1
10.533637 -0.573755 -28.130672 30.043659 -0.054415 2.782814 0.035662 -0.003919 380569.000000 0 0 1
11.321737 -1.102555 -27.092152 29.383364 -0.097078 2.744072 0.033671 -0.010843 262269.000000 0 0 1
12.148437 -2.377755 -27.549292 30.202678 -0.193282 2.719289 0.031105 -0.007240 154065.000000 0 0 1
11.370037 -3.538255 -27.622672 30.080044 -0.301692 2.734575 0.036757 -0.005987 -264986.000000 0 0 1
12.121637 -4.674855 -27.912512 30.787931 -0.368085 2.705966 0.034155 -0.008945 -636896.000000 0 0 1
11.352937 -5.919555 -27.609962 30.434197 -0.480630 2.707381 0.017422 -0.009740 -315487.000000 0 0 1
11.266937 -6.045955 -26.173422 29.129804 -0.492505 2.687160 0.019841 -0.010543 919.329000 0 0 1
10.714837 -7.271155 -25.764592 28.835597 -0.596223 2.675875 0.026991 -0.011340 -344782.000000 0 0 1
10.280937 -7.075255 -24.303012 27.320200 -0.602757 2.667182 0.025401 -0.017717 -31811.400000 0 0 1
11.400037 -7.072755 -23.413712 26.984934 -0.555296 2.621270 0.020314 -0.014922 579666.000000 0 0 1
11.022337 -6.926855 -22.028712 25.587837 -0.561068 2.607843 0.011561 -0.022235 -109598.000000 0 0 1
12.263837 -6.942055 -21.113112 25.384195 -0.515089 2.553035 0.019667 -0.020458 205299.000000 0 0 1
12.966137 -5.720655 -21.049612 25.375831 -0.415512 2.549034 0.016447 -0.014361 -79722.900000 0 0 1
14.251637 -5.907455 -20.494912 25.652459 -0.392953 2.496336 0.026335 -0.014866 118593.000000 0 0 1
14.795437 -4.665855 -19.715812 25.087615 -0.305486 2.474912 0.034955 -0.015215 -236749.000000 0 0 1
15.297637 -3.648055 -20.502512 25.839486 -0.234100 2.487264 0.030748 -0.011687 -89433.600000 0 0 1
15.915737 -2.656555 -19.749612 25.503239 -0.165389 2.456557 0.029140 -0.012155 -79044.600000 0 0 1
16.846937 -1.663455 -20.499812 26.586250 -0.098420 2.451313 0.031699 -0.012766 1144420.000000 0 0 1
18.076937 -2.300955 -20.925012 27.747544 -0.126606 2.425111 0.050655 -0.017812 1122120.000000 0 0 1
18.972337 -1.381255 -21.561312 28.753220 -0.072675 2.418669 0.044139 -0.013640 253069.000000 0 0 1
20.320437 -1.957855 -22.022112 30.028766 -0.096053 2.394058 0.048237 -0.018062 -52088.500000 0 0 1
21.166737 -2.387155 -20.910312 29.849128 -0.112304 2.346941 0.037699 -0.012043 1943690.000000 0 0 1
22.406637 -3.049255 -21.305612 31.069028 -0.135256 2.326431 0.044027 -0.014048 1324040.000000 0 0 1
23.545737 -2.313355 -22.011712 32.315149 -0.097935 2.320139 0.037477 -0.014848 -892154.000000 0 0 1
23.263437 -2.201355 -23.380112 33.055456 -0.094346 2.356467 0.039301 -0.018584 170334.000000 0 0 1
24.088637 -1.333955 -24.130212 34.121973 -0.055320 2.356291 0.035076 -0.013697 -93183.100000 0 0 1
25.344837 -1.987255 -24.736112 35.470907 -0.078249 2.342509 0.023265 -0.017348 -1008320.000000 0 0 1
26.340137 -2.276455 -23.815612 35.583261 -0.086211 2.304053 0.023336 -0.007246 526273.000000 0 0 1
27.582937 -2.848855 -24.261212 36.844821 -0.102918 2.289580 0.016126 -0.000326 902559.000000 0 0 1
28.536137 -2.067455 -25.127212 38.078371 -0.072324 2.291457 0.016982 -0.010652 -898180.000000 0 0 1
28.003237 -1.821855 -26.447022 38.560932 -0.064967 2.326568 0.016964 -0.006956 284026.000000 0 0 1
28.632337 -0.709955 -27.048642 39.394718 -0.024791 2.327606 0.016118 -0.010083 -841982.000000 0 0 1
28.048337 -0.481355 -28.444522 39.950367 -0.017160 2.363134 0.014365 -0.011194 -583204.000000 0 0 1
26.708237 -0.109755 -28.435322 39.011659 -0.004109 2.387500 0.012267 -0.006639 -484411.000000 0 0 1
26.411937 1.200345 -27.976192 38.492838 0.045416 2.384433 0.009440 -0.002810 -999122.000000 0 0 1
24.918637 1.543745 -28.068552 37.565480 0.061872 2.414620 0.015584 -0.006716 -188714.000000 0 0 1
24.055337 1.052845 -27.072432 36.230986 0.043740 2.414662 0.020864 -0.011665 651341.000000 0 0 1
22.681637 1.273245 -27.406562 35.597718 0.056077 2.449475 0.030676 -0.011563 497336.000000 0 0 1
21.796437 0.901345 -26.194902 34.089148 0.041329 2.447170 0.037191 -0.015891 -322810.000000 0 0 1
22.011537 1.654745 -25.007512 33.355984 0.075035 2.418429 0.033797 -0.013476 310259.000000 0 0 1
20.911637 1.618445 -24.129112 31.970768 0.077240 2.426030 0.041314 -0.015270 -280643.000000 0 0 1
21.210737 2.237345 -22.794912 31.217129 0.105093 2.389419 0.035868 -0.014421 -363623.000000 0 0 1
21.089137 3.638345 -22.621612 31.140434 0.170840 2.383922 0.038319 -0.014111 381206.000000 0 0 1
21.372937 4.005645 -21.308712 30.445178 0.185267 2.346060 0.032322 -0.010482 -310494.000000 0 0 1
20.925237 5.422345 -20.886712 30.058645 0.253552 2.339029 0.035423 -0.007396 -183492.000000 0 0 1
21.668237 6.458445 -21.513712 31.209996 0.289676 2.331348 0.033009 -0.006350 369691.000000 0 0 1
21.413337 7.756445 -21.060112 31.019700 0.347524 2.317097 0.027031 -0.003751 -444978.000000 0 0 1
21.857437 8.109145 -19.626612 30.474739 0.355261 2.270550 0.027083 -0.006329 -1031390.000000 0 0 1
23.238337 8.179445 -19.477112 31.405120 0.338438 2.239780 0.021426 -0.005063 -79943.900000 0 0 1
23.810237 8.339445 -18.149412 31.078528 0.336894 2.194426 0.029737 -0.008429 237972.000000 0 0 1
23.803337 9.764945 -17.523512 31.129190 0.389298 2.168721 0.030153 -0.011629 -195510.000000 0 0 1
22.454537 10.051545 -17.228512 30.034338 0.420889 2.181724 0.026289 -0.014426 151410.000000 0 0 1
22.256437 11.449145 -17.017012 30.265667 0.475117 2.167906 0.036051 -0.013068 374840.000000 0 0 1
20.759637 11.828045 -16.697012 29.148849 0.517889 2.180737 0.024221 -0.017630 1323590.000000 0 0 1
19.844937 11.662745 -17.791512 29.092595 0.531322 2.228812 0.033279 -0.026919 455503.000000 0 0 1
19.339637 10.365445 -17.945812 28.346361 0.492007 2.256336 0.039297 -0.022964 -461473.000000 0 0 1
18.373637 10.254045 -19.170312 28.464660 0.509029 2.309700 0.050223 -0.013565 216456.000000 0 0 1
19.017937 10.389845 -20.444412 29.792697 0.500012 2.327079 0.053561 -0.012257 443586.000000 0 0 1
18.125637 10.021945 -21.469512 29.831495 0.505079 2.374156 0.042034 -0.015617 -76649.100000 0 0 1
18.819037 10.036945 -22.861712 31.265865 0.489962 2.390881 0.051478 -0.013964 -28339.700000 0 0 1
19.122437 11.353445 -23.263912 32.183504 0.535792 2.378717 0.048885 -0.016939 -7778.620000 0 0 1
19.888037 11.457445 -24.400412 33.499063 0.522659 2.386767 0.056059 -0.020548 -389695.000000 0 0 1
20.184137 12.961145 -24.555212 34.327090 0.570833 2.367893 0.046122 -0.017236 3534.150000 0 0 1
21.143337 13.328345 -25.530662 35.728143 0.562459 2.366822 0.028496 -0.014076 302983.000000 0 0 1
21.210437 14.722945 -25.720852 36.444616 0.606780 2.354280 0.029646 -0.014737 354592.000000 0 0 1
20.087037 15.409045 -26.612232 36.730623 0.654364 2.381140 0.029343 -0.011148 1185720.000000 0 0 1
18.798637 15.405245 -26.005272 35.594726 0.686511 2.389987 0.038830 -0.012420 321735.000000 0 0 1
17.758437 15.553945 -26.944942 35.823417 0.719318 2.422130 0.029427 -0.014385 -267035.000000 0 0 1
16.336137 15.283345 -26.484712 34.668285 0.752115 2.440203 0.033560 -0.019807 -502437.000000 0 0 1
16.150637 13.914745 -26.200532 33.777672 0.711167 2.458582 0.026691 -0.014149 -266249.000000 0 0 1
14.782837 13.618645 -26.141062 32.975065 0.744431 2.486108 0.021936 -0.016380 -397636.000000 0 0 1
14.496037 12.085845 -25.965252 32.099799 0.694975 2.513061 0.022341 -0.021545 -981310.000000 0 0 1
13.197137 11.649445 -26.053072 31.442592 0.723189 2.547384 0.018487 -0.026541 -955007.000000 0 0 1
13.245637 10.271245 -25.803712 30.769741 0.659587 2.565517 0.020363 -0.027249 -350760.000000 0 0 1
11.859837 9.621545 -25.662412 29.862841 0.681576 2.604779 0.032999 -0.034711 -88899.900000 0 0 1
11.214037 10.032245 -24.473612 28.729049 0.729832 2.590355 0.048981 -0.037416 160693.000000 0 0 1
9.970237 9.366645 -24.294912 27.881579 0.754194 2.628765 0.043078 -0.035552 325148.000000 0 0 1
9.134537 9.971045 -23.131112 26.793840 0.829154 2.612568 0.040558 -0.030363 506841.000000 0 0 1
8.266137 11.101745 -23.515512 27.286573 0.930773 2.609600 0.036849 -0.034442 741015.000000 0 0 1
7.521637 11.652545 -22.423012 26.365665 0.997596 2.587660 0.040521 -0.019357 267243.000000 0 0 1
8.298537 12.554145 -21.408412 26.168538 0.986713 2.528891 0.051275 -0.022736 -249454.000000 0 0 1
9.094537 11.778045 -20.581912 25.397796 0.913263 2.515600 0.057502 -0.031632 -326066.000000 0 0 1
9.912437 12.517345 -19.688112 25.348809 0.901016 2.460187 0.066118 -0.033069 -393142.000000 0 0 1
10.929237 11.704345 -18.894212 24.767543 0.819631 2.438524 0.072980 -0.033947 -349773.000000 0 1 0
12.046537 11.055045 -19.434612 25.397583 0.742506 2.442172 0.075990 -0.038072 93228.900000 0 0 1
11.744537 10.232445 -20.579412 25.809868 0.716703 2.493682 0.067962 -0.032649 -1048760.000000 0 0 1
12.947137 9.722145 -21.410112 26.842902 0.644084 2.494115 0.061502 -0.032798 -94688.600000 0 0 1
13.578037 8.658945 -20.719812 26.242162 0.567692 2.480891 0.069050 -0.034016 626457.000000 0 0 1
14.649437 8.119145 -21.520212 27.269875 0.506084 2.480232 0.060816 -0.033857 156063.000000 0 0 1
15.253837 6.814645 -21.063912 26.885077 0.420148 2.471042 0.074806 -0.027787 -443498.000000 0 0 1
16.100137 7.006245 -19.989612 26.606136 0.410450 2.420850 0.063025 -0.022296 -164410.000000 0 0 1
16.532937 5.818145 -19.353812 26.110513 0.338377 2.405693 0.059874 -0.026306 -181624.000000 0 0 1
17.253637 5.961645 -18.005212 25.640142 0.332687 2.349318 0.053902 -0.023648 -918486.000000 0 0 1
18.530837 6.491745 -18.280012 26.827104 0.336961 2.320471 0.040145 -0.027091 628716.000000 0 0 1
19.322637 6.757645 -17.048312 26.639727 0.336431 2.265240 0.043207 -0.026579 605815.000000 0 0 1
19.998237 5.500045 -16.492812 26.498922 0.268391 2.242596 0.039325 -0.026090 -867730.000000 0 0 1
21.174737 5.164645 -17.190812 27.759090 0.239235 2.238629 0.027578 -0.018286 520244.000000 0 0 1
21.896537 4.159745 -16.465112 27.710318 0.187736 2.207051 0.038960 -0.021514 210310.000000 0 0 1
23.167137 3.560445 -17.119712 29.025464 0.152492 2.201629 0.021109 -0.008790 -230694.000000 0 0 1
23.814237 2.722145 -16.233912 28.949402 0.113813 2.166110 0.022154 -0.005238 -269439.000000 0 0 1
25.119037 2.527945 -16.739812 30.291548 0.100301 2.156305 0.022334 -0.006303 -169774.000000 0 0 1
25.810237 1.419845 -15.922812 30.359846 0.054956 2.122888 0.032058 -0.009588 -277024.000000 0 0 1
25.245637 0.138745 -16.152912 29.971287 0.005496 2.139982 0.037216 -0.006406 -140866.000000 0 0 1
26.304737 -0.758755 -16.082812 30.841073 -0.028837 2.119374 0.028776 -0.003635 -231697.000000 0 0 1
25.869337 -2.224255 -16.367812 30.693244 -0.085769 2.133259 0.025274 -0.014139 -164360.000000 0 0 1
25.398137 -2.859255 -15.204912 29.739369 -0.112105 2.107461 0.032020 -0.012305 430453.000000 0 0 1
25.218137 -4.242455 -15.439512 29.871917 -0.166670 2.113972 0.025276 -0.010454 -858267.000000 0 0 1
24.794937 -5.032755 -14.175112 29.000885 -0.200255 2.081489 0.034212 -0.013198 628689.000000 0 0 1
23.422037 -5.003855 -13.747212 27.615507 -0.210475 2.091866 0.044634 -0.004315 691115.000000 0 0 1
22.590137 -5.755855 -14.573212 27.492230 -0.249487 2.129497 0.045968 -0.003394 -1327530.000000 0 0 1
21.106537 -5.685455 -14.247012 26.091908 -0.263124 2.148417 0.055089 -0.004631 -611905.000000 0 0 1
20.623437 -6.502855 -13.188212 25.328684 -0.305446 2.118447 0.055710 -0.006503 564394.000000 0 0 1
20.493137 -5.869855 -11.957912 24.442086 -0.278962 2.082008 0.053722 -0.009836 -434816.000000 0 1 0
20.145237 -6.800855 -10.784212 23.840752 -0.325578 2.040188 0.050144 -0.013325 -714116.000000 0 1 0
18.925837 -7.482955 -10.793212 23.036392 -0.376520 2.058421 0.053780 -0.009154 123825.000000 0 1 0
18.809737 -8.561255 -11.670712 23.734086 -0.427129 2.084869 0.056780 -0.017978 -822642.000000 0 1 0
17.427037 -9.212355 -11.707512 22.926731 -0.486284 2.106736 0.074072 -0.014840 -516273.000000 0 1 0
16.353137 -8.336355 -11.875112 21.861798 -0.471434 2.145028 0.055079 -0.014216 -125561.000000 0 1 0
15.153637 -8.957055 -12.281812 21.464028 -0.533837 2.179988 0.055046 -0.008505 127929.000000 0 1 0
14.087937 -7.933455 -12.754912 20.593627 -0.512874 2.238726 0.041249 -0.005382 -337638.000000 0 1 0
14.325137 -7.143155 -13.872412 21.182022 -0.462563 2.284866 0.047043 -0.009627 428784.000000 0 1 0
15.269537 -6.082855 -13.692112 21.392378 -0.379096 2.265355 0.041898 -0.009647 96285.800000 0 1 0
15.089837 -4.939955 -14.698412 21.636767 -0.316374 2.317640 0.028065 -0.012387 -44400.700000 0 1 0
14.055537 -4.028455 -14.364712 20.497111 -0.279127 2.347338 0.033632 -0.015016 255999.000000 0 1 0
13.733937 -3.031755 -15.333512 20.806950 -0.217265 2.399331 0.023242 -0.017304 539641.000000 0 1 0
14.846237 -1.921455 -15.583612 21.609066 -0.128708 2.376273 0.029526 -0.011993 100968.000000 0 1 0
15.922737 -2.276055 -16.402412 22.972878 -0.141982 2.365977 0.032136 -0.006149 294386.000000 0 1 0
17.102337 -1.496055 -16.247012 23.636699 -0.087255 2.328650 0.044107 -0.005219 415240.000000 0 1 0
18.074737 -1.935155 -15.137812 23.655746 -0.106658 2.265192 0.046439 -0.008371 -1035680.000000 0 1 0
17.597337 -1.926855 -13.852512 22.478237 -0.109063 2.234785 0.042001 -0.004908 169884.000000 0 1 0
18.585137 -2.539255 -13.025712 22.836907 -0.135788 2.177765 0.040085 -0.001833 346827.000000 0 1 0
18.222837 -2.650655 -11.490312 21.705415 -0.144445 2.128660 0.039727 -0.004981 -171216.000000 0 1 0
18.281637 -1.473355 -10.728312 21.248194 -0.080418 2.100068 0.052543 -0.006508 655935.000000 0 1 0
17.777437 -1.636055 -9.400312 20.176219 -0.091771 2.055460 0.051122 -0.007362 -677604.000000 0 1 0
17.815837 -0.294455 -8.585612 19.778865 -0.016526 2.019813 0.050523 -0.007844 -85782.200000 0 1 0
19.086437 0.153045 -8.128412 20.745761 0.008018 1.973395 0.049433 -0.010085 1003280.000000 0 1 0
20.002137 0.673245 -9.080612 21.977176 0.033646 1.996744 0.037125 0.000440 -148333.000000 0 1 0
19.564337 2.037945 -9.705112 21.934122 0.103792 2.029143 0.027456 -0.000710 -616111.000000 0 1 0
19.204337 2.935745 -8.683312 21.279687 0.151694 1.991120 0.010292 -0.003071 372843.000000 0 1 0
18.507837 3.945245 -9.366712 21.114931 0.210023 2.030415 0.002002 -0.008530 -1020640.000000 0 1 0
18.759937 5.368345 -8.909912 21.450895 0.278712 1.999138 0.029904 -0.002762 -480258.000000 0 1 0
18.300337 6.278645 -9.846412 21.708882 0.330505 2.041559 0.045705 -0.000536 185052.000000 0 1 0
18.658037 7.567345 -9.521312 22.272010 0.385308 2.012523 0.052171 0.001406 -654098.000000 0 1 0
-26.300533 -29.961935 6.149088 40.339148 0.850384 1.417765 0.051036 -0.011419 179945.000000 0 0 1
-26.196643 -28.818695 6.908988 39.553956 0.833023 1.395223 0.022135 -0.009797 -862846.000000 0 0 1
-25.061863 -28.056325 6.677088 38.207825 0.841712 1.395137 0.043629 -0.009082 -1063200.000000 0 0 1
-24.993663 -26.750645 7.517788 37.373752 0.819340 1.368263 0.028028 -0.000625 -193985.000000 0 0 1
-25.940973 -25.681715 7.248088 37.215848 0.780376 1.374786 0.019142 -0.011325 -657390.000000 0 0 1
-27.242843 -26.007155 7.559888 38.414795 0.762197 1.372707 0.011659 -0.009481 -1138360.000000 0 0 1
-27.590753 -26.013045 9.084888 38.993119 0.755974 1.335648 0.009217 -0.011686 -759975.000000 0 0 1
-26.804343 -26.855835 9.887488 39.210599 0.786358 1.315881 0.005515 -0.015702 -138830.000000 0 0 1
-27.310943 -26.921155 11.250088 39.964993 0.778211 1.285441 0.018466 -0.019209 -24869.200000 0 0 1
-26.423343 -27.837715 12.154688 40.260003 0.811458 1.264106 0.018949 -0.020059 685945.000000 0 0 1
-25.128113 -27.331685 12.469688 39.165497 0.827378 1.246772 0.025246 -0.020227 178744.000000 0 0 1
-25.129313 -26.286655 13.428088 38.765760 0.807904 1.217076 0.035617 -0.010333 -191350.000000 0 0 1
-23.671263 -25.981985 13.920988 37.804578 0.831902 1.193686 0.039495 -0.014360 828388.000000 0 0 1
-23.153763 -27.079085 14.720288 38.549455 0.863382 1.178994 0.044786 -0.017686 -815004.000000 0 0 1
-21.870563 -26.780675 15.144688 37.747684 0.885982 1.157961 0.052513 -0.017283 -812424.000000 0 0 1
-21.194563 -28.055705 15.678288 38.498582 0.923819 1.151363 0.057442 -0.021559 -577553.000000 0 0 1
-21.887463 -28.471325 16.805688 39.649824 0.915400 1.133101 0.061414 -0.012262 18554.200000 0 0 1
-21.371963 -29.667635 17.337788 40.466384 0.946523 1.128021 0.069831 -0.014788 -661346.000000 0 0 1
-22.287963 -30.321855 18.347888 41.866612 0.936935 1.117150 0.078779 -0.026813 -553602.000000 0 0 1
-23.386663 -30.884055 17.662588 42.576142 0.922677 1.143022 0.060182 -0.023059 144104.000000 0 0 1
-24.018263 -31.945375 18.341288 43.974843 0.926110 1.140560 0.054983 -0.023378 -109990.000000 0 0 1
-25.191163 -32.665295 17.655888 44.870331 0.913871 1.166375 0.044630 -0.027521 -751.301000 0 0 1
-24.730763 -33.389675 16.529788 44.718172 0.933293 1.192171 0.046003 -0.025499 166554.000000 0 0 1
-25.551993 34.219347 16.228388 45.686197 -0.929403 1.207653 0.035978 -0.027045 -674076.000000 0 0 1
-25.023663 33.347227 15.097788 44.341453 -0.927041 1.223359 0.028838 -0.028829 -297825.000000 0 0 1
-23.803463 32.704934 15.352788 43.265756 -0.941639 1.208044 0.026407 -0.033210 153453.000000 0 0 1
-22.726563 33.489312 14.810788 43.097449 -0.974563 1.219987 0.032909 -0.031293 -286061.000000 0 0 1
-21.399463 32.711468 14.798888 41.796940 -0.991482 1.208881 0.053270 -0.037570 -65374.800000 0 0 1
-21.427463 31.681953 13.842788 40.675608 -0.976133 1.223537 0.050007 -0.025373 -741578.000000 0 0 1
-20.189363 31.084503 13.880188 39.579241 -0.994773 1.212485 0.046119 -0.031012 -1015160.000000 0 0 1
-20.020163 30.113483 12.759288 38.346163 -0.984071 1.231589 0.033866 -0.026554 141836.000000 0 0 1
-19.650263 30.806563 11.543188 38.319999 -1.003003 1.264813 0.023972 -0.015607 60482.400000 0 0 1
-19.579463 29.922953 10.456288 37.256844 -0.991384 1.286321 0.019761 -0.013509 255388.000000 0 0 1
-19.036663 30.489593 9.074588 37.072334 -1.012653 1.323503 0.012639 -0.008217 -658601.000000 0 0 1
-17.668363 30.699493 8.964388 36.537517 -1.048567 1.322918 0.011249 -0.014690 -1047430.000000 0 0 1
-17.248263 31.074833 7.695088 36.364298 -1.064080 1.357573 0.022878 -0.016576 12860.400000 0 0 1
-16.973963 29.971433 6.658988 35.081966 -1.055496 1.379825 0.012066 -0.019646 -775838.000000 0 0 1
-18.088963 29.215973 6.301188 34.935492 -1.016417 1.389437 0.003633 -0.015906 -420417.000000 0 0 1
-17.967863 27.937933 6.887888 33.923667 -0.999262 1.366334 -0.006835 -0.009025 482039.000000 0 0 1
-18.979463 26.921473 6.253788 33.527535 -0.956727 1.383171 0.003279 -0.000742 540417.000000 0 0 1
-18.533663 26.642503 4.940788 32.828814 -0.963001 1.419721 0.005380 -0.010847 81170.600000 0 0 1
-19.459063 25.776483 4.376088 32.591906 -0.924157 1.436120 0.028570 -0.013500 -676486.000000 0 0 1
-19.054063 25.204093 2.994088 31.737489 -0.923472 1.476317 0.041094 -0.016346 -1945590.000000 0 0 1
-18.841263 26.104913 1.910788 32.250749 -0.945621 1.511514 0.042998 -0.018247 280892.000000 0 0 1
-17.543163 26.656713 1.808788 31.962707 -0.988738 1.514176 0.030971 -0.018392 589894.000000 0 0 1
-16.255263 25.789973 2.136188 30.560098 -1.008399 1.500838 0.014809 -0.019099 -781473.000000 0 0 1
-16.061063 24.676113 1.324788 29.472417 -0.993806 1.525831 0.032907 -0.024593 46352.200000 0 0 1
-15.888363 24.860963 -0.050812 29.504409 -1.002130 1.572519 0.035530 -0.023112 -279559.000000 0 0 1
-15.393663 23.567313 -0.703412 28.158088 -0.992190 1.595780 0.037463 -0.023153 230447.000000 0 0 1
-16.487663 22.649313 -0.768812 28.025444 -0.941554 1.598232 0.051140 -0.026493 408567.000000 0 0 1
-16.273863 21.472813 -1.572512 26.988759 -0.922270 1.629095 0.048406 -0.025474 -127269.000000 0 0 1
-15.289563 20.345713 -1.174512 25.477407 -0.926343 1.616913 0.042899 -0.025126 -305972.000000 0 0 1
-15.770163 19.462113 -0.210412 25.050273 -0.889806 1.579196 0.055988 -0.028647 -701335.000000 0 0 1
-14.867063 18.515413 0.201888 23.746386 -0.894256 1.562294 0.071962 -0.044456 -1080530.000000 0 1 0
-15.459963 17.473613 1.069488 23.355543 -0.846465 1.524989 0.063007 -0.039282 -478098.000000 0 1 0
-16.294863 16.702813 0.286188 23.336418 -0.797761 1.558532 0.064278 -0.034106 -195081.000000 0 1 0
-16.994663 15.697413 0.950088 23.154481 -0.745738 1.529752 0.069770 -0.045673 -236456.000000 0 1 0
-17.684463 14.704313 0.014388 22.999071 -0.693645 1.570171 0.076571 -0.034458 132102.000000 0 1 0
-18.839963 15.167713 -0.689612 24.196679 -0.677832 1.599300 0.091441 -0.035313 330982.000000 0 1 0
-19.646363 14.093113 -1.005712 24.199315 -0.622269 1.612368 0.086046 -0.027316 -1267940.000000 0 1 0
-20.780363 14.396013 -1.978812 25.357136 -0.605857 1.648913 0.098871 -0.013246 -145798.000000 0 0 1
-21.699763 13.250013 -2.137412 25.514919 -0.548182 1.654666 0.080919 -0.015874 1549780.000000 0 0 1
-22.655763 13.035513 -1.098412 26.161321 -0.522115 1.612795 0.072821 -0.009924 -131272.000000 0 0 1
-23.818763 14.052313 -0.936112 27.670874 -0.533011 1.604633 0.051525 -0.009936 -383357.000000 0 0 1
-23.332263 15.311713 -0.493912 27.912130 -0.580754 1.588493 0.044807 -0.016459 410716.000000 0 0 1
-24.395063 16.245313 -0.337812 29.311148 -0.587490 1.582322 0.027626 -0.015829 150938.000000 0 0 1
-23.968663 17.500413 0.472588 29.681385 -0.630667 1.554874 0.028112 -0.022853 212678.000000 0 0 1
-23.619163 17.198613 1.839688 29.275273 -0.629379 1.507914 0.039226 -0.027394 100395.000000 0 0 1
-23.163463 18.267213 2.650088 29.618576 -0.667764 1.481203 0.037891 -0.027373 120628.000000 0 0 1
-24.221863 19.256213 3.253488 31.114073 -0.671680 1.466038 0.035447 -0.027688 341141.000000 0 0 1
-25.026063 18.606313 4.293488 31.479084 -0.639314 1.433978 0.040497 -0.031046 1594050.000000 0 0 1
-26.415113 18.976613 4.324488 32.811145 -0.622968 1.438612 0.036278 -0.032023 1350380.000000 0 0 1
-27.398123 18.510013 3.197588 33.219005 -0.594158 1.474389 0.043588 -0.027364 114984.000000 0 0 1
-28.719073 18.960913 3.431488 34.584339 -0.583526 1.471412 0.045585 -0.026510 527720.000000 0 0 1
-29.538903 18.909213 2.262088 35.145727 -0.569417 1.506389 0.044279 -0.018688 468296.000000 0 0 1
-30.875603 19.681713 2.287388 36.686575 -0.567503 1.508406 0.067878 -0.035052 267323.000000 0 0 1
-31.923833 19.160713 3.095788 37.361048 -0.540567 1.487840 0.077996 -0.033036 103410.000000 0 0 1
-33.077793 19.942313 2.941388 38.736133 -0.542543 1.494789 0.081679 -0.032756 -293180.000000 0 0 1
-33.538583 20.715013 4.229688 39.646419 -0.553294 1.463908 0.063688 -0.025622 -334250.000000 0 0 1
-32.828233 21.918413 4.476788 39.725953 -0.588697 1.457865 0.061573 -0.027295 267843.000000 0 0 1
-32.709073 22.238513 5.881288 39.987804 -0.597100 1.423184 0.052136 -0.025405 -720502.000000 0 0 1
-31.554403 23.180513 6.108788 39.627438 -0.633585 1.416024 0.054926 -0.026820 -650673.000000 0 0 1
-31.786543 24.334453 5.383888 40.392278 -0.653384 1.437108 0.042216 -0.017055 382309.000000 0 0 1
-30.836633 25.319023 5.756888 40.312437 -0.687457 1.427500 0.029465 -0.022324 -448170.000000 0 0 1
-31.334983 26.677563 5.391288 41.504693 -0.705287 1.440532 0.022534 -0.016974 -919178.000000 0 0 1
-32.281903 27.015013 6.351988 42.570881 -0.696808 1.421027 0.029456 -0.007254 -435827.000000 0 0 1
-32.643463 28.319203 6.099288 43.643719 -0.714584 1.430586 0.022272 -0.008838 -110837.000000 0 0 1
-33.636443 28.773503 7.206988 44.847134 -0.707636 1.409395 0.017053 -0.001414 -183537.000000 0 0 1
-32.970253 28.950283 8.444988 44.681923 -0.720568 1.380650 0.009697 -0.002381 334905.000000 0 0 1
-33.782533 29.542303 9.466088 45.865172 -0.718538 1.362913 0.021518 -0.000065 237273.000000 0 0 1
-34.879906 28.638403 10.082788 46.243146 -0.687450 1.350992 0.016932 0.007229 -223449.000000 0 0 1
-34.252711 27.592853 10.704488 45.268088 -0.678126 1.332066 0.021066 0.006095 -130239.000000 0 0 1
-35.194463 26.830663 11.421688 45.705466 -0.651361 1.318222 0.031914 0.006502 -295592.000000 0 0 1
-34.727816 25.589043 12.164288 44.819529 -0.635029 1.295943 0.017555 0.010999 -607247.000000 0 0 1
-33.861683 25.924303 13.221788 44.648614 -0.653407 1.270158 0.017073 -0.002556 -57684.500000 0 0 1
-33.472283 24.734523 13.916488 43.884610 -0.636395 1.248110 0.018848 -0.003382 -62163.700000 0 0 1
-32.397813 25.027833 14.952888 43.584396 -0.657756 1.220604 0.032133 -0.007925 -43154.000000 0 0 1
-32.992893 25.928413 15.894888 44.871606 -0.666071 1.208705 0.043257 -0.014876 833796.000000 0 0 1
-32.040503 26.359553 16.903688 44.801278 -0.688427 1.183913 0.060968 -0.008445 118117.000000 0 0 1
-32.527253 27.611253 17.679488 46.184064 -0.703835 1.177966 0.075460 -0.017352 -324332.000000 0 0 1
-32.326363 28.782683 16.896588 46.464301 -0.727474 1.198617 0.074729 -0.011494 84697.300000 0 0 1
-32.453193 29.996753 17.620788 47.576329 -0.746084 1.191390 0.073663 -0.010525 -208909.000000 0 0 1
-32.127683 31.241313 16.728188 47.833460 -0.771412 1.213527 0.046031 -0.003561 27466.500000 0 0 1
-30.790433 31.367543 16.303388 46.880422 -0.794682 1.215610 0.041361 -0.004693 -250741.000000 0 0 1
-30.608963 32.539243 15.563788 47.306896 -0.815956 1.235556 0.036073 0.004009 -597187.000000 0 0 1
-29.161003 32.857776 15.162888 46.474839 -0.844935 1.238452 0.043539 -0.008874 -119139.000000 0 0 1
-28.563343 32.125973 14.093288 45.238959 -0.844034 1.253994 0.041326 -0.008579 239719.000000 0 0 1
-28.214943 30.741103 14.319288 44.115081 -0.828220 1.240219 0.038279 -0.013955 -502638.000000 0 0 1
-29.174253 29.637863 13.843088 43.831165 -0.793281 1.249468 0.043034 -0.013549 -101007.000000 0 0 1
-29.432083 29.546523 12.454588 43.524261 -0.787339 1.280587 0.045197 -0.016557 446675.000000 0 0 1
-30.450033 28.554923 12.198488 43.490128 -0.753291 1.286493 0.042502 -0.016493 510399.000000 0 0 1
-30.656863 28.347323 10.701788 43.103854 -0.746276 1.319893 0.041188 -0.006267 -198710.000000 0 0 1
-29.629283 27.679773 9.980588 41.757351 -0.751394 1.329446 0.032012 -0.001686 -106255.000000 0 0 1
-29.619413 27.920533 8.625988 41.608574 -0.755882 1.361969 0.029086 -0.008422 -129350.000000 0 0 1
-28.530973 27.131583 7.879488 40.152528 -0.760263 1.373276 0.027024 -0.018475 -102805.000000 0 0 1
-28.317053 27.517363 6.552688 40.024973 -0.771077 1.406341 0.036915 -0.028472 -77151.900000 0 0 1
-27.322733 26.633673 6.031688 38.629853 -0.772628 1.414014 0.049949 -0.023790 88273.200000 0 0 1
-26.922733 26.982413 4.544488 38.386671 -0.786505 1.452131 0.044031 -0.017240 106619.000000 0 0 1
-26.027033 28.095903 4.567188 38.570007 -0.823605 1.452105 0.033216 -0.026243 322998.000000 0 0 1
-25.837763 28.582063 3.251688 38.666494 -0.835784 1.486601 0.030277 -0.027708 -309746.000000 0 0 1
-24.792063 29.715463 3.227488 38.833900 -0.875479 1.487590 0.026431 -0.025916 -8340.310000 0 0 1
-23.542263 29.185663 3.644688 37.673928 -0.892021 1.473902 0.034497 -0.025032 -508676.000000 0 0 1
-22.516863 29.908153 3.024088 37.558645 -0.925463 1.490193 0.033891 -0.023094 -198416.000000 0 0 1
-21.080063 29.403483 3.277588 36.327351 -0.948802 1.480450 0.024724 -0.026277 -30071.000000 0 0 1
-20.194363 30.234543 2.590188 36.450637 -0.981924 1.499676 0.022604 -0.012964 -423560.000000 0 0 1
-18.858063 29.969783 2.991488 35.535383 -1.009157 1.486513 0.027501 -0.020770 -331236.000000 0 0 1
-17.786063 30.766793 2.360088 35.616143 -1.046641 1.504483 0.021679 -0.019634 -747305.000000 0 0 1
-17.799363 32.108173 2.916088 36.827377 -1.064615 1.491531 0.029583 -0.021763 595521.000000 0 0 1
-16.621163 32.810503 2.449688 36.861811 -1.101898 1.504291 0.046812 -0.014758 366434.000000 0 0 1
-16.212963 33.990012 3.357188 37.808092 -1.125724 1.481884 0.041234 -0.018144 -235415.000000 0 0 1
-17.070863 -33.626995 3.363188 37.861593 1.101045 1.481851 0.047983 -0.026530 -66979.400000 0 0 1
-16.436963 -32.567505 4.097788 36.709781 1.103392 1.458937 0.060334 -0.020778 315115.000000 0 0 1
-17.401563 -31.475625 4.610088 36.259927 1.065761 1.443311 0.069389 -0.016080 -106622.000000 0 0 1
-17.907063 -30.604455 3.614588 35.642122 1.041395 1.469208 0.063231 -0.016265 75727.800000 0 0 1
-18.985363 -29.901415 4.202488 35.667906 1.005087 1.452699 0.062071 -0.016948 -387247.000000 0 0 1
-19.685263 -28.941165 3.249988 35.151999 0.973495 1.478209 0.051339 -0.032524 -248246.000000 0 0 1
-18.849863 -27.854645 2.882288 33.756572 0.975864 1.485308 0.049908 -0.024844 -128113.000000 0 0 1
-19.427263 -26.999685 1.941888 33.319251 0.947079 1.512482 0.046669 -0.017630 -124273.000000 0 0 1
-18.641663 -25.669965 1.790188 31.775202 0.942699 1.514427 0.043662 -0.012179 577986.000000 0 0 1
-17.363863 -25.924405 1.221888 31.226135 0.980636 1.531656 0.059846 -0.018221 123892.000000 0 0 1
-16.526263 -24.766755 1.236688 29.799982 0.982372 1.529285 0.049580 -0.022618 977510.000000 0 0 1
-15.065563 -24.912455 0.698388 29.121974 1.026899 1.546813 0.055476 -0.020891 548990.000000 0 0 1
-14.889263 -24.870755 -0.726412 28.996074 1.031359 1.595851 0.055342 -0.011723 190000.000000 0 0 1
-14.819363 -23.572855 -1.236012 27.871504 1.009568 1.615158 0.060644 -0.014935 -377501.000000 0 0 1
-14.972763 -23.462355 -2.761112 27.969438 1.002789 1.669676 0.041916 0.001771 70008.700000 0 0 1
-13.848863 -23.949355 -3.482112 27.883467 1.046518 1.696004 0.053345 0.000991 157932.000000 0 0 1
-14.045163 -23.901255 -4.888012 28.150120 1.039520 1.745322 0.046440 0.009852 480175.000000 0 0 1
-12.905663 -24.534255 -5.756912 28.313033 1.086545 1.775555 0.064745 -0.002300 461283.000000 0 0 1
-12.721863 -25.918665 -5.646712 29.419524 1.114505 1.763932 0.044668 -0.000327 -327755.000000 0 0 1
-11.681463 -26.543695 -6.359912 29.689608 1.156219 1.786683 0.051957 0.002902 -11896.100000 0 0 1
23.433737 13.257045 28.641628 39.309441 0.514836 0.754492 0.018565 0.008503 -24217.000000 0 0 1
24.128237 11.987145 28.705498 39.368377 0.461092 0.753716 0.013572 0.007181 466755.000000 0 0 1
23.438237 10.882645 29.322348 39.084307 0.434691 0.722381 0.019284 0.001262 -193277.000000 0 0 1
23.169937 10.972545 30.851058 40.112723 0.442279 0.693350 0.029721 0.006047 44787.800000 0 0 1
22.310537 12.060945 31.131128 40.154372 0.495593 0.683628 0.028163 0.013225 116138.000000 0 0 1
22.433537 12.367145 32.468508 41.357150 0.503825 0.667977 0.035796 0.006783 -250906.000000 0 0 1
21.623237 13.595845 32.983531 41.717199 0.561299 0.658933 0.021845 0.014513 -43468.800000 0 0 1
20.368837 13.116945 33.437371 41.291665 0.572125 0.627011 0.024015 0.013078 173597.000000 0 0 1
19.707037 14.102545 34.273147 41.974965 0.621126 0.615450 0.021289 0.015002 -610424.000000 0 0 1
18.542937 13.385845 -33.748862 40.767721 0.625263 2.546030 0.013392 0.019535 -843704.000000 0 0 1
17.419537 13.210945 34.063466 40.475784 0.648854 0.570601 0.004192 0.021843 157497.000000 0 0 1
16.314637 12.764045 -33.828312 39.666648 0.663897 2.592149 0.002437 0.012407 -578211.000000 0 0 1
15.039737 12.475445 34.075684 39.280818 0.692471 0.520664 0.002091 0.013893 -488816.000000 0 0 1
15.128837 11.300345 33.231110 38.221541 0.641540 0.516741 -0.003153 0.019128 -357916.000000 0 0 1
13.861137 10.737745 33.046128 37.409583 0.659101 0.487813 0.003525 0.014799 -411480.000000 0 0 1
13.830837 9.644745 31.975988 36.149371 0.608936 0.485264 0.004357 0.013755 -49278.200000 0 0 1
14.404637 8.401745 32.367788 36.410941 0.528025 0.475732 -0.007348 0.014463 17205.800000 0 0 1
14.979237 7.696345 31.322528 35.562790 0.474627 0.493317 -0.011481 0.000608 -2950.990000 0 0 1
15.433437 6.277245 31.589908 35.714382 0.386295 0.485343 0.004578 -0.005531 -284268.000000 0 0 1
14.340237 5.412545 31.713658 35.223489 0.360906 0.450211 -0.004821 -0.000557 -308150.000000 0 0 1
14.707837 4.197045 32.309288 35.746689 0.277973 0.442135 -0.000946 -0.007945 -190872.000000 0 0 1
13.572437 3.195445 32.455458 35.323911 0.231225 0.405778 -0.004269 -0.002030 -387868.000000 0 0 1
14.015537 2.054645 33.097433 36.001346 0.145561 0.404400 0.005493 -0.006207 -121054.000000 0 0 1
12.883937 1.253745 33.310546 35.737378 0.097005 0.370649 0.008690 -0.011778 -466623.000000 0 0 1
13.320237 -0.119055 33.810082 36.339573 -0.008938 0.375313 -0.012947 -0.011303 162616.000000 0 0 1
13.748037 -1.081855 32.818871 35.598557 -0.078530 0.397799 -0.017460 -0.002173 -23722.100000 0 0 1
14.065737 -2.318155 33.422722 36.335894 -0.163340 0.403158 0.017281 -0.006326 -458644.000000 0 0 1
14.128037 -3.560055 32.449508 35.570297 -0.246846 0.422018 0.015865 -0.010087 -766856.000000 0 0 1
14.605237 -4.826455 32.912812 36.329889 -0.319163 0.437194 0.030931 -0.014529 1429970.000000 0 0 1
15.955737 -4.840355 33.445958 37.371737 -0.294538 0.462470 0.013547 -0.008340 817854.000000 0 0 1
17.159237 -4.528055 32.565818 37.087400 -0.258003 0.498955 0.032389 -0.011187 -963626.000000 0 0 1
17.255337 -3.113655 32.372428 36.815970 -0.178525 0.496398 0.036315 -0.013300 -18032.200000 0 0 1
18.228937 -2.778255 31.415018 36.426862 -0.151245 0.530778 0.069495 -0.019723 -145411.000000 0 0 1
18.321837 -1.253155 31.201058 36.204505 -0.068290 0.531988 0.071426 -0.024790 -642386.000000 0 0 1
18.999537 -0.689555 32.239708 37.428020 -0.036277 0.532818 0.060609 -0.019725 -201851.000000 0 0 1
18.763137 0.736045 32.303108 37.364260 0.039208 0.526551 0.051332 -0.009877 -167843.000000 0 0 1
19.870937 1.584645 31.673018 37.423861 0.079578 0.561735 0.067319 -0.019467 -448556.000000 0 0 1
19.934237 1.555845 30.283558 36.288957 0.077891 0.583550 0.067348 -0.016659 266462.000000 0 0 1
20.858637 2.585145 29.914328 36.559989 0.123308 0.612478 0.068867 -0.014274 229582.000000 0 0 1
20.298337 4.040145 29.982038 36.431688 0.196471 0.604184 0.061065 -0.011382 -268079.000000 0 0 1
20.125937 4.442845 31.319748 37.492917 0.217268 0.582025 0.067806 -0.016620 441073.000000 0 0 1
19.380437 5.638045 31.344778 37.281148 0.283100 0.572097 0.051620 -0.017050 -178988.000000 0 0 1
19.311737 6.229645 32.753078 38.529415 0.312045 0.554659 0.049920 -0.012942 -363379.000000 0 0 1
18.496337 5.384645 33.521491 38.662634 0.283290 0.521595 0.044990 -0.015375 76322.100000 0 0 1
18.136537 6.012845 -33.906132 38.919328 0.320129 2.628418 0.034713 -0.006027 -580652.000000 0 0 1
16.942137 5.366945 -33.227142 37.681336 0.306780 2.650447 0.037730 -0.003217 -661289.000000 0 0 1
17.116537 3.987045 -33.061932 37.442806 0.228854 2.653008 0.032221 -0.010316 388858.000000 0 0 1
15.846637 3.396945 -32.799092 36.584636 0.211168 2.682661 0.032572 -0.013551 320559.000000 0 0 1
15.878237 1.881545 -32.959772 36.633390 0.117948 2.689923 0.015601 -0.018290 187706.000000 0 0 1
16.945337 1.205945 -32.281652 36.478814 0.071047 2.657167 0.033670 -0.016707 460886.000000 0 0 1
17.100237 -0.157455 -32.672212 36.877044 -0.009208 2.659393 0.036625 -0.016075 -76041.600000 0 0 1
18.230137 -0.871055 -31.895922 36.748422 -0.047745 2.621863 0.045747 -0.019389 -251216.000000 0 0 1
17.940937 -1.145255 -30.537812 35.436518 -0.063748 2.609527 0.048034 -0.019610 274408.000000 0 0 1
17.926537 -0.022255 -29.680762 34.674326 -0.001241 2.598253 0.037257 -0.015299 -282516.000000 0 0 1
17.762137 -0.317755 -28.151002 33.287737 -0.017888 2.578647 0.040725 -0.017135 -126134.000000 0 0 1
16.578237 -0.976955 -27.771352 32.358004 -0.058862 2.602652 0.038505 -0.018991 -92434.700000 0 0 1
16.347337 -1.173855 -26.382832 31.059092 -0.071684 2.585719 0.041163 -0.021446 -34389.500000 0 0 1
17.163137 -2.254855 -25.639122 30.935776 -0.130630 2.547730 0.052973 -0.018727 -63094.500000 0 0 1
18.497637 -1.926355 -25.325072 31.420260 -0.103767 2.508178 0.052005 -0.020466 336545.000000 0 0 1
19.441037 -3.026055 -25.273342 32.028937 -0.154414 2.480104 0.057000 -0.019970 1212880.000000 0 0 1
20.251037 -3.147055 -26.620022 33.595149 -0.154169 2.485492 0.058212 -0.020865 -325092.000000 0 0 1
21.368237 -2.333055 -26.786352 34.344627 -0.108753 2.465348 0.050796 -0.012939 -454391.000000 0 0 1
21.833537 -2.434655 -28.116582 35.681551 -0.111051 2.478328 0.043599 -0.015387 -942201.000000 0 0 1
23.292937 -2.199455 -28.405102 36.800114 -0.094147 2.452582 0.034307 -0.014866 -1150850.000000 0 0 1
24.105337 -3.251755 -28.011342 37.098201 -0.134088 2.426541 0.036309 -0.017645 34630.100000 0 0 1
25.433737 -3.087855 -28.495752 38.319939 -0.120817 2.409276 0.024338 -0.017395 219245.000000 0 0 1
26.405737 -4.243555 -28.230872 38.887696 -0.159343 2.383224 0.023124 -0.017658 -349566.000000 0 0 1
26.261637 -5.364355 -29.080102 39.548733 -0.201494 2.396903 0.028727 -0.026585 835762.000000 0 0 1
27.285837 -6.384855 -28.918372 40.268543 -0.229863 2.371919 0.024823 -0.028959 591792.000000 0 0 1
27.222037 -7.150355 -27.595892 39.417004 -0.256865 2.346336 0.014138 -0.020118 -262258.000000 0 0 1
27.546137 -6.479855 -26.404132 38.703442 -0.231036 2.321586 0.010825 -0.011113 215120.000000 0 0 1
27.140337 -7.338355 -25.334822 37.845774 -0.264071 2.304228 -0.001060 -0.006377 -271747.000000 0 0 1
27.316937 -6.705055 -23.940812 36.936910 -0.240696 2.275954 -0.010463 -0.000412 -344396.000000 0 0 1
28.638637 -6.578255 -23.484812 37.616239 -0.225782 2.245065 -0.018105 0.004509 -47295.000000 0 0 1
28.625537 -6.038055 -22.179812 36.712717 -0.207885 2.219489 -0.011775 0.002313 730920.000000 0 0 1
30.038637 -5.523255 -21.702312 37.467539 -0.181841 2.188580 0.006324 0.006886 723699.000000 0 0 1
30.524937 -4.432855 -22.472912 38.163514 -0.144213 2.200442 0.010003 0.005811 281020.000000 0 0 1
31.784337 -3.965855 -22.003812 38.860518 -0.124132 2.172716 0.017121 0.007040 203225.000000 0 0 1
32.152137 -2.627455 -22.686612 39.437873 -0.081538 2.183705 0.027467 -0.007662 31252.400000 0 0 1
31.283537 -1.566655 -22.304912 38.452870 -0.050037 2.189597 0.025637 -0.011902 322593.000000 0 0 1
31.743537 -0.347855 -22.807412 39.089017 -0.010958 2.193796 0.036425 -0.010770 168836.000000 0 0 1
30.771137 0.858645 -22.502112 38.130634 0.027897 2.202019 0.036260 -0.012511 104392.000000 0 0 1
29.680437 0.774745 -23.401412 37.804162 0.026097 2.238287 0.028411 -0.006513 -131199.000000 0 0 1
28.674237 1.668345 -23.052412 36.829458 0.058117 2.247111 0.021791 -0.003304 -408821.000000 0 0 1
27.392737 1.651045 -23.901312 36.391768 0.060200 2.287334 0.011993 -0.005919 24688.300000 0 0 1
26.422237 2.597245 -23.451312 35.423782 0.097983 2.294309 0.012371 -0.007953 -167053.000000 0 0 1
25.443237 2.655045 -24.446512 35.384171 0.103975 2.333513 0.014881 -0.009105 -64734.100000 0 0 1
24.382537 3.776945 -24.203712 34.562887 0.153682 2.346587 0.027533 -0.005590 80917.300000 0 0 1
25.024437 5.034745 -24.096812 35.103098 0.198543 2.327404 0.017712 0.002464 405872.000000 0 0 1
24.135237 6.000345 -23.566912 34.262416 0.243673 2.329299 0.032412 -0.008658 -133794.000000 0 0 1
24.837037 7.276245 -23.131012 34.711178 0.284985 2.300146 0.031211 -0.003549 -95295.900000 0 0 1
25.563937 8.042545 -24.065512 36.018694 0.304802 2.302502 0.028050 -0.000229 274667.000000 0 0 1
25.663137 9.351745 -23.655412 36.133506 0.349449 2.284538 0.027467 -0.002160 -169960.000000 0 0 1
26.394437 10.295945 -24.700212 37.586877 0.371926 2.287828 0.045306 0.000621 -128474.000000 0 0 1
25.789137 10.505445 -25.966112 38.074702 0.386834 2.321260 0.051957 -0.013553 267093.000000 0 0 1
24.543837 11.167345 -25.950482 37.423750 0.427001 2.337025 0.045821 -0.019128 77229.000000 0 0 1
23.990037 11.611345 -27.340742 38.181951 0.450771 2.368944 0.035918 -0.018908 -239493.000000 0 0 1
23.629237 10.591945 -28.289802 38.351572 0.421403 2.400370 0.039196 -0.012805 697077.000000 0 0 1
24.655937 9.720645 -28.838442 39.167103 0.375541 2.398371 0.044020 -0.020162 606400.000000 0 0 1
25.594437 10.350745 -29.908702 40.703116 0.384306 2.396170 0.040992 -0.013520 -762211.000000 0 0 1
26.452137 11.337345 -29.350972 41.106332 0.404915 2.366028 0.036851 -0.009522 1251090.000000 0 0 1
27.501837 11.867945 -30.197582 42.533436 0.407391 2.360256 0.038634 -0.002758 1350640.000000 0 0 1
28.612737 10.882845 -30.726552 43.373334 0.363453 2.358054 0.033111 -0.011450 -438036.000000 0 0 1
28.086937 9.850545 -31.541122 43.367634 0.337313 2.385171 0.028775 -0.015403 240254.000000 0 0 1
28.964737 8.753045 -31.703852 43.825861 0.293471 2.379518 0.021409 -0.012655 -138289.000000 0 0 1
28.300837 7.710145 -32.639032 43.882686 0.265980 2.409503 0.030632 -0.015485 405652.000000 0 0 1
27.178637 7.032845 -32.064942 42.618069 0.253210 2.422463 0.044659 -0.016562 613771.000000 0 0 1
26.533137 6.311245 -33.110942 42.897246 0.233523 2.452568 0.053978 -0.018905 702917.000000 0 0 1
25.180737 5.572745 -32.776582 41.706467 0.217799 2.474926 0.050944 -0.015199 1397120.000000 0 0 1
23.945137 6.292145 -32.733002 41.041566 0.256964 2.494031 0.074372 -0.019482 715927.000000 0 0 1
23.683037 6.998545 -31.538072 40.056409 0.287331 2.477281 0.065682 -0.017991 174517.000000 0 0 1
22.198937 7.457945 -31.381602 39.156337 0.324112 2.500502 0.063475 -0.016972 419992.000000 0 0 1
21.688037 8.293245 -32.408822 39.868291 0.365232 2.519906 0.062390 -0.013512 846579.000000 0 0 1
20.282037 8.515845 -32.181782 38.981377 0.397519 2.542005 0.049146 -0.009389 833058.000000 0 0 1
19.723437 9.543145 -33.242412 39.813862 0.450643 2.558830 0.036677 -0.002121 -337504.000000 0 0 1
19.602737 9.136345 34.069202 40.354066 0.436141 0.565619 0.035613 -0.002615 210041.000000 0 0 1
19.202737 10.166845 33.194555 39.673522 0.486927 0.579580 0.026605 0.012444 -258931.000000 0 0 1
18.258737 9.745245 32.054968 38.155894 0.490266 0.573319 0.006765 0.008984 -163840.000000 0 0 1
18.759537 8.884845 31.043808 37.344059 0.442320 0.589369 0.006927 0.001405 192848.000000 0 0 1
19.819937 9.280045 30.181108 37.280671 0.437900 0.627386 0.026366 -0.000921 -327552.000000 0 0 1
19.454537 10.123845 28.966848 36.332486 0.479822 0.648035 0.023369 -0.004644 -222800.000000 0 0 1
18.505837 9.613745 28.058408 34.959468 0.479124 0.639158 0.006660 0.001415 2007360.000000 0 0 1
17.120737 10.066745 28.307758 34.580170 0.531538 0.611805 0.008640 -0.003881 1575480.000000 0 0 1
16.144737 9.191645 27.506538 33.192597 0.517561 0.594024 0.015156 -0.005410 -1021730.000000 0 0 1
16.194637 9.547545 26.105718 32.170334 0.532700 0.624109 0.021585 -0.005818 -414122.000000 0 0 1
15.016537 9.294345 25.410258 30.944506 0.554230 0.607363 0.031593 -0.007445 -458122.000000 0 0 1
14.623137 7.819945 25.183938 30.153249 0.491071 0.582303 0.031829 -0.004207 -356456.000000 0 0 1
14.547537 7.038945 26.337708 30.900687 0.450651 0.550364 0.025033 -0.001539 -162132.000000 0 0 1
14.371937 5.698445 25.948648 30.205251 0.377484 0.537332 0.023988 -0.005293 -238319.000000 0 0 1
14.431937 4.762645 27.123638 31.091082 0.318754 0.510720 0.016547 -0.006571 -408936.000000 0 0 1
15.671037 4.230445 27.508398 31.940414 0.263668 0.533089 0.008910 -0.003200 -393188.000000 0 0 1
15.664037 3.682645 28.794848 32.985864 0.230908 0.509589 0.001226 -0.005572 336641.000000 0 0 1
16.697337 2.547445 29.136518 33.678290 0.151398 0.525362 0.025356 -0.002827 378512.000000 0 0 1
16.228337 1.192345 28.999188 33.252572 0.073341 0.511342 0.012425 -0.011117 -392698.000000 0 0 1
15.262437 0.829545 29.926058 33.603558 0.054299 0.472217 -0.003594 -0.009212 -294721.000000 0 0 1
14.836137 -0.670655 29.728408 33.231597 -0.045173 0.463300 0.000508 -0.006313 -351691.000000 0 0 1
14.169737 -1.002255 28.483248 31.828940 -0.070615 0.462622 -0.004590 -0.009640 110491.000000 0 0 1
14.874337 -1.064655 27.243908 31.058170 -0.071455 0.500819 0.002159 -0.006190 -970524.000000 0 0 1
15.970837 -2.157155 27.088338 31.519820 -0.134256 0.536689 0.014046 -0.006705 140712.000000 0 0 1
17.149037 -1.949855 27.825618 32.743800 -0.113214 0.555194 0.031580 -0.012923 87498.000000 0 0 1
18.022737 -0.934855 27.342968 32.761730 -0.051824 0.583388 0.042760 -0.008679 -919380.000000 0 0 1
19.444337 -0.932855 27.916988 34.033964 -0.047939 0.608916 0.078459 -0.002258 -379751.000000 0 0 1
20.313537 -1.672055 27.091478 33.902563 -0.082127 0.645003 0.067830 -0.013932 -629859.000000 0 0 1
21.617237 -1.447055 27.549268 35.047983 -0.066840 0.666413 0.072482 -0.017213 -527154.000000 0 0 1
22.749837 -1.755455 26.577698 35.028714 -0.077011 0.709419 0.070273 -0.006742 -481763.000000 0 0 1
22.621637 -1.058855 25.346058 33.989444 -0.046773 0.729206 0.079982 0.003790 283145.000000 0 0 1
22.118237 -1.949955 24.349418 32.953193 -0.087933 0.739346 0.071886 0.012933 43502.500000 0 0 1
22.037737 -1.391455 22.949578 31.847781 -0.063056 0.766126 0.071386 -0.010026 704708.000000 0 0 1
21.184637 -0.180255 22.925678 31.215510 -0.008509 0.745967 0.052244 0.004136 933184.000000 0 0 1
21.078537 0.392145 21.601878 30.184427 0.018602 0.773223 0.055147 0.008944 31181.800000 0 0 1
-30.173683 -27.653724 -10.090112 42.154359 0.741848 1.812504 0.013953 0.016668 -44886.800000 0 0 1
-30.047553 -26.389224 -9.414412 41.083789 0.720667 1.802002 0.024516 0.016223 -352654.000000 0 0 1
-30.791023 -26.366124 -8.229012 41.363948 0.708136 1.771074 0.028022 0.011922 -380823.000000 0 0 1
-30.916063 -25.051324 -7.516612 40.495324 0.680991 1.757496 0.050032 0.002940 -276036.000000 0 0 1
-29.741033 -24.497024 -7.001312 39.161864 0.689013 1.750541 0.063927 -0.007889 -491483.000000 0 0 1
-29.086743 -25.139724 -5.870912 38.891027 0.712739 1.722334 0.057195 -0.004690 300149.000000 0 0 1
-27.788403 -24.449524 -5.439212 37.410688 0.721568 1.716705 0.049577 -0.005548 -365744.000000 0 0 1
-27.810933 -23.334224 -4.512312 36.582714 0.698091 1.694457 0.058692 -0.009571 -329164.000000 0 0 1
-28.619653 -22.210424 -4.795012 36.542846 0.659969 1.702392 0.081358 -0.018823 -126741.000000 0 0 1
-28.552263 -20.971224 -3.872312 35.637322 0.633498 1.679670 0.068239 -0.019675 251582.000000 0 0 1
-27.324403 -20.255524 -3.970912 34.244378 0.637909 1.687016 0.067122 -0.030297 518397.000000 0 0 1
-27.381383 -19.176324 -3.054012 33.567820 0.610955 1.661903 0.083908 -0.027917 -592077.000000 0 0 1
-26.151803 -18.290024 -3.123112 32.065489 0.610309 1.668349 0.076911 -0.023783 -504857.000000 0 0 1
-26.274103 -17.336624 -4.232012 31.761564 0.583259 1.704437 0.073858 -0.026748 -584875.000000 0 0 1
-25.296973 -16.386224 -4.189312 30.430174 0.574795 1.708905 0.067145 -0.025805 -1030650.000000 0 0 1
-25.437163 -15.326724 -5.271812 30.162058 0.542280 1.746482 0.059917 -0.031375 639129.000000 0 0 1
-26.608563 -14.543824 -4.936112 30.723015 0.500217 1.732161 0.072361 -0.028431 752966.000000 0 0 1
-26.853603 -13.463024 -5.795212 30.593357 0.464726 1.761375 0.079422 -0.030516 830264.000000 0 0 1
-28.345763 -12.968224 -5.972112 31.738356 0.429075 1.760092 0.073608 -0.026615 881646.000000 0 0 1
-29.194943 -13.827324 -6.709112 32.993208 0.442322 1.775573 0.075504 -0.022904 323034.000000 0 0 1
-30.467823 -13.192724 -6.815812 33.893827 0.408631 1.773270 0.061385 -0.022891 404367.000000 0 0 1
-31.477023 -14.031424 -7.678012 35.307729 0.419328 1.790008 0.045756 -0.020514 -207101.000000 0 0 1
-32.150483 -15.048624 -7.028812 36.187274 0.437778 1.766273 0.049292 -0.022078 98681.500000 0 0 1
-32.662243 -15.979424 -7.963612 37.223423 0.454996 1.786404 0.048681 -0.010010 -705419.000000 0 0 1
-33.461583 -17.139324 -7.352112 38.307800 0.473367 1.763917 0.042344 -0.019820 -165295.000000 0 0 1
-34.783266 -17.025624 -6.907012 39.337695 0.455194 1.747294 0.043431 -0.024859 -172459.000000 0 0 1
-35.072910 -16.009724 -5.986212 39.016087 0.428221 1.724834 0.041312 -0.025877 -483777.000000 0 0 1
35.110320 -15.981724 -5.540712 38.972421 -0.427158 1.713450 0.071210 -0.025665 -188420.000000 0 0 1
34.439980 -15.465824 -6.654312 38.335151 -0.422077 1.745263 0.057672 -0.033491 -65197.400000 0 0 1
33.033140 -15.489824 -6.682312 37.091458 -0.438474 1.751943 0.071169 -0.038431 219170.000000 0 0 1
32.153610 -14.653724 -5.731712 35.797190 -0.427618 1.731605 0.091674 -0.038069 -572207.000000 0 0 1
32.138540 -15.216524 -4.447012 35.835796 -0.442196 1.695211 0.088878 -0.034854 384388.000000 0 0 1
31.514830 -14.417624 -3.470812 34.829570 -0.429063 1.670613 0.095534 -0.028437 -864448.000000 0 0 1
31.349180 -15.187224 -2.148912 34.900440 -0.451133 1.632408 0.089465 -0.026818 -853812.000000 0 0 1
32.470050 -15.445224 -1.360012 35.982061 -0.444000 1.608602 0.103256 -0.026805 -162452.000000 0 0 1
33.483470 -16.286724 -1.894412 37.282555 -0.452717 1.621631 0.084946 -0.023800 -486052.000000 0 0 1
33.121140 -17.749724 -2.221512 37.643030 -0.491956 1.629846 0.083269 -0.027936 -963093.000000 0 0 1
33.379700 -18.710824 -1.193912 38.284785 -0.510903 1.601986 0.073976 -0.031474 291931.000000 0 0 1
33.079420 -20.091724 -1.453612 38.730329 -0.545827 1.608337 0.057084 -0.028023 162757.000000 0 0 1
34.118730 -20.682924 -2.443512 39.973014 -0.544969 1.631964 0.046896 -0.032392 151500.000000 0 0 1
33.961340 -20.174324 -3.744112 39.678638 -0.536024 1.665298 0.047319 -0.034896 564610.000000 0 0 1
35.013180 -20.503124 -4.690212 40.844816 -0.529751 1.685880 0.038383 -0.026435 528243.000000 0 0 1
34.985900 -19.673724 -6.023512 40.587576 -0.512263 1.719754 0.049347 -0.031309 6944.760000 0 0 1
33.921950 -20.012224 -6.887812 39.982868 -0.532996 1.743929 0.048322 -0.031495 245435.000000 0 0 1
33.704980 -19.067024 -7.915912 39.525166 -0.514820 1.772435 0.046427 -0.031618 -191467.000000 0 0 1
32.782920 -19.591424 -9.023512 39.242420 -0.538661 1.802815 0.050205 -0.033935 -323837.000000 0 0 1
33.241160 -20.656124 -9.799312 40.344475 -0.556008 1.816141 0.034379 -0.030325 134860.000000 0 0 1
32.252530 -21.008824 -10.738212 39.961301 -0.577348 1.842855 0.037162 -0.034442 -196795.000000 0 0 1
32.488940 -22.500924 -11.053612 41.036632 -0.605723 1.843524 0.020300 -0.031612 -87717.300000 0 0 1
31.933890 -23.314724 -10.051112 40.796747 -0.630639 1.819730 0.007518 -0.026745 -94235.100000 0 0 1
31.794790 -24.677324 -10.450312 41.582304 -0.660024 1.824836 -0.002703 -0.013374 -379089.000000 0 0 1
30.940710 -25.423224 -9.415812 41.137883 -0.687819 1.801728 -0.008187 -0.014933 202653.000000 0 0 1
29.597480 -24.978424 -9.500312 39.877167 -0.700964 1.811349 0.012256 -0.026059 -187684.000000 0 0 1
28.663950 -25.783924 -8.790712 39.543766 -0.732552 1.794973 -0.002621 -0.022329 1099880.000000 0 0 1
27.273800 -25.041124 -8.865512 38.072501 -0.742746 1.805812 0.032849 -0.036297 636628.000000 0 0 1
26.691840 -24.874124 -10.144412 37.869321 -0.750162 1.841988 0.046596 -0.030236 -78872.600000 0 0 1
25.480270 -24.158924 -10.052012 36.523153 -0.758785 1.849618 0.066696 -0.043394 -155643.000000 0 0 1
24.774270 -24.063924 -11.413512 36.374513 -0.770854 1.889965 0.102360 -0.049176 -304421.000000 0 0 1
24.173470 -25.259324 -11.895512 36.930926 -0.807361 1.898745 0.085942 -0.039853 -183943.000000 0 0 1
23.059070 -24.857724 -12.651112 36.189471 -0.822918 1.927919 0.090695 -0.024381 -176342.000000 0 0 1
22.298970 -26.199824 -12.976912 36.770574 -0.865657 1.931482 0.098019 -0.032935 -37316.300000 0 0 1
22.982970 -27.076124 -13.859012 38.123557 -0.866983 1.942849 0.091176 -0.025810 -208.581000 0 0 1
22.328570 -28.318324 -13.896712 38.647266 -0.903116 1.938612 0.101787 -0.023054 -381352.000000 0 0 1
23.014070 -29.477224 -14.597712 40.145328 -0.907910 1.942949 0.085115 -0.018060 -381594.000000 0 0 1
22.926970 -29.475624 -16.012312 40.630684 -0.909722 1.975878 0.074875 -0.012128 602016.000000 0 0 1
23.560170 -30.668524 -16.596312 42.084172 -0.915736 1.976168 0.058085 -0.004655 196626.000000 0 0 1
23.565370 -30.616624 -18.159312 42.690338 -0.914811 2.010170 0.048259 0.000527 247785.000000 0 0 1
22.246070 -30.623224 -18.671912 42.205566 -0.942542 2.029074 0.062220 0.000690 136857.000000 0 0 1
22.309570 -30.522024 -20.045612 42.791792 -0.939610 2.058327 0.052269 0.002428 314499.000000 0 0 1
20.904970 -30.371224 -20.684412 42.276163 -0.967956 2.082048 0.044200 0.004087 296046.000000 0 0 1
21.051470 -30.158024 -22.097512 42.906536 -0.961388 2.111822 0.021671 0.009467 11871.900000 0 0 1
19.756870 -30.241424 -22.648312 42.635944 -0.992101 2.130815 0.016185 0.006541 -320036.000000 0 0 1
19.668570 -30.355424 -24.188212 43.512918 -0.995869 2.160225 0.009371 0.008072 -831314.000000 0 0 1
20.124970 -29.215824 -24.917112 43.352523 -0.967601 2.183102 0.009236 0.000908 303493.000000 0 0 1
20.166570 -29.409224 -26.331142 44.327442 -0.969717 2.206836 0.011455 -0.000966 -254453.000000 0 0 1
20.589970 -28.103024 -27.069592 44.119040 -0.938485 2.231355 -0.004567 -0.003941 6985.220000 0 0 1
19.643570 -27.061224 -27.097022 43.039846 -0.942903 2.251809 0.005074 -0.013436 51331.800000 0 0 1
18.796670 -27.103124 -28.263582 43.436439 -0.964430 2.279287 0.033600 -0.018003 -300948.000000 0 0 1
18.015270 -25.820024 -28.427232 42.418524 -0.961599 2.305222 0.033341 -0.012059 -883457.000000 0 0 1
17.140670 -25.664824 -27.370052 41.250522 -0.981964 2.296294 0.028927 -0.002597 -738041.000000 0 0 1
16.620770 -24.379024 -27.377892 40.250911 -0.972414 2.318805 0.030232 -0.008111 -359289.000000 0 0 1
15.657470 -24.054324 -26.243752 38.890891 -0.993774 2.311496 0.047663 -0.010295 -837352.000000 0 0 1
14.466370 -24.770524 -26.372732 38.966341 -1.042213 2.314214 0.070034 -0.016059 -973564.000000 0 0 1
13.403070 -24.306024 -25.583942 37.748685 -1.066856 2.315486 0.074704 -0.017311 178672.000000 0 0 1
13.452470 -24.546224 -24.071312 36.917667 -1.069454 2.281051 0.064916 -0.011464 -173413.000000 0 0 1
14.448870 -23.704524 -23.483312 36.361247 -1.023391 2.272911 0.031260 -0.013759 21016.600000 0 0 1
14.707770 -24.231624 -22.218812 36.016187 -1.025271 2.235609 0.028994 -0.018159 266747.000000 0 0 1
15.946670 -23.614524 -21.536712 35.717951 -0.976847 2.218010 0.035370 -0.019749 152517.000000 0 0 1
15.607970 -22.336424 -20.975312 34.387328 -0.960898 2.226822 0.031100 -0.030726 497919.000000 0 0 1
16.797070 -21.652724 -20.598712 34.282488 -0.911019 2.215363 0.036696 -0.027412 -259599.000000 0 0 1
16.475770 -20.269324 -19.927012 32.853954 -0.888273 2.222489 0.046923 -0.019526 -401143.000000 0 0 1
15.765370 -20.393924 -18.758512 31.880101 -0.912710 2.199885 0.045119 -0.028491 -106418.000000 0 0 1
14.375370 -20.333024 -19.033212 31.342404 -0.955390 2.223413 0.053915 -0.025289 -252662.000000 0 0 1
13.522470 -20.358624 -17.733712 30.196280 -0.984494 2.198492 0.060011 -0.023340 -52558.600000 0 0 1
13.611370 -19.161824 -17.048212 29.035951 -0.953166 2.198319 0.067293 -0.023411 94395.600000 0 0 1
12.752470 -19.238624 -15.945812 28.053860 -0.985435 2.175356 0.060581 -0.025070 -120595.000000 0 0 1
12.820070 -17.950024 -15.084512 26.722651 -0.950598 2.170604 0.057520 -0.021825 -144463.000000 0 0 1
12.314470 -16.818724 -15.790912 26.150881 -0.938793 2.219104 0.067895 -0.030370 160621.000000 0 0 1
12.394670 -15.634624 -15.001412 24.962205 -0.900479 2.215504 0.053166 -0.022921 233835.000000 0 1 0
11.049070 -14.979424 -14.526612 23.611175 -0.935268 2.233491 0.050450 -0.014658 319198.000000 0 1 0
10.206670 -14.544624 -15.556112 23.615987 -0.958898 2.289901 0.056773 -0.004070 -561224.000000 0 1 0
9.073370 -13.888424 -15.069612 22.412220 -0.992102 2.308221 0.048251 -0.007620 -549091.000000 0 1 0
8.205370 -13.469724 -16.242212 22.640032 -1.023660 2.370875 0.035377 -0.000317 -416672.000000 0 1 0
8.484070 -12.243724 -16.964712 22.576308 -0.964830 2.421036 0.034745 -0.001796 565179.000000 0 1 0
9.763370 -12.225224 -17.639312 23.578059 -0.896894 2.416027 0.052212 -0.007972 804329.000000 0 1 0
10.007670 -11.057624 -18.601012 23.841606 -0.835200 2.465768 0.048861 -0.011315 -475808.000000 0 1 0
9.310970 -11.193224 -19.765812 24.549333 -0.876940 2.506719 0.048025 -0.006536 -235362.000000 0 1 0
9.248570 -9.981824 -20.450412 24.564043 -0.823510 2.554463 0.024489 -0.014385 -127856.000000 0 1 0
8.932070 -10.083624 -21.968012 25.769263 -0.845882 2.591525 0.027913 -0.009584 30278.300000 0 0 1
9.956870 -10.741124 -22.691412 27.007614 -0.823270 2.568422 0.037442 -0.011027 -238490.000000 0 0 1
9.811570 -10.671224 -24.086212 28.112054 -0.827343 2.599814 0.029503 -0.006996 540035.000000 0 0 1
10.989670 -11.362224 -24.862912 29.462474 -0.802064 2.575278 0.056679 -0.004151 478244.000000 0 0 1
10.878170 -12.772224 -24.629712 29.800789 -0.865313 2.543620 0.054253 -0.010711 22659.100000 0 0 1
11.985870 -13.489524 -25.140052 30.945930 -0.844354 2.519029 0.053803 -0.021605 -88074.800000 0 0 1
11.836770 -15.020924 -24.891512 31.389882 -0.903404 2.486479 0.049883 -0.019690 200976.000000 0 0 1
10.738570 -15.668124 -25.528632 31.820089 -0.969952 2.501902 0.053617 -0.018410 115539.000000 0 0 1
10.357870 -16.892924 -24.922012 31.839646 -1.020765 2.469845 0.060829 -0.016461 962448.000000 0 0 1
9.231470 -17.752124 -25.642542 32.525343 -1.091261 2.478978 0.070178 -0.015182 836472.000000 0 0 1
9.700970 -18.644324 -26.658152 33.946675 -1.091027 2.473969 0.063920 -0.024566 -369041.000000 0 0 1
8.655970 -19.295124 -27.331252 34.557561 -1.149100 2.483059 0.064371 -0.016001 -489748.000000 0 0 1
9.041970 -20.169524 -28.516812 36.080126 -1.149358 2.482216 0.058844 -0.021337 -701640.000000 0 0 1
9.667270 -21.340424 -28.137272 36.613876 -1.145448 2.447269 0.061420 -0.019627 -204562.000000 0 0 1
9.828070 -22.248324 -29.200042 38.002913 -1.154829 2.447076 0.069953 -0.016322 -51926.800000 0 0 1
10.623470 -23.512324 -28.870712 38.719576 -1.146425 2.412285 0.068245 -0.015632 -83808.400000 0 0 1
10.377970 -24.343624 -29.983742 39.991738 -1.167815 2.418478 0.063738 -0.012089 71087.700000 0 0 1
10.618070 -25.770124 -29.869972 40.854106 -1.179962 2.390784 0.070526 -0.010846 34211.600000 0 0 1
9.973670 -26.618324 -28.746142 40.427095 -1.212296 2.361803 0.081671 -0.015996 -56354.400000 0 0 1
10.642870 -26.460024 -27.530252 39.639858 -1.188374 2.338534 0.078316 -0.015137 -583474.000000 0 0 1
9.931070 -26.922924 -26.413412 39.001774 -1.217410 2.314796 0.078209 -0.011771 -176299.000000 0 0 1
9.073070 -25.857124 -25.753242 37.605066 -1.233327 2.325173 0.072333 -0.012735 -563811.000000 0 0 1
9.800670 -24.815524 -25.225522 36.717712 -1.194659 2.328166 0.088754 -0.011882 -746300.000000 0 0 1
9.032170 -23.644924 -24.961212 35.548905 -1.205910 2.349231 0.071669 -0.008122 20500.500000 0 0 1
9.818770 -22.329024 -24.832012 34.808367 -1.156515 2.365123 0.076577 -0.008890 -142642.000000 0 0 1
10.420870 -22.152724 -23.582812 33.992452 -1.131099 2.337502 0.075851 -0.008012 -570570.000000 0 0 1
11.314970 -21.101024 -23.675012 33.671768 -1.078588 2.350560 0.075602 -0.010164 -386822.000000 0 0 1
11.978470 -20.833824 -22.293012 32.779725 -1.048997 2.318675 0.065470 -0.010304 308382.000000 0 0 1
11.149070 -20.125524 -21.346612 31.384970 -1.064905 2.318769 0.065591 -0.011608 242990.000000 0 0 1
10.893770 -18.719424 -21.564912 30.563647 -1.043755 2.354029 0.081058 -0.017632 461079.000000 0 0 1
12.132570 -17.783324 -21.377712 30.338959 -0.972087 2.352697 0.075642 -0.019288 1231690.000000 0 0 1
13.167370 -17.948724 -22.368612 31.557743 -0.937867 2.358614 0.071066 -0.018757 306304.000000 0 0 1
14.416870 -17.443024 -21.990812 31.554731 -0.880097 2.341876 0.079406 -0.019377 -168613.000000 0 0 1
15.522370 -17.455724 -23.067812 32.829411 -0.843957 2.349921 0.056600 -0.011817 361916.000000 0 0 1
16.778170 -17.723924 -22.429412 33.146991 -0.812803 2.314020 0.067352 -0.013541 863964.000000 0 0 1
17.830970 -17.131524 -23.233912 33.930035 -0.765395 2.325070 0.054145 -0.006549 1460750.000000 0 0 1
19.234670 -17.518724 -22.589212 34.455054 -0.738744 2.285792 0.033275 -0.001913 760150.000000 0 0 1
19.538470 -18.845424 -22.719312 35.398714 -0.767344 2.267655 0.030091 -0.001264 -271472.000000 0 0 1
20.755570 -19.281624 -22.183112 35.981456 -0.748600 2.235105 0.026079 -0.004966 -204474.000000 0 0 1
20.873370 -20.812624 -22.062112 36.818470 -0.783941 2.213314 0.010315 -0.006949 -347831.000000 0 0 1
20.037570 -21.450624 -21.133212 36.169686 -0.819444 2.194789 0.013974 -0.012516 146106.000000 0 0 1
20.530470 -22.766624 -20.888312 37.096374 -0.836999 2.168907 0.020781 -0.008852 -118846.000000 0 0 1
-16.735263 13.384645 28.616888 35.751140 -0.674611 0.642756 0.019896 -0.012276 242452.000000 0 0 1
-18.098663 13.516845 28.258988 36.177854 -0.641477 0.674350 0.015617 -0.011838 106065.000000 0 0 1
-18.178863 13.724745 26.875738 35.229887 -0.646683 0.703060 0.027337 -0.003903 631703.000000 0 0 1
-19.456363 14.513745 26.435288 35.889041 -0.640913 0.742791 0.037136 -0.004933 575522.000000 0 0 1
-19.339663 15.849945 26.866668 36.702332 -0.686552 0.749521 0.042388 -0.003919 264714.000000 0 0 1
-20.286263 16.600045 26.103978 36.993400 -0.685794 0.787472 0.037546 -0.004260 -369029.000000 0 0 1
-20.302263 18.136245 26.469628 37.970337 -0.729107 0.799433 0.037319 0.001916 103293.000000 0 0 1
-19.138663 18.846245 26.143188 37.482471 -0.777700 0.798925 0.035964 -0.003469 533043.000000 0 0 1
-17.900363 18.657445 26.834718 37.264263 -0.806104 0.766822 0.043501 0.000512 629993.000000 0 0 1
-16.766663 19.565945 26.281718 36.805922 -0.862292 0.775513 0.042193 0.000339 73083.700000 0 0 1
-16.884163 20.978445 26.443808 37.741821 -0.893115 0.794488 0.052750 -0.000557 21638.500000 0 0 1
-15.798663 21.580945 25.761508 37.134758 -0.938873 0.804141 0.061704 -0.006186 228626.000000 0 0 1
-15.942863 23.097245 25.586138 37.977731 -0.966644 0.831573 0.056793 -0.003146 12966.100000 0 0 1
-15.464963 23.809545 26.716768 38.985192 -0.994753 0.815773 0.055258 0.001207 134451.000000 0 0 1
-15.679363 25.173645 26.463428 39.747551 -1.013746 0.842247 0.054219 0.002511 -209202.000000 0 0 1
-15.097163 25.981945 27.594408 40.797514 -1.044417 0.827967 0.048669 0.003591 -189169.000000 0 0 1
-13.688963 25.965745 27.546098 40.254132 -1.085632 0.817146 0.043665 0.000754 -410139.000000 0 0 1
-13.180763 26.719345 28.624738 41.316238 -1.112520 0.805403 0.067647 0.002446 -286238.000000 0 0 1
-11.653263 26.701745 28.617368 40.837917 -1.159290 0.794341 0.066374 0.002358 -216258.000000 0 0 1
-11.028263 27.515845 27.642988 40.532445 -1.189603 0.820307 0.048142 0.011172 -123310.000000 0 0 1
-9.628263 27.338545 27.669268 40.071035 -1.232175 0.808609 0.032645 0.007103 -109697.000000 0 0 1
-8.939663 27.892945 26.405088 39.435550 -1.260641 0.837159 0.034920 0.005865 -99397.300000 0 0 1
-7.530263 27.780645 26.516318 39.135460 -1.306095 0.826367 0.027533 -0.006641 342390.000000 0 0 1
-7.012263 28.146345 25.211688 38.431989 -1.326631 0.855279 0.042956 -0.009171 -56845.700000 0 0 1
-5.477963 28.059145 25.072258 38.025541 -1.377992 0.850838 0.042624 -0.014320 -751931.000000 0 0 1
-4.874963 28.900245 25.977528 39.164032 -1.403687 0.845576 0.059120 -0.010482 1178020.000000 0 0 1
-3.419063 28.911645 25.990228 39.026467 -1.453084 0.842011 0.055354 -0.009237 1628540.000000 0 0 1
-2.692963 29.655045 24.878888 38.802484 -1.480235 0.874778 0.054469 -0.014141 -589926.000000 0 0 1
-2.957363 29.116845 23.579248 37.583475 -1.469575 0.892608 0.056060 -0.010745 -166169.000000 0 0 1
-2.551363 30.013645 22.596278 37.655280 -1.485993 0.927192 0.049755 -0.015773 -619521.000000 0 0 1
-2.933363 29.685245 21.100078 36.538085 -1.472301 0.955156 0.047317 -0.010585 484529.000000 0 0 1
-4.327663 29.727545 20.810778 36.545096 -1.426234 0.964954 0.042418 -0.002935 350605.000000 0 0 1
-5.000563 28.567745 21.328778 36.000534 -1.397510 0.936691 0.044215 -0.004307 871488.000000 0 0 1
-6.557963 28.565345 20.985978 36.047151 -1.345129 0.949387 0.026778 -0.007280 1201020.000000 0 0 1
-6.791163 28.518345 19.562978 35.243808 -1.337017 0.982342 0.023630 -0.011644 353368.000000 0 0 1
-7.630163 27.437445 19.115878 34.299410 -1.299557 0.979637 0.005772 -0.010059 -424086.000000 0 0 1
-6.935663 25.997445 19.109078 33.001930 -1.310086 0.953259 -0.002197 -0.007669 569452.000000 0 0 1
-5.904863 25.871845 18.132578 32.140475 -1.346405 0.971373 0.004238 -0.008909 217758.000000 0 0 1
-4.669263 26.478845 18.445578 32.606297 -1.396251 0.969507 0.022503 -0.012178 -992785.000000 0 0 1
-3.894063 26.760745 17.183678 32.040287 -1.426297 1.004732 0.021588 -0.009630 -364107.000000 0 0 1
-3.103063 25.727745 16.636778 30.794938 -1.450765 1.000069 0.020394 -0.012030 16775.300000 0 0 1
-2.425663 26.247545 15.493178 30.575415 -1.478643 1.039420 0.030786 -0.016701 -5479.710000 0 0 1
-1.769863 25.071245 14.725978 29.129953 -1.500320 1.040804 0.035300 -0.012999 -1848.930000 0 0 1
-0.713063 24.492745 15.467778 28.976804 -1.541691 1.007710 0.021210 -0.010537 -234543.000000 0 0 1
-0.162263 23.372345 14.883278 27.709291 -1.563854 1.003775 0.010803 -0.013152 414744.000000 0 0 1
1.196537 22.985545 15.593878 27.801727 1.518787 0.975329 0.007162 -0.009814 557635.000000 0 0 1
2.232037 23.896345 15.283478 28.453506 1.477662 1.003755 0.020929 -0.013426 -1534250.000000 0 0 1
3.377137 23.270345 15.661378 28.252305 1.426676 0.983227 0.033132 -0.013755 -553434.000000 0 0 1
4.667337 24.194445 15.592478 29.159571 1.380228 1.006609 0.042736 -0.012032 361147.000000 0 0 1
5.860137 23.497045 15.669778 28.844311 1.326383 0.996489 0.041219 -0.011076 -1294480.000000 0 0 1
6.918837 24.378645 15.838878 29.884088 1.294261 1.012183 0.046368 -0.014840 -245427.000000 0 0 1
8.308537 23.670345 15.883078 29.691567 1.233222 1.006365 0.050463 -0.013801 269953.000000 0 0 1
8.651337 23.183445 14.595978 28.729085 1.213632 1.037870 0.042707 -0.011668 167294.000000 0 0 1
9.641337 24.032745 13.987678 29.430993 1.189277 1.075525 0.040623 -0.012076 -55073.700000 0 0 1
10.167937 23.309145 12.780078 28.461089 1.159460 1.105109 0.036995 -0.010484 -96612.400000 0 0 1
11.118737 22.302845 13.083678 28.146507 1.108322 1.087340 0.037091 -0.015251 125645.000000 0 0 1
11.756137 21.864845 11.885778 27.523625 1.077466 1.124265 0.057234 -0.015199 320845.000000 0 0 1
12.899537 20.837945 12.084078 27.324768 1.016494 1.112703 0.022037 -0.014295 -142003.000000 0 0 1
12.428937 19.559445 12.552278 26.355456 1.004722 1.074390 0.028606 -0.007728 331503.000000 0 0 1
13.500637 18.632645 12.735778 26.299101 0.943771 1.065272 0.024879 -0.011874 -105443.000000 0 0 1
14.195937 18.806445 14.050478 27.433974 0.924202 1.033103 0.029965 -0.005918 -497743.000000 0 0 1
15.180437 17.830845 14.356978 27.468300 0.865514 1.020811 0.027517 -0.001527 181596.000000 0 0 1
15.595337 18.062045 15.685778 28.556884 0.858556 0.989292 0.031123 0.002481 16309.600000 0 0 1
16.465237 16.844545 16.093778 28.528099 0.796785 0.971408 0.021384 0.001527 9162.060000 0 0 1
17.065937 16.937945 17.363278 29.658449 0.781634 0.945372 0.037472 -0.000193 305545.000000 0 0 1
18.105337 15.985945 17.489978 29.820345 0.723310 0.944051 0.036382 -0.000169 248603.000000 0 0 1
18.707337 15.773345 18.910278 30.925095 0.700512 0.912858 0.042052 -0.002499 278113.000000 0 0 1
19.368237 16.964545 19.454178 32.270566 0.719337 0.923733 0.035553 0.009840 730912.000000 0 0 1
18.476837 17.899045 20.047578 32.614026 0.769516 0.908801 0.034780 0.017006 -118680.000000 0 0 1
19.110637 18.982945 20.957778 34.129124 0.782046 0.909585 0.019784 0.014442 -169096.000000 0 0 1
18.136937 19.885145 21.435478 34.407081 0.831345 0.898229 0.031437 -0.002745 398305.000000 0 0 1
18.785437 20.979545 22.110178 35.803546 0.840519 0.905183 0.023395 0.003860 -107283.000000 0 0 1
17.806037 21.988945 22.665578 36.253236 0.890125 0.895407 0.040878 -0.011581 -363375.000000 0 0 1
17.094837 21.514345 23.767668 36.331839 0.899370 0.857695 0.040980 -0.017233 -351188.000000 0 0 1
16.275437 22.549145 24.261408 36.904874 0.945604 0.853428 0.042704 -0.029410 -60697.800000 0 0 1
15.683537 22.150645 25.640708 37.337251 0.954695 0.813812 0.048325 -0.026124 414400.000000 0 0 1
14.722937 21.096245 25.404858 36.155542 0.961485 0.791675 0.043050 -0.020648 -213876.000000 0 0 1
13.828937 21.086145 26.475498 36.562508 0.990333 0.761045 0.042630 -0.020441 -234982.000000 0 0 1
12.820137 19.891645 26.471468 35.507352 0.998298 0.729480 0.054724 -0.014098 126246.000000 0 0 1
13.324937 18.522145 26.565108 35.018977 0.947165 0.709647 0.047476 -0.009760 -43022.000000 0 0 1
13.976237 18.006745 25.386148 34.117951 0.910758 0.731654 0.051368 -0.017477 208626.000000 0 0 1
13.135737 17.791045 24.035028 32.661161 0.934803 0.743816 0.067461 -0.016222 -87683.800000 0 0 1
12.995037 18.912845 23.119378 32.574105 0.968780 0.781657 0.069445 -0.016172 -81084.100000 0 0 1
14.077537 19.355745 22.305278 32.716163 0.941979 0.820601 0.062835 -0.015223 145181.000000 0 0 1
14.581637 18.418745 21.181578 31.631212 0.901153 0.837070 0.056535 -0.006473 -32992.900000 0 0 1
13.677537 18.176445 20.123878 30.371510 0.925705 0.846524 0.066091 -0.005822 100540.000000 0 0 1
14.246337 17.187445 19.265078 29.487449 0.878692 0.858820 0.053659 -0.003779 170967.000000 0 0 1
13.182637 16.384745 18.483778 27.998069 0.893276 0.849737 0.051230 0.001504 134272.000000 0 0 1
12.487837 17.126645 17.499078 27.486102 0.940775 0.880648 0.049917 -0.000114 26911.000000 0 0 1
11.496837 16.388245 16.827478 26.151785 0.959045 0.871794 0.048001 -0.005515 66911.500000 0 0 1
11.141837 16.990445 15.433478 25.514858 0.990375 0.921179 0.037876 -0.005303 252224.000000 0 0 1
10.235537 18.099445 15.507078 25.938882 1.056118 0.930003 0.046328 -0.007389 249851.000000 0 0 1
9.815637 18.431845 14.230178 25.270093 1.081459 0.972636 0.039504 -0.007442 356183.000000 0 0 1
8.694937 19.540945 14.302578 25.729637 1.152142 0.981376 0.048613 -0.007885 791013.000000 0 0 1
7.461437 19.276145 14.955478 25.512921 1.201476 0.944445 0.027902 -0.005992 588842.000000 0 0 1
6.656337 20.488745 14.973978 26.235768 1.256675 0.963381 0.035874 -0.009234 1376140.000000 0 0 1
5.262137 20.312045 15.719078 26.217526 1.317304 0.927840 0.031479 -0.013919 410302.000000 0 0 1
4.423837 19.454345 15.072178 25.004248 1.347203 0.923810 0.019250 -0.015663 -1468590.000000 0 0 1
3.268337 19.223545 15.806778 25.101413 1.402389 0.889608 0.009040 -0.012645 -464619.000000 0 0 1
2.122937 18.665045 14.949878 24.008116 1.457544 0.898606 0.000342 -0.011153 -274108.000000 0 1 0
1.456437 19.710245 14.243778 24.361859 1.497038 0.946317 0.000113 -0.011309 20923.000000 0 1 0
0.482537 19.085745 13.411078 23.331427 1.545519 0.958428 0.000653 -0.013419 480072.000000 0 1 0
-0.391163 20.092445 12.577378 23.707589 -1.551331 1.011581 0.007150 -0.016095 234464.000000 0 1 0
-1.469863 20.711845 13.227578 24.619298 -1.499948 1.003582 0.020143 -0.011168 -473854.000000 0 1 0
-2.433763 21.073845 12.248578 24.496077 -1.455818 1.047172 0.025015 -0.007932 294506.000000 0 1 0
-3.650163 21.644245 13.027578 25.524788 -1.403725 1.035159 0.027550 -0.014482 453990.000000 0 0 1
-4.346163 20.687045 13.885578 25.291347 -1.363717 0.989599 0.032263 -0.018203 555901.000000 0 0 1
-5.632663 21.152445 14.271078 26.130757 -1.310547 0.993046 0.029649 -0.021776 218286.000000 0 0 1
-6.285463 20.399045 15.461578 26.356943 -1.271902 0.943914 0.018858 -0.017032 -589855.000000 0 0 1
-7.128263 19.341445 15.088178 25.545190 -1.217694 0.938936 0.029482 -0.014847 -89395.600000 0 0 1
-7.794163 18.707845 16.167178 25.925086 -1.176040 0.897442 0.026640 -0.002260 189466.000000 0 0 1
-9.078263 19.381545 16.710678 27.153377 -1.132749 0.907880 0.019964 0.001871 -26680.400000 0 0 1
-10.180763 19.355045 15.817578 26.990025 -1.086565 0.944618 0.019630 -0.009138 -285784.000000 0 0 1
-11.369363 19.406045 16.569678 27.935841 -1.040833 0.935851 0.012668 0.001595 845006.000000 0 0 1
-12.688063 19.304845 15.683778 27.922121 -0.989343 0.974361 0.013539 -0.004418 730826.000000 0 0 1
-13.104763 20.502445 15.041978 28.606750 -1.002065 1.017118 0.004720 -0.000660 374568.000000 0 0 1
-14.132563 20.219345 14.079478 28.403925 -0.960767 1.052170 0.012430 -0.011939 254617.000000 0 0 1
-15.048363 21.456345 13.866678 29.649835 -0.959166 1.084130 0.002168 -0.018168 -628562.000000 0 0 1
-16.087763 21.552945 14.757378 30.677773 -0.929584 1.068950 0.005929 -0.017682 -684628.000000 0 0 1
-16.957963 22.658945 14.672678 31.879268 -0.928320 1.092511 0.027439 -0.021783 172996.000000 0 0 1
-18.257863 22.437845 15.475978 32.807199 -0.887752 1.079550 0.072502 -0.031623 -630735.000000 0 0 1
-18.947663 21.295545 14.914578 32.170775 -0.843674 1.088735 0.064228 -0.029256 970377.000000 0 0 1
-20.132863 20.941545 15.674978 33.008868 -0.805084 1.075978 0.071293 -0.023515 1906010.000000 0 0 1
-21.348863 21.956045 15.761078 34.442030 -0.799418 1.095489 0.074606 -0.025114 138567.000000 0 0 1
-22.079963 22.158645 14.539878 34.495483 -0.787177 1.135696 0.080538 -0.025623 528867.000000 0 0 1
-22.965363 23.268745 14.592178 35.801872 -0.791960 1.150992 0.085858 -0.032957 -54923.200000 0 0 1
-22.449763 24.561545 13.866178 36.049025 -0.830289 1.175970 0.081418 -0.030437 -745057.000000 0 0 1
-21.324863 24.957445 14.567578 35.914317 -0.863725 1.153139 0.068018 -0.040083 -612574.000000 0 0 1
-20.961763 26.279945 14.160178 36.476590 -0.897500 1.172120 0.050517 -0.027978 -514199.000000 0 0 1
-19.485263 26.633845 14.346078 35.983984 -0.939177 1.160720 0.051218 -0.026622 -380678.000000 0 0 1
-18.650963 26.173845 13.312878 34.787372 -0.951677 1.178087 0.042874 -0.025480 -517346.000000 0 0 1
-17.305363 26.329245 13.669278 34.344634 -0.989329 1.161457 0.009261 -0.019747 69030.600000 0 0 1
-16.269463 26.089745 12.513778 33.195856 -1.013207 1.184276 0.006953 -0.026186 282274.000000 0 0 1
-14.929663 26.379245 12.786178 32.897503 -1.055781 1.171612 0.002313 -0.024827 -424390.000000 0 0 1
-14.025863 25.915545 11.827078 31.752481 -1.074723 1.189119 0.000362 -0.023114 673728.000000 0 0 1
-12.556663 26.394645 12.088978 31.630530 -1.126754 1.178628 0.010992 -0.020817 650603.000000 0 0 1
-11.502563 25.739945 11.387378 30.406020 -1.150543 1.186927 0.015018 -0.017052 1442260.000000 0 0 1
-10.194163 26.144845 11.872078 30.469987 -1.199017 1.170564 0.031606 -0.015650 1289320.000000 0 0 1
-9.568363 27.304845 11.003578 30.954593 -1.233741 1.207374 0.029369 -0.019851 -247760.000000 0 0 1
-8.426563 27.879445 11.596678 31.348897 -1.277277 1.191870 0.039245 -0.025580 -4565.650000 0 0 1
-8.025463 29.076145 10.964478 32.094392 -1.301486 1.222143 0.041793 -0.028842 -5109.850000 0 0 1
-6.769163 29.677045 11.644578 32.590562 -1.346539 1.205422 0.036642 -0.025287 -39983.700000 0 0 1
-5.587063 28.983745 11.412278 31.646687 -1.380367 1.201869 0.058880 -0.028598 -106426.000000 0 0 1
-4.445463 29.529645 12.099778 32.220594 -1.421376 1.185828 0.049444 -0.029540 991298.000000 0 0 1
-3.145863 29.290645 11.279278 31.544578 -1.463805 1.205136 0.052964 -0.035271 120805.000000 0 0 1
-3.205363 30.099045 10.114578 31.914441 -1.464702 1.248308 0.065948 -0.042559 613146.000000 0 0 1
-2.095963 29.711845 9.286278 31.199707 -1.500370 1.268577 0.064464 -0.038236 601988.000000 0 0 1
-1.913863 30.571845 8.030278 31.666795 -1.508276 1.314410 0.064951 -0.039508 198530.000000 0 0 1
-2.950163 30.419345 7.059278 31.366756 -1.474116 1.343796 0.069543 -0.037318 292035.000000 0 0 1
-2.739663 31.165745 5.853078 31.828728 -1.483115 1.385851 0.070356 -0.030465 37671.200000 0 0 1
10.778437 34.252345 -26.493202 44.623846 1.265929 2.206446 0.093619 -0.039122 8301.690000 0 0 1
11.259837 -33.774724 -25.358572 43.710103 -1.249003 2.189714 0.071927 -0.033145 -653387.000000 0 0 1
12.625037 -33.530824 -25.408202 43.923621 -1.210693 2.187640 0.068353 -0.028979 -737867.000000 0 0 1
13.247837 -33.363324 -24.014512 43.189274 -1.192812 2.160397 0.050382 -0.017373 -524882.000000 0 0 1
12.836437 -32.202724 -23.280112 41.758271 -1.191486 2.162164 0.055321 -0.016416 187288.000000 0 0 1
13.277037 -32.086524 -21.921712 41.065633 -1.178460 2.133910 0.034250 -0.005724 708777.000000 0 0 1
14.816737 -31.866224 -21.719712 41.312684 -1.135566 2.124381 0.008769 0.007798 1430150.000000 0 0 1
15.685737 -33.000824 -22.034512 42.668683 -1.127092 2.113449 0.020553 0.004291 108139.000000 0 0 1
17.041737 -32.800324 -21.826312 42.926332 -1.091623 2.104191 0.014360 0.003817 -306532.000000 0 0 1
18.020537 -33.981624 -22.067512 44.344849 -1.083202 2.091665 0.006064 0.008812 -425405.000000 0 0 1
19.365437 -33.688324 -21.876312 44.592560 -1.049081 2.083554 0.012786 0.014844 -194507.000000 0 0 1
20.154537 33.873145 -21.700612 44.994576 1.034061 2.074068 0.022817 0.011902 1067030.000000 0 0 1
21.718737 34.015245 -21.600112 45.774505 1.002548 2.062219 0.042515 0.014595 1231980.000000 0 0 1
22.380637 -34.347124 -22.825612 46.921492 -0.993296 2.078834 0.032287 0.013110 997278.000000 0 0 1
23.806237 34.206645 -22.705012 47.458920 0.962791 2.069644 0.032624 0.008454 1248250.000000 0 0 1
24.663837 -33.977424 -23.917712 48.320050 -0.942906 2.088614 0.035691 -0.003561 174515.000000 0 0 1
24.594537 -32.585824 -24.059712 47.387730 -0.924255 2.103333 0.034222 -0.004486 5319.880000 0 0 1
23.374037 -32.014224 -24.493612 46.596065 -0.940144 2.124285 0.022329 -0.001548 -30405.600000 0 0 1
23.230137 -30.511724 -24.189412 45.340184 -0.920070 2.133541 0.012465 -0.005700 -445260.000000 0 0 1
24.098737 -29.674524 -24.968512 45.659097 -0.888720 2.149389 0.008928 -0.006115 153434.000000 0 0 1
24.038237 -28.290424 -24.548512 44.506341 -0.866479 2.155046 0.012589 -0.001553 146290.000000 0 0 1
24.690937 -27.320024 -25.531392 44.809353 -0.835904 2.177032 0.004140 0.000798 89745.700000 0 0 1
23.991037 -27.250324 -26.738952 45.090150 -0.848919 2.205589 -0.001942 -0.003086 -651361.000000 0 0 1
24.762037 -26.611624 -27.712872 45.709303 -0.821385 2.222177 -0.005758 -0.000543 -725515.000000 0 0 1
24.016337 -26.106924 -29.018792 45.830626 -0.827083 2.256444 -0.009447 0.001316 424092.000000 0 0 1
23.291637 -24.901424 -28.856182 44.668340 -0.818789 2.273142 -0.000865 -0.000311 -555795.000000 0 0 1
22.022837 -25.080924 -28.295332 43.757102 -0.850230 2.273975 -0.008499 0.001401 -703097.000000 0 0 1
21.285137 -23.732124 -27.980732 42.416886 -0.839701 2.291163 -0.003660 0.002377 -236024.000000 0 0 1
20.746337 -23.067224 -29.062362 42.510331 -0.838321 2.323554 0.011308 0.002371 -46496.300000 0 0 1
20.313737 -21.743424 -28.764532 41.386263 -0.819379 2.339253 0.012192 0.013046 -373499.000000 0 0 1
19.250037 -21.154424 -29.715662 41.244323 -0.832496 2.375289 0.028965 0.002438 -803795.000000 0 0 1
18.060137 -21.818524 -29.645482 41.000868 -0.879366 2.378997 0.032212 -0.003198 -784092.000000 0 0 1
16.954237 -21.235424 -30.317252 40.712716 -0.897035 2.410826 0.026658 -0.007881 92864.300000 0 0 1
15.770037 -22.203824 -30.290962 40.733847 -0.953231 2.409282 0.038156 -0.014878 -513349.000000 0 0 1
16.093337 -23.369924 -31.016392 42.037667 -0.967739 2.400637 0.033940 -0.009084 110533.000000 0 0 1
15.125137 -24.363424 -30.736512 42.036644 -1.015213 2.390852 0.043758 -0.013761 -113761.000000 0 0 1
15.321637 -25.756324 -31.324022 43.351300 -1.034158 2.378298 0.056947 -0.014759 -431528.000000 0 0 1
14.457537 -26.722024 -30.811142 43.271393 -1.074862 2.363202 0.063145 -0.016725 -331876.000000 0 0 1
14.649437 -28.037224 -31.250422 44.466626 -1.089312 2.350099 0.095176 -0.023148 330570.000000 0 0 1
13.775637 -29.026224 -30.400952 44.232429 -1.127680 2.328562 0.095051 -0.029713 22227.800000 0 0 1
14.184137 -29.272724 -29.042172 43.606535 -1.119584 2.299637 0.101042 -0.031466 -221562.000000 0 0 1
14.368237 -28.234224 -28.106742 42.350993 -1.100059 2.296500 0.074251 -0.025565 1447.530000 0 0 1
15.507137 -28.435724 -27.079462 42.217994 -1.071538 2.267144 0.044218 -0.010789 -259646.000000 0 0 1
15.271837 -29.360724 -26.036702 42.109275 -1.091163 2.237390 0.055223 -0.020783 61786.300000 0 0 1
16.057437 -29.225224 -24.824612 41.571822 -1.068385 2.210740 0.065133 -0.018267 -891697.000000 0 0 1
15.701737 -28.013724 -23.973012 40.075162 -1.059926 2.212051 0.067831 -0.020475 1080330.000000 0 0 1
14.520037 -28.049124 -23.136912 39.152287 -1.093117 2.203028 0.047988 -0.019160 1303380.000000 0 0 1
13.307937 -28.209924 -23.898612 39.294334 -1.130006 2.224581 0.061508 -0.013850 660370.000000 0 0 1
11.936737 -28.328424 -23.122312 38.465915 -1.172005 2.215688 0.054305 -0.010777 1064720.000000 0 0 1
11.569637 -27.085724 -22.561712 37.101534 -1.167107 2.224471 0.041752 -0.012306 315067.000000 0 0 1
10.248637 -26.916124 -22.048412 36.271818 -1.206984 2.224167 0.045815 -0.014246 202057.000000 0 0 1
9.918037 -25.459324 -21.624512 34.844859 -1.199319 2.240296 0.059074 -0.015675 9054.800000 0 0 1
10.542137 -24.939524 -20.443312 33.927062 -1.170869 2.217509 0.039901 -0.009933 173969.000000 0 0 1
10.177337 -23.539224 -20.356112 32.742092 -1.162711 2.241721 0.043886 -0.016946 -291543.000000 0 0 1
10.703537 -22.826824 -19.093412 31.625749 -1.132335 2.218968 0.025687 -0.016866 -149084.000000 0 0 1
9.880037 -22.942324 -17.961312 30.766445 -1.164153 2.194192 0.020558 -0.017010 -52070.100000 0 0 1
10.327037 -22.181924 -16.857012 29.712697 -1.135078 2.174061 0.016989 -0.017067 -415091.000000 0 0 1
9.464637 -22.330224 -15.602812 28.838621 -1.169901 2.142468 0.003149 -0.013019 -33906.000000 0 0 1
9.769537 -23.583424 -15.062212 29.639366 -1.178062 2.103870 0.005336 -0.008345 210283.000000 0 0 1
9.187137 -23.687324 -13.765412 28.896010 -1.200807 2.067327 0.005004 -0.008108 92972.200000 0 0 1
8.950037 -25.122324 -13.377912 29.836268 -1.228557 2.035746 0.007103 0.004238 104391.000000 0 0 1
10.189637 -25.706224 -13.021512 30.564660 -1.193408 2.010898 0.005082 -0.002682 1701.740000 0 0 1
10.203037 -27.123524 -13.191612 31.840323 -1.211001 1.997976 -0.000254 -0.016172 -193674.000000 0 0 1
11.351537 -28.021224 -12.568012 32.741432 -1.185897 1.964765 0.015296 -0.007996 2188380.000000 0 0 1
12.707437 -27.780224 -13.062212 33.224106 -1.141783 1.974856 0.026679 -0.008135 1428830.000000 0 0 1
12.884137 -28.034324 -14.464312 34.075514 -1.140001 2.009182 0.027228 -0.011149 -1206140.000000 0 0 1
14.198137 -27.554324 -15.082012 34.471655 -1.095001 2.023634 0.009564 -0.012235 -193288.000000 0 0 1
15.278237 -28.474624 -14.945512 35.603330 -1.078333 2.003998 0.060744 -0.015775 -181693.000000 0 0 1
16.445237 -27.846924 -15.423812 35.830029 -1.037348 2.015812 0.069538 -0.023563 24658.100000 0 0 1
17.723737 -28.606324 -15.012712 36.848802 -1.016108 1.990417 0.067280 -0.024591 137773.000000 0 0 1
17.873537 -29.701424 -15.916412 38.144071 -1.029074 2.001237 0.063050 -0.010405 -62960.700000 0 0 1
19.194537 -30.207024 -15.802912 39.123224 -1.004730 1.986602 0.080775 -0.002659 369306.000000 0 0 1
19.542837 -31.224424 -16.878712 40.518861 -1.011562 2.000459 0.066535 -0.001073 -3338.350000 0 0 1
19.042137 -32.533724 -16.718212 41.237663 -1.041252 1.988225 0.047204 0.008737 117587.000000 0 0 1
19.660737 -33.412224 -17.685212 42.610891 -1.038928 1.998783 0.040389 0.008619 373790.000000 0 0 1
19.563037 33.812045 -17.269412 42.710647 1.046274 1.987048 0.024488 0.013800 149961.000000 0 0 1
20.433337 33.352745 -16.238512 42.351105 1.021132 1.964299 0.053509 0.002739 134309.000000 0 0 1
20.243337 32.005445 -16.009512 41.115030 1.006824 1.970758 0.043016 -0.007909 -471387.000000 0 0 1
21.132437 31.364745 -14.945012 40.665471 0.977896 1.947128 0.049699 -0.006517 75981.100000 0 0 1
22.461537 31.039545 -15.393512 41.290849 0.944378 1.952828 0.049165 -0.001433 1041560.000000 0 0 1
23.395137 30.728545 -14.358012 41.203500 0.920072 1.926730 0.047413 -0.009755 392126.000000 0 0 1
23.033037 29.530945 -13.489212 39.806486 0.908393 1.916512 0.046022 -0.004731 -926961.000000 0 0 1
23.394137 28.349545 -14.192912 39.400775 0.880875 1.939299 0.043489 0.001528 169020.000000 0 0 1
23.243137 27.105245 -13.488612 38.169102 0.861956 1.931990 0.015578 0.006497 -221020.000000 0 0 1
21.844437 26.599345 -13.075012 36.819296 0.883238 1.933831 0.010830 0.003009 559411.000000 0 0 1
20.952237 26.320645 -14.220012 36.523709 0.898476 1.970707 0.013068 -0.008373 1701510.000000 0 0 1
19.577537 26.680545 -13.966212 35.919166 0.937760 1.970150 0.028192 -0.013591 869581.000000 0 0 1
19.054637 28.177445 -13.963712 36.769999 0.976197 1.960331 0.037771 -0.011878 -205925.000000 0 0 1
19.037137 28.805645 -15.251912 37.746504 0.986809 1.986749 0.039332 -0.015583 125458.000000 0 0 1
18.054337 28.301645 -16.139212 37.248038 1.002956 2.018937 0.023071 -0.007903 -439147.000000 0 0 1
18.090937 29.009445 -17.503812 38.408506 1.013188 2.043986 0.017932 -0.002330 -244126.000000 0 0 1
17.532337 30.277745 -17.580012 39.155862 1.045923 2.036414 0.022382 -0.007466 -103579.000000 0 0 1
17.727437 30.924545 -18.848312 40.321810 1.050280 2.057197 0.009038 0.002417 -127527.000000 0 0 1
16.548937 31.883145 -19.138612 40.702441 1.092025 2.060323 0.005150 0.003190 84659.100000 0 0 1
16.377137 32.978245 -18.203712 41.074936 1.109869 2.029943 0.030963 -0.006898 505272.000000 0 0 1
15.305237 33.823645 -18.665112 41.553287 1.145864 2.036649 0.021804 0.001619 502100.000000 0 0 1
15.127537 -33.643424 -17.751712 40.937094 -1.148239 2.019318 0.028347 0.007051 -573385.000000 0 0 1
14.064437 -32.804324 -18.030912 39.988072 -1.165764 2.038578 0.011746 0.012790 -665419.000000 0 0 1
14.041037 -31.719524 -17.131512 38.688082 -1.154061 2.029528 0.011784 0.008945 -630309.000000 0 0 1
13.082037 -30.635724 -17.561712 37.657682 -1.167217 2.055958 0.007343 0.003665 -700192.000000 0 0 1
11.805837 -31.205924 -17.507612 37.678960 -1.209118 2.054038 -0.000411 0.009414 -1002320.000000 0 0 1
10.782637 -30.266224 -17.679512 36.672534 -1.228556 2.073837 -0.011204 0.014468 -187191.000000 0 0 1
9.422937 -30.909624 -17.952812 36.966202 -1.274892 2.077908 0.007604 0.001375 -1192240.000000 0 0 1
8.789837 -31.680224 -16.955512 36.991719 -1.300149 2.046945 0.009607 0.005975 1214030.000000 0 0 1
7.623237 -32.476624 -17.357612 37.604941 -1.340240 2.050570 0.028865 0.000076 1512510.000000 0 0 1
6.428737 -31.769424 -18.048312 37.099415 -1.371136 2.078858 0.034934 0.001701 -924465.000000 0 0 1
6.476037 -31.297124 -19.418812 37.397050 -1.366755 2.116782 0.030774 -0.002091 -200917.000000 0 0 1
6.452737 -32.326924 -20.380212 38.755915 -1.373777 2.124523 0.044985 -0.013190 -1314230.000000 0 0 1
6.686837 -31.685024 -21.733512 39.000002 -1.362807 2.161890 0.047274 -0.010970 366372.000000 0 0 1
8.002837 -31.206224 -22.046312 39.037338 -1.319756 2.170926 0.046850 -0.019263 577222.000000 0 0 1
9.101637 -32.080724 -21.949512 39.922347 -1.294350 2.152927 0.045099 -0.021477 -611436.000000 0 0 1
9.221837 -33.245224 -22.940512 41.431321 -1.300211 2.157597 0.060022 -0.029704 -1072720.000000 0 0 1
8.233637 -34.205424 -22.785412 41.916332 -1.334579 2.145508 0.079433 -0.037119 -580559.000000 0 0 1
8.096137 33.527245 -23.775412 41.891453 1.333853 2.174321 0.084874 -0.051837 -401048.000000 0 0 1
6.905037 32.600945 -23.446512 40.746044 1.362076 2.183927 0.079520 -0.058444 -55918.500000 0 0 1
5.667037 33.236945 -23.606912 41.159399 1.401916 2.181627 0.078256 -0.056408 -260281.000000 0 0 1
5.076037 33.787145 -22.406512 40.858158 1.421676 2.151243 0.059874 -0.043435 -575640.000000 0 0 1
3.698237 34.348645 -22.698512 41.336773 1.463542 2.152098 0.061374 -0.034632 -1279930.000000 0 0 1
2.658137 33.505045 -23.058612 40.759702 1.491627 2.172103 0.063084 -0.034717 -620016.000000 0 0 1
1.592337 -34.320024 -23.347312 41.539097 -1.524433 2.167666 0.052766 -0.025204 -404573.000000 0 0 1
0.253937 33.738445 -22.952812 40.806601 1.563270 2.168176 0.040808 -0.025630 -276460.000000 0 0 1
0.086737 33.557345 -21.562112 39.887687 1.568212 2.141912 0.026278 -0.017187 -560029.000000 0 0 1
-1.184763 33.051645 -21.281712 39.328440 -1.534966 2.142574 0.019750 -0.005897 -292101.000000 0 0 1
-1.485063 33.244545 -19.794012 38.719608 -1.526155 2.107393 0.026702 -0.004665 54164.400000 0 0 1
-0.642963 32.498545 -18.921012 37.610816 -1.551015 2.097948 0.028744 -0.015540 -329179.000000 0 0 1
-1.292163 32.241645 -17.694812 36.800811 -1.530740 2.072394 0.006576 -0.008614 -100240.000000 0 0 1
-0.527163 31.364745 -16.663812 35.520526 -1.553990 2.059104 -0.014020 -0.007079 441516.000000 0 0 1
0.544637 32.030945 -16.016212 35.816157 1.553794 2.034405 -0.003785 -0.001599 -341443.000000 0 0 1
1.198337 31.153445 -15.133912 34.655568 1.532350 2.022718 0.019468 0.001688 305591.000000 0 0 1
2.157137 31.839845 -14.137012 34.903926 1.503150 1.987804 0.024580 -0.002006 -166326.000000 0 0 1
3.358337 32.342545 -14.649412 35.664042 1.467331 1.994085 0.026454 -0.009005 -278055.000000 0 0 1
4.150437 33.006245 -13.656412 35.960199 1.445706 1.960338 0.030540 -0.010653 100430.000000 0 0 1
5.433637 33.503045 -14.370712 36.857778 1.410013 1.971315 0.040775 -0.025062 80687.200000 0 0 1
6.395437 32.460445 -14.442312 36.099342 1.376265 1.982391 0.033357 -0.011659 50529.400000 0 0 1
7.458537 32.861845 -15.329012 37.020389 1.347611 1.997717 0.025752 0.005640 641879.000000 0 0 1
8.662437 31.896345 -15.381512 36.455528 1.305612 2.006364 0.017351 -0.001416 190398.000000 0 0 1
9.303137 31.634945 -14.151812 35.883030 1.284781 1.976197 0.012457 -0.001748 -275436.000000 0 0 1
10.050037 30.433845 -14.061512 34.999261 1.251845 1.984241 0.017235 -0.003545 -49603.700000 0 0 1
9.306137 29.084645 -13.959712 33.576693 1.261123 1.999570 0.030443 -0.010115 -113911.000000 0 0 1
8.806437 28.432645 -15.132312 33.390949 1.270437 2.041133 0.042236 -0.021856 187454.000000 0 0 1
8.244337 27.189645 -14.783412 32.028037 1.276392 2.050569 0.035668 -0.014896 -553258.000000 0 0 1
7.361837 26.405745 -15.706112 31.593385 1.298904 2.091088 0.040830 -0.012005 -206698.000000 0 0 1
8.163637 25.725845 -16.639912 31.707266 1.263515 2.123274 0.047783 -0.010591 -134560.000000 0 0 1
7.415537 24.892945 -17.474912 31.305294 1.281270 2.163023 0.039702 -0.004669 155359.000000 0 0 1
8.348737 23.886045 -18.227112 31.184486 1.234546 2.195051 0.044815 -0.000141 -40176.100000 0 0 1
7.747337 22.965845 -19.081712 30.847415 1.245443 2.237735 0.052917 -0.010069 -779734.000000 0 0 1
8.605137 21.936145 -19.499212 30.585325 1.196962 2.262091 0.049164 -0.005751 -353054.000000 0 0 1
8.049737 20.953145 -20.548212 30.431260 1.204004 2.312078 0.033749 -0.017741 5041.740000 0 0 1
7.103237 20.016445 -20.058212 29.213797 1.229790 2.327599 0.038442 -0.016250 -26635.900000 0 0 1
6.574737 19.292445 -21.117712 29.349333 1.242347 2.373921 0.030836 -0.008163 -91991.200000 0 0 1
24.982737 -13.035355 -9.779312 29.827715 -0.480915 1.904834 0.060170 -0.017155 -238306.000000 0 0 1
25.295937 -12.211855 -8.705412 29.407449 -0.449760 1.871327 0.076109 -0.026828 329631.000000 0 0 1
24.333237 -12.295255 -7.678312 28.323775 -0.467868 1.845322 0.057812 -0.016376 -500703.000000 0 0 1
24.711437 -11.566255 -6.335612 28.010237 -0.437765 1.798960 0.036032 -0.011915 -504341.000000 0 0 1
24.723237 -10.128955 -6.277512 27.445243 -0.388835 1.801568 0.038886 -0.015387 398476.000000 0 0 1
25.872637 -9.570655 -6.900212 28.435959 -0.354304 1.815901 0.033564 -0.017368 -472418.000000 0 0 1
26.120237 -8.110855 -6.442512 28.099088 -0.301080 1.802133 0.052434 -0.013755 -92147.000000 0 0 1
26.644537 -7.946355 -5.102212 28.268507 -0.289837 1.752282 0.060118 -0.022021 1027700.000000 0 0 1
28.035137 -8.196555 -4.911412 29.618819 -0.284440 1.737386 0.062417 -0.019428 310279.000000 0 0 1
28.578237 -7.953555 -3.474312 29.867131 -0.271439 1.687386 0.066027 -0.015732 -286559.000000 0 0 1
28.613637 -6.586955 -2.967112 29.511557 -0.226262 1.671507 0.063208 -0.015536 458605.000000 0 0 1
29.399237 -6.603855 -1.791012 30.184993 -0.220959 1.630166 0.084079 -0.011223 -259686.000000 0 0 1
29.887337 -5.209055 -1.299312 30.365695 -0.172556 1.613598 0.075772 -0.016724 -150586.000000 0 0 1
28.899637 -4.392555 -0.688512 29.239659 -0.150839 1.594346 0.073666 -0.020069 -251383.000000 0 0 1
29.433337 -3.189755 -0.131612 29.605966 -0.107951 1.575242 0.077673 -0.015698 -320197.000000 0 0 1
29.897437 -3.082355 1.348388 30.086140 -0.102735 1.525964 0.081102 -0.009390 -56200.000000 0 0 1
28.925937 -3.003855 2.426588 29.182552 -0.103476 1.487548 0.077089 -0.007878 874790.000000 0 0 1
29.539937 -2.820555 3.735088 29.908432 -0.095194 1.445585 0.069381 -0.009979 111857.000000 0 0 1
29.067237 -3.896755 4.750888 29.709593 -0.133265 1.410196 0.068501 -0.019797 -280845.000000 0 0 1
29.474937 -5.198555 4.449688 30.258827 -0.174577 1.423207 0.066213 -0.023313 152564.000000 0 0 1
29.073737 -6.180255 5.405088 30.210805 -0.209454 1.390915 0.062368 -0.024080 -525198.000000 0 0 1
29.867137 -7.458455 5.272288 31.232539 -0.244716 1.401177 0.049384 -0.019642 365505.000000 0 0 1
31.273537 -7.393055 5.505288 32.603675 -0.232138 1.401129 0.043948 -0.019845 609457.000000 0 0 1
31.995537 -8.592455 5.432288 33.571632 -0.262361 1.408270 0.044037 -0.016096 1176740.000000 0 0 1
33.566737 -8.420855 5.486288 35.039064 -0.245796 1.413573 0.067837 -0.013843 1157520.000000 0 0 1
34.094237 -7.705455 4.375888 35.226971 -0.222270 1.446255 0.067045 -0.008039 516882.000000 0 0 1
35.517737 -7.646155 4.484988 36.607219 -0.212041 1.447971 0.082644 -0.009560 792321.000000 0 0 1
-35.376495 -7.533655 3.154688 36.307085 0.209822 1.483798 0.074312 -0.004814 -14121.300000 0 0 1
-35.312795 -8.724555 2.379388 36.452337 0.242214 1.505476 0.094937 -0.007620 195976.000000 0 0 1
-34.271495 -8.481655 1.460388 35.335628 0.242610 1.529456 0.114137 -0.014990 -159481.000000 0 0 1
-33.949795 -9.727055 0.654688 35.321846 0.279038 1.552260 0.114716 -0.012196 -471544.000000 0 0 1
-33.337395 -10.676455 1.482888 35.036660 0.309934 1.528460 0.109463 -0.010963 296222.000000 0 0 1
-33.107295 -11.879655 0.804388 35.183323 0.344513 1.547932 0.107290 -0.023929 -487634.000000 0 0 1
-32.641595 -13.009455 1.772788 35.183269 0.379260 1.520388 0.087792 -0.031554 871378.000000 0 0 1
-31.299195 -12.884455 2.257988 33.922667 0.390513 1.504184 0.081574 -0.025661 1283450.000000 0 0 1
-30.353395 -13.637155 1.486888 33.309330 0.422255 1.526143 0.089039 -0.024216 1249430.000000 0 0 1
-28.941595 -14.045355 2.076088 32.236595 0.451819 1.506350 0.077884 -0.021624 1264640.000000 0 0 1
-28.007095 -12.988855 2.138688 30.946433 0.434246 1.501632 0.072016 -0.018971 -300800.000000 0 0 1
-26.788995 -13.331355 2.701488 30.044523 0.461760 1.480759 0.072885 -0.015568 -502569.000000 0 0 1
-25.917295 -12.088955 3.085888 28.764070 0.436444 1.463307 0.048824 -0.005327 36090.500000 0 0 1
-24.837595 -12.519255 3.895588 28.085824 0.466878 1.431645 0.034235 0.003843 32018.300000 0 0 1
-24.366795 -11.480655 4.688388 27.340942 0.440310 1.398466 0.032637 0.001959 706300.000000 0 0 1
-23.063395 -11.785155 5.533688 26.484557 0.472401 1.360305 0.026009 0.018116 855138.000000 0 0 1
-23.256495 -12.816955 6.472288 27.331839 0.503697 1.331721 0.027835 0.013719 543075.000000 0 0 1
-21.963895 -13.149555 6.976888 26.533007 0.539455 1.304716 0.023047 0.021435 404161.000000 0 0 1
-21.653095 -12.647555 8.411188 26.449296 0.528646 1.247165 0.033866 0.012501 -461559.000000 0 0 1
-21.148195 -11.334755 8.665788 25.511149 0.492006 1.224213 0.026677 0.010020 575719.000000 0 0 1
-22.109395 -10.304655 8.878288 25.958337 0.436142 1.221730 0.028021 0.009714 -517696.000000 0 0 1
-22.600295 -10.134155 10.339888 26.840040 0.421529 1.175327 0.029991 0.006056 -245720.000000 0 0 1
-23.126695 -11.356055 10.865888 27.961966 0.456451 1.171690 0.027118 -0.006063 1817580.000000 0 0 1
-24.539395 -11.605155 10.577088 29.133080 0.441749 1.199245 0.037653 -0.005382 1310620.000000 0 0 1
-25.475995 -11.211355 11.743588 30.209811 0.414570 1.171539 0.039934 -0.016631 -323928.000000 0 0 1
-25.363495 -12.092255 12.820088 30.885015 0.444882 1.142754 0.034835 -0.016018 -217203.000000 0 0 1
-26.505595 -11.992455 13.613588 32.120014 0.424889 1.133121 0.027275 -0.021983 -282472.000000 0 0 1
-26.537395 -12.945455 14.855588 33.053088 0.453856 1.104651 0.025389 -0.023570 -178160.000000 0 0 1
-26.832495 -14.295555 14.532888 33.697931 0.489519 1.124897 0.027371 -0.012170 275691.000000 0 0 1
-26.506195 -15.063855 15.670388 34.279136 0.516795 1.096019 -0.002176 -0.000112 -436111.000000 0 0 1
-26.549095 -16.564655 15.411888 34.882209 0.557826 1.113163 0.008456 -0.009254 -980279.000000 0 0 1
-27.776995 -17.205355 15.589488 36.202456 0.554570 1.125617 -0.005065 -0.003439 -520243.000000 0 0 1
-27.628295 -18.582655 15.626788 36.780895 0.592096 1.131987 -0.003039 0.000263 -246948.000000 0 0 1
-28.882895 -19.324955 16.111488 38.304772 0.589671 1.136675 -0.017543 0.011287 -215531.000000 0 0 1
-28.941495 -19.171455 17.515688 38.883855 0.585058 1.103514 -0.012980 0.017499 -136540.000000 0 0 1
-29.299195 -20.307155 18.249088 40.048128 0.606077 1.097662 -0.010015 0.023370 -702337.000000 0 0 1
-28.330195 -21.482055 18.199288 39.941116 0.648776 1.097691 -0.012532 0.024953 -234279.000000 0 0 1
-27.087995 -21.139555 18.789588 39.162340 0.662677 1.070384 -0.001014 0.029931 -34420.600000 0 0 1
-26.482795 -22.304655 19.291088 39.635617 0.699967 1.062476 0.012271 0.028370 -339152.000000 0 0 1
-25.093695 -22.108455 19.921688 38.927509 0.722239 1.033560 0.030596 0.026031 532998.000000 0 0 1
-24.021695 -21.928455 18.973288 37.654809 0.739875 1.042718 0.035740 0.016604 -116039.000000 0 0 1
-22.806695 -21.808655 19.633288 37.164886 0.763032 1.014228 0.038658 0.024424 -218338.000000 0 0 1
-21.631395 -21.472355 18.663788 35.739562 0.781708 1.021348 0.036969 0.006487 191402.000000 0 0 1
-21.344995 -22.431955 17.699288 35.666037 0.810223 1.051522 0.038104 -0.003141 318816.000000 0 0 1
-20.040695 -22.285755 17.158288 34.535361 0.838390 1.050851 0.031485 -0.000612 250589.000000 0 0 1
-19.800395 -23.345755 16.014988 34.547934 0.867385 1.088789 0.030146 0.002155 -496096.000000 0 0 1
-19.666295 -24.709755 16.396488 35.583423 0.898565 1.091911 0.041944 -0.000958 337735.000000 0 0 1
-18.614695 -25.137825 17.279088 35.734913 0.933400 1.066107 0.046826 -0.004366 238383.000000 0 0 1
-17.201095 -25.201995 16.666188 34.767514 0.971892 1.070870 0.033024 -0.002861 14880.800000 0 0 1
-16.661095 -23.931055 16.313388 33.412784 0.962617 1.060727 0.032836 -0.001721 -394205.000000 0 0 1
-15.326395 -24.014855 15.879588 32.615533 1.002758 1.062291 0.037037 -0.007975 -86626.900000 0 0 1
-14.666695 -22.575855 15.732888 31.181805 0.994658 1.041932 0.042954 -0.002040 71095.100000 0 0 1
-15.360095 -21.654755 14.868288 30.429047 0.953844 1.060287 0.031991 0.004116 21650.100000 0 0 1
-16.411095 -20.900555 15.443188 30.735148 0.905146 1.044354 0.030095 0.002916 -125281.000000 0 0 1
-16.150295 -19.769555 16.476888 30.383469 0.885819 0.997627 0.043002 -0.007000 -788647.000000 0 0 1
-15.538395 -18.657455 15.907488 29.027410 0.876358 0.990806 0.033345 -0.005293 -151388.000000 0 0 1
-15.338595 -17.585155 16.836688 28.774715 0.853528 0.945767 0.026354 -0.010103 -352960.000000 0 0 1
-14.589895 -16.352655 16.157588 27.227597 0.842305 0.935487 0.026060 -0.007203 197577.000000 0 0 1
-15.333995 -15.563055 15.260588 26.650059 0.792812 0.961088 0.010898 0.001611 -74309.400000 0 0 1
-15.526095 -16.242355 14.043588 26.497096 0.807941 1.012190 0.019707 -0.000209 148579.000000 0 0 1
-16.356295 -15.487655 12.928488 25.971940 0.758127 1.049751 0.012613 0.002442 -174732.000000 0 0 1
-17.737395 -15.696655 12.965888 27.002119 0.724436 1.069936 0.004099 -0.001308 -669115.000000 0 0 1
-18.326395 -14.792955 12.086888 26.472271 0.679112 1.096641 0.010224 -0.002355 -692552.000000 0 0 1
-19.832195 -14.968955 11.888088 27.544731 0.646554 1.124539 0.005806 -0.004357 -423196.000000 0 0 1
-20.266595 -16.203955 11.352188 28.322698 0.674460 1.158389 0.017021 -0.010986 10349.600000 0 0 1
-20.259295 -16.223455 9.949588 27.796292 0.675223 1.204728 0.020866 -0.004732 -506978.000000 0 0 1
-21.102395 -17.293255 9.266888 28.813937 0.686514 1.243366 0.012999 0.008086 -358753.000000 0 0 1
-20.544695 -18.529955 9.434588 29.231065 0.733882 1.242153 0.017182 0.015760 -774051.000000 0 0 1
-21.317295 -19.545055 8.940288 30.271521 0.742054 1.270989 0.021237 -0.007409 -791247.000000 0 0 1
-20.761095 -20.935355 9.004688 30.828503 0.789577 1.274385 0.027794 -0.005907 -173276.000000 0 0 1
-19.570895 -21.161555 8.267388 29.986348 0.824430 1.291473 0.040351 -0.005966 -209137.000000 0 0 1
-19.168095 -22.490355 8.259788 30.683156 0.864980 1.298238 0.032482 -0.017812 -1061260.000000 0 0 1
-17.890595 -22.679355 7.494988 29.842946 0.902892 1.316931 0.032751 -0.020744 -968698.000000 0 0 1
-16.799995 -22.126955 8.196888 28.966031 0.921398 1.283894 0.013612 -0.016015 -986941.000000 0 0 1
-15.589795 -22.367755 7.560588 28.293474 0.962103 1.300289 0.031333 -0.015029 -1727260.000000 0 0 1
-14.462395 -21.764855 8.288988 27.414907 0.984306 1.263636 -0.010100 -0.005837 -1553150.000000 0 0 1
-13.260995 -22.006555 7.634988 26.803647 1.028472 1.281948 0.011032 -0.006306 -217775.000000 0 0 1
-12.075595 -21.857455 8.441488 26.359573 1.066059 1.244810 0.011587 -0.002276 1022190.000000 0 0 1
-10.879295 -22.401655 7.615188 26.041972 1.118697 1.274040 0.010727 -0.000674 -15025.500000 0 0 1
-10.836695 -23.820655 7.609588 27.253686 1.143851 1.287822 0.013268 0.004082 -550789.000000 0 0 1
-9.703295 -24.296455 6.940588 27.067387 1.190832 1.311481 0.019917 0.001759 -130870.000000 0 0 1
-9.520995 -25.825095 6.971788 28.393498 1.217585 1.322718 0.004295 0.001017 -161794.000000 0 0 1
-10.318695 -26.540095 6.045188 29.110074 1.199985 1.361607 0.014252 -0.003137 -296075.000000 0 0 1
-10.327995 -27.957545 6.339588 30.471006 1.216929 1.361212 0.023874 -0.001014 -260402.000000 0 0 1
-9.136195 -28.847735 5.993088 30.847674 1.264086 1.375273 0.021797 -0.009277 -1189120.000000 0 0 1
-7.905495 -28.444755 6.478688 30.225393 1.299713 1.354774 0.011479 -0.002428 -327773.000000 0 0 1
-6.738295 -29.092055 5.962888 30.451738 1.343190 1.373709 0.009744 0.004673 950824.000000 0 0 1
-6.581295 -30.500425 6.593188 31.891371 1.358277 1.362556 0.011459 0.001854 -836771.000000 0 0 1
-6.524295 -30.518905 7.995388 32.216397 1.360188 1.319998 0.014637 0.001396 130190.000000 0 0 1
-6.699295 -31.855375 8.443788 33.629497 1.363514 1.316998 0.030906 -0.000146 -160843.000000 0 0 1
-6.950595 -31.889375 9.971188 34.127227 1.356193 1.274294 0.019734 0.003965 -574679.000000 0 0 1
-5.899295 -31.385315 10.730688 33.689574 1.385001 1.246632 0.017985 0.010866 -190104.000000 0 0 1
-6.082295 -31.670905 12.132088 34.456177 1.381060 1.210980 0.011323 0.006588 -81196.200000 0 0 1
-5.227295 -30.696995 13.016388 33.749911 1.402127 1.174861 0.018342 0.002194 239117.000000 0 0 1
-5.545295 -29.316045 12.951888 32.525870 1.383849 1.161240 0.022615 0.009593 438235.000000 0 0 1
-4.781295 -28.523455 13.919288 32.096649 1.404714 1.122237 0.020444 0.002539 292979.000000 0 0 1
-5.572295 -28.151075 15.197388 32.472975 1.375380 1.083769 0.019192 0.011661 -89989.300000 0 0 1
-6.027295 -29.221225 16.048088 33.878451 1.367385 1.077314 0.016184 0.001722 -158831.000000 0 0 1
-5.086295 -30.029745 16.746788 34.757890 1.403013 1.068074 0.010508 0.000330 -224359.000000 0 0 1
-5.516295 -31.452385 17.160888 36.251595 1.397177 1.077669 -0.001532 0.004634 -530110.000000 0 0 1
-5.428295 -32.387665 16.140688 36.591653 1.404736 1.113969 -0.006044 0.013107 -19088.400000 0 0 1
-6.152295 -33.548555 16.497388 37.888258 1.389427 1.120289 -0.004699 0.010304 -131265.000000 0 0 1
-5.799295 33.883559 15.776288 37.823520 -1.401285 1.140541 -0.001487 -0.003074 -257861.000000 0 0 1
-6.359295 33.729291 14.463488 37.246452 -1.384445 1.171990 0.003409 -0.004147 37717.300000 0 0 1
-5.812295 32.686929 13.661088 35.900466 -1.394819 1.180430 0.006838 -0.015947 -413577.000000 0 0 1
-4.549295 33.171636 12.935688 35.894088 -1.434502 1.202116 0.037528 -0.014843 -379820.000000 0 0 1
-4.836295 33.959546 11.816488 36.280434 -1.429334 1.239046 0.028096 -0.010672 62897.100000 0 0 1
-3.695295 34.304123 11.053788 36.230019 -1.463489 1.260753 0.041119 -0.017514 -748288.000000 0 0 1
-4.032295 -34.100784 9.551988 35.642157 1.453096 1.299483 0.028003 -0.015436 -811979.000000 0 0 1
-4.137295 33.497581 8.655288 34.844213 -1.447908 1.319769 0.035835 -0.024066 406648.000000 0 0 1
-5.030295 32.394833 8.871388 33.962194 -1.416746 1.306517 0.052945 -0.030801 1729710.000000 0 0 1
-6.569295 32.714633 9.194688 34.611344 -1.372626 1.301913 0.037391 -0.017224 1125890.000000 0 0 1
-7.314595 33.233785 8.141388 34.989570 -1.354155 1.335963 0.036544 -0.018336 -1080890.000000 0 0 1
-8.588595 33.490402 8.672888 35.645336 -1.319757 1.325019 0.024076 -0.014827 -91892.700000 0 0 1
-9.628895 33.736546 7.532888 35.883346 -1.292774 1.359296 0.033713 -0.024275 21933.200000 0 0 1
-9.413395 -33.745895 6.941188 35.715229 1.298762 1.375203 0.022769 -0.012128 69445.700000 0 0 1
-9.535295 -33.805505 5.552988 35.560789 1.295875 1.414000 0.021586 -0.009298 -860694.000000 0 0 1
-9.370595 -32.476175 4.834788 34.145061 1.289888 1.428723 0.018008 -0.008352 -181350.000000 0 0 1
-10.387995 -31.530965 4.938688 33.563416 1.252541 1.423115 0.037974 -0.017655 -530318.000000 0 0 1
-11.652395 -31.824985 4.387588 34.173951 1.219816 1.442051 0.040041 -0.015372 94018.200000 0 0 1
-12.715695 -30.822165 4.948188 33.707260 1.179518 1.423465 0.044902 -0.024483 174399.000000 0 0 1
-13.229995 -31.228995 6.256188 34.488010 1.170074 1.388385 0.032570 -0.004310 -438325.000000 0 0 1
-14.276995 -30.391815 6.591288 34.219002 1.131628 1.376964 0.033368 -0.007341 -491204.000000 0 0 1
33.115530 -12.628855 -12.838212 37.695437 -0.364333 1.918327 0.036652 -0.020347 -101229.000000 0 0 1
32.256410 -12.785755 -11.704412 36.618913 -0.377381 1.896133 0.053617 -0.027449 374637.000000 0 0 1
31.939940 -14.127055 -11.327212 36.715653 -0.416433 1.884424 0.058346 -0.028743 31067.000000 0 0 1
33.085820 -14.740355 -10.500512 37.712204 -0.419121 1.852964 0.052841 -0.030748 253691.000000 0 0 1
34.265430 -14.988355 -11.246912 39.054622 -0.412343 1.862912 0.055253 -0.034259 -25588.300000 0 0 1
35.214530 -15.686255 -10.439912 39.938872 -0.419062 1.835266 0.036979 -0.031474 -539037.000000 0 0 1
-35.075406 -15.490855 -11.011112 39.893550 0.415884 1.850439 0.019991 -0.031729 -873273.000000 0 0 1
-34.616952 -14.144655 -10.978212 38.973398 0.387902 1.856346 0.024855 -0.021315 -280676.000000 0 0 1
-33.237723 -14.120655 -11.210212 37.812802 0.401734 1.871787 0.029822 -0.018772 -395956.000000 0 0 1
-32.751143 -12.679055 -11.324612 36.900442 0.369365 1.882727 0.028509 -0.025048 -319018.000000 0 0 1
-32.849053 -11.919355 -10.194112 36.401253 0.348078 1.854641 0.041694 -0.022436 190690.000000 0 0 1
-32.374023 -10.635255 -10.448412 35.642044 0.317405 1.868315 0.039377 -0.017022 -248061.000000 0 0 1
-32.686613 -9.596755 -9.330312 35.320916 0.285574 1.838127 0.045210 -0.026916 281406.000000 0 0 1
-31.934693 -9.718655 -8.114312 34.352859 0.295424 1.809255 0.061462 -0.021494 683806.000000 0 0 1
-32.578043 -8.843055 -7.211212 34.518547 0.265056 1.781255 0.081219 -0.026904 -16952.500000 0 0 1
-32.022203 -8.884055 -5.728612 33.721876 0.270628 1.741502 0.082708 -0.017949 -1033700.000000 0 0 1
-30.792523 -8.194055 -5.705412 32.370878 0.260078 1.747973 0.090942 -0.033221 243584.000000 0 0 1
-29.970113 -8.364855 -4.553812 31.447030 0.272180 1.716116 0.103524 -0.029916 -79257.200000 0 0 1
-29.501963 -9.766055 -4.181512 31.356446 0.319677 1.704549 0.089419 -0.023366 -1116510.000000 0 0 1
-30.482413 -10.772555 -4.112912 32.590512 0.339703 1.697333 0.106564 -0.022769 -59858.200000 0 0 1
-30.574123 -11.353255 -2.801412 32.734100 0.355554 1.656482 0.095430 -0.026434 -131362.000000 0 0 1
-31.242653 -12.756655 -2.697412 33.854271 0.387649 1.650558 0.094231 -0.025689 728130.000000 0 0 1
-32.658753 -12.660755 -2.905012 35.147233 0.369830 1.653543 0.095377 -0.027067 962695.000000 0 0 1
-33.316803 -13.915655 -2.703512 36.207234 0.395652 1.645534 0.096323 -0.030466 737291.000000 0 0 1
-34.859616 -13.705855 -2.494212 37.540170 0.374607 1.637286 0.081815 -0.023825 577908.000000 0 0 1
-35.228155 -12.991555 -1.335412 37.571089 0.353309 1.606347 0.089441 -0.018273 118765.000000 0 0 1
35.039700 -12.940955 -1.295512 37.375490 -0.353784 1.605465 0.094115 -0.022821 -30652.200000 0 0 1
34.590200 -12.160955 -0.047212 36.665692 -0.338075 1.572084 0.086176 -0.020436 -234892.000000 0 0 1
34.911890 -12.676855 1.221788 37.162286 -0.348306 1.537913 0.094309 -0.014713 193502.000000 0 0 1
34.839860 -11.592855 2.158288 36.781358 -0.321223 1.512084 0.081059 -0.008011 -292374.000000 0 0 1
35.147940 -12.044255 3.576988 37.326085 -0.330133 1.474818 0.089061 -0.015553 -568733.000000 0 0 1
34.074930 -12.442755 4.351688 36.535738 -0.350115 1.451405 0.084525 -0.022341 -543995.000000 0 0 1
34.547910 -12.731455 5.610688 37.244165 -0.353074 1.419575 0.081254 -0.022567 -459085.000000 0 0 1
33.515140 -12.649055 6.754688 36.453930 -0.360885 1.384425 0.080664 -0.030200 -39151.600000 0 0 1
32.901000 -11.372355 6.992388 35.506334 -0.332798 1.372567 0.079409 -0.024119 218140.000000 0 0 1
32.578190 -11.288555 8.354288 35.476246 -0.333559 1.333074 0.054708 -0.008216 -552070.000000 0 0 1
31.782490 -10.050855 8.755588 34.464571 -0.306287 1.313935 0.044440 -0.026623 -1005060.000000 0 0 1
30.406240 -10.065655 8.528788 33.145091 -0.319684 1.310552 0.052455 -0.021167 -460917.000000 0 0 1
29.934740 -8.865055 9.090588 32.516406 -0.287917 1.287451 0.047708 -0.012371 -277547.000000 0 0 1
28.403980 -8.682755 8.998888 31.034759 -0.296667 1.276610 0.033701 -0.012446 88130.300000 0 0 1
27.729670 -8.364155 7.795588 29.994414 -0.292953 1.307876 0.051248 -0.016727 399963.000000 0 0 1
27.420440 -9.560355 6.989588 29.868633 -0.335479 1.334595 0.056984 -0.027144 -986132.000000 0 0 1
26.518870 -9.335555 5.809588 28.708089 -0.338486 1.367021 0.074653 -0.022112 -1157150.000000 0 0 1
25.204070 -9.109355 6.256288 27.520295 -0.346816 1.341458 0.075915 -0.019655 211120.000000 0 0 1
24.310670 -8.507555 5.340788 26.304205 -0.336632 1.366335 0.087101 -0.021019 -41753.100000 0 0 1
24.613570 -7.055555 4.870488 26.063966 -0.279167 1.382825 0.078574 -0.014936 -562112.000000 0 0 1
25.589670 -6.996255 3.836788 26.804845 -0.266880 1.427165 0.074266 -0.015093 524013.000000 0 0 1
26.040270 -5.705055 3.536188 26.891410 -0.215678 1.438916 0.076565 -0.016822 -432335.000000 0 0 1
26.699710 -5.621755 2.186488 27.372602 -0.207524 1.490832 0.062690 -0.026191 -843437.000000 0 0 1
25.783470 -5.852955 1.211088 26.467171 -0.223221 1.525022 0.073251 -0.029748 -399859.000000 0 0 1
26.360970 -5.590555 -0.045212 26.947302 -0.208981 1.572474 0.061505 -0.029030 -1460570.000000 0 0 1
25.542770 -6.111255 -1.202512 26.291188 -0.234841 1.616551 0.081577 -0.028288 -530669.000000 0 0 1
24.393970 -5.331655 -1.402712 25.009197 -0.215181 1.626914 0.076999 -0.024386 -200225.000000 0 0 1
23.886470 -5.337855 -2.708812 24.625065 -0.219856 1.681022 0.075427 -0.024425 316141.000000 0 1 0
22.733570 -4.277155 -2.861812 23.308780 -0.185969 1.693885 0.049503 -0.021025 273381.000000 0 1 0
23.098170 -2.890155 -2.795012 23.445480 -0.124478 1.690294 0.034319 -0.021973 251236.000000 0 1 0
23.716870 -2.397555 -3.964212 24.165123 -0.100748 1.735588 0.037683 -0.022010 -158695.000000 0 1 0
22.679270 -1.908255 -5.032712 23.309202 -0.083943 1.788421 0.041848 -0.012884 35971.900000 0 1 0
22.056570 -0.738855 -4.598112 22.542866 -0.033486 1.776210 0.019503 -0.003342 139987.000000 0 1 0
21.402970 -0.113655 -5.684412 22.145261 -0.005310 1.830390 0.036559 0.001754 -166246.000000 0 1 0
21.003270 1.372445 -5.317312 21.709324 0.065252 1.818246 0.028837 0.007745 -325476.000000 0 1 0
22.121570 2.225645 -5.098512 22.810352 0.100272 1.796218 0.028889 0.000183 385443.000000 0 1 0
22.507270 2.256345 -3.726812 22.925039 0.099916 1.734086 0.035755 -0.002170 168117.000000 0 1 0
23.717670 3.198045 -3.466012 24.181989 0.134030 1.714622 0.031956 -0.012935 26229.600000 0 1 0
23.424770 4.541945 -3.501512 24.116585 0.191518 1.716502 0.024489 -0.005704 1078700.000000 0 1 0
24.625970 5.290245 -3.250312 25.396646 0.211608 1.699130 0.033961 -0.011568 456162.000000 0 0 1
24.290770 6.749645 -3.034812 25.393095 0.271031 1.690596 0.030175 -0.006493 -369079.000000 0 0 1
23.547270 7.076345 -1.912912 24.661869 0.291931 1.648440 0.038858 -0.009215 273129.000000 0 1 0
22.885770 8.316445 -2.211512 24.450204 0.348553 1.661370 0.038508 -0.004320 -319645.000000 0 1 0
21.845770 8.724045 -1.151212 23.551473 0.379943 1.619697 0.039800 0.004777 -440812.000000 0 1 0
22.278370 9.455645 -0.058712 24.202033 0.401389 1.573222 0.034463 0.001391 1123700.000000 0 1 0
21.154270 9.841545 0.792288 23.344953 0.435445 1.536852 0.029830 0.002753 1067810.000000 0 1 0
21.658670 10.566245 2.105888 24.190458 0.453883 1.483632 0.048383 0.006036 -229575.000000 0 1 0
22.502070 11.647645 1.821088 25.403290 0.477648 1.499048 0.048414 -0.003224 167348.000000 0 0 1
21.903070 12.827645 1.296788 25.416030 0.529805 1.519752 0.046305 -0.000210 -381783.000000 0 0 1
20.882370 13.578445 2.193388 25.005169 0.576540 1.482966 0.033346 0.003327 1400970.000000 0 0 1
19.527970 13.012745 2.113288 23.561390 0.587793 1.480983 0.074046 0.001855 1447530.000000 0 1 0
18.606170 13.648345 2.944888 23.262399 0.632882 1.443861 0.064164 -0.008836 -464991.000000 0 1 0
18.618270 13.516145 4.517488 23.446403 0.627938 1.376911 0.044099 -0.004338 -551409.000000 0 1 0
18.260070 12.289245 4.961388 22.562603 0.592383 1.349090 0.051308 -0.005085 161619.000000 0 1 0
18.139170 12.312245 6.376888 22.831678 0.596332 1.287731 0.027726 -0.017024 -21565.600000 0 1 0
18.087870 10.904045 7.034288 22.260962 0.542503 1.249294 0.011408 -0.023577 -138077.000000 0 1 0
19.165070 10.137145 6.547488 22.647984 0.486530 1.277512 0.005535 -0.022309 395405.000000 0 1 0
19.229770 8.949945 7.289888 22.428286 0.435604 1.239752 0.015405 -0.017413 152028.000000 0 1 0
20.260970 7.951145 6.661388 22.761847 0.373969 1.273793 0.031544 -0.016901 247980.000000 0 1 0
19.878270 7.436245 5.401688 21.900264 0.357972 1.321575 0.023513 -0.023161 656487.000000 0 1 0
20.999870 6.899545 4.719388 22.602453 0.317441 1.360449 0.038493 -0.023263 76097.500000 0 1 0
20.633570 6.573045 3.247688 21.897411 0.308397 1.421933 0.038718 -0.015298 -46679.900000 0 1 0
21.648570 6.003645 2.422488 22.595857 0.270525 1.463381 0.036870 -0.013675 562749.000000 0 1 0
21.264370 5.810945 1.057888 22.069427 0.266758 1.522843 0.039046 -0.003805 -147311.000000 0 1 0
22.172770 4.784245 0.342188 22.685630 0.212513 1.555712 0.032892 -0.002181 28897.300000 0 1 0
22.108770 3.416145 0.696888 22.381988 0.153303 1.539655 0.032708 -0.006234 734060.000000 0 1 0
23.178670 2.670145 0.109588 23.332218 0.114693 1.566099 0.035755 -0.010752 319566.000000 0 1 0
22.978170 1.132345 0.100288 23.006272 0.049239 1.566437 0.049979 -0.012311 -435405.000000 0 1 0
21.896470 0.598645 -0.619712 21.913416 0.027333 1.599080 0.012439 -0.017452 -60892.500000 0 1 0
21.947770 -0.827555 -0.881612 21.981053 -0.037688 1.610915 0.019989 -0.017728 -1455910.000000 0 1 0
21.732870 -1.787355 0.296188 21.808255 -0.082057 1.557214 0.032716 -0.018057 666469.000000 0 1 0
22.835370 -1.806155 1.238088 22.940121 -0.078930 1.516800 0.038199 -0.014075 496096.000000 0 1 0
23.960970 -2.526455 0.819688 24.107736 -0.105052 1.536789 0.043773 -0.014686 -295651.000000 0 1 0
25.079070 -2.274655 1.905188 25.253981 -0.090452 1.495284 0.066075 -0.011578 117087.000000 0 0 1
25.504570 -0.916055 1.940688 25.594697 -0.035902 1.494900 0.072577 -0.014958 -53697.800000 0 0 1
26.317770 -0.572055 2.996188 26.493950 -0.021733 1.457464 0.082114 -0.016301 -401349.000000 0 0 1
26.026370 0.885245 3.503888 26.276088 0.034000 1.437049 0.078738 -0.015732 -122472.000000 0 0 1
26.236770 1.947245 2.541788 26.431431 0.074082 1.474482 0.092899 -0.019008 75532.900000 0 0 1
27.580880 2.291245 2.308188 27.771973 0.082883 1.487588 0.111059 -0.027717 -189166.000000 0 0 1
27.771600 3.388545 1.255988 28.005740 0.121415 1.525934 0.113161 -0.035042 -245589.000000 0 0 1
27.307380 3.025245 -0.054112 27.474498 0.110335 1.572766 0.106646 -0.021134 359325.000000 0 0 1
27.500980 3.996145 -1.055212 27.809828 0.144299 1.608749 0.095041 -0.014312 151676.000000 0 0 1
28.956060 3.889145 -1.592612 29.259447 0.133513 1.625254 0.108902 -0.019871 763840.000000 0 0 1
30.019460 4.205945 -0.671112 30.320098 0.139201 1.592932 0.133395 -0.024310 -550432.000000 0 0 1
31.215090 3.722845 -1.119512 31.456235 0.118704 1.606393 0.108303 -0.026667 -656498.000000 0 0 1
32.480080 4.169945 -0.330212 32.748329 0.127686 1.580880 0.071771 -0.017239 197151.000000 0 0 1
32.820820 3.610945 0.897788 33.031063 0.109579 1.543613 0.064170 -0.011963 333357.000000 0 0 1
32.036730 4.105645 1.996188 32.360364 0.127460 1.509071 0.072512 -0.002169 237621.000000 0 0 1
32.025320 3.078845 3.167288 32.328503 0.095843 1.472667 0.075697 -0.005214 -255983.000000 0 0 1
31.400800 1.896145 2.833388 31.585340 0.060312 1.480970 0.091178 -0.009576 -76206.300000 0 0 1
31.498530 0.936545 3.876188 31.749950 0.029724 1.448406 0.081221 -0.010789 -761214.000000 0 0 1
32.598910 -0.086655 3.757288 32.814839 -0.002658 1.456045 0.071810 -0.006603 -254295.000000 0 0 1
33.836220 0.493945 4.150588 34.093418 0.014597 1.448752 0.063684 -0.009113 368442.000000 0 0 1
34.951760 -0.321355 3.884388 35.168413 -0.009194 1.460119 0.055423 -0.012199 468539.000000 0 0 1
-35.301513 0.258445 4.236588 35.555763 -0.007321 1.451359 0.056475 -0.019183 880533.000000 0 0 1
-34.857148 1.361745 3.407988 35.049814 -0.039047 1.473410 0.051773 -0.017995 356199.000000 0 0 1
-34.734563 1.073845 2.014588 34.809504 -0.030906 1.512889 0.068453 -0.022333 -1123720.000000 0 0 1
-34.715300 2.343845 1.149588 34.813319 -0.067414 1.537769 0.055241 -0.018912 -127086.000000 0 0 1
-33.642743 3.245845 1.187188 33.819803 -0.096182 1.535686 0.058960 -0.025278 546562.000000 0 0 1
-32.440393 2.754245 0.565188 32.562008 -0.084699 1.553438 0.061703 -0.020506 182472.000000 0 0 1
-31.180223 3.542645 1.013188 31.397184 -0.113133 1.538521 0.048932 -0.027662 -38208.700000 0 0 1
-30.866693 3.352445 2.379388 31.139253 -0.108186 1.494311 0.049202 -0.027868 99123.300000 0 0 1
-30.068673 4.404445 2.881388 30.525835 -0.145445 1.476264 0.053839 -0.023491 -556843.000000 0 0 1
-30.072663 4.389645 4.436088 30.713399 -0.144944 1.425854 0.051076 -0.018852 496044.000000 0 0 1
-31.274083 4.882045 5.050088 32.053174 -0.154855 1.412584 0.036277 -0.005607 458978.000000 0 0 1
-32.397243 4.047545 5.037488 33.035439 -0.124291 1.417712 0.037224 -0.006330 -747849.000000 0 0 1
-32.418433 2.956945 6.158588 33.130447 -0.090960 1.383820 0.031890 0.001238 -551034.000000 0 0 1
-32.659163 3.655345 7.404988 33.687034 -0.111460 1.349169 0.025993 0.002560 269718.000000 0 0 1
-32.615503 2.852745 8.582288 33.846194 -0.087244 1.314430 0.032004 0.002722 380634.000000 0 0 1
-33.753993 1.795045 8.902788 34.954454 -0.053130 1.313262 0.031515 0.004373 164420.000000 0 0 1
-33.812863 0.705345 7.959688 34.744263 -0.020857 1.339650 0.043220 -0.002251 -204230.000000 0 0 1
-34.739359 -0.312755 8.176388 35.689973 0.009003 1.339649 0.049364 -0.002540 -462866.000000 0 0 1
-34.634776 -1.150455 9.452788 35.920000 0.033205 1.304498 0.059466 0.001873 -168868.000000 0 0 1
-33.398253 -1.835755 9.453088 34.758800 0.054910 1.295365 0.051226 -0.010075 40341.300000 0 0 1
-33.301013 -2.650155 10.590988 35.044968 0.079414 1.263785 0.044898 -0.002763 -38728.600000 0 0 1
-31.966123 -3.417555 10.637188 33.862405 0.106507 1.251256 0.054428 -0.000110 -142501.000000 0 0 1
-31.897983 -4.467755 9.623488 33.616271 0.139159 1.280460 0.060612 -0.007660 246859.000000 0 0 1
-30.686983 -5.207755 9.687688 32.598511 0.168104 1.269056 0.053850 -0.017834 245427.000000 0 0 1
-30.688413 -6.459755 8.827788 32.579701 0.207466 1.296406 0.067847 -0.011971 757224.000000 0 0 1
-31.693113 -7.421555 9.252188 33.839856 0.230025 1.293859 0.065146 -0.013247 678251.000000 0 0 1
-31.738663 -8.424055 8.248188 33.857643 0.259438 1.324706 0.081098 -0.010717 67306.500000 0 0 1
-32.867263 -9.462655 8.423088 35.224242 0.280324 1.329329 0.087926 -0.014342 667007.000000 0 0 1
-34.200862 -8.989455 8.267688 36.316166 0.257029 1.341124 0.087593 -0.021822 354354.000000 0 0 1
-35.144762 -10.027455 8.229288 37.462319 0.277934 1.349322 0.086393 -0.022402 14081.400000 0 0 1
7.164137 -23.882455 11.016788 27.259240 -1.279363 1.154748 0.068475 -0.012490 82860.100000 0 0 1
6.773837 -24.434255 9.760388 27.169521 -1.300361 1.203343 0.067013 -0.007024 -427449.000000 0 0 1
5.694137 -25.308255 9.882688 27.759656 -1.349490 1.206803 0.065127 -0.007476 -10895.500000 0 0 1
5.426837 -26.193375 8.604888 28.099601 -1.366503 1.259568 0.053286 0.000914 9452.560000 0 0 1
4.756737 -25.565955 7.526088 27.071879 -1.386842 1.289081 0.060982 0.004044 -247461.000000 0 0 1
4.604737 -26.564255 6.505988 27.734296 -1.399159 1.334007 0.056056 0.005570 -196692.000000 0 0 1
3.843737 -25.950755 5.287088 26.761340 -1.423749 1.371924 0.054493 0.001534 1402130.000000 0 0 1
2.408237 -25.888985 5.286588 26.532757 -1.478042 1.370206 0.052805 -0.000684 320720.000000 0 0 1
1.762137 -27.078265 4.992188 27.590932 -1.505812 1.388858 0.052819 -0.006821 582972.000000 0 0 1
0.194237 -26.921975 5.067588 27.395455 -1.563582 1.384746 0.060835 -0.015202 221558.000000 0 0 1
-0.220463 -26.437715 6.317488 27.182937 1.562458 1.336245 0.046423 -0.007527 275267.000000 0 0 1
-1.626963 -26.474785 6.624088 27.339345 1.509420 1.326069 0.028901 -0.008681 1136070.000000 0 0 1
-2.200663 -27.910955 6.643888 28.775086 1.492113 1.337804 0.028862 -0.000394 -1151520.000000 0 0 1
-2.100963 -28.631625 7.834988 29.758546 1.497549 1.304370 0.029866 0.002331 -115468.000000 0 0 1
-2.552263 -29.970265 7.830688 31.081353 1.485841 1.316110 0.027585 0.004306 5503.050000 0 0 1
-2.299963 -30.639515 9.203988 32.074649 1.495872 1.279749 0.030239 0.004760 825353.000000 0 0 1
-0.924763 -30.915185 9.478588 32.348841 1.540892 1.273421 0.042732 0.003971 362342.000000 0 0 1
-0.804863 -31.481655 10.795888 33.291044 1.545236 1.240537 0.040393 0.006527 15160.500000 0 0 1
0.635237 -31.624685 11.325988 33.597652 -1.550712 1.226955 0.040409 0.000533 -46901.200000 0 0 1
1.286537 -32.817485 10.876088 34.596702 -1.531614 1.251006 0.051245 -0.004287 886919.000000 0 0 1
2.697537 -32.758605 11.168288 34.715034 -1.488636 1.243258 0.054606 -0.003722 1040600.000000 0 0 1
3.177237 -33.343335 12.539788 35.764775 -1.475795 1.212565 0.047318 -0.002251 -141974.000000 0 0 1
2.755537 -32.629485 13.714788 35.501714 -1.486547 1.174165 0.030146 0.000145 441320.000000 0 0 1
3.512337 -33.085785 14.856388 36.437864 -1.465034 1.150842 0.030056 0.002260 -7522.870000 0 0 1
3.391137 -32.245065 16.144088 36.219824 -1.466014 1.108812 0.024990 0.008918 45607.000000 0 0 1
3.826437 -30.895465 15.938688 34.974465 -1.447573 1.097611 0.013414 0.004295 -156566.000000 0 0 1
5.203637 -30.649735 16.036088 34.980569 -1.402622 1.094570 0.016899 0.013397 -585350.000000 0 0 1
5.680837 -29.403335 15.347688 33.650848 -1.379944 1.097204 0.015426 0.000275 -610644.000000 0 0 1
5.729537 -29.326065 13.932488 32.969075 -1.377853 1.134492 0.016352 0.003908 -306671.000000 0 0 1
4.512237 -29.412545 13.232788 32.566314 -1.418571 1.152358 0.010503 0.012751 -464386.000000 0 0 1
4.754737 -29.495235 11.654988 32.068913 -1.410968 1.198843 0.012019 0.000070 187158.000000 0 0 1
5.215537 -30.774535 11.250888 33.179155 -1.402916 1.224842 0.019791 -0.000700 -898561.000000 0 0 1
6.572337 -31.025145 11.409588 33.703619 -1.362043 1.225445 0.017930 -0.004553 -1042950.000000 0 0 1
6.992137 -32.296255 10.688688 34.730191 -1.357587 1.257955 0.007212 -0.004094 -159370.000000 0 0 1
6.574137 -33.444005 11.471488 35.962700 -1.376700 1.246140 0.007302 -0.006057 345989.000000 0 0 1
6.721237 34.078840 10.735388 36.356443 1.376069 1.271046 0.017803 -0.006191 -38138.100000 0 0 1
6.532737 32.776344 11.596088 35.375622 1.374062 1.236824 0.026240 -0.005460 265021.000000 0 0 1
5.206537 32.596003 12.049688 35.139756 1.412405 1.220786 0.034528 -0.005322 -54561.800000 0 0 1
4.913437 31.381153 12.652188 34.190591 1.415484 1.191735 0.050924 0.000855 -980393.000000 0 0 1
3.742737 31.424093 13.549888 34.425008 1.452251 1.166245 0.057428 -0.007504 -977889.000000 0 0 1
4.080237 31.879383 14.875388 35.414977 1.443499 1.137317 0.062827 -0.004627 972463.000000 0 0 1
3.044637 31.589093 15.860488 35.478102 1.474711 1.107332 0.053545 -0.002878 846220.000000 0 0 1
3.619237 31.822463 17.278888 36.391318 1.457551 1.076051 0.050535 -0.003595 159833.000000 0 0 1
3.700437 33.184528 17.734188 37.807507 1.459744 1.082564 0.049732 0.003089 231651.000000 0 0 1
4.325137 33.260853 19.017988 38.557425 1.441485 1.054988 0.041891 -0.000980 190662.000000 0 0 1
4.470437 -34.044443 19.605688 39.539751 -1.440232 1.051986 0.029200 -0.003167 850206.000000 0 0 1
3.230037 -33.541125 20.133088 39.252789 -1.474792 1.032227 0.022756 -0.001898 454557.000000 0 0 1
3.468337 -32.382185 20.923588 38.709583 -1.464097 0.999733 0.018339 -0.002967 41839.200000 0 0 1
2.207037 -31.723555 21.504388 38.388718 -1.501337 0.976200 0.019937 -0.002474 48031.900000 0 0 1
1.469437 -32.521415 22.422888 39.529579 -1.525643 0.967642 0.037421 -0.001461 432025.000000 0 0 1
0.259937 -31.875045 22.816288 39.200371 -1.562642 0.949558 0.032322 -0.001753 335187.000000 0 0 1
-0.859863 -32.812945 23.340988 40.276922 1.544597 0.952666 0.043572 -0.009799 -791188.000000 0 0 1
-1.348063 -33.467685 22.145088 40.153557 1.530539 0.986623 0.041690 -0.011136 835866.000000 0 0 1
-2.383863 34.264497 22.434388 41.024874 -1.501336 0.992201 0.039663 -0.014175 1139330.000000 0 0 1
-3.728963 -34.022245 23.058188 41.268612 1.461628 0.977938 0.056178 -0.011176 -893903.000000 0 0 1
-4.742563 -33.640695 22.199388 40.583261 1.430742 0.992010 0.038250 -0.013897 -517372.000000 0 0 1
-5.886363 -33.318875 22.981588 40.901713 1.395933 0.974147 0.046426 -0.010766 382311.000000 0 0 1
-7.150963 -32.975895 22.133188 40.353735 1.357249 0.990252 0.028638 -0.006295 219413.000000 0 0 1
-7.614063 -34.108383 21.412288 40.985874 1.351166 1.021097 0.009164 0.008413 190553.000000 0 0 1
-8.637963 -33.633075 20.523288 40.336131 1.319400 1.036998 0.018575 -0.008264 505103.000000 0 0 1
-9.917563 34.210035 20.670988 41.182208 -1.288629 1.044956 0.029532 -0.009359 102546.000000 0 0 1
-10.442163 -34.299987 21.954688 42.042077 1.275274 1.021359 0.048480 -0.009341 -895695.000000 0 0 1
-11.752163 33.962056 22.018988 42.147009 -1.237655 1.021095 0.036093 -0.006784 -565905.000000 0 0 1
-12.138263 33.728050 23.520188 42.873278 -1.225341 0.990110 0.038378 -0.002628 -57393.400000 0 0 1
-12.606263 -33.868775 24.271888 43.533164 1.214475 0.979366 0.038253 -0.004153 175518.000000 0 0 1
-11.605063 -32.909915 24.558388 42.671471 1.231779 0.957554 0.035607 -0.002960 76911.500000 0 0 1
-12.115963 -31.719055 25.408688 42.408683 1.205923 0.928371 0.030758 -0.006811 122385.000000 0 0 1
-12.385363 -31.977515 26.770888 43.504472 1.201273 0.907954 0.026395 -0.003052 -283775.000000 0 0 1
-13.403563 -31.119515 27.143988 43.415156 1.164097 0.895384 0.033491 -0.009630 -434092.000000 0 0 1
-13.902263 -31.187275 28.623288 44.555714 1.151468 0.873150 0.040148 -0.015339 -257965.000000 0 0 1
-13.020063 -30.570015 29.518088 44.445083 1.168156 0.844443 0.036716 -0.002342 -233662.000000 0 0 1
-13.714763 -29.990735 30.586688 44.978710 1.141888 0.822998 0.036376 -0.002481 -41233.400000 0 0 1
-12.882363 -29.238295 31.713388 45.017465 1.155788 0.789122 0.036960 -0.005321 -401758.000000 0 0 1
-13.683763 -28.832935 32.796388 45.762283 1.127684 0.771783 0.031757 -0.004329 -152550.000000 0 0 1
-13.136263 -28.432585 34.033288 46.251897 1.137996 0.743913 0.032750 -0.008902 -528000.000000 0 0 1
-12.348163 -29.556035 -33.900203 46.639684 1.175050 2.384525 0.038094 -0.003554 -297843.000000 0 0 1
-11.119463 -29.906975 34.191788 46.766954 1.214833 0.750849 0.047028 -0.009843 -613434.000000 0 0 1
-10.607463 -31.095435 -33.888103 47.200084 1.242049 2.371674 0.054152 -0.010267 2159720.000000 0 0 1
-9.025163 -31.290185 -34.163003 47.197882 1.289984 2.380126 0.062361 -0.012785 2425530.000000 0 0 1
-8.192763 -30.471995 -33.323403 45.892408 1.308145 2.383459 0.055491 -0.015158 -167989.000000 0 0 1
-6.888263 -30.984005 -33.263603 45.977430 1.352037 2.379622 0.051322 -0.016749 -226470.000000 0 0 1
-5.962063 -30.215835 -32.339303 44.658408 1.375983 2.380595 0.032441 -0.016853 -135689.000000 0 0 1
-6.435763 -30.405315 -31.023503 43.913096 1.362209 2.355301 0.042690 -0.021846 -129366.000000 0 0 1
-5.582063 -29.730145 -30.169403 42.722756 1.385199 2.354866 0.030420 -0.021329 -359831.000000 0 0 1
-6.153863 -29.635915 -28.747303 41.744041 1.366057 2.330431 0.024679 -0.020091 -118346.000000 0 0 1
-5.860663 -30.842965 -28.071903 42.114934 1.383019 2.300374 0.020108 -0.015395 155079.000000 0 0 1
-6.831663 -31.112665 -27.058703 41.795251 1.354648 2.274979 0.017340 -0.018430 69200.100000 0 0 1
-6.627463 -32.414605 -26.267503 42.244664 1.369117 2.241828 0.019750 -0.015117 734531.000000 0 0 1
-5.496263 -32.395945 -25.374603 41.515981 1.402738 2.228373 -0.000319 -0.013891 425989.000000 0 0 1
-5.468663 -33.610265 -24.657703 42.042342 1.409502 2.197523 0.007734 -0.014326 -164750.000000 0 0 1
-4.754763 -33.520005 -23.314103 41.106520 1.429888 2.173854 0.021596 -0.017081 117453.000000 0 0 1
-5.439163 -32.761695 -22.259203 39.979811 1.406275 2.161278 0.027097 -0.014507 327043.000000 0 0 1
-5.543763 -31.359115 -22.586003 39.041708 1.395821 2.187697 0.031107 -0.008712 43843.400000 0 0 1
-5.868963 -30.452325 -21.333303 37.641715 1.380404 2.173348 0.043477 -0.017108 145545.000000 0 0 1
-7.198563 -30.556695 -20.815703 37.667286 1.339434 2.156301 0.063766 -0.027740 526213.000000 0 0 1
-7.692863 -29.346485 -20.189003 36.441627 1.314426 2.157969 0.058120 -0.026738 207229.000000 0 0 1
-7.932263 -28.182175 -21.179903 36.135081 1.296431 2.197072 0.063868 -0.046326 -547267.000000 0 0 1
-6.738163 -27.710675 -21.801703 35.897056 1.332264 2.223504 0.057751 -0.034511 -221537.000000 0 0 1
-6.883563 -26.859955 -22.910403 35.968420 1.319920 2.261343 0.067358 -0.054584 -913148.000000 0 0 1
-5.905163 -27.261695 -24.054703 36.833405 1.357482 2.282424 0.052561 -0.044942 1291020.000000 0 0 1
-4.515463 -26.908675 -23.992703 36.333401 1.404538 2.292079 0.053783 -0.034048 795805.000000 0 0 1
-3.850863 -27.351545 -22.784203 35.805811 1.430924 2.260524 0.037677 -0.027438 -1563300.000000 0 0 1
-2.338363 -27.087895 -22.870503 35.528607 1.484685 2.270147 0.042579 -0.024418 -385737.000000 0 0 1
-1.900563 -25.751495 -23.064003 34.622246 1.497126 2.299846 0.045432 -0.025023 -136299.000000 0 0 1
-2.123663 -24.897255 -21.986903 33.283738 1.485705 2.292401 0.053766 -0.027633 -1282150.000000 0 0 1
-2.175863 -23.475155 -22.505803 32.593381 1.478373 2.332980 0.063682 -0.024160 -184070.000000 0 0 1
-3.127763 -23.324055 -23.523203 33.273647 1.437491 2.355990 0.056314 -0.033716 556492.000000 0 0 1
-4.478463 -23.278555 -23.020003 33.043431 1.380733 2.341526 0.051802 -0.036583 62732.300000 0 0 1
-5.568563 -23.274955 -24.116703 33.975695 1.335959 2.360042 0.040483 -0.029575 115900.000000 0 0 1
-5.613163 -22.043755 -24.859103 33.695842 1.321458 2.400527 0.057406 -0.027498 -201113.000000 0 0 1
-5.940163 -22.246455 -26.178103 34.863784 1.309868 2.420172 0.054912 -0.027392 -60639.400000 0 0 1
-5.755663 -21.045455 -27.118003 34.805531 1.303837 2.464072 0.065165 -0.015164 111463.000000 0 0 1
-5.892263 -21.232955 -28.479403 36.008799 1.300102 2.483077 0.065560 -0.018263 -76043.100000 0 0 1
-4.703963 -21.663855 -29.089803 36.574124 1.356981 2.490407 0.061060 -0.024869 -159264.000000 0 0 1
-5.040763 -22.114055 -30.492603 38.003152 1.346682 2.502053 0.066701 -0.030096 94901.500000 0 0 1
-5.182063 -21.169255 -31.492503 38.298419 1.330725 2.536224 0.094378 -0.029772 294388.000000 0 0 1
-6.168663 -21.525055 -32.475603 39.446739 1.291696 2.537957 0.089924 -0.027349 306977.000000 0 0 1
-6.263263 -20.538255 -33.625503 39.896402 1.274799 2.573299 0.070931 -0.018378 961704.000000 0 0 1
-5.158963 -20.726955 34.093088 40.231334 1.326852 0.559678 0.078248 -0.020154 773441.000000 0 0 1
-5.460563 -20.177655 32.840688 38.928990 1.306503 0.566835 0.075522 -0.021648 276619.000000 0 0 1
-4.362363 -20.561655 31.835288 38.148361 1.361736 0.583549 0.045272 -0.022619 -1195130.000000 0 0 1
-4.473663 -21.930755 31.536388 38.671895 1.369567 0.617228 0.049523 -0.021283 52083.700000 0 0 1
-3.362963 -22.469455 30.869688 38.329148 1.422231 0.634473 0.041668 -0.015550 1249550.000000 0 0 1
-1.886163 -22.222255 31.401788 38.515692 1.486122 0.617552 0.023959 -0.019688 104224.000000 0 0 1
-1.326063 -20.999755 30.976288 37.447010 1.507733 0.596684 0.020799 -0.016590 186165.000000 0 0 1
-0.195463 -20.473755 31.664588 37.707545 1.561250 0.573990 0.026988 -0.021068 255285.000000 0 0 1
-0.555863 -20.047655 33.160988 38.753949 1.543076 0.543932 0.013426 -0.018947 -88310.300000 0 0 1
-1.389163 -18.886855 33.170788 38.196128 1.497377 0.518763 0.012761 -0.022189 -116807.000000 0 0 1
-1.753863 -18.721655 -34.171803 39.003699 1.477388 2.638544 0.021419 -0.024102 -122547.000000 0 0 1
-2.881463 -17.727755 -33.885203 38.350791 1.409666 2.654205 0.031542 -0.019850 -8248.970000 0 0 1
-2.445763 -16.403755 -34.122403 37.939470 1.422789 2.689170 0.045619 -0.017798 -162938.000000 0 0 1
-3.430663 -15.483955 -33.768103 37.306931 1.352756 2.702512 0.058526 -0.020880 -132162.000000 0 0 1
-3.096463 -14.070755 -34.259103 37.165312 1.354185 2.743503 0.063113 -0.019942 -233838.000000 0 0 1
-2.165863 -13.425755 -33.412103 36.073682 1.410853 2.755051 0.069296 -0.017198 -42087.900000 0 0 1
-2.055363 -12.004555 -33.515703 35.660009 1.401225 2.793040 0.057430 -0.013029 205016.000000 0 0 1
-1.433463 -11.507455 33.772388 35.707849 1.446867 0.330755 0.053587 -0.013505 -73563.500000 0 0 1
-2.374263 -11.576055 32.724388 34.792639 1.368501 0.346536 0.059050 -0.012218 287405.000000 0 0 1
-1.838963 -11.062955 31.494588 33.431719 1.406075 0.342086 0.052498 -0.005336 702309.000000 0 0 1
-0.852063 -12.064755 30.743588 33.037138 1.500289 0.374812 0.045448 -0.012128 671484.000000 0 0 1
-1.477663 -13.257755 30.336388 33.139825 1.459798 0.414281 0.050700 -0.018161 -56564.400000 0 0 1
-0.510063 -14.268355 30.196588 33.401797 1.535064 0.441666 0.041875 -0.019722 -503502.000000 0 0 1
-0.923963 -15.710055 30.543688 34.359517 1.512051 0.475762 0.031310 -0.025390 15780.900000 0 0 1
-1.736863 -16.366155 29.579488 33.849872 1.465067 0.507744 0.034009 -0.020324 232664.000000 0 0 1
-2.223563 -17.553255 30.139788 34.949504 1.444792 0.530842 0.034933 -0.012380 -223707.000000 0 0 1
-2.959163 -18.546255 29.215088 34.730989 1.412574 0.571331 0.031518 -0.010873 416860.000000 0 0 1
-4.178263 -18.069055 28.627888 34.110183 1.343552 0.574844 0.045708 -0.009822 707472.000000 0 0 1
-4.788163 -19.134355 27.793188 34.080953 1.325593 0.617195 0.047937 -0.007243 478520.000000 0 0 1
-4.048063 -19.427455 26.448988 33.066022 1.365368 0.643694 0.041665 -0.015150 52111.500000 0 0 1
-4.791463 -20.245755 25.540588 32.941924 1.338407 0.683572 0.065179 -0.010770 -64199.000000 0 0 1
-4.627863 -21.676755 25.874088 34.070034 1.360460 0.708347 0.061159 -0.018991 -52338.100000 0 0 1
-28.789183 -33.664724 -0.343912 44.297280 0.863306 1.578560 0.013561 -0.005261 29029.000000 0 0 1
-27.904613 -32.749424 0.277388 43.026377 0.865105 1.564349 0.019879 -0.001376 -239489.000000 0 0 1
-28.466183 -32.174124 1.386088 42.981613 0.846469 1.538542 0.018778 -0.007434 -31735.700000 0 0 1
-27.771463 -30.847324 1.836488 41.547373 0.837822 1.526580 0.032571 -0.009061 1880320.000000 0 0 1
-26.373113 -31.072124 2.204188 40.815149 0.867016 1.516766 0.043962 -0.003100 869972.000000 0 0 1
-25.624183 -29.911224 2.176388 39.446378 0.862440 1.515595 0.059755 -0.013873 -421812.000000 0 0 1
-24.129163 -30.161524 2.391588 38.699531 0.896057 1.508958 0.043663 -0.014891 -346874.000000 0 0 1
-23.892363 -30.771724 3.636488 39.127587 0.910588 1.477723 0.045780 -0.013595 -1172380.000000 0 0 1
-22.551963 -31.034324 3.821688 38.552894 0.942389 1.471505 0.031593 -0.005984 -1117350.000000 0 0 1
-22.209463 -31.597824 5.207688 38.971820 0.958140 1.436768 0.037098 -0.002336 -118471.000000 0 0 1
-22.384463 -30.532924 6.146488 38.354960 0.938183 1.409850 0.035847 -0.004302 -90722.100000 0 0 1
-22.271063 -31.175024 7.422088 39.025245 0.950479 1.379444 0.033938 -0.003869 -113459.000000 0 0 1
-22.868763 -30.355424 8.579988 38.962139 0.925144 1.348763 0.037276 -0.010299 -252377.000000 0 0 1
-22.160663 -29.215424 9.023788 37.763272 0.921861 1.329505 0.048808 -0.007175 -61898.200000 0 0 1
-22.747163 -28.605024 10.181088 37.938574 0.898979 1.299109 0.034089 -0.005632 156201.000000 0 0 1
-21.856263 -27.456724 10.722088 36.695110 0.898483 1.274276 0.033759 -0.017850 1256850.000000 0 0 1
-20.614763 -28.008524 11.222488 36.542990 0.936304 1.258648 0.033157 -0.009847 545188.000000 0 0 1
-19.788563 -27.068224 11.876388 35.571401 0.939526 1.230385 0.034867 -0.018143 442290.000000 0 0 1
-18.525563 -27.663524 12.562788 35.584978 0.980714 1.209982 0.047641 -0.008787 734623.000000 0 0 1
-18.897263 -28.613724 13.572088 36.878901 0.987126 1.193920 0.057821 -0.018815 374141.000000 0 0 1
-17.644263 -28.785024 14.235088 36.640624 1.020897 1.171787 0.066224 -0.014579 648355.000000 0 0 1
-17.512963 -29.921224 15.251288 37.875920 1.041254 1.156370 0.089570 -0.033998 -144865.000000 0 0 1
-17.436163 -31.171524 14.648088 38.603758 1.060794 1.181598 0.101237 -0.030778 -11037.100000 0 0 1
-17.744163 -32.210724 15.580388 39.939135 1.067280 1.170053 0.111009 -0.035098 61421.100000 0 0 1
-17.329563 -33.594124 15.106888 40.707456 1.094548 1.190594 0.094041 -0.038911 32434.800000 0 0 1
-17.745963 34.011445 15.865188 41.513874 -1.089889 1.178657 0.097131 -0.032865 -39403.500000 0 0 1
-17.241363 32.792745 15.365388 40.108899 -1.086748 1.177655 0.074737 -0.035031 -264371.000000 0 0 1
-17.356963 31.640845 16.406488 39.643159 -1.069058 1.144113 0.071316 -0.041381 154549.000000 0 0 1
-18.712863 31.302145 16.659788 40.094189 -1.031986 1.142286 0.073343 -0.038824 271328.000000 0 0 1
-18.796963 30.314145 17.717088 39.826729 -1.015748 1.109785 0.067023 -0.032737 -29823.500000 0 0 1
-19.479963 30.748745 19.056588 41.086589 -1.006093 1.088499 0.053902 -0.029852 -252002.000000 0 0 1
-18.671263 31.540145 19.859888 41.687071 -1.036292 1.074236 0.056619 -0.023477 140086.000000 0 0 1
-19.364163 31.885745 21.080388 42.849203 -1.025028 1.056449 0.049592 -0.020812 283519.000000 0 0 1
-18.772263 33.131445 21.822488 43.889764 -1.055298 1.050415 0.045008 -0.005841 700206.000000 0 0 1
-17.488363 32.900345 22.418488 43.484067 -1.082224 1.029139 0.026513 -0.005729 435374.000000 0 0 1
-17.219563 33.702945 23.517688 44.558764 -1.098450 1.014799 0.028803 -0.004586 -247649.000000 0 0 1
-17.837663 33.137345 24.804488 45.072480 -1.076984 0.988044 0.021403 -0.008866 -1851.350000 0 0 1
-19.247963 33.277345 24.746988 45.719570 -1.046403 0.998840 0.017627 -0.011574 -213645.000000 0 0 1
-19.840463 32.511745 25.776488 45.990051 -1.022870 0.975831 0.024892 -0.012308 -433239.000000 0 0 1
-21.360963 32.590045 25.595788 46.621305 -0.990603 0.989611 0.069816 -0.019484 -591006.000000 0 0 1
-21.662463 32.054845 24.323388 45.699043 -0.976502 1.009538 0.065410 -0.012620 428539.000000 0 0 1
-23.026263 32.301645 23.986988 46.357098 -0.951497 1.026940 0.040158 -0.015007 312932.000000 0 0 1
-23.476863 31.853445 22.589888 45.564328 -0.935649 1.052063 0.030587 -0.015987 -198924.000000 0 0 1
-23.064863 32.718345 21.574488 45.474569 -0.956755 1.076480 0.040290 -0.025833 56841.000000 0 0 1
-23.437063 32.188545 20.326388 44.705261 -0.941447 1.098788 0.023816 -0.017552 -157211.000000 0 0 1
-23.032363 33.001045 19.100888 44.546634 -0.961462 1.127650 0.038409 -0.025419 -653073.000000 0 0 1
-21.653363 33.183045 19.049488 43.964367 -0.992636 1.122652 0.057099 -0.023466 -725906.000000 0 0 1
-21.204963 34.123845 18.081588 44.057134 -1.014781 1.147890 0.072118 -0.028393 857685.000000 0 0 1
-19.796063 -34.012024 18.469688 43.472189 1.043694 1.131987 0.082907 -0.036689 695344.000000 0 0 1
-19.951863 -32.981224 19.411788 43.158492 1.026748 1.104278 0.084431 -0.040077 558703.000000 0 0 1
-18.762763 -32.221624 19.576488 42.113100 1.043491 1.087325 0.076651 -0.037616 122498.000000 0 0 1
-18.913263 -31.191924 20.703488 41.943796 1.025720 1.054571 0.071773 -0.027946 82879.700000 0 0 1
-19.718863 -30.095824 20.307088 41.315493 0.990772 1.056970 0.087346 -0.029768 281530.000000 0 0 1
-20.041963 -29.285224 21.439988 41.460556 0.970637 1.027316 0.084957 -0.025547 -174432.000000 0 0 1
-20.902763 -28.061824 21.115488 40.868757 0.930578 1.027844 0.072933 -0.020110 -156736.000000 0 0 1
-20.139963 -27.047024 20.404188 39.414344 0.930742 1.026654 0.063234 -0.010326 711689.000000 0 0 1
-20.801163 -25.839824 20.019688 38.744971 0.893012 1.027799 0.056078 0.005747 39886.400000 0 0 1
-21.926763 -25.901024 18.914388 38.850998 0.868303 1.062323 0.040037 0.002658 74192.900000 0 0 1
-23.172063 -26.319824 19.419788 40.084982 0.848914 1.065044 0.041589 -0.000428 -230749.000000 0 0 1
-24.087263 -26.318924 18.330288 40.110864 0.829643 1.096187 0.041155 -0.001349 -1063770.000000 0 0 1
-25.521053 -26.316624 18.839788 41.216822 0.800744 1.096076 0.024848 0.004709 -692115.000000 0 0 1
-26.012473 -27.528324 19.398188 42.552874 0.813703 1.097457 0.024813 0.000031 23338.700000 0 0 1
-26.147493 -28.637024 18.506188 42.968006 0.830809 1.125531 0.030792 -0.003621 -742440.000000 0 0 1
-27.065163 -29.753524 19.109488 44.530526 0.832678 1.127264 0.037014 -0.013184 698347.000000 0 0 1
-28.476803 -29.579224 19.085088 45.278023 0.804385 1.135688 0.028183 -0.011991 531686.000000 0 0 1
-29.087243 -29.703824 17.824088 45.233649 0.795885 1.165768 0.028173 -0.011836 -1386450.000000 0 0 1
-30.542813 -29.345624 17.690888 45.902032 0.765411 1.175149 0.022767 -0.008309 -781962.000000 0 0 1
-30.826283 -27.953224 17.749488 45.240322 0.736558 1.167625 0.027626 -0.004489 -433156.000000 0 0 1
-32.192883 -27.743324 17.943388 46.130672 0.711296 1.171284 0.020442 0.012896 -468106.000000 0 0 1
-32.736083 -26.389224 17.344888 45.485024 0.678462 1.179560 0.011233 0.005459 -206150.000000 0 0 1
-32.890183 -26.381824 15.971588 45.087209 0.676031 1.208698 0.037228 -0.010315 155017.000000 0 0 1
-33.540593 -25.162724 15.655788 44.757544 0.643640 1.213448 0.035075 -0.007719 -441396.000000 0 0 1
-32.805273 -24.069324 14.886488 43.325810 0.632989 1.220055 0.016586 -0.008002 517890.000000 0 0 1
-31.715113 -23.471824 15.648688 42.445922 0.637124 1.193215 0.008017 0.000007 833373.000000 0 0 1
-31.341263 -22.152924 15.282088 41.310640 0.615295 1.191862 0.001084 0.000977 -375435.000000 0 0 1
-32.294893 -21.024524 15.666788 41.598545 0.577090 1.184653 0.003386 0.003833 -430941.000000 0 0 1
-32.419903 -20.866424 17.046688 42.155039 0.571884 1.154495 -0.002462 0.007564 410785.000000 0 0 1
-33.268753 -19.749124 17.363088 42.406540 0.535718 1.148952 -0.001203 0.003209 141682.000000 0 0 1
-33.427333 -19.543924 18.882488 43.080156 0.529070 1.117078 -0.001595 0.005372 -291070.000000 0 0 1
-34.333005 -20.465124 19.426788 44.440709 0.537530 1.118381 0.004890 0.004448 239582.000000 0 0 1
-34.735156 -20.086624 20.736888 45.166603 0.524295 1.093792 -0.001479 0.015634 -1558660.000000 0 0 1
35.527200 -20.372424 21.138288 46.087360 -0.520655 1.094313 0.014013 0.003739 -1203510.000000 0 0 1
35.141760 -21.714424 21.475788 46.558232 -0.553484 1.091373 0.021907 -0.010195 190258.000000 0 0 1
35.729396 -22.237624 22.654988 47.794875 -0.556720 1.076963 0.020136 0.008280 -668104.000000 0 0 1
34.988840 -23.438024 23.257788 48.109090 -0.590218 1.066218 0.017735 0.008732 -245709.000000 0 0 1
33.933440 -23.044924 24.109688 47.579658 -0.596576 1.039417 0.039255 -0.012856 -66391.200000 0 0 1
33.489760 -24.204024 24.695388 48.137937 -0.625818 1.032105 0.033664 -0.019488 -413903.000000 0 0 1
32.484270 -23.948224 25.872688 47.938932 -0.635275 1.000714 0.034822 -0.016257 1443870.000000 0 0 1
31.112060 -23.690624 25.445088 46.654672 -0.650796 0.993940 0.046058 -0.017918 1078080.000000 0 0 1
30.336490 -23.659524 26.614288 46.780295 -0.662366 0.965603 0.035367 -0.017019 -962348.000000 0 0 1
29.084910 -24.508424 26.464688 46.335456 -0.700212 0.962885 0.039461 -0.014415 -429921.000000 0 0 1
28.114550 -23.755724 25.710788 44.897739 -0.701562 0.961059 0.044835 -0.017636 416629.000000 0 0 1
26.947800 -24.535524 25.441588 44.446037 -0.738577 0.961348 0.043665 -0.007013 513714.000000 0 0 1
25.764470 -23.704324 24.882088 42.951381 -0.743777 0.952917 0.045345 -0.007090 -125255.000000 0 0 1
25.890870 -23.173824 23.538888 41.969542 -0.730078 0.975376 0.049518 -0.009834 -86307.000000 0 0 1
26.806260 -22.115924 23.477388 41.938972 -0.689817 0.976653 0.059732 -0.008532 -247714.000000 0 0 1
26.711260 -21.348824 22.131488 40.731639 -0.674280 0.996375 0.063091 -0.010134 204265.000000 0 0 1
25.658270 -20.398224 22.108688 39.537684 -0.671682 0.977400 0.053441 -0.014404 151792.000000 0 0 1
25.507070 -19.818924 20.838588 38.440176 -0.660557 0.997857 0.040859 -0.014913 -760017.000000 0 0 1
24.507770 -18.699724 20.675088 37.118320 -0.651777 0.980021 0.039013 -0.005643 -712584.000000 0 0 1
24.799170 -17.486224 21.276388 37.060107 -0.614149 0.959286 0.043328 -0.025862 -28732.400000 0 0 1
24.836070 -17.517824 22.695788 37.931561 -0.614300 0.929375 0.042590 -0.016835 -153166.000000 0 0 1
25.173870 -16.149724 23.377688 37.961212 -0.570396 0.907356 0.050412 -0.009345 213598.000000 0 0 1
24.036870 -15.295924 23.382388 36.857461 -0.566721 0.883564 0.020998 -0.002798 165939.000000 0 0 1
24.192970 -14.136924 24.143288 36.987170 -0.528825 0.859591 0.028819 -0.001855 38867.300000 0 0 1
22.938770 -13.268124 23.939288 35.711619 -0.524397 0.836116 0.019014 -0.002689 467559.000000 0 0 1
21.781470 -13.823824 24.559988 35.619146 -0.565516 0.809975 0.029955 0.003321 429806.000000 0 0 1
20.582670 -13.253124 24.042388 34.312213 -0.572073 0.794426 0.031658 0.005380 392908.000000 0 0 1
19.296270 -13.919124 24.564488 34.197984 -0.624903 0.769437 0.024881 0.006847 -180803.000000 0 0 1
19.078670 -15.101824 23.844488 34.067878 -0.669571 0.795523 0.013384 0.008575 921724.000000 0 0 1
17.829470 -15.726624 24.252188 33.961527 -0.722813 0.775448 0.013554 0.019235 1018010.000000 0 0 1
17.309970 -16.908524 23.456688 33.700882 -0.773667 0.800949 0.010598 0.008484 -88216.300000 0 0 1
18.100670 -18.044724 23.728088 34.875041 -0.783850 0.822523 0.000754 0.012503 445108.000000 0 0 1
17.635070 -19.093424 22.838588 34.599937 -0.825084 0.849876 0.009832 0.004319 83426.700000 0 0 1
17.905970 -20.521424 23.324988 35.858160 -0.853356 0.862581 -0.001557 0.003323 -151040.000000 0 0 1
17.147470 -20.981224 24.428188 36.482651 -0.885609 0.837148 0.004311 0.001177 217686.000000 0 0 1
17.389670 -22.392024 24.620188 37.549394 -0.910487 0.855720 0.021226 -0.000893 -46133.600000 0 0 1
16.941270 -23.501224 23.564488 37.344333 -0.946202 0.887947 0.008691 0.003568 -206287.000000 0 0 1
17.707770 -23.514124 22.416288 36.999582 -0.925334 0.919959 0.016332 0.001254 -79558.100000 0 0 1
18.848270 -24.352924 22.468788 38.120449 -0.912134 0.940461 0.031018 -0.005875 -184781.000000 0 0 1
19.697770 -24.531724 21.232588 37.955637 -0.894259 0.977128 0.037479 0.002398 -360564.000000 0 0 1
19.173470 -25.447424 20.291488 37.774830 -0.925088 1.003719 0.043157 -0.012334 -348840.000000 0 0 1
20.096370 -25.779324 19.325188 37.972365 -0.908648 1.036858 0.037730 -0.009105 -308691.000000 0 0 1
19.456670 -26.475924 18.094888 37.509486 -0.937041 1.067394 0.031666 -0.017218 225870.000000 0 0 1
19.048470 -27.832424 18.331988 38.386844 -0.970618 1.072922 0.047795 -0.027447 -121010.000000 0 0 1
18.320270 -28.351524 17.255088 37.910147 -0.997109 1.098247 0.049796 -0.025701 -60351.800000 0 0 1
17.380070 -29.480724 17.794288 38.572226 -1.038103 1.091310 0.054132 -0.018821 144333.000000 0 0 1
16.389270 -28.983224 18.684188 38.180287 -1.056150 1.059432 0.056072 -0.026428 -964.427000 0 0 1
15.644870 -30.052624 19.213088 38.949517 -1.090819 1.054938 0.073323 -0.028083 -280144.000000 0 0 1
14.472170 -29.623424 20.097888 38.612382 -1.116360 1.023356 0.063064 -0.018718 71749.100000 0 0 1
13.500270 -28.904324 19.342488 37.307493 -1.133840 1.025746 0.061528 -0.014440 -120564.000000 0 0 1
12.247070 -28.845724 19.985688 37.168457 -1.169289 1.003083 0.026197 -0.007272 231341.000000 0 0 1
11.204070 -28.104924 19.101288 35.780960 -1.191453 1.007662 0.024414 -0.012554 -77229.100000 0 0 1
10.949270 -28.821624 17.882688 35.642153 -1.207739 1.045200 0.026300 -0.015903 -327919.000000 0 0 1
10.004770 -28.138024 17.140088 34.432927 -1.229176 1.049757 0.022834 -0.011189 -422603.000000 0 0 1
9.881770 -28.912124 15.772288 34.384958 -1.241457 1.094268 0.030267 -0.013779 -201050.000000 0 0 1
9.210170 -30.147024 15.855088 35.285324 -1.274294 1.104771 0.018867 -0.008343 -15504.000000 0 0 1
9.630970 -31.011324 14.832288 35.699504 -1.269677 1.142330 0.021239 -0.007607 -412347.000000 0 0 1
8.621470 -32.062824 14.389988 36.185994 -1.308117 1.161823 0.013818 -0.003390 -385243.000000 0 0 1
8.208470 -32.985124 15.382688 37.309844 -1.326897 1.145824 0.016978 -0.003454 45116.200000 0 0 1
7.297870 -33.920324 14.844788 37.738773 -1.358879 1.166517 0.021429 -0.003845 -47868.700000 0 0 1
7.054670 33.662145 15.904288 37.892673 1.364213 1.137660 0.043376 -0.007123 -73546.600000 0 0 1
8.110270 32.727945 16.051588 37.343651 1.327881 1.126487 0.041696 -0.008817 -276895.000000 0 0 1
7.885170 31.631145 16.871388 36.706252 1.326491 1.093215 0.044077 -0.016227 409268.000000 0 0 1
9.177070 30.813745 17.232888 36.478458 1.281337 1.078770 0.050713 -0.017428 390819.000000 0 0 1
9.833070 30.085345 16.231288 35.570661 1.254902 1.096951 0.049631 -0.018099 -111391.000000 0 0 1
10.914270 29.361245 16.789788 35.540131 1.214901 1.078764 0.050792 -0.018278 126559.000000 0 0 1
11.722270 28.515245 15.765488 34.627754 1.180768 1.098104 0.046379 -0.012958 -73756.000000 0 0 1
11.033070 27.448045 15.129088 33.226692 1.188600 1.098054 0.048782 -0.014965 5673.170000 0 0 1
11.817370 26.931345 14.039088 32.589009 1.157299 1.125426 0.040766 -0.007837 283797.000000 0 0 1
-9.526963 -9.687255 19.297678 23.600981 0.793740 0.613454 0.040290 -0.013376 23921.100000 0 1 0
-9.674163 -9.529755 17.892078 22.461793 0.777879 0.649219 0.037532 -0.022861 87575.900000 0 1 0
-9.550563 -10.776955 17.320378 22.524465 0.845657 0.693586 0.041654 -0.028957 5292.550000 0 1 0
-9.909863 -10.782955 15.828278 21.564135 0.827566 0.746589 0.042145 -0.030990 -1514210.000000 0 1 0
-11.267663 -10.675355 15.712578 22.086388 0.758412 0.779287 0.044286 -0.028693 -1196270.000000 0 1 0
-11.852063 -11.238055 14.546178 21.871365 0.758813 0.843197 0.048791 -0.026049 143596.000000 0 1 0
-11.895563 -12.803055 14.502678 22.710137 0.822124 0.878120 0.040104 -0.018553 -221257.000000 0 1 0
-10.671063 -13.334355 13.982678 22.072424 0.895892 0.884740 0.049466 -0.017182 654170.000000 0 1 0
-10.484563 -14.746455 14.200778 23.001002 0.952733 0.905365 0.045146 -0.017734 55026.800000 0 1 0
-10.142963 -15.187955 15.598578 24.018104 0.981989 0.863934 0.045287 -0.020501 634787.000000 0 1 0
-11.270063 -15.250255 16.482778 25.125019 0.934367 0.855249 0.056949 -0.013240 471928.000000 0 0 1
-10.703563 -15.299455 17.768278 25.775013 0.960336 0.810190 0.070631 -0.019017 -130715.000000 0 0 1
-11.624663 -14.723055 18.837878 26.585086 0.902457 0.783301 0.053631 -0.029218 -488864.000000 0 0 1
-12.091563 -13.357755 18.671978 25.947607 0.835111 0.767566 0.056442 -0.025602 1203370.000000 0 0 1
-13.287963 -13.245155 17.854478 25.899546 0.783785 0.810172 0.050097 -0.030051 902437.000000 0 0 1
-14.640363 -13.545755 18.553178 27.240561 0.746583 0.821551 0.023272 -0.022719 -282845.000000 0 0 1
-14.856063 -14.865555 18.898678 28.263888 0.785718 0.838403 0.029987 -0.019470 305163.000000 0 0 1
-15.906063 -14.932355 19.881678 29.517100 0.753834 0.831775 0.032301 -0.018043 410942.000000 0 0 1
-16.392663 -16.351155 20.298778 30.791559 0.784131 0.850999 0.037018 -0.011145 -710690.000000 0 0 1
-17.353963 -16.833355 19.454178 31.032031 0.770171 0.893220 0.024267 -0.004062 -820260.000000 0 0 1
-17.659763 -18.169555 19.753578 32.127929 0.799626 0.908612 0.026680 -0.008717 -421100.000000 0 0 1
-18.994763 -18.511155 19.098678 32.683687 0.772505 0.946719 0.037270 -0.003774 -593845.000000 0 0 1
-18.956563 -18.608155 17.669478 31.903373 0.776124 0.983823 0.040794 -0.007401 -83618.000000 0 0 1
-19.064663 -17.426555 16.858378 30.843980 0.740538 0.992534 0.032095 0.000873 -584740.000000 0 0 1
-18.776063 -17.667655 15.350278 30.005293 0.754993 1.033767 0.029762 -0.008485 -692782.000000 0 0 1
-19.521963 -18.646955 14.684078 30.731712 0.762478 1.072630 0.025485 -0.014841 -47483.100000 0 0 1
-19.157663 -18.682655 13.285378 29.875725 0.772846 1.109970 0.023882 -0.014614 212860.000000 0 0 1
-19.646463 -19.977255 12.575278 30.711754 0.793746 1.148933 0.015864 -0.009562 74905.200000 0 0 1
-18.880163 -21.059655 13.066878 31.156267 0.839914 1.138014 0.015976 -0.001878 53479.400000 0 0 1
-18.802963 -22.210255 12.201778 31.555194 0.868286 1.173767 0.012355 -0.005070 -687539.000000 0 0 1
-17.933863 -23.381055 12.824078 32.136493 0.916488 1.160315 0.013543 -0.004903 350650.000000 0 0 1
-17.668263 -24.531855 12.046278 32.543698 0.946630 1.191618 0.025089 -0.014981 141142.000000 0 0 1
-16.926863 -24.258355 10.865078 31.512480 0.961566 1.218785 0.021988 -0.015257 -395614.000000 0 0 1
-17.000063 -25.432395 9.832778 32.132420 0.981566 1.259799 0.030560 -0.013797 62170.200000 0 0 1
-18.197563 -25.441015 9.080578 32.570745 0.949886 1.288257 0.031220 -0.016105 -299185.000000 0 0 1
-18.329963 -26.574245 8.260078 33.322769 0.966973 1.320304 0.051625 -0.014992 802251.000000 0 0 1
-19.650063 -26.434715 7.423378 33.764267 0.931569 1.349126 0.050824 -0.022136 707251.000000 0 0 1
-19.593263 -25.298885 6.648478 32.682286 0.911817 1.365939 0.050030 -0.025511 -59745.900000 0 0 1
-20.613463 -25.255485 5.661078 33.087795 0.886257 1.398858 0.047291 -0.028310 142775.000000 0 0 1
-20.699463 -23.913355 4.864678 31.999710 0.857314 1.418182 0.043723 -0.023301 -293687.000000 0 0 1
-21.496163 -24.130755 3.750578 32.533755 0.843076 1.455257 0.049642 -0.025785 -289056.000000 0 0 1
-21.699463 -22.899955 3.094078 31.699337 0.812309 1.473034 0.045742 -0.018007 23232.500000 0 0 1
-22.437263 -23.101455 1.744478 32.251375 0.799982 1.516680 0.033980 -0.006958 -500213.000000 0 0 1
-21.824263 -23.991555 0.877978 32.444784 0.832667 1.543732 0.042274 -0.015442 -140759.000000 0 0 1
-22.002463 -23.553655 -0.472022 32.235165 0.819435 1.585440 0.022880 -0.006735 -284305.000000 0 0 1
-21.151263 -24.388155 -1.450322 32.315035 0.856358 1.615692 0.029787 -0.005450 -413647.000000 0 0 1
-19.772363 -24.110555 -1.345622 31.210189 0.883936 1.613925 0.026161 -0.003732 146066.000000 0 0 1
-18.950863 -24.699155 -2.367422 31.221598 0.916335 1.646696 0.027007 0.000656 470654.000000 0 0 1
-18.785863 -26.214805 -2.476922 32.345940 0.949008 1.647447 0.035242 -0.002135 -1147690.000000 0 0 1
-19.858663 -26.838195 -3.121122 33.532024 0.933765 1.664010 0.052095 0.006026 -449537.000000 0 0 1
-19.498663 -28.061085 -3.737022 34.374230 0.963525 1.679727 0.051990 0.016476 -312199.000000 0 0 1
-20.692063 -28.643895 -4.479622 35.618832 0.945201 1.696896 0.052158 0.013955 -211114.000000 0 0 1
-21.191563 -27.907705 -5.539822 35.476922 0.921342 1.727591 0.043881 0.013913 -264244.000000 0 0 1
-21.800863 -28.819185 -6.432422 36.704211 0.923167 1.746956 0.036621 0.002240 -282429.000000 0 0 1
-22.308963 -28.298065 -7.770322 36.862559 0.903196 1.783181 0.035350 0.013287 -152387.000000 0 0 1
-21.371763 -28.232265 -8.829022 36.493351 0.922832 1.815156 0.055143 0.007855 -183056.000000 0 0 1
-21.914163 -28.121755 -10.113122 37.058587 0.908830 1.847198 0.053835 0.006426 54509.500000 0 0 1
-22.787563 -26.861495 -10.494922 36.755358 0.867269 1.860360 0.046635 0.016066 -7302.220000 0 0 1
-22.200363 -25.587245 -10.698222 35.524853 0.856154 1.876692 0.036956 0.016708 -148036.000000 0 0 1
-22.020763 -24.865655 -9.495622 34.545356 0.846000 1.849255 0.021079 0.024498 -105052.000000 0 0 1
-21.597163 -23.463455 -9.761722 33.350598 0.826792 1.867846 0.022549 0.012343 505261.000000 0 0 1
-22.658863 -22.623455 -10.260422 33.623222 0.784616 1.880901 0.025814 0.011562 597868.000000 0 0 1
-22.243663 -21.297455 -10.350122 32.488262 0.763670 1.895028 0.032420 0.013316 147392.000000 0 0 1
-23.442663 -20.384755 -10.645422 32.839331 0.715739 1.900927 0.037305 0.017013 172574.000000 0 0 1
-24.152363 -20.500355 -11.893322 33.838621 0.703793 1.929939 0.018077 0.018375 -37751.700000 0 0 1
-25.256993 -19.687055 -12.077822 34.225277 0.662096 1.931456 0.019333 0.007386 -571865.000000 0 0 1
-25.096133 -18.127655 -12.105822 33.241220 0.625555 1.943550 0.022068 0.009769 -1455510.000000 0 0 1
-24.197463 -17.733955 -13.113122 32.740866 0.632457 1.982872 0.030919 0.015904 358443.000000 0 0 1
-23.623863 -16.426755 -13.073522 31.604464 0.607596 1.997267 0.027781 -0.008631 249739.000000 0 0 1
-22.666963 -16.221055 -11.855522 30.289722 0.621136 1.972953 0.002571 -0.009099 -856407.000000 0 0 1
-23.373063 -16.330755 -10.612122 30.423852 0.609853 1.927097 0.030718 -0.010436 -93229.500000 0 0 1
-22.482863 -16.432955 -9.558422 29.442903 0.631171 1.901430 0.015625 -0.003901 -459269.000000 0 0 1
-23.104663 -16.927755 -8.203622 29.793854 0.632308 1.849746 0.009287 -0.006385 -123668.000000 0 0 1
-23.524363 -18.253855 -8.256022 30.899203 0.659907 1.841274 0.021633 0.001732 96605.100000 0 0 1
-24.639563 -18.356655 -7.395122 31.603207 0.640298 1.806985 0.030807 0.001178 110045.000000 0 0 1
-24.988063 -19.814755 -6.956822 32.640851 0.670439 1.785576 0.050128 0.008580 29334.500000 0 0 1
-25.357213 -20.625055 -8.050822 33.662990 0.682847 1.812296 0.039825 -0.005320 50185.000000 0 0 1
-25.513033 -21.850855 -7.425622 34.402247 0.708232 1.788356 0.050620 0.004598 42303.400000 0 0 1
-25.813603 -22.913255 -8.453822 35.536270 0.725946 1.810992 0.029998 0.014421 79118.300000 0 0 1
-25.973243 -24.242155 -8.036422 36.426302 0.750939 1.793248 0.037353 0.008804 -275253.000000 0 0 1
-25.935423 -25.183685 -9.072322 37.271587 0.770694 1.816678 0.023769 0.023386 -274363.000000 0 0 1
-26.620923 -26.473795 -8.734222 38.546362 0.782627 1.799372 0.037795 0.018195 -259588.000000 0 0 1
-25.995463 -27.123505 -7.613122 38.332861 0.806631 1.770731 0.046965 0.011190 290434.000000 0 0 1
-26.720843 -28.171925 -6.945722 39.444947 0.811827 1.747806 0.034580 0.009752 145959.000000 0 0 1
-25.967063 -28.748035 -5.729322 39.160733 0.836181 1.717626 0.043176 0.009233 92709.500000 0 0 1
-26.166383 -27.850675 -4.638222 38.494841 0.816569 1.691579 0.033951 0.007041 205578.000000 0 0 1
-25.413063 -28.149575 -3.462922 38.081678 0.836444 1.661856 0.039345 0.003385 349357.000000 0 0 1
-25.972103 -29.382765 -2.613022 39.302989 0.846935 1.637329 0.033782 0.009542 147181.000000 0 0 1
-25.807803 -30.662745 -3.237222 40.208534 0.871160 1.651394 0.033028 0.009447 -197073.000000 0 0 1
-25.867483 -31.839725 -2.412222 41.093961 0.888523 1.629530 0.028338 0.007667 471124.000000 0 0 1
-24.705263 -32.017515 -1.362822 40.463917 0.913603 1.604483 0.039957 -0.003728 -584495.000000 0 0 1
-23.510863 -32.476995 -1.937522 40.140626 0.944194 1.619083 0.038521 -0.004933 -418267.000000 0 0 1
-22.500563 -32.556305 -0.935822 39.586161 0.966050 1.594439 0.032169 -0.001736 384726.000000 0 0 1
-21.700163 -31.226235 -0.699822 38.032415 0.963479 1.589198 0.050730 -0.008757 -601477.000000 0 0 1
-22.425863 -30.120985 -0.208022 37.553114 0.930808 1.576336 0.048806 -0.008335 -410244.000000 0 0 1
-22.057763 -28.930145 -0.848522 36.389809 0.919375 1.594116 0.049711 -0.007313 61470.000000 0 0 1
-22.784463 -27.705115 -0.233822 35.871435 0.882550 1.577315 0.045039 0.000988 1710870.000000 0 0 1
-24.244463 -27.790105 -0.186422 36.879787 0.853433 1.575851 0.042153 -0.001361 1765890.000000 0 0 1
-24.977563 -26.566985 -0.035622 36.464841 0.816224 1.571773 0.044371 -0.018458 529651.000000 0 0 1
-24.781663 -25.784695 1.315278 35.787027 0.805232 1.534035 0.040015 -0.011756 -488987.000000 0 0 1
-25.260113 -26.424285 2.505978 36.641453 0.807919 1.502351 0.016052 -0.010534 -185396.000000 0 0 1
-24.887263 -25.766075 3.690378 36.012295 0.802746 1.468141 0.027229 -0.017085 28553.700000 0 0 1
-25.612063 -24.443355 4.127578 35.643966 0.762054 1.454736 0.040288 -0.014635 -83988.100000 0 0 1
-25.320363 -23.400855 3.218578 34.627735 0.746021 1.477714 0.042723 -0.010546 -284973.000000 0 0 1
-26.174183 -22.304255 3.342078 34.550501 0.705739 1.473915 0.026194 -0.012308 -537137.000000 0 0 1
-25.955043 -21.203755 2.250678 33.590609 0.684986 1.503743 0.034442 -0.007288 -451571.000000 0 0 1
-24.860663 -20.403955 2.530278 32.261064 0.687256 1.492284 0.022050 -0.007383 -580017.000000 0 0 1
-24.668463 -19.435355 1.508678 31.441091 0.667296 1.522794 0.012259 -0.015499 126987.000000 0 0 1
-23.349163 -18.625655 1.699078 29.916305 0.673338 1.513971 0.028321 -0.013922 254723.000000 0 0 1
-22.267463 -19.473155 1.360378 29.612401 0.718553 1.524841 0.028070 -0.010678 -696516.000000 0 0 1
-21.036663 -18.978555 1.777578 28.388141 0.734010 1.508138 0.018513 -0.005689 -1077070.000000 0 0 1
-19.909363 -19.939055 1.544778 28.219408 0.786143 1.516027 0.014245 -0.013159 -858457.000000 0 0 1
-19.623863 -19.981255 0.160578 28.006648 0.794422 1.565063 -0.009814 -0.000201 368181.000000 0 0 1
-18.626963 -20.958355 -0.158022 28.039996 0.844226 1.576432 0.013016 0.005741 369677.000000 0 0 1
-18.429563 -21.158855 -1.660722 28.108788 0.854231 1.629913 0.025851 0.000040 -241060.000000 0 0 1
-17.747263 -20.217955 -2.422322 27.011085 0.850384 1.660596 0.014562 0.002851 -117860.000000 0 0 1
-17.849763 -20.521655 -3.841722 27.468367 0.854918 1.711116 0.030682 0.005547 99498.200000 0 0 1
-16.937063 -19.588755 -4.678022 26.314774 0.857869 1.749518 0.025680 0.013694 -563525.000000 0 0 1
-15.574763 -19.642955 -4.463022 25.462472 0.900404 1.746985 0.040644 0.015107 -902300.000000 0 0 1
-14.891263 -18.718855 -5.248922 24.488700 0.898792 1.786813 0.049106 0.002158 95830.300000 0 1 0
-13.349663 -18.691155 -5.085622 23.525228 0.950588 1.788694 0.062688 -0.003051 472518.000000 0 1 0
-12.639463 -19.855555 -5.483022 24.167388 1.003920 1.799666 0.058481 -0.007279 198308.000000 0 1 0
-11.268063 -19.575455 -5.724722 23.301076 1.048495 1.819022 0.051151 -0.014711 216064.000000 0 1 0
-10.378963 -20.775255 -5.990022 23.983629 1.107482 1.823223 0.053203 -0.016969 -191730.000000 0 1 0
-10.560563 -21.512755 -7.122122 25.000975 1.114457 1.859671 0.062553 -0.021035 517248.000000 0 0 1
-9.442263 -22.419255 -7.361522 25.415966 1.172176 1.864649 0.052534 -0.014838 944637.000000 0 0 1
-9.721063 -23.470555 -8.473622 26.779998 1.178125 1.892745 0.065893 -0.015840 -210669.000000 0 0 1
-10.013763 -22.955255 -9.781322 26.886678 1.159453 1.943138 0.058275 -0.022737 -62642.800000 0 0 1
-10.468963 -24.017355 -10.576722 28.254196 1.159737 1.954483 0.065198 -0.020509 114500.000000 0 0 1
-11.365863 -23.530955 -11.730822 28.644386 1.120827 1.992738 0.083226 -0.029751 724471.000000 0 0 1
-10.535663 -22.791655 -12.662622 28.121197 1.137794 2.037884 0.068583 -0.022410 999671.000000 0 0 1
-11.404163 -22.258655 -13.654222 28.494569 1.097320 2.070524 0.072919 -0.031596 421541.000000 0 0 1
-10.703963 -21.006355 -14.258722 27.552730 1.099531 2.114731 0.057960 -0.027526 240880.000000 0 0 1
-10.553763 -20.008855 -13.249422 26.216090 1.085427 2.100633 0.063037 -0.034242 -231900.000000 0 0 1
-10.057763 -18.787855 -13.761822 25.367890 1.079283 2.144194 0.053108 -0.025323 -89687.000000 0 0 1
-9.711763 -17.763655 -12.640722 23.867418 1.070474 2.128952 0.040728 -0.015074 -135957.000000 0 1 0
-10.833563 -17.183855 -11.984322 23.585481 1.008287 2.103800 0.036148 -0.026966 59115.300000 0 1 0
-10.523763 -16.057155 -11.183522 22.218303 0.990639 2.098265 0.040032 -0.032011 78741.000000 0 1 0
-10.347463 -14.731555 -11.979222 21.623840 0.958461 2.157936 0.046266 -0.016984 464032.000000 0 1 0
-11.597063 -14.247255 -12.468022 22.201975 0.887585 2.167082 0.049796 -0.004025 450173.000000 0 1 0
-11.480563 -13.936855 -13.842122 22.751782 0.881737 2.224836 0.055380 -0.016453 -481610.000000 0 1 0
-12.726163 -13.280855 -14.489222 23.415249 0.806724 2.238003 0.052558 -0.013122 -266937.000000 0 1 0
-12.881363 -11.876355 -14.238722 22.576947 0.744827 2.253219 0.038170 -0.000317 416749.000000 0 1 0
-13.990463 -11.296155 -14.941522 23.379163 0.679248 2.264118 0.025013 0.003803 382436.000000 0 1 0
-14.327863 -9.894155 -14.404122 22.597803 0.604358 2.261932 0.018703 -0.001331 88175.900000 0 1 0
-13.239063 -8.988755 -14.539522 21.621013 0.596463 2.308340 0.021040 0.009927 290538.000000 0 1 0
-13.238463 -8.117355 -15.679822 22.068193 0.550043 2.361029 0.021645 0.008863 227880.000000 0 1 0
-12.056463 -7.090655 -15.605122 20.956038 0.531639 2.410822 0.014954 0.007300 804379.000000 0 1 0
-10.778563 -7.669755 -15.816522 20.619528 0.618452 2.445050 0.018786 0.006471 35727.600000 0 1 0
-9.728463 -6.790855 -15.504822 19.523273 0.609409 2.488439 0.006734 0.011729 108307.000000 0 1 0
11.312137 21.329345 16.028278 28.979494 1.083160 0.984727 0.052564 -0.006052 -634942.000000 0 0 1
12.273837 21.614645 16.989978 30.108127 1.054353 0.971213 0.055446 -0.009537 -453060.000000 0 0 1
12.884837 20.379245 17.322678 29.688513 1.006998 0.947788 0.047875 -0.006913 -91072.400000 0 0 1
14.054137 20.649645 18.298778 30.964042 0.973210 0.938537 0.049722 -0.012550 -714733.000000 0 0 1
15.235537 21.131045 17.785678 31.543193 0.946113 0.971754 0.041434 -0.009303 -1301340.000000 0 0 1
16.227537 20.985045 18.738078 32.478002 0.912555 0.955811 0.044789 -0.005827 -109976.000000 0 0 1
17.661937 21.401545 18.318478 33.249613 0.880839 0.987308 0.032834 0.000412 -585232.000000 0 0 1
17.886937 22.769345 18.468978 34.343686 0.904916 1.003007 0.033307 -0.004083 483084.000000 0 0 1
19.096137 23.325945 17.922278 35.070931 0.884777 1.034414 0.028567 -0.001281 1050590.000000 0 0 1
20.419537 22.922545 18.631478 35.910062 0.843084 1.025306 0.034003 -0.002723 -252752.000000 0 0 1
20.748137 21.517445 18.538478 35.173297 0.803598 1.015658 0.030569 0.006221 -507719.000000 0 0 1
22.028737 21.193245 18.966378 35.974191 0.766070 1.015469 0.035051 -0.000936 -688024.000000 0 0 1
22.446137 19.735845 18.683378 35.247713 0.721234 1.012126 0.031046 -0.000789 -141179.000000 0 0 1
22.704637 19.377045 17.340878 34.520667 0.706488 1.044501 0.035861 0.007167 59206.500000 0 0 1
22.461237 17.967045 17.076378 33.450330 0.674688 1.035031 0.031636 0.009945 99136.100000 0 0 1
23.442337 16.927845 17.688578 33.896621 0.625408 1.021791 0.015960 0.012973 546936.000000 0 0 1
24.734337 16.761145 17.130978 34.441165 0.595566 1.050199 0.034126 0.007829 1335350.000000 0 0 1
25.724337 16.088145 17.989078 35.272891 0.558891 1.035615 0.020914 -0.000228 684993.000000 0 0 1
27.017537 15.826845 17.218078 35.733717 0.529912 1.068038 0.022519 -0.003724 -1644530.000000 0 0 1
27.764937 17.029245 16.962678 36.723553 0.550168 1.090658 0.023726 -0.006732 2026870.000000 0 0 1
29.211137 16.826845 16.984478 37.747924 0.522617 1.104093 0.039449 -0.011488 1673260.000000 0 0 1
29.817237 15.686445 16.134478 37.355770 0.484298 1.124183 0.043044 -0.016897 -1455040.000000 0 0 1
29.579037 16.001545 14.768878 36.729942 0.495888 1.156994 0.050318 -0.017860 128023.000000 0 0 1
29.870637 14.818045 14.000978 36.164303 0.460502 1.173259 0.070854 -0.023163 -214092.000000 0 0 1
29.062637 14.809645 12.737278 35.017149 0.471280 1.198512 0.057700 -0.010815 -494890.000000 0 0 1
29.591437 15.801145 11.830678 35.570975 0.490458 1.231744 0.058004 -0.011049 482400.000000 0 0 1
28.758237 15.933445 10.669778 34.565229 0.505946 1.256986 0.046534 -0.004932 766117.000000 0 0 1
27.472637 16.783645 10.994178 34.019237 0.548412 1.241713 0.036965 -0.007795 -332661.000000 0 0 1
27.643037 18.121145 11.492378 34.994116 0.580261 1.236178 0.029033 -0.007014 42682.700000 0 0 1
28.154537 18.301245 12.810278 35.940461 0.576395 1.206352 0.032662 -0.010179 40124.100000 0 0 1
27.117337 18.070645 13.968878 35.454587 0.587809 1.165824 0.022464 -0.014403 510681.000000 0 0 1
26.113437 19.082745 13.995078 35.240956 0.631076 1.162414 0.036199 -0.005540 475690.000000 0 0 1
25.313537 19.273545 15.147978 35.237848 0.650753 1.126439 0.042578 -0.010394 -10786.900000 0 0 1
26.012737 20.017345 16.346278 36.668207 0.655878 1.108741 0.029456 -0.007791 -99048.300000 0 0 1
26.077037 21.453945 16.171178 37.440494 0.688438 1.124179 0.011690 -0.005475 -453289.000000 0 0 1
24.921437 22.120645 16.567978 37.214229 0.725930 1.109393 0.025938 -0.008499 -573469.000000 0 0 1
24.746437 23.557645 16.112878 37.775304 0.760793 1.130127 0.019926 -0.001960 -87262.600000 0 0 1
24.507437 23.716945 14.702678 37.138615 0.769008 1.163763 0.034664 -0.013735 72185.700000 0 0 1
24.865137 25.011745 14.371978 38.084330 0.788338 1.183839 0.025913 -0.008289 -408955.000000 0 0 1
24.501237 25.511245 12.938378 37.663455 0.805591 1.220127 0.041416 -0.013327 57130.300000 0 0 1
23.108437 25.653945 12.700478 36.788951 0.837553 1.218317 0.041567 -0.007100 267919.000000 0 0 1
22.796837 25.935845 11.365078 36.352838 0.849722 1.252833 0.037690 -0.025728 -209684.000000 0 0 1
22.149237 24.690545 10.704078 34.853823 0.839600 1.258638 0.047210 -0.025778 -85652.800000 0 0 1
20.797637 24.532445 11.167678 34.045552 0.867604 1.236588 0.050317 -0.026162 488702.000000 0 0 1
20.294737 23.230045 10.970578 32.739348 0.852736 1.229097 0.051941 -0.022214 -32951.500000 0 0 1
20.149837 22.718545 9.496578 31.817184 0.845247 1.267704 0.038703 -0.010655 -637285.000000 0 0 1
19.177637 23.399845 8.736378 31.490615 0.884240 1.289680 0.026235 0.002195 131537.000000 0 0 1
19.536137 23.352545 7.328878 31.316361 0.874148 1.334579 0.032146 -0.017485 296340.000000 0 0 1
18.473637 23.949345 6.353178 30.906460 0.913763 1.363759 0.024963 -0.009426 -258522.000000 0 0 1
17.486037 23.015945 5.910078 29.502953 0.921093 1.369110 0.030485 0.005144 592406.000000 0 0 1
16.534537 23.471945 4.956278 29.135679 0.957098 1.399855 0.047655 -0.008986 -103153.000000 0 0 1
15.373837 24.233645 5.566078 29.233639 1.005466 1.379227 0.015285 -0.006217 -1252850.000000 0 0 1
15.753837 25.514045 6.064278 30.592897 1.017639 1.371250 0.020925 -0.015822 -148403.000000 0 0 1
14.721037 26.296745 6.592678 30.849491 1.060457 1.355431 0.011876 -0.018747 -318534.000000 0 0 1
14.381537 27.540145 5.774578 31.601170 1.089545 1.387031 0.019114 -0.015931 -485121.000000 0 0 1
14.070937 27.208845 4.424078 30.949717 1.093526 1.427361 0.011189 0.001855 281068.000000 0 0 1
13.770937 28.355945 3.664978 31.735317 1.118698 1.455052 0.015020 0.000535 -481914.000000 0 0 1
13.181537 27.941945 2.323578 30.982321 1.130005 1.495729 0.018896 0.008442 -88624.400000 0 0 1
14.079437 27.383245 1.356478 30.820653 1.095883 1.526770 0.034535 -0.003602 435684.000000 0 0 1
13.391837 26.750445 0.278178 29.916634 1.106652 1.561498 0.016446 0.006972 -33465.800000 0 0 1
14.379637 26.141145 -0.731622 29.844073 1.067894 1.595314 0.010102 -0.005622 -283798.000000 0 0 1
14.928037 27.187045 -1.411422 31.047927 1.068655 1.616271 0.033303 -0.005999 -367323.000000 0 0 1
15.922537 26.668545 -2.291022 31.144618 1.032546 1.644424 0.041444 -0.014043 -252437.000000 0 0 1
15.942237 27.332945 -3.634422 31.850491 1.042776 1.685154 0.038312 -0.019850 353148.000000 0 0 1
14.688337 27.085145 -4.279922 31.107395 1.073882 1.708819 0.070613 -0.024390 400703.000000 0 0 1
14.889337 27.414545 -5.630922 31.701055 1.073252 1.749370 0.076389 -0.017158 260645.000000 0 0 1
13.658537 27.232845 -6.543022 31.160786 1.105912 1.782347 0.104535 -0.034688 194392.000000 0 0 1
13.371937 25.869245 -6.848222 29.915291 1.093716 1.801765 0.089455 -0.027756 -1414790.000000 0 0 1
12.230237 25.816545 -7.571522 29.553352 1.128379 1.829884 0.067780 -0.031642 -1176680.000000 0 0 1
11.887937 24.342845 -7.998622 28.246683 1.116508 1.857894 0.073197 -0.019211 -185495.000000 0 0 1
12.645837 23.800345 -9.055222 28.431860 1.082400 1.894931 0.066355 -0.019760 -137866.000000 0 0 1
12.206237 22.537445 -9.599822 27.369421 1.074427 1.929168 0.063986 -0.014751 -383167.000000 0 0 1
12.639837 22.165945 -11.032022 27.799282 1.052549 1.978874 0.060498 -0.009520 -85522.000000 0 0 1
12.088137 20.902245 -11.257922 26.641466 1.046472 2.007077 0.064576 -0.009982 -188237.000000 0 0 1
12.128937 20.365845 -12.573022 26.832063 1.033653 2.058481 0.059679 -0.014304 -297175.000000 0 0 1
13.438837 19.746045 -13.075622 27.230140 0.973221 2.071667 0.043280 -0.002939 251390.000000 0 0 1
14.493637 20.694545 -13.180322 28.496501 0.959829 2.051636 0.032849 -0.011483 -728452.000000 0 0 1
15.652637 20.184245 -13.734822 29.000933 0.911182 2.064169 0.028112 -0.003230 7088.770000 0 0 1
16.877237 21.155145 -13.682122 30.324606 0.897408 2.038893 0.030047 -0.002736 62450.000000 0 0 1
16.908837 22.335845 -14.464122 31.527917 0.922813 2.047409 0.034910 -0.011506 -276402.000000 0 0 1
15.901737 23.321945 -14.361422 31.670630 0.972365 2.041442 0.038439 -0.008188 137749.000000 0 0 1
16.471737 24.685845 -14.841822 33.181150 0.982387 2.034537 0.045787 -0.012542 237744.000000 0 0 1
16.771037 24.799845 -16.215622 34.047707 0.976184 2.067195 0.029983 -0.010678 -373753.000000 0 0 1
15.616637 24.951445 -16.996522 33.990229 1.011564 2.094443 0.042461 -0.005504 -29338.900000 0 0 1
15.844237 24.751545 -18.508822 34.731186 1.001390 2.132840 0.017672 0.000646 57666.400000 0 0 1
16.058437 23.371745 -18.897522 34.076798 0.968789 2.158627 0.014416 0.010999 -66609.700000 0 0 1
16.255737 23.289545 -20.272322 34.894396 0.961424 2.190707 0.001583 0.021790 -37555.900000 0 0 1
16.547937 21.915745 -20.943022 34.536130 0.924058 2.222333 0.011026 0.025657 -35972.900000 0 0 1
15.422437 21.061145 -21.033422 33.523547 0.938740 2.249035 0.025093 0.024017 168276.000000 0 0 1
15.832037 19.820745 -21.609222 33.323772 0.896811 2.276360 0.024160 0.020803 -248737.000000 0 0 1
14.699837 18.810745 -21.665022 32.238215 0.907463 2.307742 0.026851 0.012970 -872490.000000 0 0 1
14.467037 18.160045 -20.415922 30.917507 0.898107 2.292062 0.031600 0.004080 433145.000000 0 0 1
13.705637 16.938845 -20.573522 29.967295 0.890516 2.327506 0.030389 -0.006474 669366.000000 0 0 1
12.189637 17.032645 -20.940622 29.617695 0.949635 2.356087 0.041456 -0.011724 -321322.000000 0 0 1
11.428937 17.417045 -19.831622 28.762254 0.990080 2.331597 0.034845 -0.009980 -1001200.000000 0 0 1
10.103037 17.502645 -20.217822 28.586260 1.047288 2.356406 0.034702 -0.007236 -467139.000000 0 0 1
9.009537 17.183845 -19.160222 27.268487 1.087896 2.349912 0.040324 -0.015485 -313660.000000 0 0 1
8.683337 15.773445 -19.114322 26.259459 1.067567 2.386054 0.047165 -0.022966 -578320.000000 0 0 1
7.317537 15.544345 -18.968922 25.592831 1.130819 2.405624 0.047694 -0.014186 -612708.000000 0 0 1
6.802537 15.692545 -17.523122 24.486532 1.161758 2.368312 0.047862 -0.012771 -756893.000000 0 1 0
6.881437 16.983945 -17.070722 25.044322 1.185838 2.320771 0.061616 -0.015557 -517707.000000 0 0 1
6.500137 17.015045 -15.730322 24.066710 1.205883 2.283145 0.045885 -0.025929 -443505.000000 0 1 0
6.279837 18.500245 -15.354722 24.848800 1.243554 2.236898 0.044016 -0.024461 320963.000000 0 1 0
7.472237 19.219845 -15.018222 25.510463 1.200002 2.200256 0.045297 -0.022031 -13847.800000 0 0 1
8.124337 19.693345 -16.139022 26.726404 1.179525 2.219132 0.057842 -0.017420 -66108.400000 0 0 1
9.292237 20.661845 -15.719022 27.574356 1.148168 2.177375 0.041958 -0.004108 -97530.900000 0 0 1
9.021037 21.900045 -15.021222 28.046892 1.180058 2.135985 0.047081 -0.012476 -220258.000000 0 0 1
8.660037 21.657045 -13.644522 27.022154 1.190401 2.100107 0.037153 -0.016259 -136550.000000 0 0 1
8.413837 22.941945 -12.793622 27.582644 1.219283 2.053108 0.048280 -0.013943 -582338.000000 0 0 1
7.215637 23.471745 -13.284122 27.918741 1.272548 2.066685 0.043093 -0.011689 -7450.220000 0 0 1
6.507337 24.488545 -12.555522 28.278532 1.311069 2.030848 0.026760 -0.009974 79333.600000 0 0 1
5.768237 24.083245 -11.302222 27.221599 1.335712 1.998951 0.016450 -0.004489 -691824.000000 0 0 1
6.648937 23.713045 -10.234122 26.669347 1.297425 1.964640 0.008381 -0.001905 137353.000000 0 0 1
6.043737 23.044045 -9.128422 25.512405 1.314304 1.936711 0.019186 -0.010358 312769.000000 0 0 1
7.042637 22.799045 -7.938522 25.147869 1.271194 1.891963 0.010605 -0.020225 380672.000000 0 0 1
7.269137 24.005145 -7.248022 26.107875 1.276758 1.852110 0.011050 -0.017281 -58026.200000 0 0 1
8.186537 23.813545 -6.200822 25.933655 1.239677 1.812239 0.031599 -0.015639 -209240.000000 0 0 1
8.386637 25.092345 -5.341722 26.990654 1.248238 1.770022 0.032247 -0.013753 46010.300000 0 0 1
9.029137 26.137445 -6.097922 28.317415 1.238182 1.787838 0.049679 -0.016626 295390.000000 0 0 1
9.164337 27.275645 -5.287622 29.255851 1.246657 1.752532 0.040298 -0.017221 108214.000000 0 0 1
9.299337 28.626245 -6.098922 30.710526 1.256697 1.770719 0.041045 -0.015851 -713223.000000 0 0 1
10.524337 28.754145 -6.708122 31.345835 1.219929 1.786468 0.056043 -0.018487 -1090310.000000 0 0 1
10.584337 29.913945 -7.415822 32.586296 1.230717 1.800383 0.048834 -0.011851 117856.000000 0 0 1
11.885337 30.244645 -8.167622 33.506862 1.196362 1.817037 0.046993 -0.012307 213997.000000 0 0 1
13.015337 30.659645 -7.439622 34.128592 1.169340 1.790549 0.058179 -0.012523 689996.000000 0 0 1
14.105937 31.091245 -8.301522 35.136281 1.144874 1.809318 0.052065 -0.009430 1479810.000000 0 0 1
15.431237 31.477545 -7.571822 35.864905 1.114995 1.783518 0.045585 -0.009929 498949.000000 0 0 1
16.099237 30.344845 -7.019222 35.060869 1.083014 1.772359 0.050443 -0.014159 -311543.000000 0 0 1
17.306637 30.816745 -6.462122 35.929799 1.059092 1.751634 0.042528 -0.009465 -51650.800000 0 0 1
18.374437 29.729345 -6.277322 35.508571 1.017205 1.748514 0.039083 -0.011592 -372358.000000 0 0 1
18.230737 28.817245 -5.192522 34.492835 1.006727 1.721910 0.038013 -0.015985 193131.000000 0 0 1
19.386837 28.009445 -4.966822 34.424523 0.965356 1.715583 0.025894 -0.014895 18047.900000 0 0 1
19.725837 26.812945 -5.949822 33.814834 0.936521 1.747670 0.025656 -0.000231 -268324.000000 0 0 1
20.203337 27.090045 -7.231922 34.559312 0.929999 1.781616 0.014770 0.003555 315164.000000 0 0 1
20.171637 25.876045 -7.994122 33.769374 0.908651 1.809792 0.013092 0.000763 -1020470.000000 0 0 1
20.635637 26.160345 -9.462522 34.637154 0.902914 1.847504 0.017622 -0.003630 1980490.000000 0 0 1
22.094237 26.206645 -9.620122 35.601830 0.870335 1.844412 0.006435 -0.002205 1779730.000000 0 0 1
22.789937 25.022045 -9.406222 35.127780 0.832049 1.841876 0.022743 -0.005258 497755.000000 0 0 1
24.369937 25.172445 -9.383722 36.271201 0.801595 1.832483 0.009760 -0.000234 1120890.000000 0 0 1
24.923137 25.500145 -10.599022 37.198917 0.796841 1.859728 0.021681 -0.000766 196783.000000 0 0 1
26.327637 25.699145 -10.443722 38.244762 0.773319 1.847385 0.023337 0.003310 613406.000000 0 0 1
27.109237 26.059445 -11.765322 39.400865 0.765656 1.874028 0.014492 -0.002816 190285.000000 0 0 1
26.830437 27.276545 -12.385522 40.215462 0.793643 1.883864 0.022923 -0.001748 -68339.600000 0 0 1
27.476637 27.335945 -13.638022 41.087895 0.782831 1.909138 0.009664 0.001032 -84491.100000 0 0 1
26.967237 28.437345 -14.588022 41.817757 0.811926 1.927137 0.007952 -0.003093 -297741.000000 0 0 1
27.448037 29.679145 -14.204622 42.848776 0.824433 1.908696 0.021652 -0.008531 37751.900000 0 0 1
27.424637 30.548045 -15.342722 43.825710 0.839223 1.928458 0.020663 0.002828 -209083.000000 0 0 1
27.985637 31.948545 -15.086722 45.072326 0.851423 1.912107 0.022246 -0.007106 102719.000000 0 0 1
29.336637 31.993145 -14.670022 45.819309 0.828686 1.896706 0.017148 -0.009893 124312.000000 0 0 1
29.844737 33.268645 -14.589922 47.014645 0.839595 1.886333 0.024511 -0.017018 -260964.000000 0 0 1
15.180337 -32.665624 -28.997572 46.242241 -1.135770 2.248595 0.069778 -0.027972 578816.000000 0 0 1
16.233937 -33.199324 -28.176922 46.472302 -1.116000 2.222217 0.048671 -0.019660 588264.000000 0 0 1
16.501637 -32.335924 -27.086912 45.294777 -1.098928 2.211817 0.041210 -0.025447 -201148.000000 0 0 1
17.649837 -32.678024 -26.101972 45.394746 -1.075575 2.183400 0.009162 -0.013663 -111905.000000 0 0 1
18.987937 -32.638924 -26.473412 46.115970 -1.043898 2.182254 0.012941 -0.015513 -247900.000000 0 0 1
19.471337 -33.482524 -27.522852 47.515469 -1.044063 2.188592 0.016404 -0.013182 1257590.000000 0 0 1
21.014837 -33.175224 -27.845282 48.141236 -1.006144 2.187572 0.014704 -0.013099 1616470.000000 0 0 1
21.348237 -31.848324 -28.249362 47.624463 -0.980276 2.205786 0.005653 -0.019633 742515.000000 0 0 1
22.767737 -31.668724 -28.088452 48.064947 -0.947475 2.194919 -0.008126 -0.009465 594316.000000 0 0 1
23.381937 -30.364524 -28.636552 47.841106 -0.914592 2.212519 -0.022432 0.000925 -159974.000000 0 0 1
23.539137 -30.360024 -30.037092 48.765244 -0.911278 2.234391 -0.033709 -0.003139 276226.000000 0 0 1
24.367937 -29.303024 -30.525382 48.828911 -0.877091 2.246120 -0.028560 -0.008205 -137203.000000 0 0 1
24.535137 -29.378124 -32.028492 49.908631 -0.874987 2.267565 -0.024232 -0.005645 264398.000000 0 0 1
25.379437 -30.436324 -32.486072 51.242859 -0.875751 2.257463 -0.015114 -0.004782 32915.000000 0 0 1
25.375537 -30.290924 -33.917642 52.075565 -0.873470 2.280114 -0.006787 -0.007018 557110.000000 0 0 1
26.467637 -31.209924 34.039972 53.228892 -0.867434 0.876946 -0.002503 -0.009875 312204.000000 0 0 1
27.765737 -30.715924 34.163975 53.680363 -0.835802 0.880931 0.005086 -0.022162 -959110.000000 0 0 1
28.713937 -31.504324 33.515418 54.224495 -0.831703 0.904490 0.012778 -0.005569 -338860.000000 0 0 1
30.109737 -30.877924 33.588024 54.664411 -0.797993 0.909120 0.030401 -0.013886 -233022.000000 0 0 1
30.082137 -29.769724 32.732909 53.503409 -0.780178 0.912473 0.032801 -0.014614 523268.000000 0 0 1
31.328537 -29.080824 32.826476 53.895725 -0.748207 0.915904 0.033506 -0.023305 398950.000000 0 0 1
31.427737 -27.878824 31.894178 52.746281 -0.725629 0.921443 0.026566 -0.020860 630645.000000 0 0 1
32.751837 -27.412624 31.571998 53.112389 -0.696886 0.934230 0.026561 -0.023329 804466.000000 0 0 1
32.692237 -26.424024 30.582678 51.983763 -0.679761 0.941826 0.012964 -0.018227 117772.000000 0 0 1
33.443637 -26.641424 29.177588 51.764602 -0.672668 0.971987 0.020393 -0.011590 191229.000000 0 0 1
33.015637 -27.607624 28.235328 51.472779 -0.696427 0.990169 0.014382 -0.023271 412611.000000 0 0 1
31.756137 -27.334624 27.625048 50.187421 -0.710712 0.987908 0.014738 -0.025257 311907.000000 0 0 1
31.337137 -28.365524 26.511458 49.894655 -0.735666 1.010605 0.008047 -0.023561 418527.000000 0 0 1
30.173437 -27.905424 25.809298 48.531113 -0.746367 1.010061 0.011332 -0.017466 533523.000000 0 0 1
29.528937 -28.971124 25.148708 48.412206 -0.775863 1.024565 0.010236 -0.006566 -941117.000000 0 0 1
28.121637 -28.674424 24.699608 47.149971 -0.795131 1.019429 0.014316 -0.002214 -789322.000000 0 0 1
27.136137 -28.397724 25.685688 46.931389 -0.808112 0.991658 0.016284 -0.002888 4801.740000 0 0 1
25.896937 -28.424124 25.014168 45.872550 -0.831888 0.994053 0.020650 0.005263 -218343.000000 0 0 1
24.696337 -28.199624 25.949478 45.590606 -0.851531 0.965282 0.025037 0.002993 -162694.000000 0 0 1
24.605737 -26.925724 26.568358 45.125543 -0.830389 0.941266 0.023178 -0.003364 519662.000000 0 0 1
23.436837 -26.889124 27.388268 44.971409 -0.853889 0.915978 0.020447 -0.009222 141658.000000 0 0 1
23.270237 -25.649124 28.277768 44.710331 -0.833989 0.886063 0.016503 0.002270 -293010.000000 0 0 1
22.081437 -25.689824 29.062278 44.633765 -0.860790 0.861727 0.035039 -0.000067 224296.000000 0 0 1
21.929237 -24.632424 30.010038 44.589799 -0.843389 0.832506 0.028802 -0.002770 -107371.000000 0 0 1
21.510937 -23.254624 29.399128 43.218130 -0.824330 0.822693 0.037751 -0.006573 -664725.000000 0 0 1
22.532037 -22.746024 28.583578 42.919637 -0.790124 0.841991 0.044698 -0.010003 100301.000000 0 0 1
22.291937 -21.415824 28.148048 41.807662 -0.765356 0.832167 0.052700 -0.004684 -27467.800000 0 0 1
23.003937 -20.342424 29.011498 42.245265 -0.724074 0.813802 0.046689 -0.009481 -95213.000000 0 0 1
22.563937 -20.262424 30.357658 42.910191 -0.731709 0.784885 0.045426 -0.003596 89258.100000 0 0 1
23.187437 -19.155524 30.921548 43.136220 -0.690464 0.771544 0.052839 -0.003801 -259034.000000 0 0 1
22.669737 -18.893524 32.353908 43.791068 -0.694792 0.739472 0.058072 -0.015058 -39696.900000 0 0 1
22.939737 -19.853224 33.348561 45.083352 -0.713396 0.738159 0.038960 -0.009172 205407.000000 0 0 1
22.303237 -19.453624 -34.123327 45.169452 -0.717261 2.427139 0.039846 -0.008708 -360199.000000 0 0 1
22.233037 -20.653224 -33.140742 44.935203 -0.748578 2.400191 0.022563 0.000179 -602166.000000 0 0 1
23.339537 -20.940224 -32.359612 45.059644 -0.731266 2.371937 0.026620 0.003762 -486094.000000 0 0 1
23.095137 -22.096024 -31.554122 44.914166 -0.763293 2.349761 0.010981 0.005699 39138.600000 0 0 1
24.289037 -22.406424 -30.618092 45.049670 -0.745103 2.318084 -0.007424 0.005905 18680.900000 0 0 1
25.371037 -23.082024 -31.231802 46.388521 -0.738191 2.309413 0.002901 0.005120 -538287.000000 0 0 1
26.254537 -23.291224 -30.148372 46.267767 -0.725660 2.280497 0.000579 -0.001111 222919.000000 0 0 1
27.504537 -24.152324 -30.539292 47.670565 -0.720595 2.266117 -0.000605 0.009666 410805.000000 0 0 1
28.521537 -23.562924 -31.348522 48.491436 -0.690481 2.273752 0.013469 0.003819 163456.000000 0 0 1
28.394737 -23.587224 -32.769912 49.360768 -0.693176 2.296799 0.013822 0.001262 -197610.000000 0 0 1
28.752537 -24.953724 -33.457552 50.683376 -0.714783 2.291786 0.008571 -0.012003 -558187.000000 0 0 1
27.918137 -25.987024 -33.089062 50.493899 -0.749589 2.285387 0.015119 -0.010494 -446077.000000 0 0 1
28.079537 -27.205324 -33.836652 51.705987 -0.769587 2.284192 0.010990 -0.014700 84815.600000 0 0 1
27.476637 -27.276824 33.343736 51.095944 -0.781749 0.859824 0.014247 -0.009177 57618.700000 0 0 1
28.207437 -26.510924 32.363058 50.456478 -0.754404 0.874468 0.008429 -0.009301 47885.900000 0 0 1
27.720137 -26.525524 31.033218 49.346429 -0.763379 0.890678 0.003179 -0.009384 -910623.000000 0 0 1
28.651437 -25.940724 29.977418 48.912899 -0.735785 0.911104 0.010302 -0.015398 -417846.000000 0 0 1
28.912437 -24.589024 29.820208 48.267939 -0.704764 0.904847 0.003010 -0.014156 200331.000000 0 0 1
29.269537 -23.903524 31.023038 48.892875 -0.684823 0.883421 0.000936 -0.005958 -1598530.000000 0 0 1
29.797137 -22.397024 30.803618 48.356582 -0.644556 0.880183 -0.000399 -0.000816 444308.000000 0 0 1
31.108937 -22.244024 30.279988 48.779507 -0.620746 0.901095 0.004368 -0.000193 598364.000000 0 0 1
32.086537 -22.773524 31.201178 50.216460 -0.617242 0.900353 0.008943 -0.008858 -1658020.000000 0 0 1
33.484237 -22.320424 30.845488 50.703448 -0.587953 0.916815 0.010807 -0.018778 -1004600.000000 0 0 1
33.871737 -22.817924 29.618918 50.450298 -0.592826 0.943336 0.021568 -0.017763 421992.000000 0 0 1
35.210937 -22.416824 29.335338 51.018489 -0.566929 0.958199 0.006246 -0.020525 540897.000000 0 0 1
35.713837 -22.814424 27.906168 50.741801 -0.568470 0.988475 0.011825 -0.019007 -165370.000000 0 0 1
-35.702395 -24.154124 27.723658 51.251185 0.594807 0.999246 0.016821 -0.015272 270868.000000 0 0 1
-35.062195 -24.236824 26.463668 50.170778 0.604831 1.015174 0.003978 -0.000407 -466180.000000 0 0 1
-34.765295 -25.687324 25.985108 50.435010 0.636345 1.029532 0.002641 -0.009092 -389432.000000 0 0 1
35.706337 -26.381624 25.765408 51.330195 -0.636327 1.044940 0.010365 -0.015969 93429.700000 0 0 1
-35.797395 -27.695724 25.288748 51.846190 0.658485 1.061269 0.008216 -0.012615 50691.100000 0 0 1
-35.530095 -28.730024 26.425498 52.783605 0.679970 1.046460 0.016928 -0.017469 -890362.000000 0 0 1
-35.252095 -30.054124 25.953488 53.099380 0.705972 1.060115 0.016153 -0.017659 191494.000000 0 0 1
-34.275195 -30.753724 26.699418 53.230062 0.731299 1.045366 0.024564 -0.017483 -809147.000000 0 0 1
-32.864795 -30.245524 26.592798 51.981376 0.743919 1.033770 0.027631 -0.015446 -2026400.000000 0 0 1
-32.423195 -30.290124 25.268468 51.061245 0.751398 1.053116 0.022613 -0.015953 -20950.100000 0 0 1
-31.123895 -29.775124 25.052588 49.828577 0.763254 1.043990 0.009262 -0.014904 48450.900000 0 0 1
-30.661595 -29.574724 23.590728 48.696203 0.767357 1.065065 0.005146 -0.009205 -215306.000000 0 0 1
-30.408195 -30.799924 22.966378 48.997431 0.791798 1.082948 0.015489 -0.009972 266315.000000 0 0 1
-30.220095 -30.629624 21.597878 48.144536 0.792128 1.105593 0.014601 -0.011277 -873709.000000 0 0 1
-30.198195 -31.996724 20.835778 48.681116 0.814308 1.128512 0.027210 -0.005241 421074.000000 0 0 1
-29.243795 -32.994424 21.248578 48.942146 0.845588 1.121694 0.039839 -0.017366 511085.000000 0 0 1
-27.878095 -32.633124 21.139678 47.843442 0.863818 1.113135 0.053444 -0.015785 -125791.000000 0 0 1
-26.974095 -33.878124 21.342678 48.278764 0.898371 1.112889 0.049437 -0.010415 -261778.000000 0 0 1
-27.025195 33.974445 20.215678 47.888388 -0.898832 1.134990 0.043363 -0.016929 1005060.000000 0 0 1
-28.205195 33.149445 19.996978 47.898829 -0.865809 1.140122 0.048897 -0.014362 809687.000000 0 0 1
-28.255295 31.922845 20.948978 47.500415 -0.846268 1.114053 0.053654 -0.008268 -395276.000000 0 0 1
-27.168595 31.056645 20.857878 46.235255 -0.852075 1.102771 0.043561 -0.010827 -138111.000000 0 0 1
-27.321495 30.007145 21.796978 46.065183 -0.832210 1.077903 0.046354 -0.012290 -81167.000000 0 0 1
-26.316495 28.881445 21.553278 44.623307 -0.831833 1.066713 0.038259 -0.008758 -1021240.000000 0 0 1
-25.010295 29.185445 21.872978 44.223661 -0.862285 1.053423 0.035968 -0.008845 -583935.000000 0 0 1
-24.136895 28.268945 21.182478 42.783412 -0.864082 1.052835 0.025066 -0.015463 1436660.000000 0 0 1
-22.591695 28.622345 21.254578 42.206402 -0.902612 1.043051 0.021461 -0.010977 966481.000000 0 0 1
-22.144895 28.575445 22.592078 42.630440 -0.911510 1.012253 0.026590 -0.005737 -285731.000000 0 0 1
-20.767895 28.783845 22.582778 42.068956 -0.945778 1.004152 0.040029 -0.008915 -439226.000000 0 0 1
-20.151895 28.927745 24.054298 42.679299 -0.962337 0.972052 0.038412 -0.001657 -223264.000000 0 0 1
-20.525095 27.850445 24.864888 42.605040 -0.935683 0.947624 0.055481 -0.000572 441112.000000 0 0 1
-20.136995 27.931445 26.264568 43.306948 -0.946152 0.919177 0.048582 -0.006466 686334.000000 0 0 1
-18.618095 28.058345 26.651448 42.944195 -0.984955 0.901280 0.062966 0.000900 517870.000000 0 0 1
-18.026395 29.320145 26.449828 43.407548 -1.019556 0.915572 0.039309 -0.002179 -317170.000000 0 0 1
-16.696995 29.476245 26.863428 43.235199 -1.055407 0.900354 0.048884 0.000638 -210461.000000 0 0 1
-16.385295 29.777145 28.354968 44.262405 -1.067750 0.875503 0.047405 0.006760 -260327.000000 0 0 1
-16.599995 28.666545 29.192798 44.153710 -1.045907 0.848428 0.062477 0.001070 157423.000000 0 0 1
-16.797895 28.992745 30.579288 45.363437 -1.045675 0.831057 0.057193 0.005160 -772.775000 0 0 1
-16.553395 27.735845 31.444118 45.077983 -1.032716 0.798825 0.064027 -0.002550 370589.000000 0 0 1
-15.167895 27.467645 31.656178 44.571854 -1.066258 0.780974 0.068524 0.006339 454590.000000 0 0 1
-14.784895 26.328145 32.378638 44.273474 -1.059119 0.750522 0.068731 0.004753 -47138.500000 0 0 1
-15.170495 26.320545 33.910559 45.528464 -1.047930 0.730530 0.073234 0.002248 -672124.000000 0 0 1
-16.518795 26.209945 34.201141 46.147046 -1.008431 0.736039 0.079993 -0.004523 -951693.000000 0 0 1
-16.957195 27.012445 -33.319272 46.123666 -1.010218 2.378049 0.083404 -0.002862 327234.000000 0 0 1
-18.362195 26.631545 -32.800802 46.068449 -0.967159 2.363141 0.059676 -0.005123 100781.000000 0 0 1
-19.405895 26.871145 -33.720122 47.283124 -0.945337 2.364783 0.050061 -0.008632 -975628.000000 0 0 1
-20.516395 26.171145 -33.260382 47.033013 -0.905930 2.356285 0.052835 -0.008668 -94430.900000 0 0 1
-21.684395 26.257245 34.310717 48.341299 -0.880494 0.781639 0.057401 -0.017484 339014.000000 0 0 1
-21.713795 25.532645 33.154629 47.144822 -0.866051 0.790837 0.051141 -0.012567 -185946.000000 0 0 1
-21.593295 24.141945 33.246016 46.415531 -0.841067 0.772355 0.039482 -0.009741 -318638.000000 0 0 1
-22.220695 23.366945 32.064318 45.474101 -0.810537 0.788216 0.036341 -0.004754 1447310.000000 0 0 1
-23.673895 23.323045 32.007558 46.140021 -0.777933 0.804176 0.032417 -0.005992 1156090.000000 0 0 1
-23.998295 23.061845 30.671598 45.260510 -0.765502 0.826210 0.042707 -0.003393 296946.000000 0 0 1
-25.473695 22.649745 30.432048 45.694963 -0.726784 0.841986 0.040816 -0.002500 263435.000000 0 0 1
-25.713495 21.348745 30.950548 45.550951 -0.692918 0.823755 0.038224 -0.004733 36750.300000 0 0 1
-26.807495 20.739845 30.289788 45.456069 -0.658471 0.841489 0.043214 -0.008193 -58372.000000 0 0 1
-27.214195 19.376145 30.934318 45.529984 -0.618725 0.823814 0.061103 -0.015364 -143921.000000 0 0 1
-27.992195 19.470045 32.144088 46.860303 -0.607735 0.814880 0.059432 -0.008810 259852.000000 0 0 1
-28.194595 18.243445 32.889996 47.005429 -0.574302 0.795810 0.049312 -0.004007 128295.000000 0 0 1
-28.957195 17.060645 32.240618 46.572977 -0.532417 0.806180 0.030135 -0.009320 757614.000000 0 0 1
-30.369695 17.209445 32.032028 47.376515 -0.515548 0.828318 0.025237 -0.011119 832037.000000 0 0 1
-31.076595 16.033245 31.642708 47.160160 -0.476308 0.835290 0.017531 -0.010295 190955.000000 0 0 1
-32.583995 16.344745 31.485728 48.168646 -0.464942 0.858391 0.003527 0.001596 -89567.700000 0 0 1
-33.168795 16.601545 32.744755 49.477260 -0.464061 0.847560 0.016052 0.002828 -1338360.000000 0 0 1
-34.531195 16.594345 32.622202 50.318821 -0.447976 0.865433 0.019134 -0.001524 -1348600.000000 0 0 1
-35.159895 16.940345 34.019115 51.773485 -0.448989 0.853863 0.027434 -0.002876 -524208.000000 0 0 1
35.192237 17.354245 34.098774 51.984515 0.458134 0.855368 0.018857 -0.007421 -591962.000000 0 0 1
34.931337 17.608545 -33.165552 51.285603 0.466914 2.274025 0.014196 -0.009419 199182.000000 0 0 1
33.480937 17.967745 -32.739132 50.156393 0.492541 2.281993 0.016151 -0.012505 475282.000000 0 0 1
32.725137 16.749145 -32.834082 49.290419 0.473053 2.299811 0.029024 -0.001228 65521.500000 0 0 1
31.399737 16.934645 -32.373392 48.174290 0.494610 2.307710 0.030917 -0.001013 80028.500000 0 0 1
30.497137 15.694745 -32.605542 47.323586 0.475283 2.330893 0.030058 0.005810 -92454.300000 0 0 1
30.144637 15.488645 -33.914082 47.945409 0.474635 2.356535 0.034498 -0.007834 -165095.000000 0 0 1
29.606137 14.208345 -34.201301 47.414443 0.447449 2.376512 0.032621 -0.007234 -161530.000000 0 0 1
30.651637 13.098145 34.290349 47.821672 0.403836 0.771241 0.039001 -0.003072 -431179.000000 0 0 1
31.031437 12.696645 -33.110812 47.121978 0.388373 2.349928 0.040384 0.000499 289343.000000 0 0 1
31.753337 11.426645 -33.182332 47.327686 0.345429 2.347762 0.036000 -0.000724 200766.000000 0 0 1
17.028137 -21.088355 10.313588 29.000798 -0.891519 1.207207 0.024015 -0.019715 -450863.000000 0 0 1
16.951037 -22.406655 10.773888 30.091071 -0.923137 1.204626 0.038798 -0.026826 -744649.000000 0 0 1
18.176837 -23.028855 10.917488 31.303628 -0.902610 1.214547 0.028660 -0.022534 -951303.000000 0 0 1
18.087937 -24.379555 11.721888 32.541341 -0.932480 1.202298 0.040839 -0.024918 -279936.000000 0 0 1
17.339237 -25.370275 11.095088 32.671103 -0.971266 1.224305 0.040929 -0.025136 -216352.000000 0 0 1
16.012537 -25.466835 11.558888 32.226836 -1.009497 1.203951 0.056928 -0.024102 254337.000000 0 0 1
15.087137 -26.482805 10.798788 32.335345 -1.052958 1.230292 0.065606 -0.014352 329254.000000 0 0 1
15.059437 -26.156105 9.428988 31.620157 -1.048397 1.267995 0.065599 -0.022972 -189631.000000 0 0 1
14.048137 -26.756795 8.700988 31.448107 -1.087325 1.290461 0.068792 -0.008473 -449610.000000 0 0 1
13.894937 -26.212705 7.271488 30.545863 -1.083372 1.330437 0.074344 -0.015172 49603.000000 0 0 1
13.547837 -24.827355 7.240588 29.195335 -1.071274 1.320176 0.080553 -0.025726 207331.000000 0 0 1
12.913737 -24.428555 6.029688 28.282080 -1.084506 1.355949 0.068874 -0.005934 58421.200000 0 0 1
12.376637 -23.011055 6.057588 26.821338 -1.077324 1.342981 0.068697 -0.008553 -234423.000000 0 0 1
11.539437 -22.664455 4.984988 25.916911 -1.099862 1.377245 0.060037 -0.002265 -51017.900000 0 0 1
11.090037 -21.328555 5.132688 24.581308 -1.091307 1.360444 0.060102 -0.004174 -36489.600000 0 1 0
10.185537 -20.884455 3.992788 23.576429 -1.117030 1.400621 0.038807 -0.002081 220304.000000 0 1 0
10.968837 -20.369655 2.927188 23.319663 -1.076834 1.444940 0.031413 -0.000786 521580.000000 0 1 0
10.044037 -19.768855 2.060388 22.269610 -1.100711 1.478144 0.012347 0.008652 -40186.000000 0 1 0
10.832137 -19.195255 0.885788 22.058505 -1.057030 1.530629 0.023820 0.010567 494235.000000 0 1 0
11.731437 -18.124955 1.185288 21.622801 -0.996354 1.515952 0.023080 0.009505 197043.000000 0 1 0
12.446937 -17.706655 0.029688 21.643770 -0.958092 1.569425 0.035033 0.000634 -328429.000000 0 1 0
13.664237 -16.814555 0.189888 21.667411 -0.888393 1.562032 0.030628 0.010259 -523597.000000 0 1 0
14.781037 -17.540155 0.632988 22.946390 -0.870557 1.543207 0.042691 0.001197 -994046.000000 0 1 0
15.943137 -16.793855 0.412988 23.160047 -0.811379 1.552963 0.040268 -0.003948 736350.000000 0 1 0
17.154837 -17.402855 1.276488 24.469925 -0.792575 1.518607 0.034143 -0.001824 946884.000000 0 1 0
17.631137 -18.626955 0.711988 25.657892 -0.812856 1.543044 0.025497 -0.003917 -37014.300000 0 0 1
18.846537 -18.985655 1.331488 26.784696 -0.789075 1.521065 0.016120 0.003060 159645.000000 0 0 1
19.325937 -20.370455 0.869288 28.092757 -0.811705 1.539848 0.002098 0.001539 -112101.000000 0 0 1
18.503137 -21.430855 1.355088 28.345792 -0.858581 1.522973 0.017102 0.006468 227486.000000 0 0 1
18.587437 -22.624755 0.581188 29.286689 -0.883051 1.550950 0.016451 0.001968 -560623.000000 0 0 1
17.503037 -23.627555 0.926588 29.418978 -0.933216 1.539295 0.022435 0.003131 -223200.000000 0 0 1
17.848137 -24.349955 2.158888 30.267757 -0.938274 1.499409 0.015904 0.007187 1060490.000000 0 0 1
16.651237 -25.052375 2.548888 30.189105 -0.984186 1.486265 0.031108 0.009939 725091.000000 0 0 1
16.861437 -25.836775 3.808088 31.086148 -0.992586 1.447987 0.044267 -0.000147 893096.000000 0 0 1
17.820937 -26.925565 3.748188 32.505704 -0.986129 1.455231 0.041307 0.001407 1473350.000000 0 0 1
19.180137 -26.585375 4.080588 33.034997 -0.945816 1.446957 0.047174 0.005922 856126.000000 0 0 1
20.226637 -27.726935 4.027488 34.556048 -0.940549 1.453981 0.055790 0.001961 2188.890000 0 0 1
20.344537 -28.287725 2.738788 34.951346 -0.947300 1.492356 0.028647 0.007031 -126450.000000 0 0 1
21.134537 -29.443115 2.657488 36.340445 -0.948218 1.497603 0.024982 0.007853 -216445.000000 0 0 1
20.393537 -30.698925 3.166388 36.991167 -0.984429 1.485093 0.032108 0.001234 -26005.500000 0 0 1
20.251537 -30.941215 4.568588 37.260644 -0.991253 1.447875 0.059661 -0.001338 -164520.000000 0 0 1
19.465037 -32.068845 4.837388 37.824580 -1.025263 1.442555 0.055705 -0.017361 -286818.000000 0 0 1
19.372837 -32.373665 6.389288 38.264658 -1.031544 1.403034 0.073749 -0.027753 783616.000000 0 0 1
20.606037 -32.965585 6.856388 39.475925 -1.012141 1.396226 0.053355 -0.042558 961307.000000 0 0 1
20.388137 -33.586525 8.113188 40.119255 -1.025221 1.367165 0.049128 -0.037677 -808237.000000 0 0 1
21.508837 34.274901 8.603688 41.369341 1.010373 1.361295 0.055193 -0.035524 -168333.000000 0 0 1
22.632937 -33.653765 9.035088 41.550675 -0.978750 1.351598 0.065718 -0.036500 313104.000000 0 0 1
23.685537 34.201294 9.376988 42.645763 0.965099 1.349104 0.083597 -0.036661 -15215.400000 0 0 1
24.659537 -33.911675 10.458288 43.214237 -0.942068 1.326359 0.077089 -0.027624 -33360.000000 0 0 1
25.405137 -32.862755 9.837088 42.686649 -0.912695 1.338257 0.056045 -0.023638 291023.000000 0 0 1
26.139937 -31.971205 10.670288 42.653363 -0.885410 1.317948 0.038536 -0.010761 239975.000000 0 0 1
26.623337 -30.798615 9.793788 41.872128 -0.857983 1.334712 0.035221 -0.016163 -470475.000000 0 0 1
25.545137 -29.970725 9.418588 40.490841 -0.864947 1.336036 0.030087 -0.018660 120443.000000 0 0 1
25.906637 -29.211105 8.286488 39.913762 -0.845279 1.361665 0.022011 -0.015780 -144778.000000 0 0 1
25.664337 -27.707825 8.458788 38.703138 -0.823667 1.350462 0.017951 -0.003052 272953.000000 0 0 1
26.578237 -27.051575 9.358588 39.061152 -0.794224 1.328855 0.016473 -0.013280 381672.000000 0 0 1
26.187737 -25.699005 9.600788 37.926397 -0.775979 1.314869 0.021604 -0.017230 -178213.000000 0 0 1
27.135037 -24.996055 10.619988 38.391369 -0.744390 1.290517 0.037636 -0.026448 1140950.000000 0 0 1
28.426037 -24.772355 9.988988 39.006270 -0.716826 1.311825 0.021244 -0.020393 88963.900000 0 0 1
29.226437 -23.971355 10.816688 39.316806 -0.686934 1.292086 0.035921 -0.026875 242022.000000 0 0 1
30.541437 -23.829655 9.979488 40.002775 -0.662576 1.318664 0.047551 -0.023036 241382.000000 0 0 1
30.291237 -22.906955 8.924988 39.012089 -0.647472 1.339977 0.039595 -0.018736 -851661.000000 0 0 1
31.367037 -22.656355 8.104188 39.533269 -0.625535 1.364336 0.048319 -0.020036 -876722.000000 0 0 1
30.988037 -21.758655 6.920188 38.491383 -0.612176 1.390028 0.054240 -0.009246 -315064.000000 0 0 1
30.656337 -20.418455 7.229488 37.536513 -0.587571 1.376986 0.054405 -0.007371 -148454.000000 0 0 1
31.085837 -19.530255 6.228388 37.236447 -0.560946 1.402740 0.051562 -0.006384 35938.900000 0 0 1
30.570137 -18.093455 6.439688 36.102299 -0.534418 1.391463 0.063235 -0.008456 -99198.000000 0 0 1
31.222237 -17.544155 7.545588 36.600019 -0.511943 1.363144 0.070624 -0.010461 29588.100000 0 0 1
30.899937 -16.193255 7.768888 35.740499 -0.482706 1.351678 0.071145 -0.005829 -291159.000000 0 0 1
31.579837 -15.564055 8.958888 36.328881 -0.457910 1.321621 0.071883 -0.018102 209030.000000 0 0 1
32.991437 -15.405355 8.841388 37.469055 -0.436860 1.332585 0.071445 -0.013884 450385.000000 0 0 1
33.585437 -15.004355 10.076088 38.139741 -0.420149 1.303434 0.071111 -0.028576 -123717.000000 0 0 1
35.112037 -14.984255 10.114988 39.492987 -0.403357 1.311789 0.072223 -0.033977 -503175.000000 0 0 1
35.777737 -14.100755 9.276888 39.559303 -0.375428 1.334086 0.075893 -0.027400 167549.000000 0 0 1
-34.605495 -14.650355 9.005288 38.642831 0.400475 1.335595 0.077016 -0.030047 480709.000000 0 0 1
-33.896095 -13.679655 8.032788 37.424643 0.383585 1.354474 0.079288 -0.026058 -727344.000000 0 0 1
-34.349695 -13.656355 6.712388 37.569319 0.378408 1.391165 0.079779 -0.025500 200866.000000 0 0 1
-33.437595 -13.007255 5.799688 36.344158 0.370989 1.410534 0.068912 -0.016131 1089370.000000 0 0 1
-32.270495 -13.970355 5.262688 35.556315 0.408555 1.422241 0.050428 -0.008565 546828.000000 0 0 1
-31.414295 -14.320055 6.306488 35.095494 0.427704 1.390120 0.050958 -0.009239 -847891.000000 0 0 1
-30.415395 -15.171955 5.884088 34.495028 0.462707 1.399380 0.039682 -0.002767 -663254.000000 0 0 1
-29.790095 -15.772655 7.123288 34.452397 0.486937 1.362537 0.031801 -0.006000 -238918.000000 0 0 1
-30.651395 -16.743655 7.699788 35.765133 0.499968 1.353810 0.035698 -0.014838 267312.000000 0 0 1
-30.375195 -16.913355 9.054888 35.926384 0.508060 1.316009 0.024856 -0.011254 -152979.000000 0 0 1
-31.393195 -17.862955 9.703688 37.400260 0.517319 1.308338 -0.001392 -0.013067 -187419.000000 0 0 1
-32.677695 -17.283755 9.852188 38.257360 0.486512 1.310337 0.030060 -0.015256 507142.000000 0 0 1
-33.714695 -17.890855 10.595988 39.611088 0.487869 1.299998 0.056265 -0.025081 311684.000000 0 0 1
-34.258595 -19.254055 10.117188 40.579890 0.512026 1.318823 0.061533 -0.024087 -879191.000000 0 0 1
-33.396195 -20.377655 10.211788 40.433097 0.547870 1.315471 0.050483 -0.013956 -334086.000000 0 0 1
-32.901595 -20.819355 11.466688 40.588735 0.564172 1.284388 0.031183 -0.026820 -34444.700000 0 0 1
-33.927695 -21.425155 12.512988 42.032138 0.563256 1.268513 0.060522 -0.035222 412551.000000 0 0 1
-34.284795 -22.800355 12.250988 42.958004 0.586867 1.281597 0.057947 -0.036037 530537.000000 0 0 1
-35.422295 -22.996455 11.392488 43.742025 0.575819 1.307311 0.059877 -0.025899 340596.000000 0 0 1
35.737437 -24.442955 11.384988 44.768744 -0.599879 1.313666 0.057296 -0.015430 -201983.000000 0 0 1
35.243137 -24.832455 12.632688 44.925654 -0.613809 1.285761 0.097473 -0.010325 -54633.100000 0 0 1
34.859937 -26.212975 12.580288 45.393821 -0.644749 1.289984 0.051518 0.000467 -660391.000000 0 0 1
33.945337 -26.467225 13.731088 45.181221 -0.662241 1.262001 0.054922 -0.010066 -500717.000000 0 0 1
32.765537 -25.696915 13.634088 43.815525 -0.665073 1.254372 0.044160 -0.005869 226183.000000 0 0 1
32.037137 -25.481795 14.855988 43.547680 -0.671919 1.222664 0.038603 0.005149 -155899.000000 0 0 1
31.731137 -24.005455 15.262288 42.615307 -0.647665 1.204520 0.066797 -0.007051 480566.000000 0 0 1
32.831237 -23.213955 15.745888 43.182298 -0.615455 1.197553 0.076536 -0.014807 330494.000000 0 0 1
33.834537 -22.824255 14.847588 43.430098 -0.593464 1.221887 0.066527 -0.017176 -397522.000000 0 0 1
34.979237 -22.134155 15.606188 44.238230 -0.564174 1.210260 0.053639 -0.014387 -448691.000000 0 0 1
34.908237 -20.766955 16.005588 43.658107 -0.536662 1.195431 0.055276 -0.007617 163256.000000 0 0 1
34.036637 -20.462555 17.095688 43.237384 -0.541296 1.164302 0.059091 -0.016411 120223.000000 0 0 1
34.138137 -19.003455 17.659488 42.876581 -0.507945 1.146293 0.046669 -0.012470 -164755.000000 0 0 1
33.614437 -17.942355 16.848588 41.662134 -0.490297 1.154463 0.063969 -0.019722 200186.000000 0 0 1
33.455637 -16.660255 17.493588 41.265838 -0.462031 1.133023 0.057673 -0.019109 441528.000000 0 0 1
34.735437 -15.903555 18.027588 42.242959 -0.429361 1.129890 0.038769 -0.015353 699197.000000 0 0 1
35.252837 -16.495155 19.271388 43.430854 -0.437648 1.111044 0.027112 -0.001357 1121460.000000 0 0 1
-35.332995 -15.661155 19.738588 43.397053 0.417222 1.098607 0.010807 -0.002901 795706.000000 0 0 1
-34.851395 -15.730355 21.231888 43.736219 0.423980 1.063915 0.005628 0.007153 151342.000000 0 0 1
-34.109395 -16.896755 21.603788 43.768423 0.459936 1.054580 -0.006002 0.014187 379759.000000 0 0 1
-33.754395 -16.855355 22.989288 44.181099 0.463130 1.023545 -0.000305 0.013726 -413296.000000 0 0 1
-32.900895 -18.031655 23.418388 44.227032 0.501352 1.012781 -0.008012 0.021937 -847652.000000 0 0 1
-33.587795 -19.293455 23.384588 45.246175 0.521397 1.027652 -0.007222 0.019067 486298.000000 0 0 1
-32.796195 -20.460855 23.640388 45.311201 0.557793 1.021914 -0.018122 0.021438 -87668.200000 0 0 1
-31.530495 -20.813155 22.812488 44.133538 0.583440 1.027574 -0.030532 0.034784 9322.130000 0 0 1
-30.513795 -19.842055 22.917788 43.011903 0.576562 1.008862 -0.024542 0.041425 -1292980.000000 0 0 1
-29.356395 -20.388155 22.436888 42.200577 0.607028 1.010222 -0.022443 0.034435 -720664.000000 0 0 1
-28.138495 -19.426855 22.644288 41.011479 0.604255 0.985861 -0.006060 0.041102 123304.000000 0 0 1
-27.601795 -19.314455 23.912988 41.312689 0.610561 0.953504 0.003967 0.030293 640062.000000 0 0 1
-26.540495 -18.341555 23.925088 40.164914 0.604713 0.932695 0.030924 0.020509 311007.000000 0 0 1
-26.103595 -18.004655 25.383888 40.619048 0.603806 0.895760 0.025422 0.012189 -714708.000000 0 0 1
-25.036695 -17.083755 25.341488 39.507997 0.598781 0.874440 0.024549 0.006753 130649.000000 0 0 1
-24.603095 -16.555055 26.598888 39.835700 0.592295 0.839662 0.021309 -0.001906 -226052.000000 0 0 1
-23.739295 -17.434255 27.467388 40.273624 0.633445 0.820276 0.024393 -0.001235 -1126540.000000 0 0 1
-24.237695 -18.698355 27.820688 41.365263 0.657093 0.833132 0.030806 -0.001810 -97834.900000 0 0 1
-23.247995 -19.530255 28.406388 41.579117 0.698709 0.818676 0.036525 -0.007630 -102142.000000 0 0 1
-23.893395 -20.849555 28.849088 42.870364 0.717473 0.832623 0.029271 0.002594 7738.820000 0 0 1
-24.764895 -20.488955 29.912988 43.907678 0.691190 0.821300 0.023272 -0.005809 225887.000000 0 0 1
-25.348695 -21.657955 30.533188 45.209500 0.707044 0.829329 0.019125 -0.001219 -682658.000000 0 0 1
-26.458795 -21.317255 31.500588 46.333360 0.678193 0.823213 0.030819 -0.007278 -1425000.000000 0 0 1
-26.115695 -20.526255 32.616388 46.553039 0.666130 0.794518 0.038000 -0.015295 1080370.000000 0 0 1
-27.212495 -20.196055 33.542388 47.681153 0.638465 0.790524 0.033771 -0.014319 530652.000000 0 0 1
-28.363195 -19.386355 32.987088 47.628243 0.599569 0.805716 0.029666 -0.016424 -623221.000000 0 0 1
-29.227795 -20.087755 32.093288 47.830545 0.602140 0.835268 0.033209 -0.021074 -37421.100000 0 0 1
-30.547295 -19.639155 32.271588 48.582806 0.571375 0.844294 0.031724 -0.027444 -528763.000000 0 0 1
-31.571895 -20.136855 31.249188 48.772833 0.567758 0.875375 0.028707 0.000387 -370444.000000 0 0 1
-31.476095 -19.595655 29.948088 47.661538 0.556840 0.891367 0.017438 -0.010290 465441.000000 0 0 1
-32.514695 -20.131555 29.135788 48.076804 0.554383 0.919741 0.014912 -0.007659 454422.000000 0 0 1
-33.223395 -19.122755 28.161088 47.565961 0.522271 0.937205 0.004227 -0.000796 -110793.000000 0 0 1
-34.333795 -19.646855 27.489288 48.171250 0.519751 0.963490 -0.004722 0.004767 168170.000000 0 0 1
-34.862995 -18.694155 26.545188 47.639761 0.492200 0.979778 0.011457 0.011204 666339.000000 0 0 1
35.599137 -19.111755 25.627388 47.846847 -0.492699 1.005563 0.000894 0.006474 825801.000000 0 0 1
34.362537 -19.228755 26.309088 47.357123 -0.510172 0.981776 0.013640 -0.008408 460829.000000 0 0 1
33.424737 -20.071055 25.643288 46.665175 -0.540776 0.989011 0.046900 -0.019193 604652.000000 0 0 1
32.134937 -20.268055 26.485588 46.313439 -0.562700 0.962004 0.039664 -0.024274 654034.000000 0 0 1
31.202837 -19.190455 26.681288 45.318669 -0.551392 0.941287 0.026205 -0.029893 320743.000000 0 0 1
30.238537 -19.501455 27.619988 45.360110 -0.572796 0.916117 0.024126 -0.019257 -818833.000000 0 0 1
-29.257273 -5.288555 34.022718 45.182986 0.178829 0.718189 0.019618 -0.012237 -517043.000000 0 0 1
-30.167903 -5.318555 32.998669 45.025566 0.174505 0.748240 0.023521 -0.005706 -188832.000000 0 0 1
-29.989343 -4.155455 32.178438 44.182354 0.137688 0.754944 0.040829 -0.012330 -116819.000000 0 0 1
-30.571743 -4.196055 30.740938 43.557360 0.136400 0.787304 0.029349 -0.012439 57225.700000 0 0 1
-30.167003 -5.260955 29.850298 42.764074 0.172658 0.798164 0.031892 -0.009413 -39209.800000 0 0 1
-28.886973 -5.121255 29.265058 41.438244 0.175463 0.786633 0.028949 -0.011740 73023.900000 0 0 1
-28.648723 -6.163055 28.163328 40.643642 0.211896 0.805247 0.019301 -0.008394 -301706.000000 0 0 1
-29.262993 -5.895555 26.946878 40.214606 0.198807 0.836484 0.028906 -0.000862 -166710.000000 0 0 1
-28.958133 -6.911055 25.990458 39.520122 0.234275 0.853100 0.050218 -0.001813 32732.400000 0 0 1
-29.689743 -6.629455 24.677168 39.171331 0.219687 0.889268 0.034918 0.003168 -77781.700000 0 0 1
-29.225993 -5.459655 24.054398 38.243700 0.184680 0.890560 0.041064 0.002311 -525222.000000 0 0 1
-30.043533 -5.014655 23.038378 38.190673 0.165388 0.923231 0.049085 0.001859 -313559.000000 0 0 1
-29.541623 -3.719455 22.371378 37.242723 0.125247 0.926431 0.034162 0.000881 -285879.000000 0 0 1
-28.334863 -3.903755 21.695378 35.899766 0.136910 0.921869 0.035242 0.003642 -497049.000000 0 0 1
-28.020013 -2.735055 20.939078 35.086274 0.097303 0.931304 0.038868 0.005923 516452.000000 0 0 1
-26.550193 -2.732055 20.399078 33.593143 0.102541 0.918215 0.029927 0.006384 505626.000000 0 0 1
-26.231233 -3.505955 19.282978 32.744504 0.132868 0.941109 0.041292 0.001617 -353980.000000 0 0 1
-25.058043 -3.065455 18.653178 31.388590 0.121729 0.934443 0.046182 -0.000822 -484377.000000 0 0 1
-24.730063 -3.792155 17.362278 30.453327 0.152157 0.964135 0.057987 -0.006647 847.333000 0 0 1
-25.667713 -3.385955 16.351078 30.621135 0.131158 1.007495 0.050357 -0.001711 621843.000000 0 0 1
-25.502653 -4.263955 15.224778 30.006008 0.165664 1.038642 0.051574 -0.007641 -105985.000000 0 0 1
-26.776343 -4.379855 14.360278 30.698099 0.162136 1.084007 0.058095 -0.013196 121082.000000 0 0 1
-27.153243 -3.173955 13.701178 30.579321 0.116362 1.106209 0.053967 -0.014169 603727.000000 0 0 1
-28.491023 -3.287955 13.187978 31.566942 0.114895 1.139798 0.053126 -0.018518 517317.000000 0 0 1
-28.873413 -1.983855 12.454878 31.507676 0.068601 1.164406 0.052477 -0.004426 -40462.400000 0 0 1
-28.179823 -1.818155 11.169178 30.367065 0.064430 1.194148 0.068520 -0.013976 373481.000000 0 0 1
-28.359553 -0.623055 10.432478 30.223981 0.021966 1.218374 0.069285 -0.007840 106047.000000 0 0 1
-29.593713 -0.535555 9.479978 31.079650 0.018095 1.260835 0.068835 0.000272 369465.000000 0 0 1
-29.556983 -1.260455 8.265578 30.716832 0.042619 1.298349 0.069298 -0.008178 -441372.000000 0 0 1
-30.843643 -1.495055 7.762578 31.840589 0.048434 1.324519 0.066124 -0.012138 -450715.000000 0 0 1
-30.753453 -2.197255 6.328378 31.474611 0.071326 1.368353 0.078089 -0.018621 -350234.000000 0 0 1
-30.393223 -1.407755 5.232978 30.872542 0.046285 1.400471 0.086536 -0.024626 333192.000000 0 0 1
-31.440983 -0.561755 4.806378 31.811197 0.017865 1.419125 0.065862 -0.015545 -48559.700000 0 0 1
-31.095813 0.031245 3.375078 31.278454 -0.001005 1.462682 0.061803 -0.014424 -11149.500000 0 0 1
-31.363413 -0.879055 2.335378 31.462524 0.028021 1.496501 0.059576 -0.031035 468707.000000 0 0 1
-30.804053 -0.454055 1.085678 30.826523 0.014739 1.535570 0.059299 -0.035442 -1592.830000 0 0 1
-31.543043 -1.135955 -0.095522 31.563635 0.035997 1.573823 0.062224 -0.029420 226160.000000 0 0 1
-32.909023 -0.759655 -0.205622 32.918431 0.023079 1.577043 0.072219 -0.021722 258555.000000 0 0 1
-33.470553 -1.293255 -1.371422 33.523592 0.038619 1.611717 0.070485 -0.021197 -470342.000000 0 0 1
-34.987054 -1.067355 -1.431122 35.032575 0.030498 1.611659 0.067273 -0.015119 -263404.000000 0 0 1
-35.635666 -1.732555 -0.343822 35.679415 0.048580 1.580433 0.071393 -0.011890 1115800.000000 0 0 1
34.606880 -1.658055 -0.403622 34.648928 -0.047875 1.582445 0.088461 -0.010655 966909.000000 0 0 1
33.894130 -2.768555 0.359778 34.008916 -0.081502 1.560217 0.084228 -0.013779 -429943.000000 0 0 1
33.958340 -2.770355 1.763278 34.116753 -0.081401 1.519090 0.078788 -0.011739 197923.000000 0 0 1
33.263430 -3.883855 2.258778 33.565491 -0.116234 1.503451 0.070366 -0.004551 -338519.000000 0 0 1
33.508720 -4.196755 3.765578 33.979797 -0.124595 1.459750 0.065765 0.005933 -78534.600000 0 0 1
33.003790 -3.190355 4.569178 33.470971 -0.096367 1.433857 0.069853 -0.005903 49253.100000 0 0 1
33.184480 -3.358055 5.959878 33.882243 -0.100850 1.393977 0.072871 -0.012951 -151720.000000 0 0 1
32.603280 -2.265155 6.874778 33.397116 -0.069365 1.363465 0.078300 -0.017507 1133940.000000 0 0 1
31.164950 -2.278955 7.017278 32.026394 -0.072996 1.349895 0.083727 -0.018760 1184100.000000 0 0 1
30.667970 -1.238355 7.857878 31.682868 -0.040358 1.320164 0.094420 -0.015212 10825.100000 0 0 1
29.155460 -1.402155 8.154878 30.306912 -0.048055 1.298362 0.074616 -0.011560 242260.000000 0 0 1
28.300940 -1.198855 7.029178 29.185438 -0.042336 1.327560 0.072680 -0.010605 -322166.000000 0 0 1
26.945860 -1.171655 7.313478 27.945288 -0.043454 1.306006 0.073422 -0.004168 -346468.000000 0 0 1
26.150970 -2.524355 7.252478 27.255165 -0.096232 1.301456 0.073627 -0.016457 -265278.000000 0 0 1
26.591870 -3.433855 8.271178 28.059424 -0.128421 1.271578 0.063429 -0.018012 789442.000000 0 0 1
25.836570 -4.631655 8.168778 27.490171 -0.177383 1.269087 0.057733 -0.020178 -407205.000000 0 0 1
26.296570 -5.689155 9.174178 28.426073 -0.213062 1.242175 0.044106 -0.014122 -597386.000000 0 0 1
25.876370 -5.417455 10.473378 28.436367 -0.206378 1.193607 0.034846 -0.006560 479485.000000 0 0 1
26.363770 -6.383255 11.396478 29.422339 -0.237551 1.173051 0.029041 -0.006612 -514260.000000 0 0 1
25.396070 -6.611555 12.544978 29.086930 -0.254684 1.124871 0.033985 -0.009450 80192.600000 0 0 1
24.257770 -7.375655 12.163378 28.120943 -0.295171 1.123490 0.054197 -0.020736 57390.600000 0 0 1
23.215670 -7.233155 13.104178 27.622552 -0.302031 1.076512 0.066701 -0.017327 -288812.000000 0 0 1
22.190170 -8.328955 12.922778 26.995802 -0.359073 1.071628 0.078559 -0.017671 -473246.000000 0 0 1
22.628870 -9.584555 13.389678 27.985942 -0.400646 1.071916 0.067804 -0.025606 642335.000000 0 0 1
21.523570 -10.506555 13.336878 27.413940 -0.454116 1.062717 0.090367 -0.032722 556375.000000 0 0 1
21.555970 -11.480155 14.514678 28.410028 -0.489366 1.034565 0.057426 -0.025322 -188523.000000 0 0 1
21.342170 -10.927855 15.828378 28.730538 -0.473226 0.987324 0.057344 -0.032308 330363.000000 0 0 1
21.735570 -11.899655 16.765878 29.918748 -0.500902 0.975951 0.048154 -0.030786 -208582.000000 0 0 1
21.559470 -11.614755 18.281578 30.560258 -0.494150 0.929526 0.062214 -0.025882 376845.000000 0 0 1
20.189270 -11.667155 18.687778 29.882473 -0.524003 0.895183 0.067004 -0.028279 402128.000000 0 0 1
20.040870 -11.931455 20.052878 30.758967 -0.536998 0.860661 0.071886 -0.019250 160240.000000 0 0 1
20.293270 -10.716755 21.030778 31.128111 -0.485869 0.828991 0.056789 -0.019792 -127024.000000 0 0 1
19.368870 -9.622955 21.076878 30.199159 -0.461105 0.798294 0.054256 -0.017924 -36361.700000 0 0 1
19.613070 -8.552455 20.167978 29.403475 -0.411200 0.814950 0.066578 -0.017149 -1045720.000000 0 0 1
20.658770 -7.491055 20.710078 30.196159 -0.347863 0.815023 0.062957 -0.010634 502520.000000 0 0 1
21.936970 -7.984455 21.011778 31.408231 -0.349068 0.837948 0.072716 -0.012985 -181817.000000 0 0 1
22.684970 -8.213355 19.834678 31.232700 -0.347379 0.882708 0.075548 -0.025155 -1222370.000000 0 0 1
23.975070 -9.003955 20.130978 32.575013 -0.359257 0.904615 0.073910 -0.027603 -469082.000000 0 0 1
23.810870 -10.355255 20.525978 33.098408 -0.410223 0.901862 0.057093 -0.026804 -210583.000000 0 0 1
25.036770 -11.024655 20.399578 34.125147 -0.414790 0.930058 0.054824 -0.029996 -20420.500000 0 0 1
24.915070 -12.553255 20.744778 34.766230 -0.466716 0.931422 0.045683 -0.036672 11984.500000 0 0 1
23.936270 -13.254355 19.993978 33.887787 -0.505706 0.939731 0.054260 -0.026613 368654.000000 0 0 1
24.092570 -14.655355 20.100278 34.630226 -0.546495 0.951545 0.043501 -0.028771 -164882.000000 0 0 1
23.158370 -15.250855 19.054878 33.645016 -0.582360 0.968725 0.038284 -0.010889 -486301.000000 0 0 1
23.591070 -15.002855 17.729578 33.105320 -0.566438 1.005637 0.035139 -0.013727 673511.000000 0 0 1
22.680470 -15.600955 16.783778 32.241103 -0.602531 1.023277 0.019558 -0.004641 116103.000000 0 0 1
22.363870 -17.130255 16.916978 32.859892 -0.653650 1.029997 0.021609 -0.008119 -40718.500000 0 0 1
23.427270 -17.996955 16.497478 33.836285 -0.655051 1.061495 0.046273 -0.007979 446482.000000 0 0 1
22.994570 -19.308755 16.590078 34.304650 -0.698489 1.066022 0.043065 0.000941 213244.000000 0 0 1
24.179870 -20.307355 16.444478 35.601624 -0.698569 1.090657 0.045114 -0.007882 179687.000000 0 0 1
24.620170 -20.407055 15.119478 35.372296 -0.692102 1.129139 0.043341 -0.023821 -96267.100000 0 0 1
25.451670 -21.531155 14.947978 36.535191 -0.702145 1.149286 0.043323 -0.027721 -256705.000000 0 0 1
26.057570 -21.593755 13.511778 36.439750 -0.691994 1.190928 0.028430 -0.040102 296138.000000 0 0 1
25.137870 -21.771755 12.417078 35.497967 -0.713764 1.213442 0.034902 -0.037878 442519.000000 0 0 1
25.900870 -21.663355 11.259078 35.593860 -0.696542 1.248948 0.026218 -0.035412 -1032740.000000 0 0 1
25.111770 -21.644055 9.959978 34.615998 -0.711367 1.278943 0.015461 -0.028014 -72545.000000 0 0 1
24.494370 -22.879655 9.529078 34.846178 -0.751327 1.293807 0.008656 -0.027288 282089.000000 0 0 1
23.302370 -23.146455 10.260578 34.409858 -0.782041 1.268003 0.004279 -0.011314 -372585.000000 0 0 1
22.293770 -23.969255 9.423178 34.063671 -0.821599 1.290506 0.009650 -0.009610 -313162.000000 0 0 1
22.868870 -25.211825 9.069578 35.226107 -0.834089 1.310396 0.006211 -0.010589 37608.700000 0 0 1
22.598570 -25.697395 7.740678 35.085176 -0.849474 1.348341 0.019718 -0.002373 -237775.000000 0 0 1
21.152170 -26.183665 7.447078 34.474013 -0.891294 1.353060 0.026429 -0.004546 361487.000000 0 0 1
20.212570 -25.141665 7.506078 33.120878 -0.893653 1.342183 0.011360 -0.005447 -543653.000000 0 0 1
18.877170 -25.574515 7.512178 32.662459 -0.934939 1.338725 0.052684 -0.023515 445032.000000 0 0 1
17.743370 -24.520255 7.648478 31.218093 -0.944393 1.323275 0.049841 -0.022784 381365.000000 0 0 1
17.549270 -23.791155 6.492678 30.267983 -0.935254 1.354610 0.062974 -0.014269 -75756.000000 0 0 1
16.594970 -22.774555 6.719278 28.969330 -0.941092 1.336720 0.063159 -0.016498 103012.000000 0 0 1
16.126470 -22.143655 5.363878 27.913719 -0.941351 1.377434 0.055707 -0.005080 70111.900000 0 0 1
15.232670 -21.038455 5.416278 26.532752 -0.944118 1.365216 0.059612 -0.009073 97904.900000 0 0 1
15.063970 -20.618255 4.056478 25.855186 -0.939819 1.413253 0.058641 -0.003596 468879.000000 0 0 1
14.137570 -19.398455 3.784778 24.300113 -0.941003 1.414408 0.049342 0.000281 491477.000000 0 1 0
14.832170 -18.247755 4.295378 23.904479 -0.888286 1.390126 0.027068 -0.004914 389753.000000 0 1 0
14.097870 -17.042155 4.166378 22.506526 -0.879668 1.384604 0.008104 0.004895 -8450.420000 0 1 0
14.997970 -15.817855 4.303078 22.218464 -0.811998 1.375893 -0.002527 0.000474 -436044.000000 0 1 0
15.411070 -15.607755 5.705778 22.664047 -0.791739 1.316303 0.005233 -0.006747 621402.000000 0 1 0
16.458570 -14.637055 5.879578 22.796872 -0.726887 1.309936 0.019149 -0.006620 1124840.000000 0 1 0
17.899370 -15.085555 5.450978 24.034862 -0.700298 1.342011 0.025297 -0.018156 492095.000000 0 1 0
18.850170 -14.014955 5.470878 24.118010 -0.639323 1.341967 0.047559 -0.015079 -192126.000000 0 1 0
20.148570 -14.487655 5.349378 25.386470 -0.623391 1.358487 0.067427 -0.019175 -664832.000000 0 0 1
21.279370 -13.461755 5.353278 25.742728 -0.564060 1.361315 0.073238 -0.020734 -276916.000000 0 0 1
21.369070 -12.882455 6.632178 25.818222 -0.542516 1.311004 0.079020 -0.021819 529351.000000 0 0 1
22.369670 -11.854455 6.584778 26.158929 -0.487307 1.316337 0.084277 -0.019366 195846.000000 0 0 1
22.525570 -11.289455 8.004478 26.437185 -0.464594 1.263195 0.082710 -0.014451 -213903.000000 0 0 1
23.190370 -12.137755 8.910378 27.649832 -0.482189 1.242683 0.082073 -0.013089 321526.000000 0 0 1
23.311570 -11.680955 10.217578 28.004873 -0.464511 1.197325 0.080158 -0.024283 -247768.000000 0 0 1
23.816870 -12.639555 11.234078 29.209693 -0.487903 1.176021 0.062713 -0.017519 -862791.000000 0 0 1
22.775970 -13.480355 11.608278 28.900120 -0.534418 1.157458 0.072229 -0.016167 189147.000000 0 0 1
23.181770 -14.646655 12.310478 30.057725 -0.563487 1.148823 0.057337 -0.019032 -756448.000000 0 0 1
21.960570 -15.483555 12.539678 29.652161 -0.614115 1.134161 0.053754 -0.027643 -435588.000000 0 0 1
21.028070 -14.965355 13.454378 29.106045 -0.618525 1.090261 0.046040 -0.023315 1494440.000000 0 0 1
19.771970 -15.722755 13.632078 28.704867 -0.671810 1.075941 0.039206 -0.022528 2308140.000000 0 0 1
18.592570 -14.816955 14.157378 27.670511 -0.672865 1.033702 0.039598 -0.026139 -37514.400000 0 0 1
18.725170 -14.332755 15.475778 28.205666 -0.653302 0.990016 0.038535 -0.020922 -11162.400000 0 0 1
18.250370 -13.036455 15.663978 27.356633 -0.620267 0.961142 0.063316 -0.037875 -542787.000000 0 0 1
16.762770 -12.691455 15.635278 26.201630 -0.648043 0.931377 0.060836 -0.043439 -821540.000000 0 0 1
16.122570 -12.927755 14.354778 25.161951 -0.675863 0.963687 0.059589 -0.049469 1637540.000000 0 0 1
14.670570 -12.837055 14.374178 24.220500 -0.718842 0.935431 0.064964 -0.046016 1471820.000000 0 1 0
14.165170 -11.376955 14.260578 23.096564 -0.676667 0.905321 0.055210 -0.044925 -447504.000000 0 1 0
14.688670 -10.511155 15.258078 23.644246 -0.621117 0.869356 0.051950 -0.034073 21724.100000 0 1 0
14.202270 -9.227055 15.107678 22.695483 -0.576156 0.842406 0.042928 -0.027165 -940374.000000 0 1 0
14.901570 -8.133455 16.007278 23.333299 -0.499622 0.814782 0.048911 -0.023803 44404.000000 0 1 0
16.296070 -7.998255 15.905078 24.135151 -0.456268 0.851307 0.051647 -0.037655 -35327.600000 0 1 0
16.998270 -8.901255 16.719978 25.450564 -0.482393 0.854018 0.066351 -0.031320 -742596.000000 0 0 1
18.518170 -8.949955 16.522878 26.382377 -0.450204 0.894018 0.063898 -0.026668 -243691.000000 0 0 1
19.103470 -7.710455 16.922678 26.660284 -0.383619 0.883108 0.066906 -0.030706 1159220.000000 0 0 1
20.424670 -7.693655 16.317678 27.251167 -0.360247 0.928809 0.066827 -0.021509 830392.000000 0 0 1
21.045070 -6.262855 16.249378 27.315941 -0.289247 0.933695 0.065774 -0.001234 263236.000000 0 0 1
21.958670 -6.134555 17.370278 28.662563 -0.272423 0.919740 0.078265 -0.001915 883939.000000 0 0 1
22.551470 -4.807255 17.320278 28.838699 -0.210025 0.926556 0.087570 -0.007378 -32389.500000 0 0 1
-5.815963 -33.507724 -6.741112 34.670385 1.398938 1.766477 0.018468 -0.011250 -494598.000000 0 0 1
-6.198063 -32.134124 -6.832412 33.432017 1.380255 1.776614 0.019283 -0.014017 74193.800000 0 0 1
-5.936063 -31.464024 -5.605212 32.506001 1.384326 1.744099 0.026237 -0.018386 -388142.000000 0 0 1
-6.498963 -30.008124 -5.606612 31.211507 1.357517 1.751410 0.039291 -0.018967 591464.000000 0 0 1
-7.896163 -29.816224 -5.589312 31.346404 1.311912 1.750063 0.037263 -0.016002 551764.000000 0 0 1
-8.780063 -30.290924 -6.631912 32.227502 1.288670 1.778061 0.032072 -0.010660 807522.000000 0 0 1
-10.264063 -30.147924 -6.163012 32.438111 1.242649 1.761951 0.035145 -0.005888 807180.000000 0 0 1
-11.261563 -30.627424 -7.057312 33.386638 1.218445 1.783784 0.032934 -0.004862 -319867.000000 0 0 1
-12.547363 -30.243724 -6.645412 33.410787 1.177533 1.771032 0.039040 -0.003883 -529095.000000 0 0 1
-13.584563 -30.852324 -7.562312 34.548442 1.156030 1.791473 0.047576 -0.012946 -400275.000000 0 0 1
-13.479663 -30.327024 -8.908012 34.362514 1.152545 1.833028 0.060893 -0.018823 -81734.300000 0 0 1
-14.566763 -30.777324 -9.672312 35.397569 1.128740 1.847564 0.060391 -0.016639 -80118.200000 0 0 1
-14.696663 -29.938624 -10.926612 35.095640 1.114461 1.887397 0.070965 -0.012972 -398793.000000 0 0 1
-15.166763 -28.587724 -10.877512 34.141016 1.083021 1.895054 0.080359 -0.020069 103068.000000 0 0 1
-14.256263 -27.710024 -10.258112 32.807245 1.095632 1.888808 0.076365 -0.018146 -229981.000000 0 0 1
-14.785463 -26.303624 -9.946012 31.771272 1.058705 1.889200 0.080812 -0.003147 -116549.000000 0 0 1
-14.944663 -25.421224 -11.036812 31.486391 1.039335 1.928929 0.088267 -0.021747 629.815000 0 0 1
-15.402563 -24.213724 -10.572612 30.583059 1.004249 1.923783 0.069319 -0.003774 -634672.000000 0 0 1
-15.860463 -23.247824 -11.620912 30.447680 0.972093 1.962397 0.088081 -0.015862 460799.000000 0 0 1
-17.168263 -23.761224 -11.941712 31.653586 0.945107 1.957635 0.086775 -0.018612 530008.000000 0 0 1
-17.892063 -22.931924 -12.845012 31.796122 0.908230 1.986660 0.095080 -0.024626 -395478.000000 0 0 1
-19.334663 -23.373124 -13.066212 33.028140 0.879678 1.977527 0.068717 -0.011000 -481829.000000 0 0 1
-19.508763 -24.626224 -13.726812 34.285101 0.900833 1.982720 0.095500 -0.014831 -65168.400000 0 0 1
-19.526463 -25.662324 -12.740812 34.672265 0.920356 1.947077 0.111097 -0.020543 -918123.000000 0 0 1
-19.493963 -27.078724 -13.377212 35.947485 0.946839 1.952101 0.102564 -0.020747 -22675.000000 0 0 1
-18.416563 -27.422624 -14.209012 35.959229 0.979398 1.977019 0.102590 -0.024728 1556370.000000 0 0 1
-17.082663 -27.456224 -13.591512 35.076927 1.014229 1.968690 0.098915 -0.023687 1432980.000000 0 0 1
-16.195663 -28.696124 -13.876912 35.753821 1.056976 1.969391 0.080325 -0.020268 -72545.800000 0 0 1
-15.768863 -28.848424 -15.208512 36.224128 1.070559 2.004071 0.102151 -0.020996 274232.000000 0 0 1
-14.897763 -29.977424 -15.394212 36.845231 1.109579 2.001827 0.098664 -0.016742 233824.000000 0 0 1
-15.633663 -31.316224 -15.435512 38.254050 1.107773 1.986135 0.098620 -0.026157 -259809.000000 0 0 1
-16.005263 -31.731624 -14.161012 38.257008 1.103639 1.949972 0.089641 -0.024776 -42942.700000 0 0 1
-16.538963 -33.083824 -14.189912 39.616036 1.107220 1.937121 0.083768 -0.021427 -618351.000000 0 0 1
-17.053763 -33.564824 -12.824912 39.773190 1.100702 1.899114 0.092327 -0.024085 1340490.000000 0 0 1
-18.352963 -33.073124 -12.365912 39.794203 1.064183 1.886775 0.100649 -0.026942 1280610.000000 0 0 1
-18.676063 -31.685324 -12.502812 38.846820 1.038190 1.898478 0.098709 -0.022478 -807587.000000 0 0 1
-18.144163 -30.735824 -11.432012 37.477893 1.037520 1.880770 0.110244 -0.024605 -390371.000000 0 0 1
-18.667063 -31.089424 -10.128912 37.651114 1.030060 1.843172 0.098989 -0.025035 281765.000000 0 0 1
-18.455263 -30.076324 -9.164512 36.457788 1.020426 1.824895 0.102210 -0.017294 -65797.700000 0 0 1
-18.817563 -30.514124 -7.712712 36.670129 1.018200 1.782706 0.077815 -0.006471 271202.000000 0 0 1
-17.815363 -31.295124 -7.049312 36.694206 1.053279 1.764108 0.087915 -0.014361 482638.000000 0 0 1
-18.272263 -31.751724 -5.796712 37.089749 1.048607 1.727728 0.078756 -0.014117 -375390.000000 0 0 1
-17.339963 -32.874924 -5.224912 37.533114 1.085429 1.710458 0.080676 -0.016115 -412792.000000 0 0 1
-16.051063 -32.466324 -4.938812 36.552574 1.111646 1.706326 0.068687 -0.009216 -683388.000000 0 0 1
-15.968963 -31.743524 -3.748612 35.731096 1.104702 1.675902 0.060499 -0.017027 -882154.000000 0 0 1
-14.609463 -31.070824 -3.565512 34.518769 1.131273 1.674273 0.058128 -0.018314 -699219.000000 0 0 1
-13.531963 -31.862724 -3.205312 34.765230 1.169183 1.663126 0.048069 -0.010012 -514425.000000 0 0 1
-12.435163 -31.018824 -2.880112 33.542447 1.189522 1.656767 0.040625 -0.004157 993673.000000 0 0 1
-10.988063 -31.612124 -2.875912 33.590695 1.236270 1.656518 0.034134 -0.006962 510502.000000 0 0 1
-10.880463 -32.583024 -1.907812 34.404617 1.248508 1.626277 0.032557 -0.004999 -450453.000000 0 0 1
-9.670063 -33.296724 -1.932612 34.726315 1.288151 1.626478 0.016267 -0.000270 843271.000000 0 0 1
-8.517863 -32.691924 -1.018112 33.798705 1.315914 1.600924 0.002258 0.000576 418991.000000 0 0 1
-8.790763 -32.837324 0.329288 33.995232 1.309223 1.561110 0.009511 0.001096 -391726.000000 0 0 1
-7.746863 -32.505424 1.210588 33.437733 1.336836 1.534584 0.009602 0.001826 187487.000000 0 0 1
-6.954763 -33.746424 1.727688 34.498910 1.367553 1.520696 0.011192 -0.000536 449414.000000 0 0 1
-7.709763 34.266745 2.725688 35.228960 -1.349489 1.493348 0.023735 -0.010083 548426.000000 0 0 1
-6.883263 33.227545 3.256688 34.088928 -1.366530 1.475115 0.026328 -0.010680 -133112.000000 0 0 1
-6.142663 33.552545 4.528988 34.409552 -1.389726 1.438793 0.029398 -0.012367 210265.000000 0 0 1
-5.042363 -34.285024 4.240988 34.912380 1.424771 1.449020 0.027037 -0.004723 286268.000000 0 0 1
-4.519063 -33.735624 5.446588 34.469981 1.437634 1.412122 0.019565 -0.007634 -103361.000000 0 0 1
-3.542963 -32.557724 5.251088 33.168237 1.462402 1.411811 0.028710 -0.001983 -266576.000000 0 0 1
-3.945663 -31.443824 4.503388 32.008793 1.445966 1.429636 0.026026 0.004700 -150290.000000 0 0 1
-3.933663 -31.736624 3.126488 32.131946 1.447478 1.473341 0.015940 0.004816 -69698.100000 0 0 1
-4.377163 -30.484924 2.336888 30.886100 1.428187 1.495062 0.028121 0.002965 -70316.900000 0 0 1
-3.522763 -29.437124 2.656788 29.765965 1.451692 1.481422 0.036961 -0.005808 -300723.000000 0 0 1
-3.886763 -28.252624 1.966488 28.586444 1.434083 1.501951 0.038677 -0.007990 350572.000000 0 0 1
-3.258563 -26.984524 2.602788 27.304895 1.450621 1.475328 0.048580 -0.017164 303702.000000 0 0 1
-3.466063 -25.832524 1.791488 26.125511 1.437419 1.502170 0.058204 -0.019740 -296373.000000 0 0 1
-3.029463 -24.654124 2.468388 24.961899 1.448531 1.471748 0.044697 -0.022019 -79130.100000 0 1 0
-4.040963 -24.047424 3.432988 24.625056 1.404310 1.430930 0.026719 -0.020159 -139497.000000 0 1 0
-4.147563 -24.728724 4.660088 25.503500 1.404621 1.387040 0.036847 -0.016222 -40324.500000 0 0 1
-5.289263 -24.290324 5.379788 25.434981 1.356391 1.357675 0.020300 -0.007733 215920.000000 0 0 1
-5.771363 -25.351424 6.429488 26.783234 1.346957 1.328372 0.019393 -0.007983 -378876.000000 0 0 1
-4.889163 -25.497424 7.487788 27.020169 1.381345 1.290003 0.022909 -0.008175 -555811.000000 0 0 1
-5.362063 -26.493624 8.325388 28.283846 1.371103 1.272020 0.014273 -0.007551 169203.000000 0 0 1
-4.403663 -26.998124 9.455188 28.942901 1.409110 1.238003 0.017230 -0.001584 -61782.800000 0 0 1
-4.252063 -26.169424 10.604488 28.554754 1.409722 1.190308 0.017254 -0.001120 370307.000000 0 0 1
-5.463963 -25.798924 11.292488 28.687273 1.362090 1.166207 0.024058 -0.000876 545983.000000 0 0 1
-5.229363 -24.794324 12.447688 28.232068 1.362933 1.114189 0.020835 -0.000976 -18236.900000 0 0 1
-4.641763 -25.432124 13.546788 29.186544 1.390268 1.088127 0.039262 0.001595 -570358.000000 0 0 1
-3.938563 -24.510024 14.301888 28.649565 1.411466 1.048120 0.024523 0.000748 443451.000000 0 0 1
-2.714463 -25.187424 15.011588 29.446942 1.463440 1.035862 0.029282 -0.004155 643108.000000 0 0 1
-3.166863 -25.886124 16.153888 30.676840 1.449063 1.016221 0.027442 0.001839 312768.000000 0 0 1
-2.028263 -26.414924 16.816988 31.379502 1.494162 1.005196 0.035979 0.008915 418950.000000 0 0 1
-2.343263 -26.960124 18.186288 32.604911 1.484098 0.979091 0.042094 -0.003271 63449.000000 0 0 1
-2.437363 -25.872524 19.135888 32.272441 1.476867 0.936081 0.048576 -0.002704 -140709.000000 0 0 1
-2.939963 -26.290724 20.369988 33.388351 1.459434 0.914619 0.077555 -0.009825 -175622.000000 0 0 1
-2.966663 -25.141824 21.441688 33.176172 1.453342 0.868074 0.072444 -0.020376 -224371.000000 0 0 1
-2.500663 -25.387024 22.764488 34.190294 1.472611 0.842208 0.053994 -0.024222 88555.000000 0 0 1
-2.227763 -24.307324 23.598288 33.951261 1.479402 0.802288 0.042285 -0.023741 53005.400000 0 0 1
-1.219263 -23.229224 23.158488 32.823757 1.518356 0.787611 0.042429 -0.020450 -236798.000000 0 0 1
-1.790163 -22.182924 22.409488 31.582779 1.490271 0.781940 0.054679 -0.014692 -719156.000000 0 0 1
-0.833863 -21.249424 22.068988 30.647570 1.531575 0.766865 0.069700 -0.016080 -791604.000000 0 0 1
-1.453263 -19.993924 21.409088 29.329473 1.498239 0.752546 0.055598 -0.005844 -556891.000000 0 0 1
-2.120163 -19.151224 22.362288 29.518408 1.460539 0.711213 0.044992 -0.020619 825427.000000 0 0 1
-3.424263 -19.572924 22.812588 30.252919 1.397600 0.716571 0.069050 -0.025424 728387.000000 0 0 1
-4.609663 -19.360124 21.801488 29.518947 1.337048 0.739866 0.060883 -0.020774 -436648.000000 0 0 1
-4.678663 -20.137924 20.620988 29.200188 1.342515 0.786689 0.050086 -0.013102 -423976.000000 0 0 1
-5.175263 -21.468924 20.756088 30.306983 1.334251 0.816383 0.055930 -0.012794 20980.100000 0 0 1
-5.201163 -22.295524 19.475788 30.057425 1.341612 0.865903 0.035364 -0.008612 -67549.900000 0 0 1
-5.522663 -23.633624 19.639088 31.220855 1.341237 0.890482 0.040308 -0.010700 -274123.000000 0 0 1
-5.729263 -24.258824 18.388288 30.974895 1.338874 0.935208 0.030745 -0.008334 1121.230000 0 0 1
-6.331763 -25.668124 18.382588 32.200363 1.328947 0.963217 0.011284 -0.005041 -765396.000000 0 0 1
-7.707863 -25.649824 18.536188 32.571688 1.278878 0.965399 0.025160 -0.009240 -1359940.000000 0 0 1
-8.238363 -26.851724 18.063588 33.394295 1.273104 0.999268 0.040031 -0.012222 974324.000000 0 0 1
-9.805763 -26.968924 18.068788 33.911015 1.222062 1.008856 0.038207 -0.016006 570467.000000 0 0 1
-10.518463 -26.273424 17.043888 33.036722 1.189992 1.028730 0.060097 -0.015017 -686780.000000 0 0 1
-11.883363 -26.428224 17.234888 33.715081 1.148236 1.034225 0.061684 -0.013144 -210683.000000 0 0 1
-12.651963 -25.476224 18.233088 33.786915 1.109858 1.000776 0.064893 -0.021112 -427208.000000 0 0 1
-12.610763 -24.141424 17.747688 32.508770 1.089413 0.993291 0.059547 -0.019002 -133812.000000 0 0 1
-12.597363 -23.134824 18.714588 32.313301 1.072171 0.953098 0.056867 -0.016171 -188702.000000 0 0 1
-11.258663 -22.714024 19.352588 31.893683 1.110619 0.918788 0.055359 -0.018304 160122.000000 0 0 1
-10.754363 -23.647424 20.334288 32.990002 1.143975 0.906663 0.050828 -0.021482 319917.000000 0 0 1
-9.350663 -23.607424 20.527888 32.651792 1.193665 0.890928 0.059782 -0.028670 460195.000000 0 0 1
-8.745163 -24.657324 21.481488 33.851378 1.229969 0.883328 0.055804 -0.030394 220052.000000 0 0 1
-8.886663 -24.219224 22.811988 34.437340 1.219123 0.846752 0.063201 -0.028124 383336.000000 0 0 1
-7.896063 -24.887424 23.595388 35.191959 1.263571 0.835945 0.064505 -0.029105 387497.000000 0 0 1
-7.706963 -24.352324 25.048388 35.775057 1.264292 0.795170 0.071212 -0.031188 -151883.000000 0 0 1
-6.655063 -25.042924 25.657888 36.465944 1.311053 0.790328 0.079876 -0.031501 -364844.000000 0 0 1
-6.513763 -24.573224 27.002188 37.086259 1.311680 0.755263 0.071200 -0.028396 40271.100000 0 0 1
-5.230863 -25.058724 27.738388 37.745460 1.365007 0.745306 0.080794 -0.023323 344755.000000 0 0 1
-4.096163 -24.474124 27.133088 36.769087 1.404966 0.740795 0.080204 -0.023592 -712820.000000 0 0 1
-2.886263 -24.850924 27.728188 37.346370 1.455171 0.734061 0.072172 -0.017593 -60420.000000 0 0 1
-1.740163 -23.971024 27.161488 36.268231 1.498329 0.724387 0.056627 -0.016761 -480537.000000 0 0 1
-1.959963 -22.593824 27.349388 35.529021 1.484265 0.692306 0.056451 -0.019850 -465967.000000 0 0 1
-0.845663 -21.789424 27.087688 34.774085 1.532005 0.677788 0.056049 -0.025973 130440.000000 0 0 1
0.158537 -21.683424 28.287488 35.642362 -1.563485 0.654014 0.053253 -0.021835 -82690.000000 0 0 1
0.886837 -22.861624 28.527688 36.568693 -1.532024 0.675951 0.054443 -0.019727 -190018.000000 0 0 1
1.789337 -22.600824 29.594388 37.280380 -1.491790 0.653711 0.052373 -0.029171 61976.900000 0 0 1
2.490237 -23.841024 30.198588 38.555809 -1.466722 0.670930 0.066967 -0.034065 -834587.000000 0 0 1
3.286237 -24.518024 29.282888 38.333019 -1.437557 0.701449 0.057052 -0.035760 209791.000000 0 0 1
4.062937 -25.626224 29.772688 39.492072 -1.413559 0.716833 0.043702 -0.031252 79251.600000 0 0 1
5.272237 -25.179824 30.651388 40.016591 -1.364395 0.698252 0.036426 -0.032770 -465787.000000 0 0 1
6.460037 -24.671924 30.104288 39.455089 -1.314708 0.702853 0.036577 -0.028171 348553.000000 0 0 1
7.205637 -25.570324 29.283488 39.538403 -1.296122 0.736783 0.030910 -0.020693 -13527.600000 0 0 1
8.549637 -24.993024 28.756388 39.047117 -1.241194 0.742984 0.021140 -0.007076 -121519.000000 0 0 1
8.230037 -24.107424 27.646888 37.593242 -1.241812 0.744507 0.031746 -0.012713 -103470.000000 0 0 1
9.325937 -23.727924 26.877088 37.045450 -1.196307 0.759012 0.010792 -0.003531 -430713.000000 0 0 1
8.970137 -22.510024 25.952688 35.506430 -1.191588 0.751114 0.024003 0.001943 71567.100000 0 0 1
8.083037 -22.984124 24.964288 34.882963 -1.232626 0.773230 0.015875 0.007232 -34630.600000 0 0 1
7.703837 -21.995724 24.041588 33.483711 -1.233905 0.769860 0.015209 0.010561 36646.600000 0 0 1
7.042437 -22.526224 22.735188 32.770649 -1.267790 0.804090 0.024158 0.010164 -585490.000000 0 0 1
7.875937 -23.142124 21.823788 32.769895 -1.242763 0.842002 0.008354 0.018330 -847896.000000 0 0 1
7.351337 -23.344324 20.566188 31.968230 -1.265718 0.871954 0.023579 0.008436 24690.400000 0 0 1
8.231537 -24.200224 19.565288 32.190209 -1.242930 0.917506 0.022358 0.001379 673807.000000 0 0 1
9.306437 -23.507424 18.946588 31.594018 -1.193835 0.927684 0.013246 0.001301 -119550.000000 0 0 1
9.984437 -24.355924 18.025688 31.903377 -1.181752 0.970352 0.021873 -0.011149 -525762.000000 0 0 1
11.122837 -23.629724 17.357588 31.358687 -1.130851 0.984214 0.026052 -0.018635 -820000.000000 0 0 1
10.812137 -22.506924 16.564888 29.964303 -1.122958 0.985051 0.035747 -0.014430 -394581.000000 0 0 1
11.648837 -22.292224 15.447788 29.517331 -1.089271 1.020023 0.032588 -0.028026 -151197.000000 0 0 1
-12.354663 22.470045 11.630888 28.157026 -1.068085 1.144971 0.036806 -0.020922 -1048000.000000 0 0 1
-13.356263 21.760745 10.994588 27.799293 -1.020308 1.164185 0.010676 -0.021458 -529829.000000 0 0 1
-12.869363 20.544845 10.465688 26.405336 -1.011188 1.163261 0.034807 -0.028677 -466728.000000 0 0 1
-13.891763 19.780745 9.650588 26.026770 -0.958537 1.190932 0.031388 -0.025588 -433753.000000 0 0 1
-14.285263 20.682145 8.575188 26.558495 -0.966336 1.242026 0.031373 -0.027887 23180.500000 0 0 1
-14.958463 20.085045 7.463588 26.131777 -0.930660 1.281150 0.036382 -0.021475 1426980.000000 0 0 1
-16.531363 19.925245 7.586388 26.978780 -0.878224 1.285754 0.025165 -0.020506 906432.000000 0 0 1
-16.930063 19.099345 8.648388 26.948221 -0.845534 1.244089 0.025760 -0.028592 -12034.400000 0 0 1
-18.336663 19.221745 8.729488 27.962700 -0.808959 1.253306 0.045296 -0.023704 -64086.500000 0 0 1
-19.019363 18.045645 9.407788 27.854765 -0.759134 1.226277 0.036828 -0.020710 -273018.000000 0 0 1
-18.787263 16.874745 8.692588 26.707290 -0.731820 1.239281 0.041132 -0.023126 127845.000000 0 0 1
-19.223963 15.768545 9.502788 26.617864 -0.686970 1.205734 0.047196 -0.026947 -416135.000000 0 0 1
-18.270363 15.205845 10.616388 26.033278 -0.694109 1.150752 0.044885 -0.018852 -99701.100000 0 0 1
-17.142963 14.531445 10.158988 24.662706 -0.703135 1.146240 0.022621 -0.005952 138735.000000 0 1 0
-16.394663 13.595645 11.018488 23.979858 -0.692337 1.093376 0.018880 -0.014343 775954.000000 0 1 0
-17.191263 12.592445 11.933588 24.423752 -0.632201 1.060305 0.019575 -0.008816 39871.600000 0 1 0
-18.132863 11.817845 11.201388 24.370746 -0.577595 1.093224 0.021066 -0.008981 -74889.800000 0 1 0
-18.792863 10.888945 12.008388 24.818182 -0.525149 1.065743 0.021415 -0.005478 -79082.300000 0 1 0
-19.759163 9.969745 11.207888 24.808004 -0.467291 1.102031 0.017246 -0.010080 -61009.800000 0 1 0
-19.208063 8.999945 10.282988 23.573046 -0.438173 1.119405 0.014065 -0.012852 317026.000000 0 1 0
-18.750363 9.534445 9.057288 22.902318 -0.470420 1.164212 0.029739 -0.008612 192702.000000 0 1 0
-19.888363 9.730945 7.967488 23.531237 -0.455034 1.225376 0.052642 -0.017352 721649.000000 0 1 0
-20.362063 8.516445 7.391288 23.276051 -0.396140 1.247653 0.035351 -0.019192 140226.000000 0 1 0
-21.115663 8.804745 6.256788 23.717971 -0.395055 1.303837 0.043517 -0.019081 -200321.000000 0 1 0
-21.434163 7.524445 5.444688 23.359906 -0.337609 1.335554 0.052791 -0.013713 -317178.000000 0 1 0
-22.289163 6.642845 6.062688 24.035190 -0.289649 1.315800 0.053944 -0.011731 4576.120000 0 1 0
-21.944663 5.437645 5.470288 23.260702 -0.242897 1.333400 0.054567 -0.011942 -745845.000000 0 1 0
-22.948563 4.343945 5.613088 24.021098 -0.187077 1.334943 0.064258 -0.012830 -1353310.000000 0 1 0
-24.111263 4.506845 4.883688 25.010299 -0.184786 1.374267 0.070865 -0.016727 -345879.000000 0 0 1
-24.800663 3.266245 4.885088 25.487356 -0.130946 1.377936 0.080728 -0.022510 -106342.000000 0 0 1
-25.969343 3.052845 3.880588 26.434553 -0.117019 1.423464 0.086129 -0.029017 93667.800000 0 0 1
-25.513113 2.976945 2.524388 25.809953 -0.116158 1.472833 0.084925 -0.026493 412255.000000 0 0 1
-26.579203 2.788045 1.628788 26.774618 -0.104514 1.509925 0.077629 -0.025092 -128927.000000 0 0 1
-26.115313 2.871245 0.148988 26.273100 -0.109505 1.565126 0.085174 -0.024954 -266667.000000 0 0 1
-25.530463 4.117345 -0.160112 25.860833 -0.159895 1.576988 0.084744 -0.029824 166162.000000 0 0 1
-25.489143 4.480745 -1.520012 25.924581 -0.174012 1.629462 0.095909 -0.027313 -723179.000000 0 0 1
-26.772673 4.850945 -2.264912 27.302701 -0.179245 1.653847 0.085461 -0.032823 -856096.000000 0 0 1
-27.680053 3.830145 -2.368112 28.043953 -0.137499 1.655340 0.067655 -0.025135 -426377.000000 0 0 1
-29.001033 4.322545 -2.367112 29.416790 -0.147959 1.651351 0.056285 -0.009427 -648230.000000 0 0 1
-30.082443 3.282045 -2.387512 30.354990 -0.108672 1.649531 0.049233 -0.007504 -771037.000000 0 0 1
-30.108303 2.681945 -3.639712 30.445857 -0.088842 1.690630 0.055800 -0.011809 735983.000000 0 0 1
-31.114233 1.662045 -3.789012 31.388126 -0.053367 1.691806 0.063847 -0.017776 447790.000000 0 0 1
-31.276113 1.267345 -5.249212 31.738866 -0.040499 1.736947 0.066212 -0.022746 -133166.000000 0 0 1
-30.122823 0.559345 -5.673912 30.657635 -0.018567 1.756943 0.071153 -0.021215 389060.000000 0 0 1
-30.201373 -0.171855 -6.930712 30.986888 0.005690 1.796370 0.074907 -0.016144 -251411.000000 0 0 1
-30.472013 0.560645 -8.306612 31.588886 -0.018397 1.836885 0.072822 -0.015461 349228.000000 0 0 1
-31.868893 0.799745 -8.513412 32.996123 -0.025090 1.831761 0.064873 -0.012983 919113.000000 0 0 1
-32.117333 1.744245 -9.497412 33.537536 -0.054255 1.857912 0.083078 -0.019435 608801.000000 0 0 1
-33.639343 2.131745 -9.570812 35.039266 -0.063286 1.847458 0.103832 -0.021674 914955.000000 0 0 1
-34.076230 3.003845 -8.493612 35.247042 -0.087923 1.814165 0.074091 -0.016925 632640.000000 0 0 1
-35.477854 2.914945 -8.262112 36.543638 -0.081978 1.798857 0.083786 -0.017155 368475.000000 0 0 1
35.742067 3.767345 -7.006412 36.616636 0.105016 1.763329 0.096588 -0.015013 700401.000000 0 0 1
34.329460 3.795645 -6.750612 35.192179 0.110118 1.763814 0.114576 -0.028422 1010980.000000 0 0 1
34.029350 4.587445 -5.660412 34.800597 0.134001 1.734175 0.116244 -0.029308 1606620.000000 0 0 1
32.600730 4.159745 -5.034512 33.248419 0.126911 1.722802 0.127145 -0.035219 1730510.000000 0 0 1
32.525500 2.875645 -4.433812 32.952028 0.088183 1.705759 0.128338 -0.033534 61073.100000 0 0 1
31.233520 2.333845 -4.631912 31.661241 0.074584 1.717619 0.135543 -0.037705 143467.000000 0 0 1
31.000220 0.924845 -4.078812 31.281075 0.029825 1.701561 0.136271 -0.021684 -93342.800000 0 0 1
31.765960 -0.086555 -4.701012 32.112042 -0.002725 1.717718 0.113396 -0.026534 136933.000000 0 0 1
31.538280 -1.324955 -4.112912 31.832918 -0.041986 1.700362 0.106437 -0.014032 -465106.000000 0 0 1
32.816750 -2.139355 -4.170112 33.149747 -0.065099 1.696927 0.112287 -0.022940 -510292.000000 0 0 1
32.676440 -3.441255 -3.738612 33.069158 -0.104926 1.684093 0.091006 -0.017614 447839.000000 0 0 1
33.898700 -4.194655 -3.746412 34.362081 -0.123115 1.680041 0.106948 -0.014837 441490.000000 0 0 1
33.755090 -5.680455 -3.150412 34.374391 -0.166722 1.662575 0.093086 -0.003418 -19857.500000 0 0 1
33.633340 -5.733855 -1.689012 34.160378 -0.168858 1.620260 0.078884 0.005877 111773.000000 0 0 1
33.655970 -7.099555 -1.302812 34.421292 -0.207897 1.608654 0.087273 -0.001519 -111264.000000 0 0 1
33.295250 -7.312355 0.175188 34.089220 -0.216189 1.565657 0.072135 0.000772 17668.000000 0 0 1
31.914090 -7.073255 0.438688 32.691475 -0.218109 1.557377 0.054234 -0.001855 440339.000000 0 0 1
31.572850 -7.547455 1.720688 32.507994 -0.234646 1.517840 0.043210 -0.007566 -351980.000000 0 0 1
31.395340 -9.134955 1.776688 32.745555 -0.283148 1.516512 0.051048 -0.005377 47228.000000 0 0 1
30.259340 -9.818955 1.220988 31.835991 -0.313774 1.532434 0.051987 -0.012860 -397581.000000 0 0 1
29.151690 -9.778055 2.003988 30.813104 -0.323627 1.505714 0.044844 -0.018419 -1293130.000000 0 0 1
28.019230 -10.707655 1.455988 30.030835 -0.365028 1.522294 0.060010 -0.018949 207996.000000 0 0 1
26.665870 -10.636555 1.887888 28.770976 -0.379543 1.505131 0.085391 -0.026395 1348250.000000 0 0 1
25.971670 -9.464055 1.344188 27.674949 -0.349445 1.522207 0.084689 -0.027709 -236266.000000 0 0 1
25.288270 -9.705655 -0.002812 27.086830 -0.366464 1.570900 0.077767 -0.019416 -301602.000000 0 0 1
26.223270 -9.669155 -1.090612 27.970375 -0.353257 1.609798 0.067044 -0.021876 1143700.000000 0 0 1
25.521170 -9.746855 -2.332412 27.418451 -0.364817 1.655967 0.061232 -0.021074 -173898.000000 0 0 1
24.808970 -11.066855 -2.677112 27.297018 -0.419592 1.669028 0.052896 -0.009590 -41676.900000 0 0 1
23.514970 -11.261855 -2.140512 26.160371 -0.446644 1.652711 0.045233 0.000563 78335.700000 0 0 1
23.106970 -12.560455 -2.388512 26.408372 -0.497900 1.661365 0.029927 0.007193 396205.000000 0 0 1
21.621570 -12.750055 -1.921212 25.174337 -0.532805 1.647187 0.037927 0.007858 915295.000000 0 0 1
20.653570 -12.291355 -2.864312 24.204373 -0.536824 1.689413 0.036576 0.003167 889283.000000 0 1 0
19.313270 -12.563755 -2.450312 23.170118 -0.576744 1.676748 0.045213 -0.000925 788552.000000 0 1 0
18.266970 -12.118655 -3.528512 22.203477 -0.585751 1.730390 0.027002 0.007667 152540.000000 0 1 0
18.311870 -12.900555 -4.706112 22.888783 -0.613734 1.777881 0.027476 0.003311 156947.000000 0 1 0
17.639170 -12.297255 -5.768112 22.262837 -0.608815 1.832878 0.034120 0.003113 -384965.000000 0 1 0
17.588970 -13.095555 -7.098212 23.048862 -0.639993 1.883848 0.028135 -0.000999 -260682.000000 0 1 0
16.612970 -14.121655 -7.203812 22.963163 -0.704516 1.889896 0.015658 -0.004285 372743.000000 0 1 0
16.682170 -14.781355 -8.460412 23.840341 -0.725058 1.933580 0.022183 -0.008956 -396421.000000 0 1 0
15.804470 -16.031655 -8.587912 24.094553 -0.792534 1.935236 0.022027 -0.012175 163608.000000 0 1 0
14.391470 -15.816955 -8.534912 23.024665 -0.832552 1.950543 0.029440 -0.005603 871098.000000 0 1 0
13.644670 -16.661255 -9.390212 23.493628 -0.884609 1.981977 0.030289 -0.005072 -395293.000000 0 1 0
13.774570 -16.446955 -10.917212 24.071283 -0.873595 2.041526 0.039271 -0.008384 -1003020.000000 0 1 0
13.078470 -15.349355 -11.453012 23.190959 -0.865111 2.087316 0.034144 -0.003501 153359.000000 0 1 0
13.354670 -14.028255 -10.995912 22.272163 -0.809992 2.087143 0.031834 0.002024 -279616.000000 0 1 0
13.310070 -13.014255 -12.182812 22.247466 -0.774161 2.150295 0.044058 0.001142 -344214.000000 0 1 0
14.365670 -13.221555 -13.085612 23.503516 -0.743949 2.161266 0.051880 -0.003124 18801.300000 0 1 0
14.289370 -12.421755 -14.232512 23.686505 -0.715593 2.215386 0.070634 -0.005898 565346.000000 0 1 0
15.719070 -12.163955 -14.839612 24.804537 -0.658581 2.212127 0.080609 -0.015128 466173.000000 0 1 0
16.411770 -13.271155 -15.278612 26.055820 -0.679985 2.197379 0.082391 -0.016083 -238391.000000 0 0 1
17.395170 -12.857055 -16.214612 27.033488 -0.636499 2.214044 0.080318 -0.017824 -278485.000000 0 0 1
18.480470 -13.934055 -16.379512 28.354437 -0.646049 2.186668 0.073514 -0.018578 -280233.000000 0 0 1
19.234270 -14.081955 -15.159012 28.249854 -0.631965 2.137205 0.051544 -0.024686 194289.000000 0 0 1
20.282770 -15.005955 -15.325712 29.520280 -0.636965 2.116663 0.040217 -0.018535 589605.000000 0 0 1
21.402270 -14.818655 -14.200612 29.653113 -0.605598 2.070187 0.029136 -0.017599 481137.000000 0 0 1
22.036070 -13.590055 -14.357812 29.604472 -0.552622 2.077146 0.031147 -0.013938 -587296.000000 0 0 1
23.174570 -13.554655 -13.528412 30.063388 -0.529238 2.037557 0.026756 -0.012194 495.953000 0 0 1
23.786270 -12.130055 -13.694612 30.007787 -0.471584 2.044706 0.038036 -0.022164 -685982.000000 0 0 1
22.877570 -11.186155 -13.232012 28.698422 -0.454775 2.049998 0.028178 -0.000029 212738.000000 0 0 1
23.353370 -9.840655 -13.367612 28.651552 -0.398801 2.056192 0.038994 -0.009706 79173.800000 0 0 1
24.386870 -9.318955 -12.315112 28.865626 -0.365007 2.011566 0.043451 -0.016085 -305181.000000 0 0 1
25.646870 -9.880155 -12.444912 30.170437 -0.367716 1.995979 0.047955 -0.020141 -660476.000000 0 0 1
26.365170 -9.827955 -11.262912 30.307822 -0.356808 1.951547 0.052339 -0.022031 -744650.000000 0 0 1
27.693080 -10.589855 -11.239012 31.707524 -0.365243 1.933132 0.067628 -0.024221 -355272.000000 0 0 1
28.556420 -9.990755 -12.186912 32.616026 -0.336550 1.953735 0.044444 -0.018149 -195143.000000 0 0 1
29.771900 -10.708355 -12.283912 33.940085 -0.345272 1.941133 0.037755 -0.017439 -174603.000000 0 0 1
30.509770 -10.065455 -13.469112 34.836424 -0.318666 1.967780 0.019768 -0.012082 -668669.000000 0 0 1
29.988070 -10.554755 -14.654712 35.006396 -0.338424 2.002732 0.008435 -0.012182 365412.000000 0 0 1
30.654700 -10.029655 -15.803812 35.917476 -0.316204 2.026399 0.007458 -0.005480 -165177.000000 0 0 1
30.343150 -10.804755 -17.072412 36.454310 -0.342086 2.058189 -0.015538 0.006548 191025.000000 0 0 1
29.135100 -10.551655 -17.789612 35.730404 -0.347469 2.091954 -0.022024 0.003009 461675.000000 0 0 1
28.985600 -9.301755 -18.470712 35.606950 -0.310528 2.116172 -0.029298 0.009753 -349929.000000 0 0 1
27.561140 -9.176155 -19.035912 34.730163 -0.321395 2.150898 -0.038915 -0.000832 -162118.000000 0 0 1
27.215230 -9.817955 -20.265712 35.323648 -0.346221 2.181831 -0.041517 0.014291 542334.000000 0 0 1
25.838570 -9.629755 -20.575112 34.404929 -0.356743 2.211835 -0.001662 0.014789 326393.000000 0 0 1
25.542370 -9.986055 -22.059212 35.195778 -0.372689 2.248181 0.017232 -0.006829 -164296.000000 0 0 1
25.519370 -11.397655 -22.398012 35.816417 -0.420046 2.246384 0.008737 -0.001205 292820.000000 0 0 1
24.722070 -11.761155 -23.525912 36.096732 -0.444048 2.280681 0.031166 -0.009930 -920724.000000 0 0 1
25.030970 -13.143055 -24.069312 37.129788 -0.483503 2.276078 0.017650 0.001422 494087.000000 0 0 1
26.204370 -13.327655 -24.859312 38.500400 -0.470507 2.272723 0.012277 0.008224 405794.000000 0 0 1
27.412430 -13.147955 -24.130112 38.814590 -0.447223 2.241677 -0.017607 0.008030 -845534.000000 0 0 1
28.630600 -13.658055 -24.905012 40.330055 -0.445115 2.236395 -0.020212 0.019907 -336967.000000 0 0 1
28.938210 -13.036355 -26.106102 41.096169 -0.423261 2.259121 -0.013816 0.009749 140483.000000 0 0 1
30.296650 -13.318955 -26.377252 42.320692 -0.414187 2.243715 -0.030546 0.004583 -55369.300000 0 0 1
30.951190 -12.907955 -27.684642 43.485985 -0.395111 2.260921 -0.013591 -0.009391 -76023.600000 0 0 1
30.564520 -13.600955 -28.884902 44.198568 -0.418681 2.283030 -0.009825 -0.008674 143710.000000 0 0 1
31.361000 -13.143455 -29.936502 45.304050 -0.396864 2.292668 -0.011192 -0.008287 -101697.000000 0 0 1
31.363780 -14.091655 -31.158962 46.401965 -0.422269 2.307029 -0.003610 -0.010572 349863.000000 0 0 1
32.048540 -15.329255 -30.735142 46.975993 -0.446149 2.284018 0.000404 -0.014883 345589.000000 0 0 1
32.145210 -16.305655 -31.744412 48.030164 -0.469431 2.292849 -0.026235 -0.011280 -306962.000000 0 0 1
30.824730 -16.881255 -32.338042 47.758661 -0.501039 2.314630 -0.014363 -0.007494 432197.000000 0 0 1
30.207490 -15.869155 -33.169072 47.586867 -0.483712 2.342032 -0.000005 -0.016636 17913.300000 0 0 1
28.990140 -16.385055 -33.658732 47.347740 -0.514434 2.361550 0.012774 -0.018395 -10701.600000 0 0 1
28.196850 -15.514655 33.977619 46.800059 -0.503017 0.758285 0.034272 -0.013757 99539.400000 0 0 1
27.394290 -14.455655 -34.115198 46.078844 -0.485552 2.404411 0.043753 -0.022716 262654.000000 0 0 1
28.106040 -13.291055 -33.814162 45.934728 -0.441725 2.398138 0.038112 -0.022386 -654050.000000 0 0 1
27.244680 -12.075855 -33.487722 44.827742 -0.417216 2.414381 0.049443 -0.026586 -270489.000000 0 0 1
26.564370 -11.576955 34.042403 44.705446 -0.410989 0.705200 0.079476 -0.034017 -104461.000000 0 0 1
25.980270 -10.357455 -34.211926 44.189447 -0.379356 2.456263 0.053751 -0.029707 -202137.000000 0 0 1
20.654337 -29.752924 8.956888 37.310374 -0.963977 1.328364 0.048770 -0.025859 131119.000000 0 0 1
21.182437 -29.364924 7.696188 37.016560 -0.945884 1.361356 0.046508 -0.026901 31682.500000 0 0 1
22.358737 -30.066624 7.384988 38.189698 -0.931378 1.376194 0.042595 -0.025866 -250940.000000 0 0 1
22.954737 -29.706424 6.008788 38.019694 -0.912913 1.412087 0.031034 -0.017747 -177334.000000 0 0 1
23.277937 -28.380224 5.856388 37.169837 -0.883849 1.412580 0.023503 -0.000412 183100.000000 0 0 1
24.077437 -28.095924 4.713488 37.300414 -0.862268 1.444092 0.017620 0.009491 65655.600000 0 0 1
24.094537 -26.553924 4.400588 36.125099 -0.833918 1.448678 0.004987 0.007208 105892.000000 0 0 1
24.881437 -25.817224 5.328488 36.249245 -0.803854 1.423266 0.010008 0.003620 113036.000000 0 0 1
24.708937 -24.426224 5.167288 35.126527 -0.779644 1.423156 0.008101 0.007724 -307990.000000 0 0 1
25.466537 -23.668724 6.248988 35.324253 -0.748825 1.392957 0.001577 0.002936 -261303.000000 0 0 1
26.794237 -23.431324 5.829488 36.068560 -0.718542 1.408462 0.007844 0.007782 -364808.000000 0 0 1
27.531837 -22.602424 6.667088 36.239781 -0.687389 1.385771 0.025220 -0.000185 -359606.000000 0 0 1
27.179937 -21.070724 6.633888 35.024747 -0.659454 1.380239 0.017376 -0.003066 -323962.000000 0 0 1
27.415237 -20.371824 5.433388 34.585086 -0.639060 1.413041 0.020201 0.014032 168131.000000 0 0 1
26.807137 -19.066024 5.574588 33.364831 -0.618223 1.402929 0.036143 0.003009 92134.600000 0 0 1
26.866537 -18.286824 4.248688 32.776060 -0.597624 1.440803 0.040714 0.010089 1266270.000000 0 0 1
28.231637 -18.088424 3.784288 33.742218 -0.569820 1.458407 0.062358 0.009602 1275760.000000 0 0 1
28.267237 -17.243524 2.660688 33.218295 -0.547753 1.490613 0.058982 0.020631 740035.000000 0 0 1
29.514337 -16.282424 2.529188 33.802518 -0.504131 1.495904 0.070008 -0.000555 692833.000000 0 0 1
29.374937 -15.169024 3.359688 33.230615 -0.476676 1.469521 0.080812 -0.011161 752073.000000 0 0 1
30.605337 -14.479424 3.652388 34.054080 -0.441898 1.463337 0.076463 -0.015663 720027.000000 0 0 1
30.503237 -13.236524 4.588888 33.566515 -0.409417 1.433657 0.096515 -0.020328 -39765.800000 0 0 1
29.881737 -13.643724 5.809188 33.358898 -0.428321 1.395762 0.080160 -0.017685 202543.000000 0 0 1
29.627237 -12.539524 6.617288 32.845112 -0.400382 1.367938 0.058342 -0.023660 -238820.000000 0 0 1
28.941737 -12.916124 7.971188 32.680120 -0.419756 1.324395 0.065366 -0.009161 -98275.600000 0 0 1
27.553837 -13.188324 8.012688 31.580833 -0.446413 1.314272 0.052498 -0.006581 14757.700000 0 0 1
26.995737 -13.190324 9.289088 31.449032 -0.454492 1.270954 0.053315 0.003527 -107793.000000 0 0 1
27.183437 -14.474824 10.156588 32.428630 -0.489298 1.252238 0.045730 -0.002935 -37097.600000 0 0 1
28.451937 -14.477424 10.790488 33.697821 -0.470693 1.244842 0.048318 0.000439 377875.000000 0 0 1
28.624137 -15.731824 11.490788 34.624698 -0.502536 1.232514 0.040614 -0.005841 -58021.400000 0 0 1
29.373537 -15.617624 12.831488 35.656163 -0.488677 1.202671 0.048917 -0.010768 817552.000000 0 0 1
30.789037 -15.396324 12.821788 36.734314 -0.463695 1.214249 0.057364 -0.010659 777170.000000 0 0 1
31.294337 -15.399824 14.146788 37.638036 -0.457305 1.185467 0.071601 -0.012862 116772.000000 0 0 1
32.829437 -15.282124 14.180488 38.889607 -0.435669 1.197556 0.073078 -0.017711 185664.000000 0 0 1
33.451337 -13.997124 14.043588 38.886165 -0.396295 1.201300 0.065127 -0.018517 1322740.000000 0 0 1
34.842937 -14.036324 13.670788 39.974231 -0.382957 1.221763 0.059844 -0.025102 1016330.000000 0 0 1
35.503637 -12.629424 13.526588 40.037223 -0.341763 1.226164 0.052974 -0.031057 1209120.000000 0 0 1
-34.777195 -12.676624 13.107988 39.267919 0.349542 1.230455 0.076574 -0.031317 1244330.000000 0 0 1
-34.371095 -11.312424 13.092888 38.480733 0.317959 1.223619 0.076998 -0.028997 -698227.000000 0 0 1
-33.203395 -11.069824 12.108588 37.035447 0.321805 1.237726 0.076031 -0.031739 304032.000000 0 0 1
-31.991995 -11.699224 12.496888 36.284043 0.350586 1.219177 0.052357 -0.028075 321412.000000 0 0 1
-32.032195 -13.016624 12.028988 36.608613 0.385978 1.235993 0.042818 -0.027200 -846978.000000 0 0 1
-30.860795 -13.951524 12.459788 36.087117 0.424582 1.218270 0.023462 -0.014289 1060970.000000 0 0 1
-29.596695 -13.697624 11.825988 34.690680 0.433455 1.222924 0.029737 -0.013054 381568.000000 0 0 1
-28.798195 -14.830624 11.883088 34.503496 0.475563 1.219194 0.026911 -0.012082 -294142.000000 0 0 1
-27.408595 -14.778424 11.226088 33.100724 0.494505 1.224784 0.037191 -0.009986 -69658.900000 0 0 1
-27.445695 -14.653724 9.796888 32.618658 0.490412 1.265741 0.028035 0.003740 -319073.000000 0 0 1
-26.168195 -14.650024 9.233888 31.379330 0.510367 1.272108 0.019528 0.007463 -454112.000000 0 0 1
-26.100795 -14.491224 7.660588 30.820962 0.506829 1.319612 0.035064 0.007796 -140800.000000 0 0 1
-26.432095 -15.655724 6.952288 31.497487 0.534738 1.348238 0.042558 0.006480 -98521.300000 0 0 1
-25.890395 -15.590624 5.717188 30.758192 0.542019 1.383834 0.044077 0.006608 -652274.000000 0 0 1
-26.405195 -16.700224 4.715188 31.596911 0.563946 1.421007 0.035695 0.002352 -429235.000000 0 0 1
-27.727295 -16.516124 4.304888 32.559443 0.537224 1.438192 0.028383 -0.010324 -411521.000000 0 0 1
-28.007395 -17.612624 3.441888 33.263573 0.561368 1.467138 0.029434 -0.012447 477457.000000 0 0 1
-29.506395 -18.058424 3.467588 34.767200 0.549209 1.470893 0.037681 -0.014137 188213.000000 0 0 1
-30.400795 -17.143124 2.908888 35.022231 0.513455 1.487642 0.054013 -0.018279 -148995.000000 0 0 1
-31.692695 -17.561124 3.305488 36.383324 0.505990 1.479819 0.063599 -0.017865 357018.000000 0 0 1
-32.951095 -16.831824 2.750188 37.103214 0.472260 1.496606 0.076504 -0.032359 465738.000000 0 0 1
-33.222295 -17.256924 1.457188 37.465260 0.479077 1.531892 0.078324 -0.030701 -629026.000000 0 0 1
-34.240095 -16.467624 0.953988 38.006274 0.448288 1.545693 0.093603 -0.034165 -859443.000000 0 0 1
-34.801295 -16.866924 -0.407912 38.675440 0.451303 1.581344 0.084998 -0.029577 -321442.000000 0 0 1
-33.819695 -16.949524 -1.437112 37.856617 0.464586 1.608767 0.091837 -0.028209 692654.000000 0 0 1
-34.304695 -17.631124 -2.653512 38.661477 0.474750 1.639485 0.085134 -0.024145 17071.700000 0 0 1
-33.095095 -18.260624 -3.363312 37.947959 0.504195 1.659542 0.070603 -0.022104 -183353.000000 0 0 1
-33.431795 -19.221724 -4.318312 38.804735 0.521799 1.682310 0.065059 -0.026324 394377.000000 0 0 1
-32.311495 -19.894724 -4.900012 38.260200 0.551896 1.699220 0.061263 -0.022492 27849.300000 0 0 1
-32.676995 -20.964324 -5.904512 39.270245 0.570421 1.721725 0.062843 -0.019976 -157541.000000 0 0 1
-33.392495 -22.029824 -5.299012 40.354076 0.583181 1.702490 0.073030 -0.024829 118368.000000 0 0 1
-33.704595 -22.953724 -6.327312 41.266307 0.597878 1.724732 0.047413 -0.020121 -16910.900000 0 0 1
-34.323995 -24.222624 -5.749812 42.402034 0.614545 1.706818 0.038134 -0.016292 106975.000000 0 0 1
-33.342595 -24.969824 -5.065412 41.962831 0.642788 1.691803 0.045938 -0.011815 168178.000000 0 0 1
-33.955795 -26.217524 -4.751212 43.161657 0.657500 1.681099 0.025006 0.001092 789567.000000 0 0 1
-32.914595 -27.176324 -4.069412 42.877538 0.690194 1.665847 0.022450 0.004073 289173.000000 0 0 1
-31.871695 -27.482224 -4.995612 42.379638 0.711578 1.688949 0.022316 0.007297 258635.000000 0 0 1
-31.111495 -28.625924 -4.566412 42.523179 0.743814 1.678390 0.012967 0.012213 780583.000000 0 0 1
-30.175295 -28.694924 -3.268812 41.768795 0.760257 1.649136 0.015540 0.013381 145791.000000 0 0 1
-30.789995 -28.370924 -2.042612 41.917841 0.744531 1.619545 0.004149 0.007456 -264881.000000 0 0 1
-29.862895 -28.545724 -0.978312 41.323213 0.762851 1.594473 0.017220 0.001892 186751.000000 0 0 1
-30.470395 -28.498924 0.434888 41.723169 0.751978 1.560373 0.017018 0.002753 38557.900000 0 0 1
-31.013995 -29.770824 0.827488 42.998309 0.764949 1.551550 0.006942 0.010402 -192990.000000 0 0 1
-31.852995 -29.680724 1.930588 43.580797 0.750111 1.526483 0.016974 0.010174 -439861.000000 0 0 1
-32.389695 -31.049024 2.389088 44.931526 0.764268 1.517599 0.007766 0.005677 -868984.000000 0 0 1
-33.334995 -30.872724 3.408988 45.562794 0.747068 1.495907 0.008327 0.002276 -129296.000000 0 0 1
-33.885995 -32.147924 3.806188 46.864024 0.759083 1.489489 0.015282 0.003423 317931.000000 0 0 1
-35.056895 -32.649724 2.905388 47.994079 0.749860 1.510223 0.010309 0.009639 -221934.000000 0 0 1
-35.715195 -33.760024 3.521088 49.271822 0.757264 1.499273 0.026157 0.010431 -158700.000000 0 0 1
35.012437 -34.319824 2.651088 49.099383 -0.775409 1.516776 0.015162 0.017743 -220891.000000 0 0 1
33.748037 33.866845 3.399788 47.931740 0.787155 1.499807 0.023092 0.012680 651442.000000 0 0 1
32.814937 -33.974524 4.045788 47.407350 -0.802758 1.485351 0.032780 0.005142 648345.000000 0 0 1
32.362437 -32.782924 3.350188 46.187349 -0.791853 1.498198 0.024889 0.011267 256889.000000 0 0 1
31.359437 -33.025124 2.145988 45.592526 -0.811263 1.523710 0.031613 0.004282 -89537.400000 0 0 1
31.991637 -33.483824 0.992588 46.320801 -0.808184 1.549366 0.038075 0.012874 -594281.000000 0 0 1
31.369137 -33.030224 -0.157312 45.552643 -0.811186 1.574250 0.037740 0.015348 -1168970.000000 0 0 1
31.922837 -33.622624 -1.511612 46.387858 -0.811325 1.603388 0.041762 0.001387 417028.000000 0 0 1
33.186237 -33.245224 -2.024312 47.017753 -0.786286 1.613864 0.023985 0.001763 -129968.000000 0 0 1
34.278337 -33.356624 -1.139012 47.843141 -0.771771 1.594606 0.019119 0.014529 -1087750.000000 0 0 1
35.609737 -33.248924 -1.893712 48.755825 -0.751127 1.609647 0.008582 0.011359 -607112.000000 0 0 1
-35.762395 34.335145 -2.648512 49.647414 -0.765040 1.624168 0.012559 0.002202 123895.000000 0 0 1
-34.799695 -34.101924 -3.635012 48.858708 0.775271 1.645264 0.002709 0.010340 -254816.000000 0 0 1
-34.028095 33.410345 -4.255712 47.877693 -0.776238 1.659801 0.012896 0.001344 -14974.400000 0 0 1
-32.997795 32.832745 -3.504612 46.681109 -0.782891 1.645943 0.023176 -0.001375 -175761.000000 0 0 1
-32.374995 31.797245 -4.288212 45.580630 -0.776395 1.665015 0.034195 -0.008756 209135.000000 0 0 1
-31.089995 31.245545 -3.643212 44.228326 -0.787894 1.653263 0.044781 -0.014511 220860.000000 0 0 1
-30.028995 32.179345 -3.441312 44.148538 -0.819951 1.648824 0.015376 -0.016836 726615.000000 0 0 1
-28.791195 31.564845 -3.047612 42.831767 -0.831321 1.642010 0.024260 -0.023249 913068.000000 0 0 1
-28.540695 31.239945 -1.528512 42.341962 -0.830520 1.606903 0.023816 -0.012933 -223718.000000 0 0 1
-29.473895 30.307445 -1.023312 42.288283 -0.799341 1.594997 0.024935 -0.010577 -246390.000000 0 0 1
-29.635095 30.258945 0.338188 42.355129 -0.795814 1.562812 0.010272 -0.012894 -396009.000000 0 0 1
-31.012395 29.716345 0.699688 42.957180 -0.764060 1.554508 0.014507 -0.015304 -630284.000000 0 0 1
-31.243695 28.401945 0.292888 42.224693 -0.737790 1.563860 0.021159 -0.023923 -442331.000000 0 0 1
-32.409795 28.179445 -0.446612 42.949684 -0.715691 1.581195 0.030556 -0.017677 -297108.000000 0 0 1
-32.571695 26.750945 -1.037412 42.161648 -0.687591 1.595404 0.036009 -0.018664 -218566.000000 0 0 1
-32.808795 25.814445 -0.079612 41.746963 -0.666649 1.572703 0.048211 -0.020057 -33336.600000 0 0 1
-33.193095 24.640645 -0.723612 41.345696 -0.638582 1.588299 0.040238 -0.012596 -304758.000000 0 0 1
-33.316195 23.405245 0.276988 40.716717 -0.612414 1.563993 0.060726 -0.016685 219538.000000 0 0 1
-32.074295 22.948345 0.798388 39.446474 -0.621036 1.550555 0.059511 -0.028734 262561.000000 0 0 1
-31.646395 23.627345 1.924388 39.540473 -0.641325 1.522108 0.059349 -0.028317 -1197350.000000 0 0 1
-30.186895 23.474545 2.412088 38.316068 -0.660957 1.507802 0.059709 -0.035137 -229129.000000 0 0 1
-29.280495 24.189445 1.632688 38.015027 -0.690471 1.527835 0.073275 -0.032353 -408400.000000 0 0 1
-29.290595 25.593345 1.914588 38.943856 -0.718135 1.521614 0.030282 -0.024595 -606793.000000 0 0 1
-28.651795 26.481645 0.777288 39.023160 -0.746057 1.550876 0.025347 -0.028704 93993.600000 0 0 1
-27.245895 26.543745 0.749488 38.045642 -0.772345 1.551095 0.032187 -0.028300 -411768.000000 0 0 1
-26.781195 27.378845 -0.256112 38.300119 -0.796433 1.577483 0.033675 -0.025485 161024.000000 0 0 1
-25.608695 26.788345 -1.073212 37.075227 -0.807908 1.599747 0.032203 -0.027839 -204308.000000 0 0 1
-25.980295 25.683245 -1.907112 36.581988 -0.779649 1.622953 0.055847 -0.033538 -186780.000000 0 0 1
-24.937595 25.264145 -2.745712 35.604769 -0.791903 1.647989 0.049122 -0.024636 16618.700000 0 0 1
-23.870095 24.292145 -2.239912 34.130733 -0.794161 1.636471 0.047017 -0.030925 26813.200000 0 0 1
-24.340795 22.977045 -2.009912 33.532948 -0.756585 1.630771 0.046945 -0.029786 140355.000000 0 0 1
-23.304895 22.188345 -1.427312 32.209905 -0.760860 1.615124 0.037940 -0.039701 -399441.000000 0 0 1
-23.840295 20.822945 -0.961612 31.668271 -0.717943 1.601166 0.033365 -0.033764 -844270.000000 0 0 1
-24.730395 20.715345 0.111088 32.260352 -0.697279 1.567353 0.028326 -0.028922 107292.000000 0 0 1
-26.025095 21.277145 0.002488 33.615807 -0.685358 1.570722 0.025499 -0.027301 203328.000000 0 0 1
-26.917295 20.702345 -1.149712 33.977194 -0.655619 1.604641 0.023957 -0.032153 -969564.000000 0 0 1
-27.384695 19.364245 -1.005112 33.554519 -0.615488 1.600755 0.011930 -0.020002 628110.000000 0 0 1
-28.356795 18.999345 -2.007012 34.192265 -0.590314 1.629528 0.038463 -0.025337 371039.000000 0 0 1
-28.544695 17.482245 -1.799212 33.521123 -0.549525 1.624496 0.014234 -0.007730 -114980.000000 0 0 1
-29.319595 17.089745 -0.685912 33.943608 -0.527735 1.591005 0.032819 -0.007628 160759.000000 0 0 1
-29.398695 15.706445 -0.449712 33.334335 -0.490676 1.584288 0.036224 -0.015346 -97327.600000 0 0 1
-28.194795 14.934745 0.154488 31.906378 -0.487123 1.565954 0.035537 -0.015147 -189666.000000 0 0 1
-27.992195 15.068945 1.546688 31.828106 -0.493837 1.522182 0.047006 -0.014227 344017.000000 0 0 1
-26.756095 14.532845 2.016488 30.514888 -0.497577 1.504666 0.040320 -0.015506 219254.000000 0 0 1
-26.661795 12.978545 2.169088 29.732119 -0.453019 1.497777 0.050850 -0.013112 -464071.000000 0 0 1
-26.554595 12.325545 0.943588 29.290885 -0.434566 1.538576 0.048617 -0.013768 382911.000000 0 0 1
-26.142895 10.984645 1.145288 28.380012 -0.397778 1.530430 0.069884 -0.018954 -46317.200000 0 0 1
-25.906195 10.181745 -0.142812 27.835575 -0.374478 1.575927 0.063860 -0.018001 -391868.000000 0 0 1
-27.084995 9.787345 -0.791612 28.809993 -0.346756 1.598277 0.051644 -0.017060 -51834.100000 0 0 1
-26.837195 8.937845 -1.903012 28.350336 -0.321486 1.637972 0.059954 -0.022116 -172345.000000 0 0 1
-28.155895 8.579445 -2.590612 29.547801 -0.295774 1.658584 0.056002 -0.026333 -206404.000000 0 0 1
-27.986195 7.879945 -3.853412 29.328645 -0.274460 1.702565 0.057705 -0.023795 1950470.000000 0 0 1
-29.278895 7.580545 -4.520812 30.580322 -0.253345 1.719174 0.055403 -0.022688 1829860.000000 0 0 1
-11.009063 17.997645 -19.866212 28.978976 -1.021822 2.326140 0.099357 -0.022402 432036.000000 0 0 1
-11.546763 17.277445 -20.941812 29.502497 -0.981654 2.360056 0.090814 -0.024162 481920.000000 0 0 1
-10.467263 17.076545 -21.867112 29.653711 -1.020901 2.400033 0.090015 -0.025435 657539.000000 0 0 1
-10.741263 15.954645 -22.887712 29.896033 -0.978259 2.442734 0.081133 -0.015065 -187124.000000 0 0 1
-10.428963 14.643145 -22.442512 28.755022 -0.951924 2.466218 0.069734 -0.014790 -13467.300000 0 0 1
-10.421363 13.707445 -23.462612 29.103145 -0.920755 2.508477 0.049138 -0.007302 -420492.000000 0 0 1
-9.620763 12.471145 -23.111712 27.968550 -0.913713 2.543385 0.038148 -0.006688 386682.000000 0 0 1
-8.198163 12.602745 -23.154812 27.607687 -0.994065 2.565704 0.035151 -0.008855 417048.000000 0 0 1
-7.594963 11.678045 -22.282012 26.278285 -0.994166 2.582855 0.022321 -0.009324 813326.000000 0 0 1
-6.035863 11.869245 -22.369212 26.032523 -1.100348 2.604656 0.030174 -0.003665 649627.000000 0 0 1
-5.446363 11.317145 -23.501312 26.646807 -1.122262 2.650793 0.029468 -0.010020 -14327.700000 0 0 1
-4.036263 11.337045 -23.312012 26.234899 -1.228765 2.665054 0.035553 -0.006986 352667.000000 0 0 1
-3.222663 10.974145 -24.555912 27.088932 -1.285167 2.705698 0.052135 -0.015513 -183925.000000 0 0 1
-3.246663 9.581445 -24.862712 26.842119 -1.244090 2.755155 0.051409 -0.015496 -71828.300000 0 0 1
-2.492163 9.349345 -26.021852 27.762527 -1.310293 2.785601 0.050403 -0.016622 -113025.000000 0 0 1
-2.134563 7.833045 -26.261582 27.487882 -1.304749 2.841766 0.048685 -0.006732 -269915.000000 0 0 1
-1.075463 7.298045 -25.515222 26.560208 -1.424486 2.860151 0.041649 -0.008374 -150582.000000 0 0 1
-0.681163 5.946045 -25.650922 26.339880 -1.456736 2.912371 0.036565 0.000066 648547.000000 0 0 1
0.724237 5.693345 -24.982612 25.633369 1.444268 2.915782 0.021474 0.005458 637904.000000 0 0 1
0.837237 6.246145 -23.708912 24.532179 1.437550 2.881793 0.012068 -0.005272 -464416.000000 0 1 0
1.831937 5.616045 -22.970712 23.718128 1.255482 2.889881 0.015227 -0.002813 -549573.000000 0 1 0
1.956137 6.188645 -21.540712 22.497291 1.264649 2.848934 0.017920 -0.006939 288355.000000 0 1 0
2.710437 7.405145 -21.595312 22.990001 1.219921 2.791483 0.016644 -0.009938 111648.000000 0 1 0
2.372337 8.223145 -20.545312 22.256638 1.289928 2.746886 0.017118 -0.009959 -121099.000000 0 1 0
3.112337 9.573445 -20.505712 22.843418 1.256473 2.685236 0.010569 -0.010827 -106959.000000 0 1 0
2.553837 10.473945 -19.543912 22.320173 1.331635 2.637507 0.010891 -0.011934 306154.000000 0 1 0
3.271537 11.679945 -19.441912 22.915323 1.297696 2.583797 0.015744 -0.012560 -581592.000000 0 1 0
4.460637 11.739445 -18.520312 22.376636 1.207675 2.545727 0.017217 -0.021605 -342266.000000 0 1 0
5.611437 11.104845 -19.031412 22.737644 1.102906 2.562574 0.027380 -0.014491 -234162.000000 0 1 0
6.551337 10.718245 -18.040812 21.983442 1.022159 2.533352 0.030401 -0.018113 -514927.000000 0 1 0
7.530837 9.704545 -18.593112 22.284423 0.910855 2.557757 0.047798 -0.021479 -737979.000000 0 1 0
7.038137 8.432445 -18.922412 21.879195 0.875282 2.615665 0.033993 -0.011304 91947.300000 0 1 0
7.153137 8.246445 -20.298512 23.047794 0.856275 2.648164 0.041010 -0.001365 35863.300000 0 1 0
6.691037 6.851945 -20.777612 22.878556 0.797279 2.709687 0.029673 0.003364 215061.000000 0 1 0
7.643137 5.818245 -20.517412 22.654662 0.650655 2.703729 0.035200 -0.005935 289671.000000 0 1 0
7.267637 4.491045 -20.952212 22.627047 0.553514 2.754422 0.031938 0.005077 -37722.800000 0 1 0
7.379337 4.265845 -22.474712 24.036738 0.524146 2.779098 0.034911 0.002514 371565.000000 0 1 0
6.287537 4.861145 -23.208812 24.531874 0.658147 2.811671 0.033640 0.003921 497198.000000 0 1 0
6.372637 4.639445 -24.568112 25.801688 0.629289 2.831123 0.030441 0.003502 -125316.000000 0 0 1
5.316337 5.384445 -25.433502 26.535236 0.791763 2.852421 0.019920 -0.006575 1586.050000 0 0 1
5.383737 6.823145 -25.411572 26.856804 0.902774 2.812041 0.017914 -0.011093 194088.000000 0 0 1
4.963337 7.431145 -24.198712 25.796014 0.981933 2.787841 0.025455 -0.016473 -800325.000000 0 0 1
4.932437 8.969745 -24.410512 26.469952 1.068032 2.744520 0.027927 -0.021827 590505.000000 0 0 1
3.867737 9.552845 -25.209952 27.235233 1.186092 2.753513 0.036772 -0.022500 916615.000000 0 0 1
2.694337 9.724945 -24.400412 26.404813 1.300521 2.749443 0.029669 -0.023939 -291275.000000 0 0 1
1.475137 10.019745 -25.261462 27.216039 1.424623 2.760296 0.038567 -0.011958 -660078.000000 0 0 1
1.515137 11.377845 -25.759582 28.201189 1.438410 2.722410 0.046852 -0.021605 -97935.300000 0 0 1
0.374837 11.739845 -26.486252 28.973885 1.538879 2.724183 0.061843 -0.023260 -310721.000000 0 0 1
0.336737 13.247445 -26.803672 29.900586 1.545383 2.682435 0.059688 -0.024970 -199977.000000 0 0 1
0.229137 14.051045 -25.656422 29.252972 1.554490 2.640490 0.045340 -0.023449 46626.800000 0 0 1
-0.132963 15.395645 -25.975072 30.195164 -1.562160 2.606535 0.052932 -0.038729 -461309.000000 0 0 1
-0.802463 16.102645 -24.823212 29.599510 -1.521003 2.565570 0.052897 -0.029653 -669425.000000 0 0 1
-2.066763 15.603245 -24.524312 29.140601 -1.439106 2.571009 0.044438 -0.022196 -784024.000000 0 0 1
-2.178763 15.717545 -23.085312 28.012852 -1.433054 2.539403 0.040005 -0.027687 -872457.000000 0 0 1
-3.314163 14.907645 -22.486812 27.182315 -1.352041 2.545007 0.035286 -0.023754 1003.130000 0 0 1
-4.642263 15.275945 -22.802812 27.836547 -1.275771 2.530755 0.033088 -0.020459 71720.200000 0 0 1
-5.065563 14.973545 -24.117712 28.836280 -1.244582 2.561418 0.037000 -0.020036 -1107780.000000 0 0 1
-6.551863 15.178545 -24.412612 29.483737 -1.163304 2.546332 0.029427 -0.018451 -255188.000000 0 0 1
-6.890163 16.476545 -24.893012 30.636790 -1.174716 2.519259 0.037047 -0.020077 165180.000000 0 0 1
-8.235863 16.473045 -25.341262 31.326829 -1.107181 2.513129 0.048407 -0.014461 54020.800000 0 0 1
-8.828463 17.841845 -25.793232 32.581651 -1.111303 2.484300 0.051249 -0.016204 -23968.500000 0 0 1
-9.009463 18.822445 -24.741712 32.366760 -1.124370 2.440933 0.055926 -0.020961 652003.000000 0 0 1
-10.231463 19.502645 -25.082282 33.378988 -1.087648 2.421037 0.058893 -0.018861 740460.000000 0 0 1
-10.582863 20.590145 -24.038112 33.373371 -1.096030 2.375000 0.043992 -0.019655 -357766.000000 0 0 1
-9.731463 21.691845 -23.931712 33.733727 -1.149088 2.359485 0.061176 -0.016492 -376517.000000 0 0 1
-10.287663 22.953445 -24.247612 34.937706 -1.149443 2.337860 0.059551 -0.027510 -198502.000000 0 0 1
-10.115063 23.400045 -25.763482 36.244084 -1.162787 2.361478 0.035411 -0.016661 216679.000000 0 0 1
-10.961563 22.690945 -26.662522 36.686849 -1.120775 2.384389 0.036014 -0.014619 140087.000000 0 0 1
-10.938663 23.283845 -27.909062 37.956653 -1.131602 2.396887 0.053667 -0.013021 -224232.000000 0 0 1
-11.558563 22.419145 -29.046552 38.469736 -1.094773 2.426526 0.044860 -0.012204 109375.000000 0 0 1
-10.857563 21.258445 -29.581792 38.011716 -1.098593 2.462636 0.047614 -0.014172 88492.500000 0 0 1
-10.670963 20.144945 -28.687162 36.642073 -1.083665 2.470114 0.044054 -0.012041 12355.200000 0 0 1
-9.670463 19.134545 -29.273412 36.284726 -1.102844 2.509461 0.042964 -0.018474 41243.600000 0 0 1
-8.307763 19.539445 -29.320562 36.200887 -1.168774 2.514847 0.031511 -0.017336 409840.000000 0 0 1
-7.364763 18.678545 -29.932982 36.043185 -1.195222 2.550757 0.034873 -0.015323 412184.000000 0 0 1
-7.054763 17.332745 -29.188092 34.671868 -1.184253 2.571476 0.049664 -0.026203 -547813.000000 0 0 1
-8.009163 16.324345 -29.438062 34.601018 -1.114675 2.588276 0.036242 -0.019817 -54958.000000 0 0 1
-7.693863 15.159045 -28.765682 33.413420 -1.101133 2.607836 0.023601 -0.012956 -322380.000000 0 0 1
-8.876963 14.161545 -28.681942 33.196440 -1.010878 2.613970 0.033510 -0.008669 337981.000000 0 0 1
-9.887063 14.846545 -27.896732 33.111955 -0.983290 2.572699 0.051052 -0.008763 19736.200000 0 0 1
-10.952363 13.989145 -27.569782 32.798526 -0.906558 2.569149 0.075447 -0.008950 67326.800000 0 0 1
-11.901263 14.607145 -26.525602 32.536384 -0.887122 2.523974 0.063899 -0.008906 -126332.000000 0 0 1
-12.488063 15.816845 -26.917602 33.625609 -0.902465 2.498940 0.048352 -0.007307 -271999.000000 0 0 1
-13.473563 16.128045 -25.944302 33.387985 -0.874833 2.460770 0.054169 -0.012646 66177.700000 0 0 1
-14.326763 17.360745 -26.288442 34.608291 -0.880854 2.433494 0.039991 -0.016009 -44938.000000 0 0 1
-13.671463 18.613745 -26.325412 35.020104 -0.937301 2.421467 0.036863 -0.011054 -143221.000000 0 0 1
-14.585463 19.589445 -26.767112 36.234795 -0.930788 2.401955 0.029525 -0.010436 -491478.000000 0 0 1
-14.127463 21.034545 -26.730782 36.831671 -0.979364 2.382928 0.029646 -0.011234 -86527.500000 0 0 1
-15.154063 21.914145 -27.195462 38.071886 -0.965785 2.366446 0.019856 -0.013788 303694.000000 0 0 1
-14.834863 23.319945 -27.331742 38.870517 -1.004223 2.350612 0.024995 -0.011251 -277511.000000 0 0 1
-14.410863 24.027945 -25.994502 38.219488 -1.030558 2.318746 0.000670 -0.008082 115865.000000 0 0 1
-13.990563 25.322545 -26.383222 39.154074 -1.066040 2.310178 0.023786 -0.019421 6932.110000 0 0 1
-13.461963 26.000445 -25.241402 38.657159 -1.093043 2.282276 0.043700 -0.030061 -50828.300000 0 0 1
-13.281663 27.491545 -25.530862 39.799655 -1.120745 2.267228 0.058982 -0.027535 601109.000000 0 0 1
-14.516563 28.111945 -25.927862 40.905575 -1.094127 2.257313 0.076480 -0.029567 254286.000000 0 0 1
-15.102063 28.916645 -24.959812 41.075989 -1.089498 2.223894 0.072139 -0.027427 166295.000000 0 0 1
-16.469663 29.496545 -25.447942 42.295315 -1.061558 2.216390 0.063359 -0.024161 977698.000000 0 0 1
-17.426063 28.425345 -25.388462 41.907540 -1.020839 2.221594 0.043654 -0.022017 421456.000000 0 0 1
-18.760463 28.712045 -25.819592 42.930034 -0.992034 2.216091 0.026815 -0.019902 606068.000000 0 0 1
-19.704263 27.593645 -25.370332 42.347620 -0.950678 2.213169 0.001743 -0.013849 -349595.000000 0 0 1
-20.022863 27.648245 -24.019812 41.740770 -0.944013 2.183953 0.011598 -0.016190 -202993.000000 0 0 1
-21.031863 26.683645 -23.791812 41.477783 -0.903296 2.181695 0.017631 -0.024233 -450491.000000 0 0 1
-21.574063 26.794045 -22.333412 41.013928 -0.892904 2.146628 0.013973 -0.015947 -252739.000000 0 0 1
-22.317063 27.976645 -22.137512 42.081034 -0.897457 2.124768 0.015093 -0.007386 -260046.000000 0 0 1
-22.735363 28.198845 -20.807912 41.773685 -0.892255 2.092215 0.002155 -0.008821 -744569.000000 0 0 1
-24.056363 28.939145 -20.771512 42.984165 -0.877275 2.075144 -0.002725 -0.004068 -661586.000000 0 0 1
-25.156463 28.202545 -21.250312 43.356740 -0.842423 2.083032 0.005706 -0.004322 -664109.000000 0 0 1
-26.349483 28.895045 -20.986512 44.380768 -0.831444 2.063346 0.012197 -0.002590 870049.000000 0 0 1
-27.605683 27.981145 -21.351512 44.731479 -0.792153 2.068406 0.011468 -0.003418 844359.000000 0 0 1
-27.599543 27.748945 -22.763812 45.276151 -0.788097 2.097605 0.011704 -0.003430 -163479.000000 0 0 1
-28.850773 27.235545 -23.148512 45.934688 -0.756607 2.098955 0.024346 -0.008005 -146291.000000 0 0 1
-28.973283 26.857145 -24.668012 46.575403 -0.747513 2.128968 0.029041 0.000071 119530.000000 0 0 1
-28.650783 25.511945 -24.926612 45.750002 -0.727511 2.146999 0.031285 0.003255 -136062.000000 0 0 1
-28.695743 25.327545 -26.343572 46.464115 -0.723132 2.173614 0.056095 -0.003437 55633.900000 0 0 1
-28.758713 23.835945 -26.720702 45.926155 -0.692072 2.191760 0.055537 -0.012795 315431.000000 0 0 1
-27.539043 23.152545 -26.414012 44.633387 -0.699080 2.204086 0.045474 -0.014646 319011.000000 0 0 1
-27.538513 21.884245 -26.975192 44.327766 -0.671487 2.225015 0.061364 -0.025607 -638759.000000 0 0 1
-26.273503 21.055445 -26.882962 43.085060 -0.675591 2.244585 0.055154 -0.019313 -583479.000000 0 0 1
-26.123433 20.443945 -25.619122 41.913340 -0.664035 2.228423 0.064004 -0.020629 -76005.200000 0 0 1
-25.722133 19.085145 -25.692192 41.060438 -0.638344 2.246846 0.029852 -0.026099 -9956.800000 0 0 1
-26.807543 17.975845 -25.531762 41.153933 -0.590687 2.240045 0.032689 -0.015086 233264.000000 0 0 1
-27.657123 17.799345 -26.652042 42.332782 -0.571843 2.251814 0.035399 -0.021904 178899.000000 0 0 1
-28.329113 16.562445 -26.569492 42.223111 -0.529052 2.251402 0.019433 -0.018883 -153159.000000 0 0 1
-29.168403 16.133045 -27.813812 43.412890 -0.505220 2.266181 0.013921 -0.014972 662957.000000 0 0 1
-30.463293 16.728345 -27.950172 44.598900 -0.502176 2.248109 0.017671 -0.020067 472471.000000 0 0 1
-31.053693 16.262945 -29.139442 45.584233 -0.482431 2.264311 0.022727 -0.015650 174822.000000 0 0 1
-32.455933 16.868045 -29.409092 46.934137 -0.479300 2.247984 0.031934 -0.015627 26923.300000 0 0 1
-33.466093 16.452545 -28.525782 46.950888 -0.456920 2.223789 0.020911 -0.010391 -125414.000000 0 0 1
-34.707611 16.672245 -29.159272 48.299536 -0.447815 2.218952 0.022310 -0.010283 326474.000000 0 0 1
35.667939 16.353645 -28.383242 48.427802 0.429898 2.197026 0.021567 -0.004618 267130.000000 0 0 1
35.429430 17.303145 -27.380532 48.003509 0.454311 2.177772 0.025621 -0.007554 112470.000000 0 0 1
34.214430 17.086945 -26.689012 46.635762 0.463174 2.180088 0.032451 -0.006453 -60838.000000 0 0 1
33.930260 18.157945 -25.610092 46.226078 0.491374 2.157980 0.031973 -0.004233 -271523.000000 0 0 1
33.232750 19.236545 -26.163952 46.465177 0.524718 2.168913 0.033370 -0.012732 253424.000000 0 0 1
32.721500 20.207345 -25.239462 46.000693 0.553228 2.151576 0.042363 -0.007308 -518913.000000 0 0 1
31.993640 21.383745 -25.920182 46.397342 0.589184 2.163562 0.049713 -0.009310 638261.000000 0 0 1
30.671250 21.187345 -26.419962 45.690738 0.604517 2.187359 0.045453 -0.013361 710454.000000 0 0 1
29.644750 21.280345 -25.428942 44.478032 0.622603 2.179396 0.036372 -0.000471 34647.800000 0 0 1
28.212030 21.259645 -25.996122 43.859885 0.645780 2.205214 0.017283 -0.001548 2929.960000 0 0 1
27.935370 20.024545 -26.513872 43.409132 0.621924 2.227855 0.021369 -0.006944 -114019.000000 0 0 1
26.639490 19.888845 -27.058042 42.864510 0.641317 2.253955 0.019504 -0.008944 -129545.000000 0 0 1
26.144570 18.431045 -26.938982 41.820458 0.614051 2.270718 0.029342 -0.008311 -165850.000000 0 0 1
26.915680 17.631745 -27.827912 42.540862 0.579933 2.283849 0.028806 -0.017573 1124860.000000 0 0 1
28.109140 17.038145 -27.281482 42.716524 0.544924 2.263556 0.030252 -0.010982 506234.000000 0 0 1
28.678920 15.830445 -28.097582 43.157358 0.504369 2.279763 0.028692 -0.008333 504353.000000 0 0 1
27.781590 14.688145 -28.307932 42.295359 0.486344 2.304051 0.035837 -0.004205 947109.000000 0 0 1
27.209140 14.000445 -27.189842 40.934549 0.475219 2.297256 0.048876 -0.011752 90766.700000 0 0 1
28.181570 13.092345 -26.355512 40.745839 0.434905 2.274213 0.041202 -0.009655 509871.000000 0 0 1
29.189180 13.823545 -25.638602 41.236350 0.442293 2.241768 0.035908 -0.012783 559658.000000 0 0 1
29.973760 12.958845 -24.816112 41.014599 0.408071 2.220632 0.032992 -0.009838 32216.300000 0 0 1
-14.451663 -31.554124 -23.582912 41.960304 1.141313 2.167633 0.066253 -0.009922 224750.000000 0 0 1
-13.644763 -30.513324 -24.120012 41.219140 1.150295 2.195880 0.050659 -0.022225 269706.000000 0 0 1
-14.022663 -30.345124 -25.479972 42.032019 1.137921 2.222075 0.036431 -0.018742 85849.000000 0 0 1
-13.157663 -29.261624 -26.179582 41.409386 1.148229 2.255203 0.030629 -0.019591 -570615.000000 0 0 1
-13.514463 -27.913724 -25.852702 40.375474 1.119908 2.265694 0.024042 -0.009408 -253249.000000 0 0 1
-12.869563 -26.931324 -26.607362 39.985918 1.125012 2.298850 0.016127 -0.004848 -646567.000000 0 0 1
-13.335363 -25.543324 -26.285452 39.002799 1.089650 2.310322 0.004308 0.005453 -410699.000000 0 0 1
-13.015063 -25.024924 -24.984212 37.680891 1.091211 2.295679 -0.003319 -0.013583 -3119.080000 0 0 1
-13.449163 -23.674424 -24.799112 36.828716 1.054172 2.309545 0.000312 -0.011877 -488167.000000 0 0 1
-13.179463 -23.221424 -23.293612 35.433391 1.054574 2.288148 -0.005376 -0.007365 515842.000000 0 0 1
-11.803563 -22.889424 -23.085312 34.585857 1.094685 2.301614 -0.005218 -0.021086 226223.000000 0 0 1
-11.643563 -22.064624 -21.965212 33.239897 1.085233 2.292692 -0.016095 -0.013259 85016.200000 0 0 1
-10.178063 -21.681024 -21.688212 32.311582 1.131890 2.306651 -0.000080 -0.020880 -122049.000000 0 0 1
-9.558863 -21.021124 -22.746012 32.413587 1.144019 2.348638 0.003099 -0.016406 -415432.000000 0 0 1
-8.239563 -20.669624 -22.399012 31.572765 1.191470 2.359501 0.017950 -0.012747 7512.300000 0 0 1
-7.691963 -19.590724 -23.333612 31.423244 1.196657 2.407679 0.021807 -0.001978 -165246.000000 0 0 1
-8.318263 -18.394324 -22.973312 30.582965 1.146099 2.420644 0.002770 -0.000094 -128099.000000 0 0 1
-8.435063 -17.413724 -24.007212 30.833980 1.119713 2.463222 -0.003415 -0.001540 77929.900000 0 0 1
-7.161063 -16.842624 -24.704612 30.745287 1.168777 2.503990 0.016183 -0.007423 366092.000000 0 0 1
-6.766663 -17.563924 -25.890912 32.009663 1.203062 2.512985 0.011443 -0.008320 -132245.000000 0 0 1
-5.796463 -16.853624 -26.611072 32.028000 1.239540 2.551464 0.024629 -0.006718 -124468.000000 0 0 1
-5.395863 -17.506424 -27.968452 33.433883 1.271814 2.561716 0.044204 -0.004429 -512785.000000 0 0 1
-6.389463 -17.294424 -28.889392 34.271261 1.216898 2.573563 0.058848 -0.004178 -511420.000000 0 0 1
-6.121163 -18.113724 -30.027762 35.598345 1.244915 2.574592 0.063897 -0.011317 47681.200000 0 0 1
-7.045763 -17.886724 -31.262792 36.700679 1.195551 2.590268 0.065147 -0.009933 193734.000000 0 0 1
-6.953963 -16.668524 -32.021972 36.764168 1.175558 2.628052 0.065457 -0.012429 -162831.000000 0 0 1
-7.040163 -15.423724 -31.354142 35.644599 1.142591 2.645885 0.054667 -0.011210 -211892.000000 0 0 1
-7.509663 -14.286324 -32.229852 36.045214 1.086837 2.677327 0.044869 -0.013498 355769.000000 0 0 1
-6.586263 -13.843124 -33.280682 36.641708 1.126713 2.709934 0.060004 -0.015060 308133.000000 0 0 1
-7.184763 -13.228224 34.283351 37.442688 1.073236 0.413744 0.059730 -0.011667 -326712.000000 0 0 1
-7.667863 -11.719224 -34.131634 36.893154 0.991406 2.752222 0.044867 -0.009829 319773.000000 0 0 1
-6.635063 -10.748324 -34.095760 36.360300 1.017745 2.786803 0.035704 -0.014227 50818.000000 0 0 1
-6.110963 -10.372824 33.272115 35.383231 1.038406 0.347181 0.029818 -0.010799 453259.000000 0 0 1
-5.036563 -9.238524 33.316652 34.938755 1.071669 0.305911 0.043871 -0.010731 276052.000000 0 0 1
-4.802263 -8.619524 32.090128 33.572820 1.062490 0.298303 0.040759 -0.005956 -208904.000000 0 0 1
-3.719463 -7.729124 32.208748 33.331325 1.122280 0.260269 0.038531 -0.013883 -841407.000000 0 0 1
-3.721863 -6.649624 31.172578 32.090488 1.060529 0.239755 0.032403 -0.010176 378950.000000 0 0 1
-4.851963 -5.766324 31.109418 32.009185 0.871298 0.237665 0.022869 -0.002283 730492.000000 0 0 1
-5.974463 -6.413424 30.474708 31.710157 0.820818 0.280058 0.012954 -0.000087 848419.000000 0 0 1
-7.340163 -5.635224 30.704988 32.069145 0.654749 0.292722 0.003662 -0.000024 1153240.000000 0 0 1
-8.403663 -6.340824 30.061958 31.851985 0.646395 0.336846 0.003354 0.010706 -494680.000000 0 0 1
-9.497263 -5.498024 29.890298 31.841109 0.524765 0.351861 0.007002 0.004694 -585312.000000 0 0 1
-10.590263 -6.020024 28.965608 31.422935 0.516897 0.398102 0.018822 0.006863 -352381.000000 0 0 1
-10.232863 -6.082424 27.624078 30.079845 0.536292 0.406884 0.010668 0.011072 -126786.000000 0 0 1
-11.241763 -6.659724 26.853718 29.863880 0.534819 0.452850 0.020230 0.006574 -279571.000000 0 0 1
-11.050463 -6.410024 25.334678 28.373351 0.525635 0.467042 0.005639 0.004935 31613.800000 0 0 1
-10.155463 -7.296624 24.689298 27.675542 0.623030 0.468829 0.011296 0.006610 86438.500000 0 0 1
-9.595363 -6.816924 23.498078 26.281193 0.617698 0.464373 0.008146 -0.002867 272396.000000 0 0 1
-10.572263 -6.844524 22.241878 25.560153 0.574548 0.515233 0.019286 -0.005035 75738.700000 0 0 1
-11.547063 -5.863424 22.243278 25.738645 0.469856 0.527243 0.006830 -0.002215 -598405.000000 0 0 1
-12.442663 -6.043624 21.162778 25.282572 0.452157 0.578927 0.011234 -0.008555 -384772.000000 0 0 1
-13.585263 -5.033824 21.202678 25.679804 0.354851 0.599433 0.003591 0.004205 -406728.000000 0 0 1
-13.202663 -3.673524 20.914978 25.004828 0.271377 0.580046 0.001669 0.008931 -478968.000000 0 0 1
-14.258163 -2.772524 21.025978 25.555310 0.192055 0.604540 0.004832 0.013789 -319756.000000 0 0 1
-13.988163 -1.428524 20.293678 24.688920 0.101771 0.605926 -0.001260 0.005611 212430.000000 0 1 0
-13.064163 -0.615524 21.041378 24.774802 0.047081 0.556128 -0.005719 0.007229 310057.000000 0 1 0
-13.137363 0.791476 20.733578 24.558054 -0.060173 0.565599 0.007494 -0.002423 -381831.000000 0 1 0
-12.549763 1.169476 19.372978 23.112259 -0.092919 0.576800 0.024742 -0.016368 14090.900000 0 1 0
-13.324563 0.833476 18.217378 22.585649 -0.062470 0.632434 0.022352 -0.013685 -672410.000000 0 1 0
-14.551063 1.478476 18.097878 23.269132 -0.101259 0.679697 0.011195 -0.010218 -481718.000000 0 1 0
-15.513163 0.770476 17.096978 23.098886 -0.049625 0.737481 0.021071 -0.007232 4781.550000 0 1 0
-15.835963 -0.525524 17.616278 23.693610 0.033173 0.732502 0.004052 -0.003227 909048.000000 0 1 0
-16.876263 -1.298524 16.955078 23.957652 0.076793 0.784544 0.013804 0.002932 546777.000000 0 1 0
-16.870363 -2.766524 17.471878 24.444413 0.162541 0.774516 0.012697 0.008218 -223825.000000 0 1 0
-17.262663 -3.032524 18.784078 25.691192 0.173895 0.750792 0.006606 0.009733 -110260.000000 0 0 1
-17.147863 -4.429924 18.972178 25.954132 0.252810 0.751027 0.013169 0.011768 -131248.000000 0 0 1
-17.758063 -5.006324 20.238878 27.386571 0.274787 0.739201 0.017130 0.015007 -318740.000000 0 0 1
-17.139363 -4.517624 21.393478 27.782145 0.257720 0.691886 0.015569 0.012462 -24421.000000 0 0 1
-17.919563 -4.538024 22.604278 29.200305 0.248030 0.685487 0.017136 0.012907 -160215.000000 0 0 1
-18.207263 -5.950624 23.222078 30.102812 0.315883 0.689718 0.027222 0.014119 -800884.000000 0 0 1
-17.165963 -6.573124 23.846678 30.108808 0.365693 0.656691 0.005982 0.003238 -441268.000000 0 0 1
-16.214563 -7.204024 22.966878 29.022190 0.418098 0.657773 0.017819 0.004297 -221704.000000 0 0 1
-15.101263 -7.866424 23.759298 29.230686 0.480237 0.621819 0.028809 0.003726 -386640.000000 0 0 1
-15.466463 -9.141424 24.235778 30.168693 0.533811 0.637910 0.020098 -0.003397 690195.000000 0 0 1
-14.551663 -9.493624 25.282398 30.677018 0.578066 0.602100 0.038643 0.005152 433314.000000 0 0 1
-15.326763 -10.196324 26.416048 32.197551 0.587030 0.608622 0.028249 -0.003863 -380923.000000 0 0 1
-15.376663 -11.580824 26.136818 32.460600 0.645510 0.634807 0.023459 -0.008951 -241043.000000 0 0 1
-14.547263 -12.449624 26.858358 32.984654 0.707855 0.619329 0.036591 -0.010794 -363682.000000 0 0 1
-14.753463 -13.943924 26.592168 33.455061 0.757196 0.652016 0.016969 -0.008521 74557.200000 0 0 1
-15.846263 -14.541124 27.282688 34.740372 0.742475 0.667566 0.014623 -0.007931 173061.000000 0 0 1
-16.012163 -15.965924 27.272738 35.427424 0.783952 0.692237 0.027335 0.000612 143235.000000 0 0 1
-14.905163 -16.786424 28.030898 35.912103 0.844690 0.675264 0.030754 -0.006732 -144800.000000 0 0 1
-13.772663 -16.964824 27.262348 34.938906 0.888880 0.675673 0.037489 -0.008958 -528510.000000 0 0 1
-12.667263 -17.401224 28.029358 35.339879 0.941556 0.654854 0.042340 -0.009772 -271718.000000 0 0 1
-11.460963 -17.877624 27.234238 34.535009 1.000718 0.662271 0.047361 -0.015230 -722894.000000 0 0 1
-10.536963 -18.517724 28.045558 35.220549 1.053467 0.649669 0.052643 -0.011243 -977453.000000 0 0 1
-9.554763 -19.181424 27.358648 34.752211 1.108649 0.664461 0.053435 -0.021542 -1121090.000000 0 0 1
-8.522563 -19.772924 28.288348 35.550433 1.163836 0.650594 0.066217 -0.019327 -681419.000000 0 0 1
-8.843363 -21.037324 28.870568 36.800595 1.172858 0.668885 0.058412 -0.012285 -69692.600000 0 0 1
-7.850163 -21.513824 29.748278 37.542373 1.220919 0.656076 0.068074 -0.016812 856.828000 0 0 1
-8.221963 -22.810124 30.509438 38.970864 1.224840 0.671518 0.063723 -0.014738 99817.500000 0 0 1
-8.352363 -23.868524 29.588708 38.922488 1.234182 0.707182 0.068529 -0.016770 -238441.000000 0 0 1
-9.022063 -24.904424 30.179378 40.154985 1.223235 0.720354 0.050480 -0.024262 -872820.000000 0 0 1
-9.080963 -26.176824 29.256808 40.294551 1.236878 0.758202 0.056921 -0.021119 -588673.000000 0 0 1
-10.140463 -26.205324 28.352358 39.917468 1.201580 0.780908 0.045758 -0.021144 -281085.000000 0 0 1
-10.241463 -27.410424 27.587668 40.215648 1.213224 0.814828 0.047884 -0.016667 -536178.000000 0 0 1
-11.502863 -27.517424 26.732628 40.051940 1.174852 0.840019 0.035982 -0.010112 -523650.000000 0 0 1
-11.650763 -26.868324 25.483388 38.820744 1.161643 0.854710 0.034883 -0.010535 109675.000000 0 0 1
-11.696863 -25.440124 25.519988 37.885173 1.139839 0.831708 0.029471 0.000257 -342411.000000 0 0 1
-11.965463 -24.815724 24.140368 36.629904 1.121512 0.851262 0.040446 -0.023766 737910.000000 0 0 1
-13.292663 -25.059824 23.633258 36.921817 1.083096 0.876182 0.027451 -0.012162 808520.000000 0 0 1
-13.336063 -24.670924 22.297678 35.828641 1.075231 0.899065 0.041911 -0.023706 734758.000000 0 0 1
-14.744263 -24.871124 21.627178 36.106799 1.035668 0.928572 0.038953 -0.020867 513038.000000 0 0 1
-14.896563 -26.153624 21.122278 36.770508 1.053045 0.958882 0.060654 -0.020717 -15839.300000 0 0 1
-16.036063 -26.278424 20.311478 36.881798 1.022884 0.987572 0.061131 -0.020589 -226195.000000 0 0 1
-16.160663 -27.773324 19.876578 37.783633 1.043809 1.016832 0.070402 -0.023887 -134164.000000 0 0 1
-15.192463 -28.215524 18.970678 37.239943 1.076869 1.036289 0.058772 -0.022786 -104272.000000 0 0 1
-15.173263 -29.644224 18.762178 38.223386 1.097717 1.057724 0.084910 -0.015391 737178.000000 0 0 1
-14.078663 -29.850124 17.615078 37.410288 1.130089 1.080529 0.065887 -0.021015 722945.000000 0 0 1
-14.474363 -29.368624 16.367578 36.604930 1.112884 1.107229 0.076615 -0.024435 -34142.600000 0 0 1
-13.470763 -29.634124 15.405378 36.013448 1.144149 1.128775 0.066727 -0.017778 -79975.900000 0 0 1
-13.861163 -29.132624 14.003778 35.170264 1.126699 1.161274 0.043286 -0.008929 -250818.000000 0 0 1
-13.794663 -27.738824 13.966478 33.982313 1.109307 1.147254 0.042232 -0.004453 -252480.000000 0 0 1
-14.114163 -27.136224 12.712178 33.123764 1.091181 1.176912 0.034454 -0.001469 52619.700000 0 0 1
-13.186863 -27.251424 11.459778 32.370666 1.120114 1.208933 0.026036 0.011262 73145.300000 0 0 1
-13.641463 -26.559424 10.334478 31.595790 1.096312 1.237580 0.015202 0.002955 -366455.000000 0 0 1
-12.822663 -26.768224 9.223278 31.080981 1.124069 1.269509 0.024352 -0.003028 -40595.300000 0 0 1
-13.394263 -26.047324 7.995278 30.361058 1.095831 1.304314 0.025533 -0.009981 136582.000000 0 0 1
-14.616663 -26.504024 7.458178 31.172657 1.066811 1.329199 0.024512 -0.016399 -85058.500000 0 0 1
-14.904963 -25.783424 6.241578 30.428608 1.046648 1.364208 0.037980 -0.019047 -251948.000000 0 0 1
-15.647463 -26.548924 5.135078 31.241919 1.038221 1.405682 0.034493 -0.013402 -200331.000000 0 0 1
-14.988663 -27.621124 4.506978 31.747431 1.073612 1.428352 0.050476 -0.017952 -449415.000000 0 0 1
-15.707563 -28.086524 3.393778 32.358895 1.060874 1.465724 0.054099 -0.012265 -372830.000000 0 0 1
-15.013763 -29.253624 2.625078 32.986037 1.096623 1.491131 0.057234 -0.020615 -280950.000000 0 0 1
-13.907663 -28.883624 1.840878 32.110367 1.122052 1.513435 0.049987 -0.009981 -277556.000000 0 0 1
-13.315163 -29.945624 1.120978 32.791623 1.152405 1.536605 0.047622 -0.013553 758465.000000 0 0 1
-11.980063 -29.528424 0.388778 31.868494 1.185375 1.558597 0.031952 -0.005671 607575.000000 0 0 1
-11.983063 -28.679424 -0.783222 31.092067 1.175016 1.595989 0.043036 -0.002823 -308633.000000 0 0 1
-12.024563 -27.250424 -0.517522 29.789991 1.155233 1.588170 0.046102 -0.010104 -97513.200000 0 0 1
-11.576463 -26.465324 -1.781222 28.941331 1.158453 1.632381 0.050296 -0.006116 -271510.000000 0 0 1
-10.335163 -26.848624 -2.276222 28.859061 1.203338 1.649752 0.054125 -0.007502 -785378.000000 0 0 1
-9.882163 -25.965824 -3.304622 27.978593 1.207140 1.689185 0.066565 -0.014892 863430.000000 0 0 1
-8.565563 -26.461324 -4.008722 28.100541 1.257740 1.713941 0.060432 -0.013455 693057.000000 0 0 1
-8.144663 -25.540824 -4.997422 27.269827 1.262102 1.755096 0.063346 -0.017570 -451921.000000 0 0 1
-6.956763 -26.023724 -5.569122 27.507197 1.309580 1.774666 0.049063 -0.010884 162126.000000 0 0 1
-6.058763 -25.016024 -6.306722 26.500657 1.333177 1.811086 0.042135 -0.013096 -244827.000000 0 0 1
-6.696063 -24.491824 -7.436722 26.457353 1.303918 1.855719 0.046817 -0.018164 -340621.000000 0 0 1
-5.915963 -23.527424 -8.109922 25.579467 1.324454 1.893412 0.028085 -0.016950 -604892.000000 0 0 1
-5.990663 -23.416124 -9.639222 26.021482 1.320334 1.950272 0.035085 -0.018659 -290149.000000 0 0 1
-5.348563 -24.506324 -10.273322 27.105501 1.355914 1.959525 0.020387 -0.017424 -188469.000000 0 0 1
-5.678863 -24.658524 -11.607622 27.839346 1.344443 2.000884 0.008747 -0.010485 338643.000000 0 0 1
-7.082163 -25.230524 -11.998422 28.821841 1.297140 2.000164 0.022589 -0.014476 539736.000000 0 0 1
-7.343363 -25.059224 -13.356822 29.330775 1.285737 2.043602 0.035854 -0.010748 118146.000000 0 0 1
-8.532563 -25.712024 -13.820022 30.412264 1.250380 2.042520 0.048611 -0.015008 -11239.400000 0 0 1
-8.652363 -25.899724 -15.358622 31.329640 1.248381 2.083146 0.051475 -0.019764 1006830.000000 0 0 1
-7.598163 -26.664224 -16.050022 32.036169 1.293197 2.095547 0.043409 -0.020572 1800350.000000 0 0 1
-6.271263 -26.105224 -16.115422 31.313229 1.335034 2.111398 0.051264 -0.019701 479542.000000 0 0 1
-5.398663 -27.039124 -16.958922 32.370740 1.373727 2.122216 0.033794 -0.013380 -692445.000000 0 0 1
-5.601163 -27.095724 -18.391922 33.223698 1.366950 2.157451 0.063506 -0.019613 534828.000000 0 0 1
-4.480463 -27.519024 -19.201022 33.853367 1.409399 2.173877 0.063327 -0.018326 563519.000000 0 0 1
-24.310563 14.596045 -5.607912 28.904959 -0.540713 1.766047 0.027308 -0.018140 -32861.600000 0 0 1
-24.722963 13.329245 -5.138912 28.553495 -0.494471 1.751757 0.016435 -0.014344 160994.000000 0 0 1
-23.607363 12.566645 -4.771612 27.166089 -0.489167 1.747358 0.040541 -0.019095 -760870.000000 0 0 1
-24.081463 11.284745 -4.035212 26.898796 -0.438219 1.721379 0.063477 -0.027396 -33048.500000 0 0 1
-24.598263 10.378145 -4.940012 27.151135 -0.399247 1.753760 0.064363 -0.021356 602242.000000 0 0 1
-25.991223 10.500645 -5.248512 28.519363 -0.383956 1.755885 0.049646 -0.019039 190424.000000 0 0 1
-26.343173 9.727345 -6.555012 28.836646 -0.353724 1.800116 0.073588 -0.021523 -6283.810000 0 0 1
-25.747453 10.285645 -7.738712 28.785647 -0.380060 1.842984 0.090675 -0.026167 75823.300000 0 0 1
-26.210753 9.671845 -8.927812 29.330086 -0.353503 1.880095 0.097109 -0.024665 -414665.000000 0 0 1
-26.785583 10.584045 -10.001512 30.488025 -0.376309 1.905032 0.067061 -0.019944 -59787.200000 0 0 1
-25.822193 11.490645 -10.514212 30.155749 -0.418681 1.926941 0.076457 -0.016915 99233.300000 0 0 1
-26.255233 12.079245 -11.693512 31.176652 -0.431197 1.955272 0.063083 -0.019848 144588.000000 0 0 1
-25.159573 12.934945 -12.427412 30.899150 -0.474877 1.984707 0.056385 -0.015564 227224.000000 0 0 1
-24.857763 14.103845 -11.651612 30.864006 -0.516090 1.957907 0.049212 -0.019330 362186.000000 0 0 1
-24.092863 15.061445 -12.394012 30.998785 -0.558701 1.982120 0.041424 -0.020326 139348.000000 0 0 1
-24.073163 16.442145 -11.760412 31.435149 -0.599230 1.954240 0.039727 -0.017439 19301.800000 0 0 1
-23.259163 16.592045 -10.599612 30.473536 -0.619633 1.926052 0.038577 -0.014569 295595.000000 0 0 1
-23.298263 17.930445 -10.214612 31.123113 -0.655930 1.905194 0.018309 -0.013131 -249272.000000 0 0 1
-22.282663 18.194645 -9.099912 30.172347 -0.684744 1.877164 0.015834 -0.014314 -358902.000000 0 0 1
-22.673763 17.804045 -7.788112 29.861986 -0.665668 1.834651 0.030105 -0.017971 776953.000000 0 0 1
-23.631063 18.738545 -7.199112 31.006248 -0.670435 1.805117 0.014911 -0.021947 460929.000000 0 0 1
-23.947463 18.310845 -5.752312 30.689690 -0.652796 1.759346 0.013036 -0.020926 54027.100000 0 0 1
-22.762963 18.429645 -5.008112 29.713389 -0.680587 1.740152 0.031816 -0.031194 124824.000000 0 0 1
-22.988763 17.778045 -3.795812 29.307853 -0.658270 1.700676 0.020004 -0.022861 -579512.000000 0 0 1
-21.736863 17.531745 -2.987612 28.085211 -0.678719 1.677375 0.030152 -0.028997 -1158300.000000 0 0 1
-21.149763 18.625145 -2.362612 28.280566 -0.722011 1.654436 0.040243 -0.034565 406622.000000 0 0 1
-20.316663 18.169445 -1.267912 27.285584 -0.729664 1.617281 0.058925 -0.041521 595174.000000 0 0 1
-19.460063 19.320745 -0.646212 27.429962 -0.781806 1.594357 0.058641 -0.040625 284603.000000 0 0 1
-20.316963 20.072545 0.172688 28.560739 -0.779347 1.564750 0.050196 -0.033328 264945.000000 0 0 1
-19.679563 21.230345 0.688788 28.956642 -0.823287 1.547007 0.057944 -0.040652 50060.400000 0 0 1
-20.610063 22.057645 1.591788 30.229921 -0.819312 1.518116 0.041157 -0.031124 17764.600000 0 0 1
-20.758163 21.497445 2.858488 30.020200 -0.802892 1.475433 0.047122 -0.026791 536369.000000 0 0 1
-21.710963 22.246045 3.630188 31.295857 -0.797570 1.454539 0.030099 -0.020500 251068.000000 0 0 1
-21.536463 22.075245 5.174688 31.271601 -0.797752 1.404556 0.035863 -0.024103 -157001.000000 0 0 1
-20.462663 22.732045 5.816988 31.133643 -0.837888 1.382853 0.024036 -0.016801 -180006.000000 0 0 1
-20.103963 22.240445 7.068588 30.802137 -0.835810 1.339249 0.026053 -0.010393 646602.000000 0 0 1
-21.193263 22.142545 8.247288 31.740580 -0.807300 1.307946 0.023003 -0.021730 275860.000000 0 0 1
-22.166863 21.128345 8.118788 31.681090 -0.761416 1.311639 0.039230 -0.025000 463164.000000 0 0 1
-22.664663 20.619445 9.375888 32.043029 -0.738182 1.273848 0.060337 -0.028472 341229.000000 0 0 1
-23.371863 21.571445 10.443188 33.475832 -0.745360 1.253539 0.065802 -0.027011 -711135.000000 0 0 1
-24.597063 22.121445 10.072488 34.580758 -0.732458 1.275238 0.082851 -0.024829 -294484.000000 0 0 1
-24.963763 23.097545 10.986488 35.740578 -0.746588 1.258342 0.091012 -0.019962 300235.000000 0 0 1
-26.370643 23.679445 10.665788 37.011970 -0.731680 1.278480 0.080193 -0.030368 431645.000000 0 0 1
-27.102913 24.120545 11.810088 38.155559 -0.727241 1.256103 0.067195 -0.019082 327691.000000 0 0 1
-27.514023 25.489445 11.784988 39.314363 -0.747220 1.266352 0.055762 -0.017658 123383.000000 0 0 1
-27.910793 26.023245 13.193488 40.376846 -0.750415 1.237924 0.052505 -0.015914 -118072.000000 0 0 1
-26.853553 25.888945 14.109788 39.880281 -0.767111 1.209162 0.053634 -0.019221 -89368.900000 0 0 1
-27.204813 26.407845 15.337488 40.898834 -0.770534 1.186388 0.042380 -0.014042 10175.100000 0 0 1
-26.018923 26.556345 16.329488 40.606353 -0.795620 1.156942 0.043854 -0.015666 176494.000000 0 0 1
-25.580723 25.345445 16.893688 39.776395 -0.780778 1.132148 0.055662 -0.015485 837295.000000 0 0 1
-24.581563 25.499945 17.939088 39.702786 -0.803734 1.101976 0.055306 -0.017944 633943.000000 0 0 1
-24.191563 24.237245 18.727388 39.030639 -0.786341 1.070355 0.066524 -0.016837 225302.000000 0 0 1
-22.955263 24.237845 19.439288 38.630339 -0.812569 1.043484 0.056409 -0.022848 767792.000000 0 0 1
-22.612963 22.886045 19.698988 37.724889 -0.791400 1.021397 0.058338 -0.024018 305883.000000 0 0 1
-21.145163 22.727345 20.232688 37.054173 -0.821446 0.993178 0.065535 -0.019515 -178285.000000 0 0 1
-20.211363 22.952345 19.224188 36.123105 -0.848815 1.009617 0.062359 -0.026264 -489979.000000 0 0 1
-18.882463 22.669145 19.552088 35.393808 -0.876279 0.985537 0.054373 -0.023564 -323067.000000 0 0 1
-18.471063 21.193445 19.446788 34.183619 -0.853926 0.965638 0.054618 -0.011087 -786076.000000 0 0 1
-18.854663 20.293945 20.451688 34.432746 -0.822146 0.934824 0.064685 -0.016943 -111127.000000 0 0 1
-18.142463 20.487145 21.646188 34.891682 -0.846020 0.901566 0.058400 -0.010339 -369701.000000 0 0 1
-18.918663 20.191045 22.963688 35.957267 -0.817920 0.878069 0.041410 -0.009694 -54661.500000 0 0 1
-19.749863 21.312545 23.230088 37.201056 -0.823436 0.896373 0.034608 -0.007923 362541.000000 0 0 1
-20.479363 21.300545 24.445988 38.350017 -0.805051 0.879620 0.041482 0.000780 365471.000000 0 0 1
-21.678863 22.291045 24.546988 39.615885 -0.799320 0.902532 0.035667 -0.002704 -12819.700000 0 0 1
-21.225663 23.675045 24.582388 40.191171 -0.839895 0.912669 0.036719 -0.006451 299481.000000 0 0 1
-22.212163 24.652545 24.853488 41.458702 -0.837424 0.927950 0.022393 -0.010239 118388.000000 0 0 1
-23.180563 25.041745 23.693688 41.542969 -0.823975 0.963875 0.022992 -0.016239 385344.000000 0 0 1
-24.262963 24.146045 23.457988 41.496988 -0.782983 0.970007 0.023241 -0.012540 101747.000000 0 0 1
-24.933663 24.508745 22.289788 41.463245 -0.776804 1.003233 0.026132 -0.019071 -245640.000000 0 0 1
-26.081093 23.509145 22.070588 41.473053 -0.733581 1.009638 0.030032 -0.011591 -440782.000000 0 0 1
-27.276013 23.625345 22.787388 42.677896 -0.713800 1.007544 0.018762 -0.015365 -513753.000000 0 0 1
-28.041533 22.475145 22.620088 42.463255 -0.675652 1.009011 0.028235 -0.019940 -117655.000000 0 0 1
-29.499913 22.786945 23.055688 43.829835 -0.657709 1.016874 0.037018 -0.013758 -527619.000000 0 0 1
-30.087113 23.684145 22.175088 44.248249 -0.666878 1.045867 0.039423 -0.014625 497663.000000 0 0 1
-31.480273 23.968245 22.402288 45.468085 -0.650740 1.055602 0.049703 -0.020755 988548.000000 0 0 1
-32.278883 23.180745 21.331888 45.103466 -0.622797 1.078155 0.058822 -0.031071 -892397.000000 0 0 1
-32.071823 21.815645 21.576788 44.385605 -0.597322 1.063151 0.047647 -0.031576 473924.000000 0 0 1
-32.809883 20.913145 20.741288 44.091371 -0.567469 1.081034 0.024883 -0.019808 -462301.000000 0 0 1
-34.297460 20.718945 20.988088 45.233729 -0.543426 1.088300 0.039519 -0.018889 -738509.000000 0 0 1
-34.824768 19.761545 20.128688 44.815702 -0.516147 1.104990 0.036981 -0.004323 1115590.000000 0 0 1
35.422430 19.570245 20.187988 45.224969 0.504747 1.108069 0.064149 -0.007874 1248340.000000 0 0 1
34.784060 18.892945 18.964188 43.892079 0.497568 1.124016 0.062941 -0.018264 -360193.000000 0 0 1
34.850560 17.463345 19.041488 43.383271 0.464521 1.116408 0.066385 -0.004225 407730.000000 0 0 1
34.245940 16.955245 17.876388 42.188031 0.459722 1.133236 0.072541 -0.019051 -138851.000000 0 0 1
34.584140 15.479045 17.740288 41.837559 0.420837 1.132908 0.070775 -0.025270 133813.000000 0 0 1
33.903840 14.782345 16.668588 40.568829 0.411157 1.147386 0.086651 -0.026930 540235.000000 0 0 1
34.471550 13.498845 16.396688 40.488985 0.373239 1.153854 0.085821 -0.029723 419539.000000 0 0 1
33.607290 12.659645 15.379988 39.067385 0.360254 1.166167 0.080685 -0.029757 218288.000000 0 0 1
33.517050 13.183645 14.095188 38.676549 0.374753 1.197768 0.078040 -0.025185 576539.000000 0 0 1
32.641030 12.394445 13.282588 37.356207 0.362902 1.207277 0.077182 -0.019979 -49925.200000 0 0 1
32.667480 12.872745 11.820488 37.048559 0.375370 1.246065 0.089318 -0.019889 657224.000000 0 0 1
33.942870 12.667145 11.172688 37.913110 0.357183 1.271663 0.104323 -0.023688 1031720.000000 0 0 1
33.903240 12.422445 9.755688 37.402142 0.351217 1.306912 0.098790 -0.028448 1053620.000000 0 0 1
35.370550 12.287945 9.149288 38.545802 0.334362 1.331148 0.084995 -0.022665 1175610.000000 0 0 1
-35.488273 11.196045 9.633388 38.439187 -0.305603 1.317482 0.091347 -0.021044 1096050.000000 0 0 1
-34.151883 11.192145 9.132588 37.081253 -0.316687 1.321950 0.074843 -0.014217 431715.000000 0 0 1
-33.890623 10.861245 7.695088 36.410923 -0.310138 1.357851 0.084521 -0.022847 -881294.000000 0 0 1
-34.353393 11.896345 6.887588 37.001587 -0.333369 1.383561 0.067422 -0.025696 33537.700000 0 0 1
-33.921613 11.672745 5.575488 36.304474 -0.331417 1.416610 0.067021 -0.039922 -95956.100000 0 0 1
-34.705434 12.650545 4.676488 37.234029 -0.349544 1.444867 0.094560 -0.043300 387594.000000 0 0 1
35.657021 12.133845 4.500388 37.932925 0.328001 1.451876 0.094048 -0.051171 321163.000000 0 0 1
34.659420 13.110045 4.289188 37.303428 0.361620 1.455560 0.072455 -0.043513 454936.000000 0 0 1
33.884210 13.653945 5.538088 36.949158 0.383055 1.420345 0.095317 -0.039319 -1036980.000000 0 0 1
32.947020 14.649045 5.228288 36.433990 0.418374 1.426799 0.075309 -0.028180 140067.000000 0 0 1
32.235170 15.188545 6.361288 36.197569 0.440326 1.394141 0.066797 -0.018662 241701.000000 0 0 1
31.115270 14.323445 6.964588 34.954636 0.431415 1.370207 0.091346 -0.037067 -809655.000000 0 0 1
31.585920 13.140945 7.590588 35.042428 0.394255 1.352454 0.099315 -0.029178 180885.000000 0 0 1
30.824990 11.931745 7.355488 33.862217 0.369319 1.351833 0.098513 -0.015322 -77881.900000 0 0 1
31.027280 11.220145 5.986688 33.532434 0.346991 1.391300 0.106131 -0.031901 -266342.000000 0 0 1
30.711580 11.934145 4.820588 33.299595 0.370630 1.425522 0.109312 -0.038145 119572.000000 0 0 1
31.039300 11.164645 3.683788 33.191229 0.345285 1.459580 0.121920 -0.045385 -438939.000000 0 0 1
30.106990 11.311645 2.481788 32.257455 0.359397 1.493783 0.099210 -0.048249 182895.000000 0 0 1
28.789710 10.842245 2.719488 30.883608 0.360174 1.482626 0.077082 -0.040244 -71187.200000 0 0 1
27.824480 11.374745 1.862488 30.117360 0.388072 1.508916 0.071008 -0.039073 180413.000000 0 0 1
26.439270 10.700845 2.028588 28.594724 0.384580 1.499794 0.089594 -0.022093 209218.000000 0 0 1
26.457270 9.382745 1.481088 28.110792 0.340800 1.518084 0.049134 -0.030055 329133.000000 0 0 1
25.163170 8.795145 1.548688 26.700901 0.336251 1.512762 0.049924 -0.028831 -109845.000000 0 0 1
25.226170 7.283345 1.621888 26.306601 0.281078 1.509104 0.059867 -0.023432 -104982.000000 0 0 1
25.760870 6.749845 2.803288 26.777626 0.256259 1.465916 0.076864 -0.011729 781054.000000 0 0 1
27.184440 6.619245 2.679388 28.106712 0.238846 1.475322 0.105065 -0.030005 163113.000000 0 0 1
27.800030 6.163345 3.996588 28.754151 0.218174 1.431353 0.106894 -0.038120 -993585.000000 0 0 1
29.186170 6.082645 4.062588 30.088797 0.205467 1.435363 0.132271 -0.043921 -440362.000000 0 0 1
29.578640 5.564545 5.299688 30.560543 0.185954 1.396499 0.114351 -0.025522 103950.000000 0 0 1
31.107350 5.622445 5.539988 32.093154 0.178813 1.397305 0.120589 -0.030177 115869.000000 0 0 1
31.605790 6.935045 5.747388 32.864164 0.216000 1.395009 0.124308 -0.042965 530904.000000 0 0 1
32.949190 6.785945 6.246988 34.215830 0.203112 1.387191 0.076011 -0.026405 515196.000000 0 0 1
33.239680 7.993445 7.048688 34.906381 0.235998 1.367467 0.092733 -0.036858 -24918.000000 0 0 1
32.506690 7.985845 8.275988 34.481162 0.240897 1.328415 0.098461 -0.032400 386924.000000 0 0 1
32.904220 9.028845 9.179488 35.333705 0.267806 1.307987 0.098054 -0.022761 -382635.000000 0 0 1
32.254540 8.948145 10.522088 35.087590 0.270617 1.266229 0.100020 -0.016501 383636.000000 0 0 1
30.880190 9.380345 10.528988 33.947556 0.294908 1.255441 0.084036 -0.011248 800269.000000 0 0 1
30.290760 9.351445 11.787488 33.821953 0.299440 1.214809 0.073454 -0.012350 152405.000000 0 0 1
28.767690 9.707745 11.732488 32.549524 0.325454 1.202046 0.064550 -0.012358 323241.000000 0 0 1
28.400990 11.039545 11.656988 32.624732 0.370730 1.205415 0.066614 -0.008104 312606.000000 0 0 1
28.565410 11.534645 10.315888 32.487662 0.383776 1.247670 0.079398 -0.016937 -373846.000000 0 0 1
27.202740 11.718345 9.619988 31.142460 0.406755 1.256757 0.061422 -0.019504 -191324.000000 0 0 1
27.316770 12.628845 8.597988 31.298866 0.433045 1.292512 0.046982 -0.016809 146518.000000 0 0 1
26.069470 12.904645 7.983788 30.164349 0.459648 1.302928 0.044017 -0.013172 -12767.600000 0 0 1
25.927370 14.249845 7.188688 30.446080 0.502541 1.332433 0.019462 -0.016892 -312031.000000 0 0 1
25.902070 15.400045 7.993388 31.176479 0.536402 1.311509 0.025462 -0.009132 310543.000000 0 0 1
26.185970 16.565745 7.256688 31.824337 0.564059 1.340749 0.018631 0.003903 -681251.000000 0 0 1
25.747570 17.768545 8.104588 32.316294 0.604055 1.317301 0.033110 -0.006886 67998.600000 0 0 1
24.382670 18.132545 7.954088 31.409732 0.639435 1.314772 0.029330 -0.008820 337849.000000 0 0 1
23.470770 17.443745 8.763288 30.527962 0.639142 1.279642 0.028246 -0.013969 -1322040.000000 0 0 1
22.136870 18.102145 8.964788 29.968251 0.685463 1.267002 0.027206 -0.010634 -1114070.000000 0 0 1
21.411270 18.237645 7.779788 29.181831 0.705525 1.300936 0.025924 -0.010093 -335133.000000 0 0 1
20.330170 19.100845 7.958788 29.008626 0.754232 1.292873 0.041771 -0.018382 -442726.000000 0 0 1
19.682270 19.513845 6.608388 28.493028 0.781101 1.336735 0.035143 -0.008851 62948.200000 0 0 1
20.460370 20.358345 5.763188 29.433030 0.782899 1.373716 0.028804 0.005445 348644.000000 0 0 1
19.694170 20.742745 4.628988 28.974977 0.811323 1.410351 0.030647 -0.000049 164798.000000 0 0 1
17.714537 17.058245 32.800370 40.995766 0.766527 0.643348 0.039907 -0.005816 -111592.000000 0 0 1
17.299737 17.933745 31.815588 40.412025 0.803391 0.664411 0.035304 -0.013955 12074.000000 0 0 1
16.580037 17.262545 30.824138 39.025896 0.805563 0.660251 0.037308 -0.013907 -97140.600000 0 0 1
16.153637 18.052045 29.582738 38.235516 0.840841 0.686139 0.038316 -0.018922 -296794.000000 0 0 1
17.197537 18.364045 28.725858 38.185971 0.818189 0.719308 0.036328 -0.015543 -595990.000000 0 0 1
16.743937 18.687345 27.461188 37.198026 0.840193 0.740334 0.052949 -0.025646 -153314.000000 0 0 1
17.936837 19.009245 26.511088 37.227937 0.814416 0.778270 0.036237 -0.012817 317793.000000 0 0 1
18.630937 20.209145 26.960368 38.501725 0.826009 0.795066 0.045406 -0.020007 92822.100000 0 0 1
19.524637 20.487645 25.908958 38.369639 0.809461 0.829498 0.026342 -0.015323 -813971.000000 0 0 1
20.329837 21.688045 26.162858 39.600110 0.817711 0.849077 0.039855 -0.023963 -754712.000000 0 0 1
19.473937 22.787645 26.136948 39.769977 0.863648 0.853695 0.042160 -0.030899 470484.000000 0 0 1
20.119737 23.916845 26.711548 41.113576 0.871412 0.863605 0.047296 -0.037553 33889.000000 0 0 1
19.261037 25.190145 26.514288 41.334470 0.918000 0.874400 0.052328 -0.040840 -31876.600000 0 0 1
19.011637 25.522645 25.228958 40.612167 0.930572 0.900502 0.061484 -0.040529 922666.000000 0 0 1
18.032037 26.608545 25.203218 40.845700 0.975209 0.905827 0.056998 -0.043652 570798.000000 0 0 1
17.994837 27.378745 23.891408 40.548850 0.989337 0.940727 0.044538 -0.040588 -333880.000000 0 0 1
19.136237 28.182645 23.761288 41.533792 0.974298 0.961738 0.056753 -0.040691 -56822.900000 0 0 1
18.968837 29.055645 22.648578 41.436764 0.992424 0.992520 0.057771 -0.029204 -206676.000000 0 0 1
20.084837 30.111345 22.505778 42.621636 0.982550 1.014510 0.049184 -0.022789 -732271.000000 0 0 1
21.117237 29.545845 21.764678 42.339058 0.950254 1.030889 0.036420 -0.018221 -724565.000000 0 0 1
22.228337 30.434545 21.844378 43.560732 0.939980 1.045500 0.022784 -0.019938 321671.000000 0 0 1
23.025837 30.354045 20.499478 43.264140 0.921829 1.077171 0.013497 -0.015666 423433.000000 0 0 1
22.386837 31.206745 19.551778 43.096443 0.948506 1.099912 0.011827 -0.013366 378594.000000 0 0 1
23.112137 31.102245 18.325078 42.864076 0.931725 1.129053 0.017663 0.013930 218286.000000 0 0 1
22.689637 31.942545 17.111878 42.754674 0.953173 1.159024 0.003625 -0.010285 -257859.000000 0 0 1
23.123437 33.273845 17.278278 44.049756 0.963472 1.167726 0.021009 -0.009720 16067.500000 0 0 1
22.869937 34.143745 16.181478 44.166385 0.980618 1.195686 0.031088 -0.009036 262017.000000 0 0 1
23.774537 34.039845 14.868378 44.102248 0.961123 1.226925 0.018459 -0.002181 414334.000000 0 0 1
23.475437 32.978645 13.921078 42.807518 0.952170 1.239571 0.033041 -0.002123 -868219.000000 0 0 1
22.350237 33.266545 13.191278 42.192487 0.979212 1.252820 0.031117 -0.009022 -921643.000000 0 0 1
21.875737 32.066445 12.353578 40.735926 0.972117 1.262684 0.037803 -0.020387 351262.000000 0 0 1
22.818337 31.586045 11.370678 40.591219 0.945182 1.286870 0.055599 -0.040133 392348.000000 0 0 1
22.332537 30.387245 10.832478 39.236073 0.937009 1.291078 0.047832 -0.040134 240564.000000 0 0 1
23.372837 29.682345 9.833578 39.038831 0.903766 1.316161 0.053112 -0.038155 1364180.000000 0 0 1
24.530137 28.997845 10.310078 39.356071 0.868670 1.305734 0.053867 -0.031299 906140.000000 0 0 1
25.490637 29.845845 10.953478 40.749549 0.863940 1.298649 0.044086 -0.030916 -1013320.000000 0 0 1
26.784037 29.153945 11.296878 41.169851 0.827740 1.292834 0.049954 -0.033672 -780657.000000 0 0 1
26.726037 28.245645 12.366978 40.804897 0.813035 1.262878 0.042608 -0.020216 -10186.100000 0 0 1
28.000837 28.021645 12.948778 41.676496 0.785770 1.254870 0.040024 -0.005711 221610.000000 0 0 1
28.061637 26.849045 13.997678 41.282704 0.763319 1.224869 0.016512 -0.012470 -556455.000000 0 0 1
29.151137 26.952945 14.860978 42.392201 0.746238 1.212628 0.004801 -0.009021 -221797.000000 0 0 1
29.464337 25.768545 15.621078 42.144788 0.718585 1.191085 0.020916 -0.010312 948652.000000 0 0 1
30.626637 25.974845 16.689478 43.488184 0.703397 1.176920 0.028153 -0.011641 848596.000000 0 0 1
31.882637 26.343445 16.175778 44.408732 0.690551 1.197971 0.048476 -0.007311 -124044.000000 0 0 1
32.838537 26.575645 17.202378 45.613115 0.680375 1.184094 0.035698 -0.005658 1640350.000000 0 0 1
34.333137 26.577645 16.647878 46.500402 0.658754 1.204654 0.049649 -0.020303 1222600.000000 0 0 1
34.610137 27.686345 15.907178 47.089634 0.674710 1.226211 0.056008 -0.012160 124500.000000 0 0 1
-35.693095 27.967845 15.663778 47.974486 -0.664639 1.238196 0.050860 -0.010872 539888.000000 0 0 1
-35.525395 29.084645 14.631878 48.187780 -0.686040 1.262283 0.036187 -0.009889 118708.000000 0 0 1
35.776337 30.334645 15.232278 49.316927 0.703272 1.256797 0.036379 -0.007757 19555.500000 0 0 1
35.731337 31.299445 14.199278 49.578253 0.719377 1.280328 0.023983 0.006822 -277471.000000 0 0 1
34.835737 32.480445 14.447178 49.771767 0.750424 1.276289 -0.000837 0.002886 -712585.000000 0 0 1
34.532637 33.228645 13.280678 49.729491 0.766157 1.300457 -0.023213 0.003941 -335790.000000 0 0 1
33.460237 34.108745 13.405478 49.625606 0.794996 1.297266 -0.026874 0.009369 568895.000000 0 0 1
32.053737 33.473945 13.087078 48.158267 0.807068 1.295584 -0.002740 0.013002 500942.000000 0 0 1
31.626237 32.554945 14.103378 47.528398 0.799867 1.269524 -0.001671 -0.006830 428488.000000 0 0 1
30.761037 31.505145 13.572378 46.076295 0.797348 1.271798 0.018515 -0.008004 168398.000000 0 0 1
30.202837 30.659445 14.719978 45.485060 0.792900 1.241241 0.036479 -0.005788 46449.700000 0 0 1
29.137137 31.327045 15.377678 45.462396 0.821601 1.225739 0.003692 0.001243 270856.000000 0 0 1
28.521937 30.552045 16.387378 44.894036 0.819750 1.197138 0.003326 -0.000572 -126982.000000 0 0 1
27.493337 31.203845 17.299178 45.042481 0.848529 1.176603 -0.012513 0.005300 -276568.000000 0 0 1
27.144737 30.341945 18.411878 44.681849 0.840957 1.146076 -0.035779 0.012619 244440.000000 0 0 1
28.091237 30.305345 19.486978 45.686692 0.823295 1.130138 -0.037812 0.007044 147649.000000 0 0 1
28.035937 29.067545 20.450878 45.267807 0.803462 1.102042 -0.020416 0.007573 196036.000000 0 0 1
26.954037 29.065345 21.386078 45.040856 0.823069 1.076042 -0.016579 -0.001607 372007.000000 0 0 1
27.068337 28.012845 22.316278 44.893548 0.802544 1.050551 -0.015227 0.000856 91144.100000 0 0 1
26.068637 28.008445 23.525078 44.916324 0.821254 1.019545 -0.001468 -0.010313 1180810.000000 0 0 1
24.683137 27.857945 23.123978 43.818269 0.845750 1.014877 0.019871 -0.012793 1605600.000000 0 0 1
23.715937 27.863145 24.192168 43.864126 0.865630 0.986605 0.034360 -0.024309 558365.000000 0 0 1
23.607737 26.555745 25.017508 43.455823 0.844099 0.957337 0.033866 -0.027987 -563119.000000 0 0 1
24.729737 26.276245 25.824618 44.372422 0.815709 0.949614 0.009548 -0.025539 -16819.200000 0 0 1
24.476137 25.244045 26.733478 44.170374 0.800842 0.920735 0.029902 -0.028663 -769941.000000 0 0 1
25.517437 25.027945 27.826648 45.297461 0.775714 0.909286 0.028630 -0.028930 -425211.000000 0 0 1
25.962037 26.118245 28.614278 46.636542 0.788398 0.910236 0.030883 -0.027758 267002.000000 0 0 1
26.665937 27.154445 27.988478 47.241835 0.794475 0.936698 0.008859 -0.017304 -984116.000000 0 0 1
26.878337 28.339245 28.891568 48.582718 0.811849 0.933919 -0.003316 -0.010236 -402311.000000 0 0 1
27.656737 28.038945 30.054688 49.541516 0.792260 0.918948 -0.004002 0.000597 337386.000000 0 0 1
27.806537 29.289745 30.764438 50.769512 0.811370 0.919821 0.006076 -0.003332 273724.000000 0 0 1
29.273537 29.799245 30.785848 51.891265 0.794297 0.935674 -0.005364 -0.003020 177356.000000 0 0 1
29.696137 30.278245 29.527688 51.677046 0.795104 0.962599 -0.025177 -0.004181 -1240120.000000 0 0 1
31.070137 30.310745 29.475288 52.467964 0.773027 0.974264 0.004307 -0.012389 -911387.000000 0 0 1
31.662637 30.673445 28.071468 52.262703 0.769531 1.003774 -0.005244 0.004094 -155478.000000 0 0 1
31.514937 32.023245 27.761998 52.814847 0.793398 1.017320 -0.007056 0.000701 225089.000000 0 0 1
32.093337 32.332245 26.520328 52.713226 0.789106 1.043608 0.005702 -0.001049 -78655.500000 0 0 1
31.775237 33.832845 26.173718 53.285933 0.816750 1.057337 0.000949 -0.004940 -81077.000000 0 0 1
32.526037 -34.008524 26.984578 54.246569 -0.807676 1.050148 0.020243 -0.005418 257995.000000 0 0 1
32.355137 -32.671324 26.516888 53.079334 -0.790261 1.047693 0.013539 -0.007373 67022.900000 0 0 1
33.455137 -31.729024 27.113038 53.489196 -0.758924 1.039225 0.020357 -0.011701 356820.000000 0 0 1
33.192337 -31.451924 28.485598 53.873779 -0.758482 1.013673 0.026938 -0.020094 423466.000000 0 0 1
34.257837 -30.637724 28.921788 54.302297 -0.729672 1.009118 0.028633 -0.022741 -177440.000000 0 0 1
34.346937 -30.376324 30.407628 55.018697 -0.724127 0.985222 0.028821 -0.020113 -427857.000000 0 0 1
34.479737 -31.540224 31.231248 56.205239 -0.740903 0.981634 0.035041 -0.019989 319410.000000 0 0 1
33.298437 -32.330524 31.329168 55.996121 -0.770651 0.977028 0.034409 -0.025680 -84514.400000 0 0 1
33.286537 -33.241324 32.591822 57.229416 -0.784719 0.964906 0.047587 -0.027101 -448230.000000 0 0 1
33.130237 -32.550424 33.840824 57.466026 -0.776571 0.941119 0.026145 -0.026819 233035.000000 0 0 1
33.469537 -33.330924 -33.653712 57.997697 -0.783323 2.189844 0.028270 -0.027298 -593911.000000 0 0 1
32.490537 34.300445 -33.245102 57.770168 0.812490 2.183977 0.027391 -0.020299 -335008.000000 0 0 1
32.462337 33.209645 -34.174532 57.659193 0.796777 2.205202 0.030246 -0.026026 -3669.520000 0 0 1
31.628937 32.154545 -33.746372 56.330472 0.793638 2.213146 0.027619 -0.021703 -189397.000000 0 0 1
31.712737 31.003345 33.898823 55.821459 0.774087 0.918174 0.022600 -0.012881 200473.000000 0 0 1
33.025737 30.471745 33.813955 56.237088 0.745198 0.925701 0.022633 -0.016876 73928.700000 0 0 1
33.019337 29.413945 32.893167 55.112768 0.727714 0.931247 0.022167 -0.018266 -152927.000000 0 0 1
34.365137 28.725945 32.591310 55.392563 0.696253 0.941755 0.016247 -0.015897 -177887.000000 0 0 1
34.645637 27.812745 33.625801 55.718609 0.676432 0.922922 0.015239 -0.011162 -527051.000000 0 0 1
-35.798495 27.209345 33.481227 56.061335 -0.649915 0.930760 0.013636 -0.014203 -528770.000000 0 0 1
-35.594295 25.908945 34.318304 55.820903 -0.629204 0.908673 0.018154 -0.016957 395502.000000 0 0 1
35.295037 24.825145 33.816527 54.823216 0.612978 0.906089 0.006767 -0.013911 330976.000000 0 0 1
35.652137 23.648345 -34.114179 54.718336 0.585674 2.243945 0.012813 -0.021540 8835.090000 0 0 1
35.241437 22.321845 33.832193 53.710715 0.564615 0.889376 0.006959 -0.026030 -594858.000000 0 0 1
-35.594295 22.001545 32.774971 53.152804 -0.553637 0.906357 0.010998 -0.016646 -10667.100000 0 0 1
35.792437 20.687045 32.248938 52.431349 0.524065 0.908322 0.016213 -0.016151 392927.000000 0 0 1
-34.618495 20.132745 31.540888 50.976419 -0.526751 0.903665 0.009355 -0.017606 345205.000000 0 0 1
-34.094495 20.990945 30.539388 50.355820 -0.551862 0.919181 0.002511 -0.016997 301316.000000 0 0 1
-33.039695 20.381645 29.772068 48.922479 -0.552741 0.916557 0.025054 -0.011119 394556.000000 0 0 1
-33.480495 19.395245 28.664538 48.153658 -0.525060 0.933192 0.028276 -0.014482 -5995.610000 0 0 1
-34.288495 18.288945 29.115918 48.558450 -0.489997 0.927788 0.012400 -0.014433 598974.000000 0 0 1
-34.615795 17.486045 27.949068 47.803404 -0.467756 0.946327 0.018187 -0.024085 238563.000000 0 0 1
-35.371295 16.156645 28.186168 48.027344 -0.428472 0.943599 0.021813 -0.021832 -385695.000000 0 0 1
-34.462295 15.209745 28.650408 47.326864 -0.415633 0.920562 0.018682 -0.017893 331096.000000 0 0 1
-35.105595 13.963745 28.795278 47.503232 -0.378577 0.919554 0.003181 -0.008494 -37273.000000 0 0 1
-34.163695 13.003045 29.527428 46.990491 -0.363680 0.891340 -0.001991 0.001700 -568735.000000 0 0 1
-34.185595 13.110245 30.952058 47.943335 -0.366204 0.868992 0.001603 0.000053 684460.000000 0 0 1
-33.255395 12.215145 31.589938 47.466359 -0.352015 0.842602 0.016565 0.003278 90149.900000 0 0 1
-31.761295 12.506545 31.556778 46.486813 -0.375121 0.824624 0.008410 0.002461 -961729.000000 0 0 1
-31.138295 12.382845 30.268318 45.156388 -0.378498 0.836184 0.024545 -0.004629 592141.000000 0 0 1
-29.780095 12.816345 30.237808 44.333258 -0.406407 0.820225 0.037416 -0.003602 743534.000000 0 0 1
-28.721195 11.685345 30.393528 43.419130 -0.386401 0.795394 0.034759 -0.002642 -105656.000000 0 0 1
-28.560895 10.875245 29.241028 42.296967 -0.363823 0.807473 0.028366 -0.006745 1090390.000000 0 0 1
-27.454095 9.975145 29.603598 41.588507 -0.348508 0.778708 0.024752 -0.008569 1182630.000000 0 0 1
-27.191595 8.902745 28.467848 40.361617 -0.316408 0.787922 0.032621 -0.011717 134283.000000 0 0 1
-27.876395 7.683145 28.579318 40.655892 -0.268938 0.791251 0.043726 -0.012120 -848022.000000 0 0 1
-29.127495 7.601745 28.002898 41.113986 -0.255287 0.821527 0.050196 -0.001519 -844353.000000 0 0 1
-29.868995 6.276745 28.183908 41.543797 -0.207129 0.825194 0.053599 -0.000642 -277638.000000 0 0 1
-30.344595 6.088545 29.472468 42.737469 -0.198017 0.809837 0.054535 -0.006353 225660.000000 0 0 1
-31.077595 4.863945 29.565228 43.169174 -0.155250 0.816372 0.069578 -0.005455 -226273.000000 0 0 1
-31.476095 4.433645 30.961128 44.373339 -0.139937 0.798556 0.056923 -0.012433 619375.000000 0 0 1
-32.628995 5.212245 31.333218 45.536682 -0.158404 0.811946 0.052538 -0.009127 306275.000000 0 0 1
-33.363995 4.779545 32.441288 46.780738 -0.142287 0.804495 0.058235 -0.017420 1572270.000000 0 0 1
-34.838395 5.400345 32.444988 47.911948 -0.153787 0.826874 0.037775 -0.012353 1538890.000000 0 0 1
-34.793595 6.786345 32.634960 48.183912 -0.192627 0.826710 0.034971 -0.011657 1676960.000000 0 0 1
35.502037 7.256545 32.487598 48.667198 0.201621 0.839888 0.018511 -0.008159 1861640.000000 0 0 1
35.371837 8.745745 32.955794 49.129821 0.242390 0.835523 0.006647 0.001251 -144268.000000 0 0 1
35.439937 8.806045 -34.287838 50.091830 0.243546 2.324713 0.014566 -0.004237 308169.000000 0 0 1
35.447237 10.093845 -33.666932 49.918480 0.277414 2.311000 0.018465 -0.005387 -150360.000000 0 0 1
35.419437 9.909745 -32.142782 48.845655 0.272807 2.289020 0.021764 -0.008376 -756098.000000 0 0 1
34.150037 9.588345 -31.674822 47.554766 0.273724 2.299724 0.035041 -0.008548 -396519.000000 0 0 1
34.103137 9.591645 -30.256442 46.588367 0.274171 2.277647 0.040336 -0.002247 -318908.000000 0 0 1
32.730937 9.119245 -29.799612 45.193935 0.271722 2.290779 0.035545 -0.001696 -621426.000000 0 0 1
32.690737 7.696645 -29.596382 44.764590 0.231227 2.293155 0.021978 -0.008547 1687120.000000 0 0 1
31.360437 7.142345 -29.316872 43.519756 0.223931 2.309926 0.024993 -0.005301 1173570.000000 0 0 1
34.983690 5.911945 -19.330312 40.403844 0.167410 2.069659 0.031216 -0.015488 -634700.000000 0 0 1
34.395270 6.984145 -18.678912 39.758202 0.200332 2.059875 0.026217 -0.003681 -38069.400000 0 0 1
34.795800 8.230445 -19.087012 40.531493 0.232267 2.061128 0.007871 -0.004811 -286704.000000 0 0 1
-35.426524 8.733045 -18.902912 41.092880 -0.241693 2.048797 0.013939 -0.001745 39470.700000 0 0 1
-34.464848 8.050745 -19.643812 40.478631 -0.229478 2.077489 0.018872 -0.009184 -277142.000000 0 0 1
-34.060529 8.550145 -20.882812 40.857269 -0.245946 2.107279 0.014888 -0.001545 -222921.000000 0 0 1
-33.251053 7.437745 -21.621812 40.354124 -0.220062 2.136253 0.010673 0.009065 -135549.000000 0 0 1
-33.969723 6.345345 -22.140712 41.041645 -0.184666 2.140603 0.012589 0.007861 97061.800000 0 0 1
-34.700936 6.651845 -23.334312 42.342557 -0.189393 2.154459 0.018085 -0.000070 201259.000000 0 0 1
-34.571634 5.532245 -24.363012 42.653956 -0.158677 2.178737 0.036289 -0.010328 -46848.100000 0 0 1
-33.322083 5.507945 -25.013112 42.028020 -0.163813 2.208253 0.028647 -0.005112 -89206.300000 0 0 1
-33.198923 4.473245 -25.931772 42.363135 -0.133934 2.229549 0.039817 -0.019474 842234.000000 0 0 1
-31.837623 4.500045 -26.756852 41.830775 -0.140413 2.264833 0.047522 -0.011796 1203470.000000 0 0 1
-30.706793 4.350945 -25.927722 40.423813 -0.140756 2.267114 0.042378 -0.010164 -288709.000000 0 0 1
-29.555253 3.973745 -26.641992 39.988741 -0.133650 2.299948 0.049671 -0.007078 758602.000000 0 0 1
-28.207533 4.478245 -25.997902 38.621374 -0.157447 2.309254 0.029787 0.000329 623637.000000 0 0 1
-27.969573 5.876545 -26.085932 38.695047 -0.207093 2.310598 0.016338 0.003625 85817.600000 0 0 1
-26.649623 6.151345 -25.680222 37.516866 -0.226850 2.324711 0.022545 0.012550 -11894.300000 0 0 1
-26.228173 7.659745 -25.718732 37.523885 -0.284141 2.325944 0.019327 0.003830 313587.000000 0 0 1
-26.918023 8.455845 -24.728812 37.517935 -0.304372 2.290444 0.018439 0.008910 143408.000000 0 0 1
-26.692963 9.829745 -24.928912 37.823125 -0.352842 2.290407 0.003161 0.002746 107126.000000 0 0 1
-25.405033 10.401445 -24.286312 36.652840 -0.388605 2.295086 0.030688 -0.002912 116693.000000 0 0 1
-25.473293 10.401445 -22.902412 35.799430 -0.387665 2.264959 0.010478 0.005043 -467242.000000 0 0 1
-24.190163 10.526045 -22.391112 34.602363 -0.410426 2.274568 0.047969 -0.006381 -865429.000000 0 0 1
-24.200963 10.769945 -20.822912 33.693797 -0.418706 2.236998 0.065898 -0.013263 -820578.000000 0 0 1
-24.481963 12.140245 -20.495512 34.158719 -0.460350 2.214308 0.046782 -0.014809 403721.000000 0 0 1
-25.801843 12.645445 -20.603412 35.357361 -0.455695 2.192867 0.032856 -0.002396 -237819.000000 0 0 1
-26.806553 12.021145 -19.626512 35.331278 -0.421556 2.159760 0.026936 0.005948 -1000910.000000 0 0 1
-26.373783 12.015545 -18.270312 34.260094 -0.427490 2.133273 0.033516 -0.003224 142280.000000 0 0 1
-27.346863 11.484145 -17.400012 34.387453 -0.397580 2.101336 0.024548 -0.001266 -627179.000000 0 0 1
-26.810193 11.244445 -15.987212 33.178531 -0.397126 2.073566 0.050246 -0.002132 798156.000000 0 0 1
-25.845943 10.159245 -15.845212 31.973329 -0.374517 2.089294 0.069319 -0.007773 1446900.000000 0 0 1
-24.523063 10.432345 -16.297912 31.238380 -0.402217 2.119671 0.072606 -0.000573 -250328.000000 0 0 1
-23.687263 9.118245 -16.430512 30.235584 -0.367459 2.145298 0.065718 0.000290 65895.800000 0 0 1
-22.304763 9.396945 -16.569012 29.331505 -0.398731 2.171094 0.067042 0.006017 312172.000000 0 0 1
-21.599863 8.327545 -15.972612 28.125192 -0.367976 2.174762 0.070339 0.003150 291056.000000 0 0 1
-20.052863 8.435645 -15.893912 26.942417 -0.398198 2.201758 0.073396 0.003518 690728.000000 0 0 1
-19.316563 8.552145 -17.123412 27.193382 -0.416797 2.251951 0.071150 -0.003700 1062670.000000 0 0 1
-17.895963 8.548045 -16.951912 26.090264 -0.445610 2.278040 0.057091 -0.001574 458950.000000 0 0 1
-17.103663 9.073445 -18.167812 26.550557 -0.487747 2.324402 0.056383 -0.000357 -243219.000000 0 0 1
-17.063763 8.250145 -19.307712 27.055954 -0.450352 2.365451 0.080817 -0.012145 38396.300000 0 0 1
-16.235863 7.115645 -19.172712 26.111847 -0.413054 2.395363 0.076792 -0.017905 -278521.000000 0 0 1
-15.757563 6.420445 -20.521212 26.657889 -0.386914 2.449322 0.072751 -0.032485 754605.000000 0 0 1
-16.789063 5.650645 -21.191212 27.620099 -0.324658 2.445321 0.066636 -0.023762 907937.000000 0 0 1
-17.802163 6.424845 -21.845412 28.903593 -0.346354 2.427675 0.072576 -0.019995 614445.000000 0 0 1
-18.881963 5.530045 -22.564012 29.937344 -0.284907 2.424482 0.067541 -0.021060 296792.000000 0 0 1
-19.657463 4.757345 -21.655812 29.631442 -0.237447 2.390347 0.079554 -0.019461 268710.000000 0 0 1
-20.220263 3.626745 -22.269612 30.297656 -0.177475 2.396504 0.057050 -0.005512 -812861.000000 0 0 1
-21.288563 3.050145 -21.360312 30.311206 -0.142308 2.352797 0.057261 -0.004742 -672117.000000 0 0 1
-21.849163 1.811245 -21.732812 30.870401 -0.082709 2.351813 0.057365 0.001462 -72207.900000 0 0 1
-22.425063 1.278045 -20.617712 30.489456 -0.056930 2.313422 0.055317 0.002245 -451334.000000 0 0 1
-23.061663 -0.108955 -20.847612 31.088183 0.004724 2.305808 0.052391 0.015177 -125027.000000 0 0 1
-22.132263 -1.156655 -20.754412 30.363144 0.052214 2.323397 0.037720 0.007203 71439.300000 0 0 1
-22.686563 -2.445255 -21.090912 31.072270 0.107370 2.316882 0.053158 -0.005901 -252579.000000 0 0 1
-23.083863 -2.701055 -22.525812 32.366227 0.116481 2.340561 0.053375 -0.005781 -209835.000000 0 0 1
-22.140163 -2.683955 -23.556712 32.439314 0.120637 2.383542 0.038417 -0.005421 -354314.000000 0 0 1
-21.286563 -3.832455 -23.639012 32.040730 0.178133 2.400572 0.025763 -0.016458 210883.000000 0 0 1
-20.344063 -3.703555 -24.835712 32.317330 0.180074 2.447282 0.035179 -0.012273 -185210.000000 0 0 1
-21.035663 -3.849655 -26.058992 33.710385 0.181003 2.454393 0.039114 -0.014695 331775.000000 0 0 1
-20.182363 -3.786655 -27.189132 34.072209 0.185466 2.494742 0.039964 -0.018779 -16229.000000 0 0 1
-20.990663 -4.065155 -28.452952 35.590784 0.191297 2.497171 0.042954 -0.022491 -225173.000000 0 0 1
-21.482563 -5.347155 -28.557122 36.133112 0.243949 2.482146 0.036376 -0.022154 39916.600000 0 0 1
-22.364163 -5.411255 -29.667952 37.544971 0.237398 2.481928 0.016340 -0.015783 -188603.000000 0 0 1
-22.132663 -6.625355 -30.581142 38.326967 0.290858 2.494602 0.013728 -0.016638 -302116.000000 0 0 1
-20.804263 -6.557855 -31.005212 37.909709 0.305358 2.528496 -0.002623 -0.019246 -369983.000000 0 0 1
-20.123863 -7.782555 -31.264122 37.986621 0.369017 2.537521 -0.000664 -0.019553 -112264.000000 0 0 1
-18.770463 -7.461655 -31.941872 37.792721 0.378368 2.577709 0.014162 -0.013084 -1456610.000000 0 0 1
-18.723063 -6.938655 -33.271782 38.803473 0.354902 2.601077 0.011974 -0.015641 79504.700000 0 0 1
-19.230563 -7.829455 -34.274824 40.073414 0.386643 2.596928 -0.001197 -0.018722 -443208.000000 0 0 1
-19.237163 -7.156155 32.956701 38.825548 0.356135 0.557008 0.005160 -0.014525 1154690.000000 0 0 1
-17.983363 -6.756455 32.320448 37.598702 0.359389 0.536279 0.015105 -0.011475 1156070.000000 0 0 1
-17.350763 -5.587655 32.687045 37.426111 0.311553 0.508706 0.027030 -0.013022 -58361.600000 0 0 1
-15.959463 -5.294555 32.080408 36.220013 0.320325 0.482776 0.028051 -0.013592 -13163.500000 0 0 1
-16.051763 -5.143755 30.697048 35.020367 0.310109 0.502153 0.028882 -0.006974 -515480.000000 0 0 1
-14.860663 -5.114655 30.003348 33.870340 0.331475 0.482518 0.032039 -0.004158 -745048.000000 0 0 1
-15.198463 -5.207855 28.482388 32.701093 0.330118 0.513579 0.029167 0.006244 132492.000000 0 0 1
-15.994363 -4.116455 28.055138 32.555424 0.251902 0.532057 0.021377 -0.005054 79256.900000 0 0 1
-16.498863 -4.266355 26.741488 31.709958 0.253042 0.567374 0.029162 -0.004324 -178454.000000 0 0 1
-15.639763 -3.740655 25.589538 30.222825 0.234766 0.561052 0.033071 -0.001007 -140907.000000 0 0 1
-15.366663 -2.364455 25.647988 29.992404 0.152672 0.544957 0.030141 0.012915 138601.000000 0 0 1
-14.444163 -2.003055 24.633058 28.625751 0.137797 0.534505 0.016528 0.018499 176319.000000 0 0 1
-14.041263 -0.512655 24.531058 28.269996 0.036494 0.520156 0.023360 0.012521 -176444.000000 0 0 1
-15.033563 0.258045 23.893888 28.231056 -0.017163 0.561666 0.020189 0.007078 67783.500000 0 0 1
-15.007063 1.584445 24.323788 28.624624 -0.105190 0.555284 0.016957 0.007073 -231515.000000 0 0 1
-15.964963 2.394645 23.412778 28.438927 -0.148884 0.603657 0.016683 0.007635 46177.700000 0 0 1
-15.377463 2.894745 22.202578 27.162481 -0.186068 0.613915 0.014777 0.011893 282939.000000 0 0 1
-16.179263 3.872745 21.612678 27.274064 -0.234944 0.656020 0.009433 0.009493 -679237.000000 0 0 1
-15.385163 4.601645 20.558378 26.086880 -0.290627 0.663123 0.010986 0.009994 181108.000000 0 0 1
-14.317063 5.309645 21.195978 26.123555 -0.355137 0.624297 0.031426 0.009865 900123.000000 0 0 1
-13.201363 5.472445 20.287378 24.815345 -0.392975 0.613681 0.030057 0.004473 435264.000000 0 1 0
-12.290563 6.563245 20.831378 25.061533 -0.490482 0.589517 0.038508 0.004191 -253520.000000 0 0 1
-12.752563 7.870545 20.565978 25.446666 -0.552952 0.629708 0.039571 0.002268 306486.000000 0 0 1
-11.670363 8.770945 20.704078 25.333490 -0.644497 0.614154 0.053478 -0.000414 248840.000000 0 0 1
-12.083963 10.268145 20.713178 26.086255 -0.704339 0.653392 0.043592 0.007903 45980.200000 0 0 1
-12.678563 10.812045 19.530778 25.672895 -0.706107 0.706321 0.050201 0.006177 440039.000000 0 0 1
-13.004663 12.194045 19.648878 26.531008 -0.753240 0.736833 0.029066 0.017610 -310489.000000 0 0 1
-13.682963 12.764245 18.378178 26.227978 -0.750674 0.794406 0.031565 0.005797 -330510.000000 0 0 1
-12.772163 13.147845 17.375578 25.256775 -0.799891 0.812126 0.026250 0.000436 332961.000000 0 0 1
-12.090863 14.390645 17.565178 25.725767 -0.872026 0.819228 0.031411 -0.008209 -147119.000000 0 0 1
-12.863563 15.713145 17.154678 26.583024 -0.884787 0.869348 0.025233 0.013265 165464.000000 0 0 1
-12.907763 15.968945 15.740678 25.872504 -0.891012 0.916761 0.018210 -0.009273 -40466.500000 0 0 1
-13.786563 15.166945 14.980178 25.387226 -0.833038 0.939654 0.044073 -0.022409 -409508.000000 0 0 1
-14.235963 15.759645 13.674378 25.259011 -0.836151 0.998735 0.033059 -0.019692 515801.000000 0 0 1
-15.275263 16.769145 13.838978 26.571699 -0.831984 1.022989 0.023437 -0.009495 341148.000000 0 0 1
-15.680163 17.170645 12.590178 26.442601 -0.830738 1.074545 0.019981 -0.009348 158940.000000 0 0 1
-16.873163 18.175845 12.647878 27.839428 -0.822549 1.099193 0.021909 -0.010832 -655924.000000 0 0 1
-18.098663 17.579345 12.876478 28.326642 -0.770843 1.098905 0.029776 -0.013809 -1133260.000000 0 0 1
-19.062463 18.606445 12.974278 29.629532 -0.773293 1.117553 0.038244 -0.016361 584258.000000 0 0 1
-20.511363 18.041945 13.179578 30.330332 -0.721433 1.121275 0.049639 -0.011152 681599.000000 0 0 1
-21.068363 17.480145 12.027478 29.901364 -0.692582 1.156836 0.057505 -0.016883 649205.000000 0 0 1
-22.373963 16.908545 12.295778 30.621549 -0.647155 1.157599 0.061232 -0.015480 948830.000000 0 0 1
-22.927963 16.234545 11.035078 30.183188 -0.616120 1.196515 0.059974 -0.017532 207669.000000 0 0 1
-22.139963 15.110845 10.616478 28.830976 -0.598894 1.193690 0.048062 -0.010886 485202.000000 0 0 1
-22.692063 14.617945 9.389978 28.579463 -0.572278 1.236021 0.044967 -0.013662 -35691.600000 0 0 1
-22.045763 13.265745 9.016978 27.263557 -0.541696 1.233715 0.072066 -0.011240 -609412.000000 0 0 1
-22.243863 12.121045 9.892778 27.195150 -0.498932 1.198484 0.056382 -0.011718 -101030.000000 0 0 1
-23.543063 11.592745 10.024778 28.092058 -0.457554 1.205898 0.051573 -0.009565 -118322.000000 0 0 1
-24.204763 11.036645 8.698978 27.988395 -0.427807 1.254755 0.056877 -0.015797 -346786.000000 0 0 1
-24.611963 12.003245 7.774178 28.465144 -0.453759 1.294170 0.060197 -0.015193 -72797.300000 0 0 1
-25.792523 11.600445 7.116478 29.162798 -0.422654 1.324281 0.066304 -0.018613 -501553.000000 0 0 1
-26.179623 12.751545 6.172578 29.767016 -0.453257 1.361918 0.053617 -0.011858 -986894.000000 0 0 1
-25.470763 12.928145 4.949678 28.989584 -0.469684 1.399216 0.054540 -0.021624 367341.000000 0 0 1
-24.157163 13.432645 5.137878 28.114093 -0.507478 1.387012 0.058649 -0.028936 -332955.000000 0 0 1
-24.154163 14.923245 5.544178 28.928614 -0.553429 1.377953 0.051372 -0.023608 -1375160.000000 0 0 1
-22.899263 15.374845 5.954078 28.217249 -0.591281 1.358190 0.056949 -0.026540 -213294.000000 0 0 1
-22.899563 16.736545 6.369878 29.070212 -0.631143 1.349883 0.050768 -0.032127 -1261100.000000 0 0 1
-21.530163 17.319345 6.416778 28.366929 -0.677432 1.342615 0.057143 -0.028836 -1136090.000000 0 0 1
-20.952963 17.686745 5.195278 27.907678 -0.701069 1.383545 0.054857 -0.036404 1539450.000000 0 0 1
-19.550063 18.075745 5.274778 27.143338 -0.746235 1.375221 0.062261 -0.034379 1451310.000000 0 0 1
-18.944563 18.740145 3.999478 26.945970 -0.779974 1.421820 0.053485 -0.027791 743444.000000 0 0 1
-17.532063 18.947545 4.176478 26.150060 -0.824181 1.410397 0.041379 -0.033600 879667.000000 0 0 1
-16.990163 19.994945 3.394078 26.457196 -0.866463 1.442156 0.051302 -0.032761 50785.500000 0 0 1
-17.313363 21.498145 3.869878 27.872903 -0.892806 1.431506 0.040171 -0.026800 -240819.000000 0 0 1
-16.581363 21.988745 4.968378 27.984482 -0.924687 1.392310 0.032432 -0.021085 -77062.400000 0 0 1
-16.827963 23.358245 5.208078 29.255974 -0.946491 1.391825 0.016399 -0.023401 -128148.000000 0 0 1
-16.096163 23.905045 6.476978 29.537922 -0.978190 1.349723 0.003847 -0.010516 212975.000000 0 0 1
-16.660263 23.324945 7.649778 29.667095 -0.950559 1.309996 0.011774 -0.009178 659755.000000 0 0 1
-15.770763 23.607045 8.722278 29.699960 -0.981834 1.272722 0.009837 -0.018763 434235.000000 0 0 1
-16.350763 22.971145 9.998378 29.916358 -0.952198 1.230028 0.005551 -0.011078 467637.000000 0 0 1
-17.588263 23.517445 10.421278 31.161197 -0.928652 1.229795 0.009724 -0.019804 -223584.000000 0 0 1
-18.400763 22.552645 11.030678 31.126929 -0.886434 1.208548 0.017444 -0.021558 -257102.000000 0 0 1
-19.625563 23.109545 11.765678 32.521454 -0.866743 1.200618 0.030975 -0.025802 1040.350000 0 0 1
-20.601163 23.771445 10.989978 33.320701 -0.856724 1.234679 0.047373 -0.016490 211362.000000 0 0 1
-20.194563 25.120845 10.722178 33.968254 -0.893684 1.249652 0.025819 -0.011181 -1115300.000000 0 0 1
-21.157363 25.940945 9.904278 34.909330 -0.886617 1.283131 0.037662 -0.015523 -312835.000000 0 0 1
-22.242663 26.270745 10.761478 36.065184 -0.868238 1.267791 0.061531 -0.027337 -172726.000000 0 0 1
-23.091163 27.193945 10.148178 37.090402 -0.866808 1.293656 0.053827 -0.024368 -276492.000000 0 0 1
-24.137463 27.781445 11.126878 38.447798 -0.855469 1.277194 0.052799 -0.022004 -475666.000000 0 0 1
-23.604763 28.566845 12.144878 38.996763 -0.880224 1.254096 0.041958 -0.023380 -160802.000000 0 0 1
-24.477863 28.818545 13.210678 40.052419 -0.866663 1.234668 0.036484 -0.024019 -132844.000000 0 0 1
8.694937 -33.064724 27.939178 44.152866 -1.313651 0.885654 0.024943 -0.019826 -605534.000000 0 0 1
10.039637 -32.749124 27.755968 44.087336 -1.273330 0.889799 0.022068 -0.024900 -237083.000000 0 0 1
10.265337 -32.696524 26.323208 43.212859 -1.266584 0.915805 0.023341 -0.022170 65155.100000 0 0 1
11.781237 -32.734824 25.988738 43.425578 -1.225330 0.929211 0.009250 -0.013146 191140.000000 0 0 1
12.279237 -34.059324 26.132098 44.650910 -1.224776 0.945604 0.015237 -0.028474 -739080.000000 0 0 1
13.666037 -34.049924 26.095058 45.023438 -1.189124 0.952573 0.025550 -0.020065 -562690.000000 0 0 1
14.360237 33.261745 25.956368 44.567849 1.163235 0.949117 0.040163 -0.021471 -96679.100000 0 0 1
14.321837 32.692945 24.666448 43.386373 1.157907 0.966079 0.026370 -0.021743 490264.000000 0 0 1
15.151637 31.535545 24.518598 42.722644 1.122901 0.959534 0.024909 -0.032260 -327825.000000 0 0 1
15.356537 31.095845 23.009578 41.619893 1.112085 0.985015 0.030981 -0.035815 -57188.700000 0 0 1
14.354137 30.200045 22.534178 40.322117 1.127102 0.977793 0.028260 -0.029486 115776.000000 0 0 1
14.608337 28.826345 22.639078 39.457439 1.101747 0.959708 0.032788 -0.024521 -99120.500000 0 0 1
14.209637 28.165645 24.011718 39.645680 1.103553 0.920204 0.029492 -0.036478 -94042.700000 0 0 1
15.111237 28.515245 25.057758 40.857801 1.083488 0.910575 0.037270 -0.032868 318049.000000 0 0 1
14.642537 28.202145 26.387388 41.304469 1.091907 0.877793 0.030651 -0.034336 -500491.000000 0 0 1
15.581437 28.673545 27.521508 42.689422 1.073028 0.870177 0.027573 -0.037573 -65285.200000 0 0 1
15.686237 30.076245 27.676578 43.779350 1.090058 0.886428 0.028881 -0.034065 6661.950000 0 0 1
16.513837 30.447145 28.744038 45.010612 1.073824 0.878111 0.035190 -0.033847 -358558.000000 0 0 1
16.515137 31.869245 29.139328 46.233094 1.092683 0.888895 0.035934 -0.030833 -301781.000000 0 0 1
17.057937 32.806845 28.190158 46.496745 1.091316 0.919419 0.034036 -0.027503 225554.000000 0 0 1
16.738037 34.131945 28.650498 47.602548 1.114865 0.924957 0.048431 -0.017493 -71251.700000 0 0 1
17.406137 -33.500024 27.766118 46.863446 -1.091603 0.936650 0.037780 -0.018325 -459147.000000 0 0 1
16.873437 -33.317324 26.480388 45.781743 -1.102005 0.954024 0.042960 -0.017299 -161868.000000 0 0 1
17.260537 -32.142324 25.723158 44.640072 -1.077986 0.956682 0.043076 -0.020301 578936.000000 0 0 1
18.751237 -31.631624 25.595998 44.803166 -1.035688 0.962709 0.033960 -0.012283 920420.000000 0 0 1
19.262337 -31.063224 26.800028 45.323317 -1.015728 0.938117 0.028997 -0.009874 494231.000000 0 0 1
20.353037 -30.147024 26.565528 45.042386 -0.976960 0.939998 0.032860 -0.010392 428434.000000 0 0 1
20.771637 -29.486524 27.884798 45.590328 -0.957093 0.912666 0.043350 -0.009786 -690471.000000 0 0 1
19.699237 -28.851524 28.496888 45.083734 -0.971721 0.886551 0.042337 -0.009974 -284937.000000 0 0 1
20.100637 -27.927424 29.467548 45.302462 -0.946941 0.862603 0.053118 -0.014407 -615238.000000 0 0 1
18.897737 -27.225524 30.108048 44.775532 -0.964029 0.833320 0.035964 -0.015004 -176058.000000 0 0 1
18.241337 -26.415824 29.133788 43.351122 -0.966444 0.833833 0.055564 -0.020366 -149149.000000 0 0 1
16.958037 -26.176524 29.664658 43.043901 -0.995945 0.810450 0.033866 -0.012164 102005.000000 0 0 1
16.015637 -25.425224 28.631978 41.505817 -1.008673 0.809541 0.023934 -0.009037 -276407.000000 0 0 1
15.418837 -26.289624 27.678798 41.170387 -1.040363 0.833487 0.021840 -0.004401 734654.000000 0 0 1
14.610337 -25.537024 26.736168 39.754550 -1.051126 0.833173 0.019257 -0.014227 583732.000000 0 0 1
13.154137 -25.117124 27.137108 39.246961 -1.088360 0.807309 0.012440 -0.008202 1008160.000000 0 0 1
12.123237 -26.086424 27.404648 39.730205 -1.135758 0.809627 0.014437 -0.008532 907223.000000 0 0 1
11.808137 -26.911624 26.253268 39.406874 -1.157317 0.841681 0.006004 -0.007529 -945981.000000 0 0 1
10.930337 -28.091524 26.565048 40.178450 -1.199724 0.848410 0.019122 -0.009245 -461881.000000 0 0 1
9.593637 -27.866424 26.926688 39.920196 -1.239233 0.830492 0.007508 -0.014063 -193611.000000 0 0 1
8.959337 -29.083424 27.268168 40.861575 -1.271965 0.840178 0.013684 -0.022614 -809129.000000 0 0 1
7.489137 -28.904324 27.637368 40.686254 -1.317271 0.824015 0.007984 -0.010120 -459824.000000 0 0 1
6.581137 -28.744124 26.537898 39.671099 -1.345720 0.838004 0.015179 -0.012586 326625.000000 0 0 1
6.615337 -27.448824 25.904618 38.317749 -1.334300 0.828411 0.024992 -0.013368 -599956.000000 0 0 1
5.387537 -27.101124 25.019398 37.275552 -1.374561 0.834968 0.028109 -0.016149 -223981.000000 0 0 1
5.244637 -27.824324 23.800398 36.988623 -1.384491 0.871797 0.016849 -0.010956 -66145.600000 0 0 1
4.729837 -29.149124 23.822288 37.941326 -1.409935 0.891981 0.012778 -0.005031 -530943.000000 0 0 1
3.228737 -29.239924 24.128618 38.047183 -1.460820 0.883854 0.028961 -0.007144 -1165840.000000 0 0 1
2.410137 -28.788224 23.106678 36.993097 -1.487272 0.896150 0.030161 -0.004467 -672899.000000 0 0 1
1.123337 -28.462024 23.529978 36.946023 -1.531349 0.880359 0.044993 -0.007225 -394701.000000 0 0 1
0.961737 -26.980524 23.911628 36.064381 -1.535166 0.845942 0.046756 -0.010825 -206098.000000 0 0 1
1.649337 -26.574524 25.093588 36.587072 -1.508811 0.815012 0.041477 -0.014732 123474.000000 0 0 1
1.518137 -25.160824 25.191028 35.636494 -1.510532 0.785707 0.050858 -0.018046 -511331.000000 0 0 1
2.541437 -24.447324 26.075028 35.833471 -1.467213 0.755874 0.057682 -0.017017 -763778.000000 0 0 1
3.790237 -24.325224 25.424548 35.390537 -1.416224 0.769297 0.044187 -0.009966 -247169.000000 0 0 1
4.771237 -23.584324 26.088268 35.490602 -1.371185 0.745018 0.035291 -0.008547 61607.600000 0 0 1
4.380337 -22.094424 26.324968 34.646138 -1.375079 0.707754 0.038661 -0.006361 -618711.000000 0 0 1
4.268237 -21.350124 25.141518 33.258707 -1.373481 0.713711 0.041318 -0.006805 -30578.200000 0 0 1
3.503337 -20.199124 25.310478 32.571434 -1.399065 0.680790 0.053901 -0.016919 -223874.000000 0 0 1
3.727837 -19.108224 24.295648 31.133576 -1.378126 0.675542 0.054038 -0.015441 735410.000000 0 0 1
4.999137 -18.428624 24.439108 31.014119 -1.305901 0.663243 0.055346 -0.006286 811243.000000 0 0 1
5.138537 -17.625324 23.285278 29.652332 -1.287116 0.667654 0.051352 -0.000990 -366173.000000 0 0 1
6.586337 -17.204824 23.049178 29.506786 -1.205188 0.674293 0.058760 -0.007177 -951457.000000 0 0 1
7.261137 -18.264324 22.419778 29.815367 -1.192396 0.719775 0.050404 -0.005349 9006.920000 0 0 1
8.571537 -17.988224 21.932678 29.632581 -1.126118 0.737497 0.024461 0.001056 1273040.000000 0 0 1
9.706237 -18.167424 23.025078 30.893698 -1.080113 0.729811 0.020083 0.003369 233443.000000 0 0 1
9.669437 -17.125624 23.947378 30.988094 -1.056799 0.687566 0.041781 0.003048 306239.000000 0 0 1
10.660437 -17.479424 24.918198 32.250454 -1.023140 0.687797 0.028901 0.009748 375982.000000 0 0 1
10.750737 -16.566624 26.106328 32.734871 -0.995167 0.647643 0.035523 -0.008195 -95985.800000 0 0 1
11.106237 -15.222424 25.841628 31.982190 -0.940481 0.630046 0.042396 -0.010567 111604.000000 0 0 1
10.987837 -14.357324 26.957818 32.459040 -0.917567 0.590759 0.031637 -0.017700 -218469.000000 0 0 1
11.076237 -12.806724 26.737418 31.647824 -0.857729 0.564526 0.036284 -0.007408 -213848.000000 0 0 1
9.959837 -12.119724 26.228518 30.561761 -0.882911 0.539017 0.045120 -0.006399 -48129.500000 0 0 1
10.231537 -10.741924 26.126378 30.044316 -0.809728 0.516415 0.045169 0.000504 198674.000000 0 0 1
9.215637 -10.005824 25.189168 28.627586 -0.826485 0.495163 0.036845 0.002926 408817.000000 0 0 1
8.010337 -9.643124 25.839728 28.720148 -0.877627 0.451698 0.040775 -0.007449 -138383.000000 0 0 1
7.093137 -9.089024 24.924738 27.462075 -0.908117 0.433251 0.042230 -0.005216 -305236.000000 0 0 1
5.671837 -9.042624 25.474438 27.620387 -1.010592 0.396792 0.036927 -0.006826 -1173800.000000 0 0 1
5.280737 -7.918424 26.242628 27.915286 -0.982637 0.347929 0.048331 -0.005993 149322.000000 0 0 1
3.981837 -7.981824 26.807038 28.252112 -1.108059 0.321221 0.046435 -0.008647 962625.000000 0 0 1
2.727937 -8.060224 25.886148 27.248881 -1.244453 0.317594 0.035203 -0.007297 -268819.000000 0 0 1
2.616837 -6.973324 25.001818 26.087660 -1.211794 0.289533 0.049476 -0.012576 -354256.000000 0 0 1
1.544237 -7.076824 24.101898 25.166796 -1.355954 0.291943 0.044258 -0.018120 38377.600000 0 0 1
1.433137 -5.757624 23.314878 24.058006 -1.326843 0.249196 0.042110 -0.023193 147543.000000 0 1 0
1.188937 -4.565124 24.104068 24.561353 -1.316017 0.193267 0.038833 -0.016677 168805.000000 0 1 0
1.804337 -3.448524 23.456878 23.777575 -1.088746 0.164425 0.042955 -0.016643 -340095.000000 0 1 0
0.908237 -2.730524 22.379778 22.564023 -1.249684 0.127879 0.030401 -0.020394 620186.000000 0 1 0
-0.125163 -1.890524 22.847578 22.926002 1.504688 0.082737 0.030010 -0.018614 -12040.300000 0 1 0
-1.235363 -2.472524 23.481178 23.643292 1.107440 0.117171 0.032456 -0.013811 -86563.000000 0 1 0
-2.344363 -1.473524 23.917638 24.077391 0.561140 0.115259 0.023631 -0.019353 193749.000000 0 1 0
-1.878963 -0.729524 25.041028 25.122018 0.370344 0.080319 0.024499 -0.017678 456357.000000 0 0 1
-2.513763 0.566476 25.119758 25.251577 -0.221647 0.102223 0.017950 -0.022076 108579.000000 0 0 1
-2.009963 1.397476 26.365018 26.478427 -0.607547 0.092586 0.043872 -0.024849 -234996.000000 0 0 1
-2.385563 0.817476 27.598248 27.713219 -0.330136 0.091120 0.055998 -0.013604 457423.000000 0 0 1
-1.610863 -0.338524 28.023188 28.071490 0.207137 0.058671 0.055255 -0.019235 1821700.000000 0 0 1
-0.080763 -0.112524 28.479648 28.479985 0.948266 0.004863 0.083789 -0.024589 1679060.000000 0 0 1
0.868837 0.300476 27.528118 27.543465 0.332961 0.033384 0.064769 -0.023264 -130133.000000 0 0 1
1.344137 -0.667524 26.631878 26.674131 -0.460939 0.056293 0.064306 -0.023265 -139057.000000 0 0 1
2.664637 -1.312524 27.125078 27.287229 -0.457687 0.109071 0.076516 -0.026115 -417920.000000 0 0 1
2.418537 -2.336524 28.155358 28.355473 -0.768152 0.118875 0.087110 -0.020355 723984.000000 0 0 1
3.558537 -3.091524 28.653208 29.038372 -0.715286 0.163055 0.077749 -0.005140 1169510.000000 0 0 1
4.187437 -4.093624 27.579278 28.194130 -0.774070 0.209225 0.081245 -0.015117 245800.000000 0 0 1
4.781937 -3.483524 26.465498 27.118711 -0.629583 0.219929 0.080999 -0.014287 -313248.000000 0 0 1
5.228737 -4.465924 25.537518 26.447098 -0.706876 0.263026 0.066688 -0.014647 596963.000000 0 0 1
6.655137 -4.163524 24.983588 26.187888 -0.559038 0.304446 0.062456 -0.009373 711246.000000 0 0 1
7.775337 -4.246724 25.872168 27.347022 -0.499905 0.329918 0.052537 -0.012745 517451.000000 0 0 1
8.549037 -5.439124 25.798978 27.717457 -0.566632 0.374243 0.034740 -0.009029 830900.000000 0 0 1
9.530937 -5.582424 24.557728 26.927388 -0.529850 0.422667 0.022492 -0.008020 -454360.000000 0 0 1
8.916037 -6.058924 23.386278 25.751200 -0.596871 0.431922 0.028975 -0.007522 -174901.000000 0 0 1
9.651837 -5.784824 22.197078 24.886391 -0.539941 0.469186 0.043277 -0.005569 146848.000000 0 1 0
9.634237 -4.343924 21.686678 24.124681 -0.423589 0.453449 0.043990 -0.007792 754458.000000 0 1 0
8.291037 -3.994024 21.339378 23.239247 -0.448923 0.407164 0.050223 -0.011249 145483.000000 0 1 0
8.194237 -2.654524 20.880878 22.587676 -0.313282 0.391240 0.041942 0.001244 -721536.000000 0 1 0
6.787337 -2.150524 20.648778 21.841812 -0.306837 0.332043 0.041231 0.005874 -784493.000000 0 1 0
6.154137 -1.861524 21.863578 22.789356 -0.293734 0.286012 0.046602 0.008381 566895.000000 0 1 0
4.869537 -1.260524 21.597478 22.175491 -0.253299 0.228820 0.040574 0.005212 593528.000000 0 1 0
4.249637 -0.664524 22.842378 23.243822 -0.155116 0.186123 0.041804 -0.011045 149333.000000 0 1 0
3.076737 0.137476 22.637078 22.845624 0.044653 0.135221 0.045165 -0.012834 466541.000000 0 1 0
2.794737 0.897476 23.778248 23.958738 0.310728 0.122824 0.052458 -0.012592 -598547.000000 0 1 0
1.359137 1.427476 23.813268 23.894700 0.809917 0.082582 0.040601 -0.012491 -411856.000000 0 1 0
1.207237 2.782476 23.360778 23.556858 1.161435 0.129114 0.033939 -0.012757 1035160.000000 0 1 0
-0.221063 2.961476 23.364978 23.552949 -1.496288 0.126423 0.009579 -0.007859 1024070.000000 0 1 0
-0.852963 4.302476 22.803278 23.221291 -1.375085 0.190029 0.007152 -0.007063 94475.900000 0 1 0
-0.706763 5.330476 23.708028 24.310164 -1.438976 0.223033 0.008968 -0.009183 -8159.220000 0 1 0
-1.356063 6.486476 23.150678 24.080432 -1.364705 0.278788 0.008333 -0.014997 117163.000000 0 1 0
-1.042863 7.780476 23.988548 25.240321 -1.437555 0.316258 0.016211 -0.011373 149322.000000 0 0 1
0.045237 8.585476 23.586118 25.100148 1.565527 0.349101 0.006919 -0.001216 -75951.800000 0 0 1
-0.031763 9.779476 24.271258 26.167406 -1.567548 0.383026 0.025328 -0.003463 -624436.000000 0 0 1
0.614237 11.053476 23.670928 26.131771 1.515284 0.437463 0.031123 -0.005610 1558130.000000 0 0 1
2.073637 11.158476 23.687448 26.266076 1.387057 0.446818 0.025165 -0.002497 1119570.000000 0 0 1
2.581037 11.342476 25.054038 27.622787 1.347051 0.434677 0.043434 -0.008863 -1280220.000000 0 0 1
3.978737 11.946476 25.008538 27.999565 1.249304 0.466438 0.038028 -0.008158 -297503.000000 0 0 1
5.041137 11.178476 24.472668 27.373032 1.147138 0.464506 0.034904 -0.003625 58983.500000 0 0 1
4.902937 10.827476 23.099478 25.978047 1.145597 0.475220 0.026546 -0.003901 -1472290.000000 0 0 1
6.137137 10.241476 22.365678 25.353024 1.030933 0.490346 0.045337 -0.002840 125635.000000 0 0 1
7.097137 11.256476 22.080278 25.780153 1.008256 0.542378 0.032366 -0.004514 -47715.600000 0 0 1
8.240437 10.612476 21.547778 25.393625 0.910559 0.557556 0.038337 -0.008934 -269408.000000 0 0 1
9.133937 11.628476 20.826778 25.542219 0.904972 0.617400 0.031430 -0.017042 -931692.000000 0 0 1
8.615337 12.200476 19.667978 24.696255 0.955956 0.649485 0.024105 -0.013634 24987.100000 0 1 0
9.378037 13.268476 19.094378 25.071803 0.955527 0.705037 0.038674 -0.011410 -218482.000000 0 0 1
10.774537 12.971476 18.558678 25.075374 0.877654 0.737554 0.040156 -0.016914 -447090.000000 0 0 1
11.788237 12.782476 19.529178 26.148481 0.825840 0.727473 0.037197 -0.017155 476504.000000 0 0 1
12.972837 12.287476 18.875978 25.991905 0.758273 0.757981 0.033267 -0.022318 1128000.000000 0 0 1
14.116037 11.886476 19.903978 27.142571 0.699863 0.747615 0.044093 -0.011915 402045.000000 0 0 1
14.733637 13.048476 20.403878 28.348916 0.724816 0.767367 0.042901 -0.009673 -526745.000000 0 0 1
15.773737 12.610476 21.233478 29.303506 0.674412 0.760335 0.037641 -0.004366 -11316.800000 0 0 1
16.713437 13.801476 21.667478 30.647991 0.690259 0.785579 0.034445 0.002694 9603.600000 0 0 1
16.140537 14.765476 22.545378 31.413855 0.740936 0.770318 0.039323 -0.001690 -340575.000000 0 0 1
17.052737 15.684476 23.037378 32.672916 0.743627 0.788245 0.028308 0.000895 -461856.000000 0 0 1
-20.863263 12.729845 -24.830412 34.840695 -0.547854 2.364114 0.033909 -0.006657 -52498.600000 0 0 1
-20.833863 12.613945 -26.256792 35.813134 -0.544420 2.393755 0.030279 -0.024294 84373.900000 0 0 1
-21.620863 13.536445 -27.024952 37.162415 -0.559377 2.385048 0.020777 -0.021597 -195037.000000 0 0 1
-21.327663 13.556845 -28.549652 38.127941 -0.566218 2.417024 0.022924 -0.016430 43842.900000 0 0 1
-19.984963 13.896445 -28.820482 37.724397 -0.607595 2.440247 0.039220 -0.017764 -137375.000000 0 0 1
-19.931163 14.634445 -30.014412 38.888085 -0.633344 2.452487 0.035728 -0.021117 1214150.000000 0 0 1
-18.490963 15.190645 -30.385412 38.677444 -0.687724 2.474479 0.036987 -0.026090 1084030.000000 0 0 1
-17.527263 14.276145 -30.840012 38.237673 -0.683527 2.509063 0.037501 -0.021573 -61142.200000 0 0 1
-16.178263 14.659245 -30.688462 37.661802 -0.736179 2.523255 0.042233 -0.021423 376591.000000 0 0 1
-15.459963 14.143545 -29.428322 36.125842 -0.740959 2.522846 0.059082 -0.016274 -320785.000000 0 0 1
-16.032263 14.578745 -28.200912 35.564936 -0.737950 2.486418 0.065060 -0.016731 -56559.300000 0 0 1
-16.501763 13.396945 -27.519402 34.772170 -0.681924 2.483925 0.068191 -0.010954 28334.000000 0 0 1
-17.383563 13.740745 -26.315852 34.402331 -0.668887 2.441751 0.058466 -0.020360 -129353.000000 0 0 1
-16.600163 14.411045 -25.350562 33.554353 -0.714924 2.427225 0.101447 -0.019553 882127.000000 0 0 1
-17.398463 14.811545 -24.219912 33.297035 -0.705256 2.385306 0.080120 -0.019584 291675.000000 0 0 1
-16.437863 15.336445 -23.159412 32.276435 -0.750748 2.371051 0.093213 -0.018178 104759.000000 0 0 1
-15.834663 16.580245 -23.416412 32.771473 -0.808395 2.366758 0.076170 -0.024063 -126857.000000 0 0 1
-15.181963 17.075345 -22.281412 31.914271 -0.844027 2.343627 0.078270 -0.024290 -312667.000000 0 0 1
-14.750463 18.601245 -22.394212 32.635612 -0.900349 2.327034 0.076257 -0.028902 654967.000000 0 0 1
-15.816263 19.579145 -22.462312 33.735034 -0.891310 2.299422 0.046771 -0.029872 651315.000000 0 0 1
-16.528263 19.534845 -23.688012 34.869981 -0.868576 2.317637 0.022989 -0.019920 -500349.000000 0 0 1
-17.843763 20.298845 -23.760612 35.986243 -0.849675 2.291974 0.014219 -0.026644 -366070.000000 0 0 1
-17.730163 21.694245 -23.905112 36.830060 -0.885610 2.277151 0.008748 -0.023433 -355999.000000 0 0 1
-18.974863 22.339245 -23.875712 37.803927 -0.866653 2.254369 0.008467 -0.031135 -278606.000000 0 0 1
-18.843763 23.874045 -24.160912 38.843366 -0.902614 2.242102 0.003310 -0.028724 -1172.030000 0 0 1
-18.174963 24.589145 -23.148912 38.351368 -0.934278 2.218806 0.003546 -0.026846 -33286.100000 0 0 1
-17.157863 25.461245 -23.590912 38.719483 -0.977815 2.225946 0.012644 -0.020557 161233.000000 0 0 1
-15.947463 25.602845 -22.598812 37.689966 -1.013724 2.213795 0.016970 -0.031531 -75978.400000 0 0 1
-15.039863 24.537545 -22.591612 36.587833 -1.020922 2.236309 0.038990 -0.042320 -284935.000000 0 0 1
-15.501363 23.345445 -22.032812 35.647536 -0.984643 2.237087 0.036113 -0.025781 -700874.000000 0 0 1
-14.299763 22.396545 -21.803612 34.372750 -1.002562 2.257936 0.070978 -0.029408 563284.000000 0 0 1
-13.564663 22.739045 -20.604112 33.549868 -1.032928 2.232084 0.078831 -0.033981 262089.000000 0 0 1
-12.574263 21.757045 -20.308912 32.309952 -1.046755 2.250503 0.073456 -0.029688 109228.000000 0 0 1
-11.741563 22.115645 -19.049912 31.462123 -1.082722 2.221174 0.072477 -0.031556 151372.000000 0 0 1
-12.353063 21.975745 -17.749312 30.831309 -1.058694 2.184246 0.086754 -0.026343 -33345.300000 0 0 1
-13.463063 22.822945 -17.531412 31.772492 -1.037843 2.155293 0.068169 -0.034162 252840.000000 0 0 1
-14.168963 22.870545 -16.127912 31.367672 -1.016141 2.110821 0.074624 -0.026131 261103.000000 0 0 1
-13.478263 23.595245 -15.134812 31.104046 -1.051801 2.078975 0.071900 -0.037074 -46260.100000 0 0 1
-14.113763 23.474145 -13.865812 30.700074 -1.029460 2.039415 0.066478 -0.020630 -97465.800000 0 0 1
-13.234063 24.026745 -12.752712 30.249902 -1.067335 2.005982 0.074258 -0.013137 -53675.600000 0 0 1
-12.847363 25.428045 -12.687012 31.186543 -1.102962 1.989756 0.065086 -0.017538 666377.000000 0 0 1
-11.909963 25.765845 -11.646812 30.681822 -1.137812 1.960160 0.046520 -0.008401 199268.000000 0 0 1
-11.476663 27.184845 -11.783312 31.773826 -1.171324 1.950720 0.061998 -0.011345 101677.000000 0 0 1
-10.589063 27.431345 -12.876612 32.100063 -1.202399 1.983557 0.059400 -0.016845 133032.000000 0 0 1
-10.525963 28.802145 -13.232012 33.398287 -1.220418 1.978158 0.046016 -0.005182 -877886.000000 0 0 1
-9.899963 29.071745 -14.613912 34.010910 -1.242578 2.014938 0.073747 -0.023485 381880.000000 0 0 1
-8.483063 29.090745 -14.672012 33.667517 -1.287057 2.021714 0.043662 -0.018973 -223322.000000 0 0 1
-7.925563 27.808245 -14.615612 32.399524 -1.293150 2.038800 0.047112 -0.015629 -696998.000000 0 0 1
-6.486463 27.794045 -15.180212 32.326799 -1.341524 2.059618 0.048355 -0.014491 510346.000000 0 0 1
-5.682063 28.802845 -14.575012 32.776831 -1.376023 2.031607 0.039498 -0.011487 -136194.000000 0 0 1
-4.320063 28.707845 -14.970012 32.663505 -1.421433 2.046889 0.046904 -0.017413 243960.000000 0 0 1
-3.455263 29.703445 -14.181812 33.096182 -1.454991 2.013632 0.020141 -0.011098 -130792.000000 0 0 1
-3.593263 31.070045 -14.551912 34.496628 -1.455657 2.006265 0.007934 -0.002959 42865.000000 0 0 1
-4.598163 31.822245 -13.869412 35.016552 -1.427294 1.978042 0.003788 -0.004038 264789.000000 0 0 1
-4.530163 33.349045 -14.126012 36.499663 -1.435782 1.968191 0.009807 -0.006145 -459826.000000 0 0 1
-3.464963 33.911745 -13.447312 36.644817 -1.468974 1.946539 -0.010795 -0.002678 -592492.000000 0 0 1
-3.385263 -33.416624 -13.695812 36.272663 1.469836 1.957977 -0.009837 -0.003708 103220.000000 0 0 1
-2.500963 -32.599824 -12.754712 35.095385 1.494229 1.942743 -0.002489 -0.009695 -568344.000000 0 0 1
-3.058163 -32.443524 -11.505512 34.558811 1.476813 1.910201 0.004948 -0.011172 -535807.000000 0 0 1
-2.265463 -31.780224 -10.581212 33.571968 1.499631 1.891443 0.000620 -0.011374 -548443.000000 0 0 1
-2.753663 -31.807524 -9.112612 33.201521 1.484439 1.848828 0.004687 -0.015455 -444524.000000 0 0 1
-1.873563 -31.091924 -8.302912 32.235948 1.510610 1.831300 0.022059 -0.020925 -210147.000000 0 0 1
-2.218663 -31.208624 -6.981212 32.056794 1.499824 1.790332 0.011474 -0.021923 282862.000000 0 0 1
-1.018263 -30.630524 -6.194312 31.267161 1.537565 1.770225 0.023091 -0.017972 311046.000000 0 0 1
-1.075463 -30.874124 -4.811112 31.265236 1.535977 1.725291 0.025348 -0.016682 171696.000000 0 0 1
0.159037 -30.447724 -4.247012 30.742907 -1.565573 1.709386 0.040458 -0.018920 108667.000000 0 0 1
0.210537 -30.520524 -2.665712 30.637440 -1.563898 1.657915 0.045187 -0.013523 -375062.000000 0 0 1
0.210437 -31.810324 -2.073612 31.878533 -1.564181 1.635890 0.040426 -0.010962 401751.000000 0 0 1
1.284337 -32.685024 -2.472912 32.803592 -1.531522 1.646253 0.039663 -0.013957 963706.000000 0 0 1
2.642237 -32.390424 -1.752312 32.545224 -1.489402 1.624665 0.043992 -0.015698 -665392.000000 0 0 1
2.637137 -32.697724 -0.365712 32.805936 -1.490319 1.581944 0.061160 -0.011519 -323266.000000 0 0 1
3.866537 -32.500824 0.276388 32.731179 -1.452386 1.562352 0.057154 -0.011207 -155815.000000 0 0 1
4.305937 -31.011424 0.448788 31.312153 -1.432828 1.556463 0.049384 -0.015843 -401286.000000 0 0 1
4.608837 -30.344624 -0.727512 30.701252 -1.420065 1.594495 0.036854 -0.018693 -6946.200000 0 0 1
4.369737 -28.969324 -0.479412 29.300959 -1.421085 1.587159 0.047074 -0.010567 -232537.000000 0 0 1
4.044637 -28.058224 -1.680412 28.398007 -1.427631 1.630005 0.034167 -0.010443 478101.000000 0 0 1
2.702137 -28.283624 -2.129412 28.492093 -1.475548 1.645603 0.039767 -0.011600 450591.000000 0 0 1
2.248637 -27.322924 -3.039212 27.583244 -1.488683 1.681204 0.032092 -0.006769 -8816.950000 0 0 1
2.885437 -27.327524 -4.482012 27.842553 -1.465599 1.732477 0.013049 -0.006407 -330613.000000 0 0 1
2.458337 -28.329524 -5.309812 28.927487 -1.484237 1.755399 0.008479 -0.007212 -127132.000000 0 0 1
3.038937 -28.127524 -6.575112 29.045221 -1.463172 1.799151 0.017501 -0.010448 133285.000000 0 0 1
2.269437 -28.984124 -7.647912 30.061942 -1.492656 1.828029 0.014184 -0.013877 -73736.200000 0 0 1
0.973037 -28.537924 -7.921712 29.632979 -1.536713 1.841415 0.013060 -0.012446 -702895.000000 0 0 1
0.703037 -28.673224 -9.267812 30.142004 -1.546282 1.883331 0.005696 -0.006859 397892.000000 0 0 1
-0.720963 -28.161724 -9.633812 29.772686 1.545201 1.900306 0.008349 -0.010876 -38353.400000 0 0 1
-0.944663 -26.772324 -9.422012 28.397606 1.535526 1.908996 0.011038 -0.009948 455844.000000 0 0 1
-2.308063 -26.319624 -9.399512 28.042835 1.483326 1.912597 0.030517 -0.018179 1327420.000000 0 0 1
-3.176063 -26.774824 -8.165112 28.171753 1.452727 1.864849 0.036310 -0.015472 -96960.100000 0 0 1
-2.665063 -26.343824 -6.904512 27.363697 1.469975 1.825877 0.039680 -0.017660 -31056.500000 0 0 1
-1.603363 -27.131824 -6.390512 27.920339 1.511770 1.801727 0.024736 -0.018092 146798.000000 0 0 1
-1.160263 -26.874524 -4.975612 27.355858 1.527650 1.753699 0.040513 -0.008114 -20035.100000 0 0 1
-2.167263 -27.120424 -4.000112 27.499370 1.491053 1.716776 0.047012 -0.015012 -27467.900000 0 0 1
-1.884463 -26.692724 -2.668412 26.891879 1.500315 1.670187 0.048438 -0.015190 -689180.000000 0 0 1
-3.047163 -26.940424 -1.723312 27.166919 1.458168 1.634273 0.043926 -0.008163 -72230.200000 0 0 1
-4.058463 -25.949324 -1.948412 26.336949 1.415654 1.644844 0.038391 -0.010415 -165403.000000 0 0 1
-5.026063 -25.984624 -0.948712 26.483241 1.379731 1.606627 0.050275 -0.014396 -658014.000000 0 0 1
-6.137963 -24.962824 -0.905712 25.722315 1.329695 1.606015 0.045796 -0.015936 -385815.000000 0 0 1
-5.668763 -23.706424 -0.574012 24.381528 1.336080 1.594341 0.034525 -0.015917 291220.000000 0 1 0
-6.542963 -22.998124 0.343188 23.913215 1.293620 1.556444 0.043823 -0.016607 345026.000000 0 1 0
-6.043363 -21.516724 0.515688 22.355259 1.296983 1.547726 0.027640 -0.018538 960432.000000 0 1 0
-4.916363 -21.665124 1.426788 22.261715 1.347650 1.506661 0.030008 -0.021818 423758.000000 0 1 0
-4.276263 -20.461124 1.665188 20.969427 1.364767 1.491302 0.015310 -0.011611 -351561.000000 0 1 0
-3.275663 -20.623624 2.837288 21.074013 1.413281 1.435752 0.017740 0.001739 -431421.000000 0 1 0
-3.809463 -20.528424 4.146588 21.286672 1.387313 1.374745 0.010780 0.010853 -11158.600000 0 1 0
-2.869763 -20.336324 5.220888 21.191019 1.430607 1.321861 0.020214 0.003543 818255.000000 0 1 0
-1.940063 -21.586824 5.505788 22.362212 1.481165 1.322029 0.024125 -0.012800 688186.000000 0 1 0
-0.973363 -21.825324 4.493188 22.304281 1.526228 1.367959 0.046335 -0.014461 -553767.000000 0 1 0
-0.295163 -23.021024 4.734888 23.504762 1.557976 1.367965 0.051523 -0.014628 -1515870.000000 0 1 0
0.669837 -23.357324 3.627788 23.646863 -1.542126 1.416773 0.048241 -0.023850 -128712.000000 0 1 0
1.806437 -22.533424 3.479888 22.871993 -1.490800 1.418057 0.034179 -0.021823 372844.000000 0 1 0
2.764137 -22.716724 4.537588 23.329803 -1.449713 1.375051 0.053532 -0.023908 230355.000000 0 1 0
4.032937 -21.779724 4.543688 22.611193 -1.387701 1.368470 0.049543 -0.022958 1568500.000000 0 1 0
5.025637 -21.920824 3.500688 22.760369 -1.345428 1.416377 0.027969 -0.010388 326846.000000 0 1 0
6.110037 -21.023624 3.679188 22.200490 -1.287960 1.404303 0.050665 -0.009157 384074.000000 0 1 0
6.643037 -20.635424 2.291488 21.799119 -1.259349 1.465483 0.049886 -0.005375 -410843.000000 0 1 0
7.355737 -21.672424 1.630488 22.944702 -1.243591 1.499675 0.044584 -0.001634 -8391.500000 0 1 0
6.976337 -21.772724 0.258388 22.864548 -1.260716 1.559495 0.039252 -0.004166 483849.000000 0 1 0
8.044837 -22.643824 -0.481912 24.035275 -1.229428 1.590848 0.033550 0.002043 106149.000000 0 1 0
9.273137 -22.052124 -0.734912 23.933812 -1.172735 1.601507 0.026852 0.009067 -426803.000000 0 1 0
10.178537 -22.931924 -1.456212 25.131580 -1.153061 1.628772 0.024310 0.008163 570375.000000 0 0 1
11.470537 -22.182224 -1.807512 25.037799 -1.093559 1.643051 0.032044 0.009284 -339500.000000 0 0 1
11.342037 -21.343424 -2.964712 24.351039 -1.082340 1.692848 0.036631 0.020330 9878.180000 0 1 0
12.586737 -20.995224 -3.552712 24.735545 -1.030741 1.714923 0.036132 0.014826 133432.000000 0 1 0
12.604437 -19.700324 -4.344612 23.787608 -1.001619 1.754469 0.033551 -0.009343 -175219.000000 0 1 0
12.563437 -18.552824 -3.560712 22.687572 -0.975557 1.728393 0.044135 -0.005015 148662.000000 0 1 0
12.738637 -17.388824 -4.387512 21.997599 -0.938540 1.771597 0.044415 -0.013331 -773360.000000 0 1 0
13.314837 -16.152324 -3.644312 21.247670 -0.881395 1.743164 0.067450 -0.008209 594905.000000 0 1 0
14.700237 -16.178224 -3.328812 22.111375 -0.833226 1.721918 0.056881 -0.003097 567598.000000 0 1 0
15.615737 -16.094424 -4.399812 22.852573 -0.800493 1.764536 0.046501 -0.003858 691994.000000 0 1 0
17.138937 -15.863924 -4.057212 23.703760 -0.746784 1.742807 0.047667 0.002866 1099590.000000 0 1 0
17.888537 -16.976324 -3.602712 24.923380 -0.759240 1.715856 0.046704 0.004406 876373.000000 0 1 0
19.244137 -16.536124 -3.417412 25.601932 -0.709858 1.704679 0.014411 0.011737 440757.000000 0 0 1
20.027237 -17.484324 -2.503212 26.703144 -0.717712 1.664676 0.027361 -0.003112 -379204.000000 0 0 1
21.363037 -17.104624 -2.313412 27.464512 -0.675146 1.655129 0.008656 0.007123 -218948.000000 0 0 1
22.034137 -17.863924 -1.311112 28.396162 -0.681255 1.616985 0.005338 0.008714 -214866.000000 0 0 1
23.539137 -17.687624 -1.566212 29.485523 -0.644405 1.623939 0.021779 0.007075 -390885.000000 0 0 1
24.048937 -16.405124 -1.282312 29.139729 -0.598649 1.614816 0.026572 -0.001232 836112.000000 0 0 1
25.303437 -16.463924 -0.570012 30.193537 -0.576839 1.589676 0.049125 -0.000759 674124.000000 0 0 1
25.763337 -15.190724 0.016888 29.908326 -0.532756 1.570232 0.044617 0.005878 78801.100000 0 0 1
24.976337 -14.672124 1.101788 28.987973 -0.531134 1.532779 0.034617 0.010680 534803.000000 0 0 1
25.717137 -13.682724 1.785488 29.185203 -0.488955 1.509580 0.031989 0.000572 -118917.000000 0 0 1
24.957237 -13.127624 2.961888 28.354382 -0.484234 1.466146 0.045839 -0.009814 -453854.000000 0 0 1
24.664737 -14.007024 4.020688 28.648070 -0.516480 1.429984 0.066247 -0.008295 -616339.000000 0 0 1
25.717537 -14.498724 4.756788 29.903708 -0.513352 1.411048 0.079736 -0.008310 -613147.000000 0 0 1
25.247237 -15.262824 6.039388 30.113967 -0.543747 1.368876 0.075109 -0.006891 343503.000000 0 0 1
24.533737 -16.482024 5.859588 30.131315 -0.591555 1.375081 0.064980 -0.015176 -408158.000000 0 0 1
23.740737 -16.678524 6.959688 29.836773 -0.612420 1.335369 0.054784 -0.011009 -643805.000000 0 0 1
23.017237 -18.042824 6.943488 30.059087 -0.664836 1.337697 0.046339 -0.007790 -30770.700000 0 0 1
23.902637 -19.181524 6.846788 31.402953 -0.676255 1.351001 0.049009 -0.006177 -88542.000000 0 0 1
23.262437 -20.417524 6.979788 31.729067 -0.720359 1.349001 0.024572 -0.004154 -286207.000000 0 0 1
1.192337 23.203945 -2.828612 23.406105 1.519456 1.691942 0.002169 -0.005272 -464745.000000 0 1 0
2.142637 24.085445 -2.361212 24.295573 1.482070 1.668137 0.012060 -0.008750 -365455.000000 0 1 0
2.792537 24.805145 -3.427812 25.196098 1.458689 1.707265 0.021828 -0.006689 849718.000000 0 0 1
3.836537 25.860145 -2.847812 26.297835 1.423513 1.679300 0.015475 -0.007283 104138.000000 0 0 1
4.891937 25.297745 -2.151812 25.856087 1.379780 1.654115 0.007680 -0.006187 -910197.000000 0 0 1
5.744737 26.281245 -1.654712 26.952623 1.355594 1.632228 0.008906 -0.005018 -352965.000000 0 0 1
7.014037 25.656945 -1.053112 26.619252 1.303939 1.610369 0.001263 -0.016833 -374491.000000 0 0 1
7.978237 25.264145 -1.993012 26.568804 1.264914 1.645880 0.018526 -0.023093 -214260.000000 0 0 1
9.088237 24.678245 -1.335912 26.332422 1.217940 1.621551 0.013912 -0.011767 217146.000000 0 0 1
10.147337 24.165345 -2.363012 26.315702 1.173242 1.660712 0.030494 -0.012494 -829863.000000 0 0 1
11.034337 25.192845 -2.737512 27.639283 1.157971 1.670003 0.032276 -0.014292 -124510.000000 0 0 1
11.845937 24.822945 -3.840012 27.771397 1.125540 1.709513 0.053029 -0.025593 691106.000000 0 0 1
12.981337 23.741045 -3.613112 27.298478 1.070422 1.703542 0.048736 -0.019674 -398169.000000 0 0 1
12.633637 22.371945 -3.733712 25.962537 1.056730 1.715108 0.055367 -0.024336 -197420.000000 0 0 1
12.334837 21.929945 -5.038712 25.660462 1.058433 1.768442 0.065940 -0.029742 55549.500000 0 0 1
11.251237 20.834045 -5.171112 24.236092 1.075631 1.785813 0.058230 -0.031183 234499.000000 0 1 0
9.908437 21.262245 -5.072312 23.999761 1.134708 1.783751 0.037567 -0.024079 -322740.000000 0 1 0
9.029337 20.185345 -4.968012 22.664029 1.150172 1.791793 0.009039 -0.016680 -411954.000000 0 1 0
7.604037 20.659445 -4.654212 22.501016 1.218119 1.779145 0.007172 -0.014999 -274627.000000 0 1 0
7.373137 21.261845 -3.419012 22.762224 1.236995 1.721573 0.000142 -0.005391 1441940.000000 0 1 0
5.989237 21.734345 -3.323912 22.788179 1.301904 1.717180 -0.001490 0.007152 1818500.000000 0 1 0
5.522737 22.407145 -1.978512 23.162367 1.329141 1.656320 -0.003053 0.005114 154475.000000 0 1 0
5.290137 21.457045 -0.974412 22.121026 1.329072 1.614860 -0.005524 0.001067 -321813.000000 0 1 0
4.307137 21.981845 -0.124712 22.400189 1.377307 1.576364 -0.001775 -0.006500 -131714.000000 0 1 0
4.096537 21.127445 1.138488 21.551025 1.379276 1.517944 -0.002973 -0.011464 -258302.000000 0 1 0
3.473637 21.789345 2.201188 22.174014 1.412708 1.471364 0.004531 -0.007146 35091.800000 0 1 0
3.176037 20.866145 3.254088 21.355849 1.419746 1.417826 0.006672 -0.010230 74105.100000 0 1 0
2.139937 21.412045 4.306588 21.945425 1.471186 1.373274 0.005698 -0.016770 -153880.000000 0 1 0
0.912637 21.664445 3.670788 21.992175 1.528695 1.403098 0.004674 -0.009706 -939340.000000 0 1 0
0.041537 22.152145 4.620588 22.628943 1.568921 1.365161 0.011661 -0.020152 422373.000000 0 1 0
-1.430663 22.413245 4.151988 22.839425 -1.507052 1.387989 0.010258 -0.011201 847257.000000 0 1 0
-2.371163 22.860445 5.113988 23.545174 -1.467443 1.351852 0.032463 -0.019253 -1134000.000000 0 1 0
-3.601063 22.758945 4.510088 23.479312 -1.413871 1.377507 0.047558 -0.023945 -1178910.000000 0 1 0
-4.810263 22.991445 5.409388 24.104079 -1.364552 1.344451 0.068249 -0.033992 -360966.000000 0 1 0
-5.001263 24.352245 5.674188 25.499820 -1.368241 1.346399 0.075657 -0.030512 -514391.000000 0 0 1
-6.172863 24.480545 6.418388 26.049894 -1.323792 1.321844 0.094044 -0.034582 -52616.200000 0 0 1
-6.574163 25.931945 6.876988 27.622062 -1.322511 1.319183 0.100197 -0.039548 -492079.000000 0 0 1
-5.612063 26.450645 7.722188 28.120527 -1.361726 1.292612 0.079797 -0.048794 -552920.000000 0 0 1
-5.896263 27.688045 8.374188 29.521530 -1.360977 1.283184 0.092203 -0.040082 -283031.000000 0 0 1
-6.104063 28.936345 7.511688 30.512244 -1.362896 1.322053 0.087080 -0.042790 925487.000000 0 0 1
-7.319163 28.973345 6.721188 30.630037 -1.323356 1.349565 0.079301 -0.045011 235755.000000 0 0 1
-7.362963 30.050645 5.753688 31.469976 -1.330512 1.386931 0.077624 -0.038392 -206966.000000 0 0 1
-8.801363 30.292445 5.217888 31.973779 -1.288035 1.406870 0.057091 -0.033005 904933.000000 0 0 1
-9.706663 30.683545 6.268288 32.787050 -1.264410 1.378430 0.050358 -0.021013 289673.000000 0 0 1
-10.335763 29.614845 6.976488 32.133135 -1.235007 1.351941 0.044339 -0.024862 -392827.000000 0 0 1
-11.235963 30.070545 8.176388 33.126090 -1.213207 1.321393 0.021948 -0.018489 656402.000000 0 0 1
-10.506663 30.552945 9.330688 33.629364 -1.239581 1.289651 0.023544 -0.012687 446922.000000 0 0 1
-11.463463 31.072145 10.257288 34.671329 -1.217357 1.270458 0.022785 -0.012227 330406.000000 0 0 1
-10.858363 31.618045 11.578088 35.378763 -1.239993 1.237393 0.027505 -0.017174 46970.500000 0 0 1
-10.171463 32.863845 11.395088 36.240019 -1.270644 1.250936 0.011602 -0.007827 399083.000000 0 0 1
-9.336963 33.100545 12.534288 36.605099 -1.295861 1.221306 0.009418 -0.008249 -9218.050000 0 0 1
-9.102163 -34.103524 12.793388 37.544247 1.309978 1.223077 -0.000694 -0.006701 -53795.800000 0 0 1
-10.016863 -33.333424 13.534288 37.344767 1.278876 1.199939 0.000202 0.006803 -198279.000000 0 0 1
-9.587563 -31.983824 13.415288 35.984112 1.279557 1.188759 -0.000380 0.012817 102269.000000 0 0 1
-10.356963 -30.930924 14.241888 35.592416 1.247689 1.159129 0.010547 0.008942 -340380.000000 0 0 1
-10.367563 -31.168624 15.655988 36.387902 1.249681 1.126024 0.020373 -0.004736 -219745.000000 0 0 1
-9.158363 -30.795824 16.259588 36.008785 1.281736 1.102300 0.017447 -0.003708 -355773.000000 0 0 1
-9.039763 -31.055824 17.770988 36.905142 1.287542 1.068395 0.007427 -0.015419 -658185.000000 0 0 1
-9.754663 -30.144624 18.501388 36.689960 1.257835 1.042268 0.043319 -0.020947 123886.000000 0 0 1
-10.742163 -30.700524 19.368188 37.855554 1.234209 1.033711 0.034108 -0.024465 336502.000000 0 0 1
-11.179463 -29.711624 20.512688 37.795917 1.210917 0.997121 0.046887 -0.035683 211898.000000 0 0 1
-10.119263 -29.529924 21.426788 37.861895 1.240659 0.969248 0.037421 -0.026713 463578.000000 0 0 1
-10.633563 -28.954624 22.632888 38.258209 1.218838 0.937776 0.026675 -0.020995 286404.000000 0 0 1
-9.559863 -28.754324 23.726588 38.485752 1.249826 0.906503 0.050344 -0.025708 90933.700000 0 0 1
-9.275063 -29.920424 24.442288 39.732657 1.270199 0.908196 0.052862 -0.014817 737036.000000 0 0 1
-8.058463 -29.880524 25.212988 39.918408 1.307374 0.887164 0.068902 -0.017781 624000.000000 0 0 1
-7.850063 -31.075924 26.207188 41.402334 1.323364 0.885389 0.072541 -0.016611 -44711.300000 0 0 1
-7.661063 -32.287624 25.506388 41.854013 1.337829 0.915476 0.082316 -0.010076 265121.000000 0 0 1
-7.913963 -33.403824 26.330988 43.263925 1.338168 0.916485 0.088435 -0.010797 -291073.000000 0 0 1
-7.832563 33.867045 25.768888 43.270790 -1.343518 0.932876 0.078264 -0.013589 -180417.000000 0 0 1
-6.509763 33.499245 25.427688 42.557534 -1.378863 0.930429 0.074586 -0.008738 211772.000000 0 0 1
-6.326263 32.215145 24.846088 41.172384 -1.376888 0.922957 0.061730 -0.005748 -316194.000000 0 0 1
-7.025963 31.858145 23.520088 40.218156 -1.353732 0.946147 0.059427 -0.002760 -750232.000000 0 0 1
-8.168063 31.127545 23.774988 40.011140 -1.314176 0.934514 0.052031 -0.001029 206265.000000 0 0 1
-9.166263 31.191045 22.705288 39.653899 -1.284968 0.961139 0.032205 0.004395 350899.000000 0 0 1
-10.026163 29.956445 22.733488 38.919455 -1.247824 0.947005 0.028493 -0.009733 -714692.000000 0 0 1
-9.512463 28.773045 22.182888 37.556032 -1.251505 0.938918 0.028379 -0.009612 158777.000000 0 0 1
-10.238463 27.684645 22.783288 37.287315 -1.216571 0.913448 0.013579 -0.004750 -101976.000000 0 0 1
-9.742363 26.255745 22.405888 35.865046 -1.215488 0.896014 -0.000112 -0.008155 -805165.000000 0 0 1
-8.471363 25.964445 22.904388 35.644457 -1.255418 0.872937 0.006337 -0.016080 -97604.700000 0 0 1
-8.137063 24.583445 22.648588 34.402268 -1.251149 0.852177 0.018475 -0.020377 -270278.000000 0 0 1
-6.829363 24.167645 23.314888 34.268049 -1.295394 0.822532 0.023695 -0.017199 480104.000000 0 0 1
-5.635563 24.627045 22.682588 33.952182 -1.345833 0.839178 0.011879 -0.016342 384281.000000 0 0 1
-4.443863 24.516845 23.419888 34.195244 -1.391486 0.816347 0.065996 -0.003861 720974.000000 0 0 1
-3.197763 25.086245 22.653588 33.951883 -1.444009 0.840318 0.049512 -0.006301 229171.000000 0 0 1
-2.679363 24.343745 21.588388 32.647440 -1.461174 0.848302 0.048888 -0.010217 -103673.000000 0 0 1
-1.937363 25.184945 20.729688 32.676517 -1.494022 0.883576 0.055314 -0.006073 -19452.100000 0 0 1
-1.317763 24.385845 19.557888 31.287647 -1.516811 0.895538 0.039330 -0.012076 -64992.800000 0 0 1
-0.398563 23.371445 19.909788 30.704770 -1.553745 0.865281 0.052516 -0.013508 -65038.400000 0 0 1
-0.196663 22.348445 18.938888 29.294592 -1.561997 0.867811 0.028263 -0.011943 -798736.000000 0 0 1
0.985637 21.467645 19.267288 28.862772 1.524916 0.839886 0.031983 -0.011338 -612768.000000 0 0 1
2.241337 22.076645 19.215588 29.353716 1.469618 0.857114 0.036875 -0.012386 -588993.000000 0 0 1
3.272637 21.134545 19.353788 28.843513 1.417169 0.835249 0.045941 -0.011624 770686.000000 0 0 1
4.726937 21.714345 19.280288 29.420846 1.356453 0.856180 0.035595 -0.012660 778259.000000 0 0 1
5.749837 20.747645 19.173688 28.829771 1.300449 0.843215 0.047992 -0.014805 203575.000000 0 0 1
6.981137 21.431745 18.928988 29.434037 1.255897 0.872259 0.063587 -0.016747 905716.000000 0 0 1
8.185537 20.505145 18.510888 28.811750 1.190985 0.873070 0.057783 -0.003797 437928.000000 0 0 1
8.738137 19.771545 19.591188 29.173338 1.154653 0.834505 0.061918 -0.010503 38216.300000 0 0 1
9.665037 18.790445 19.159088 28.523050 1.095727 0.834288 0.050672 -0.006098 178884.000000 0 0 1
10.355537 18.063845 20.323788 29.096322 1.050260 0.797497 0.066086 -0.004876 -681535.000000 0 0 1
9.534037 17.102145 20.882488 28.626203 1.062231 0.753222 0.064306 -0.009108 -398326.000000 0 0 1
10.016237 16.417845 22.003288 29.223540 1.022996 0.718293 0.069443 -0.013207 202590.000000 0 0 1
8.983537 15.322845 22.483288 28.652953 1.040523 0.668623 0.044704 -0.005629 255190.000000 0 0 1
7.917637 15.886745 23.212488 29.221520 1.108445 0.652838 0.047775 -0.004268 295580.000000 0 0 1
6.880737 14.978645 23.615788 28.799475 1.140178 0.609372 0.033050 0.000329 589202.000000 0 0 1
7.324537 13.801345 24.560788 29.109418 1.082882 0.566583 0.047092 0.003010 -610643.000000 0 0 1
7.668937 14.355445 25.805588 30.509338 1.080150 0.562685 0.048030 -0.013551 -24461.900000 0 0 1
7.889037 13.295645 26.768588 30.912269 1.035277 0.523743 0.053416 -0.019071 -1017660.000000 0 0 1
8.876437 13.618245 27.868488 32.262987 0.993153 0.528050 0.024469 -0.011921 1669.950000 0 0 1
10.236037 13.813145 27.503588 32.434962 0.933057 0.558669 0.050447 -0.009663 310657.000000 0 0 1
10.572937 15.032145 26.889988 32.570290 0.957822 0.599534 0.044943 -0.007336 -800318.000000 0 0 1
11.845337 14.926745 26.048788 32.274743 0.899992 0.631581 0.053367 -0.010609 -351189.000000 0 0 1
11.643137 14.028445 24.971588 30.918281 0.878048 0.630616 0.055290 -0.010116 437991.000000 0 0 1
12.824337 13.713145 24.238888 30.660033 0.818878 0.659058 0.067509 -0.009381 -81782.700000 0 0 1
12.506137 12.589645 23.262488 29.258263 0.788726 0.651667 0.048311 -0.005342 -16165.300000 0 0 1
12.130537 11.314545 23.752688 28.971693 0.750608 0.609633 0.045130 -0.000389 222510.000000 0 0 1
10.824237 11.261545 24.281988 28.872156 0.805196 0.571635 0.052185 -0.001957 -426075.000000 0 0 1
10.633937 9.950645 25.004288 28.936315 0.752216 0.527408 0.040430 -0.002047 -56029.500000 0 0 1
10.729637 8.785045 24.179388 27.873731 0.686078 0.520719 0.042789 -0.004376 253448.000000 0 0 1
10.436637 7.645545 24.949788 28.104620 0.632251 0.478369 0.046368 -0.003493 -19163.200000 0 0 1
10.452537 6.377545 24.177188 27.101015 0.547844 0.468794 0.052312 -0.006594 45932.400000 0 0 1
11.730237 5.991945 23.710588 27.123676 0.472260 0.507081 0.043045 -0.006746 203550.000000 0 0 1
11.715037 4.930845 22.801388 26.104762 0.398392 0.508539 0.048079 -0.013171 -12549.300000 0 0 1
11.592837 3.489945 23.386788 26.334681 0.292414 0.477688 0.045453 -0.012958 -552712.000000 0 0 1
12.766937 3.325045 24.125588 27.497174 0.254782 0.500413 0.029077 -0.006331 -79171.700000 0 0 1
12.842837 2.061745 24.764388 27.972561 0.159178 0.483636 0.020119 -0.008515 -377053.000000 0 0 1
14.255937 1.750345 25.321988 29.111828 0.122169 0.515963 0.000351 0.000525 -15875.400000 0 0 1
14.982237 1.041845 24.364888 28.621681 0.069427 0.552388 0.004527 -0.002230 -107893.000000 0 0 1
16.376837 1.118345 24.551688 29.533656 0.068182 0.589332 0.016679 -0.009320 113420.000000 0 0 1
17.245337 0.202545 23.658988 29.277814 0.011744 0.629901 0.039151 -0.009087 272864.000000 0 0 1
17.052537 -1.128955 24.080588 29.528601 -0.066108 0.617203 0.031773 -0.007961 449289.000000 0 0 1
18.050037 -1.887255 23.401288 29.613947 -0.104178 0.659642 0.046793 -0.002181 200782.000000 0 0 1
18.102337 -3.401255 23.657588 29.982405 -0.185725 0.661537 0.040979 0.003415 133650.000000 0 0 1
16.948737 -4.130055 23.245188 29.062963 -0.239021 0.643798 0.023198 0.006447 360540.000000 0 0 1
17.020037 -5.493355 23.443588 29.486614 -0.312203 0.651692 0.048811 0.002753 -478095.000000 0 0 1
16.011637 -6.285255 22.662488 28.451104 -0.374061 0.649243 0.034048 0.000733 -738795.000000 0 0 1
16.344037 -6.331155 21.309988 27.592148 -0.369569 0.688310 0.025825 -0.005629 -8311.380000 0 0 1
15.670737 -7.290555 20.541088 26.845120 -0.435450 0.699491 0.039600 -0.010464 -428852.000000 0 0 1
16.084737 -8.731455 20.797488 27.703656 -0.497330 0.721656 0.045713 -0.015650 -369482.000000 0 0 1
15.750337 -9.290155 22.041288 28.639107 -0.532914 0.692547 0.029768 -0.011959 -649045.000000 0 0 1
16.580737 -10.303955 22.441388 29.744045 -0.556036 0.715930 0.031230 -0.012742 -495358.000000 0 0 1
15.969337 -11.035555 23.654888 30.599950 -0.604692 0.687182 0.043015 -0.002633 346223.000000 0 0 1
15.155737 -12.185455 23.370388 30.403235 -0.677185 0.694020 0.037740 -0.008872 212038.000000 0 0 1
15.020437 -13.029755 24.502388 31.555587 -0.714548 0.681731 0.045157 0.002309 -26745.200000 0 0 1
13.994437 -14.155655 24.361388 31.459562 -0.791125 0.685075 0.042809 0.000272 289608.000000 0 0 1
14.520537 -15.124555 23.422388 31.435751 -0.805770 0.730130 0.040555 -0.007930 910656.000000 0 0 1
13.393137 -15.882555 22.972688 30.973796 -0.870228 0.735223 0.043878 -0.002089 481028.000000 0 0 1
13.599837 -16.557855 21.581688 30.411961 -0.883170 0.781803 0.027231 -0.007795 -668281.000000 0 0 1
14.585537 -17.507555 21.666088 31.443151 -0.876196 0.810611 0.036780 -0.003971 -618398.000000 0 0 1
14.819437 -18.005855 20.367288 30.962121 -0.882167 0.852885 0.020867 -0.002343 62665.700000 0 0 1
-23.998463 -32.152124 26.460028 48.060570 0.929601 0.987766 0.035123 -0.020851 -225630.000000 0 0 1
-24.465763 -33.253824 27.258398 49.471311 0.936492 0.987241 0.039728 -0.020827 225559.000000 0 0 1
-25.772783 -33.619824 26.854158 50.156502 0.916759 1.005806 0.037155 -0.022582 461629.000000 0 0 1
-26.474873 34.115945 27.902298 51.413566 -0.910845 0.997144 0.036608 -0.016528 29235.100000 0 0 1
-26.994773 -33.996724 29.089808 52.256215 0.899700 0.980417 0.042207 -0.018329 912039.000000 0 0 1
-25.995773 -33.402124 29.983708 51.870077 0.909448 0.954454 0.028445 -0.015356 497741.000000 0 0 1
-26.579543 -32.522424 31.101618 52.263666 0.885614 0.933418 0.014966 -0.020032 -193030.000000 0 0 1
-27.095013 -31.357324 30.494658 51.452363 0.858189 0.936417 0.020162 -0.019811 264176.000000 0 0 1
-27.830843 -30.627524 31.485508 51.999407 0.833202 0.920406 0.000606 -0.006432 70060.900000 0 0 1
-28.395293 -29.276624 31.039668 51.253043 0.800679 0.920256 0.011668 -0.010413 -15399.700000 0 0 1
-29.327653 -29.257224 29.971348 51.130990 0.784196 0.944475 0.010147 -0.005152 205429.000000 0 0 1
-29.731983 -27.939324 29.827168 50.539654 0.754324 0.939522 0.012244 -0.001150 -396981.000000 0 0 1
-30.315733 -27.613224 28.424918 49.894988 0.738780 0.964662 0.008629 -0.008374 -246236.000000 0 0 1
-29.478603 -27.609224 27.294638 48.746842 0.752664 0.976499 0.003296 -0.007099 -14717.800000 0 0 1
-28.821463 -26.343724 27.137358 47.551075 0.740513 0.963439 0.006182 -0.002093 -58276.900000 0 0 1
-27.893463 -26.183224 25.916648 46.209081 0.753783 0.975377 0.013192 -0.000301 -145879.000000 0 0 1
-28.530373 -26.336024 24.645538 45.988813 0.745425 1.005220 0.003352 -0.001029 232920.000000 0 0 1
-27.593483 -26.154924 23.574018 44.734938 0.758640 1.015764 0.016386 0.013007 37178.700000 0 0 1
-28.094853 -26.567424 22.223378 44.598513 0.757462 1.049161 0.001762 0.024475 -546914.000000 0 0 1
-28.809823 -25.566524 21.622078 44.172020 0.725823 1.059283 -0.005349 0.018247 -269966.000000 0 0 1
-29.311633 -25.987524 20.364278 44.150052 0.725359 1.091391 -0.009496 0.028684 49468.200000 0 0 1
-30.052233 -24.829424 19.636178 43.648786 0.690519 1.104179 -0.019634 0.022025 128252.000000 0 0 1
-31.411833 -24.629224 19.984178 44.639325 0.664955 1.106626 -0.015245 0.016535 -32970.400000 0 0 1
-31.777753 -23.418324 19.337278 43.956499 0.635091 1.115288 -0.012152 0.019629 -256969.000000 0 0 1
-33.262603 -23.230824 19.739578 45.118986 0.609656 1.117979 -0.002064 0.019620 -295556.000000 0 0 1
-34.081848 -24.223524 19.161578 45.994756 0.617901 1.141090 0.001185 0.012482 -1539660.000000 0 0 1
-35.343076 -23.706324 19.027878 46.617411 0.590823 1.150347 0.009542 0.005175 -1419750.000000 0 0 1
35.409840 -24.771324 18.431878 46.980947 -0.610431 1.167637 0.036367 -0.005872 -402692.000000 0 0 1
35.036810 -25.726524 19.376278 47.590674 -0.633359 1.151471 0.030006 -0.003564 -224654.000000 0 0 1
34.478760 -26.817124 18.669478 47.502552 -0.661049 1.166882 0.033518 -0.002461 -230890.000000 0 0 1
34.015150 -28.032824 19.462778 48.183705 -0.689281 1.154989 0.021415 0.001651 -552821.000000 0 0 1
32.782350 -27.916324 20.109278 47.522486 -0.705402 1.133874 0.023670 -0.000581 -282969.000000 0 0 1
32.953140 -27.187724 21.343578 47.755943 -0.689825 1.107465 0.017921 -0.003473 -786297.000000 0 0 1
31.686950 -27.173124 22.178478 47.268662 -0.708861 1.082411 0.019564 -0.011399 -917619.000000 0 0 1
30.698810 -26.357824 21.650578 45.890079 -0.709462 1.079474 0.035753 -0.006473 -417372.000000 0 0 1
29.896560 -25.827724 22.714978 45.572424 -0.712510 1.049002 0.047952 -0.009162 -185155.000000 0 0 1
29.114460 -24.591724 22.165878 44.087763 -0.701384 1.043999 0.062242 -0.011072 -278661.000000 0 0 1
29.810510 -23.480324 21.612978 43.670504 -0.667167 1.053065 0.062335 -0.005580 -206117.000000 0 0 1
30.714940 -22.855724 22.494378 44.404828 -0.639730 1.039589 0.069085 -0.020714 -254925.000000 0 0 1
31.616740 -21.834324 21.825278 44.189351 -0.604385 1.054223 0.073850 -0.016693 120607.000000 0 0 1
30.778330 -20.800924 21.281578 42.812260 -0.594320 1.050554 0.071625 -0.025007 397412.000000 0 0 1
31.539940 -19.737224 20.837978 42.644427 -0.559164 1.060260 0.064792 -0.025724 -705316.000000 0 0 1
30.689580 -18.664124 20.112578 41.166924 -0.546397 1.060356 0.069234 -0.019899 584685.000000 0 0 1
29.863030 -17.768224 20.867478 40.533468 -0.536728 1.029998 0.065233 -0.005500 471879.000000 0 0 1
28.769990 -18.264324 21.606378 40.350136 -0.565644 1.005729 0.071517 -0.026087 -614415.000000 0 0 1
28.862330 -18.135924 23.129778 41.193840 -0.561012 0.974615 0.053637 -0.024123 -151108.000000 0 0 1
28.548960 -16.871924 23.640088 40.725406 -0.533762 0.951484 0.054608 -0.017281 48465.600000 0 0 1
29.079720 -16.822124 24.908048 41.821344 -0.524448 0.932806 0.046414 -0.017629 -141887.000000 0 0 1
29.076520 -15.347124 25.423908 41.561441 -0.485654 0.912565 0.050559 -0.015976 -72586.100000 0 0 1
27.749280 -14.942024 25.669648 40.647478 -0.493944 0.887286 0.055932 -0.020340 101976.000000 0 0 1
27.618560 -13.682624 26.286848 40.509227 -0.459972 0.864645 0.041145 -0.016412 -70734.600000 0 0 1
28.063750 -12.387924 25.509868 39.897219 -0.415697 0.877092 0.050777 -0.024671 -611475.000000 0 0 1
27.300960 -12.082624 24.412148 38.565337 -0.416659 0.885364 0.045050 -0.010493 -134256.000000 0 0 1
27.805020 -10.990924 23.618478 38.101864 -0.376436 0.902210 0.040618 -0.005970 192617.000000 0 0 1
28.940970 -11.322124 22.596178 38.423398 -0.372910 0.942109 0.045835 -0.024545 -159769.000000 0 0 1
28.541010 -12.163424 21.550578 37.775198 -0.402864 0.963687 0.048142 -0.034769 115298.000000 0 0 1
28.678070 -13.501724 21.869478 38.509769 -0.440018 0.966851 0.054477 -0.038041 -409555.000000 0 0 1
28.039130 -14.525724 20.861778 37.847104 -0.477985 0.986980 0.067184 -0.041112 -347816.000000 0 0 1
28.530790 -14.575224 19.552078 37.533011 -0.472297 1.022856 0.059572 -0.033877 -134175.000000 0 0 1
28.023360 -15.759524 18.893478 37.291216 -0.512291 1.039505 0.058944 -0.036848 -165647.000000 0 0 1
28.480460 -15.898124 17.473378 37.002782 -0.509126 1.078991 0.060522 -0.028411 -396536.000000 0 0 1
27.985000 -17.032224 16.750378 36.794457 -0.546733 1.098152 0.054983 -0.028176 684404.000000 0 0 1
26.584470 -17.112624 16.477278 35.652162 -0.571939 1.090358 0.046392 -0.020409 79441.900000 0 0 1
26.016070 -16.120824 15.476578 34.296375 -0.554742 1.102620 0.044991 -0.015038 -989939.000000 0 0 1
26.131270 -16.374324 14.109578 33.912269 -0.559762 1.141687 0.047679 -0.014951 369146.000000 0 0 1
25.283870 -17.447624 13.687378 33.630908 -0.604030 1.151642 0.024633 -0.016339 -137742.000000 0 0 1
25.623570 -18.044024 12.297078 33.665595 -0.613537 1.196872 0.043827 -0.015660 -249225.000000 0 0 1
25.217670 -17.261124 11.152178 32.530730 -0.600237 1.220879 0.041281 -0.015332 14816.900000 0 0 1
25.342270 -17.831224 9.843078 32.512604 -0.613149 1.263223 0.039553 -0.028807 -148757.000000 0 0 1
26.780020 -18.060924 9.324978 33.620257 -0.593350 1.289749 0.048458 -0.018616 166050.000000 0 0 1
27.422890 -19.178024 9.932478 34.906527 -0.610285 1.282265 0.039270 -0.008777 -265374.000000 0 0 1
28.751520 -19.347224 9.458078 35.922419 -0.592313 1.304364 0.044854 0.000897 -165147.000000 0 0 1
29.431700 -20.312924 10.387978 37.239092 -0.604099 1.288092 0.055678 -0.019487 -626209.000000 0 0 1
29.519180 -19.691624 11.694478 37.361783 -0.588288 1.252439 0.058557 -0.030122 122932.000000 0 0 1
29.675300 -20.668624 12.674378 38.320429 -0.608368 1.233701 0.045814 -0.024609 -110597.000000 0 0 1
29.672270 -20.005324 14.018078 38.433880 -0.593206 1.197451 0.055782 -0.019662 -6454.930000 0 0 1
29.312810 -20.855824 15.057478 38.999152 -0.618397 1.174399 0.059083 -0.020519 44180.500000 0 0 1
29.673120 -20.372124 16.304078 39.513801 -0.601643 1.145471 0.085841 -0.032639 -115805.000000 0 0 1
29.183280 -21.292224 17.405478 40.099543 -0.630319 1.121805 0.078063 -0.027466 487212.000000 0 0 1
27.764390 -21.452224 17.393678 39.161197 -0.657842 1.110564 0.043064 -0.017106 492058.000000 0 0 1
27.500880 -22.188324 18.581378 39.923524 -0.678887 1.086682 0.054287 -0.019865 162061.000000 0 0 1
26.318270 -23.225624 18.566078 39.708692 -0.723057 1.084271 0.049268 -0.011152 604392.000000 0 0 1
25.101170 -22.485424 18.658078 38.519955 -0.730485 1.065148 0.055941 -0.013254 -12948.400000 0 0 1
23.979470 -23.317224 18.596378 38.269220 -0.771397 1.063363 0.049927 -0.008771 -58226.700000 0 0 1
22.743170 -22.803324 19.382678 37.588982 -0.786719 1.029033 0.039774 -0.000841 96450.400000 0 0 1
22.172770 -21.600724 18.856978 36.246498 -0.772331 1.023661 0.030559 0.002290 -94192.500000 0 0 1
21.023870 -21.126924 19.513178 35.624629 -0.787843 0.991131 0.017745 0.004787 42979.300000 0 0 1
21.236770 -20.477524 20.914378 36.162696 -0.767199 0.954102 0.009258 0.005856 -314163.000000 0 0 1
21.565870 -21.521824 21.859078 37.497933 -0.784376 0.948453 0.026411 0.003000 -9574.370000 0 0 1
21.884070 -21.098224 23.159878 38.215541 -0.767117 0.919732 0.026048 0.002439 12395.000000 0 0 1
22.242570 -22.185324 24.157208 39.629424 -0.784110 0.915269 0.039439 -0.004569 -367204.000000 0 0 1
21.174670 -22.982024 24.577448 39.756648 -0.826306 0.904349 0.026748 0.003226 -330879.000000 0 0 1
21.566370 -24.076524 25.341718 41.072984 -0.840338 0.905881 0.032890 0.003565 -520641.000000 0 0 1
20.399170 -24.783624 26.058868 41.345118 -0.882133 0.888887 0.047744 -0.002282 -312532.000000 0 0 1
19.668570 -25.560524 25.120148 40.880495 -0.914938 0.909073 0.040954 -0.009479 127556.000000 0 0 1
18.714670 -26.339724 25.831678 41.367808 -0.953051 0.896383 0.036298 -0.005322 -429487.000000 0 0 1
18.006470 -27.249824 24.872258 41.053808 -0.986872 0.919968 0.041420 -0.014528 -1029060.000000 0 0 1
17.033870 -26.620024 24.114398 39.752769 -1.001562 0.919008 0.044854 -0.021540 -291543.000000 0 0 1
16.642570 -27.479124 23.089578 39.562685 -1.026237 0.947617 0.053362 -0.020165 -354986.000000 0 0 1
15.560670 -26.778624 22.247478 38.133705 -1.044401 0.947879 0.046136 -0.016039 -286477.000000 0 0 1
14.471070 -26.338424 23.002378 37.844866 -1.068392 0.917500 0.026349 -0.014036 -71261.900000 0 0 1
13.569370 -25.470824 22.307278 36.476093 -1.081300 0.912767 -0.006934 -0.000840 484511.000000 0 0 1
12.205770 -25.259024 23.006578 36.280873 -1.120659 0.883921 0.004658 0.002877 95177.200000 0 0 1
11.271070 -26.287124 22.796178 36.574795 -1.165739 0.897872 0.001098 -0.000211 -560960.000000 0 0 1
9.990870 -25.719824 22.791278 35.787836 -1.200286 0.880398 -0.004600 0.001586 -4979.760000 0 0 1
8.817370 -26.726624 22.602978 36.096441 -1.252130 0.894148 -0.002000 0.001408 229446.000000 0 0 1
8.691770 -27.375924 21.326478 35.774387 -1.263366 0.932114 0.003762 0.000449 -151604.000000 0 0 1
7.484970 -28.081124 21.282378 36.021021 -1.310305 0.938706 0.001680 0.002187 -361000.000000 0 0 1
7.254470 -28.846924 19.958178 35.820403 -1.324424 0.979818 0.009017 -0.000821 59194.700000 0 0 1
8.036670 -30.030824 19.865778 36.892921 -1.309310 1.002174 0.008198 -0.006181 438787.000000 0 0 1
7.619770 -30.774024 18.764678 36.840394 -1.328074 1.036366 0.006154 -0.005596 -343960.000000 0 0 1
8.348770 -32.083924 18.728178 38.076565 -1.316225 1.056576 0.008305 -0.007341 -384693.000000 0 0 1
7.904370 -33.053924 19.672178 39.268761 -1.336069 1.046086 0.019207 -0.010847 436981.000000 0 0 1
8.752170 -34.198624 19.691778 40.421684 -1.320252 1.061963 0.028952 -0.014581 54638.500000 0 0 1
8.410670 33.502545 20.865678 40.355128 1.324834 1.027394 0.033768 -0.022441 151848.000000 0 0 1
7.492270 32.494045 20.426378 39.105421 1.344183 1.021202 0.037417 -0.023517 296221.000000 0 0 1
7.542670 31.396745 21.345278 38.707471 1.335027 0.986694 0.034822 -0.030560 -261291.000000 0 0 1
6.516570 30.313445 20.905778 37.395483 1.359046 0.977562 0.039656 -0.023650 -302358.000000 0 0 1
5.257070 30.402745 21.479878 37.594532 1.399575 0.962639 0.047535 -0.027672 -1155780.000000 0 0 1
4.347870 29.641345 20.755478 36.445894 1.425152 0.964914 0.062654 -0.014000 -46750.000000 0 0 1
2.941970 29.538445 21.394178 36.590788 1.471526 0.946301 0.067983 -0.012292 63362.200000 0 0 1
2.988570 29.086145 22.745878 37.044707 1.468407 0.909663 0.060678 -0.020535 1143120.000000 0 0 1
1.664870 28.871545 23.325178 37.153759 1.513195 0.892071 0.069662 -0.012378 1288450.000000 0 0 1
1.639570 28.284345 24.787128 37.644310 1.512894 0.852031 0.073804 -0.012388 -358279.000000 0 0 1
1.743770 29.242345 25.807608 39.040852 1.511235 0.848591 0.072614 -0.018041 284340.000000 0 0 1
1.478470 28.721945 27.113748 39.525831 1.519366 0.814853 0.058553 -0.013952 -655857.000000 0 0 1
2.661770 27.970545 27.680788 39.441887 1.475919 0.792858 0.037819 -0.014674 -865299.000000 0 0 1
3.020970 26.795345 27.011878 38.167503 1.458528 0.784532 0.052329 -0.014410 272500.000000 0 0 1
3.845970 25.944545 27.793068 38.214729 1.423630 0.756436 0.019207 -0.006036 55734.100000 0 0 1
4.312270 24.609745 27.150508 36.896955 1.397331 0.743880 0.021700 -0.002088 -265998.000000 0 0 1
3.255270 23.767145 26.823298 35.985598 1.434678 0.729677 0.040782 -0.000505 -129614.000000 0 0 1
3.779170 22.464745 26.669938 35.074670 1.404130 0.706904 0.033426 0.006652 155759.000000 0 0 1
2.622270 21.509745 26.390928 34.147130 1.449484 0.687462 0.037734 0.010358 -176063.000000 0 0 1
2.960670 20.189445 26.621288 33.542096 1.425190 0.653981 0.038939 0.010880 -16705.500000 0 0 1
3.585870 19.609145 25.503068 32.369484 1.389928 0.663448 0.042889 0.011061 -439009.000000 0 0 1
4.093470 18.185645 25.732258 31.774570 1.349393 0.626920 0.043024 0.001874 -83965.500000 0 0 1
5.262170 18.109645 26.534078 32.553141 1.288011 0.617894 0.037228 -0.003294 560203.000000 0 0 1
6.430170 17.962845 25.702658 32.009960 1.227038 0.638555 0.047793 -0.006424 -363788.000000 0 0 1
7.722170 17.706945 26.517488 32.807697 1.159553 0.629588 0.030941 -0.010373 23082.800000 0 0 1
8.092270 18.788945 27.349708 34.154294 1.164113 0.642218 0.026275 -0.006016 162963.000000 0 0 1
8.587270 19.919045 26.651068 34.362610 1.163763 0.683158 0.022185 -0.014455 -659693.000000 0 0 1
9.093170 21.118545 27.478488 35.829401 1.164211 0.696760 0.009576 -0.016454 1194880.000000 0 0 1
10.280270 20.827245 28.292688 36.605113 1.112284 0.687372 0.023303 -0.029843 1202420.000000 0 0 1
10.683070 21.830545 29.188848 37.982753 1.115694 0.694340 0.035514 -0.036988 -576131.000000 0 0 1
11.863970 21.494745 30.072278 38.821640 1.066459 0.684672 0.043551 -0.038076 -1344920.000000 0 0 1
13.076970 21.850345 29.501628 38.971666 1.031496 0.712084 0.038885 -0.038269 -937633.000000 0 0 1
14.049070 21.804645 30.556528 40.081421 0.998428 0.703842 0.037377 -0.029537 445715.000000 0 0 1
15.485470 21.852045 29.960358 40.186250 0.954288 0.729455 0.028970 -0.036880 179805.000000 0 0 1
15.732170 23.124645 29.422998 40.595113 0.973401 0.760064 0.021795 -0.044935 -182460.000000 0 0 1
16.940970 23.150145 28.697608 40.576821 0.939054 0.785208 0.054866 -0.037809 -113003.000000 0 0 1
-8.521263 16.777145 4.787288 19.416555 -1.100842 1.321670 0.010749 -0.007182 -319924.000000 0 1 0
-8.537263 18.120845 5.249188 20.707579 -1.130511 1.314509 0.017791 -0.008910 72114.300000 0 1 0
-7.246363 18.651345 5.510788 20.754547 -1.200228 1.302051 0.019982 0.003378 -128917.000000 0 1 0
-7.100763 20.157045 5.942088 22.181877 -1.232099 1.299604 0.029790 0.003637 -109309.000000 0 1 0
-7.349963 21.176845 4.945488 22.955142 -1.236729 1.353653 0.041688 -0.009593 400404.000000 0 1 0
-8.700663 21.276745 4.484988 23.420429 -1.182617 1.378107 0.038482 -0.017169 453956.000000 0 1 0
-8.913263 22.305845 3.392888 24.259197 -1.190641 1.430476 0.057940 -0.027733 673422.000000 0 1 0
-8.079363 22.147545 2.200788 23.677696 -1.221000 1.477714 0.033480 -0.024259 379897.000000 0 1 0
-8.411463 21.012745 1.409288 22.677615 -1.190029 1.508612 0.035754 -0.023171 -663110.000000 0 1 0
-7.797963 20.987245 -0.032112 22.389142 -1.215047 1.572231 0.022356 -0.007928 668316.000000 0 1 0
-6.450663 20.611145 -0.240812 21.598341 -1.267484 1.581946 0.011354 0.001890 -354753.000000 0 1 0
-5.476763 21.454645 0.253588 22.144096 -1.320862 1.559344 0.014916 -0.004456 -365660.000000 0 1 0
-4.067863 21.282145 -0.383012 21.670807 -1.381935 1.588471 0.013493 0.000876 310086.000000 0 1 0
-4.061863 21.474545 -1.803212 21.929577 -1.383857 1.653117 0.015006 -0.005467 -957665.000000 0 1 0
-2.768563 21.565545 -2.269712 21.860678 -1.443116 1.674810 0.007315 0.007275 -929088.000000 0 1 0
-2.612963 21.640945 -3.795012 22.126007 -1.450636 1.743167 0.015776 -0.003716 37183.500000 0 1 0
-1.493663 22.375145 -4.259112 22.825822 -1.504140 1.758488 0.013256 0.014138 -77217.100000 0 1 0
-1.480763 22.542645 -5.662512 23.290074 -1.505203 1.816388 0.021735 0.001736 -266009.000000 0 1 0
-0.120363 22.993945 -6.196312 23.814497 -1.565562 1.834016 0.011899 -0.004484 62390.300000 0 1 0
0.925737 22.040845 -6.061312 22.877835 1.528820 1.838941 0.008145 -0.001954 -963053.000000 0 1 0
2.092937 22.537445 -6.561312 23.566239 1.478197 1.852945 0.008643 -0.005264 -920064.000000 0 1 0
3.274037 21.556645 -6.637012 22.791625 1.420068 1.866281 0.010286 -0.002649 33261.800000 0 1 0
3.064437 20.635145 -7.677912 22.229492 1.423368 1.923454 0.012356 -0.009066 -368116.000000 0 1 0
4.119037 19.738245 -7.793712 21.617278 1.365066 1.939634 0.015047 -0.007549 -257041.000000 0 1 0
3.962237 18.895145 -9.069312 21.330219 1.364095 2.009964 0.005619 -0.007186 61845.300000 0 1 0
4.371537 19.427945 -10.291312 22.415764 1.349470 2.047790 0.015707 -0.009800 -375267.000000 0 1 0
3.378437 19.073645 -11.216012 22.383402 1.395489 2.095650 0.020957 -0.014880 -92731.000000 0 1 0
3.565637 19.565045 -12.667012 23.578760 1.390529 2.137935 0.026514 -0.010474 63590.600000 0 1 0
3.613937 20.989145 -12.875412 24.887366 1.400287 2.114545 0.051232 -0.014216 84163.000000 0 1 0
4.097037 21.317245 -14.196612 25.937510 1.380918 2.149978 0.067082 -0.018138 271095.000000 0 0 1
4.258937 22.806545 -14.560512 27.391341 1.386181 2.131254 0.060290 -0.020455 955900.000000 0 0 1
3.003037 23.531345 -14.675412 27.894626 1.443864 2.124807 0.071821 -0.015858 887298.000000 0 0 1
3.259137 24.876745 -15.050512 29.257346 1.440527 2.111125 0.069491 -0.017266 -853739.000000 0 0 1
2.012037 25.529945 -15.595912 29.984310 1.492148 2.117806 0.070637 -0.015872 -428144.000000 0 0 1
1.056037 25.857945 -14.612812 29.720074 1.529979 2.084816 0.067858 -0.019065 -121821.000000 0 0 1
1.320237 27.134745 -14.058412 30.588827 1.522180 2.048333 0.048136 -0.014435 -1013970.000000 0 0 1
0.516937 27.349345 -12.737912 30.174630 1.551897 2.006601 0.047499 -0.017025 -228632.000000 0 0 1
-0.875863 27.569445 -12.808812 30.412285 -1.539038 2.005534 0.042693 -0.013605 -21957.700000 0 0 1
-1.647463 26.475145 -13.251012 29.651926 -1.508650 2.034077 0.041406 -0.011132 -882469.000000 0 0 1
-1.631763 25.200445 -12.297812 28.088454 -1.506135 2.023974 0.062400 -0.013854 -561080.000000 0 0 1
-2.289163 25.462945 -11.069212 27.859097 -1.481136 1.979400 0.045033 -0.007175 -28880.400000 0 0 1
-2.287363 24.283245 -10.232512 26.450185 -1.476878 1.968020 0.064727 -0.008605 -236001.000000 0 0 1
-3.241863 24.417045 -9.031212 26.234796 -1.438798 1.922231 0.043684 -0.006153 -256614.000000 0 0 1
-2.880863 24.841345 -7.734412 26.176572 -1.455342 1.870745 0.045399 -0.011982 -384241.000000 0 0 1
-2.575163 26.209745 -7.682912 27.433726 -1.472859 1.854646 0.034814 -0.009485 -173391.000000 0 0 1
-2.341563 26.681845 -6.187512 27.489799 -1.483262 1.797826 0.025155 -0.009624 -157466.000000 0 0 1
-1.191863 26.070245 -5.675212 26.707419 -1.525111 1.784925 0.016477 -0.009576 -619397.000000 0 0 1
-0.960563 26.319945 -4.305912 26.687133 -1.534317 1.732853 0.020240 -0.014434 -708227.000000 0 0 1
-1.836463 25.826345 -3.148112 26.082241 -1.499808 1.691791 0.018891 -0.011181 -519042.000000 0 0 1
-3.101563 26.443045 -3.243312 26.821137 -1.454038 1.692017 0.015330 -0.007926 133187.000000 0 0 1
-4.051363 25.992445 -2.279312 26.404848 -1.416174 1.657226 0.012038 -0.002311 113595.000000 0 0 1
-5.018463 24.837145 -2.611812 25.473325 -1.371426 1.673508 0.014719 -0.005435 -6453.210000 0 0 1
-6.085063 25.363245 -3.405912 26.304418 -1.335330 1.700642 0.016606 -0.007215 209198.000000 0 0 1
-7.068963 24.363545 -3.722812 25.640044 -1.288405 1.716507 0.004806 -0.007077 958008.000000 0 0 1
-8.469663 25.013045 -3.958412 26.703120 -1.244304 1.719583 0.011207 -0.001838 189191.000000 0 0 1
-9.067963 25.434345 -2.766912 27.143869 -1.228321 1.672909 0.014325 -0.006324 -23848.300000 0 0 1
-10.203463 26.292645 -2.952212 28.357175 -1.200614 1.675093 0.024479 -0.004365 648062.000000 0 0 1
-10.851963 26.733145 -1.583212 28.895202 -1.185183 1.625615 0.016357 -0.001296 314580.000000 0 0 1
-11.556263 25.653245 -0.893312 28.150207 -1.147544 1.602535 0.014013 -0.006209 266950.000000 0 0 1
-10.667163 24.700245 -0.353712 26.907537 -1.163126 1.583942 0.030052 -0.012610 -317650.000000 0 0 1
-11.200663 23.295545 -0.150812 25.848791 -1.122621 1.576631 0.033320 -0.014623 250447.000000 0 0 1
-12.126963 23.146245 0.942188 26.147650 -1.088190 1.534755 0.039766 -0.020544 225722.000000 0 0 1
-12.679363 21.884645 0.996388 25.311987 -1.045682 1.531422 0.043995 -0.022860 -48280.000000 0 0 1
-13.661163 21.664445 2.222788 25.708293 -1.008195 1.484226 0.048398 -0.025549 382223.000000 0 0 1
-13.117963 21.646245 3.570688 25.561507 -1.025965 1.430648 0.045880 -0.031768 64094.300000 0 0 1
-12.939963 22.951145 4.049288 26.656977 -1.057416 1.418303 0.038051 -0.031714 -73087.200000 0 0 1
-12.679463 23.008945 5.594188 26.860291 -1.067135 1.360991 0.036917 -0.029999 -972726.000000 0 0 1
-11.425363 22.638745 6.036988 26.067161 -1.103410 1.337081 0.044445 -0.026065 -800639.000000 0 0 1
-11.539163 22.276745 7.382888 26.151724 -1.092859 1.284595 0.038218 -0.025242 -101756.000000 0 0 1
-10.181863 22.105345 8.086588 25.645847 -1.139157 1.250005 0.046988 -0.024168 -70495.100000 0 0 1
-9.428163 23.304245 8.292488 26.471559 -1.186358 1.252172 0.062093 -0.031741 325908.000000 0 0 1
-8.398063 23.158345 9.280188 26.324100 -1.222909 1.210517 0.076534 -0.026668 213857.000000 0 0 1
-8.666463 22.739545 10.792688 26.620980 -1.206672 1.153358 0.057960 -0.026084 -408060.000000 0 0 1
-9.315863 21.498145 11.051788 25.905550 -1.161888 1.130046 0.065117 -0.026875 -10085.900000 0 0 1
-9.056163 21.030645 12.373188 26.026868 -1.164177 1.075377 0.056028 -0.022519 -393649.000000 0 0 1
-9.978263 19.899245 12.839288 25.698112 -1.105998 1.047636 0.051881 -0.021353 -356891.000000 0 0 1
-9.965163 18.633245 12.068888 24.334344 -1.079694 1.051855 0.058769 -0.028016 -332043.000000 0 1 0
-10.643463 17.584445 12.652088 24.136514 -1.026506 1.019034 0.045096 -0.025266 -299017.000000 0 1 0
-10.813463 16.381545 11.774288 22.889295 -0.987353 1.030487 0.041753 -0.033403 -138585.000000 0 1 0
-11.326763 15.199945 12.343888 22.620907 -0.930384 0.993590 0.034254 -0.026159 -19810.500000 0 1 0
-11.395863 14.219445 11.330788 21.457983 -0.895185 1.014499 0.027345 -0.025676 -202492.000000 0 1 0
-11.721263 12.849045 11.940888 21.096700 -0.831266 0.969142 0.017924 -0.026708 337418.000000 0 1 0
-12.874063 12.736545 12.773688 22.161411 -0.780029 0.956488 0.029232 -0.025662 416425.000000 0 1 0
-13.213463 11.379545 13.052688 21.782155 -0.710965 0.928248 0.019436 -0.026648 75397.800000 0 1 0
-13.985863 11.217345 14.387488 22.987670 -0.675989 0.894539 0.025616 -0.024437 1246770.000000 0 1 0
-15.209263 11.999145 14.455288 24.171398 -0.667958 0.929752 0.036394 -0.018688 848424.000000 0 1 0
-15.898863 11.969045 15.673288 25.331478 -0.645306 0.903674 0.028358 -0.014973 -335040.000000 0 0 1
-16.935963 13.086845 15.788388 26.596344 -0.657887 0.935234 0.033175 -0.006294 -246986.000000 0 0 1
-18.023463 12.835845 14.896388 26.674079 -0.618850 0.978269 0.023263 -0.006542 -65085.600000 0 0 1
-18.829863 14.005745 14.952488 27.826273 -0.639524 1.003503 0.041012 -0.005081 -87171.200000 0 0 1
-20.010963 13.886645 13.966988 28.077647 -0.606655 1.050149 0.039700 -0.003640 597898.000000 0 0 1
-21.072563 12.978945 14.341288 28.603818 -0.552041 1.045607 0.035733 0.002999 522948.000000 0 0 1
-22.184463 13.063245 13.484588 29.062568 -0.532178 1.088308 0.024157 0.003378 -548684.000000 0 0 1
-23.309063 12.201945 14.023888 29.813911 -0.482259 1.081074 0.023557 0.001540 -654912.000000 0 0 1
-23.823963 12.712845 15.262288 31.018302 -0.490177 1.056363 0.036522 0.002944 -198884.000000 0 0 1
-24.631563 11.761645 15.852388 31.564986 -0.445489 1.044639 0.023875 0.002095 -663516.000000 0 0 1
-25.347913 12.254745 17.121188 32.951942 -0.450330 1.024436 0.022651 0.001812 39302.500000 0 0 1
-26.516213 13.019245 16.849888 34.007778 -0.456415 1.052419 0.020152 0.009092 684107.000000 0 0 1
-27.090683 13.563345 18.110988 35.296987 -0.464179 1.032000 0.010868 0.009531 474855.000000 0 0 1
-28.219873 14.574545 17.767888 36.393356 -0.476732 1.060750 0.002640 0.004978 1785.910000 0 0 1
-27.854323 15.921645 17.504588 36.548223 -0.519278 1.071344 0.012812 0.011884 37381.000000 0 0 1
-28.983213 16.753045 17.317988 37.690898 -0.524105 1.093393 0.018825 0.008520 -125898.000000 0 0 1
-28.581213 18.251745 17.372688 38.102784 -0.568314 1.097365 0.033664 0.003264 -109786.000000 0 0 1
-28.201913 18.914645 18.573188 38.704973 -0.590780 1.070295 0.031980 -0.001940 -296151.000000 0 0 1
-29.133893 18.962345 19.601688 39.907147 -0.576986 1.057350 0.018854 -0.007034 -1573400.000000 0 0 1
-28.526443 19.207645 20.997688 40.293851 -0.592600 1.022641 0.016005 -0.014375 271321.000000 0 0 1
-27.775213 18.141245 21.558988 39.564594 -0.578583 0.994519 0.017808 -0.013143 945245.000000 0 0 1
-26.728083 17.491345 20.773088 38.103264 -0.579475 0.994194 0.040053 -0.010027 -51052.200000 0 0 1
-26.273263 16.184445 21.418988 37.563195 -0.552104 0.964032 0.029258 -0.005012 -755493.000000 0 0 1
-27.276543 15.254145 21.638688 38.012255 -0.509910 0.965196 -0.008036 -0.000002 -304038.000000 0 0 1
-26.737473 13.948145 21.828088 37.227793 -0.480833 0.944265 -0.001563 0.005671 14754.000000 0 0 1
-27.863153 12.913145 22.011988 37.784020 -0.433981 0.948904 0.004488 -0.001554 255947.000000 0 0 1
-28.839383 12.869545 20.974588 37.911324 -0.419730 0.984531 0.006509 -0.011392 -171420.000000 0 0 1
-29.707963 11.814045 21.142988 38.329631 -0.378498 0.986504 0.034620 -0.014956 -890012.000000 0 0 1
-30.496483 11.637145 19.816888 38.185961 -0.364535 1.025166 0.046294 -0.013208 -586044.000000 0 0 1
-29.805863 11.116545 18.650388 36.875520 -0.356985 1.040527 0.051108 -0.019173 420097.000000 0 0 1
-29.112503 9.903445 18.805488 36.045282 -0.327898 1.021932 0.067784 -0.020049 -158379.000000 0 0 1
-28.198583 9.508045 17.628788 34.588107 -0.325210 1.035986 0.071800 -0.016616 47281.100000 0 0 1
-28.884953 9.162245 16.383288 34.448503 -0.307159 1.075164 0.062352 -0.012307 573529.000000 0 0 1
-29.457823 10.204645 15.612688 34.866231 -0.333478 1.106506 0.053098 -0.008797 -96565.500000 0 0 1
-28.485813 11.203645 14.921188 34.052974 -0.374723 1.117228 0.047392 -0.004004 -41537.200000 0 0 1
-27.997263 10.831045 13.620388 32.964727 -0.369128 1.144852 0.041739 -0.012851 163249.000000 0 0 1
-27.027583 11.750245 13.206188 32.294920 -0.410100 1.149521 0.015170 -0.004899 -529545.000000 0 0 1
-26.769443 11.665645 11.678088 31.449452 -0.410968 1.190357 0.036230 -0.005583 -597773.000000 0 0 1
-26.257603 10.443945 11.208488 30.400129 -0.378565 1.193188 0.039790 -0.001989 315050.000000 0 0 1
-27.150923 9.342345 11.237588 30.833997 -0.331400 1.197749 0.037177 -0.000811 -283654.000000 0 0 1
-26.565693 8.079245 10.494488 29.684078 -0.295235 1.209444 0.039238 -0.007091 -333409.000000 0 0 1
-26.456143 8.361645 9.111788 29.203925 -0.306122 1.253493 0.045568 -0.008678 298357.000000 0 0 1
-26.158093 7.231445 8.332288 28.389551 -0.269715 1.272912 0.053544 -0.016963 -180872.000000 0 0 1
-25.602773 7.545645 6.952788 27.582240 -0.286606 1.315973 0.067709 -0.017090 87188.700000 0 0 1
-26.596153 8.047745 6.091388 28.446907 -0.293832 1.354993 0.065156 -0.018915 -71843.400000 0 0 1
-25.966883 8.326445 4.911088 27.707895 -0.310298 1.392610 0.074534 -0.022198 136216.000000 0 0 1
-26.920513 8.574545 3.694688 28.493640 -0.308354 1.440763 0.066588 -0.020268 -511491.000000 0 0 1
-27.572793 7.497645 3.095288 28.741162 -0.265502 1.462892 0.058760 -0.021924 -141053.000000 0 0 1
-26.730033 6.478145 2.607188 27.627132 -0.237770 1.476285 0.076409 -0.022787 1313.850000 0 0 1
-25.663513 6.741545 1.490488 26.576039 -0.256886 1.514683 0.093034 -0.022604 700157.000000 0 0 1
-24.749363 7.793145 1.885688 26.015762 -0.305054 1.498250 0.097321 -0.020428 355982.000000 0 0 1
-23.541163 7.670545 1.151088 24.786056 -0.314987 1.524339 0.099539 -0.016016 543109.000000 0 1 0
-22.386663 8.547045 1.791288 24.029635 -0.364712 1.496182 0.102023 -0.011707 296360.000000 0 1 0
-22.603563 9.964045 1.572488 24.752292 -0.415192 1.507225 0.079888 -0.010717 580136.000000 0 1 0
-21.658763 10.819045 2.219788 24.312161 -0.463266 1.479365 0.107993 -0.007260 175055.000000 0 1 0
-21.922863 12.348245 2.262688 25.262834 -0.512966 1.481110 0.094158 -0.007195 -179720.000000 0 0 1
-20.729463 12.912945 2.743388 24.576024 -0.557107 1.458935 0.082133 -0.014434 630720.000000 0 1 0
-20.963063 14.244145 3.314588 25.560363 -0.596826 1.440753 0.064197 -0.026637 -665647.000000 0 0 1
-19.681863 14.718945 3.980688 24.897167 -0.642119 1.410222 0.031417 -0.024771 -324744.000000 0 1 0
-19.264463 13.850045 5.024888 24.252685 -0.623326 1.362096 0.035268 -0.024156 113179.000000 0 1 0
-18.415463 14.527545 5.938988 24.196082 -0.667922 1.322810 0.040401 -0.024012 -115952.000000 0 1 0
-17.748363 13.717345 7.070988 23.519540 -0.657984 1.265429 0.012385 -0.016283 266335.000000 0 1 0
-16.811363 12.727445 6.591588 22.092053 -0.648013 1.267813 0.029523 -0.017426 484213.000000 0 1 0
-16.291763 11.970645 7.672788 21.623819 -0.633680 1.208064 0.012025 -0.014383 -405197.000000 0 1 0
9.785837 -33.364324 -14.112712 37.524784 -1.285495 1.956370 -0.002717 0.014928 200007.000000 0 0 1
11.101237 -33.138224 -13.610112 37.504860 -1.247548 1.942163 -0.000249 0.003644 525226.000000 0 0 1
11.551437 -31.802924 -13.886312 36.574463 -1.222394 1.960238 0.006626 -0.011786 111331.000000 0 0 1
12.924237 -31.535824 -13.234912 36.561004 -1.181847 1.941204 0.017324 -0.014211 448418.000000 0 0 1
14.076437 -32.169124 -13.793012 37.725931 -1.158322 1.945085 0.034377 -0.010946 301395.000000 0 0 1
15.236837 -31.578524 -13.229012 37.474941 -1.121241 1.931582 0.040236 -0.010553 674303.000000 0 0 1
16.551837 -32.297624 -13.706412 38.793886 -1.097216 1.931907 0.060321 -0.011191 666748.000000 0 0 1
16.589137 -33.688524 -13.342912 39.851593 -1.113225 1.912205 0.068715 -0.014181 95754.100000 0 0 1
17.673037 34.356145 -14.008312 41.096396 1.095690 1.918633 0.066183 0.000382 719835.000000 0 0 1
17.761437 32.865345 -13.533712 39.733624 1.075330 1.918363 0.065918 -0.003822 -29145.400000 0 0 1
18.302337 32.672745 -12.219512 39.392896 1.060178 1.886195 0.061128 -0.006915 47583.300000 0 0 1
18.321137 31.262545 -11.839612 38.120692 1.040704 1.886602 0.042362 -0.005833 -92989.800000 0 0 1
19.007037 31.052645 -10.484112 37.887344 1.021534 1.851173 0.038129 -0.006888 1024040.000000 0 0 1
20.438437 30.890345 -10.648612 38.540058 0.986278 1.850738 0.033149 -0.014590 1024930.000000 0 0 1
20.983137 30.581645 -9.379912 38.255873 0.969436 1.818511 0.026354 -0.011324 -240115.000000 0 0 1
22.242337 29.725445 -9.480312 38.317097 0.928410 1.820810 0.024399 -0.000395 -449062.000000 0 0 1
23.368637 30.349145 -10.016712 39.591644 0.914622 1.826577 0.037503 -0.015583 -222181.000000 0 0 1
24.502137 29.525045 -9.964712 39.640617 0.878102 1.824898 0.027875 -0.005316 -202145.000000 0 0 1
25.733937 29.831945 -10.804412 40.852366 0.859015 1.838455 0.013751 -0.007287 -213479.000000 0 0 1
26.410537 31.048945 -10.459612 42.082739 0.865948 1.821978 0.024775 -0.018155 -212961.000000 0 0 1
27.348837 31.250745 -11.462012 43.080688 0.851886 1.840099 0.023295 -0.016540 -651867.000000 0 0 1
28.013837 32.627645 -11.340012 44.473972 0.861335 1.828624 0.023079 -0.023486 -371683.000000 0 0 1
27.225837 33.764345 -11.640612 44.908585 0.892196 1.832997 0.031649 -0.013219 59261.700000 0 0 1
27.932137 -33.750124 -11.361812 45.258877 -0.879442 1.824551 0.047978 -0.012160 51280.200000 0 0 1
27.077037 -32.475024 -11.476212 43.812060 -0.875794 1.835830 0.042983 -0.005835 -5936.600000 0 0 1
25.967337 -32.469424 -10.618812 42.910666 -0.896209 1.820858 0.057547 -0.009534 -328978.000000 0 0 1
24.809037 -31.755824 -10.977612 41.766358 -0.907597 1.836754 0.070772 -0.014738 197093.000000 0 0 1
24.828137 -30.179824 -10.900712 40.571957 -0.882382 1.842815 0.055319 -0.019350 -205902.000000 0 0 1
25.677237 -29.544924 -11.866812 40.902864 -0.855323 1.865150 0.040460 -0.009795 191683.000000 0 0 1
25.865137 -28.178324 -11.553612 39.956342 -0.828174 1.864141 0.030686 -0.015642 -48765.300000 0 0 1
26.797737 -27.428424 -12.562912 40.351753 -0.797028 1.887394 0.017755 -0.012981 667178.000000 0 0 1
28.126237 -27.904724 -12.712712 41.609758 -0.781445 1.881283 0.006395 0.002386 185415.000000 0 0 1
28.202237 -28.993124 -13.587812 42.668444 -0.799225 1.894891 0.012832 -0.004140 -281704.000000 0 0 1
29.572937 -29.677724 -13.851012 44.126823 -0.787167 1.890085 0.019496 -0.003165 196294.000000 0 0 1
29.964437 -30.689524 -12.968712 44.809618 -0.797352 1.864415 0.020469 -0.002631 -313794.000000 0 0 1
31.012037 -31.437624 -13.502412 46.177763 -0.792213 1.867533 0.012079 -0.005938 -528200.000000 0 0 1
31.680137 -32.415824 -12.565312 47.035134 -0.796876 1.841228 0.002266 0.003385 -46443.100000 0 0 1
32.651937 -33.205224 -13.219112 48.409512 -0.793799 1.847378 0.004202 -0.004024 662547.000000 0 0 1
33.550737 -34.054424 -12.455112 49.401271 -0.792848 1.825668 0.004817 -0.004632 582220.000000 0 0 1
32.914637 33.495145 -11.684812 48.392488 0.794139 1.814666 0.010834 -0.016082 -15404.100000 0 0 1
32.158937 33.869345 -10.531412 47.877347 0.811297 1.792576 0.011608 -0.015988 139190.000000 0 0 1
31.523037 32.781845 -9.898612 46.543890 0.804971 1.785106 0.018146 -0.021106 -203748.000000 0 0 1
31.008837 33.129145 -8.494912 46.165482 0.818445 1.755861 0.018459 -0.019884 663247.000000 0 0 1
29.879437 34.022145 -8.629612 46.095090 0.850137 1.759121 0.019626 -0.015667 404338.000000 0 0 1
29.247037 -34.338824 -7.393712 45.707888 -0.865305 1.733270 0.022465 -0.016824 562810.000000 0 0 1
28.308637 -33.118924 -7.647812 44.234954 -0.863547 1.744560 0.015880 -0.013452 -21974.200000 0 0 1
29.008337 -31.904724 -8.043612 43.864505 -0.832912 1.755214 0.001973 -0.009147 396060.000000 0 0 1
28.237137 -30.734124 -8.407612 42.574761 -0.827715 1.769582 0.021213 -0.010092 -156323.000000 0 0 1
27.361437 -30.106324 -7.331712 41.337550 -0.833126 1.749102 0.039862 -0.014948 541838.000000 0 0 1
26.376337 -29.218124 -7.928512 40.153098 -0.836470 1.769560 0.037467 -0.030768 175679.000000 0 0 1
25.522937 -28.727024 -6.945512 39.049999 -0.844391 1.749610 0.048383 -0.034705 -608867.000000 0 0 1
24.536337 -27.800524 -7.677112 37.866067 -0.847686 1.774955 0.094985 -0.036722 -664389.000000 0 0 1
23.531037 -28.534524 -8.322612 37.910350 -0.881204 1.792133 0.103639 -0.035006 -480314.000000 0 0 1
22.689837 -27.692924 -9.002412 36.915718 -0.884375 1.817144 0.111063 -0.038315 -1152850.000000 0 0 1
21.428437 -28.320124 -9.549212 36.774921 -0.923052 1.833473 0.106958 -0.035983 -784992.000000 0 0 1
21.555737 -29.130324 -10.727612 37.792953 -0.933742 1.858605 0.121203 -0.034108 -500276.000000 0 0 1
20.410237 -29.827224 -11.116712 37.812992 -0.970697 1.869197 0.106505 -0.032060 -365838.000000 0 0 1
20.126437 -31.190524 -10.502412 38.577493 -0.997751 1.846519 0.102811 -0.039647 332000.000000 0 0 1
21.007337 -32.232424 -10.948612 40.001369 -0.993195 1.848040 0.089424 -0.029633 161259.000000 0 0 1
20.724637 -33.455224 -10.244912 40.665967 -1.016181 1.825469 0.064459 -0.028528 644104.000000 0 0 1
21.874237 34.187845 -10.253512 41.861981 1.001607 1.818250 0.068574 -0.017620 810318.000000 0 0 1
22.942737 -34.272724 -9.350212 42.289659 -0.980892 1.793738 0.072472 -0.010454 637891.000000 0 0 1
24.013237 33.484945 -9.574312 42.303009 0.948662 1.799101 0.054459 -0.009674 1079310.000000 0 0 1
25.316837 33.850345 -8.786612 43.173981 0.928637 1.775744 0.043332 -0.010937 -2627.650000 0 0 1
25.468437 33.427645 -7.460012 42.681384 0.919724 1.746482 0.038426 -0.016744 28267.500000 0 0 1
25.505537 31.993945 -7.280812 41.559056 0.897766 1.746897 0.031806 -0.018295 -184117.000000 0 0 1
25.445337 31.642045 -5.760012 41.010510 0.893523 1.711714 0.031856 -0.016229 601174.000000 0 0 1
26.695637 31.980445 -5.120612 41.971735 0.875223 1.693102 0.028645 -0.008510 746946.000000 0 0 1
27.500337 30.976545 -4.557812 41.672395 0.844774 1.680388 0.042125 -0.008272 -259079.000000 0 0 1
26.942737 29.953345 -3.579412 40.446584 0.838263 1.659410 0.047828 -0.011676 -881061.000000 0 0 1
26.283437 30.508545 -2.467812 40.344522 0.859658 1.632003 0.043792 -0.009422 182746.000000 0 0 1
25.844137 29.505445 -1.527012 39.253311 0.851451 1.609708 0.032605 -0.000161 591366.000000 0 0 1
24.451037 28.864445 -1.850912 37.873939 0.867989 1.619686 0.006052 -0.000895 136433.000000 0 0 1
23.380237 29.593545 -1.307312 37.737547 0.902155 1.605445 0.006697 -0.007729 86930.400000 0 0 1
22.138037 28.882645 -1.446012 36.419649 0.916830 1.610511 0.023628 -0.004781 775373.000000 0 0 1
20.970437 29.588745 -0.729612 36.273756 0.954235 1.590912 0.013682 -0.010948 -214616.000000 0 0 1
21.139137 29.385545 0.642488 36.204781 0.947187 1.553049 0.023767 -0.015629 72113.700000 0 0 1
20.143537 30.117245 1.336788 36.257379 0.981292 1.533919 0.020421 -0.013629 -186847.000000 0 0 1
19.522637 29.256645 2.425788 35.255766 0.982363 1.501937 0.016810 -0.024975 -522760.000000 0 0 1
18.922437 28.169045 1.817988 33.983213 0.979286 1.517274 0.025273 -0.010531 -115966.000000 0 0 1
18.151837 27.375545 2.719188 32.959120 0.985290 1.488201 0.028945 -0.008760 21782.000000 0 0 1
17.539837 26.151245 2.065388 31.556288 0.980001 1.505299 0.031320 0.005190 -257380.000000 0 0 1
18.450937 25.173145 1.675888 31.255926 0.938290 1.517152 0.033912 -0.003229 -180672.000000 0 0 1
19.202937 24.505245 2.674188 31.247577 0.906120 1.485111 0.044260 -0.000012 -867991.000000 0 0 1
20.474837 23.895645 2.163788 31.542079 0.862342 1.502142 0.045580 0.004854 -862573.000000 0 0 1
20.176937 22.772345 1.367588 30.455850 0.845754 1.525877 0.043745 0.004334 200590.000000 0 0 1
21.381237 22.099645 1.095588 30.769334 0.801919 1.535182 0.024041 -0.001442 11287.800000 0 0 1
21.226537 21.096945 -0.048512 29.927401 0.782336 1.572417 0.050025 -0.012449 -94005.800000 0 0 1
20.942037 21.705745 -1.262812 30.187795 0.803304 1.612640 0.029727 -0.010068 316364.000000 0 0 1
21.247337 20.773845 -2.248112 29.800268 0.774131 1.646307 0.059092 -0.016621 33365.300000 0 0 1
20.988837 21.301945 -3.663612 30.128495 0.792802 1.692698 0.041701 -0.015300 -178606.000000 0 0 1
21.964237 22.252845 -4.044412 31.527355 0.791925 1.699433 0.035583 -0.013826 325223.000000 0 0 1
21.672837 22.891745 -5.244712 31.957016 0.812743 1.735660 0.023549 -0.008755 -4439.800000 0 0 1
22.677137 24.071345 -5.542712 33.532132 0.815213 1.736854 0.013147 0.002614 85373.200000 0 0 1
22.532737 25.346145 -4.890112 34.264625 0.844092 1.714001 0.020920 -0.003079 -55691.400000 0 0 1
22.802937 25.426645 -3.519212 34.334721 0.839745 1.673474 0.031201 -0.009871 -857687.000000 0 0 1
21.748437 24.994845 -2.512412 33.227233 0.854739 1.646482 0.022183 -0.013764 -695758.000000 0 0 1
20.769537 26.024645 -2.207812 33.369601 0.897232 1.637007 0.022113 -0.013919 1177990.000000 0 0 1
19.619137 25.702645 -1.456712 32.367553 0.918830 1.615817 0.020117 -0.002276 108948.000000 0 0 1
18.723237 24.516345 -1.865212 30.904527 0.918582 1.631187 0.029938 -0.013598 -1281150.000000 0 0 1
18.279437 24.832645 -3.161212 30.996634 0.936247 1.672960 0.030359 -0.019978 58576.900000 0 0 1
17.676637 23.730745 -3.810012 29.835012 0.930578 1.698849 0.042365 -0.022125 -93694.900000 0 0 1
17.239737 23.998945 -5.215012 30.005903 0.947858 1.745483 0.046919 -0.015475 -133966.000000 0 0 1
16.497737 22.943645 -5.776212 28.843557 0.947396 1.772420 0.052838 -0.021937 131247.000000 0 0 1
16.025137 23.339745 -7.047612 29.175633 0.969118 1.814768 0.051649 -0.016858 -211950.000000 0 0 1
15.258837 22.237345 -7.736312 28.056766 0.969405 1.850154 0.069882 -0.028128 -731758.000000 0 0 1
16.033837 21.155845 -8.095812 27.752403 0.922264 1.866816 0.041940 -0.017621 -38386.800000 0 0 1
15.191737 20.385145 -8.885812 26.931407 0.930351 1.907039 0.047000 -0.009381 -169609.000000 0 0 1
15.838537 19.070045 -9.399212 26.511715 0.877706 1.933208 0.025434 -0.010737 -723694.000000 0 0 1
16.968437 19.309545 -10.165012 27.642609 0.849841 1.947363 0.033842 -0.010493 -375888.000000 0 0 1
17.621437 18.048645 -10.379212 27.276302 0.797374 1.961156 0.025685 -0.012791 -702187.000000 0 0 1
19.065337 18.185645 -10.820612 28.483160 0.761787 1.960479 0.013215 -0.014415 -1130370.000000 0 0 1
19.233137 18.634245 -12.154112 29.408691 0.769584 1.996853 0.017225 -0.013211 118630.000000 0 0 1
20.548437 19.077445 -12.406012 30.660990 0.748293 1.987358 0.016873 -0.013061 -20255.300000 0 0 1
20.738837 19.414645 -13.902612 31.627685 0.752432 2.025917 0.020786 -0.015145 -93410.700000 0 0 1
20.690337 18.211145 -14.687112 31.232149 0.721754 2.060377 0.019042 -0.011632 342511.000000 0 0 1
21.082137 18.445145 -16.043212 32.281024 0.718784 2.090918 0.022325 -0.014468 -14768.700000 0 0 1
21.108937 17.272745 -17.064612 32.173529 0.685780 2.129860 0.018802 -0.013771 -118842.000000 0 0 1
22.237637 16.413845 -16.963512 32.429733 0.635849 2.121263 0.021027 -0.011599 249488.000000 0 0 1
22.311437 15.594545 -18.106112 32.692834 0.610020 2.157748 0.025014 -0.016745 57580.500000 0 0 1
23.315937 16.189345 -19.142212 34.236707 0.606922 2.164113 0.030889 -0.012720 -898148.000000 0 0 1
24.647337 16.292745 -18.796712 35.018012 0.584093 2.137404 0.046832 -0.007727 -876055.000000 0 0 1
25.443737 16.708345 -19.845612 36.337321 0.581056 2.148557 0.057624 -0.005507 80720.400000 0 0 1
26.868437 17.116445 -19.359412 37.278311 0.567215 2.116853 0.056965 -0.005861 248938.000000 0 0 1
26.884437 18.254245 -18.553812 37.419706 0.596485 2.089587 0.051520 -0.009811 -351372.000000 0 0 1
28.115337 18.544345 -17.961712 38.170512 0.583081 2.060727 0.048274 -0.019059 -808850.000000 0 0 1
28.044837 19.824345 -17.065512 38.350349 0.615329 2.031959 0.042093 -0.020498 -150417.000000 0 0 1
27.379837 19.591245 -15.857612 37.214731 0.621077 2.010986 0.034703 -0.014950 -327913.000000 0 0 1
26.011237 19.839245 -16.007212 36.419925 0.651591 2.025858 0.040318 -0.013307 -517961.000000 0 0 1
25.096137 19.252045 -14.874412 34.952904 0.654376 2.010372 0.032042 -0.015514 320414.000000 0 0 1
25.537437 19.799345 -13.643312 35.075842 0.659502 1.970305 0.037827 -0.017359 494234.000000 0 0 1
24.698337 19.386945 -12.569412 33.820875 0.665496 1.951578 0.036185 -0.019616 39334.300000 0 0 1
25.242237 19.778745 -11.188512 33.963982 0.664634 1.906489 0.047571 -0.021493 -300554.000000 0 0 1
24.948037 21.108945 -10.951412 34.466296 0.702235 1.894144 0.040041 -0.018415 115187.000000 0 0 1
25.508337 21.754045 -9.770312 34.919518 0.706129 1.854377 0.034499 -0.015235 222058.000000 0 0 1
24.767637 21.517045 -8.430312 33.874610 0.715283 1.822308 0.042204 -0.011542 -493501.000000 0 0 1
24.929737 20.209045 -7.908112 33.052012 0.681195 1.812403 0.056548 -0.017203 185625.000000 0 0 1
24.059737 19.991345 -6.821212 32.016461 0.693303 1.785495 0.048710 -0.018859 295856.000000 0 0 1
22.590537 19.578345 -7.137012 30.734035 0.714088 1.805154 0.048322 -0.021489 211710.000000 0 0 1
21.889037 20.726345 -7.592412 31.086268 0.758122 1.817529 0.041357 -0.014973 -355913.000000 0 0 1
20.518537 20.506545 -7.800212 30.039508 0.785106 1.833472 0.033767 -0.018404 -417800.000000 0 0 1
19.789737 21.769745 -8.239412 30.552306 0.833005 1.843859 0.025084 -0.013137 -677790.000000 0 0 1
20.268437 22.452945 -9.382512 31.669793 0.836487 1.871571 0.026261 -0.010754 -65433.000000 0 0 1
19.653637 22.164145 -10.635412 31.474224 0.845361 1.915490 0.028205 -0.014547 233811.000000 0 0 1
18.218737 22.745445 -10.779312 31.072033 0.895456 1.925075 0.031795 -0.012258 -33929.400000 0 0 1
18.133337 24.129745 -10.396912 31.924259 0.926340 1.902521 0.036585 -0.016176 -215190.000000 0 0 1
16.834937 24.628745 -10.585412 31.655033 0.971197 1.911764 0.055062 -0.014680 -141412.000000 0 0 1
16.637537 25.986145 -9.924912 32.412825 1.001308 1.881998 0.042333 -0.016003 -168231.000000 0 0 1
17.270137 27.050645 -10.568212 33.788787 1.002593 1.888907 0.092801 -0.004236 -74003.200000 0 0 1
16.905837 28.289645 -9.990612 34.437242 1.032145 1.865139 0.086590 -0.017717 -37353.500000 0 0 1
19.553437 29.125545 33.821092 48.728847 0.979558 0.803673 -0.006496 0.014835 274133.000000 0 0 1
18.185937 29.439645 33.958041 48.482673 1.017437 0.794816 0.004507 0.001283 -360491.000000 0 0 1
17.337437 28.324745 34.033572 47.551676 1.021531 0.773145 0.009603 -0.002314 45477.500000 0 0 1
15.860737 28.781245 33.981223 47.272048 1.067125 0.768658 0.026438 -0.012954 -146054.000000 0 0 1
15.612437 29.132945 32.658410 46.465562 1.078840 0.791397 0.034357 -0.018287 -886610.000000 0 0 1
14.417137 29.822845 32.524968 46.423372 1.120496 0.794536 0.049157 -0.014511 -827066.000000 0 0 1
13.921737 29.623345 31.074538 45.132962 1.131470 0.811363 0.043036 -0.019715 -328333.000000 0 0 1
13.454537 28.373845 30.708188 43.921435 1.128011 0.796572 0.036624 -0.025650 -675637.000000 0 0 1
12.082537 28.237045 30.860678 43.539636 1.166475 0.783008 0.042276 -0.014700 -886684.000000 0 0 1
11.534437 26.748045 30.944718 42.497961 1.163665 0.755183 0.030594 -0.021936 94840.100000 0 0 1
11.734637 25.921945 29.789248 41.195245 1.145707 0.762483 0.027835 -0.022139 372101.000000 0 0 1
13.084637 25.617645 29.476948 41.186915 1.098573 0.773189 0.020479 -0.024982 8730.940000 0 0 1
13.249937 24.915745 28.135378 39.849149 1.082042 0.786896 0.032590 -0.027748 -327376.000000 0 0 1
13.013737 25.703845 26.987608 39.476271 1.102125 0.818056 0.016091 -0.027736 -52606.000000 0 0 1
13.040137 25.033245 25.733868 38.196080 1.090559 0.831551 0.028616 -0.031181 -132751.000000 0 0 1
11.929337 24.009945 25.365588 36.907988 1.109672 0.813078 0.029283 -0.025988 -376587.000000 0 0 1
11.992837 23.430445 24.114018 35.697335 1.097715 0.829136 0.040094 -0.027695 -330449.000000 0 0 1
11.069837 22.390045 24.013518 34.648297 1.111632 0.805064 0.054667 -0.027956 -210530.000000 0 0 1
11.083237 21.882545 22.622878 33.368826 1.101972 0.825806 0.066583 -0.024240 -164938.000000 0 0 1
10.690737 22.938845 21.745778 33.367070 1.134672 0.860955 0.065200 -0.031405 -79866.100000 0 0 1
10.799037 22.522245 20.354478 32.220731 1.123696 0.887026 0.070189 -0.020321 -477384.000000 0 0 1
10.460337 23.625645 19.344378 32.276845 1.153985 0.928136 0.059963 -0.022383 1549430.000000 0 0 1
9.052437 23.984245 19.202178 32.029896 1.209895 0.927910 0.059152 -0.023607 1464650.000000 0 0 1
8.524637 24.817845 20.255078 33.149103 1.239934 0.913436 0.045424 -0.025119 151107.000000 0 0 1
7.152937 25.485745 19.924678 33.131262 1.297172 0.925562 0.054474 -0.018946 529265.000000 0 0 1
7.253837 26.435745 18.847378 33.266957 1.302993 0.968484 0.051069 -0.021754 -539068.000000 0 0 1
6.016637 27.033845 18.640778 33.384237 1.351806 0.978376 0.051162 -0.021664 -418269.000000 0 0 1
6.163537 28.146045 17.561878 33.743275 1.355215 1.023412 0.058235 -0.014673 167075.000000 0 0 1
6.438737 27.491545 16.301478 32.603383 1.340735 1.047205 0.051574 -0.013047 -241357.000000 0 0 1
6.982237 28.420845 15.451878 33.094661 1.329894 1.085015 0.046585 -0.007677 -43644.100000 0 0 1
7.448337 27.985145 14.086078 32.203473 1.310673 1.118081 0.039695 -0.008360 1298350.000000 0 0 1
6.303337 27.808545 13.200178 31.421202 1.347894 1.137236 0.038336 -0.010260 1072490.000000 0 0 1
6.674137 26.845045 12.210878 30.237495 1.327120 1.155094 0.022427 -0.012336 226663.000000 0 0 1
5.883437 26.885145 10.860978 29.586934 1.355357 1.194921 0.021957 -0.014178 -324642.000000 0 0 1
6.343237 27.781945 9.848578 30.150748 1.346322 1.238045 0.014820 -0.012274 31862.100000 0 0 1
6.339737 29.091845 10.113378 31.445319 1.356229 1.243359 0.018487 -0.009407 -650823.000000 0 0 1
6.954637 29.891145 8.940178 31.965204 1.342198 1.287331 0.017033 -0.005279 -330773.000000 0 0 1
6.280537 29.865245 7.692578 31.473064 1.363521 1.323877 0.022122 -0.019922 -190012.000000 0 0 1
6.244337 28.583645 7.032278 30.091019 1.355717 1.334915 0.021331 -0.010313 -47147.000000 0 0 1
4.831037 28.048245 6.728878 29.245867 1.400230 1.338637 0.021164 -0.011306 116526.000000 0 0 1
4.123137 28.952445 5.887478 29.831304 1.429337 1.372133 0.013685 -0.011119 1200990.000000 0 0 1
2.690337 28.732245 6.006978 29.476492 1.477434 1.365570 0.043590 -0.022244 1493770.000000 0 0 1
1.758037 29.739945 5.314278 30.262131 1.511751 1.394273 0.061183 -0.021281 -114004.000000 0 0 1
2.033137 29.795745 3.895078 30.117963 1.502666 1.441106 0.054599 -0.026962 358813.000000 0 0 1
1.238237 30.842445 3.322978 31.045641 1.530671 1.463556 0.053632 -0.028787 176083.000000 0 0 1
-0.107463 30.330345 2.794178 30.458969 -1.567253 1.478931 0.057602 -0.022102 -580725.000000 0 0 1
-0.116863 29.675645 1.540478 29.715831 -1.566858 1.518933 0.044946 -0.017995 9533.140000 0 0 1
-1.031763 28.564545 1.586578 28.627172 -1.534692 1.515346 0.037932 -0.016756 563494.000000 0 0 1
-1.468463 28.039345 0.180878 28.078354 -1.518473 1.564354 0.024906 -0.015051 350005.000000 0 0 1
-2.346663 28.926045 -0.536422 29.026034 -1.489847 1.589278 0.030651 -0.016476 390115.000000 0 0 1
-1.656463 29.866745 -1.357522 29.943433 -1.515391 1.616148 0.029536 -0.017456 299791.000000 0 0 1
-2.644063 30.941945 -1.972322 31.117279 -1.485551 1.634222 0.032160 -0.015918 484782.000000 0 0 1
-3.673863 30.426445 -2.791522 30.774314 -1.450632 1.661631 0.015943 -0.012815 45175.100000 0 0 1
-3.302163 29.757945 -3.969522 30.202593 -1.460281 1.702608 0.012641 -0.011341 102838.000000 0 0 1
-4.622163 29.344245 -4.704322 30.076232 -1.414565 1.727854 0.013868 -0.006043 778269.000000 0 0 1
-5.244863 30.479345 -5.308322 31.379568 -1.400386 1.740779 0.013203 -0.002357 -898202.000000 0 0 1
-6.307063 30.066645 -6.058022 31.312646 -1.364025 1.765493 0.010483 -0.003347 -658154.000000 0 0 1
-7.101363 31.088545 -6.925122 32.632564 -1.346225 1.784637 0.020823 0.005898 1724.960000 0 0 1
-7.972763 31.973845 -6.265922 33.543307 -1.326427 1.758701 0.017355 0.000508 -179628.000000 0 0 1
-8.421063 32.915545 -7.193422 34.728845 -1.320330 1.779438 0.017926 -0.002608 -81413.800000 0 0 1
-9.373363 33.990745 -6.607122 35.873175 -1.301722 1.756034 0.020716 -0.009341 73822.200000 0 0 1
-10.704763 33.594045 -6.398322 35.834206 -1.262318 1.750312 0.026554 -0.011230 131221.000000 0 0 1
-11.579963 -34.032424 -5.972822 36.441406 1.242822 1.735441 0.028526 -0.007550 15740.100000 0 0 1
-13.036863 34.303245 -6.075922 37.196629 -1.207608 1.734878 0.047788 -0.012473 -670347.000000 0 0 1
-13.453663 34.252145 -7.442022 37.544562 -1.196527 1.770336 0.052194 -0.014935 -1114030.000000 0 0 1
-14.819263 34.032745 -7.473722 37.864162 -1.160115 1.769483 0.061846 -0.023774 -1484200.000000 0 0 1
-15.208863 34.024945 -8.992122 38.338813 -1.150447 1.807545 0.079050 -0.023633 333031.000000 0 0 1
-16.564463 33.660345 -9.225022 38.632904 -1.113484 1.811912 0.097636 -0.030049 343944.000000 0 0 1
-17.495263 -34.007824 -9.055222 39.301570 1.095657 1.803289 0.094874 -0.028686 -1310060.000000 0 0 1
-18.923563 34.227045 -9.403022 40.224478 -1.065742 1.806743 0.086434 -0.030024 -173727.000000 0 0 1
-19.522163 33.374545 -8.493422 39.586781 -1.041523 1.787029 0.065967 -0.021661 -213090.000000 0 0 1
-19.786863 34.002645 -7.262722 40.005586 -1.043776 1.753351 0.050894 -0.005328 -941583.000000 0 0 1
-20.457063 33.037845 -6.248622 39.357793 -1.016378 1.730236 0.052491 -0.012625 -845248.000000 0 0 1
-20.310963 33.463145 -4.924522 39.453367 -1.025271 1.695942 0.056272 -0.019191 -436505.000000 0 0 1
-21.363063 33.043945 -4.111722 39.562469 -0.996882 1.674914 0.042936 -0.015678 -156617.000000 0 0 1
-22.523463 34.077945 -4.170522 41.061002 -0.986769 1.672541 0.035533 -0.005486 -325300.000000 0 0 1
-23.065763 34.212145 -5.458922 41.620909 -0.977598 1.702333 0.033615 -0.006416 -877046.000000 0 0 1
-24.017163 -33.553224 -5.702922 41.655327 0.949549 1.708135 0.031753 -0.006043 -540291.000000 0 0 1
-24.328763 -33.546424 -7.148322 42.051751 0.943340 1.741615 0.059173 -0.002838 -217728.000000 0 0 1
-23.330663 -32.928024 -7.920222 41.125473 0.954365 1.764594 0.073773 -0.003307 97652.000000 0 0 1
-23.650263 -33.035924 -9.310622 41.682069 0.949482 1.796069 0.048180 -0.002090 633156.000000 0 0 1
-24.801563 -32.123824 -9.856022 41.763606 0.913325 1.809039 0.050076 -0.002315 894299.000000 0 0 1
-26.120123 -32.303024 -9.284922 42.567076 0.890835 1.790689 0.054151 -0.000173 476128.000000 0 0 1
-27.105873 -31.630424 -9.994422 42.838073 0.862278 1.806273 0.011448 0.007328 -218623.000000 0 0 1
-27.159573 -30.106624 -9.702922 41.691701 0.836815 1.805680 0.012847 0.014755 -663256.000000 0 0 1
-26.264173 -29.263724 -10.389522 40.670806 0.839365 1.829114 0.026894 0.015431 -2382.210000 0 0 1
-26.606563 -29.142124 -11.767722 41.178294 0.830849 1.860611 0.019974 0.010205 -341413.000000 0 0 1
-25.473453 -28.543424 -12.585822 40.274393 0.842171 1.888622 0.025658 0.008642 -514552.000000 0 0 1
-24.346863 -29.399424 -12.658122 40.215966 0.879130 1.890993 0.035582 0.003232 380058.000000 0 0 1
-23.455763 -28.871824 -13.702022 39.642155 0.888534 1.923720 0.048551 0.001908 864968.000000 0 0 1
-22.090363 -29.636324 -13.609422 39.389240 0.930258 1.923580 0.065887 -0.011443 103715.000000 0 0 1
-22.015463 -30.886324 -14.210822 40.504235 0.951538 1.929273 0.068967 -0.006187 52513.400000 0 0 1
-22.816263 -31.888024 -13.582122 41.495807 0.949735 1.904255 0.062214 -0.007010 51464.500000 0 0 1
-23.009663 -33.142024 -14.466922 42.861756 0.963923 1.915083 0.054999 -0.008647 -84985.200000 0 0 1
-23.666963 -34.150524 -13.744422 43.764056 0.964771 1.890260 0.041422 -0.018389 -246039.000000 0 0 1
-23.677363 33.367045 -14.520122 43.414411 -0.953654 1.911822 0.044605 -0.020755 205959.000000 0 0 1
-24.281463 32.126345 -13.681922 42.531005 -0.923586 1.898313 0.032348 -0.019327 141606.000000 0 0 1
-23.562263 31.606345 -12.545322 41.370597 -0.930187 1.878890 0.042060 -0.019104 105243.000000 0 0 1
-23.403163 32.554345 -11.492222 41.708087 -0.947501 1.849947 0.057643 -0.022437 314414.000000 0 0 1
-22.519663 32.064345 -10.263422 40.504262 -0.958510 1.826981 0.053633 -0.020430 198114.000000 0 0 1
-23.010563 30.987845 -9.500922 39.749214 -0.932069 1.812154 0.039644 -0.016433 -351124.000000 0 0 1
-22.103163 30.481645 -8.553322 38.611394 -0.943403 1.794173 0.034869 -0.008707 -370156.000000 0 0 1
-22.642563 29.284045 -7.719622 37.813139 -0.912609 1.776394 0.032107 -0.016406 -78306.000000 0 0 1
-22.827963 28.155945 -8.522122 37.235731 -0.889523 1.801712 0.037656 -0.010386 260965.000000 0 0 1
-23.406963 27.014945 -7.855022 36.597739 -0.856832 1.787111 0.043465 -0.016029 -68423.000000 0 0 1
-22.452163 26.288745 -6.876622 35.248910 -0.863950 1.767143 0.052310 -0.013463 -205713.000000 0 0 1
-22.542663 26.761845 -5.541722 35.427089 -0.870764 1.727867 0.044717 -0.013521 -210755.000000 0 0 1
-21.521363 26.387745 -4.676122 34.370747 -0.886626 1.707269 0.038589 -0.009602 -492414.000000 0 0 1
-20.319163 27.343845 -4.590222 34.374763 -0.931727 1.704731 0.033747 -0.019158 -364231.000000 0 0 1
-19.593663 27.477645 -5.750022 34.234417 -0.951348 1.739556 0.034241 -0.005744 -1279400.000000 0 0 1
-18.639063 28.431145 -5.681922 34.467795 -0.990504 1.736399 0.032259 -0.001885 -833791.000000 0 0 1
-17.601463 28.431745 -6.820622 34.127650 -1.016467 1.772007 0.035839 0.005106 -290136.000000 0 0 1
-18.041463 28.826745 -8.091522 34.956377 -1.011580 1.804390 0.053394 0.001254 49178.400000 0 0 1
-18.209363 30.244245 -8.310822 36.267961 -1.028851 1.802001 0.066173 -0.010395 -178338.000000 0 0 1
-18.017163 30.688345 -9.787722 36.907887 -1.039915 1.839201 0.062975 -0.012930 -80914.200000 0 0 1
-16.720563 30.612845 -10.342922 36.382681 -1.070880 1.859053 0.060140 -0.012237 -63985.900000 0 0 1
-16.690263 31.192345 -11.616022 37.235187 -1.079484 1.888055 0.070504 -0.019469 417152.000000 0 0 1
-15.230163 31.488845 -12.097422 37.011522 -1.120299 1.903771 0.074725 -0.019654 623230.000000 0 0 1
-15.168463 32.135245 -13.372122 37.968011 -1.129783 1.930711 0.077856 -0.022584 -118221.000000 0 0 1
-15.448863 31.262945 -14.430122 37.739468 -1.111832 1.963147 0.074991 -0.025927 -174730.000000 0 0 1
-14.981463 31.812245 -15.790622 38.546165 -1.130671 1.992872 0.094529 -0.021205 602895.000000 0 0 1
-13.571063 31.835445 -15.971822 38.115198 -1.167835 2.003185 0.089524 -0.036073 255336.000000 0 0 1
-13.062763 32.104145 -17.271222 38.724759 -1.184367 2.033087 0.077219 -0.039150 -29438.400000 0 0 1
-11.539263 32.184445 -17.462022 38.391604 -1.226538 2.042988 0.083818 -0.040448 -231051.000000 0 0 1
-10.980763 30.873645 -17.515422 37.155741 -1.229081 2.061680 0.088558 -0.050050 -147440.000000 0 0 1
-9.680763 30.838045 -18.070422 37.030289 -1.266616 2.080582 0.076851 -0.044536 35077.400000 0 0 1
-9.601963 30.979745 -19.644122 37.918779 -1.270242 2.115375 0.067496 -0.047258 -155036.000000 0 0 1
-10.296563 29.926645 -20.322322 37.611435 -1.239423 2.141617 0.073448 -0.045196 289033.000000 0 0 1
-9.960363 29.926045 -21.692522 38.279792 -1.249497 2.173271 0.057115 -0.045442 -1095920.000000 0 0 1
-11.064163 29.472845 -22.645822 38.780117 -1.211673 2.194388 0.071997 -0.037816 -751550.000000 0 0 1
-12.060463 30.425245 -22.727822 39.846005 -1.193400 2.177779 0.081117 -0.036547 -729970.000000 0 0 1
-13.204063 30.161345 -21.936722 39.563540 -1.158150 2.158520 0.087982 -0.042858 -221052.000000 0 0 1
-14.110963 31.423445 -21.880422 40.808148 -1.148726 2.136699 0.115067 -0.047954 259042.000000 0 0 1
-14.758763 31.680245 -23.134022 41.912312 -1.134826 2.155512 0.091049 -0.038325 63516.700000 0 0 1
-15.355463 32.973545 -23.248722 43.168831 -1.134971 2.139516 0.072473 -0.030332 452069.000000 0 0 1
-15.869563 33.315945 -24.668222 44.388245 -1.126259 2.160046 0.056307 -0.019448 195979.000000 0 0 1
-14.791063 33.578445 -25.535822 44.703083 -1.155877 2.178802 0.069155 -0.018155 -122774.000000 0 0 1
-15.137963 33.391645 -26.875222 45.458084 -1.145163 2.203353 0.076367 -0.015775 124818.000000 0 0 1
-15.487363 -33.976924 -27.594522 46.430027 1.143113 2.207222 0.059434 -0.009997 355609.000000 0 0 1
-16.752363 -33.483724 -27.192122 46.273242 1.106898 2.198938 0.056188 -0.008362 -13417.900000 0 0 1
-17.180763 -32.345924 -27.873122 46.025518 1.082535 2.221318 0.042960 -0.002111 -654391.000000 0 0 1
-18.598763 -31.921524 -27.514622 46.064651 1.043239 2.210932 0.044622 -0.008236 -45929.700000 0 0 1
-19.533563 -32.936324 -27.932822 47.398355 1.035488 2.201014 0.033556 -0.004117 -390922.000000 0 0 1
-20.805263 -32.720824 -27.392722 47.474967 1.004439 2.185838 0.034915 -0.005067 334988.000000 0 0 1
-21.955363 -33.702124 -27.775322 48.880872 0.993400 2.175143 0.017119 0.006606 584787.000000 0 0 1
-21.779663 33.678645 -27.354322 48.547541 -0.996751 2.169357 0.034108 -0.001344 43672.800000 0 0 1
-23.071463 33.075545 -27.293222 48.695010 -0.961724 2.165778 0.019657 -0.001352 643932.000000 0 0 1
-23.155063 31.528745 -26.963522 47.510527 -0.937347 2.174296 0.029997 -0.000104 -204047.000000 0 0 1
-22.694263 31.179345 -25.659922 46.320758 -0.941615 2.157912 0.026431 -0.003786 -371232.000000 0 0 1
-22.855863 29.805045 -25.388622 45.335563 -0.916601 2.165201 0.013734 -0.011222 -357791.000000 0 0 1
30.631220 9.847345 -26.908052 41.943833 0.311045 2.267282 0.022545 -0.009019 -148351.000000 0 0 1
30.336710 8.542445 -26.446672 41.142628 0.274480 2.268950 0.007040 -0.008847 264379.000000 0 0 1
28.939990 8.319645 -26.499192 40.111678 0.279931 2.292461 0.013372 -0.012505 83126.100000 0 0 1
28.588150 6.888245 -25.979052 39.238264 0.236441 2.294393 0.000949 -0.007661 -90938.500000 0 0 1
28.920550 6.661045 -24.650712 38.580116 0.226374 2.263927 0.002273 0.000670 150542.000000 0 0 1
28.460360 5.396445 -24.153812 37.716314 0.187388 2.265825 0.005556 0.000202 -18380.400000 0 0 1
28.645980 5.290245 -22.608912 36.874677 0.182619 2.230811 0.007896 0.003622 612736.000000 0 0 1
29.979400 4.899145 -22.241612 37.649108 0.161985 2.202798 0.015500 -0.002262 916266.000000 0 0 1
30.119920 4.810945 -20.783212 36.909303 0.158388 2.168915 0.007612 -0.009980 420351.000000 0 0 1
31.519580 4.376245 -20.224912 37.705205 0.137960 2.136957 0.015547 -0.012468 364913.000000 0 0 1
31.786790 3.005545 -20.268512 37.818592 0.094273 2.136418 0.030772 -0.008840 -37583.900000 0 0 1
32.877150 2.702245 -19.439912 38.289937 0.082008 2.103313 0.036453 -0.012916 -282016.000000 0 0 1
33.308800 1.231245 -19.474012 38.603488 0.036948 2.099556 0.045210 -0.011383 -287394.000000 0 0 1
32.305520 0.391545 -18.952012 37.456357 0.012119 2.101309 0.050094 -0.011175 -107759.000000 0 0 1
32.549310 -0.990755 -19.043912 37.724127 -0.030429 2.099970 0.048204 -0.004222 52554.600000 0 0 1
31.377560 -1.810155 -18.462212 36.451080 -0.057626 2.101909 0.030886 0.003420 270445.000000 0 0 1
31.520790 -1.776555 -17.029112 35.870698 -0.056302 2.065460 0.036049 -0.004637 137711.000000 0 0 1
30.250710 -1.711655 -16.397312 34.451518 -0.056522 2.066844 0.026599 -0.006906 84610.400000 0 0 1
30.160730 -2.146155 -14.884212 33.701860 -0.071038 2.028226 0.027827 -0.013451 -171741.000000 0 0 1
29.962460 -3.545355 -14.640012 33.535780 -0.117779 2.022556 0.027832 -0.014683 612191.000000 0 0 1
29.000760 -3.747855 -13.605112 32.251970 -0.128521 2.006268 0.033061 -0.016326 446.650000 0 0 1
28.883240 -5.224455 -13.193912 32.180985 -0.178947 1.993240 0.032853 -0.011426 -261887.000000 0 0 1
28.119350 -5.966255 -14.096012 32.015490 -0.209076 2.026715 0.009099 -0.007727 297864.000000 0 0 1
27.783700 -7.217555 -13.609312 31.768545 -0.254159 2.013506 0.013044 -0.012661 -391372.000000 0 0 1
27.319780 -8.127955 -14.812912 32.122522 -0.289172 2.050073 0.003938 -0.008573 -202768.000000 0 0 1
26.141570 -7.591955 -15.423512 31.287445 -0.282642 2.086287 0.033214 -0.019482 511650.000000 0 0 1
25.517570 -8.628455 -16.167612 31.416370 -0.326068 2.111365 0.021061 -0.011401 -523436.000000 0 0 1
24.126070 -8.152155 -16.596912 30.397079 -0.325853 2.148383 0.020728 -0.012902 -631791.000000 0 0 1
24.141270 -7.146555 -17.655212 30.750296 -0.287811 2.182359 0.018564 -0.010156 -498086.000000 0 0 1
22.848470 -6.843655 -18.074712 29.926300 -0.291020 2.219274 0.067435 -0.020951 -448198.000000 0 0 1
22.581970 -7.404955 -19.487112 30.733146 -0.316866 2.257608 0.048255 -0.012336 -300484.000000 0 0 1
23.275670 -6.727355 -20.495112 31.734268 -0.281362 2.272913 0.043961 -0.010941 178983.000000 0 0 1
23.058770 -7.244655 -21.778512 32.534528 -0.304417 2.304193 0.052912 -0.018815 -282181.000000 0 0 1
23.703070 -6.268255 -22.735912 33.437229 -0.258531 2.318502 0.057004 -0.022379 -368354.000000 0 0 1
23.618970 -6.743355 -24.061212 34.384161 -0.278107 2.345880 0.070275 -0.029426 193434.000000 0 0 1
23.738570 -5.564855 -24.914312 34.859866 -0.230265 2.366990 0.058852 -0.030243 -326174.000000 0 0 1
23.546070 -5.827455 -26.393202 35.846587 -0.242616 2.398356 0.068338 -0.028370 -895503.000000 0 0 1
22.290770 -6.320155 -26.697832 35.349640 -0.276281 2.426833 0.101019 -0.030415 -834160.000000 0 0 1
21.976970 -6.354055 -28.096452 36.232194 -0.281449 2.458232 0.082384 -0.029029 411657.000000 0 0 1
20.617770 -7.021355 -28.454632 35.833755 -0.328230 2.488278 0.076507 -0.032462 379151.000000 0 0 1
20.584570 -8.428355 -28.152512 35.879321 -0.388626 2.472919 0.077827 -0.030398 -84090.000000 0 0 1
19.703270 -9.070255 -29.027672 36.236641 -0.431422 2.499858 0.054527 -0.025647 -246671.000000 0 0 1
19.553070 -10.594655 -28.776872 36.368636 -0.496558 2.483655 0.069480 -0.016403 -188260.000000 0 0 1
18.689470 -10.804055 -27.677242 35.100622 -0.524148 2.479181 0.078512 -0.014540 284287.000000 0 0 1
18.769670 -12.058255 -27.068812 35.077381 -0.571037 2.452288 0.078302 -0.018969 -335659.000000 0 0 1
18.695370 -13.348555 -27.871872 36.118445 -0.620062 2.452274 0.055956 -0.005017 7162.830000 0 0 1
17.478670 -13.589055 -28.568162 36.142859 -0.660848 2.482296 0.055262 -0.009886 455458.000000 0 0 1
17.686970 -14.459355 -29.673082 37.448547 -0.685330 2.485480 0.033392 -0.006768 625249.000000 0 0 1
16.473770 -14.852655 -30.642582 37.827957 -0.733695 2.515036 0.024315 -0.010804 624978.000000 0 0 1
15.471070 -15.628755 -30.046162 37.234176 -0.790468 2.509768 0.035632 -0.018434 -321394.000000 0 0 1
14.480870 -16.018955 -30.912732 37.708083 -0.835785 2.531842 0.031594 -0.022095 -189138.000000 0 0 1
13.195970 -16.597655 -30.230762 36.925801 -0.899081 2.529921 0.046471 -0.028211 185023.000000 0 0 1
13.376370 -17.864455 -29.697222 37.148231 -0.928083 2.497134 0.043924 -0.025825 -221330.000000 0 0 1
12.469570 -18.263355 -28.708682 36.238499 -0.971732 2.485227 0.054826 -0.028265 -420431.000000 0 0 1
12.832570 -19.570155 -27.962312 36.463088 -0.990410 2.444740 0.063803 -0.028736 -101954.000000 0 0 1
13.920970 -19.454155 -27.078902 36.132043 -0.949692 2.418017 0.061548 -0.023112 -189759.000000 0 0 1
14.085070 -20.613155 -26.299232 36.262115 -0.971363 2.382199 0.062574 -0.016340 -522216.000000 0 0 1
15.135070 -20.440855 -25.231422 35.826297 -0.933447 2.352192 0.051936 -0.005176 -687835.000000 0 0 1
16.436270 -20.704055 -25.661872 36.842103 -0.899806 2.341356 0.044938 -0.007806 105833.000000 0 0 1
17.439270 -20.542555 -24.651912 36.521795 -0.866922 2.311750 0.044663 -0.009034 663842.000000 0 0 1
18.814570 -21.181055 -25.034612 37.806838 -0.844498 2.294509 0.025150 0.003697 102147.000000 0 0 1
18.961070 -22.616155 -25.096172 38.740554 -0.873084 2.275491 0.014016 0.005957 251824.000000 0 0 1
18.759370 -23.285355 -23.866212 38.258565 -0.892632 2.244409 0.008929 -0.007727 -641103.000000 0 0 1
19.193070 -24.780555 -23.945512 39.444105 -0.911785 2.223170 -0.003179 -0.007527 23278.000000 0 0 1
20.579770 -25.016355 -23.758012 40.171982 -0.882395 2.203600 0.008445 -0.000876 187576.000000 0 0 1
20.796270 -26.353815 -23.454512 40.952687 -0.902726 2.180619 0.000951 -0.010995 -77158.300000 0 0 1
20.770270 -26.627285 -21.955512 40.279784 -0.908347 2.147275 0.013944 -0.007992 -481629.000000 0 0 1
19.517870 -26.458865 -21.328212 39.190706 -0.935234 2.146251 0.005963 -0.004682 -119175.000000 0 0 1
19.570570 -26.761515 -19.936012 38.686309 -0.939374 2.112183 0.009709 -0.008120 -777329.000000 0 0 1
18.288770 -27.331515 -19.375412 38.169326 -0.981079 2.103213 0.011463 -0.008951 -1232930.000000 0 0 1
18.151470 -28.669905 -19.844112 39.309390 -1.006380 2.099968 0.016635 -0.005923 212914.000000 0 0 1
17.014570 -29.309655 -19.300412 39.000736 -1.044830 2.088485 0.014339 0.003069 979828.000000 0 0 1
15.562870 -28.864285 -19.677812 38.243512 -1.076303 2.111267 0.026944 -0.004452 249985.000000 0 0 1
14.902770 -27.810975 -18.998312 36.830406 -1.078874 2.112775 0.028907 -0.006575 -171091.000000 0 0 1
13.696170 -27.475435 -19.642412 36.445974 -1.108359 2.139982 0.024410 0.004355 423342.000000 0 0 1
12.766170 -26.473195 -18.866612 34.924980 -1.121465 2.141476 0.019399 -0.003657 35822.900000 0 0 1
12.104770 -27.027195 -17.747012 34.524646 -1.149712 2.110683 0.015722 -0.007668 -366843.000000 0 0 1
11.369670 -26.125415 -16.975312 33.165765 -1.160322 2.108113 0.018750 -0.013050 658493.000000 0 0 1
9.835770 -26.141575 -17.336512 32.873683 -1.210930 2.126296 0.016895 -0.005009 435196.000000 0 0 1
9.244070 -27.297795 -16.756312 33.337613 -1.244279 2.097429 0.015977 0.004762 146044.000000 0 0 1
7.824370 -27.324345 -16.827612 33.030428 -1.291908 2.105351 0.010591 0.010950 686715.000000 0 0 1
7.181170 -27.988315 -18.066912 34.078268 -1.319637 2.129585 0.025771 0.008040 -217148.000000 0 0 1
7.136670 -27.307645 -19.294812 34.189609 -1.315170 2.170439 0.046736 0.000431 -107900.000000 0 0 1
6.785970 -28.165825 -20.431612 35.451571 -1.334373 2.185020 0.046435 -0.002931 -133281.000000 0 0 1
6.620370 -27.284035 -21.650012 35.453786 -1.332751 2.227683 0.054432 -0.006195 -889948.000000 0 0 1
5.492770 -26.478385 -21.718112 34.683596 -1.366254 2.247438 0.057556 -0.008445 -779293.000000 0 0 1
5.394570 -25.987935 -23.011512 35.128391 -1.366123 2.285070 0.056307 -0.005551 985048.000000 0 0 1
3.946970 -25.437385 -23.281112 34.708059 -1.416860 2.306042 0.038921 -0.008272 1208550.000000 0 0 1
2.822370 -26.310855 -23.251412 35.225773 -1.463935 2.291706 0.037953 -0.005723 410762.000000 0 0 1
1.691870 -25.633625 -23.799612 35.019519 -1.504890 2.318027 0.042664 -0.011285 770823.000000 0 0 1
0.813170 -26.626515 -24.615612 36.270662 -1.540266 2.316739 0.031856 -0.015250 101514.000000 0 0 1
1.609870 -27.134485 -25.662972 37.382618 -1.511537 2.327454 0.026629 -0.015859 61485.000000 0 0 1
0.833570 -27.908725 -26.512722 38.503458 -1.540937 2.330326 0.027795 -0.024598 158174.000000 0 0 1
1.715470 -28.677715 -27.562712 39.812778 -1.511049 2.335479 0.026141 -0.020332 -42293.700000 0 0 1
2.265170 -27.919795 -28.646802 40.066011 -1.489842 2.367406 0.029954 -0.019683 -8469.970000 0 0 1
2.720270 -28.844095 -29.599252 41.418564 -1.476765 2.366902 0.046456 -0.026414 -54595.500000 0 0 1
4.158070 -29.402605 -29.490122 41.850568 -1.430310 2.352730 0.050443 -0.023561 -291092.000000 0 0 1
4.520770 -30.209435 -28.366992 41.686132 -1.422251 2.319227 0.046199 -0.031319 -515966.000000 0 0 1
5.501770 -31.122485 -28.751862 42.726434 -1.395826 2.308958 0.047319 -0.022238 -261060.000000 0 0 1
5.805370 -32.274075 -27.781032 42.977948 -1.392822 2.273656 0.053462 -0.026286 -6425.850000 0 0 1
4.806370 -33.262295 -27.645892 43.517547 -1.427291 2.259169 0.048517 -0.030690 -124606.000000 0 0 1
5.219270 -34.268237 -26.793832 43.811669 -1.419652 2.228838 0.049905 -0.042375 -19098.100000 0 0 1
4.030770 33.529579 -26.425922 42.881338 1.451155 2.234777 0.069896 -0.049676 47150.900000 0 0 1
3.333670 33.145222 -27.604922 43.263736 1.470556 2.262774 0.046380 -0.043626 409707.000000 0 0 1
2.070270 32.594423 -27.214632 42.512571 1.507365 2.265496 0.026338 -0.035343 549042.000000 0 0 1
1.036570 32.645243 -28.369152 43.261937 1.539054 2.285976 0.012974 -0.012325 -202692.000000 0 0 1
1.259970 31.641673 -29.353872 43.179079 1.530997 2.318309 0.015096 -0.009429 -115566.000000 0 0 1
0.581170 32.012363 -30.515372 44.230274 1.552644 2.332176 0.010205 -0.009601 -183336.000000 0 0 1
0.585870 30.966013 -31.583812 44.235443 1.551879 2.365982 -0.003321 -0.004690 -875759.000000 0 0 1
1.672570 30.784833 -32.402782 44.726321 1.516519 2.381058 0.012172 -0.008322 -791069.000000 0 0 1
1.262170 29.930533 -33.409532 44.873453 1.528651 2.410624 0.013553 -0.010127 -1172750.000000 0 0 1
2.254870 29.596613 34.196526 45.281855 1.494756 0.714848 0.012000 -0.002685 -851476.000000 0 0 1
2.483170 30.646863 33.262373 45.296599 1.489948 0.746126 0.014241 -0.003723 281707.000000 0 0 1
3.470470 30.238853 32.302708 44.383526 1.456528 0.755675 0.003314 0.000057 -120340.000000 0 0 1
2.975070 29.273553 31.188668 42.878025 1.469514 0.756298 0.007386 -0.007097 -94194.400000 0 0 1
2.679870 27.921453 31.558738 42.222544 1.475111 0.726599 0.015893 -0.012831 -118627.000000 0 0 1
3.748970 27.029143 31.309508 41.532092 1.432975 0.716874 0.011137 -0.011128 -300514.000000 0 0 1
3.670170 25.588323 31.750898 40.943278 1.428337 0.683313 0.025967 -0.013168 -648222.000000 0 0 1
2.889970 24.782423 30.950708 39.755085 1.454707 0.678469 0.028554 0.002062 -44714.100000 0 0 1
3.287070 23.441813 30.979308 38.987703 1.431482 0.652461 0.031840 -0.000959 -96311.300000 0 0 1
2.250670 22.683713 30.069088 37.732830 1.471900 0.648659 0.030682 0.010461 35762.600000 0 0 1
0.927770 22.766613 30.484658 38.059083 1.530068 0.641862 0.029813 0.008547 -742097.000000 0 0 1
0.098470 22.186713 29.515188 36.924332 1.566358 0.644596 0.040438 0.008816 1080620.000000 0 0 1
-1.288830 21.563513 29.981558 36.953214 -1.511098 0.624358 0.034788 0.006947 1471040.000000 0 0 1
-2.326430 22.538713 30.146038 37.711928 -1.467941 0.644539 0.046615 0.002675 1257160.000000 0 0 1
-3.594730 21.901513 30.443248 37.674789 -1.408115 0.629956 0.026369 0.004118 1383720.000000 0 0 1
-4.782330 22.905213 30.590778 38.513831 -1.364965 0.652974 0.006992 -0.003059 123549.000000 0 0 1
-4.846830 23.473913 31.840728 39.854088 -1.367180 0.645278 0.005284 -0.002224 49746.900000 0 0 1
-4.328830 24.802133 31.841628 40.592781 -1.398002 0.669042 0.017513 -0.008455 -318929.000000 0 0 1
-4.426830 25.530803 33.195843 42.111551 -1.399112 0.662782 0.017229 -0.010464 -300289.000000 0 0 1
-5.757930 25.713823 33.591214 42.693373 -1.350507 0.665187 0.017701 -0.006323 -446153.000000 0 0 1
-5.883730 25.829653 -33.668302 42.840913 -1.346828 2.474933 0.016212 -0.005585 255602.000000 0 0 1
-7.336430 26.137733 -33.222462 42.903803 -1.297154 2.456480 0.029595 0.004587 113779.000000 0 0 1
-7.583030 27.525233 -33.537192 44.044115 -1.301971 2.436336 0.043855 0.006783 619130.000000 0 0 1
-8.905330 27.921643 -33.131362 44.233587 -1.262055 2.417362 0.053801 0.007262 887995.000000 0 0 1
-9.002830 28.347393 -31.641222 43.425714 -1.263282 2.387114 0.063329 0.001771 -294011.000000 0 0 1
-8.484930 29.644023 -31.488982 44.071739 -1.292022 2.366697 0.055657 0.007444 102636.000000 0 0 1
-8.729230 30.059663 -30.169522 43.473934 -1.288173 2.337782 0.057195 0.004953 -171796.000000 0 0 1
-8.193930 31.447463 -29.891302 44.153974 -1.315904 2.314446 0.038496 0.011260 307198.000000 0 0 1
-6.775530 31.566363 -29.913702 44.013324 -1.359360 2.318083 0.010856 0.008554 175713.000000 0 0 1
-6.318030 32.827830 -29.481622 44.572974 -1.380662 2.293512 0.013891 0.007852 -971564.000000 0 0 1
-4.818730 32.998722 -29.395292 44.454685 -1.425793 2.293269 0.016213 0.002090 -918226.000000 0 0 1
-4.508630 34.314159 -28.868262 45.068457 -1.440152 2.266001 0.016131 -0.001932 -261817.000000 0 0 1
-4.481030 -33.377495 -29.854982 45.005075 1.437341 2.296109 0.017196 -0.011716 -438787.000000 0 0 1
-3.330630 -33.325345 -30.873652 45.550567 1.471184 2.315547 0.012419 -0.019472 -402193.000000 0 0 1
-3.317730 -34.260404 -31.931452 46.951042 1.474259 2.318697 0.008269 -0.006825 90228.700000 0 0 1
-4.110830 -33.861405 -33.045252 47.491920 1.449986 2.340340 0.028806 -0.011935 158619.000000 0 0 1
-3.383130 -32.866045 -33.970822 47.388177 1.468221 2.370089 0.023542 -0.017184 88028.500000 0 0 1
-3.308630 -31.513785 -33.536532 46.138538 1.466190 2.384544 0.018956 -0.007021 -380122.000000 0 0 1
-2.304930 -30.870525 -34.238008 46.157808 1.496270 2.406487 0.020395 -0.020484 -450567.000000 0 0 1
31.954550 19.745545 12.044278 39.446729 0.553496 1.260511 0.055093 -0.004021 702463.000000 0 0 1
32.944620 19.022445 12.808878 40.140612 0.523641 1.246016 0.042239 -0.004025 572379.000000 0 0 1
32.533750 17.665445 12.923078 39.211207 0.497444 1.234942 0.052417 -0.006204 555550.000000 0 0 1
33.616100 16.726745 13.588678 39.930919 0.461711 1.223555 0.064031 -0.011946 984985.000000 0 0 1
34.803480 16.589445 12.778278 40.617438 0.444802 1.250760 0.062963 -0.003977 208597.000000 0 0 1
35.626670 15.662445 13.373478 41.151205 0.414194 1.239802 0.060095 -0.010995 -665791.000000 0 0 1
-34.880448 15.130745 12.548578 40.038130 -0.409291 1.252008 0.066975 -0.017519 353157.000000 0 0 1
-34.057267 14.102045 13.098578 39.119533 -0.392575 1.229366 0.067490 -0.022132 572723.000000 0 0 1
-34.735273 12.860945 13.018078 39.260838 -0.354605 1.232819 0.071063 -0.023933 419448.000000 0 0 1
-33.859653 11.871545 13.841178 38.457611 -0.337218 1.202628 0.058014 -0.024089 405549.000000 0 0 1
-34.085639 12.107345 15.259878 39.259170 -0.341303 1.171581 0.058676 -0.026021 241585.000000 0 0 1
-33.372083 11.246645 16.130378 38.734636 -0.325054 1.141278 0.051102 -0.034657 -74038.600000 0 0 1
-33.054073 11.837245 17.507678 39.232778 -0.343888 1.108224 0.054969 -0.023108 -550189.000000 0 0 1
-34.219744 12.216245 18.183578 40.630900 -0.342892 1.106794 0.067864 -0.022000 -115572.000000 0 0 1
-33.911913 12.870545 19.414878 41.141296 -0.362735 1.079343 0.049318 -0.032023 569845.000000 0 0 1
-35.169194 13.153645 20.340578 42.703977 -0.357903 1.074336 0.077192 -0.028554 1049900.000000 0 0 1
-35.706383 11.958945 20.961378 43.096885 -0.323182 1.062857 0.064769 -0.012354 663000.000000 0 0 1
34.762260 12.152145 21.689978 42.738092 0.336299 1.038505 0.070912 -0.019858 361121.000000 0 0 1
34.390560 10.899745 22.471978 42.502998 0.306925 1.013710 0.052026 -0.013943 -195770.000000 0 0 1
35.155370 10.621145 23.622238 43.665992 0.293401 0.999200 0.050086 -0.003769 -26620.800000 0 0 1
34.699560 11.365045 24.703168 44.084807 0.316516 0.975981 0.049152 -0.000075 -545868.000000 0 0 1
-35.832804 11.580945 25.721358 45.603688 -0.312598 0.971551 0.027313 0.001733 1123760.000000 0 0 1
-34.856148 12.597645 25.357248 44.907034 -0.346810 0.970774 0.047240 -0.008973 1401650.000000 0 0 1
-33.926263 12.273145 24.275648 43.484807 -0.347112 0.978514 0.033914 -0.009507 660890.000000 0 0 1
-32.802673 13.389645 24.108208 42.854447 -0.387545 0.973317 0.036308 -0.012396 890713.000000 0 0 1
-31.834953 13.661845 25.091428 42.774876 -0.405377 0.943951 0.008445 -0.012391 518343.000000 0 0 1
-32.426893 14.349045 26.210888 44.095455 -0.416603 0.934261 0.000770 -0.013105 -176326.000000 0 0 1
-31.381153 14.820445 27.242868 44.120247 -0.441220 0.905276 -0.002284 -0.007796 -29949.900000 0 0 1
-30.658743 15.991445 26.929838 43.828085 -0.480774 0.909117 0.013938 -0.019112 -92766.300000 0 0 1
-30.174693 16.693145 28.082088 44.472203 -0.505310 0.887371 0.025164 -0.012563 399611.000000 0 0 1
-29.375803 18.027345 27.909728 44.349474 -0.550418 0.890127 0.027075 -0.011841 49564.400000 0 0 1
-30.194073 19.010545 27.316888 44.936569 -0.561909 0.917385 0.025664 -0.020518 221634.000000 0 0 1
-29.602833 20.289645 27.133168 44.991179 -0.600857 0.923443 0.019662 -0.024227 -334045.000000 0 0 1
-30.415453 21.163045 26.138268 45.345157 -0.607901 0.956444 0.025424 -0.017142 -651837.000000 0 0 1
-31.681773 21.386545 26.683418 46.616776 -0.593779 0.961367 0.040077 -0.027762 -190976.000000 0 0 1
-32.475703 22.197845 25.841658 47.065984 -0.599581 0.989567 0.056122 -0.028998 -333968.000000 0 0 1
-32.528983 23.697645 26.093628 47.964471 -0.629604 0.995576 0.056550 -0.026771 -481669.000000 0 0 1
-33.599353 24.308345 25.426288 48.644715 -0.626309 1.020789 0.073195 -0.031746 11832.800000 0 0 1
-33.461753 25.723245 25.516178 49.319870 -0.655385 1.027032 0.075928 -0.028679 725341.000000 0 0 1
-34.494223 26.352845 24.487088 49.839154 -0.652387 1.057189 0.078031 -0.017735 567557.000000 0 0 1
-34.389624 25.945445 23.149778 48.905261 -0.646347 1.077695 0.078139 -0.022712 374641.000000 0 0 1
-35.488104 26.431645 22.362978 49.579634 -0.640167 1.102853 0.076768 -0.020112 364577.000000 0 0 1
-35.374954 26.422645 20.817378 48.815026 -0.641534 1.130227 0.102483 -0.029735 -42000.700000 0 0 1
-35.262933 25.083845 20.400478 47.841961 -0.618295 1.130272 0.079522 -0.025686 26471.500000 0 0 1
-34.677494 25.065745 19.138378 46.873208 -0.625881 1.150204 0.074432 -0.025345 -494089.000000 0 0 1
-34.774917 23.744945 18.336978 45.927791 -0.599101 1.160090 0.064717 -0.021766 -357162.000000 0 0 1
35.680939 23.477345 17.731378 46.246263 0.581965 1.177308 0.059870 -0.024468 -654481.000000 0 0 1
-35.779896 22.756145 16.581378 45.530047 -0.566473 1.198038 0.050438 -0.023781 -271059.000000 0 0 1
34.695550 22.541845 15.667178 44.242247 0.576167 1.208821 0.049301 -0.012793 -161710.000000 0 0 1
33.715060 21.691245 16.232678 43.251765 0.571700 1.186069 0.048257 -0.019205 -314984.000000 0 0 1
32.650700 21.534345 15.342678 42.014212 0.583050 1.196972 0.043714 -0.011946 -1149410.000000 0 0 1
31.597150 20.466145 15.732278 40.801318 0.574772 1.174957 0.032975 -0.007818 775001.000000 0 0 1
30.673950 20.931545 16.747478 40.736946 0.598808 1.147122 0.015415 -0.006355 178728.000000 0 0 1
29.688590 21.800645 16.246478 40.257031 0.633384 1.155382 0.007851 0.000928 -645119.000000 0 0 1
28.854720 22.327845 17.479878 40.455823 0.658561 1.124006 -0.005122 -0.000550 70874.900000 0 0 1
29.515940 23.342245 18.202478 41.801690 0.669128 1.120260 -0.017717 0.014209 279658.000000 0 0 1
28.698830 23.682645 19.328978 41.929702 0.689927 1.091691 -0.027716 0.018542 -243688.000000 0 0 1
29.493660 24.395845 20.392778 43.369328 0.691081 1.081265 -0.022344 0.007387 -170474.000000 0 0 1
30.002030 25.680745 20.089878 44.308302 0.707948 1.100208 -0.009409 0.004876 208673.000000 0 0 1
31.005730 26.027245 21.027178 45.617047 0.698328 1.091731 -0.004527 0.005525 81456.600000 0 0 1
31.586550 27.486745 20.704278 46.710795 0.716107 1.111582 0.028837 -0.006449 -234917.000000 0 0 1
32.616120 27.952245 21.539878 48.053154 0.708548 1.105988 0.032224 -0.002007 81208.800000 0 0 1
32.231040 28.466545 22.838078 48.690470 0.723457 1.082586 0.007329 0.018897 -762546.000000 0 0 1
33.289000 28.379545 23.927678 49.860704 0.705955 1.070266 0.011174 0.009507 -233496.000000 0 0 1
34.375480 29.265945 23.665058 50.972582 0.705284 1.087986 0.045974 -0.003325 253941.000000 0 0 1
35.027990 29.654445 24.859308 52.195128 0.702513 1.074381 0.055007 -0.009496 967040.000000 0 0 1
-35.415325 30.650345 24.781838 52.988946 -0.713398 1.084133 0.064093 -0.003844 725847.000000 0 0 1
-34.207745 30.094845 24.351348 51.660987 -0.721524 1.079955 0.065301 -0.003819 -157794.000000 0 0 1
-33.195493 31.101545 24.330368 51.586952 -0.752843 1.079649 0.056736 -0.005213 497929.000000 0 0 1
-31.727083 30.615145 24.247578 50.317392 -0.767564 1.067983 0.071997 -0.009349 251200.000000 0 0 1
-31.263553 30.253845 22.901278 49.164758 -0.768986 1.086250 0.070423 -0.011269 281736.000000 0 0 1
-31.752833 29.066945 22.270778 48.467692 -0.741265 1.093367 0.076174 -0.010324 -239577.000000 0 0 1
-31.181113 27.751545 22.881078 47.602035 -0.727269 1.069373 0.079338 -0.015422 977560.000000 0 0 1
-29.742583 27.678345 22.711478 46.545926 -0.749464 1.061072 0.040029 -0.012507 1526910.000000 0 0 1
-29.050463 26.732245 23.533178 45.960339 -0.743864 1.033247 0.040249 -0.016258 215642.000000 0 0 1
-28.943593 27.013045 25.091718 46.872492 -0.750911 1.005911 0.053029 -0.013054 -159976.000000 0 0 1
-30.183613 26.904145 25.787308 47.956947 -0.728015 1.003068 0.049604 -0.010174 250035.000000 0 0 1
-30.130413 27.765245 26.944928 49.038554 -0.744569 0.989074 0.052337 -0.014427 -476747.000000 0 0 1
-31.404263 27.882445 27.770078 50.347152 -0.726065 0.986549 0.041798 -0.014548 -469916.000000 0 0 1
-31.782323 26.684545 28.413168 50.294026 -0.698427 0.970434 0.040290 -0.019413 -61530.400000 0 0 1
-32.869293 26.889645 29.288788 51.587562 -0.685667 0.967027 0.035448 -0.012534 13462.900000 0 0 1
-33.326573 25.573845 30.056358 51.653331 -0.654526 0.949750 0.038790 -0.003632 620946.000000 0 0 1
-32.405203 25.103345 31.073358 51.437619 -0.659104 0.922163 0.035790 -0.005621 658988.000000 0 0 1
-32.924403 23.879545 31.514528 51.453031 -0.627494 0.911588 0.027427 -0.014057 -204353.000000 0 0 1
-31.979993 23.217145 32.490778 51.160594 -0.627957 0.882692 0.045793 -0.020371 -940196.000000 0 0 1
-30.833993 22.734545 31.829848 49.806966 -0.635337 0.877515 0.048754 -0.013950 345251.000000 0 0 1
-29.902813 21.959945 32.620383 49.401486 -0.633427 0.849562 0.044358 -0.014976 668875.000000 0 0 1
-29.230703 22.578945 33.856963 50.105256 -0.657708 0.828860 0.042331 -0.016605 -654630.000000 0 0 1
-30.123233 22.753845 -33.675092 50.588125 -0.646922 2.299190 0.055656 -0.020277 451945.000000 0 0 1
-29.590953 22.259545 -32.445062 49.232041 -0.644934 2.290316 0.044193 -0.012022 130928.000000 0 0 1
-28.200993 22.752045 -31.958912 48.314838 -0.678862 2.293576 0.060692 -0.019384 45850.300000 0 0 1
-28.171713 24.145645 -31.738242 48.825952 -0.708595 2.278418 0.053856 -0.018345 57723.400000 0 0 1
-27.581563 24.447145 -30.470722 47.821234 -0.725227 2.261630 0.071752 -0.018085 114042.000000 0 0 1
-28.226123 25.712345 -29.852622 48.466666 -0.738827 2.234377 0.042072 -0.010307 -536918.000000 0 0 1
-27.925483 26.899445 -30.551262 49.363877 -0.766686 2.238137 0.043819 -0.007789 -164660.000000 0 0 1
-28.906873 27.341045 -31.446492 50.715105 -0.757567 2.239618 0.037396 -0.001112 -655261.000000 0 0 1
-28.749333 28.868645 -31.776652 51.668931 -0.787469 2.233189 0.035644 -0.002326 57074.600000 0 0 1
-29.094903 29.877545 -30.844702 51.870769 -0.798669 2.207621 0.024259 -0.006157 87154.000000 0 0 1
-28.725143 31.109545 -31.415652 52.724575 -0.825227 2.209113 0.040207 -0.016012 -118166.000000 0 0 1
-28.838813 32.307345 -30.494802 52.965787 -0.842063 2.184312 0.039964 -0.009915 -211148.000000 0 0 1
-27.876233 32.393445 -29.489772 51.923658 -0.860208 2.174803 0.024739 -0.003398 -193259.000000 0 0 1
-28.253343 33.468945 -28.568102 52.293002 -0.869699 2.148747 0.024786 0.001119 -362948.000000 0 0 1
-27.252983 33.736245 -27.422572 51.311370 -0.891302 2.134635 0.036147 -0.001450 528298.000000 0 0 1
-26.123403 -34.183224 -27.844462 51.246845 0.918258 2.145207 0.005107 -0.007380 433726.000000 0 0 1
-26.163683 -32.763724 -27.915062 50.371129 0.896936 2.158183 0.019670 0.000968 -519591.000000 0 0 1
-26.698523 -31.992324 -26.693892 49.486198 0.875353 2.140546 0.021449 0.004868 -555920.000000 0 0 1
-28.062693 -31.759424 -26.593992 50.034150 0.847115 2.131187 0.010146 -0.002250 -773555.000000 0 0 1
-28.330763 -31.064424 -25.354712 49.096762 0.831391 2.113465 0.015415 0.000898 -114134.000000 0 0 1
-29.787313 -30.593324 -25.236112 49.599364 0.798746 2.104586 0.006378 -0.003102 -94381.200000 0 0 1
-30.191613 -29.686824 -26.248012 49.817659 0.776968 2.125724 0.010853 -0.007779 -1260470.000000 0 0 1
-31.553293 -29.609424 -26.314732 50.643790 0.753627 2.117184 0.011975 -0.012056 -1435260.000000 0 0 1
-32.144363 -28.589524 -27.324472 50.963200 0.726933 2.136679 0.018364 -0.015119 -530505.000000 0 0 1
-33.480053 -28.847824 -27.635092 52.123020 0.711214 2.129621 0.013167 -0.015661 -582975.000000 0 0 1
-33.959163 -27.887824 -28.559592 52.408070 0.687545 2.147122 0.029362 -0.017972 621126.000000 0 0 1
-35.466155 -28.166724 -28.919412 53.735881 0.671186 2.139069 0.024593 -0.017439 872481.000000 0 0 1
35.425950 -27.709224 -27.834062 52.891720 -0.663776 2.124976 0.017685 -0.017244 -1918900.000000 0 0 1
34.102460 -27.854824 -28.078912 52.223504 -0.684900 2.138465 0.027088 -0.015151 -2116050.000000 0 0 1
33.174140 -27.376024 -27.026882 50.797861 -0.689932 2.131813 0.020013 -0.014500 -701072.000000 0 0 1
33.094210 -28.176724 -25.889272 50.590601 -0.705312 2.108006 0.010989 -0.008671 -162361.000000 0 0 1
32.137440 -27.741624 -24.978112 49.257678 -0.712118 2.102602 0.013852 -0.003696 -301488.000000 0 0 1
32.146220 -28.444824 -23.647912 49.007257 -0.724386 2.074348 0.010507 -0.005339 -86519.200000 0 0 1
31.525610 -29.708624 -23.724612 49.389510 -0.755734 2.071858 0.018210 -0.004340 141596.000000 0 0 1
31.062950 -30.290124 -22.472612 48.861199 -0.772802 2.048710 0.028127 -0.015071 203828.000000 0 0 1
32.125610 -30.420324 -21.336412 49.119176 -0.758140 2.020147 0.011898 -0.011302 -5414.020000 0 0 1
33.266970 -31.233624 -21.697012 50.527130 -0.753884 2.014639 0.005312 -0.008651 986984.000000 0 0 1
34.326600 -31.125324 -20.742912 50.767802 -0.736527 1.991698 -0.000589 -0.009397 674190.000000 0 0 1
35.158090 -29.806924 -20.734312 50.541624 -0.703214 1.993516 -0.006621 -0.014963 -667711.000000 0 0 1
34.476000 -28.625924 -20.300112 49.194844 -0.692954 1.996155 -0.004669 -0.011112 -180034.000000 0 0 1
34.827010 -27.539324 -21.107912 49.161763 -0.669073 2.014576 -0.006526 -0.011595 -178143.000000 0 0 1
33.916130 -26.276524 -20.890512 47.719735 -0.659154 2.023919 -0.001822 -0.007850 120968.000000 0 0 1
32.621550 -26.555224 -21.379012 47.184824 -0.683243 2.041026 0.012391 -0.006342 -428423.000000 0 0 1
31.764530 -25.618624 -20.741812 45.776872 -0.678702 2.041044 0.011215 -0.003406 287274.000000 0 0 1
30.427620 -25.360724 -21.515612 45.076912 -0.694823 2.068386 0.022445 -0.003232 568973.000000 0 0 1
29.758260 -26.593024 -21.753012 45.452574 -0.729287 2.069841 0.035937 -0.003824 63674.800000 0 0 1
28.616660 -26.429524 -22.587812 45.029349 -0.745686 2.096272 0.037803 -0.002442 411440.000000 0 0 1
28.112560 -27.831924 -23.016912 45.768005 -0.780382 2.097752 0.037367 -0.000729 -190998.000000 0 0 1
27.497360 -28.563124 -22.017712 45.351257 -0.804407 2.077723 0.043439 -0.004667 -215947.000000 0 0 1
27.120400 -29.860524 -22.482712 46.180508 -0.833450 2.079270 0.045582 -0.010919 191042.000000 0 0 1
26.494970 -30.779824 -21.307612 45.862788 -0.860071 2.053973 0.051471 -0.008824 620497.000000 0 0 1
27.304460 -30.986624 -20.129312 45.944462 -0.848483 2.024306 0.058699 -0.011691 78095.500000 0 0 1
28.329500 -31.951324 -20.258612 47.263718 -0.845409 2.013771 0.059123 -0.010774 -14804.000000 0 0 1
29.053270 -32.104924 -18.915812 47.250678 -0.835255 1.982672 0.047691 -0.008289 -229661.000000 0 0 1
28.264290 -32.635424 -17.861312 46.722238 -0.857051 1.963067 0.050200 -0.010560 13358.900000 0 0 1
27.797360 -31.711324 -16.920012 45.437739 -0.851075 1.952366 0.046382 -0.013678 1123.090000 0 0 1
27.194620 -32.454024 -15.702612 45.159529 -0.873344 1.925928 0.054089 -0.010291 648673.000000 0 0 1
25.951170 -33.126624 -15.977312 45.012342 -0.906264 1.933661 0.053180 -0.001522 733641.000000 0 0 1
25.513470 -33.797624 -14.798112 44.857560 -0.924173 1.906985 0.060020 -0.006423 -401627.000000 0 0 1
24.021970 -34.107824 -14.598512 44.198589 -0.957194 1.907411 0.066551 -0.006498 -429749.000000 0 0 1
23.337870 -32.921324 -14.413212 42.851026 -0.954123 1.913841 0.068619 0.000846 -1285150.000000 0 0 1
22.079670 -33.230624 -13.937512 42.261572 -0.984339 1.906879 0.075228 -0.010107 -833661.000000 0 0 1
-0.305963 -7.191255 -29.307982 30.178893 1.528275 2.900768 0.047437 -0.009376 88219.700000 0 0 1
-0.062163 -8.554255 -29.211122 30.437950 1.563530 2.856708 0.045082 -0.007238 -87330.100000 0 0 1
-0.261663 -9.048055 -30.505372 31.820018 1.541885 2.853139 0.046732 -0.012081 -198885.000000 0 0 1
0.005837 -10.535755 -30.568522 32.333214 -1.570242 2.809683 0.064785 -0.006680 -159898.000000 0 0 1
1.350237 -10.779355 -30.252782 32.144183 -1.446184 2.796839 0.026052 -0.004265 -372589.000000 0 0 1
1.576737 -12.130855 -29.881902 32.288881 -1.441544 2.753031 0.038097 -0.006823 -405004.000000 0 0 1
2.934337 -12.399355 -29.235292 31.891326 -1.338419 2.730579 0.032076 0.000482 -812598.000000 0 0 1
4.009337 -12.284755 -30.189662 32.839088 -1.255329 2.737148 0.040913 -0.000515 451987.000000 0 0 1
5.234937 -12.681055 -29.577672 32.604485 -1.179291 2.707295 0.050750 -0.007659 304063.000000 0 0 1
5.447237 -14.117355 -29.016852 32.725370 -1.202544 2.660906 0.045697 -0.015312 -1412770.000000 0 0 1
4.913537 -14.447055 -27.778342 31.693794 -1.242962 2.639256 0.049264 -0.006795 -402924.000000 0 0 1
5.648937 -15.431655 -27.126142 31.715518 -1.219885 2.596917 0.059225 -0.011996 -298615.000000 0 0 1
5.363137 -16.913755 -27.497852 32.725682 -1.263738 2.568546 0.053128 -0.004089 -252214.000000 0 0 1
5.673737 -17.298855 -28.829022 34.096250 -1.253868 2.578333 0.053603 -0.018997 64594.800000 0 0 1
5.381137 -18.622155 -29.039932 34.915025 -1.289495 2.553016 0.053169 -0.015426 -508656.000000 0 0 1
5.549137 -19.179755 -30.432472 36.397683 -1.289164 2.560950 0.053927 -0.025877 -343619.000000 0 0 1
6.902537 -19.429555 -30.706362 36.986935 -1.229444 2.550253 0.048679 -0.024390 -187379.000000 0 0 1
7.046237 -20.159755 -31.918322 38.403704 -1.234549 2.551926 0.060662 -0.031876 -67967.900000 0 0 1
8.460037 -20.192955 -32.538372 39.218278 -1.174053 2.549319 0.066702 -0.029315 -88853.600000 0 0 1
8.826237 -18.902155 -32.970102 39.015658 -1.133942 2.577451 0.061101 -0.030751 55406.300000 0 0 1
10.108637 -18.962655 -33.559472 39.849781 -1.081035 2.572053 0.052921 -0.030087 -175927.000000 0 0 1
10.594137 -17.589155 -34.093398 39.799170 -1.028679 2.599510 0.042635 -0.021994 3033.300000 0 0 1
9.770637 -17.090355 33.484971 38.843131 -1.051442 0.531483 0.065975 -0.027564 443242.000000 0 0 1
10.125837 -15.775655 33.130171 38.065892 -1.000161 0.514909 0.049355 -0.024886 283781.000000 0 0 1
9.081337 -15.170655 32.140278 36.682652 -1.031398 0.502936 0.063797 -0.031504 133710.000000 0 0 1
9.044537 -15.772555 30.875128 35.830863 -1.050139 0.532204 0.062565 -0.031953 160857.000000 0 0 1
7.950737 -15.289555 30.100128 34.684326 -1.091268 0.519976 0.065139 -0.036696 146796.000000 0 0 1
8.035837 -15.977255 28.717128 33.830768 -1.104788 0.556997 0.055492 -0.021481 -288016.000000 0 0 1
7.385937 -17.243755 28.732968 34.314467 -1.166112 0.578392 0.063500 -0.023442 298665.000000 0 0 1
7.641737 -18.067355 27.609378 33.868913 -1.170656 0.617750 0.048210 -0.017384 -149768.000000 0 0 1
7.169837 -19.520555 27.846398 34.754576 -1.218796 0.641449 0.051543 -0.011791 -280455.000000 0 0 1
7.880437 -20.108155 28.903418 36.081114 -1.197290 0.641719 0.057910 -0.015093 157202.000000 0 0 1
7.424537 -21.365955 29.398128 37.092826 -1.236356 0.655808 0.041034 -0.017619 -333586.000000 0 0 1
7.831137 -21.669255 30.880438 38.529013 -1.224007 0.641021 0.045419 -0.021174 -116828.000000 0 0 1
7.178137 -20.953455 31.928748 38.858949 -1.240751 0.606483 0.064208 -0.030339 235841.000000 0 0 1
7.399837 -19.529555 31.912578 38.138875 -1.208607 0.579481 0.061355 -0.036932 -1401.080000 0 0 1
6.549737 -18.739855 32.979987 38.493646 -1.234560 0.541834 0.065011 -0.035256 1622770.000000 0 0 1
5.134137 -18.888255 32.674423 38.088627 -1.305392 0.539720 0.071197 -0.036637 1101300.000000 0 0 1
4.356837 -17.945055 33.406122 38.170356 -1.332617 0.504978 0.058115 -0.027840 -349278.000000 0 0 1
2.874637 -18.297055 33.500317 38.279459 -1.414961 0.505048 0.066868 -0.024228 -364961.000000 0 0 1
2.486337 -19.351555 -34.242791 39.411081 -1.443014 2.623695 0.055499 -0.034015 -14641.100000 0 0 1
2.471137 -19.002055 -32.900342 38.073838 -1.441476 2.614194 0.041821 -0.030394 -434235.000000 0 0 1
2.080337 -20.197155 -31.982232 37.882926 -1.468157 2.575939 0.040184 -0.018675 74877.800000 0 0 1
0.810537 -20.702555 -32.395082 38.453792 -1.531665 2.572596 0.021112 -0.018606 474644.000000 0 0 1
0.142537 -21.474455 -31.386582 38.030121 -1.564159 2.541545 0.023467 -0.017932 448118.000000 0 0 1
-0.611063 -20.679355 -30.246442 36.645005 1.541256 2.541690 0.023226 -0.015763 -276206.000000 0 0 1
-1.589563 -19.896055 -30.891252 36.778380 1.491072 2.567950 0.025310 -0.018225 -407940.000000 0 0 1
-2.269963 -18.922455 -30.146272 35.665246 1.451406 2.577841 0.047901 -0.007903 -145707.000000 0 0 1
-1.952763 -17.444155 -30.319662 35.034180 1.459317 2.616806 0.042706 -0.006397 -311014.000000 0 0 1
-2.539763 -16.612655 -29.354812 33.825076 1.419090 2.621638 0.046774 -0.003914 -371372.000000 0 0 1
-2.281863 -15.268855 -29.716602 33.487629 1.422449 2.662450 0.059894 -0.004360 -96640.500000 0 0 1
-3.321663 -14.246355 -29.265512 32.717920 1.341730 2.678062 0.064221 -0.005344 -14202.500000 0 0 1
-3.269563 -13.954355 -27.901112 31.366960 1.340644 2.667060 0.051064 -0.004437 381793.000000 0 0 1
-4.374763 -13.083955 -27.588552 30.845691 1.248121 2.677896 0.047776 -0.002585 603122.000000 0 0 1
-4.485663 -12.611455 -26.097902 29.330368 1.229069 2.667684 0.027794 -0.001202 -277976.000000 0 0 1
-5.010563 -13.745855 -25.398822 29.311337 1.221250 2.618981 0.025957 0.000345 145628.000000 0 0 1
-4.698063 -13.843255 -24.025112 28.123185 1.243618 2.594963 0.009709 -0.000651 -223417.000000 0 0 1
-5.492363 -12.898855 -23.067512 26.993641 1.168246 2.595487 0.010932 -0.008091 1518770.000000 0 0 1
-6.933363 -13.049655 -23.236512 27.537257 1.082419 2.575160 0.009244 -0.010537 1019750.000000 0 0 1
-7.585563 -12.097655 -22.442112 26.599670 1.010740 2.574933 0.010027 -0.011791 -1331310.000000 0 0 1
-9.009663 -11.828055 -22.820912 27.237308 0.919837 2.564138 0.026913 -0.013836 -1055050.000000 0 0 1
-9.953063 -12.803155 -22.426912 27.675813 0.909994 2.515534 0.021253 -0.010218 -173628.000000 0 0 1
-10.072863 -13.985655 -23.235112 28.929770 0.946623 2.503370 0.002711 -0.009042 -642535.000000 0 0 1
-10.978963 -15.052855 -22.578912 29.273424 0.940636 2.451695 0.004596 -0.017104 -491313.000000 0 0 1
-10.569663 -15.803555 -21.450612 28.663547 0.981308 2.416380 0.001324 -0.010601 -781038.000000 0 0 1
-11.412963 -16.853455 -21.067012 29.293578 0.975545 2.373401 -0.004221 0.001179 -95107.900000 0 0 1
-11.851463 -17.947955 -22.096712 30.835872 0.987198 2.369699 -0.017120 0.002103 -210364.000000 0 0 1
-12.561763 -17.506355 -23.213712 31.672493 0.948386 2.393415 -0.007927 -0.000729 -394418.000000 0 0 1
-12.853363 -18.577755 -24.110112 33.039968 0.965549 2.388717 0.010815 0.001364 489073.000000 0 0 1
-14.069663 -18.144155 -25.006012 33.947996 0.911213 2.398822 -0.002615 -0.007096 565812.000000 0 0 1
-15.255763 -17.882855 -24.267412 33.785235 0.864509 2.372130 0.018640 -0.004993 215319.000000 0 0 1
-16.278463 -17.571755 -25.214022 34.777893 0.823586 2.381833 0.039967 -0.017924 475045.000000 0 0 1
-17.190063 -16.359255 -24.918112 34.409822 0.760639 2.380608 0.026723 -0.013814 750197.000000 0 0 1
-18.203163 -16.395155 -23.883412 34.213647 0.733189 2.343490 0.042933 -0.012544 635325.000000 0 0 1
-18.841363 -15.169155 -23.787612 33.925665 0.677842 2.347832 0.041743 -0.016223 129075.000000 0 0 1
-19.803863 -15.043155 -22.542112 33.565404 0.649621 2.307146 0.041263 -0.025172 357009.000000 0 0 1
-19.125163 -15.203155 -21.267812 32.391783 0.671642 2.287072 0.048338 -0.021208 443895.000000 0 0 1
-19.955663 -15.149155 -20.092612 32.116016 0.649326 2.246730 0.028539 -0.028045 59357.000000 0 0 1
-20.109663 -13.693555 -19.438812 31.141282 0.597822 2.244921 0.038767 -0.025503 -177995.000000 0 0 1
-21.131363 -12.960755 -20.071712 31.896541 0.550172 2.251417 0.040177 -0.033802 -11393.000000 0 0 1
-21.453763 -11.845255 -19.292212 31.189156 0.504477 2.237699 0.050549 -0.033842 986956.000000 0 0 1
-22.991663 -11.494755 -19.188312 32.077052 0.463610 2.212042 0.050278 -0.029322 1128370.000000 0 0 1
-23.513863 -10.920355 -20.375212 32.974311 0.434782 2.236880 0.057420 -0.037074 -187195.000000 0 0 1
-24.919963 -10.852955 -20.381212 33.973298 0.410741 2.214196 0.060970 -0.038501 204163.000000 0 0 1
-25.540743 -9.965255 -21.532312 34.860814 0.372004 2.236567 0.075126 -0.031927 -4586.790000 0 0 1
-25.392663 -10.570555 -22.838812 35.751018 0.394465 2.263772 0.057462 -0.032753 410375.000000 0 0 1
-26.065103 -9.708455 -23.772612 36.589354 0.356550 2.278004 0.048450 -0.026820 -28041.800000 0 0 1
-26.237433 -10.182855 -25.265882 37.821399 0.370209 2.302356 0.028766 -0.020236 -615079.000000 0 0 1
-25.201333 -9.824355 -26.091162 37.581563 0.371713 2.338180 0.013118 -0.017293 -1055290.000000 0 0 1
-24.194663 -10.810555 -26.153132 37.232192 0.420203 2.349607 0.013207 -0.019627 -325947.000000 0 0 1
-23.257963 -10.476755 -27.328942 37.384038 0.423235 2.390630 0.007657 -0.014604 -211886.000000 0 0 1
-23.696263 -10.838455 -28.609982 38.697753 0.428983 2.402855 0.007111 -0.006195 181117.000000 0 0 1
-22.626663 -10.761655 -29.532382 38.729068 0.443953 2.438023 0.003808 -0.002877 440850.000000 0 0 1
-23.176963 -11.250055 -30.862992 40.202732 0.451898 2.446015 -0.004217 -0.005762 532277.000000 0 0 1
-23.975263 -10.356055 -31.652922 41.036187 0.407741 2.451743 -0.004183 -0.004381 254042.000000 0 0 1
-23.235363 -9.604455 -32.579112 41.152475 0.391966 2.484331 -0.003220 -0.005406 -195707.000000 0 0 1
-24.158363 -8.609555 -33.364012 42.082161 0.342347 2.486235 -0.003277 -0.001522 -545977.000000 0 0 1
-24.974663 -9.119155 34.252692 43.360578 0.350095 0.660069 0.010278 -0.014387 2084590.000000 0 0 1
-26.305853 -9.581855 -33.967062 44.017851 0.349311 2.452252 0.008880 -0.013470 1759590.000000 0 0 1
-27.266013 -8.673655 -33.133192 43.777576 0.307990 2.429281 0.010260 0.002662 -373217.000000 0 0 1
-28.579123 -9.172255 -32.931382 44.557519 0.310558 2.402494 0.014073 -0.002289 438547.000000 0 0 1
-29.287863 -8.568855 -31.861112 44.117283 0.284630 2.377761 0.019269 -0.000127 1025460.000000 0 0 1
-30.822003 -8.919855 -31.890082 45.238667 0.281703 2.353120 0.026283 -0.002561 833163.000000 0 0 1
-30.996013 -10.319855 -31.730132 45.541778 0.321398 2.341619 0.021747 -0.006238 254993.000000 0 0 1
-32.350273 -10.668155 -31.500102 46.396187 0.318540 2.317111 0.008982 -0.004709 141259.000000 0 0 1
-32.528683 -12.227655 -31.270492 46.749058 0.359563 2.303526 0.016574 -0.007045 1252480.000000 0 0 1
-33.916673 -12.669955 -31.340092 47.886009 0.357509 2.284282 -0.001796 -0.009482 1234120.000000 0 0 1
-34.045593 -14.092855 -31.563062 48.517398 0.392466 2.279107 -0.001900 -0.013792 -308695.000000 0 0 1
-35.407711 -14.729955 -31.308042 49.506273 0.394231 2.255451 -0.004976 -0.021428 -225449.000000 0 0 1
-35.654109 -14.748355 -29.860172 48.788927 0.392219 2.229418 -0.007840 -0.014846 -116132.000000 0 0 1
35.401790 -15.936755 -29.428032 48.716281 -0.422994 2.219394 -0.009209 -0.009518 -154080.000000 0 0 1
35.360050 -15.953055 -27.895132 47.780451 -0.423819 2.194221 -0.005756 0.002890 -552941.000000 0 0 1
-35.065329 -15.910755 -27.278362 47.189390 0.425965 2.187147 0.008858 -0.007611 -249219.000000 0 0 1
-35.030049 -16.125755 -25.875422 46.440088 0.431420 2.161781 0.006126 -0.004519 241029.000000 0 0 1
-33.621583 -15.687655 -25.364542 44.943001 0.436568 2.170468 0.046517 -0.014059 386129.000000 0 0 1
-32.604503 -16.635855 -25.573392 44.652029 0.471800 2.180624 0.048908 -0.014005 70394.500000 0 0 1
-31.371143 -16.191855 -25.042112 43.283163 0.476475 2.187764 0.063209 -0.007842 -344483.000000 0 0 1
-30.119653 -16.966355 -25.350982 42.868672 0.512996 2.203545 0.069787 -0.013598 -643499.000000 0 0 1
-29.932313 -18.182255 -24.595712 42.795874 0.545876 2.183060 0.076218 -0.017576 -233481.000000 0 0 1
-30.802883 -19.251055 -24.840912 44.005587 0.558582 2.170617 0.060671 -0.018596 -331812.000000 0 0 1
-30.562653 -20.418755 -23.875912 43.829904 0.588991 2.146876 0.061253 -0.019899 181184.000000 0 0 1
-29.352973 -21.087355 -24.195412 43.493581 0.622973 2.160721 0.052953 -0.019015 198237.000000 0 0 1
-29.178283 -22.210255 -23.346812 43.471155 0.650625 2.137750 0.041363 -0.018933 -292257.000000 0 0 1
-27.855373 -23.025155 -23.544512 43.132628 0.690749 2.148215 0.036873 -0.013506 1195370.000000 0 0 1
-26.607043 -22.401255 -23.204212 41.811320 0.699790 2.159129 0.041048 -0.014685 633143.000000 0 0 1
-26.470033 -22.107355 -21.817312 40.809226 0.695830 2.134851 0.045359 -0.015587 -802370.000000 0 0 1
-26.260523 -23.300055 -20.826312 40.819639 0.725735 2.106217 0.030047 -0.016616 -154706.000000 0 0 1
-26.191683 -22.874755 -19.477412 39.857600 0.717900 2.081367 0.027613 -0.009892 -8369.430000 0 0 1
-26.129433 -23.979755 -18.562312 40.029181 0.742525 2.052985 0.016569 0.018798 -368338.000000 0 0 1
-26.232493 -23.597655 -17.050212 39.188044 0.732571 2.020931 0.019671 0.020985 661831.000000 0 0 1
-27.559173 -23.209255 -16.651712 39.692028 0.699925 2.003716 0.023978 0.009623 484894.000000 0 0 1
-27.523443 -22.186155 -15.678112 38.672582 0.678439 1.988220 0.020761 0.012238 278454.000000 0 0 1
-28.894123 -21.632255 -15.193012 39.161875 0.642651 1.969207 0.019102 0.016576 340231.000000 0 0 1
-29.625943 -20.902055 -16.145012 39.689468 0.614429 1.989726 0.018769 0.011407 -723301.000000 0 0 1
-30.625573 -20.146555 -15.557612 39.822716 0.581863 1.972158 0.033345 0.010675 -844546.000000 0 0 1
-31.443243 -19.478555 -16.647512 40.561451 0.554622 1.993719 0.048515 -0.015901 -542647.000000 0 0 1
-32.516193 -20.289955 -17.077512 41.959820 0.557877 1.989960 0.024935 -0.011882 -186276.000000 0 0 1
-33.194103 -19.749955 -18.169312 42.685280 0.536723 2.010485 0.022141 -0.012539 -149478.000000 0 0 1
-33.908933 -20.831755 -19.035112 44.114774 0.550900 2.016941 0.011506 -0.014154 146954.000000 0 0 1
-35.011276 -21.527955 -18.499712 45.071961 0.551293 1.993742 0.002159 -0.014559 -229250.000000 0 0 1
-34.832757 -22.459955 -17.473312 44.978742 0.572707 1.969777 0.005398 -0.017898 -222250.000000 0 0 1
-35.768045 -23.708755 -17.565312 46.368074 0.585354 1.959321 0.005261 -0.007335 417682.000000 0 0 1
34.528350 -23.496255 -17.385412 45.238629 -0.597513 1.965251 0.000971 -0.012510 -88947.300000 0 0 1
33.756830 -24.651655 -17.515512 45.321307 -0.630755 1.967602 -0.007355 -0.013040 75100.600000 0 0 1
32.338920 -24.519555 -16.934512 43.974902 -0.648732 1.966107 -0.007499 -0.011717 287961.000000 0 0 1
31.293460 -24.103955 -17.809512 43.329667 -0.656339 1.994373 -0.003478 -0.010228 187129.000000 0 0 1
30.036300 -24.455555 -17.241512 42.397208 -0.683340 1.989598 0.009008 -0.016324 87950.300000 0 0 1
28.895370 -24.173755 -18.211512 41.844618 -0.696661 2.021076 0.030870 -0.010222 -443110.000000 0 0 1
28.629130 -22.797255 -18.309012 40.921411 -0.672478 2.034673 0.019492 -0.003598 1277240.000000 0 0 1
27.252210 -22.526755 -18.680812 39.988879 -0.690753 2.056861 0.030615 -0.011362 1041240.000000 0 0 1
34.054490 29.638145 -18.379112 48.743406 0.716171 1.957415 0.011920 -0.004864 -868649.000000 0 0 1
33.218420 29.826045 -19.468112 48.703837 0.731641 1.982012 0.003027 -0.007148 -478233.000000 0 0 1
33.630990 29.193145 -20.691112 49.106062 0.714876 2.005736 0.004254 -0.004382 -301905.000000 0 0 1
32.767020 29.498545 -21.933312 49.243395 0.732954 2.032424 0.001434 -0.003807 -326468.000000 0 0 1
31.522210 28.801645 -21.874912 47.975996 0.740329 2.044242 0.006457 0.000315 248712.000000 0 0 1
30.719630 29.128545 -22.978512 48.168245 0.758819 2.068088 0.015308 0.009015 -132652.000000 0 0 1
29.829150 30.383645 -22.819712 48.308212 0.794607 2.062783 0.018074 0.013680 -1031160.000000 0 0 1
30.440110 31.651145 -22.894812 49.523405 0.804900 2.051387 0.015512 0.001419 -497875.000000 0 0 1
29.453170 32.595445 -23.048912 49.610529 0.835997 2.053976 0.020613 0.001037 -685590.000000 0 0 1
29.937820 34.018645 -22.741912 50.702424 0.849118 2.035924 0.023562 0.005422 82615.800000 0 0 1
30.489160 34.199345 -21.465012 50.595759 0.842690 2.008925 0.026125 -0.002914 -264234.000000 0 0 1
31.889680 34.099445 -21.446712 51.377867 0.818872 2.001413 0.019302 0.000045 -481011.000000 0 0 1
32.442050 33.897045 -20.026112 51.015110 0.807327 1.974202 0.016592 -0.007811 -528804.000000 0 0 1
32.054050 -33.756924 -19.211912 50.359603 -0.811268 1.962209 0.021049 -0.008300 178768.000000 0 0 1
32.086800 -34.131024 -17.852412 50.131808 -0.816260 1.934897 0.013395 -0.018123 -355640.000000 0 0 1
32.101080 -32.868724 -16.923612 48.961628 -0.797213 1.923728 0.010340 -0.011209 505579.000000 0 0 1
33.190360 -31.927224 -16.989012 49.087414 -0.766003 1.924204 0.013842 -0.012614 181835.000000 0 0 1
34.295140 -32.254924 -16.178412 49.782304 -0.754751 1.901790 0.017526 -0.013907 180514.000000 0 0 1
35.447790 -31.210024 -16.408412 49.998474 -0.721909 1.905171 0.007592 -0.007135 76804.000000 0 0 1
-35.313228 -31.676624 -17.360312 50.515473 0.731166 1.921611 0.005318 -0.013772 -583818.000000 0 0 1
-34.174072 -30.875524 -17.585812 49.299351 0.734733 1.935545 -0.006441 -0.006574 492348.000000 0 0 1
-33.293893 -31.692124 -18.638512 49.601090 0.760755 1.956022 -0.006549 -0.009223 -646100.000000 0 0 1
-32.726723 -32.859624 -18.060312 49.769149 0.787425 1.942155 0.002203 -0.012385 272087.000000 0 0 1
-31.851433 -33.660724 -18.834512 50.022965 0.813009 1.956830 0.012091 -0.004487 149377.000000 0 0 1
-30.532393 -33.021324 -19.296612 48.938677 0.824541 1.976104 -0.000528 -0.004885 -1149680.000000 0 0 1
-30.729523 -32.101324 -20.337712 48.871476 0.807228 2.000000 -0.011035 -0.007029 193319.000000 0 0 1
-29.476043 -31.588524 -20.765712 47.936278 0.819979 2.018830 0.003500 -0.007831 675408.000000 0 0 1
-28.497063 -32.498924 -21.579312 48.310759 0.850913 2.033844 0.002532 0.006919 -146169.000000 0 0 1
-29.041593 -32.912324 -22.803512 49.463475 0.847795 2.049937 0.000082 0.014634 -70422.300000 0 0 1
-28.323913 -34.061124 -23.230212 50.020466 0.877105 2.053769 0.000311 0.005649 104023.000000 0 0 1
-29.072503 33.814345 -24.321712 50.795334 -0.860659 2.070104 0.005197 0.000974 -297275.000000 0 0 1
-30.288873 33.241345 -23.903112 50.928986 -0.831838 2.059342 0.002039 -0.002587 -67426.500000 0 0 1
-30.980833 32.500545 -24.899512 51.342800 -0.809333 2.077121 0.005968 -0.003988 853557.000000 0 0 1
-31.794503 33.395345 -25.948052 52.909743 -0.809950 2.083369 0.016212 -0.008884 154454.000000 0 0 1
-30.917823 34.098945 -26.817102 53.271069 -0.834287 2.098335 0.016554 -0.010644 19824.100000 0 0 1
-31.669603 -33.660124 -27.567782 53.814035 0.815858 2.108632 0.015898 -0.008080 394386.000000 0 0 1
-31.003283 -32.997624 -28.830882 53.677430 0.816549 2.137808 0.012288 -0.011018 -208950.000000 0 0 1
-30.943673 -33.811624 -30.013422 54.786334 0.829658 2.150561 0.021712 -0.007404 533402.000000 0 0 1
-32.175033 -33.923324 -30.761202 55.966742 0.811842 2.152722 0.013490 -0.004919 695919.000000 0 0 1
-32.049943 33.997545 -32.049802 56.658818 -0.814878 2.172033 0.029462 -0.005690 2922.860000 0 0 1
-31.519313 -33.933724 -33.094522 56.922861 0.822269 2.191235 0.048556 -0.024401 -82777.800000 0 0 1
-31.676553 34.156945 34.298246 57.848687 -0.823057 0.936146 0.024680 -0.028224 -284030.000000 0 0 1
-30.479973 -34.206724 33.342320 56.664266 0.842947 0.941694 0.031164 -0.026275 412365.000000 0 0 1
-29.214633 33.986945 33.600936 56.014552 -0.860765 0.927469 0.030697 -0.019809 -398443.000000 0 0 1
-29.027793 32.750645 32.978091 54.797554 -0.845587 0.925022 0.031950 -0.021727 -61929.300000 0 0 1
-27.549833 32.327945 33.183090 53.899970 -0.865027 0.907596 0.023195 -0.018626 -270837.000000 0 0 1
-27.351383 31.996645 -34.126338 54.189394 -0.863510 2.252041 0.031039 -0.021312 197572.000000 0 0 1
-26.060183 31.451245 -33.901472 53.081294 -0.878864 2.263566 0.041593 -0.022033 -99972.600000 0 0 1
-25.585633 30.090545 34.209053 52.252510 -0.866135 0.857027 0.038505 -0.019103 -374219.000000 0 0 1
-25.802413 29.057845 -33.546292 51.336893 -0.844669 2.282935 0.041177 -0.015274 78324.500000 0 0 1
-25.567413 27.753945 -34.034272 50.816392 -0.826382 2.304668 0.038913 -0.014540 -182816.000000 0 0 1
-25.430613 26.685745 -32.890532 49.402754 -0.809477 2.299312 0.049157 -0.016697 657054.000000 0 0 1
-24.193963 26.730445 -32.148342 48.305077 -0.835166 2.298996 0.054664 -0.012285 474601.000000 0 0 1
-24.199563 27.673745 -31.114162 48.161666 -0.852273 2.273176 0.043362 -0.007991 727642.000000 0 0 1
-22.940563 27.663645 -30.152102 46.911576 -0.878462 2.268870 0.052769 -0.006346 266838.000000 0 0 1
-21.743463 28.045645 -30.748462 46.955344 -0.911306 2.284774 0.049774 -0.011617 -198092.000000 0 0 1
-20.637163 28.140545 -29.842052 45.916564 -0.938030 2.278274 0.041565 -0.013889 626330.000000 0 0 1
-20.493863 29.469645 -29.084402 46.199143 -0.963149 2.251763 0.033563 -0.008541 -437280.000000 0 0 1
-20.038063 30.521245 -29.930342 47.211182 -0.989845 2.257469 0.027401 -0.002686 66153.300000 0 0 1
-19.746363 31.632745 -29.084922 47.291459 -1.012745 2.233200 0.028115 -0.006140 -49029.200000 0 0 1
-19.340363 32.933345 -29.873272 48.487805 -1.039799 2.234576 0.036266 -0.001482 44234.400000 0 0 1
-18.103363 32.761245 -30.518402 48.294966 -1.065971 2.254820 0.038801 -0.005139 -304442.000000 0 0 1
-17.828763 33.794545 -31.451912 49.488977 -1.085342 2.259496 0.031695 0.001544 -116516.000000 0 0 1
-16.334063 33.937745 -31.810582 49.299952 -1.122224 2.272141 0.043267 0.006076 -21819.300000 0 0 1
-15.552963 -34.282024 -30.714092 48.585052 1.144889 2.255149 0.052976 0.002572 704210.000000 0 0 1
-14.182063 -33.984024 -31.033402 48.157210 1.175452 2.271059 0.069644 0.004643 1390950.000000 0 0 1
-13.245263 33.479145 -30.964242 47.487624 -1.194065 2.281080 0.093768 -0.000631 -287106.000000 0 0 1
-13.010663 32.987345 -29.658092 46.228181 -1.195115 2.267325 0.099740 -0.008268 -226431.000000 0 0 1
-12.540763 31.655245 -29.711522 45.189598 -1.193599 2.288273 0.103286 -0.004186 -139374.000000 0 0 1
-12.169763 31.049045 -28.358762 43.776314 -1.197246 2.275503 0.080614 -0.012499 405792.000000 0 0 1
-10.897863 31.522045 -27.926432 43.500441 -1.237938 2.267875 0.062961 -0.008004 199094.000000 0 0 1
-10.890363 31.349345 -26.501092 42.469863 -1.236451 2.244644 0.038539 -0.006541 -253193.000000 0 0 1
-9.483163 31.623845 -25.986962 42.015713 -1.279455 2.237636 0.028079 -0.010361 -31335.200000 0 0 1
-8.548063 30.684345 -26.514762 41.444312 -1.299104 2.264993 0.040133 -0.003176 180147.000000 0 0 1
-7.205763 31.103045 -26.295552 41.361558 -1.343139 2.259774 0.041329 -0.011406 490072.000000 0 0 1
-6.159463 30.087445 -26.801712 40.761809 -1.368868 2.288319 0.014534 -0.000391 -149619.000000 0 0 1
-5.969463 28.950845 -25.936512 39.325419 -1.367453 2.290997 0.018151 -0.011271 -407191.000000 0 0 1
-4.981363 28.088245 -26.455842 38.905977 -1.395274 2.318551 0.008745 -0.012078 -90486.700000 0 0 1
-4.543363 26.975545 -25.461522 37.371263 -1.403937 2.320351 0.019557 -0.022463 -275669.000000 0 0 1
-5.468363 25.927545 -25.276222 36.620049 -1.362933 2.332602 0.031169 -0.021120 -258555.000000 0 0 1
-4.930863 24.822045 -24.541712 35.252560 -1.374701 2.340842 0.028114 -0.029088 -611996.000000 0 0 1
-5.836563 23.596345 -24.425912 34.459805 -1.328313 2.358625 0.042408 -0.026120 -242105.000000 0 0 1
-5.949963 22.809045 -25.643052 34.831318 -1.315623 2.398244 0.045847 -0.027100 215346.000000 0 0 1
-6.679263 21.593945 -25.499702 34.075590 -1.270819 2.416334 0.047969 -0.027729 -244052.000000 0 0 1
-6.535063 20.791845 -26.777662 34.526092 -1.266264 2.458426 0.035329 -0.021719 -418423.000000 0 0 1
-5.318763 20.123445 -26.887332 34.002513 -1.312398 2.482822 0.047009 -0.026479 -842982.000000 0 0 1
-5.223763 18.938745 -26.138982 32.698779 -1.301664 2.497071 0.049391 -0.027616 -857619.000000 0 0 1
-4.054963 18.013645 -26.389982 32.208156 -1.349382 2.531085 0.043419 -0.034395 -552233.000000 0 0 1
-3.988963 17.526745 -27.754082 33.066413 -1.347015 2.566871 0.047882 -0.037452 -146768.000000 0 0 1
-2.953663 16.575645 -27.853492 32.546784 -1.394454 2.597889 0.047139 -0.035970 -158797.000000 0 0 1
-2.298163 16.379345 -29.258122 33.609555 -1.431398 2.627074 0.056786 -0.032501 65993.600000 0 0 1
-1.833763 17.619445 -29.746492 34.621689 -1.467094 2.604474 0.063781 -0.040625 -123065.000000 0 0 1
-1.565263 17.446545 -31.116042 35.707703 -1.481318 2.628865 0.061845 -0.041093 -181952.000000 0 0 1
-0.890863 18.643445 -31.832012 36.900524 -1.523048 2.611270 0.072336 -0.028737 930221.000000 0 0 1
0.422037 18.914545 -31.275932 36.553003 1.548487 2.597568 0.076099 -0.034319 880241.000000 0 0 1
0.938537 20.110445 -31.845932 37.675911 1.524161 2.577847 0.075300 -0.017729 340324.000000 0 0 1
0.580237 21.340945 -30.966412 37.612382 1.543614 2.538003 0.071450 -0.015837 367922.000000 0 0 1
1.439237 21.307045 -29.818822 36.677292 1.503351 2.520091 0.075248 -0.041857 153668.000000 0 0 1
1.250137 22.516945 -29.044532 36.771735 1.515333 2.481377 0.075063 -0.033343 162172.000000 0 0 1
2.433637 22.573945 -28.066532 36.100357 1.463404 2.461411 0.072239 -0.026243 236390.000000 0 0 1
3.706037 22.651145 -28.696292 36.746241 1.408620 2.466952 0.063121 -0.027238 81394.900000 0 0 1
4.804637 22.724245 -27.811532 36.234751 1.362433 2.445787 0.060495 -0.030203 154434.000000 0 0 1
5.080837 24.150145 -27.230472 36.749735 1.363435 2.405311 0.070865 -0.029628 -580856.000000 0 0 1
5.524837 24.923345 -28.348572 38.148899 1.352651 2.408492 0.058568 -0.033265 226633.000000 0 0 1
5.908337 26.259245 -27.951022 38.803557 1.349482 2.375062 0.055282 -0.029262 -20642.700000 0 0 1
6.757637 27.006945 -28.993462 40.195293 1.325612 2.376495 0.068083 -0.024658 -3448.350000 0 0 1
8.086637 26.524045 -29.102472 40.197917 1.274869 2.380350 0.067027 -0.015551 -107395.000000 0 0 1
8.813537 27.193145 -30.092832 41.505712 1.257371 2.381872 0.072739 -0.020420 582407.000000 0 0 1
10.331937 27.272045 -29.716212 41.636122 1.208657 2.365580 0.061539 -0.014853 479397.000000 0 0 1
11.074737 28.100345 -30.557892 42.965846 1.195374 2.362019 0.068522 -0.015809 -33697.700000 0 0 1
12.302837 28.505245 -29.966212 43.149538 1.163350 2.338484 0.049546 -0.017621 317759.000000 0 0 1
13.157837 29.384445 -30.893362 44.620333 1.149788 2.335552 0.059025 -0.016912 -363714.000000 0 0 1
12.703837 30.702545 -30.947222 45.406655 1.178475 2.320685 0.066021 -0.018161 411098.000000 0 0 1
13.522737 31.592145 -31.720462 46.766609 1.166353 2.316204 0.090988 -0.022719 187210.000000 0 0 1
12.967637 33.030345 -31.611532 47.523176 1.196687 2.298533 0.098051 -0.027304 576499.000000 0 0 1
11.779337 33.288845 -32.353512 47.892063 1.230694 2.312508 0.093529 -0.024500 450029.000000 0 0 1
11.181937 -34.205824 -32.031652 48.177805 -1.254845 2.298107 0.079015 -0.017410 -398009.000000 0 0 1
9.946137 -33.837724 -32.838122 48.189828 -1.284912 2.320515 0.058015 -0.010249 -419443.000000 0 0 1
10.229337 -33.198424 -34.045122 48.639954 -1.271900 2.346112 0.049418 0.000322 835895.000000 0 0 1
9.105537 -33.307424 33.698044 48.247834 -1.303938 0.797586 0.053928 -0.009828 689525.000000 0 0 1
9.341937 -32.626024 32.353278 46.887780 -1.291924 0.809286 0.052270 -0.013530 5198.590000 0 0 1
9.194037 -31.232924 32.295088 45.858463 -1.284513 0.789453 0.044386 -0.019506 37534.700000 0 0 1
9.418937 -30.678824 31.003208 44.621806 -1.272914 0.802655 0.048263 -0.019370 -421854.000000 0 0 1
9.079537 -29.193224 30.989068 43.531652 -1.269265 0.778633 0.039453 -0.033814 -297934.000000 0 0 1
7.696337 -28.966724 31.013268 43.129196 -1.311101 0.768321 0.039544 -0.022591 -212715.000000 0 0 1
7.074137 -28.916024 32.304588 43.929105 -1.330865 0.744569 0.042178 -0.014261 113645.000000 0 0 1
5.517337 -28.876324 32.206258 43.606493 -1.382004 0.739856 0.031483 -0.017325 760365.000000 0 0 1
4.821337 -30.109724 31.921468 44.145452 -1.412019 0.762520 0.042005 -0.018012 315730.000000 0 0 1
4.909337 -30.522524 30.563388 43.472368 -1.411319 0.791114 0.044231 -0.021143 -550483.000000 0 0 1
4.432837 -29.660924 29.390848 41.990980 -1.422444 0.795493 0.022805 -0.017790 -114626.000000 0 0 1
3.029837 -29.514924 29.234918 41.653225 -1.468500 0.792785 0.040822 -0.025395 224589.000000 0 0 1
2.685037 -28.806824 28.069558 40.310577 -1.477856 0.800522 0.058633 -0.026750 17713.800000 0 0 1
1.306237 -29.198624 27.478508 40.116510 -1.526090 0.816237 0.049561 -0.021503 57876.000000 0 0 1
1.155737 -30.426524 26.773378 40.545319 -1.532830 0.849535 0.050010 -0.032983 66539.600000 0 0 1
0.996137 -31.557724 27.603458 41.938445 -1.539241 0.852385 0.072845 -0.038886 -598429.000000 0 0 1
1.219637 -32.985424 27.059888 42.682119 -1.533838 0.884099 0.080623 -0.045616 778449.000000 0 0 1
2.609437 -33.311324 26.877688 42.881973 -1.492621 0.893379 0.063300 -0.040738 809842.000000 0 0 1
3.138837 -32.839724 25.662218 41.795326 -1.475505 0.909681 0.060132 -0.045699 -664182.000000 0 0 1
4.670637 -32.939124 25.719358 42.050995 -1.429939 0.912686 0.049481 -0.034600 -172447.000000 0 0 1
5.304037 -32.323424 24.583458 40.954646 -1.408153 0.926969 0.042651 -0.038312 97466.400000 0 0 1
6.689937 -32.219924 24.844728 41.232746 -1.366072 0.924106 0.036649 -0.036877 -537880.000000 0 0 1
7.452437 -31.765624 23.618058 40.279106 -1.340357 0.944238 0.027832 -0.019783 -591071.000000 0 0 1
8.708937 -31.221224 23.921078 40.284345 -1.298768 0.935016 0.021012 -0.012622 8062.470000 0 0 1
9.553537 -31.129924 22.791578 39.746677 -1.273028 0.960121 0.007910 -0.004911 -249504.000000 0 0 1
10.725737 -30.179324 23.012478 39.438651 -1.229319 0.947764 0.002486 0.000288 -329964.000000 0 0 1
11.825837 -30.745724 23.691998 40.576604 -1.203607 0.947293 0.017549 -0.012551 -216307.000000 0 0 1
12.966937 -29.940124 23.519578 40.220928 -1.162089 0.946213 0.032965 -0.014274 -79889.500000 0 0 1
14.215237 -30.559324 24.217608 41.502263 -1.135400 0.947734 0.054832 -0.017527 -137906.000000 0 0 1
14.260737 -30.453924 25.630428 42.281544 -1.132851 0.919542 0.053062 -0.020481 152736.000000 0 0 1
14.775937 -29.211824 26.073358 41.850675 -1.102503 0.898212 0.037409 -0.015857 -409958.000000 0 0 1
-10.633063 -14.294355 25.866018 31.407667 0.931234 0.603142 0.063547 -0.025946 -235293.000000 0 0 1
-9.285863 -14.217555 25.489848 30.628394 0.992226 0.587680 0.063351 -0.023381 -367024.000000 0 0 1
-8.458063 -14.466055 26.630398 31.464006 1.041715 0.561652 0.077960 -0.019858 -90298.600000 0 0 1
-6.945763 -14.469355 26.388768 30.886453 1.123250 0.546440 0.073331 -0.014690 -429487.000000 0 0 1
-6.487363 -15.521755 25.545568 30.587364 1.174910 0.582359 0.068374 -0.014254 51840.300000 0 0 1
-6.605163 -15.276155 24.143788 29.324250 1.162688 0.603528 0.073235 -0.020605 -103128.000000 0 0 1
-6.009763 -16.500155 23.257778 29.142694 1.221506 0.646718 0.072588 -0.023205 195146.000000 0 0 1
-6.808263 -17.648355 23.062278 29.827598 1.202614 0.686947 0.079188 -0.024313 -520544.000000 0 0 1
-7.094363 -18.373555 24.263778 31.251375 1.202314 0.681852 0.077793 -0.022476 -177762.000000 0 0 1
-7.710863 -19.755755 23.933228 31.977284 1.198671 0.725083 0.077353 -0.028739 -347201.000000 0 0 1
-9.048563 -19.659755 23.539678 31.976537 1.139445 0.743425 0.070646 -0.028076 -923881.000000 0 0 1
-9.489763 -20.956855 23.164178 32.646968 1.145597 0.781958 0.060901 -0.028288 715732.000000 0 0 1
-11.040963 -21.114855 23.331778 33.348341 1.088997 0.795905 0.044146 -0.021060 599504.000000 0 0 1
-11.257763 -21.026255 24.714128 34.345724 1.079220 0.767614 0.035369 -0.019139 125718.000000 0 0 1
-12.660163 -20.957755 24.928318 34.941784 1.027382 0.776423 0.040952 -0.010280 288640.000000 0 0 1
-13.110463 -20.981155 26.376668 36.163818 1.012292 0.753401 0.034248 -0.012859 -419773.000000 0 0 1
-12.848363 -22.178055 27.081178 37.287220 1.045716 0.757893 0.038451 -0.010367 -58575.400000 0 0 1
-12.453763 -21.880455 28.363428 37.925382 1.053352 0.725942 0.032197 -0.009814 100622.000000 0 0 1
-11.911963 -23.133455 29.113428 39.046681 1.095281 0.729353 0.036569 -0.011785 -21110.900000 0 0 1
-12.980763 -23.762655 29.804988 40.267870 1.070823 0.737476 0.025651 -0.002957 160220.000000 0 0 1
-12.636463 -25.072185 30.325568 41.327167 1.103951 0.746909 0.033076 -0.003120 -479677.000000 0 0 1
-13.705963 -25.694085 31.234308 42.703881 1.080765 0.750400 0.031199 -0.010809 -112318.000000 0 0 1
-13.699363 -25.025355 32.474308 43.226400 1.069937 0.720826 0.062035 -0.016795 130368.000000 0 0 1
-14.841763 -25.309785 33.267760 44.357717 1.040434 0.722752 0.045203 -0.015951 -259299.000000 0 0 1
-14.689363 -24.814655 -33.873812 44.485724 1.036307 2.436349 0.045283 -0.015680 109526.000000 0 0 1
-14.729963 -23.379255 -33.575032 43.483838 1.008578 2.452977 0.059129 -0.023027 303704.000000 0 0 1
-15.858063 -22.697655 -34.140397 43.957121 0.960967 2.460166 0.041291 -0.023562 42910.800000 0 0 1
-15.910263 -21.217255 -33.874602 43.020891 0.927376 2.477374 0.041625 -0.025600 -97812.300000 0 0 1
-16.203763 -20.888355 -32.544342 41.928744 0.911029 2.459384 0.038250 -0.020668 159720.000000 0 0 1
-16.261463 -19.477555 -32.349942 41.113612 0.875145 2.476472 0.023975 -0.023655 -377200.000000 0 0 1
-16.327263 -19.187855 -30.861642 39.839607 0.865770 2.456953 0.014634 -0.013111 -285839.000000 0 0 1
-17.411863 -19.704555 -30.138112 39.996854 0.847090 2.424184 0.023096 -0.016165 -200350.000000 0 0 1
-17.394263 -19.455555 -28.719442 38.805739 0.841278 2.403989 0.027154 -0.008317 286079.000000 0 0 1
-16.405463 -20.283455 -27.791012 38.116901 0.890706 2.387802 0.012599 -0.007278 1022640.000000 0 0 1
-15.029163 -20.023055 -28.078192 37.618923 0.926916 2.413410 0.002571 -0.002263 477423.000000 0 0 1
-14.211263 -21.138755 -27.770162 37.682740 0.978914 2.399338 -0.003818 0.005494 969504.000000 0 0 1
-12.673263 -20.885155 -27.952542 37.123388 1.025387 2.423350 0.016505 -0.001630 592549.000000 0 0 1
-12.053063 -20.110055 -26.931462 35.707063 1.030851 2.425282 0.010924 -0.006006 -526619.000000 0 0 1
-10.659463 -20.198855 -26.979002 35.348048 1.085215 2.439107 0.000586 -0.010630 -337600.000000 0 0 1
-10.151863 -21.206655 -25.946552 35.014370 1.124324 2.405393 0.003608 -0.016710 -514306.000000 0 0 1
-10.274363 -22.600455 -26.349452 36.202718 1.144116 2.385950 0.007600 -0.022653 90368.500000 0 0 1
-9.724663 -23.429255 -25.354632 35.865812 1.177371 2.355945 0.037065 -0.023017 -232016.000000 0 0 1
-9.707463 -24.931955 -25.774832 37.150763 1.199497 2.337535 0.038311 -0.025675 -586444.000000 0 0 1
-8.656363 -25.225685 -26.661402 37.710717 1.240231 2.356041 0.041379 -0.032060 -244446.000000 0 0 1
-8.753563 -26.391065 -27.472522 39.087756 1.250529 2.350181 0.035352 -0.031423 -93213.200000 0 0 1
-8.659663 -27.745795 -26.643602 39.429690 1.268269 2.312743 0.034273 -0.030785 167472.000000 0 0 1
-9.793263 -28.003275 -25.808422 39.321319 1.234372 2.286763 0.033271 -0.028583 96921.900000 0 0 1
-9.687663 -29.138525 -24.997212 39.595014 1.249824 2.254053 0.054503 -0.030554 -778407.000000 0 0 1
-10.692663 -29.318015 -23.870812 39.289881 1.221075 2.223777 0.059530 -0.034145 -838372.000000 0 0 1
-10.659163 -28.323545 -22.870312 37.932732 1.210855 2.217949 0.058648 -0.038817 -346744.000000 0 0 1
-11.373163 -27.164525 -23.174912 37.474483 1.174293 2.237525 0.038256 -0.030518 -517916.000000 0 0 1
-11.210863 -26.147895 -22.036312 35.986038 1.165755 2.229835 0.040654 -0.024622 7993.550000 0 0 1
-11.951563 -26.451965 -20.868512 35.749701 1.146429 2.194123 0.033743 -0.025752 214721.000000 0 0 1
-11.897963 -25.350395 -19.953112 34.385037 1.131976 2.189875 0.030110 -0.018524 -211733.000000 0 0 1
-12.517463 -25.766255 -18.644812 34.179172 1.118566 2.147784 0.046968 -0.018565 -556393.000000 0 0 1
-13.893963 -25.980255 -18.745912 34.920268 1.079706 2.137460 0.059540 -0.021485 -571111.000000 0 0 1
-14.370063 -26.363885 -17.458512 34.732590 1.071749 2.097464 0.069070 -0.020863 -233337.000000 0 0 1
-15.886963 -26.423865 -17.288312 35.348296 1.029469 2.081836 0.076444 -0.025038 -1028470.000000 0 0 1
-16.651063 -25.226215 -17.318712 34.836154 0.987375 2.091105 0.070945 -0.018411 254614.000000 0 0 1
-18.005263 -25.395875 -16.959312 35.450786 0.954066 2.069617 0.089734 -0.017143 219235.000000 0 0 1
-18.991763 -26.161205 -17.870912 36.938669 0.942865 2.075787 0.064418 -0.004377 -1019430.000000 0 0 1
-18.741563 -27.524165 -18.085112 37.893234 0.972996 2.068336 0.070976 -0.007557 -111682.000000 0 0 1
-19.132663 -28.331455 -16.980912 38.171737 0.976830 2.031809 0.079200 -0.013757 1497250.000000 0 0 1
-20.661963 -28.813965 -16.903912 39.279811 0.948698 2.015672 0.059905 -0.003613 1647920.000000 0 0 1
-21.107363 -29.759365 -17.875112 40.628318 0.953877 2.026358 0.056852 0.001270 -459808.000000 0 0 1
-22.284463 -30.364235 -17.416412 41.495970 0.937676 2.003926 0.048843 0.008211 -245576.000000 0 0 1
-22.745863 -31.331325 -18.506212 42.912773 0.942847 2.016676 0.032284 0.009201 -109440.000000 0 0 1
-22.175163 -32.614375 -18.403312 43.521457 0.973674 2.007391 0.037697 0.004320 3865.450000 0 0 1
-22.466663 -33.264575 -19.605312 44.672712 0.976777 2.025132 0.020541 0.016683 177030.000000 0 0 1
-21.959563 33.977591 -19.633512 44.968588 -0.997030 2.022618 0.013782 0.010236 65419.300000 0 0 1
-22.650763 33.104088 -18.787612 44.293477 -0.970734 2.008833 0.007871 0.001509 264080.000000 0 0 1
-21.797963 31.967583 -18.581712 42.922693 -0.972337 2.018516 0.009686 -0.007224 486308.000000 0 0 1
-22.539763 30.713273 -18.003512 42.136356 -0.937694 2.012265 0.014475 -0.018421 152288.000000 0 0 1
-22.877963 30.827153 -16.621912 41.833032 -0.932347 1.979412 0.008381 -0.013661 -143843.000000 0 0 1
-23.492163 29.616633 -16.161212 41.112181 -0.900210 1.974797 0.001433 -0.009430 -284423.000000 0 0 1
-22.691063 28.305803 -16.119812 39.698252 -0.895056 1.988933 0.008064 -0.020173 -286160.000000 0 0 1
-22.274663 27.750883 -17.356712 39.592014 -0.894432 2.024602 0.007855 -0.021658 113723.000000 0 0 1
-21.380863 26.663473 -17.193012 38.258094 -0.894911 2.036885 0.019301 -0.012408 58805.400000 0 0 1
-20.820563 26.205103 -18.538112 38.260487 -0.899404 2.076615 0.026043 -0.019630 -899428.000000 0 0 1
-20.599863 24.806553 -18.518612 37.184115 -0.877780 2.092116 0.020894 -0.023367 -78596.200000 0 0 1
-20.088163 24.244773 -19.696212 37.138714 -0.878884 2.129800 0.017793 -0.019458 1590310.000000 0 0 1
-18.548763 24.581083 -20.010112 36.724527 -0.924361 2.147031 0.020282 -0.023486 1199990.000000 0 0 1
-17.708663 24.054503 -18.999612 35.400581 -0.936193 2.137322 0.040181 -0.028398 721336.000000 0 0 1
-16.570363 24.797703 -18.509412 35.101301 -0.981718 2.126233 0.048858 -0.037017 754215.000000 0 0 1
-16.808163 25.913773 -17.505412 35.503203 -0.995393 2.086406 0.050709 -0.035623 -410214.000000 0 0 1
-17.642363 26.913093 -17.992712 36.868757 -0.990543 2.080617 0.039663 -0.027281 -344927.000000 0 0 1
-17.331263 28.142173 -17.409712 37.355758 -1.018806 2.055619 0.044533 -0.033737 -566525.000000 0 0 1
-18.300063 29.224313 -17.849212 38.827145 -1.011340 2.048465 0.044169 -0.026869 -322611.000000 0 0 1
-18.357063 29.714923 -19.164612 39.840191 -1.017411 2.072634 0.032747 -0.028565 -118282.000000 0 0 1
-18.843363 28.862903 -20.138112 39.920960 -0.992415 2.099541 0.016954 -0.019806 -494371.000000 0 0 1
-18.943863 29.487793 -21.534612 41.135622 -0.999761 2.121753 0.015618 -0.021854 -253942.000000 0 0 1
-19.801263 30.545673 -21.788412 42.424793 -0.995652 2.110145 0.016298 -0.017974 -382329.000000 0 0 1
-19.597463 30.775643 -23.096412 43.181536 -1.003767 2.135148 0.024286 -0.015393 367221.000000 0 0 1
-20.420463 31.913893 -23.749112 44.715906 -1.001582 2.130708 0.024823 -0.003408 27616.600000 0 0 1
-19.819263 33.145395 -23.376212 45.142748 -1.031886 2.115107 0.011430 -0.000804 358892.000000 0 0 1
-20.469063 34.213375 -24.083812 46.578617 -1.031645 2.114206 0.022118 0.002817 266889.000000 0 0 1
-19.637063 -33.153555 -24.086112 45.441317 1.036053 2.129454 0.027783 0.003367 273872.000000 0 0 1
-19.503863 -32.473285 -22.867512 44.247464 1.029927 2.113916 0.040119 0.003406 675676.000000 0 0 1
-18.455863 -33.021425 -22.035412 43.778908 1.061141 2.098249 0.044010 -0.005862 283956.000000 0 0 1
-18.278563 -32.178365 -20.800212 42.452349 1.054209 2.082847 0.056053 -0.008331 14722.500000 0 0 1
-17.684263 -30.896665 -21.089312 41.377484 1.050942 2.105610 0.066715 -0.014226 188675.000000 0 0 1
-17.430663 -30.154275 -19.932112 40.129758 1.046673 2.090579 0.064098 -0.011866 157430.000000 0 0 1
-16.146263 -29.289705 -20.099512 39.020239 1.066986 2.111926 0.070303 -0.022604 648510.000000 0 0 1
-14.971063 -30.074025 -19.986312 39.090055 1.108905 2.107480 0.068202 -0.022712 406712.000000 0 0 1
-13.779363 -29.396345 -20.422512 38.354856 1.132465 2.132303 0.053282 -0.024731 -126315.000000 0 0 1
-12.620163 -30.362985 -20.599112 38.800810 1.176878 2.130451 0.074643 -0.029371 -113895.000000 0 0 1
-11.918063 -30.862655 -19.436212 38.370693 1.202274 2.101961 0.071388 -0.025574 502527.000000 0 0 1
-11.359063 -29.894035 -18.515112 36.952551 1.207669 2.095609 0.043651 -0.015933 45066.700000 0 0 1
-10.470663 -30.482565 -17.367012 36.611947 1.239927 2.065026 0.052840 -0.003757 445081.000000 0 0 1
-11.233863 -31.165505 -16.382712 36.957836 1.224835 2.030052 0.074854 -0.017527 -54845.200000 0 0 1
-11.600763 -32.466905 -16.722812 38.318796 1.227624 2.022404 0.081624 -0.013969 62520.500000 0 0 1
-12.493963 -33.192095 -15.688412 38.780673 1.210787 1.987274 0.087485 -0.017067 -141922.000000 0 0 1
-11.872663 -33.419085 -14.441112 38.292834 1.229438 1.957484 0.077625 -0.022218 -536383.000000 0 0 1
-12.657963 -34.241630 -13.677312 38.984383 1.216710 1.929265 0.084684 -0.022739 -396342.000000 0 0 1
-12.171663 34.350462 -12.232012 38.441199 -1.230262 1.894627 0.065737 -0.014353 55559.600000 0 0 1
-12.172363 -33.154335 -11.535312 37.154270 1.218932 1.886484 0.039986 -0.010395 25319.800000 0 0 1
-11.833463 -33.380215 -10.194512 36.853734 1.230114 1.851072 0.045975 -0.013302 -47182.900000 0 0 1
-10.500463 -32.706675 -9.817112 35.726209 1.260142 1.849165 0.037744 -0.012971 521159.000000 0 0 1
-9.297863 -33.172795 -10.404312 35.987975 1.297523 1.864088 0.020328 -0.011805 -1134340.000000 0 0 1
-8.220963 -32.411925 -10.068512 34.921227 1.322395 1.863269 0.015729 -0.015314 48826.100000 0 0 1
-6.908363 -33.108505 -10.628812 35.452366 1.365090 1.875285 0.008592 -0.022567 743485.000000 0 0 1
-6.499763 -34.260053 -9.883912 36.244860 1.383306 1.846993 0.004920 -0.006499 -671957.000000 0 0 1
-5.355563 33.914258 -10.450212 35.889635 -1.414175 1.866253 0.005582 -0.001648 -616950.000000 0 0 1
-4.783963 32.795722 -9.624812 34.512066 -1.425946 1.853427 0.005368 -0.001000 12459.300000 0 0 1
-4.168563 33.310355 -8.429512 34.612330 -1.446300 1.816811 0.010159 -0.008228 32884.500000 0 0 1
-3.543663 32.290053 -7.658512 33.374510 -1.461489 1.802331 0.015840 -0.015833 54102.000000 0 0 1
-3.093163 32.805865 -6.258712 33.540482 -1.476787 1.758498 0.019355 -0.012733 -479517.000000 0 0 1
-2.159963 33.855343 -6.211212 34.488097 -1.507083 1.751882 0.017026 -0.014803 -140006.000000 0 0 1
-1.789263 34.314350 -4.906812 34.709551 -1.518700 1.712639 0.023105 -0.012934 82597.300000 0 0 1
-0.833563 33.441424 -4.072512 33.698799 -1.545875 1.691943 0.035146 -0.020648 -455100.000000 0 0 1
0.521337 33.534504 -4.417712 33.828257 1.555251 1.701763 0.040524 -0.020771 -655221.000000 0 0 1
1.335937 32.625743 -3.769012 32.869885 1.529872 1.685714 0.042874 -0.022043 495100.000000 0 0 1
2.823337 32.641783 -4.248112 33.037913 1.484516 1.699736 0.051135 -0.013694 503083.000000 0 0 1
3.601837 33.651549 -3.685412 34.043829 1.464169 1.679264 0.047384 -0.008936 -174698.000000 0 0 1
4.979937 33.603481 -4.011912 34.206566 1.423670 1.688352 0.047572 -0.010357 516615.000000 0 0 1
5.726837 -33.859515 -3.507912 34.519109 -1.403247 1.672594 0.053351 -0.011776 15168.800000 0 0 1
5.419537 -32.722165 -4.252712 33.439454 -1.406663 1.698318 0.048097 -0.009838 -21531.200000 0 0 1
5.825637 -31.532655 -3.549712 32.262159 -1.388107 1.681047 0.044901 -0.014949 1713.780000 0 0 1
5.693537 -30.223265 -4.367312 31.063412 -1.384596 1.711857 0.036873 -0.006403 -112195.000000 0 0 1
6.660037 -30.155165 -5.394212 31.349444 -1.353427 1.743724 0.042846 -0.013986 -99685.700000 0 0 1
6.725537 -28.987855 -6.214112 30.399734 -1.342818 1.776661 0.031884 -0.005511 -372371.000000 0 0 1
7.124537 -27.622035 -5.549912 29.060926 -1.318369 1.762952 0.033760 -0.008063 609999.000000 0 0 1
6.177937 -27.046105 -4.611712 28.123418 -1.346227 1.735521 0.032000 -0.014652 267294.000000 0 0 1
6.781037 -25.901185 -4.060012 27.080206 -1.314739 1.721289 0.030294 -0.011497 29433.000000 0 0 1
5.908937 -25.155285 -3.050312 26.019384 -1.340081 1.688299 0.023715 -0.008858 -222125.000000 0 0 1
4.824937 -24.508455 -3.661412 25.245799 -1.376414 1.716340 0.026344 -0.011626 -848753.000000 0 0 1
3.923637 -24.062955 -2.708312 24.530710 -1.409162 1.681427 0.024596 -0.009333 -158479.000000 0 1 0
2.790937 -23.185855 -3.295112 23.584550 -1.451000 1.710970 0.032908 -0.013632 616727.000000 0 1 0
1.926237 -23.926355 -4.157612 24.361170 -1.490463 1.742301 0.032312 -0.012251 -148098.000000 0 1 0
0.828437 -23.257455 -4.729212 23.747863 -1.535191 1.771279 0.026283 -0.007814 246637.000000 0 1 0
-15.131163 23.284845 18.252978 33.231119 -0.994541 0.989302 0.006117 -0.002375 -89655.500000 0 0 1
-15.317663 22.654045 19.474978 33.572478 -0.976253 0.951960 0.015897 0.000839 326773.000000 0 0 1
-15.079363 23.606145 20.515578 34.720688 -1.002342 0.938654 0.015784 -0.000231 -1079720.000000 0 0 1
-14.989163 22.823745 21.865078 34.981137 -0.989701 0.895596 0.027263 -0.005253 824605.000000 0 0 1
-13.828763 21.917245 22.011478 34.001551 -1.007927 0.866672 0.021613 -0.002971 2887310.000000 0 0 1
-12.472363 22.420845 21.851478 33.700760 -1.063141 0.865319 0.007187 -0.010729 969024.000000 0 0 1
-12.105463 23.566345 22.792678 34.948834 -1.096268 0.860349 0.021353 0.009491 -1261640.000000 0 0 1
-11.873163 23.149745 24.138628 35.490225 -1.096894 0.822831 0.017853 0.006481 243496.000000 0 0 1
-11.593163 24.267645 25.041888 36.748009 -1.125130 0.821056 0.037220 0.005758 31262.200000 0 0 1
-11.244163 23.753645 26.447498 37.284541 -1.128682 0.782232 0.036044 0.001903 -263174.000000 0 0 1
-9.900663 23.366545 26.454928 36.658993 -1.170018 0.764615 0.008290 -0.001341 -728665.000000 0 0 1
-9.660963 22.506245 27.567668 36.876030 -1.165326 0.726390 0.005073 0.001357 576512.000000 0 0 1
-8.130963 22.084445 27.679598 36.331741 -1.218022 0.704621 -0.001854 -0.002316 1328240.000000 0 0 1
-7.267763 23.124145 28.082318 37.096672 -1.266279 0.712081 0.008978 -0.000107 -245328.000000 0 0 1
-6.997463 24.135545 27.107188 36.963342 -1.288609 0.747555 0.004161 0.000613 -607349.000000 0 0 1
-5.960363 25.187345 27.642768 37.868864 -1.338430 0.752532 0.008376 -0.009783 584463.000000 0 0 1
-4.610063 24.778945 27.517928 37.316017 -1.386852 0.741540 0.018780 -0.012344 299299.000000 0 0 1
-3.693463 25.699345 28.125138 38.276904 -1.428056 0.745453 0.032612 -0.011121 189038.000000 0 0 1
-2.226363 25.283345 28.109958 37.873130 -1.482966 0.734429 0.036020 -0.009495 -323432.000000 0 0 1
-1.560763 25.441945 26.872658 37.038740 -1.509527 0.758994 0.038557 -0.014278 -91604.400000 0 0 1
-0.223163 24.993445 26.872978 36.699851 -1.561868 0.749196 0.059011 -0.003546 340906.000000 0 0 1
0.212737 24.797745 25.374918 35.480415 1.562218 0.773913 0.059717 -0.008126 313676.000000 0 0 1
-0.382863 23.596545 24.841648 34.264427 -1.554572 0.759765 0.056688 -0.005176 341085.000000 0 0 1
0.031437 23.455245 23.494578 33.198565 1.569456 0.784561 0.051475 -0.002552 8139.250000 0 0 1
-0.487863 22.116445 22.904878 31.843501 -1.548741 0.768009 0.041504 -0.001357 -260038.000000 0 0 1
0.226937 21.018845 23.319378 31.394852 1.560000 0.733588 0.044983 -0.007662 -407580.000000 0 0 1
-0.120563 19.844445 22.660378 30.121575 -1.564721 0.719254 0.035293 -0.000805 -653783.000000 0 0 1
0.950537 18.797545 22.840978 29.596647 1.520272 0.689220 0.040206 0.004762 177806.000000 0 0 1
2.151137 19.135045 22.119378 29.326511 1.458848 0.716293 0.043068 -0.006503 511855.000000 0 0 1
3.112337 18.104645 22.281378 28.877753 1.400552 0.689482 0.029402 -0.000464 16310.800000 0 0 1
4.483137 18.359545 21.622178 28.717416 1.331297 0.718295 0.041817 -0.006958 373235.000000 0 0 1
5.396937 19.001545 22.520978 29.956303 1.294058 0.720017 0.041102 -0.002662 -678868.000000 0 0 1
6.661937 19.087245 21.942878 29.836123 1.234990 0.744471 0.053342 -0.013705 319096.000000 0 0 1
7.773937 19.571045 23.001178 31.185158 1.192692 0.741334 0.061504 -0.018802 497042.000000 0 0 1
7.581637 20.798145 23.699688 32.430222 1.221232 0.751317 0.046160 -0.016875 103046.000000 0 0 1
7.259537 22.002045 22.977278 32.630448 1.252095 0.789547 0.055427 -0.020736 -498422.000000 0 0 1
5.887637 22.544345 23.364478 32.997130 1.315344 0.784026 0.037019 -0.010824 -461797.000000 0 0 1
5.665937 23.762845 22.743778 33.377464 1.336730 0.821107 0.034650 -0.016175 148467.000000 0 0 1
4.453937 24.378545 23.140578 33.906303 1.390090 0.819638 0.033935 -0.009112 -159246.000000 0 0 1
4.302837 25.807345 22.530378 34.527545 1.405587 0.859873 0.047281 -0.011002 -72469.100000 0 0 1
4.021537 25.856345 21.096878 33.612521 1.416499 0.892266 0.051483 -0.013540 819651.000000 0 0 1
2.855337 25.158645 20.594678 32.638185 1.457787 0.887955 0.054090 -0.015750 589941.000000 0 0 1
2.439837 25.587545 19.152978 32.054825 1.475731 0.930408 0.052780 -0.012915 -112068.000000 0 0 1
1.981637 26.935145 19.143978 33.104695 1.497358 0.954170 0.060504 -0.016137 154771.000000 0 0 1
1.398937 27.245445 17.909378 32.634600 1.519496 0.989886 0.057321 -0.012115 381794.000000 0 0 1
0.306337 28.388345 17.940678 33.583625 1.560006 1.007224 0.047530 -0.005708 394706.000000 0 0 1
0.725337 29.683045 18.281878 34.868845 1.546365 1.018899 0.053258 0.000459 -91061.000000 0 0 1
-0.388663 30.506745 18.537678 35.699552 -1.558057 1.024801 0.043716 0.000292 -144754.000000 0 0 1
-0.052963 31.879345 19.116278 37.171595 -1.569135 1.030639 0.042828 0.008388 -219302.000000 0 0 1
0.418637 31.676745 20.417078 37.688838 1.557581 0.998305 0.044126 0.000841 -94729.800000 0 0 1
0.821337 32.922645 20.867878 38.987735 1.545854 1.006002 0.042848 -0.004225 -389388.000000 0 0 1
1.431837 32.916745 22.290178 39.779571 1.527325 0.975997 0.048632 -0.023430 -143754.000000 0 0 1
0.595537 32.453545 23.332978 39.975181 1.552448 0.947535 0.060991 -0.017491 196964.000000 0 0 1
1.204837 32.635945 24.590988 40.881209 1.533896 0.925390 0.070031 -0.031313 6604.730000 0 0 1
0.214837 32.151845 25.689318 41.154931 1.564114 0.896676 0.074345 -0.029963 392908.000000 0 0 1
-0.857863 33.100145 25.856038 42.010596 -1.544885 0.907821 0.068338 -0.024077 231077.000000 0 0 1
-1.720263 32.727945 26.886218 42.390404 -1.518282 0.883755 0.063988 -0.023324 -381181.000000 0 0 1
-1.371163 33.239345 28.282868 43.665258 -1.529569 0.866208 0.065845 -0.025423 -800296.000000 0 0 1
-0.243963 32.549445 28.761358 43.436639 -1.563301 0.847119 0.070781 -0.026434 -271269.000000 0 0 1
0.218137 33.342545 29.884588 44.775680 1.564254 0.840045 0.052416 -0.029128 -220681.000000 0 0 1
1.589437 32.852245 30.445098 44.818526 1.522453 0.823992 0.030683 -0.016907 937478.000000 0 0 1
2.797137 32.971245 29.692678 44.458768 1.486163 0.839453 0.030949 -0.025163 804736.000000 0 0 1
2.747637 32.208945 28.447938 43.061013 1.485696 0.849122 0.038836 -0.028181 -74687.100000 0 0 1
4.215537 31.814145 28.017408 42.601476 1.439059 0.853084 0.015492 -0.020781 1498650.000000 0 0 1
4.844437 30.704345 28.757998 42.346757 1.414309 0.824250 0.013155 -0.021176 614710.000000 0 0 1
6.250737 30.659945 28.596998 42.389766 1.369679 0.830346 0.006191 -0.025786 142083.000000 0 0 1
6.769537 29.410445 29.346518 42.095356 1.344562 0.799390 0.008331 -0.014478 -127815.000000 0 0 1
6.757537 29.577645 30.767068 43.210113 1.346184 0.778406 0.018174 -0.013528 71276.600000 0 0 1
7.350437 28.580945 31.535508 43.190133 1.319072 0.752247 0.010283 -0.005124 -334118.000000 0 0 1
7.145237 28.683045 33.057068 44.345701 1.326655 0.729601 0.032691 -0.010859 35278.800000 0 0 1
5.830537 28.471345 33.560739 44.395223 1.368803 0.713686 0.026580 -0.011146 196572.000000 0 0 1
5.836237 28.230645 -33.699632 44.347448 1.366934 2.433956 0.038377 -0.009269 -28776.200000 0 0 1
6.162037 26.777545 -33.297792 43.171178 1.344614 2.451672 0.038445 -0.013142 623324.000000 0 0 1
7.496837 26.343945 -33.581842 43.335276 1.293550 2.457402 0.036101 -0.013496 436748.000000 0 0 1
7.751337 25.024445 -33.183272 42.278075 1.270418 2.473301 0.048137 -0.016557 384681.000000 0 0 1
9.069237 24.331245 -33.640492 42.496391 1.214008 2.484233 0.035512 -0.013586 -159009.000000 0 0 1
9.168537 24.163245 33.586870 42.379267 1.208137 0.655849 0.024559 -0.005100 1068070.000000 0 0 1
10.477537 23.738845 33.128083 42.080654 1.155145 0.664456 0.031666 -0.016881 881355.000000 0 0 1
10.746037 22.273745 33.519290 41.655009 1.121285 0.635646 0.031449 -0.021784 -1278830.000000 0 0 1
10.240537 21.339245 32.641519 40.319980 1.123364 0.627391 0.023363 -0.023931 -60361.500000 0 0 1
9.938637 20.120045 33.287581 40.145433 1.111987 0.593166 0.015520 -0.021669 -271079.000000 0 0 1
8.569137 20.057645 33.960619 40.361651 1.167042 0.570913 0.034995 -0.025362 -779406.000000 0 0 1
8.592137 20.616345 -33.389022 40.170702 1.175923 2.552020 0.038763 -0.022190 -235069.000000 0 0 1
7.341537 20.726145 -32.758782 39.453885 1.230370 2.550452 0.041151 -0.016122 -340938.000000 0 0 1
7.458337 21.203745 -31.250762 38.494620 1.232567 2.518061 0.049614 -0.021517 -189964.000000 0 0 1
8.066437 22.465845 -31.152382 39.246051 1.226079 2.487781 0.063683 -0.019380 -1584.750000 0 0 1
7.922537 23.008045 -29.871922 38.528800 1.239175 2.458009 0.048232 -0.016746 -475367.000000 0 0 1
9.234937 23.205545 -29.115512 38.360063 1.192048 2.432581 0.044340 -0.014136 -235230.000000 0 0 1
9.929837 22.013345 -28.894002 37.657036 1.147042 2.445407 0.034773 -0.002150 225708.000000 0 0 1
11.347037 22.178145 -28.882932 38.142485 1.097887 2.429870 0.035841 -0.001556 454065.000000 0 0 1
12.099837 20.883445 -29.146112 37.842043 1.045663 2.449958 0.038026 -0.010888 -374119.000000 0 0 1
12.001937 20.229645 -30.390332 38.429901 1.035329 2.482910 0.033595 -0.010689 239693.000000 0 0 1
10.757937 19.586345 -30.683812 37.958589 1.068524 2.512140 0.040189 -0.011839 35956.400000 0 0 1
10.742037 18.398945 -31.669272 38.168774 1.042344 2.549396 0.039319 -0.020820 -352524.000000 0 0 1
11.503437 17.285345 -31.198712 37.476284 0.983600 2.554387 0.044333 -0.016079 227310.000000 0 0 1
11.562137 16.233745 -32.100422 37.784317 0.951910 2.585966 0.027607 -0.013703 -282285.000000 0 0 1
12.628837 16.269345 -33.218842 39.085427 0.910715 2.586599 0.021505 -0.001549 -361311.000000 0 0 1
12.518237 17.398245 -34.085962 40.264848 0.947095 2.580255 0.023837 -0.010752 76258.000000 0 0 1
13.230937 17.260345 33.346977 39.812035 0.916786 0.577902 0.026399 -0.013919 136632.000000 0 0 1
12.334437 16.871645 32.138478 38.336308 0.939518 0.576584 0.038180 -0.019058 -227135.000000 0 0 1
12.920037 17.309345 30.892828 37.694928 0.929590 0.610173 0.034757 -0.025678 587802.000000 0 0 1
12.132037 17.117645 29.684958 36.351022 0.954226 0.615267 0.034593 -0.020935 -180823.000000 0 0 1
10.744937 17.726945 29.517018 36.068721 1.025877 0.612253 0.021632 -0.017528 124627.000000 0 0 1
9.826037 17.020045 30.396998 36.196829 1.047219 0.573938 0.025513 -0.011787 91402.300000 0 0 1
8.555537 17.647945 30.453938 36.222776 1.119391 0.572148 0.024387 -0.012861 127665.000000 0 0 1
7.630137 16.776745 31.324608 36.344315 1.143954 0.531822 0.027139 -0.010847 -389684.000000 0 0 1
7.960037 16.897045 32.663930 37.627180 1.130543 0.519447 0.034545 -0.010976 143202.000000 0 0 1
7.373737 15.882545 33.462463 37.767230 1.136142 0.482110 0.043233 -0.011772 -240213.000000 0 0 1
7.713937 16.008845 -33.704362 38.102126 1.121770 2.656388 0.044103 -0.014842 -163521.000000 0 0 1
6.903437 16.968845 -33.067442 37.802842 1.184416 2.635684 0.045171 -0.020224 140142.000000 0 0 1
6.865937 16.788545 -31.658112 36.486058 1.182585 2.621307 0.047125 -0.021611 -381141.000000 0 0 1
6.021837 17.820745 -30.932472 36.203029 1.244931 2.595224 0.049987 -0.029534 -777489.000000 0 0 1
5.961737 17.812345 -29.511242 34.981929 1.247819 2.574775 0.039811 -0.034721 77596.800000 0 0 1
5.291937 18.960845 -28.954842 35.012871 1.298624 2.544506 0.056319 -0.043060 1852300.000000 0 0 1
3.696737 18.851345 -28.979872 34.768838 1.377154 2.556211 0.075642 -0.045697 707066.000000 0 0 1
3.182237 17.904945 -28.060432 33.438025 1.394903 2.566565 0.086069 -0.044529 1011220.000000 0 0 1
1.793937 17.559445 -28.248322 33.309459 1.468986 2.583104 0.076557 -0.042521 1238430.000000 0 0 1
0.702037 18.619945 -27.971132 33.609217 1.533111 2.553943 0.070464 -0.047617 -582788.000000 0 0 1
0.522637 19.007545 -26.653392 32.740850 1.543307 2.521925 0.078811 -0.044965 69977.700000 0 0 1
-0.593463 19.884445 -26.602392 33.217926 -1.540960 2.499500 0.079831 -0.044266 2786.410000 0 0 1
-0.929463 20.531045 -25.210052 32.525904 -1.525556 2.457632 0.062515 -0.046317 19544.700000 0 0 1
-1.670763 19.710545 -24.314112 31.344427 -1.486234 2.458632 0.055877 -0.040209 -7376.070000 0 0 1
-2.126163 20.407945 -23.197112 30.969514 -1.466988 2.417394 0.057340 -0.030026 57940.300000 0 0 1
-3.058063 19.414645 -22.403612 29.802718 -1.414567 2.421479 0.048094 -0.029603 -443989.000000 0 0 1
-4.364863 19.479345 -22.854612 30.345184 -1.350361 2.423641 0.044917 -0.023292 -1142520.000000 0 0 1
-5.220363 18.674545 -22.112612 29.410176 -1.298210 2.421689 0.037201 -0.026851 71166.400000 0 0 1
-6.758563 18.825845 -22.266212 29.931168 -1.226122 2.409705 0.081273 -0.028322 517337.000000 0 0 1
-7.397663 19.843645 -21.510112 30.185768 -1.213958 2.363981 0.050054 -0.018558 85471.600000 0 0 1
-7.006063 21.160945 -21.814812 31.189045 -1.251071 2.345408 0.039625 -0.023052 -492708.000000 0 0 1
-7.677063 22.232845 -20.920412 31.478569 -1.238312 2.297744 0.052159 -0.030382 -367882.000000 0 0 1
-7.174663 22.301945 -19.656712 30.581675 -1.259547 2.268893 0.043560 -0.027056 -1732.920000 0 0 1
-7.657663 23.357645 -18.803312 30.948084 -1.253994 2.223801 0.057589 -0.025668 -199817.000000 0 0 1
-6.933163 23.358545 -17.469812 29.981406 -1.282264 2.192829 0.061582 -0.021252 678148.000000 0 0 1
-5.533063 23.627445 -17.540612 29.942345 -1.340762 2.196679 0.051426 -0.025324 88726.000000 0 0 1
-4.868863 23.817045 -16.334812 29.287942 -1.369147 2.162447 0.066693 -0.017968 405499.000000 0 0 1
-3.394663 24.251945 -16.548412 29.555549 -1.431725 2.165072 0.071808 -0.021693 456115.000000 0 0 1
-3.321963 25.622245 -16.827612 30.833478 -1.441864 2.148090 0.056305 -0.022399 583448.000000 0 0 1
-2.010963 25.875245 -17.373512 31.231574 -1.493235 2.160699 0.042353 -0.027425 994056.000000 0 0 1
-1.549363 27.314245 -17.128512 32.277770 -1.514133 2.130175 0.033466 -0.037993 -127915.000000 0 0 1
-2.364663 28.281645 -17.765012 33.481916 -1.487379 2.130087 0.029558 -0.035718 -107167.000000 0 0 1
-1.884363 28.714645 -19.044412 34.507554 -1.505267 2.155427 0.032989 -0.034320 397120.000000 0 0 1
-3.013363 29.352945 -19.988812 35.640263 -1.468495 2.166207 0.047573 -0.028966 899355.000000 0 0 1
-3.508663 30.617745 -19.555312 36.498866 -1.456698 2.136226 0.031881 -0.010389 -345075.000000 0 0 1
-4.626263 30.470845 -18.712812 36.056123 -1.420121 2.116467 0.018116 -0.015413 -514124.000000 0 0 1
-5.035363 31.728545 -17.986412 36.818018 -1.413408 2.081191 0.041607 -0.012387 -335469.000000 0 0 1
-5.586263 32.606745 -18.911312 38.105693 -1.401121 2.090112 0.069151 -0.019588 -103815.000000 0 0 1
-5.662763 33.936045 -18.379312 39.006681 -1.405454 2.061429 0.054980 -0.033060 306881.000000 0 0 1
-6.694463 -33.825624 -19.085912 39.411429 1.375410 2.076329 0.051180 -0.020713 481019.000000 0 0 1
-8.016863 -34.266824 -18.856112 39.925409 1.340976 2.062676 0.062537 -0.023191 65976.400000 0 0 1
-8.974463 -33.464024 -19.551712 39.782551 1.308779 2.084567 0.085844 -0.029321 226806.000000 0 0 1
29.209437 -20.681555 -26.921442 44.784842 -0.616104 2.215709 0.014913 0.007068 63140.500000 0 0 1
28.752437 -21.853655 -26.359862 44.711601 -0.649910 2.201302 0.026535 -0.002501 -771294.000000 0 0 1
27.365737 -22.000755 -26.423742 43.944636 -0.677146 2.215919 0.017124 0.003125 -331580.000000 0 0 1
26.927337 -23.362755 -25.945822 44.091785 -0.714636 2.199937 0.012873 0.010096 193160.000000 0 0 1
27.353137 -24.460955 -26.846922 45.467458 -0.729638 2.202431 0.007734 0.018372 -104207.000000 0 0 1
28.598937 -25.045695 -26.531562 46.358493 -0.719258 2.180120 0.019812 0.019151 -37779.700000 0 0 1
28.825837 -26.456475 -27.118412 47.605486 -0.742565 2.176875 0.024783 0.005108 136409.000000 0 0 1
28.070937 -27.529105 -26.528122 47.429637 -0.775653 2.164356 0.028504 -0.008791 -7717.650000 0 0 1
28.311337 -28.820795 -27.116912 48.656932 -0.794315 2.161937 0.018107 0.001151 1120980.000000 0 0 1
27.115937 -29.152945 -28.129112 48.748490 -0.821584 2.185878 0.040073 -0.003323 244394.000000 0 0 1
27.112437 -28.486775 -29.369082 49.082824 -0.810112 2.212246 0.007740 -0.003552 662521.000000 0 0 1
28.227537 -28.642405 -30.306562 50.355427 -0.792693 2.216616 -0.000152 0.001545 633814.000000 0 0 1
28.603737 -30.068895 -30.875872 51.726509 -0.810365 2.210436 0.007497 0.001685 -362612.000000 0 0 1
29.195937 -31.004245 -30.010892 52.099133 -0.815427 2.184665 0.019653 -0.010333 1106080.000000 0 0 1
30.503137 -30.806885 -29.423702 52.395227 -0.790352 2.167081 0.026315 -0.009263 1755220.000000 0 0 1
31.788937 -30.520855 -30.278622 53.468254 -0.765050 2.172796 0.030586 -0.011742 474653.000000 0 0 1
31.631737 -29.249205 -30.902272 53.019178 -0.746284 2.193029 0.034266 -0.016669 -53910.000000 0 0 1
32.896237 -28.826655 -31.355292 53.817217 -0.719560 2.192752 0.040452 -0.018429 -169240.000000 0 0 1
32.744937 -27.401435 -32.061032 53.394563 -0.696789 2.214866 0.036974 -0.010386 26916.000000 0 0 1
32.504837 -26.276615 -31.267992 52.198777 -0.679836 2.213070 0.029150 -0.005655 405881.000000 0 0 1
31.170337 -26.020015 -30.827432 50.980013 -0.695585 2.220181 0.023282 -0.006734 333613.000000 0 0 1
31.132337 -24.687855 -29.991202 49.781371 -0.670456 2.217374 0.027874 -0.006271 -294280.000000 0 0 1
31.860137 -24.739455 -28.780372 49.552183 -0.660248 2.190519 0.025022 -0.006126 20173.100000 0 0 1
32.016537 -23.469055 -28.239512 48.716787 -0.632551 2.189116 0.020208 0.000519 160307.000000 0 0 1
33.087337 -23.484755 -27.105832 48.795817 -0.617260 2.159754 0.017925 -0.002994 -295572.000000 0 0 1
32.741837 -24.178655 -25.946472 48.268569 -0.636077 2.138318 0.017992 -0.006466 275933.000000 0 0 1
31.724137 -23.608055 -25.102472 46.839036 -0.639758 2.136406 0.023216 0.003198 435672.000000 0 0 1
32.166837 -22.334055 -24.214712 46.042022 -0.606903 2.124600 -0.002347 0.008648 70950.500000 0 0 1
32.488437 -21.222455 -25.014912 46.169655 -0.578643 2.143379 -0.005736 0.004246 -71333.300000 0 0 1
32.743737 -20.079555 -24.191712 45.393610 -0.550093 2.132858 -0.020007 -0.001165 -124659.000000 0 0 1
33.068337 -18.907755 -25.025412 45.577291 -0.519410 2.152055 -0.026160 0.001150 108625.000000 0 0 1
31.937737 -18.442955 -25.766532 44.989731 -0.523686 2.180617 -0.029029 0.006322 342386.000000 0 0 1
32.160637 -17.177555 -26.349072 44.984982 -0.490568 2.196577 -0.030388 0.004919 -226042.000000 0 0 1
31.188737 -16.838855 -27.517222 44.871839 -0.495057 2.230953 -0.027446 0.006682 -492941.000000 0 0 1
29.906037 -16.602155 -27.011892 43.584917 -0.506784 2.239225 -0.009941 0.008354 -290156.000000 0 0 1
29.012437 -16.663055 -28.134612 43.714247 -0.521339 2.269993 0.003894 -0.001998 -735142.000000 0 0 1
27.579137 -16.436955 -27.703112 42.405716 -0.537468 2.282714 0.013007 0.002413 -856802.000000 0 0 1
27.003137 -17.465555 -26.923552 41.941539 -0.574120 2.267810 0.009362 0.010831 -26096.600000 0 0 1
26.417037 -16.898355 -25.772152 40.590863 -0.569084 2.258708 0.006918 0.014937 -53798.700000 0 0 1
25.814737 -18.007455 -24.857512 40.106920 -0.609090 2.239260 0.017032 0.014548 -138415.000000 0 0 1
25.750437 -17.562855 -23.500412 39.035987 -0.598571 2.216824 0.016717 0.020131 -64534.200000 0 0 1
25.511837 -18.625955 -22.579712 38.828127 -0.630637 2.191404 0.017424 0.019409 -555060.000000 0 0 1
25.707337 -18.292255 -21.079512 37.944956 -0.618441 2.159795 0.009624 0.021332 -17936.600000 0 0 1
24.796737 -17.396355 -20.456012 36.550784 -0.611771 2.164772 0.028534 0.015658 88673.200000 0 0 1
24.677137 -16.112355 -21.077412 36.232947 -0.578430 2.191637 0.018939 0.014418 -319378.000000 0 0 1
25.858037 -15.165455 -20.852512 36.516522 -0.530426 2.178572 -0.001901 0.009724 -148756.000000 0 0 1
25.754437 -14.519755 -19.584112 35.463387 -0.513359 2.155839 -0.005786 -0.001892 289125.000000 0 0 1
26.892437 -13.723055 -19.381512 35.877130 -0.471849 2.141494 -0.022507 0.009561 -504363.000000 0 0 1
26.851037 -12.856255 -18.074612 34.827477 -0.446544 2.116448 -0.006199 0.001221 -323125.000000 0 0 1
27.124937 -13.463155 -16.785112 34.623096 -0.460714 2.076925 -0.009489 0.008126 371945.000000 0 0 1
27.036937 -12.533555 -15.792412 33.726641 -0.434083 2.058103 -0.017433 0.002647 -220171.000000 0 0 1
27.492237 -13.014455 -14.425112 33.664269 -0.442131 2.013627 0.004272 -0.008015 -271354.000000 0 0 1
26.636637 -14.025555 -13.922712 33.167282 -0.484662 2.003991 0.042207 -0.018927 631463.000000 0 0 1
27.229437 -14.599655 -12.733612 33.417616 -0.492165 1.961723 0.058680 -0.024458 106557.000000 0 0 1
26.393837 -15.746055 -12.157312 33.051069 -0.537902 1.947475 0.070947 -0.045887 83945.600000 0 0 1
25.050337 -15.498155 -11.800412 31.732664 -0.554042 1.951819 0.059289 -0.039649 386567.000000 0 0 1
24.332537 -16.680755 -11.460412 31.649029 -0.600950 1.941326 0.037567 -0.038316 933870.000000 0 0 1
22.874537 -16.371455 -10.945812 30.184099 -0.621190 1.941890 0.048850 -0.041563 394943.000000 0 0 1
22.791037 -15.989755 -9.575812 29.441465 -0.611786 1.902072 0.036256 -0.032380 295749.000000 0 0 1
21.429337 -15.797955 -9.256212 28.186333 -0.635266 1.905399 0.028024 -0.027634 -250907.000000 0 0 1
21.218237 -15.429955 -7.728812 27.350168 -0.628750 1.857287 0.027792 -0.023271 -536454.000000 0 0 1
21.535837 -14.094055 -7.392312 26.778368 -0.579495 1.850484 0.038687 -0.015170 451377.000000 0 0 1
21.363837 -13.822655 -5.999112 26.143234 -0.574272 1.802330 0.022828 -0.008495 -273918.000000 0 0 1
22.282437 -14.635255 -5.021812 27.127778 -0.581145 1.756987 0.024745 -0.002423 -246365.000000 0 0 1
23.644837 -14.328755 -5.166912 28.126296 -0.544819 1.755550 0.046038 -0.005700 35259.700000 0 0 1
24.517437 -15.136755 -4.400112 29.147677 -0.553106 1.722335 0.036879 -0.008760 -948372.000000 0 0 1
25.953937 -14.967655 -4.806712 30.343732 -0.523112 1.729875 0.057575 -0.015656 -1035620.000000 0 0 1
26.505137 -13.709255 -4.428112 30.167436 -0.477337 1.718113 0.060615 -0.008421 -257038.000000 0 0 1
27.824537 -13.438355 -4.787112 31.268366 -0.449929 1.724498 0.079206 -0.017507 -606497.000000 0 0 1
28.345037 -12.258155 -4.031512 31.144126 -0.408174 1.700608 0.085184 -0.021405 -796453.000000 0 0 1
28.734037 -12.537555 -2.657712 31.462655 -0.411429 1.655369 0.089153 -0.019922 470045.000000 0 0 1
29.036837 -11.340455 -1.912612 31.231426 -0.372337 1.632075 0.083026 -0.022407 410348.000000 0 0 1
30.488137 -10.762355 -2.075112 32.398471 -0.339346 1.634890 0.081963 -0.013781 304786.000000 0 0 1
30.768837 -10.395955 -3.436412 32.658937 -0.325831 1.676213 0.092224 -0.021556 824712.000000 0 0 1
32.076337 -10.882255 -3.774712 34.081716 -0.327076 1.681779 0.107624 -0.023568 428762.000000 0 0 1
32.223037 -10.783255 -5.291912 34.389055 -0.322930 1.725294 0.115327 -0.028829 -370958.000000 0 0 1
31.404537 -11.620355 -6.057412 34.028956 -0.354399 1.749758 0.098125 -0.037112 157461.000000 0 0 1
31.407237 -11.241755 -7.453212 34.181018 -0.343726 1.790614 0.093655 -0.034338 1011100.000000 0 0 1
30.087037 -11.796055 -8.161412 33.331448 -0.373647 1.818168 0.115560 -0.036359 1088130.000000 0 0 1
30.053637 -13.206955 -8.361012 33.875527 -0.414043 1.820189 0.100950 -0.037048 1262980.000000 0 0 1
28.668437 -13.610155 -8.468912 32.845671 -0.443239 1.831582 0.088485 -0.036812 1136420.000000 0 0 1
28.548037 -15.156755 -8.414712 33.399477 -0.488077 1.825482 0.091653 -0.039564 -76256.600000 0 0 1
29.033837 -15.737455 -9.581712 34.386632 -0.496710 1.853181 0.095442 -0.045200 250252.000000 0 0 1
29.190637 -17.134055 -9.324612 35.108654 -0.530784 1.839615 0.086665 -0.040601 -102417.000000 0 0 1
29.396637 -17.961455 -10.566312 36.033639 -0.548471 1.868405 0.076191 -0.042041 -1039970.000000 0 0 1
30.585737 -17.812655 -11.243512 37.137509 -0.527366 1.878377 0.074477 -0.030158 -598230.000000 0 0 1
30.680537 -18.391455 -12.552612 37.909222 -0.540015 1.908290 0.046748 -0.008427 16851.600000 0 0 1
30.066237 -17.521955 -13.767212 37.423705 -0.527660 1.947518 0.038421 -0.020176 37758.000000 0 0 1
30.709537 -16.293855 -14.031712 37.489390 -0.487811 1.954422 0.036022 -0.017346 79544.900000 0 0 1
30.133837 -15.573655 -15.104612 37.131337 -0.477010 1.989732 0.020130 -0.018657 -1308100.000000 0 0 1
30.998737 -14.367655 -15.572112 37.547862 -0.434017 1.998439 0.010506 -0.011672 600609.000000 0 0 1
32.078637 -14.744655 -16.441212 38.945569 -0.430842 2.006622 -0.015079 -0.007535 419670.000000 0 0 1
33.163037 -15.353255 -15.801212 39.814417 -0.433581 1.978902 0.000018 -0.007794 -1418130.000000 0 0 1
34.195037 -15.787255 -16.859212 41.264647 -0.432527 1.991676 0.003661 -0.012905 5998.560000 0 0 1
35.568037 -15.839255 -16.507912 42.290406 -0.418958 1.971804 0.015989 -0.012838 102975.000000 0 0 1
-35.407395 -16.472955 -17.556612 42.816779 0.435455 1.993295 0.023442 -0.018368 53807.300000 0 0 1
-33.865195 -16.283355 -17.426012 41.420587 0.448193 2.005023 0.037913 -0.014082 419466.000000 0 0 1
-33.194295 -16.906255 -16.316312 40.668228 0.471069 1.983629 0.040672 -0.020832 312585.000000 0 0 1
-33.657495 -16.580455 -15.004512 40.408834 0.457729 1.951224 0.030208 -0.019490 -598716.000000 0 0 1
-32.991195 -17.515155 -13.917412 39.860933 0.488064 1.927459 0.032995 -0.016610 -411199.000000 0 0 1
-31.695195 -17.202955 -13.524212 38.515340 0.497269 1.929583 0.037035 -0.014580 -561683.000000 0 0 1
-31.453695 -17.567055 -12.158012 38.023067 0.509350 1.896266 0.061372 -0.002976 -667507.000000 0 0 1
-30.012595 -17.306655 -11.766412 36.588586 0.523071 1.898201 0.070545 -0.002234 -862686.000000 0 0 1
-29.562495 -15.962255 -11.657112 35.561538 0.495094 1.904771 0.063372 -0.013920 26871.200000 0 0 1
-28.373795 -15.842755 -10.907112 34.278714 0.509238 1.894615 0.062581 -0.017393 -69725.400000 0 0 1
-28.540695 -15.782655 -9.350212 33.927717 0.505134 1.850002 0.066024 -0.013068 -364114.000000 0 0 1
-28.700395 -17.136355 -8.931712 34.599752 0.538268 1.831897 0.061984 -0.008311 48860.600000 0 0 1
-28.953195 -17.246555 -7.554112 34.536876 0.537230 1.791305 0.077064 -0.010484 -134556.000000 0 0 1
-29.198295 -18.749455 -7.170512 35.433018 0.570831 1.774572 0.079955 -0.018549 919415.000000 0 0 1
-30.442695 -19.309255 -7.646312 36.852017 0.565246 1.779802 0.067646 -0.013721 601500.000000 0 0 1
-30.347195 -19.830555 -8.968412 37.344820 0.578801 1.813318 0.072004 -0.007428 -373791.000000 0 0 1
-31.567095 -20.593355 -9.457312 38.858828 0.578038 1.816641 0.048255 -0.003654 -38663.700000 0 0 1
-32.714495 -19.840455 -9.828212 39.502856 0.545165 1.822235 0.036438 -0.004647 890653.000000 0 0 1
-33.856495 -20.684655 -10.038412 40.925383 0.548433 1.818611 0.019400 -0.004879 771611.000000 0 0 1
-35.130995 -19.971755 -10.564412 41.769183 0.516931 1.826497 0.014602 -0.014832 113086.000000 0 0 1
-35.191495 -19.576655 -11.909812 41.994409 0.507659 1.858347 0.008041 -0.016876 -220058.000000 0 0 1
35.160137 -19.223155 -12.157212 41.875563 -0.500330 1.865355 0.020707 -0.021793 -403262.000000 0 0 1
34.780337 -18.791955 -13.581212 41.800225 -0.495369 1.901710 0.017118 -0.022751 -88026.500000 0 0 1
35.128737 -19.834455 -14.449412 42.851130 -0.514000 1.914738 0.009799 -0.021619 268533.000000 0 0 1
34.585637 -19.592655 -15.760012 42.759987 -0.515420 1.948266 0.008006 -0.020416 -86722.700000 0 0 1
33.394537 -20.508455 -16.069612 42.355924 -0.550742 1.959938 0.010726 -0.020755 -357251.000000 0 0 1
32.363837 -20.284055 -15.111312 41.075694 -0.559857 1.947535 0.015609 -0.018115 122206.000000 0 0 1
31.282037 -21.194855 -15.131212 40.703088 -0.595493 1.951685 0.015726 -0.017548 64718.000000 0 0 1
30.210037 -21.039355 -16.183112 40.214350 -0.608330 1.984957 0.007772 -0.019744 -955068.000000 0 0 1
29.542137 -19.800355 -16.180612 39.071782 -0.590473 1.997778 0.008684 -0.009655 -452530.000000 0 0 1
28.749037 -19.591555 -17.252312 38.832699 -0.598180 2.031159 -0.001137 -0.007763 -691998.000000 0 0 1
28.021637 -18.225055 -17.147212 37.568493 -0.576651 2.044770 0.001827 -0.008710 348409.000000 0 0 1
27.029937 -18.187855 -16.114612 36.346889 -0.592291 2.030136 0.023042 -0.012930 721058.000000 0 0 1
26.372537 -16.918255 -15.958012 35.162427 -0.570384 2.041863 0.008685 -0.002925 787151.000000 0 0 1
24.914537 -16.938855 -15.309312 33.793994 -0.597093 2.040945 0.020550 -0.013877 1269690.000000 0 0 1
23.863937 -17.498655 -16.051112 33.664947 -0.632706 2.067796 0.030846 -0.008059 328745.000000 0 0 1
23.459937 -16.654755 -17.152112 33.495440 -0.617355 2.108393 0.023398 0.001594 -517074.000000 0 0 1
22.477837 -17.341255 -18.136912 33.688572 -0.657109 2.139298 0.029498 0.000560 -62300.200000 0 0 1
21.228837 -17.684755 -17.605412 32.762244 -0.694573 2.138111 0.044395 0.002378 14612.800000 0 0 1
20.314837 -18.025855 -18.681912 32.964192 -0.725768 2.173332 0.047669 -0.013838 1122740.000000 0 0 1
18.855337 -18.210255 -18.168312 31.893961 -0.767996 2.176873 0.047942 -0.009103 226807.000000 0 0 1
18.090137 -17.096655 -17.815412 30.609437 -0.757171 2.192011 0.061016 -0.012619 -299559.000000 0 0 1
16.779937 -17.437555 -17.476712 29.850798 -0.804615 2.196255 0.065080 -0.020278 -809754.000000 0 0 1
15.864237 -16.288955 -17.288812 28.564088 -0.798607 2.220894 0.074812 -0.014749 -820492.000000 0 0 1
15.217537 -15.714155 -18.422312 28.598771 -0.801452 2.270727 0.084073 -0.008541 156532.000000 0 0 1
14.083737 -15.031155 -17.919112 27.301683 -0.817927 2.286750 0.074955 -0.004832 -171237.000000 0 0 1
13.183137 -14.687255 -19.138912 27.491973 -0.839314 2.340836 0.073047 -0.012247 24438.400000 0 0 1
13.630037 -13.557555 -19.916712 27.681414 -0.782732 2.373875 0.081532 -0.022995 148667.000000 0 0 1
12.774237 -13.331155 -21.014412 27.973315 -0.806728 2.420721 0.068314 -0.011167 123069.000000 0 0 1
12.693137 -11.885655 -21.498512 27.650869 -0.752557 2.461475 0.057902 -0.010309 -18469.300000 0 0 1
13.912637 -11.445355 -22.070312 28.489583 -0.688405 2.457005 0.061237 -0.007621 58506.200000 0 0 1
13.831637 -10.098655 -22.372112 28.174607 -0.630651 2.488243 0.033515 -0.008634 336939.000000 0 0 1
15.139937 -9.659455 -23.078612 29.242865 -0.567901 2.480310 0.052380 -0.004698 354792.000000 0 0 1
15.235437 -10.138355 -24.445612 30.536745 -0.587157 2.498977 0.043380 -0.004120 -229986.000000 0 0 1
16.432737 -9.725755 -25.044712 31.493853 -0.534407 2.490176 0.069451 -0.014682 -116469.000000 0 0 1
22.240137 4.777145 -6.960312 23.788459 0.211583 1.867733 0.063248 0.003135 -160195.000000 0 1 0
22.180237 6.231845 -7.004312 24.080266 0.273902 1.865936 0.036934 0.002853 597656.000000 0 1 0
21.345137 6.693845 -5.945212 23.146663 0.303887 1.830557 0.020894 0.001534 -235718.000000 0 1 0
21.239737 8.244445 -6.047712 23.572699 0.370259 1.830253 0.020904 0.002749 -350210.000000 0 1 0
20.338737 8.634745 -7.077012 23.201447 0.401487 1.880761 0.024747 0.010243 532139.000000 0 1 0
20.123137 10.024545 -7.328912 23.646249 0.462175 1.885926 0.026633 0.016248 192971.000000 0 1 0
19.459937 10.853245 -6.179012 23.122765 0.508753 1.841310 0.029316 0.008510 -373695.000000 0 1 0
20.367237 11.087745 -5.147012 23.754035 0.498527 1.789208 0.035544 0.005070 -332412.000000 0 1 0
19.941737 12.007145 -4.194512 23.652449 0.541970 1.749079 0.062012 -0.003753 557551.000000 0 1 0
20.971337 12.317945 -3.015512 24.507592 0.531081 1.694153 0.054592 -0.012989 -193701.000000 0 1 0
22.196137 12.884745 -3.393612 25.888255 0.525954 1.702262 0.059475 -0.021335 -2938.090000 0 0 1
22.925637 13.272445 -2.240412 26.584997 0.524786 1.655170 0.058185 -0.018678 -75735.800000 0 0 1
23.850737 12.146245 -1.727212 26.821115 0.471029 1.635238 0.037323 -0.016723 -1322810.000000 0 0 1
24.872537 11.724445 -2.593112 27.619376 0.440492 1.664822 0.024044 -0.015714 26389.800000 0 0 1
25.629037 10.804145 -1.840312 27.874071 0.398952 1.636867 0.031745 -0.021228 -702984.000000 0 0 1
27.022037 10.442445 -2.334912 29.063499 0.368764 1.651221 0.042436 -0.022208 -120626.000000 0 0 1
27.947537 11.542945 -2.294512 30.324399 0.391681 1.646534 0.043768 -0.026455 -122391.000000 0 0 1
29.255837 11.059845 -2.356312 31.365210 0.361432 1.645992 0.057205 -0.028123 228591.000000 0 0 1
30.289237 12.240245 -1.992712 32.729687 0.384046 1.631718 0.060041 -0.031804 371685.000000 0 0 1
30.292437 12.587945 -0.604512 32.809351 0.393837 1.589222 0.072455 -0.030453 553108.000000 0 0 1
31.136637 13.710145 -0.292512 34.022696 0.414777 1.579394 0.077022 -0.037618 287278.000000 0 0 1
32.594837 13.300645 0.106288 35.204288 0.387435 1.567777 0.079032 -0.043284 794152.000000 0 0 1
33.529237 14.386945 0.226188 36.486231 0.405327 1.564597 0.075207 -0.043875 581374.000000 0 0 1
34.224537 14.845945 -0.927612 37.317308 0.409284 1.595656 0.076073 -0.032121 -442272.000000 0 0 1
33.522937 15.843945 -1.849612 37.124641 0.441513 1.620639 0.040260 -0.013589 -504615.000000 0 0 1
32.439237 15.241545 -2.516212 35.929655 0.439237 1.640885 0.053731 -0.015727 -422430.000000 0 0 1
31.771037 16.218645 -3.289012 35.822630 0.472001 1.662740 0.039387 -0.005592 -1064630.000000 0 0 1
30.445737 15.680045 -3.739812 34.449861 0.475588 1.679569 0.056209 -0.016614 -1758080.000000 0 0 1
30.389037 14.869845 -4.953212 34.192692 0.455064 1.716170 0.047761 -0.019229 188369.000000 0 0 1
29.129637 14.761945 -5.582712 33.130310 0.469047 1.740112 0.037147 -0.026749 -2943.900000 0 0 1
27.938637 14.117845 -4.836012 31.674406 0.467891 1.724075 0.045569 -0.027497 -674465.000000 0 0 1
26.797137 14.284445 -5.648812 30.887554 0.489743 1.754715 0.050587 -0.029227 232466.000000 0 0 1
25.726837 13.501345 -5.103612 29.499209 0.483287 1.744680 0.044788 -0.013886 158424.000000 0 0 1
24.616037 13.160645 -6.096812 28.571366 0.490972 1.785839 0.036227 -0.012317 -394848.000000 0 0 1
25.076037 12.351745 -7.111412 28.843464 0.457687 1.819917 0.030920 -0.004059 847652.000000 0 0 1
24.129437 12.198045 -8.217512 28.258619 0.468058 1.865856 0.026479 0.005421 638092.000000 0 0 1
23.937937 13.429445 -9.123612 28.924300 0.511258 1.891707 0.027637 0.002552 -156722.000000 0 0 1
23.057537 14.414745 -8.632912 28.530020 0.558717 1.878206 0.035633 -0.008088 -18399.400000 0 0 1
22.846337 15.440845 -9.587512 29.194095 0.594338 1.905412 0.038389 -0.016488 -558399.000000 0 0 1
21.745737 16.457645 -9.188312 28.777704 0.647853 1.895772 0.037373 -0.013487 553629.000000 0 0 1
20.423137 15.952645 -9.015212 27.438394 0.663114 1.905577 0.029487 -0.009250 575371.000000 0 0 1
20.189937 15.242645 -7.806812 26.474858 0.646670 1.870123 0.023604 -0.013188 -899877.000000 0 0 1
18.736937 14.728245 -7.767612 25.066508 0.666179 1.885863 0.019712 -0.007306 -478570.000000 0 0 1
17.900337 15.775945 -7.344512 24.964863 0.722399 1.869408 0.038783 -0.017334 -921617.000000 0 1 0
16.590837 15.306245 -7.477512 23.779197 0.745147 1.890680 0.049142 -0.009878 -601862.000000 0 1 0
15.801637 15.524245 -6.182312 22.998150 0.776543 1.842962 0.050698 -0.003990 -402720.000000 0 1 0
15.932537 14.402645 -5.284812 22.118118 0.735008 1.812066 0.018684 -0.008913 359921.000000 0 1 0
15.657437 14.976545 -4.042312 22.040701 0.763175 1.755243 0.032482 -0.000794 -463470.000000 0 1 0
15.579037 13.962745 -2.893912 21.119644 0.730741 1.708253 0.038502 0.006086 -662381.000000 0 1 0
16.729537 13.174445 -2.632312 21.456292 0.667070 1.693789 0.039341 0.000542 546945.000000 0 1 0
16.526037 12.393345 -1.449012 20.707596 0.643455 1.640828 0.033598 -0.003483 88600.900000 0 1 0
16.549437 13.125145 -0.037812 21.122375 0.670511 1.572586 0.039542 -0.009858 -42968.000000 0 1 0
15.503537 14.099445 0.062588 20.956095 0.738003 1.567810 0.037654 -0.014187 517614.000000 0 1 0
15.601037 14.939545 1.177288 21.632576 0.763742 1.516347 0.035157 -0.014827 -211783.000000 0 1 0
14.370437 15.870545 1.395388 21.455320 0.834963 1.505713 0.038606 -0.015730 -234713.000000 0 1 0
14.263137 16.984945 0.531488 22.185759 0.872282 1.546838 0.045797 -0.020638 400203.000000 0 1 0
13.258737 17.877045 1.006788 22.279956 0.932652 1.525593 0.037895 -0.020418 134312.000000 0 1 0
13.288837 19.287645 0.399688 23.425759 0.967503 1.553734 0.027557 -0.011499 -258534.000000 0 1 0
12.900137 19.326245 -0.928012 23.254644 0.982222 1.610713 0.040360 -0.015199 498584.000000 0 1 0
12.156137 20.500545 -1.386312 23.873958 1.035565 1.628897 0.031825 -0.017098 76992.100000 0 1 0
10.664037 20.586745 -1.116612 23.211690 1.092849 1.618921 0.031441 -0.020422 -595845.000000 0 1 0
10.232737 20.624745 0.213488 23.024651 1.110242 1.561524 0.021168 -0.021650 -611188.000000 0 1 0
8.850137 20.421945 0.282488 22.258943 1.161863 1.558105 0.014029 -0.024199 -153659.000000 0 1 0
8.270937 20.311445 1.711388 21.997546 1.184094 1.492919 0.013871 -0.021234 22577.000000 0 1 0
8.127937 21.579945 2.254788 23.169839 1.210586 1.473326 0.008352 -0.008470 -430464.000000 0 1 0
7.098637 21.574445 3.174688 22.933075 1.252924 1.431918 0.007983 -0.016242 -902378.000000 0 1 0
6.732737 22.992645 3.716188 24.244618 1.285938 1.416911 0.004657 -0.009331 539504.000000 0 1 0
7.669637 23.521145 4.683488 25.179409 1.255593 1.383702 0.004073 -0.007988 504989.000000 0 0 1
7.176237 24.689945 5.289188 26.250090 1.287936 1.367915 0.002332 -0.010612 -132486.000000 0 0 1
7.828837 25.071145 6.601888 27.082059 1.268126 1.324542 -0.002474 -0.009406 -297201.000000 0 0 1
7.304637 24.245945 7.591088 26.435736 1.278172 1.279544 0.008926 -0.019340 -55404.800000 0 0 1
7.919137 24.397945 8.838288 27.130937 1.256942 1.238976 0.011320 -0.017930 -311626.000000 0 0 1
7.447037 23.384345 9.880788 26.455924 1.262489 1.188037 0.014296 -0.019880 469344.000000 0 0 1
6.246037 23.714345 10.579888 26.707998 1.313259 1.163496 0.012457 -0.016057 374875.000000 0 0 1
5.732137 22.704145 11.440388 26.061812 1.323493 1.116343 0.008242 -0.011898 531109.000000 0 0 1
4.314137 23.118545 11.948888 26.379060 1.386309 1.100704 0.012814 -0.012279 716523.000000 0 0 1
3.363837 23.391245 10.921788 26.033654 1.427968 1.137874 0.005935 -0.011220 -228267.000000 0 0 1
2.164337 23.828845 11.490588 26.543018 1.480216 1.123084 0.006076 -0.009818 278648.000000 0 0 1
0.950937 24.080845 10.543288 26.304986 1.531327 1.158396 0.018584 -0.009113 -85532.100000 0 0 1
1.293837 25.087545 9.558988 26.878116 1.519269 1.207195 0.027620 -0.013056 182980.000000 0 0 1
0.364837 25.220945 8.488788 26.613693 1.556332 1.246161 0.021257 -0.013952 239414.000000 0 0 1
-0.971863 25.897145 8.864688 27.389584 -1.533286 1.241210 0.036637 -0.016534 245430.000000 0 0 1
-1.788163 25.124645 9.760288 27.013117 -1.499744 1.201117 0.037211 -0.014385 755069.000000 0 0 1
-3.146863 25.601745 9.721388 27.565512 -1.448494 1.210379 0.055931 -0.023819 943782.000000 0 0 1
-4.265963 24.752745 10.401088 27.186015 -1.400130 1.178199 0.069045 -0.024531 349057.000000 0 0 1
-4.380363 24.776445 11.800788 27.790616 -1.395809 1.132241 0.043441 -0.013983 -338976.000000 0 0 1
-5.182663 25.823645 12.212488 29.032145 -1.372733 1.136630 0.062359 -0.019632 -557143.000000 0 0 1
-5.684763 25.655045 13.658588 29.615112 -1.352735 1.091445 0.022787 -0.014404 65033.200000 0 0 1
-6.786463 24.760545 13.776888 29.136631 -1.303282 1.078288 0.042928 -0.025026 245456.000000 0 0 1
-7.188363 24.750645 15.109688 29.875904 -1.288141 1.040547 0.017602 -0.007323 156694.000000 0 0 1
-8.351563 23.801845 15.506888 29.609795 -1.233339 1.019598 0.022421 -0.019518 8938.410000 0 0 1
-9.626263 24.215645 15.117288 30.126313 -1.192428 1.045122 0.011640 -0.010021 -190624.000000 0 0 1
-10.632863 23.257645 15.462488 29.884182 -1.141990 1.026970 0.013771 -0.014253 513917.000000 0 0 1
-12.063363 23.708345 15.108988 30.592349 -1.100115 1.054249 0.010042 -0.019064 -102976.000000 0 0 1
-12.453063 24.853345 15.832588 31.991223 -1.106300 1.053072 0.016241 -0.018900 -563624.000000 0 0 1
-13.739863 25.208845 15.430888 32.594201 -1.071768 1.077622 0.014554 -0.018728 -935629.000000 0 0 1
-14.252063 26.405245 16.240488 34.119081 -1.075862 1.074702 0.027884 -0.026090 -223983.000000 0 0 1
-15.583763 26.240645 16.713688 34.796155 -1.034890 1.069764 0.022735 -0.028441 342288.000000 0 0 1
-15.900663 27.180645 17.705688 36.126305 -1.041480 1.058586 0.039554 -0.020669 1211720.000000 0 0 1
-17.189363 26.698145 18.539088 36.769048 -0.998763 1.042337 0.038181 -0.023339 1507880.000000 0 0 1
-18.404363 26.996945 17.860588 37.236490 -0.972444 1.070537 0.032616 -0.029908 199144.000000 0 0 1
-19.510063 26.615045 18.663888 37.912318 -0.938234 1.056077 0.038717 -0.017238 559996.000000 0 0 1
-20.896263 26.816745 17.971388 38.454679 -0.908852 1.084517 0.040922 -0.027454 120568.000000 0 0 1
-21.267863 28.161245 17.865488 39.554435 -0.923964 1.102162 0.031110 -0.030427 343200.000000 0 0 1
-22.161663 28.342945 16.766488 39.693537 -0.907183 1.134707 0.037416 -0.028231 -321529.000000 0 0 1
-23.080863 29.550945 16.884788 41.122750 -0.907715 1.147690 0.024079 -0.031529 -131016.000000 0 0 1
-24.272063 29.274645 17.607788 41.906706 -0.878552 1.137168 0.018453 -0.024775 692795.000000 0 0 1
-25.186973 30.380945 17.467688 43.156755 -0.878598 1.154091 0.017879 -0.021209 216218.000000 0 0 1
-26.602663 30.169845 18.011788 44.072051 -0.848149 1.149779 0.027236 -0.015816 -623638.000000 0 0 1
-27.451153 29.319045 17.289488 43.727549 -0.818289 1.164303 0.040352 -0.008913 505326.000000 0 0 1
-28.789513 29.309245 17.800088 44.773999 -0.794344 1.161947 0.055756 -0.010017 401814.000000 0 0 1
-29.036833 28.241045 18.838788 44.672074 -0.771506 1.135463 0.052009 -0.009507 -898937.000000 0 0 1
-28.904873 26.916145 18.336488 43.545347 -0.749786 1.136150 0.045100 -0.010260 327781.000000 0 0 1
-29.156433 25.869945 19.310888 43.500138 -0.725743 1.110820 0.044718 -0.008768 -169964.000000 0 0 1
-29.078493 24.496345 18.615688 42.334070 -0.700078 1.115495 0.036624 -0.009143 -816111.000000 0 0 1
-30.130533 24.292045 17.757188 42.582510 -0.678526 1.140647 0.044384 -0.010311 -726003.000000 0 0 1
-29.978363 23.074945 17.073088 41.504766 -0.656003 1.146859 0.046542 -0.008470 -432122.000000 0 0 1
-30.521983 21.736745 17.695288 41.439120 -0.618845 1.129603 0.036274 -0.002367 365672.000000 0 0 1
-31.911723 21.540445 17.448388 42.270498 -0.593750 1.145293 0.037799 -0.003040 435444.000000 0 0 1
-32.229103 20.154645 17.329488 41.776021 -0.558855 1.143052 0.028297 -0.001188 274384.000000 0 0 1
-33.576013 19.707745 16.696388 42.361695 -0.530775 1.165666 0.031290 -0.013676 231964.000000 0 0 1
-33.696063 19.875945 15.297188 42.005735 -0.532930 1.198056 0.024844 -0.008016 181099.000000 0 0 1
-34.983543 19.479145 14.852788 42.707033 -0.508056 1.215591 0.029110 -0.009806 304584.000000 0 0 1
-35.247064 19.669245 13.313388 42.502717 -0.508994 1.252198 0.035211 0.004077 73929.600000 0 0 1
-35.194817 21.073845 12.932388 43.011960 -0.539520 1.265402 0.018047 -0.001422 -57778.500000 0 0 1
-35.418408 21.492745 11.597888 43.022235 -0.545422 1.297841 0.011183 0.003295 59033.600000 0 0 1
-34.270357 21.208745 10.608588 41.675056 -0.554176 1.313409 0.023379 0.000354 -112725.000000 0 0 1
-34.358304 19.853045 10.185688 40.968093 -0.523954 1.319536 0.044795 -0.001637 -688193.000000 0 0 1
-33.341143 19.543445 9.322688 39.755384 -0.530185 1.334091 0.064498 -0.010799 -812680.000000 0 0 1
-32.341293 18.517245 9.879388 38.554505 -0.519997 1.311661 0.049604 -0.018191 -189198.000000 0 0 1
-31.857233 19.023745 11.105088 38.731242 -0.538326 1.279993 0.043589 -0.008895 -363554.000000 0 0 1
-31.116743 18.057145 11.758788 37.849455 -0.525811 1.254896 0.049070 -0.007729 -186707.000000 0 0 1
-30.985363 18.474345 13.192788 38.411505 -0.537641 1.220199 0.031771 -0.001353 -21502.400000 0 0 1
-29.970193 19.441845 13.367788 38.143093 -0.575465 1.212730 0.041740 -0.006258 -162335.000000 0 0 1
-30.425133 20.737945 13.582088 39.245689 -0.598274 1.217408 0.050522 -0.007551 86103.300000 0 0 1
-29.248213 21.717445 13.720188 38.927482 -0.638698 1.210603 0.046541 -0.011460 -51061.100000 0 0 1
-28.430833 21.585045 14.803288 38.644064 -0.649371 1.177681 0.038350 -0.007044 -93515.800000 0 0 1
-27.231123 22.354645 14.777588 38.205252 -0.687369 1.173643 0.069242 -0.014136 191256.000000 0 0 1
-26.393203 22.412245 16.063788 38.170081 -0.704010 1.136417 0.058355 -0.017303 -480666.000000 0 0 1
-25.678713 21.206845 16.230788 37.048144 -0.690307 1.117313 0.080532 -0.016269 21631.300000 0 0 1
-25.256663 21.052345 17.553588 37.272358 -0.694858 1.080424 0.077010 -0.014295 14758.900000 0 0 1
-24.309563 19.838545 17.796488 36.072672 -0.684469 1.054858 0.084725 -0.017621 113653.000000 0 0 1
-23.838663 19.843345 19.141588 36.447778 -0.694188 1.017872 0.068749 -0.015725 -44530.800000 0 0 1
-22.799363 18.899545 19.244088 35.317681 -0.692146 0.994544 0.064374 -0.011071 -34405.200000 0 0 1
-22.211163 18.973345 20.665188 35.782307 -0.706942 0.955102 0.051021 -0.021172 92109.400000 0 0 1
-23.214163 18.634345 21.610188 36.785002 -0.676394 0.942864 0.038495 -0.007550 250947.000000 0 0 1
-22.890463 19.033345 22.886788 37.550586 -0.693653 0.915376 0.052926 -0.015623 -332333.000000 0 0 1
-23.730663 18.289445 23.911288 38.332725 -0.656624 0.897223 0.025433 -0.021142 -282031.000000 0 0 1
-23.308963 16.958645 24.096188 37.570329 -0.628983 0.874524 0.031141 -0.010687 230363.000000 0 0 1
-23.968163 16.392845 25.216388 38.458606 -0.599868 0.855719 0.036373 -0.002705 -582210.000000 0 0 1
20.550537 25.332645 33.613540 46.839487 0.889247 0.770399 0.015519 -0.002005 70787.500000 0 0 1
21.412237 24.326045 33.108313 46.329265 0.849018 0.774700 0.026031 -0.016287 25012.600000 0 0 1
21.159937 23.022845 33.635643 45.925492 0.827537 0.748962 0.024227 -0.019847 -344566.000000 0 0 1
20.099337 22.208645 32.906653 44.497810 0.835213 0.738452 0.026319 -0.023476 -245721.000000 0 0 1
20.557937 21.598445 31.706808 43.525203 0.810075 0.754710 0.021922 -0.022526 -83084.100000 0 0 1
19.610237 20.629145 31.383328 42.367869 0.810714 0.736634 0.044612 -0.021989 -376263.000000 0 0 1
19.792637 19.962745 30.020368 41.127633 0.789677 0.752574 0.036082 -0.013594 104821.000000 0 0 1
21.052037 19.311745 29.940628 41.383245 0.742310 0.761943 0.031702 -0.013783 99417.000000 0 0 1
21.244837 18.649945 28.681148 40.271228 0.720446 0.778170 0.030096 -0.009893 -37206.900000 0 0 1
22.429737 17.652945 28.688878 40.469387 0.666784 0.782854 0.037825 -0.005178 438464.000000 0 0 1
23.701837 18.292045 28.739418 41.500966 0.657280 0.805848 0.041928 -0.011788 -234680.000000 0 0 1
24.628137 17.424845 29.313088 42.064564 0.615754 0.799787 0.039142 -0.004228 -1036780.000000 0 0 1
25.988437 18.018045 29.582158 43.303036 0.606222 0.818739 0.040061 -0.014024 -584078.000000 0 0 1
26.879837 17.869445 28.474958 43.042606 0.586702 0.847909 0.036641 -0.011587 -829253.000000 0 0 1
28.055237 18.529245 28.703238 44.207524 0.583690 0.864154 0.046207 -0.015620 -866746.000000 0 0 1
29.297237 18.190545 27.881378 44.346311 0.555643 0.890891 0.046339 0.002081 -237288.000000 0 0 1
29.132737 18.599145 26.593398 43.610244 0.568197 0.914992 0.042400 -0.011666 298618.000000 0 0 1
30.182437 18.202345 25.709018 43.626351 0.542679 0.940604 0.046980 -0.006682 -50341.100000 0 0 1
30.448737 19.376845 24.681578 43.723769 0.566738 0.970983 0.046609 -0.009148 82320.300000 0 0 1
29.359037 19.916445 23.926508 42.791303 0.596065 0.977443 0.034190 -0.006412 362611.000000 0 0 1
29.729437 21.010545 23.071778 43.099761 0.615225 1.005920 0.017737 -0.010952 22965.300000 0 0 1
30.419737 20.729445 21.681078 42.721651 0.598166 1.038520 0.029907 -0.003285 -113446.000000 0 0 1
29.608237 19.881045 20.845378 41.309000 0.591321 1.041854 0.025713 -0.003175 598589.000000 0 0 1
30.265537 19.378745 19.677078 40.972258 0.569519 1.069852 0.032959 -0.000135 388575.000000 0 0 1
31.276137 18.192945 19.979978 41.332548 0.526846 1.066267 0.058272 -0.009916 117237.000000 0 0 1
30.693837 16.955045 20.376278 40.555862 0.504678 1.044395 0.065612 -0.006623 87248.600000 0 0 1
31.657937 15.936445 20.507578 40.948212 0.466360 1.046253 0.057317 -0.008832 -505473.000000 0 0 1
31.075337 14.533545 20.850578 40.145325 0.437465 1.024674 0.057060 -0.014675 459940.000000 0 0 1
30.406137 14.237045 22.115978 40.203770 0.437910 0.988316 0.039563 -0.018343 -224007.000000 0 0 1
29.208037 14.880945 22.308078 39.651006 0.471204 0.973256 0.050624 -0.014073 -1345230.000000 0 0 1
28.444437 14.235145 23.508878 39.552405 0.464011 0.934311 0.022041 -0.011709 -161800.000000 0 0 1
28.008637 12.966345 23.176578 38.597456 0.433563 0.926709 0.029290 -0.007530 -516336.000000 0 0 1
27.358137 12.389845 24.217708 38.580738 0.425243 0.892182 0.019216 -0.000801 -517173.000000 0 0 1
26.838237 11.013545 23.821978 37.537658 0.389412 0.883285 0.025064 0.002231 221075.000000 0 0 1
25.656537 11.005845 23.011978 36.179244 0.405227 0.881422 0.017037 0.010269 396611.000000 0 0 1
25.402037 9.734345 22.604778 35.369436 0.365950 0.877462 0.017412 0.013663 -580163.000000 0 0 1
24.141637 9.655045 21.744178 33.894658 0.380449 0.874315 0.023147 0.005781 -507707.000000 0 0 1
22.972537 9.553745 22.536678 33.569530 0.394118 0.834777 0.016083 0.002969 783202.000000 0 0 1
21.926137 8.922745 21.745678 32.144135 0.386480 0.827789 0.014295 0.011558 145062.000000 0 0 1
20.524337 9.083345 22.319278 31.652895 0.416653 0.788196 0.012142 0.000189 -574577.000000 0 0 1
20.136437 8.543145 23.548778 32.140417 0.401246 0.748539 0.026442 0.002003 312590.000000 0 0 1
18.756537 8.463945 23.853308 31.502799 0.423895 0.711810 0.024014 -0.004892 76185.900000 0 0 1
18.422037 7.656745 25.119028 32.077450 0.393907 0.671203 0.022528 0.004480 -717243.000000 0 0 1
18.619837 6.289045 24.925368 31.741525 0.325730 0.667679 0.029274 0.002182 223272.000000 0 0 1
18.263337 5.588245 26.070448 32.317894 0.296935 0.632271 0.018137 -0.007220 -309377.000000 0 0 1
18.673337 4.089045 26.093558 32.346369 0.215575 0.632263 0.032063 -0.015397 -665378.000000 0 0 1
20.046137 3.880345 26.026898 33.080268 0.191206 0.665221 0.053728 -0.010019 -544146.000000 0 0 1
20.261137 2.481645 25.896598 32.974324 0.121876 0.667525 0.050534 -0.006977 -527774.000000 0 0 1
21.730637 2.209645 25.599578 33.651769 0.101335 0.706374 0.050889 -0.003202 -760818.000000 0 0 1
22.581237 2.646445 26.609108 34.999437 0.116664 0.707064 0.056333 -0.007782 -789012.000000 0 0 1
23.921237 2.514145 26.247458 35.601623 0.104716 0.741799 0.061196 -0.005316 -621814.000000 0 0 1
24.835637 3.026945 27.347758 37.065768 0.121281 0.740966 0.052044 -0.005930 -1557280.000000 0 0 1
24.779537 2.279745 28.553468 37.875101 0.091743 0.716841 0.053413 -0.010257 191788.000000 0 0 1
25.600837 2.738845 29.628178 39.252173 0.106577 0.715422 0.042667 0.000500 1672860.000000 0 0 1
27.167737 2.765845 29.345048 40.085754 0.101457 0.749460 0.037901 -0.001990 458121.000000 0 0 1
27.463837 3.839445 28.468178 39.742180 0.138900 0.772280 0.025354 0.016142 -26919.500000 0 0 1
28.794337 3.840045 27.960208 40.319140 0.132579 0.804499 0.010992 0.020065 273739.000000 0 0 1
29.152537 2.840845 26.853318 39.737156 0.097141 0.828783 0.021366 0.016277 -412098.000000 0 0 1
28.736137 3.162845 25.567588 38.593662 0.109624 0.846670 0.005404 0.030309 284604.000000 0 0 1
29.336037 2.147645 24.729978 38.428990 0.073078 0.871703 0.029829 0.025803 -100277.000000 0 0 1
28.976537 2.255145 23.235278 37.210261 0.077670 0.896392 0.026097 0.014642 119342.000000 0 0 1
29.657637 3.187445 22.409778 37.308624 0.107064 0.926471 0.025814 0.019253 -949781.000000 0 0 1
31.029937 3.082245 22.245878 38.304521 0.099007 0.951130 0.017770 0.015704 -770748.000000 0 0 1
31.612737 4.403845 21.741278 38.619195 0.138415 0.972827 0.005990 0.016022 -377391.000000 0 0 1
31.158537 4.740045 20.408978 37.547954 0.150969 0.996142 0.009698 0.004043 9639.660000 0 0 1
31.436537 6.053345 19.952778 37.722834 0.190229 1.013456 0.030428 0.002232 167432.000000 0 0 1
32.939037 6.352645 19.604978 38.854748 0.190521 1.041911 0.010175 0.000012 1240010.000000 0 0 1
33.845837 6.308345 20.763378 40.205146 0.184270 1.028113 0.007676 0.002081 803717.000000 0 0 1
33.681637 7.407545 21.669078 40.729269 0.216482 1.009803 0.025897 -0.006090 -1106220.000000 0 0 1
34.416937 7.279345 22.971378 42.014267 0.208433 0.992316 0.039657 0.003579 -495769.000000 0 0 1
33.897637 6.306945 23.791948 41.891338 0.183955 0.966790 0.037255 0.014970 197500.000000 0 0 1
34.633237 6.274645 24.986818 43.164492 0.179230 0.953449 0.036875 0.011869 -122547.000000 0 0 1
33.933037 5.384545 25.997748 43.085116 0.157369 0.923033 0.038075 0.017966 -47111.200000 0 0 1
33.971637 4.017845 25.598818 42.726043 0.117724 0.928372 0.038327 0.013740 -68325.000000 0 0 1
33.046637 3.242045 26.299658 42.358743 0.097792 0.900933 0.025562 0.018957 -142733.000000 0 0 1
33.315737 1.742045 26.080808 42.345975 0.052241 0.907271 0.027840 0.021101 337317.000000 0 0 1
32.473837 1.252945 25.014178 41.010110 0.038564 0.914797 0.040878 0.014764 237035.000000 0 0 1
32.884237 -0.038055 24.510418 41.013841 -0.001157 0.930275 0.044082 0.009715 -628856.000000 0 0 1
31.912437 -0.722955 23.575308 39.682761 -0.022650 0.934657 0.053263 0.017973 -1226380.000000 0 0 1
30.816337 -1.230655 24.226138 39.218197 -0.039914 0.904947 0.057201 0.012825 -1211870.000000 0 0 1
30.112537 -2.031555 23.287978 38.121150 -0.067363 0.913607 0.057253 0.006951 -1154520.000000 0 0 1
28.708237 -2.343755 23.726658 37.317696 -0.081460 0.881749 0.064019 0.012270 -1113520.000000 0 0 1
27.974537 -1.175755 23.594718 36.615132 -0.042005 0.870561 0.045124 0.010922 -137845.000000 0 0 1
26.561137 -1.365755 23.548578 35.523159 -0.051374 0.846100 0.047360 0.011399 823996.000000 0 0 1
25.725537 -0.052255 23.587778 34.902569 -0.002031 0.828723 0.053568 0.005376 146747.000000 0 0 1
25.846837 0.753645 22.406478 34.215161 0.029150 0.856786 0.044283 0.004538 176230.000000 0 0 1
24.850237 1.763145 22.412878 33.510895 0.070832 0.838171 0.046574 0.005451 92977.200000 0 0 1
24.870737 2.804745 21.296578 32.862812 0.112298 0.865782 0.043171 0.005483 -225641.000000 0 0 1
24.514737 2.407645 19.997978 31.728351 0.097898 0.888873 0.057941 0.001472 130286.000000 0 0 1
23.910337 3.432145 19.261578 30.894858 0.142568 0.897641 0.046670 -0.000518 -104842.000000 0 0 1
23.454037 2.944545 17.882078 29.640023 0.124892 0.923153 0.047893 -0.003259 -325120.000000 0 0 1
24.498337 2.583645 17.023878 29.944218 0.105074 0.966091 0.037495 -0.017549 -146702.000000 0 0 1
24.333737 3.148345 15.720078 29.140414 0.128667 1.001001 0.029058 -0.006571 -37225.100000 0 0 1
23.709137 2.235445 14.627578 27.947924 0.094008 1.019975 0.035263 0.004155 -194720.000000 0 0 1
22.337737 1.949945 14.635478 26.776371 0.087073 0.992519 0.036933 0.004686 26356.900000 0 0 1
21.961737 0.936745 13.708478 25.905941 0.042628 1.013182 0.036885 -0.002892 -803303.000000 0 0 1
20.493337 0.486145 13.689078 24.649626 0.023718 0.982017 0.048406 -0.017211 -457388.000000 0 1 0
19.676637 1.218245 12.793678 23.501753 0.061834 0.995157 0.063600 -0.016973 283539.000000 0 1 0
19.920437 1.181845 11.391778 22.978102 0.059259 1.052079 0.078240 -0.023374 -1282660.000000 0 1 0
19.729937 -0.183355 10.659278 22.425973 -0.009293 1.075481 0.080873 -0.027593 81763.000000 0 1 0
20.655937 -1.261055 10.935878 23.406227 -0.060975 1.084651 0.065795 -0.026226 1584380.000000 0 1 0
21.941637 -0.986355 10.308478 24.262586 -0.044923 1.131977 0.076786 -0.024327 203409.000000 0 1 0
22.996237 -1.937055 10.825878 25.490758 -0.084035 1.132168 0.065738 -0.013188 -257550.000000 0 0 1
23.558937 -1.714955 12.151078 26.563383 -0.072666 1.095685 0.061920 -0.023782 437607.000000 0 0 1
24.479137 -2.656255 12.629578 27.672913 -0.108088 1.096865 0.046213 -0.012634 -91276.100000 0 0 1
24.778137 -2.472355 14.145678 28.638590 -0.099451 1.054184 0.045672 -0.010471 467845.000000 0 0 1
25.857537 -1.566455 14.415178 29.645630 -0.060506 1.063004 0.032250 -0.004237 618605.000000 0 0 1
25.742437 -1.094455 15.755478 30.201093 -0.042490 1.021971 0.039053 -0.001303 -121.873000 0 0 1
26.991937 -0.308355 16.158478 31.460391 -0.011423 1.031405 0.054719 -0.001180 171700.000000 0 0 1
28.230837 -1.009255 16.187178 32.558002 -0.035735 1.050451 0.062321 -0.008372 -24281.700000 0 0 1
29.244237 -0.047455 16.166078 33.415113 -0.001623 1.065810 0.055329 -0.001959 -504455.000000 0 0 1
30.660737 -0.648155 16.073578 34.624570 -0.021136 1.088037 0.065677 -0.001516 -106592.000000 0 0 1
30.983537 -1.253755 14.871878 34.390758 -0.040443 1.123601 0.064502 0.000800 -351711.000000 0 0 1
32.044937 -2.158455 14.983078 35.440508 -0.067256 1.134300 0.061542 0.006714 -261941.000000 0 0 1
32.431337 -2.663355 13.576978 35.259317 -0.081939 1.175523 0.055677 -0.000069 -248424.000000 0 0 1
33.272137 -1.789155 12.877578 35.722097 -0.053722 1.202000 0.060125 -0.011526 -63049.800000 0 0 1
33.413237 -2.123755 11.521778 35.407713 -0.063475 1.239358 0.068324 -0.010682 -125898.000000 0 0 1
33.017637 -1.095955 10.457878 34.651590 -0.033181 1.264215 0.089611 -0.005664 -536278.000000 0 0 1
33.851537 0.004045 10.382578 35.407973 0.000119 1.273196 0.065978 -0.000712 285643.000000 0 0 1
33.033837 1.128545 10.092978 34.559749 0.034150 1.274433 0.075027 -0.003517 -39355.000000 0 0 1
33.777237 2.277945 9.413978 35.138494 0.067338 1.299573 0.080035 -0.011457 -171797.000000 0 0 1
34.223337 2.066245 8.078878 35.224629 0.060302 1.339383 0.057961 -0.007794 305836.000000 0 0 1
34.511937 3.283445 7.457978 35.460912 0.094854 1.358899 0.055544 -0.006907 -114802.000000 0 0 1
35.074637 3.224745 6.011078 35.731810 0.091682 1.401765 0.054145 -0.010859 -66798.900000 0 0 1
35.300737 4.534145 5.549878 36.020851 0.127744 1.416106 0.041809 -0.003041 227742.000000 0 0 1
35.671637 4.596445 4.182078 36.208877 0.128148 1.455039 0.034366 -0.008984 -449770.000000 0 0 1
-35.567495 5.960145 3.798878 36.262950 -0.166030 1.465845 0.028590 -0.022371 -557554.000000 0 0 1
35.107337 6.936245 3.803878 35.987583 0.195060 1.464899 0.063602 -0.030152 -369637.000000 0 0 1
35.546637 8.222545 3.335078 36.637364 0.227319 1.479641 0.053865 -0.033174 -321573.000000 0 0 1
34.389037 9.307245 3.302878 35.779040 0.264314 1.478351 0.097730 -0.049351 1583310.000000 0 0 1
33.354937 9.091045 2.282978 34.646947 0.266091 1.504856 0.111512 -0.049719 964965.000000 0 0 1
32.536337 7.964145 2.543278 33.593290 0.240057 1.495016 0.120666 -0.046703 -1188460.000000 0 0 1
31.226537 7.811245 1.753878 32.236443 0.245118 1.516363 0.137917 -0.049013 -239592.000000 0 0 1
31.267437 7.842045 0.346578 32.237717 0.245737 1.560045 0.134481 -0.051396 48115.700000 0 0 1
30.022037 7.728345 -0.328522 31.002548 0.251952 1.581393 0.131130 -0.044033 154791.000000 0 0 1
30.257537 7.581845 -1.837822 31.247088 0.245522 1.629646 0.112387 -0.037907 -472292.000000 0 0 1
29.150437 7.035645 -2.472622 30.089236 0.236827 1.653065 0.094488 -0.033090 102741.000000 0 0 1
29.492537 6.942645 -3.800822 30.536148 0.231194 1.695590 0.118008 -0.033733 -522360.000000 0 0 1
28.461037 6.324945 -4.745022 29.538971 0.218678 1.732131 0.087990 -0.030728 -680194.000000 0 0 1
28.347837 4.914545 -4.764822 29.162581 0.171660 1.734920 0.093563 -0.031942 -45038.400000 0 0 1
27.353237 4.476345 -5.588322 28.274840 0.162212 1.769749 0.053888 -0.023360 -1167480.000000 0 0 1
27.230037 2.911545 -5.633122 27.958614 0.106519 1.773666 0.074921 -0.023511 -629609.000000 0 0 1
26.743537 2.326045 -4.475522 27.215025 0.086758 1.735997 0.065725 -0.024034 368129.000000 0 0 1
26.507037 0.956445 -4.691122 26.935932 0.036067 1.745847 0.062175 -0.021481 -328526.000000 0 0 1
26.242837 0.195145 -3.416522 26.465019 0.007436 1.700253 0.053110 -0.025359 415155.000000 0 0 1
27.444137 0.104445 -2.637922 27.570822 0.003806 1.666621 0.090920 -0.027147 1169190.000000 0 0 1
27.175737 -0.444955 -1.322722 27.211547 -0.016372 1.619424 0.081865 -0.022036 -200656.000000 0 0 1
28.213837 0.139145 -0.375422 28.216678 0.004932 1.584102 0.091644 -0.017696 -625559.000000 0 0 1
29.547737 -0.157455 -0.643622 29.555166 -0.005329 1.592575 0.115598 -0.018292 -685930.000000 0 0 1
30.381737 0.602145 0.178078 30.388226 0.019817 1.564936 0.113943 -0.011705 -169080.000000 0 0 1
-2.988263 -21.157255 -8.489212 22.991866 1.430484 1.948973 0.014649 -0.003028 224719.000000 0 1 0
-3.250663 -21.656055 -7.224112 23.059474 1.421805 1.889443 0.014957 -0.009466 -377420.000000 0 1 0
-2.438463 -22.778855 -6.978712 23.948378 1.464153 1.866493 0.018093 -0.007587 -74829.600000 0 1 0
-2.859563 -23.448355 -5.656612 24.289910 1.449444 1.805833 0.016278 -0.004680 -350837.000000 0 1 0
-2.561363 -22.782955 -4.442412 23.352916 1.458842 1.762192 0.011657 -0.003090 -117846.000000 0 1 0
-3.102463 -23.448755 -3.306112 23.883044 1.439252 1.709672 0.016944 -0.006708 -47554.000000 0 1 0
-2.937963 -22.701055 -2.011212 22.978567 1.442092 1.658434 0.021745 -0.020178 493954.000000 0 1 0
-1.565663 -22.798355 -1.637312 22.910633 1.502230 1.642322 0.030324 -0.015963 8672.670000 0 1 0
-1.381163 -22.430255 -0.278412 22.474463 1.509298 1.583185 0.039011 -0.021125 792702.000000 0 1 0
0.147337 -22.495055 0.037488 22.495569 -1.564247 1.569130 0.040115 -0.022938 481739.000000 0 1 0
0.962637 -21.455855 -0.514212 21.483594 -1.525960 1.594734 0.021167 -0.018636 -324859.000000 0 1 0
2.208037 -21.646255 0.135888 21.759004 -1.469142 1.564551 0.021581 -0.009844 -278585.000000 0 1 0
3.171337 -20.544855 -0.325912 20.790736 -1.417643 1.586473 0.023424 -0.000929 195712.000000 0 1 0
3.775237 -20.866155 -1.616712 21.266467 -1.391806 1.646891 0.017791 -0.001167 283692.000000 0 1 0
4.584337 -19.843555 -2.289312 20.494482 -1.343756 1.682734 0.022646 0.004897 661475.000000 0 1 0
5.449137 -20.524555 -3.363612 21.500334 -1.311289 1.727886 0.022686 0.013914 -1076000.000000 0 1 0
6.475137 -21.288455 -2.843412 22.432359 -1.275526 1.697893 0.029395 0.004413 -847748.000000 0 1 0
7.144437 -21.955755 -3.895912 23.415301 -1.256201 1.737957 0.023147 0.006668 458647.000000 0 1 0
8.385537 -21.330355 -4.599112 23.376337 -1.196229 1.768830 0.034441 0.007576 172814.000000 0 1 0
8.022837 -20.232155 -5.402712 22.425328 -1.193277 1.814110 0.025789 0.011660 752056.000000 0 1 0
9.223637 -19.716755 -6.014912 22.583293 -1.133233 1.840394 0.033813 0.011708 555346.000000 0 1 0
8.853637 -18.485755 -6.798312 21.594608 -1.124135 1.891058 0.019459 0.016965 -103085.000000 0 1 0
9.747537 -18.127855 -7.860412 22.032243 -1.077437 1.935603 0.017072 0.019981 246359.000000 0 1 0
9.380137 -16.999455 -8.605412 21.237269 -1.066580 1.987998 0.009394 0.022713 134414.000000 0 1 0
10.181437 -16.795255 -9.944112 22.014260 -1.025824 2.039480 0.014256 0.017447 -219543.000000 0 1 0
9.665737 -17.601155 -11.039012 22.914776 -1.068603 2.073438 0.020455 0.018967 227551.000000 0 1 0
8.676837 -16.845455 -11.706612 22.273340 -1.095154 2.124203 0.003090 0.007863 -157561.000000 0 1 0
8.202537 -17.299155 -13.068412 23.180289 -1.128035 2.169743 0.008211 -0.002955 -332943.000000 0 1 0
7.388737 -18.416255 -12.839712 23.634934 -1.189250 2.145101 0.004002 0.012282 -339042.000000 0 1 0
6.963337 -18.917655 -14.047512 24.570274 -1.218100 2.179407 -0.001694 0.011084 605772.000000 0 1 0
5.739337 -19.907455 -13.807312 24.897563 -1.290107 2.158636 -0.007259 0.022245 401714.000000 0 1 0
6.034837 -21.175055 -13.281512 25.713825 -1.293160 2.113569 0.006586 0.012278 -465413.000000 0 0 1
4.970137 -22.006355 -12.863112 25.970014 -1.348673 2.088984 0.021085 0.005962 -9398.290000 0 0 1
5.296737 -23.529055 -12.750112 27.280712 -1.349373 2.057107 0.001554 -0.003700 -755260.000000 0 0 1
5.596437 -24.092455 -13.991512 28.417054 -1.342554 2.085599 0.016905 -0.007255 -290126.000000 0 0 1
5.130837 -25.412515 -14.155112 29.537919 -1.371573 2.070560 0.007483 0.007194 849397.000000 0 0 1
3.570137 -25.499645 -14.326712 29.465785 -1.431693 2.078550 0.017819 -0.003464 678511.000000 0 0 1
2.790337 -25.104515 -13.175012 28.488658 -1.460102 2.051570 0.026945 -0.004029 -310518.000000 0 0 1
1.413237 -25.215365 -13.467312 28.621328 -1.514808 2.060692 0.026087 -0.009137 225634.000000 0 0 1
0.709037 -26.467395 -12.843612 29.427608 -1.544014 2.022443 0.023522 -0.005376 -279647.000000 0 0 1
1.056037 -27.644345 -13.605612 30.829170 -1.532614 2.027868 0.025004 -0.004110 157697.000000 0 0 1
0.634337 -28.920285 -13.088912 31.750668 -1.548866 1.995708 0.015113 -0.005284 -665175.000000 0 0 1
-0.753463 -29.389155 -13.455712 32.331817 1.545165 2.000032 0.000980 -0.002161 -426255.000000 0 0 1
-1.807363 -28.549395 -13.026212 31.432734 1.507574 1.998097 0.006306 -0.009707 607725.000000 0 0 1
-3.100363 -29.038865 -13.450712 32.152599 1.464433 2.002413 0.012911 -0.009527 126825.000000 0 0 1
-4.201663 -28.226875 -12.823212 31.286503 1.423028 1.993101 0.004653 -0.008925 -630343.000000 0 0 1
-4.523563 -28.180565 -11.437812 30.747853 1.411633 1.951945 0.011863 -0.023864 -55305.500000 0 0 1
-5.037963 -29.430005 -10.962612 31.806999 1.401255 1.922673 0.006405 -0.014728 -683584.000000 0 0 1
-5.565963 -29.344745 -9.514612 31.346800 1.383348 1.879189 0.013850 -0.015392 -348597.000000 0 0 1
-6.880063 -28.882155 -9.359212 31.130516 1.336943 1.876164 0.026223 -0.015051 -795166.000000 0 0 1
-7.013763 -27.479135 -9.465212 29.897926 1.320892 1.892923 0.029828 -0.016808 -447452.000000 0 0 1
-8.486063 -27.108225 -9.016112 29.802004 1.267416 1.878146 0.035227 -0.009712 1598740.000000 0 0 1
-9.532563 -27.322925 -9.975312 30.609130 1.235115 1.902753 0.043909 -0.011090 380254.000000 0 0 1
-9.624163 -28.672155 -10.389812 31.979137 1.246951 1.901695 0.043333 -0.021323 -1830700.000000 0 0 1
-10.705563 -28.903555 -11.439412 32.876812 1.216074 1.926177 0.048951 -0.023868 -107851.000000 0 0 1
-10.339963 -28.371175 -12.677812 32.750044 1.221304 1.968290 0.068717 -0.022874 -182381.000000 0 0 1
-11.213563 -28.897515 -13.617312 33.856190 1.200637 1.984726 0.069685 -0.030007 -408166.000000 0 0 1
-11.528963 -27.922835 -14.809612 33.644113 1.179230 2.026600 0.078609 -0.027668 463957.000000 0 0 1
-12.746363 -27.151745 -14.783812 33.440218 1.131887 2.028731 0.065186 -0.031662 526529.000000 0 0 1
-12.930863 -26.228025 -13.735312 32.307512 1.112751 2.009916 0.077448 -0.025469 -286509.000000 0 0 1
-13.964463 -25.135255 -13.984012 31.974050 1.063685 2.023452 0.091765 -0.030182 -273201.000000 0 0 1
-13.509163 -24.241255 -14.978412 31.535516 1.062381 2.065726 0.083588 -0.030883 747255.000000 0 0 1
-14.574063 -23.355955 -15.364212 31.527179 1.012918 2.079828 0.094349 -0.034066 504290.000000 0 0 1
-14.049463 -22.675255 -16.649212 31.444410 1.016094 2.128785 0.075941 -0.032888 472549.000000 0 0 1
-13.411063 -21.384955 -16.425812 30.116113 1.010670 2.147682 0.061533 -0.024138 424274.000000 0 0 1
-13.009563 -20.803355 -17.620212 30.207618 1.011939 2.193586 0.031319 -0.015154 -549523.000000 0 0 1
-13.086763 -19.263755 -17.581612 29.179937 0.974067 2.217456 0.035783 -0.016886 -146257.000000 0 0 1
-11.992163 -18.563855 -17.048912 27.912257 0.997242 2.227872 0.034288 -0.011931 -93339.000000 0 0 1
-12.335863 -17.128155 -16.970612 27.084108 0.946635 2.247965 0.044576 -0.010890 610513.000000 0 0 1
-11.118463 -16.183655 -17.306712 26.173521 0.968836 2.293253 0.047857 -0.019719 557364.000000 0 0 1
-10.297063 -16.177355 -16.153012 25.073016 1.003962 2.270824 0.051187 -0.021006 386118.000000 0 0 1
-9.135863 -15.368255 -16.393012 24.256507 1.034458 2.312872 0.051703 -0.021593 261347.000000 0 1 0
-8.370663 -14.794455 -15.150912 22.770465 1.055906 2.298793 0.038275 -0.024871 -132577.000000 0 1 0
-7.760863 -15.730555 -14.258412 22.604948 1.112473 2.253335 0.036103 -0.015794 -393622.000000 0 1 0
-6.631363 -16.400255 -14.703812 23.003162 1.186550 2.264265 0.038834 -0.012720 -945749.000000 0 1 0
-6.115463 -17.355755 -13.631412 22.900579 1.232021 2.208365 0.029995 -0.009689 -576884.000000 0 1 0
-5.692363 -16.746055 -12.364912 21.580649 1.243127 2.180913 0.030162 -0.011889 287839.000000 0 1 0
-5.402163 -17.670455 -11.338312 21.679153 1.274103 2.121169 0.018231 -0.010208 376925.000000 0 1 0
-4.154463 -18.586455 -11.604812 22.302187 1.350890 2.118050 0.021205 -0.010704 -701951.000000 0 1 0
-2.896863 -18.056255 -11.633812 21.674081 1.411717 2.137390 0.018791 -0.003423 -1697930.000000 0 1 0
-1.919563 -19.054955 -11.493112 22.335346 1.470397 2.111303 0.015750 0.004628 529750.000000 0 1 0
-0.526963 -18.527655 -11.947712 22.052200 1.542362 2.143364 0.015528 0.008215 -268656.000000 0 1 0
-0.403463 -18.348055 -13.298712 22.664282 1.548810 2.197860 0.020265 0.008538 -272867.000000 0 1 0
0.830137 -17.800455 -13.706212 22.481228 -1.524194 2.226445 0.024968 0.011196 565445.000000 0 1 0
2.027837 -18.779555 -13.941212 23.476397 -1.463232 2.206619 0.022988 0.008640 32929.800000 0 1 0
1.883337 -19.658855 -15.056112 24.833527 -1.475287 2.222173 0.032991 0.005211 352805.000000 0 1 0
1.100737 -20.844455 -14.809612 25.593506 -1.518038 2.187865 0.031658 -0.000576 -314445.000000 0 0 1
1.236537 -21.849755 -15.982612 27.099534 -1.514264 2.201576 0.042625 -0.002361 584062.000000 0 0 1
2.452337 -22.586955 -16.147712 27.873520 -1.462647 2.188692 0.037343 -0.007797 488379.000000 0 0 1
3.597837 -21.838755 -16.503112 27.608484 -1.407517 2.211494 0.029245 -0.010634 -155502.000000 0 0 1
4.875937 -22.655155 -16.750312 28.593772 -1.358806 2.196667 0.031733 -0.005918 102765.000000 0 0 1
4.665637 -23.450455 -17.887212 29.860415 -1.374404 2.213082 0.035308 -0.007468 -381534.000000 0 0 1
5.851237 -24.090855 -18.231912 30.773510 -1.332528 2.204899 0.037566 -0.007832 -268278.000000 0 0 1
6.283437 -23.952255 -19.731712 31.662795 -1.314245 2.243602 0.048730 -0.005749 1233.840000 0 0 1
6.576837 -22.584855 -20.016212 30.886555 -1.287427 2.275825 0.059022 -0.011523 13539.500000 0 0 1
6.972837 -22.419955 -21.360912 31.742140 -1.269269 2.308988 0.062024 -0.003160 -91351.200000 0 0 1
7.316037 -20.960655 -21.767712 31.091909 -1.234980 2.346346 0.061986 -0.002852 770776.000000 0 0 1
6.130237 -20.216755 -22.076512 30.556005 -1.276383 2.378198 0.060409 -0.004394 578879.000000 0 0 1
6.455737 -18.883055 -22.473112 30.054735 -1.241374 2.415447 0.071443 -0.002600 134494.000000 0 0 1
5.182637 -18.092655 -22.810912 29.572650 -1.291817 2.451759 0.062073 -0.000272 -409502.000000 0 0 1
4.503737 -18.486555 -23.999212 30.626763 -1.331829 2.471240 0.059337 -0.000764 271147.000000 0 0 1
3.499837 -17.611455 -24.467112 30.348836 -1.374627 2.508491 0.058925 0.002527 1347880.000000 0 0 1
2.176137 -17.311055 -23.625612 29.369675 -1.445744 2.505498 0.059757 0.006356 722512.000000 0 0 1
2.382637 -16.626355 -22.383712 27.984697 -1.428461 2.497851 0.050091 0.004136 -283243.000000 0 0 1
1.198737 -15.990755 -21.952412 27.185468 -1.495972 2.510707 0.040149 0.005207 285346.000000 0 0 1
1.451037 -15.341755 -20.629612 25.749872 -1.476496 2.500017 0.036583 0.006310 105819.000000 0 0 1
2.294537 -14.218655 -20.758512 25.265607 -1.410801 2.535029 0.030531 0.006129 -214167.000000 0 0 1
2.373737 -13.407655 -19.602412 23.867435 -1.395569 2.534489 0.022664 0.002385 -226958.000000 0 1 0
3.505437 -12.387255 -19.645412 23.487750 -1.295020 2.561498 0.022413 -0.001789 -419207.000000 0 1 0
4.788337 -12.968655 -19.483712 23.889940 -1.217099 2.524495 0.029977 -0.006792 -28504.700000 0 1 0
5.869537 -12.076155 -19.655212 23.803621 -1.118376 2.542280 0.033113 -0.003725 210994.000000 0 1 0
6.169937 -10.990055 -18.568712 22.442071 -1.059235 2.545270 0.031921 -0.010424 -837246.000000 0 1 0
5.214037 -9.931655 -18.463812 21.604082 -1.087356 2.595662 0.018844 -0.001850 194428.000000 0 1 0
5.444937 -8.872055 -19.346912 21.969609 -1.020351 2.647969 0.030086 -0.007700 -395825.000000 0 1 0
4.726637 -8.977755 -20.690412 23.044183 -1.086187 2.685677 0.035980 -0.015686 -241826.000000 0 1 0
3.320537 -8.973755 -20.579112 22.694804 -1.216392 2.706370 0.029402 -0.019645 -285107.000000 0 1 0
2.688237 -9.031355 -21.833312 23.779940 -1.281491 2.734157 0.037139 -0.023172 -3076.480000 0 1 0
1.177837 -8.779955 -21.887812 23.612523 -1.437442 2.757017 0.020796 -0.021873 -236928.000000 0 1 0
0.837337 -7.501355 -21.391012 22.683626 -1.459632 2.802376 0.022583 -0.027604 -185653.000000 0 1 0
-0.542463 -7.238155 -21.561912 22.750851 1.495991 2.816875 0.019001 -0.020268 80518.500000 0 1 0
-0.858663 -6.356755 -22.758612 23.645297 1.436530 2.866870 0.024282 -0.022120 -226625.000000 0 1 0
-0.658363 -6.944555 -24.012412 25.005124 1.476276 2.858871 0.029111 -0.016672 -199720.000000 0 0 1
-1.341963 -6.235155 -25.048712 25.847940 1.358805 2.892269 0.030545 -0.018423 3071.450000 0 0 1
-0.746063 -4.914255 -25.506852 25.986651 1.420131 2.949133 0.033407 -0.022780 -504345.000000 0 0 1
-1.257463 -4.512455 -26.765852 27.172676 1.299026 2.968334 0.024263 -0.019115 -60125.000000 0 0 1
-0.882363 -3.225055 -27.296862 27.500877 1.303736 3.019710 0.019944 -0.013820 -768392.000000 0 0 1
-1.340463 -1.960455 -26.468622 26.574954 0.971059 3.052107 0.021720 -0.013196 1131300.000000 0 0 1
-2.745263 -1.678855 -26.333822 26.529705 0.548866 3.019998 0.015775 -0.010445 971011.000000 0 0 1
-3.492763 -1.290555 -27.497242 27.748212 0.353935 3.006996 0.030395 -0.012126 320619.000000 0 0 1
-5.004963 -1.383755 -27.161012 27.652939 0.269739 2.952689 0.032752 -0.013280 193996.000000 0 0 1
-5.506863 -0.149955 -26.563102 27.128333 0.027224 2.937102 0.044080 -0.008010 986185.000000 0 0 1
-6.914263 -0.434855 -26.338172 27.234086 0.062810 2.884382 0.040157 -0.018497 1052880.000000 0 0 1
-7.598863 0.832045 -25.716452 26.828547 -0.109061 2.852658 0.041522 -0.012151 -520897.000000 0 0 1
-7.871863 1.954045 -26.531422 27.743484 -0.243314 2.844911 0.058374 -0.015989 601142.000000 0 0 1
-8.824263 1.955945 -27.613552 29.055148 -0.218129 2.825265 0.046175 -0.019984 770401.000000 0 0 1
-10.310163 1.663945 -27.227942 29.162116 -0.160009 2.775338 0.032621 -0.017990 -838041.000000 0 0 1
-11.213863 1.968445 -28.207852 30.418883 -0.173766 2.757967 0.038367 -0.033951 -941949.000000 0 0 1
-12.493363 1.685645 -27.691182 30.425764 -0.134113 2.714377 0.007389 -0.025983 -189144.000000 0 0 1
-13.545563 2.007045 -28.812792 31.901215 -0.147100 2.697936 -0.005197 -0.017858 -730012.000000 0 0 1
-14.824463 1.541845 -28.442342 32.110883 -0.103634 2.658912 0.007725 -0.012430 -788876.000000 0 0 1
-15.736063 2.188045 -29.247342 33.283904 -0.138161 2.643977 0.007275 -0.009237 -716810.000000 0 0 1
-16.496663 3.347445 -28.599182 33.185215 -0.200198 2.609614 0.009457 -0.005905 -719326.000000 0 0 1
-15.832963 4.609845 -28.582482 32.998359 -0.283322 2.618301 0.013760 -0.010639 42297.800000 0 0 1
-15.609563 5.306345 -29.797332 34.054321 -0.327686 2.636220 0.005646 -0.011925 -685452.000000 0 0 1
-16.822263 5.798045 -30.561872 35.364303 -0.331914 2.614357 0.000760 -0.004587 -507890.000000 0 0 1
-17.671563 6.674145 -29.838992 35.315631 -0.361116 2.577218 -0.001282 0.002118 276745.000000 0 0 1
-18.416363 7.510045 -30.687812 36.569181 -0.387205 2.566554 -0.003415 0.000674 -313424.000000 0 0 1
-19.126763 8.645345 -29.945742 36.569421 -0.424518 2.530243 0.010851 -0.007592 -426624.000000 0 0 1
-18.231263 9.546345 -29.348332 35.844613 -0.482368 2.530054 0.007753 -0.008784 108888.000000 0 0 1
-18.948263 10.552245 -28.679532 35.956948 -0.508124 2.494115 0.030599 -0.002914 -113680.000000 0 0 1
-8.272263 24.799745 30.713298 40.333167 -1.248840 0.705188 0.020702 0.001166 -262502.000000 0 0 1
-9.135663 25.917045 30.910598 41.359625 -1.231899 0.726714 0.026449 0.000489 55179.500000 0 0 1
-8.700463 26.859345 31.847068 42.560054 -1.257535 0.725323 0.036546 0.003992 885739.000000 0 0 1
-7.356263 27.674545 31.623918 42.662246 -1.310991 0.735847 0.033891 -0.001707 919600.000000 0 0 1
-7.382863 28.486045 30.451878 42.347117 -1.317201 0.768288 0.052206 0.000596 -367745.000000 0 0 1
-6.042663 28.727845 30.157348 42.086441 -1.363477 0.771942 0.047407 -0.001332 -385035.000000 0 0 1
-5.799163 29.763545 29.103188 42.029685 -1.378366 0.805926 0.068745 -0.007584 -226710.000000 0 0 1
-6.015063 31.057745 29.592128 43.318109 -1.379491 0.818749 0.075199 -0.008749 274007.000000 0 0 1
-5.692063 32.102545 28.654278 43.405537 -1.395311 0.849774 0.086120 -0.009060 -238359.000000 0 0 1
-6.108563 33.456745 29.217478 44.836696 -1.390205 0.861049 0.078199 -0.012206 -7123.270000 0 0 1
-5.240963 33.779745 30.335958 45.703492 -1.416873 0.844967 0.068049 -0.016415 422531.000000 0 0 1
-5.731363 -33.993124 31.290948 46.556465 1.403764 0.833745 0.065439 -0.018772 -336991.000000 0 0 1
-6.820263 34.135445 32.214748 47.429259 -1.373593 0.824101 0.055838 -0.014912 34914.400000 0 0 1
-6.431563 33.321745 33.301346 47.546644 -1.380127 0.794848 0.068461 -0.007860 -127529.000000 0 0 1
-6.344063 31.920245 32.864087 46.251458 -1.374606 0.780513 0.065688 -0.002603 -364319.000000 0 0 1
-6.081163 30.928245 33.953593 46.329077 -1.376651 0.748253 0.051505 0.006260 -327990.000000 0 0 1
-4.896763 31.134545 -33.975772 46.343190 -1.414797 2.393715 0.036518 0.000059 -436472.000000 0 0 1
-4.973063 30.524745 -32.718822 45.022358 -1.409296 2.384337 0.038450 0.001465 -505836.000000 0 0 1
-3.580763 30.348545 -32.095852 44.317037 -1.453351 2.380717 0.008312 -0.002127 255132.000000 0 0 1
-2.804763 29.191145 -32.376552 43.683301 -1.475008 2.405601 0.005897 -0.000483 161420.000000 0 0 1
-2.316663 29.116645 -33.687142 44.586651 -1.491399 2.427279 0.026143 -0.001122 -918545.000000 0 0 1
-1.692863 27.742845 -33.993532 43.910038 -1.509852 2.456188 0.022463 -0.005907 107209.000000 0 0 1
-0.575963 27.411145 -33.113092 42.990458 -1.549787 2.450018 0.030288 0.000541 914199.000000 0 0 1
-0.107763 26.054145 -33.223332 42.221083 -1.566660 2.476549 0.039255 -0.003595 414673.000000 0 0 1
0.286637 25.538445 33.974140 42.503371 1.559573 0.644620 0.031436 -0.006056 -155985.000000 0 0 1
-0.903863 25.337445 33.210274 41.781879 -1.535138 0.652038 0.033068 -0.002252 421221.000000 0 0 1
-0.722563 25.101845 31.796198 40.516946 -1.542019 0.668483 0.054058 0.001835 -378320.000000 0 0 1
-0.259463 26.325045 30.983208 40.657527 -1.560941 0.704318 0.027806 -0.001836 -211300.000000 0 0 1
-1.245263 27.320145 30.960138 41.309456 -1.525247 0.723537 0.027077 -0.011571 -133071.000000 0 0 1
-0.734163 28.474445 30.325878 41.605191 -1.545019 0.754088 0.034733 -0.014831 -258766.000000 0 0 1
-1.688263 29.661845 30.135988 42.318472 -1.513941 0.778278 0.047238 -0.015197 -164682.000000 0 0 1
-2.136163 30.170745 31.373098 43.578760 -1.500112 0.767113 0.038575 -0.019587 -422954.000000 0 0 1
-2.819663 31.348145 31.276998 44.372371 -1.481091 0.788549 0.046212 -0.012519 -474424.000000 0 0 1
-2.662263 32.180345 32.569778 45.863413 -1.488255 0.781089 0.042576 -0.004280 -565227.000000 0 0 1
-1.358863 32.678945 32.678544 46.234697 -1.529238 0.785836 0.041062 -0.021119 -546055.000000 0 0 1
-0.991663 32.918345 34.019588 47.349057 -1.540681 0.769175 0.025554 -0.013859 1126.210000 0 0 1
0.371337 33.640945 33.949847 47.795849 1.559759 0.780858 0.019564 -0.011890 -59055.900000 0 0 1
0.385337 -33.756424 33.408851 47.495221 -1.559382 0.790606 0.030280 -0.013308 1072350.000000 0 0 1
1.736437 -33.244024 33.311427 47.093859 -1.518611 0.785067 0.038181 -0.010408 999516.000000 0 0 1
1.818537 -31.729224 32.886407 45.733648 -1.513545 0.768311 0.043982 -0.013313 -97898.700000 0 0 1
1.263837 -30.898824 33.881616 45.872634 -1.529917 0.739802 0.040030 -0.005929 180358.000000 0 0 1
1.252137 -29.525224 33.497459 44.669749 -1.528413 0.722898 0.058469 -0.024235 -29696.600000 0 0 1
1.140337 -28.552724 -33.999702 44.413266 -1.530880 2.442662 0.051014 -0.029089 308290.000000 0 0 1
-0.195263 -28.401024 -33.535292 43.946242 1.563921 2.438890 0.037051 -0.033934 264253.000000 0 0 1
-0.332863 -27.624124 -32.382842 42.565849 1.558747 2.435296 0.037758 -0.035346 41668.500000 0 0 1
-1.798863 -27.145024 -32.334042 42.256107 1.504624 2.442136 0.021992 -0.031778 -9767.800000 0 0 1
-2.287063 -26.863724 -31.046002 41.118665 1.485865 2.426503 0.017067 -0.029684 -1037930.000000 0 0 1
-3.591363 -26.444724 -31.137612 41.009416 1.435816 2.433002 0.027672 -0.031343 -1237760.000000 0 0 1
-3.925463 -25.794324 -29.743132 39.565267 1.419772 2.421506 0.031186 -0.030979 -241075.000000 0 0 1
-4.218863 -26.786224 -28.731562 39.507003 1.414578 2.385107 0.033102 -0.035637 56885.800000 0 0 1
-4.510563 -26.316424 -27.405382 38.261656 1.401048 2.369228 0.032777 -0.029864 294825.000000 0 0 1
-3.377263 -25.536224 -26.671322 37.079160 1.439306 2.373601 0.036846 -0.027327 249997.000000 0 0 1
-2.950663 -24.310324 -27.255752 36.641156 1.450012 2.409618 0.045069 -0.025642 757726.000000 0 0 1
-1.704263 -23.856324 -26.699652 35.845504 1.499479 2.411112 0.045470 -0.028034 140688.000000 0 0 1
-0.907663 -22.912024 -27.662882 35.930764 1.531202 2.449472 0.052539 -0.018980 303669.000000 0 0 1
-0.263163 -23.574824 -28.753482 37.183388 1.559634 2.454807 0.033554 -0.020152 874244.000000 0 0 1
0.826637 -24.471424 -28.406972 37.503200 -1.537029 2.430202 0.037076 -0.016919 59104.100000 0 0 1
1.554237 -25.054424 -29.605902 38.815581 -1.508841 2.438324 0.026905 -0.021828 -865348.000000 0 0 1
2.530037 -24.196124 -30.046922 38.660976 -1.466611 2.460984 0.043523 -0.016739 -674133.000000 0 0 1
3.328137 -24.977224 -30.933542 39.897648 -1.438330 2.458022 0.041803 -0.022610 -50278.000000 0 0 1
4.439137 -24.164524 -31.628092 40.049549 -1.389117 2.481155 0.046748 -0.022616 -466446.000000 0 0 1
5.486437 -23.667324 -30.806272 39.233527 -1.343005 2.473820 0.044329 -0.017183 1835530.000000 0 0 1
6.792637 -24.320324 -30.757122 39.794707 -1.298438 2.454187 0.052514 -0.009557 1514990.000000 0 0 1
7.578337 -24.235124 -32.086092 40.918086 -1.267729 2.472128 0.057720 -0.014832 -976008.000000 0 0 1
7.055537 -25.174224 -32.991552 42.094711 -1.297539 2.471470 0.044890 -0.022542 -270620.000000 0 0 1
7.257337 -24.895924 34.261724 42.969079 -1.287149 0.647892 0.049856 -0.024507 -107197.000000 0 0 1
6.504737 -23.693524 33.644564 41.661150 -1.302861 0.630765 0.044347 -0.020627 -720012.000000 0 0 1
5.131637 -23.690024 33.876738 41.655544 -1.357476 0.621066 0.051564 -0.028071 -565775.000000 0 0 1
4.590937 -22.574024 33.177819 40.390976 -1.370160 0.606906 0.067963 -0.028842 702932.000000 0 0 1
3.105437 -22.210224 33.565541 40.368098 -1.431877 0.589018 0.049566 -0.025970 1250940.000000 0 0 1
2.060937 -23.047724 33.092880 40.380488 -1.481613 0.610212 0.050296 -0.032254 187499.000000 0 0 1
1.687937 -24.011024 34.046278 41.695653 -1.500613 0.615400 0.046819 -0.025065 249451.000000 0 0 1
0.310037 -24.645524 33.664877 41.723158 -1.558217 0.631974 0.036366 -0.023574 483933.000000 0 0 1
0.388637 -25.509624 32.528828 41.340255 -1.555563 0.665098 0.046855 -0.017600 365077.000000 0 0 1
-0.906263 -25.742224 31.980128 41.063512 1.535606 0.678051 0.045522 -0.028267 441251.000000 0 0 1
-0.859963 -26.812224 30.876558 40.902283 1.538734 0.715316 0.051638 -0.029598 -29347.000000 0 0 1
-2.105863 -26.951624 30.245888 40.566470 1.492820 0.729379 0.052394 -0.031869 -100498.000000 0 0 1
-2.049263 -28.119124 29.451498 40.771012 1.498047 0.763582 0.060816 -0.030142 1626500.000000 0 0 1
-3.472363 -28.460624 28.785098 40.628147 1.449390 0.783424 0.065654 -0.016613 1309260.000000 0 0 1
-4.506663 -28.807424 29.663708 41.594631 1.415613 0.776798 0.062546 -0.020011 -884263.000000 0 0 1
-5.595763 -29.218224 28.916288 41.486973 1.381571 0.799595 0.085749 -0.021973 -654239.000000 0 0 1
-6.820163 -29.473924 29.849678 42.499766 1.343402 0.792104 0.074245 -0.016768 -354755.000000 0 0 1
-7.958163 -29.780124 29.052408 42.358359 1.309667 0.814995 0.078873 -0.009985 540672.000000 0 0 1
-9.166163 -29.972424 29.791578 43.242374 1.274009 0.810765 0.064830 -0.009518 355599.000000 0 0 1
-9.260463 -31.113024 30.799508 44.748030 1.281507 0.811671 0.070112 -0.007374 -826237.000000 0 0 1
-9.173263 -32.441024 30.357278 45.366652 1.295223 0.837727 0.077614 -0.010251 969196.000000 0 0 1
-10.393663 -32.885724 29.729068 45.533686 1.264677 0.859386 0.067790 -0.005996 557242.000000 0 0 1
-10.249163 -34.258524 29.062558 46.079541 1.280100 0.888336 0.076919 -0.000158 -257711.000000 0 0 1
-9.990463 33.510445 29.999858 46.073319 -1.281056 0.861720 0.084074 0.002714 230127.000000 0 0 1
-9.637163 32.268345 29.502018 44.771532 -1.280572 0.851380 0.077794 -0.008491 -398303.000000 0 0 1
-10.175263 31.069045 30.303548 44.577198 -1.254301 0.823307 0.071401 0.014644 372922.000000 0 0 1
-11.592663 31.012745 30.192958 44.808424 -1.213075 0.831425 0.072649 0.029566 295569.000000 0 0 1
-12.238263 29.873545 30.765808 44.595277 -1.181983 0.809460 0.079419 0.020238 263777.000000 0 0 1
-12.195363 29.583145 32.331588 45.488690 -1.179783 0.780217 0.077736 -0.001551 96020.900000 0 0 1
-13.143363 30.379445 33.063127 46.784923 -1.162472 0.785967 0.084679 0.001288 432357.000000 0 0 1
-13.220563 29.902745 -34.250591 47.350400 -1.154516 2.379428 0.083409 -0.002414 27232.900000 0 0 1
-14.547563 30.301745 -33.574122 47.508410 -1.123203 2.355617 0.085629 -0.004701 -8549.580000 0 0 1
-14.638263 29.753945 -32.275312 46.273878 -1.113588 2.342677 0.072681 -0.003478 -235147.000000 0 0 1
-15.766663 30.199545 -31.556922 46.437479 -1.089639 2.317955 0.064098 -0.010069 14416.300000 0 0 1
-15.874863 29.703745 -30.106102 45.174120 -1.079978 2.300228 0.081866 -0.014396 -1522.910000 0 0 1
-16.210263 28.328945 -30.067412 44.377370 -1.051057 2.315208 0.077030 -0.017990 103724.000000 0 0 1
-16.296763 27.922745 -28.744332 43.260846 -1.042495 2.297544 0.061839 -0.017373 -104084.000000 0 0 1
-16.587463 26.449845 -28.489662 42.265814 -1.010668 2.310487 0.048518 -0.019400 -615476.000000 0 0 1
-17.948063 26.186845 -28.598832 42.729112 -0.969947 2.304070 0.041728 -0.017935 -728144.000000 0 0 1
-18.311763 24.897145 -28.101842 41.772024 -0.936642 2.308706 0.022046 -0.009798 147867.000000 0 0 1
-19.833463 24.680445 -28.278992 42.452232 -0.893858 2.299813 0.018574 -0.007319 101759.000000 0 0 1
-20.690263 25.206745 -27.255362 42.500844 -0.883487 2.266975 0.006368 -0.012450 -138957.000000 0 0 1
-21.970463 24.815845 -27.686682 43.186569 -0.846140 2.266720 0.023281 -0.015107 -286317.000000 0 0 1
-23.096363 24.976845 -26.640402 43.208747 -0.824495 2.235151 0.033622 -0.023793 69382.900000 0 0 1
-23.452963 26.396845 -26.411782 44.095545 -0.844385 2.213007 0.019424 -0.013529 283124.000000 0 0 1
-24.661263 26.536545 -25.673452 44.401489 -0.822010 2.187331 0.017847 -0.012482 257377.000000 0 0 1
-24.607363 26.201845 -24.154212 43.306869 -0.816770 2.162463 0.014408 -0.005888 -1205180.000000 0 0 1
-24.519663 24.789545 -23.788712 42.209456 -0.790871 2.169518 0.024393 -0.008925 -465374.000000 0 0 1
-25.728073 24.074545 -23.795512 42.517571 -0.752209 2.164775 0.032297 -0.004994 -203930.000000 0 0 1
-26.607843 24.354145 -22.541012 42.534679 -0.741204 2.129331 0.017877 -0.003561 -232999.000000 0 0 1
-26.065113 23.825445 -21.312912 41.246602 -0.740537 2.113811 0.013891 -0.002343 593587.000000 0 0 1
-25.076173 24.661545 -20.694212 40.807556 -0.777062 2.102633 0.006957 0.000324 415505.000000 0 0 1
-24.195563 23.924545 -19.661612 39.298703 -0.779766 2.094755 0.012447 -0.000765 -61624.900000 0 0 1
-24.855663 23.736145 -18.423212 38.995170 -0.762363 2.062863 0.008640 0.005777 454105.000000 0 0 1
-23.937163 23.493845 -17.360512 37.766862 -0.776052 2.048426 0.009553 -0.002377 310197.000000 0 0 1
-24.574163 23.625445 -15.911212 37.619380 -0.765718 2.007498 0.010260 -0.003215 -448839.000000 0 0 1
-24.983063 24.923445 -15.523512 38.552703 -0.784204 1.985214 0.017562 -0.008294 93785.000000 0 0 1
-25.177833 25.030945 -14.114612 38.205938 -0.782473 1.949197 -0.005206 -0.010151 -30912.900000 0 0 1
-25.422013 26.412145 -13.508912 39.068796 -0.804498 1.923858 -0.009299 -0.010177 -424870.000000 0 0 1
-24.241663 27.147545 -13.449112 38.801108 -0.841885 1.924758 0.000335 -0.006747 -411270.000000 0 0 1
-24.233563 27.913945 -12.204612 38.928221 -0.855858 1.889690 0.005605 -0.003983 320855.000000 0 0 1
-22.787563 28.358045 -11.839112 38.257238 -0.893885 1.885422 0.012370 -0.005650 -68086.700000 0 0 1
-21.949963 27.348145 -11.464612 36.893891 -0.894464 1.886774 0.016372 -0.004790 -981223.000000 0 0 1
-20.778263 27.790745 -10.869512 36.362178 -0.928789 1.874361 0.017660 -0.000527 -742267.000000 0 0 1
-20.037563 26.626145 -10.187512 34.845960 -0.925664 1.867488 0.040576 -0.003885 272690.000000 0 0 1
-19.280963 25.913345 -11.220212 34.192837 -0.931111 1.905136 0.030300 -0.005852 392930.000000 0 0 1
-18.808963 24.675845 -10.697012 32.819209 -0.919506 1.902800 0.041525 0.003942 -168319.000000 0 0 1
-18.115963 23.811145 -11.720312 32.132918 -0.920407 1.944155 0.039988 0.004640 -133935.000000 0 0 1
-17.715363 22.568845 -11.184512 30.794158 -0.905301 1.942499 0.023717 0.010376 145950.000000 0 0 1
-17.117963 21.700945 -12.154712 30.194249 -0.902915 1.985098 0.037679 0.008983 227163.000000 0 0 1
-16.762263 20.328845 -11.504712 28.750544 -0.881261 1.982484 0.030113 0.007522 77966.400000 0 0 1
-17.907363 19.529145 -11.266612 28.792320 -0.828692 1.972847 0.026692 0.003495 26210.700000 0 0 1
-17.628663 18.137445 -10.989112 27.577114 -0.799622 1.980663 0.042694 -0.004884 -658156.000000 0 0 1
-18.906063 17.274645 -10.875212 27.823062 -0.740338 1.972373 0.042634 -0.008543 245354.000000 0 0 1
-19.519963 16.876545 -12.103012 28.501397 -0.712897 2.009367 0.039110 -0.003202 29214.500000 0 0 1
-20.164863 17.890045 -12.829112 29.854003 -0.725692 2.014988 0.035285 0.003869 -538705.000000 0 0 1
-20.963963 17.409645 -14.069412 30.668091 -0.693038 2.047400 0.033202 0.000742 66406.600000 0 0 1
-20.075863 17.085245 -15.107612 30.383973 -0.705094 2.091192 0.051730 -0.002473 5008.970000 0 0 1
-20.780163 16.721645 -16.257012 31.236501 -0.677596 2.118173 0.037318 0.000925 -316345.000000 0 0 1
-19.966663 16.577145 -17.545412 31.325881 -0.692911 2.165295 0.063610 -0.006113 -656273.000000 0 0 1
-19.477963 17.758245 -18.051912 31.947110 -0.739247 2.171298 0.043600 -0.017532 983610.000000 0 0 1
-18.451663 17.551445 -19.070712 31.815234 -0.760399 2.213574 0.049130 -0.009295 321084.000000 0 0 1
-17.906363 18.695745 -19.892112 32.647585 -0.806961 2.225971 0.045275 -0.016825 -704614.000000 0 0 1
-17.096063 19.426245 -19.022712 32.117253 -0.849113 2.204694 0.046096 -0.005005 -39761.100000 0 0 1
-16.855163 20.709545 -19.530412 33.082000 -0.887647 2.202306 0.061000 -0.029447 -83036.800000 0 0 1
32.886680 30.315945 2.144588 44.779342 0.744746 1.522886 0.048061 0.001597 -410236.000000 0 0 1
34.103420 30.436345 1.485388 45.734240 0.728640 1.538312 0.061005 -0.001190 -529413.000000 0 0 1
33.926540 31.046045 0.216688 45.988193 0.741093 1.566085 0.054297 0.001052 -758518.000000 0 0 1
35.152190 31.126645 -0.656312 46.957163 0.724736 1.584774 0.041508 -0.000862 -820666.000000 0 0 1
-35.595330 32.010945 -0.104912 47.872112 -0.732429 1.572988 0.028145 0.003280 103915.000000 0 0 1
-34.347897 31.869245 -0.779012 46.861857 -0.747983 1.587421 0.024126 -0.001206 -53052.800000 0 0 1
-33.275183 32.905345 -0.483012 46.799923 -0.779810 1.581117 -0.000102 0.009634 -204971.000000 0 0 1
-32.713963 32.576845 0.797888 46.174568 -0.783298 1.553516 0.003868 0.009210 45533.200000 0 0 1
-32.260543 33.794845 1.457488 46.743539 -0.808621 1.539611 -0.003940 0.008382 130337.000000 0 0 1
-31.584133 33.583845 2.828388 46.189088 -0.816074 1.509523 0.005360 -0.001554 -146631.000000 0 0 1
-31.109083 -33.937324 3.353888 46.160216 0.828851 1.498075 0.011084 0.001599 47113.700000 0 0 1
-30.615143 -34.102124 4.699388 46.068710 0.839226 1.468610 0.024506 -0.013128 -180898.000000 0 0 1
-30.243893 -32.793924 5.399888 44.936547 0.825829 1.450338 0.034930 -0.011911 424790.000000 0 0 1
-31.301553 -32.118724 6.099088 45.261446 0.798282 1.435633 0.033925 -0.013962 296566.000000 0 0 1
-31.597563 -32.739724 7.310588 46.084056 0.803149 1.411487 0.040319 -0.025701 -534830.000000 0 0 1
-32.695203 -32.108224 8.258088 46.562972 0.776341 1.392500 0.041299 -0.021924 2270500.000000 0 0 1
-34.090624 -32.001124 7.832188 47.408710 0.753794 1.404830 0.031167 -0.007775 1508380.000000 0 0 1
-34.662749 -33.227524 7.362088 48.577514 0.764261 1.418657 0.023984 -0.007320 -417207.000000 0 0 1
35.505990 -33.051924 6.990788 49.009959 -0.749618 1.427668 0.010201 0.001806 979370.000000 0 0 1
34.681520 -32.953524 8.147888 48.529688 -0.759855 1.402102 0.007910 -0.000292 596712.000000 0 0 1
33.281910 -32.875624 7.904788 47.444471 -0.779257 1.403404 -0.001524 0.011006 842598.000000 0 0 1
32.412130 -32.759724 9.213388 46.996087 -0.790732 1.373472 -0.013708 0.008858 1466010.000000 0 0 1
30.973520 -32.705224 8.976788 45.930092 -0.812586 1.374086 -0.008824 0.009685 1996110.000000 0 0 1
30.161420 -32.736424 10.168488 45.659422 -0.826315 1.346210 0.001114 0.004265 186217.000000 0 0 1
30.197730 -31.381524 10.983488 44.914808 -0.804620 1.323751 -0.007939 0.010310 -929270.000000 0 0 1
29.604920 -30.288924 10.324388 43.594302 -0.796818 1.331696 0.001719 0.008521 49956.600000 0 0 1
30.293660 -29.755424 9.199888 43.448004 -0.776435 1.357436 0.007434 0.002002 -33893.400000 0 0 1
29.799230 -28.292624 9.029388 42.071327 -0.759469 1.354493 0.009884 0.000076 145335.000000 0 0 1
30.203100 -27.787724 7.764988 41.769365 -0.743771 1.383807 0.021227 -0.006298 237835.000000 0 0 1
29.557340 -26.519224 7.583888 40.427972 -0.731273 1.382088 0.009217 -0.006520 209029.000000 0 0 1
29.772530 -26.047524 6.111388 40.027817 -0.718765 1.417518 0.001853 -0.003261 475893.000000 0 0 1
31.026780 -25.469224 5.775088 40.554828 -0.687343 1.427909 0.027695 -0.008415 -99356.600000 0 0 1
31.058050 -24.999824 4.435588 40.115684 -0.677745 1.460000 0.029609 -0.007799 -207516.000000 0 0 1
32.494950 -24.592624 4.100888 40.957737 -0.647848 1.470503 0.041326 -0.011045 341724.000000 0 0 1
33.368660 -25.738624 4.016888 42.332961 -0.657020 1.475765 0.026043 -0.003815 44055.500000 0 0 1
34.705420 -25.377024 3.727688 43.155013 -0.631368 1.484310 0.031429 -0.006455 436607.000000 0 0 1
35.625020 -26.642424 3.781388 44.645937 -0.642128 1.485997 0.027160 -0.005538 -73064.800000 0 0 1
35.793908 -27.202724 5.072288 45.242902 -0.649859 1.458448 0.022487 -0.000169 -13159.900000 0 0 1
-35.446253 -28.571524 4.939788 45.794872 0.678420 1.462718 0.018303 -0.002036 -435264.000000 0 0 1
35.396430 -29.494224 5.859088 46.445080 -0.694692 1.444308 0.017956 -0.001938 400423.000000 0 0 1
34.111300 -29.908124 5.478688 45.695653 -0.719838 1.450612 0.012707 -0.001243 -367928.000000 0 0 1
33.077100 -28.970224 5.639588 44.330276 -0.719305 1.443233 0.013063 -0.001721 -315473.000000 0 0 1
31.676950 -29.572024 5.387488 43.668739 -0.751045 1.447109 0.004232 0.005727 -358760.000000 0 0 1
31.334460 -29.901524 4.044888 43.500697 -0.762002 1.477677 -0.001105 0.003902 79325.700000 0 0 1
30.137830 -29.291924 3.568088 42.178630 -0.771165 1.486100 0.009769 0.003356 632617.000000 0 0 1
28.836070 -30.063624 3.940788 41.843401 -0.806237 1.476477 0.016942 0.001715 85281.500000 0 0 1
28.856880 -31.309524 3.304588 42.707448 -0.826140 1.493342 0.018064 0.008051 126314.000000 0 0 1
27.604580 -31.975224 3.462588 42.384163 -0.858625 1.489010 0.026679 0.004729 73925.400000 0 0 1
27.569000 -33.411524 2.890788 43.413550 -0.880916 1.504160 0.024742 0.005068 -187112.000000 0 0 1
27.750380 -33.333924 1.474988 43.398268 -0.876552 1.536803 0.031611 0.002964 124759.000000 0 0 1
27.735130 34.158945 0.757088 44.007319 0.888815 1.553592 0.027573 0.004038 -122613.000000 0 0 1
27.404210 34.254245 -0.738212 43.873556 0.896041 1.587623 0.032331 0.000718 -857622.000000 0 0 1
28.429330 -34.021824 -1.543112 44.363189 -0.874710 1.605587 0.031923 -0.000320 -365448.000000 0 0 1
27.974040 -33.989624 -2.852012 44.113212 -0.882177 1.635494 0.040106 0.000286 -285901.000000 0 0 1
29.047010 -33.461524 -3.823912 44.474989 -0.855904 1.656882 0.036965 0.000226 -75563.200000 0 0 1
29.311560 -32.072124 -3.826612 43.616874 -0.830340 1.658642 0.019492 0.002220 451804.000000 0 0 1
30.356110 -31.761224 -4.753912 44.191271 -0.808015 1.678581 0.030347 -0.001593 409023.000000 0 0 1
30.836640 -30.320824 -4.615712 43.492017 -0.776964 1.677124 0.015828 -0.006575 -472490.000000 0 0 1
29.746670 -29.552724 -5.026612 42.231442 -0.782128 1.690105 0.014255 -0.016007 -36333.700000 0 0 1
29.924760 -28.127424 -4.997012 41.371649 -0.754447 1.691875 0.013241 -0.025932 -159426.000000 0 0 1
30.889400 -27.498124 -6.022712 41.792044 -0.727381 1.715411 0.002148 -0.016987 -1154040.000000 0 0 1
32.217290 -27.705324 -5.713612 42.874050 -0.710243 1.704459 -0.000143 -0.010136 -702098.000000 0 0 1
33.222480 -27.225424 -6.598612 43.456859 -0.686511 1.723229 -0.000794 -0.007412 425990.000000 0 0 1
33.434880 -28.164024 -7.763612 44.400193 -0.700039 1.746555 -0.008464 0.009658 -1170790.000000 0 0 1
32.319240 -28.158724 -8.622612 43.724095 -0.716712 1.769302 -0.008452 0.003694 -128789.000000 0 0 1
32.210100 -29.206924 -9.526212 44.511613 -0.736539 1.786481 -0.013769 0.011859 52772.400000 0 0 1
31.967640 -30.643224 -8.970012 45.181836 -0.764248 1.770656 -0.011599 0.014582 2356.900000 0 0 1
33.083290 -31.251824 -8.315912 46.263755 -0.756938 1.751529 -0.001834 0.006684 -121247.000000 0 0 1
32.799900 -32.563224 -7.790312 46.870950 -0.781777 1.737779 0.006712 -0.002803 420449.000000 0 0 1
34.048790 -33.292824 -7.181112 48.159118 -0.774173 1.720467 0.006171 -0.003540 617716.000000 0 0 1
33.828560 34.135345 -6.580912 48.506717 0.789912 1.706886 0.013169 -0.009702 -282554.000000 0 0 1
33.099380 34.145445 -5.371212 47.857395 0.800953 1.683267 0.031182 -0.010119 -59105.500000 0 0 1
32.825050 32.733145 -4.908312 46.615815 0.783996 1.676285 0.032983 -0.012311 -176454.000000 0 0 1
31.982560 32.073245 -5.814112 45.665973 0.786814 1.698461 0.044818 -0.025486 -265371.000000 0 0 1
31.943680 30.707445 -5.419912 44.639907 0.765669 1.692511 0.043810 -0.010027 156982.000000 0 0 1
30.785340 29.910245 -6.066312 43.349279 0.770981 1.711197 0.044182 -0.015684 35518.400000 0 0 1
30.907020 29.707845 -7.468912 43.515337 0.765617 1.743289 0.031031 -0.019425 361737.000000 0 0 1
29.637870 29.236545 -7.914312 42.377060 0.778582 1.758659 0.018152 -0.024599 538996.000000 0 0 1
29.738220 28.913145 -9.430012 42.535359 0.771332 1.794352 0.010436 -0.015631 -423469.000000 0 0 1
30.551200 27.732545 -9.587212 42.360176 0.737075 1.799101 0.007594 -0.011824 430090.000000 0 0 1
31.109640 27.606945 -10.892312 42.995297 0.725815 1.826925 0.002578 -0.005421 273138.000000 0 0 1
32.293720 28.560345 -11.163512 44.533152 0.724125 1.824178 0.005388 -0.015647 -1757160.000000 0 0 1
33.568890 28.154045 -10.801812 45.124270 0.697894 1.812523 0.014018 -0.021341 15243.700000 0 0 1
34.617300 29.061145 -11.143912 46.552061 0.698365 1.812530 0.020379 -0.020369 233443.000000 0 0 1
34.731400 30.418445 -10.418612 47.329688 0.719294 1.792743 0.009835 -0.024097 -1012820.000000 0 0 1
35.195350 30.297645 -9.099812 47.323002 0.710755 1.764293 0.019623 -0.018291 -105712.000000 0 0 1
34.949080 31.544345 -8.406412 47.824174 0.734239 1.747492 0.022449 -0.018834 -787207.000000 0 0 1
-35.789919 31.664345 -7.167012 48.320959 -0.724313 1.719667 0.013240 -0.015239 -353520.000000 0 0 1
-34.432376 31.775145 -7.432812 47.439382 -0.745285 1.728125 0.014583 -0.009616 -833314.000000 0 0 1
-33.868083 30.528845 -7.789912 46.257325 -0.733591 1.740007 0.020066 -0.007172 -1214270.000000 0 0 1
-32.419393 30.694845 -8.354612 45.420150 -0.758081 1.755790 0.047086 -0.008626 -45666.400000 0 0 1
-31.517623 31.149845 -7.340012 44.917136 -0.779530 1.734945 0.033690 -0.007940 124660.000000 0 0 1
-30.225543 31.424145 -7.847512 44.301735 -0.804838 1.748874 0.031140 -0.015210 29539.900000 0 0 1
-30.082953 32.624545 -8.833412 45.247918 -0.825907 1.767281 0.007989 -0.008981 -1028470.000000 0 0 1
-30.159133 33.948345 -8.211512 46.146423 -0.844437 1.749694 -0.010403 0.005876 -872856.000000 0 0 1
-29.072663 34.293645 -7.411912 45.565450 -0.867606 1.734188 0.007615 0.009747 -563889.000000 0 0 1
-29.020213 -33.002524 -6.772012 44.465712 0.849517 1.723689 -0.001737 0.020360 -8103.400000 0 0 1
-29.925223 -32.659324 -5.718612 44.663777 0.829057 1.699186 -0.003650 0.013805 -91249.100000 0 0 1
-29.604863 -33.151124 -4.417212 44.664938 0.841847 1.669855 -0.001370 0.011786 202608.000000 0 0 1
-30.829393 -33.250924 -3.461212 45.475877 0.823169 1.646981 0.017645 0.010386 -118512.000000 0 0 1
-31.294873 -32.005124 -3.139212 44.872616 0.796618 1.640812 0.013874 0.017631 384905.000000 0 0 1
-32.369473 -32.180924 -2.173312 45.695929 0.782477 1.618375 0.012575 0.011767 295708.000000 0 0 1
-32.885073 -30.829024 -1.714712 45.108724 0.753139 1.608818 0.020940 0.013340 -108053.000000 0 0 1
-34.037243 -30.832224 -0.896112 45.934333 0.736031 1.590306 0.014017 0.015874 -20856.300000 0 0 1
-34.509356 -29.516724 -0.679112 45.415788 0.707578 1.585750 0.015416 0.006361 127878.000000 0 0 1
-35.537863 -29.328324 0.460588 46.079306 0.689961 1.560801 0.013716 0.008637 1209380.000000 0 0 1
34.831660 -29.909924 0.180988 45.911664 -0.709523 1.566854 0.005333 0.014095 1441660.000000 0 0 1
33.860250 -29.990724 1.211788 45.248519 -0.724870 1.544012 0.004920 0.007492 222818.000000 0 0 1
33.165780 -28.642624 1.455688 43.846185 -0.712348 1.537590 0.002792 0.008370 -886097.000000 0 0 1
32.094850 -28.563824 0.520088 42.967917 -0.727252 1.558692 0.003727 0.003010 -58426.000000 0 0 1
31.453200 -27.313124 0.730488 41.663463 -0.715065 1.553262 0.008689 -0.002419 -70528.100000 0 0 1
30.113910 -27.190424 -0.046412 40.573007 -0.734426 1.571940 0.011612 -0.021553 11762.700000 0 0 1
29.110930 -28.070324 0.439788 40.442339 -0.767202 1.559922 0.009728 -0.004876 63981.200000 0 0 1
29.043270 -29.424524 -0.069712 41.343911 -0.791919 1.572482 0.005705 0.004671 -333585.000000 0 0 1
28.544920 -29.574924 -1.556712 41.132857 -0.803118 1.608651 0.013853 -0.013387 602302.000000 0 0 1
27.156670 -29.256524 -1.734712 39.955452 -0.822604 1.614226 0.029135 0.002029 677126.000000 0 0 1
26.714960 -29.631124 -3.035512 40.011335 -0.837107 1.646736 0.026899 0.003662 266900.000000 0 0 1
25.233970 -30.070624 -3.011212 39.370840 -0.872631 1.647354 0.034690 0.002946 -224362.000000 0 0 1
24.277570 -29.069624 -3.030612 37.995106 -0.874985 1.650644 0.054775 0.000545 663867.000000 0 0 1
22.992770 -29.664924 -3.369012 37.683225 -0.911435 1.660319 0.050972 -0.001654 1100510.000000 0 0 1
21.835470 -28.642724 -3.457512 36.182147 -0.919445 1.666501 0.052632 0.002529 -15624.700000 0 0 1
21.695470 -27.990024 -4.678812 35.721508 -0.911415 1.702154 0.057182 0.004578 108475.000000 0 0 1
21.202670 -26.674324 -4.553212 34.377384 -0.899190 1.703635 0.041081 -0.005176 -268936.000000 0 0 1
20.664370 -25.954324 -5.836012 33.685341 -0.898388 1.744926 0.048549 -0.031720 43093.900000 0 0 1
19.336870 -26.346324 -6.111512 33.247465 -0.937647 1.755666 0.045888 -0.022630 -324368.000000 0 0 1
18.924670 -25.902824 -7.405412 32.923237 -0.939826 1.797667 0.062950 -0.025600 554885.000000 0 0 1
17.371870 -26.067624 -7.493312 32.209511 -0.982968 1.805591 0.048977 -0.020062 423126.000000 0 0 1
16.785670 -25.121624 -6.644612 30.935507 -0.981749 1.787272 0.025399 -0.011410 -1020720.000000 0 0 1
15.404470 -25.167324 -6.777112 30.275752 -1.021540 1.796555 0.026197 -0.011385 -373700.000000 0 0 1
14.627670 -24.385824 -5.657512 28.993872 -1.030492 1.767184 -0.001517 0.002702 -245339.000000 0 0 1
15.005270 -24.949524 -4.410012 29.446309 -1.029330 1.721126 -0.013739 0.012210 261502.000000 0 0 1
14.588370 -24.144324 -3.341212 28.406560 -1.027283 1.688690 0.001765 0.017225 -146616.000000 0 0 1
14.791370 -24.897624 -1.956312 29.025910 -1.034736 1.638246 0.006393 0.012779 496002.000000 0 0 1
13.929170 -26.069824 -1.958912 29.622539 -1.080085 1.636974 0.012878 0.013738 508083.000000 0 0 1
14.444370 -27.078824 -1.151212 30.712014 -1.080772 1.608289 0.016058 0.015922 -444468.000000 0 0 1
13.847770 -28.457224 -1.421312 31.679559 -1.117912 1.615677 0.019516 0.015220 841611.000000 0 0 1
12.607370 -28.729624 -0.715612 31.382307 -1.157272 1.593601 0.036352 0.006211 650553.000000 0 0 1
12.093570 -30.003324 -1.056912 32.366201 -1.187642 1.603457 0.041417 0.000533 -31066.800000 0 0 1
12.869170 -31.280324 -0.562712 33.828847 -1.180489 1.587431 0.037602 0.003437 555718.000000 0 0 1
13.987270 -31.585224 -1.419512 34.572896 -1.153911 1.611866 0.033290 0.012356 52121.600000 0 0 1
14.515370 -32.861824 -1.145712 35.943123 -1.154858 1.602677 0.031494 0.011824 202745.000000 0 0 1
15.935570 -32.968724 -1.800212 36.662241 -1.120554 1.619919 0.026911 0.008250 121105.000000 0 0 1
16.775470 -32.018024 -1.226412 36.167311 -1.088182 1.604712 0.031451 0.024385 -605835.000000 0 0 1
17.963570 -31.868524 -1.972012 36.635795 -1.057513 1.624650 0.020434 0.024367 -440656.000000 0 0 1
18.807770 -30.805224 -1.305812 36.116467 -1.022664 1.606960 0.024207 0.020487 -825454.000000 0 0 1
18.234870 -29.531124 -1.228212 34.729041 -1.017623 1.606169 0.027689 0.015248 -190606.000000 0 0 1
18.795170 -28.603524 -0.345712 34.227760 -0.989451 1.580897 0.025587 0.012152 -394545.000000 0 0 1
18.270970 -27.199324 -0.585612 32.771550 -0.979287 1.588667 0.017920 0.018650 -155177.000000 0 0 1
18.856770 -26.556724 -1.723512 32.616068 -0.953353 1.623663 0.017694 0.012289 75748.200000 0 0 1
18.008970 -26.538424 -2.830712 32.196644 -0.974578 1.658829 0.025091 0.011622 -653764.000000 0 0 1
32.075060 -29.863424 13.589488 45.883633 -0.749706 1.270113 -0.017508 0.010148 -50517.400000 0 0 1
32.848250 -30.212524 14.727388 46.996809 -0.743626 1.252057 0.002896 0.019298 279268.000000 0 0 1
32.211810 -31.100224 15.667988 47.437437 -0.767843 1.234188 -0.006657 0.024744 -72421.500000 0 0 1
32.658720 -30.854724 17.109088 48.076261 -0.757002 1.206947 -0.001797 0.019295 175518.000000 0 0 1
31.887530 -31.644324 18.008188 48.399097 -0.781570 1.189551 -0.009492 0.008451 645498.000000 0 0 1
32.590940 -31.685424 19.239288 49.358744 -0.771311 1.170398 -0.015825 0.008834 370184.000000 0 0 1
33.450400 -32.995524 19.448688 50.851601 -0.778552 1.178339 -0.015694 0.014842 -565208.000000 0 0 1
34.381230 -33.136824 18.458988 51.194260 -0.766970 1.201920 -0.015086 0.021020 -699947.000000 0 0 1
35.085210 -34.342124 18.668388 52.524872 -0.774696 1.207433 0.001250 0.012051 -725081.000000 0 0 1
-35.548161 34.114645 17.618788 52.324969 -0.764823 1.227367 0.008820 0.009860 -944187.000000 0 0 1
-34.469723 -33.723724 17.725988 51.377641 0.774459 1.218543 0.016888 0.005537 -437873.000000 0 0 1
-33.582303 -33.829824 16.624288 50.483611 0.789070 1.235233 0.032454 0.005560 -612825.000000 0 0 1
-32.276973 -33.151724 17.087088 49.323507 0.798767 1.217035 0.019354 -0.007120 18812.300000 0 0 1
-31.317223 -33.058224 16.011088 48.269758 0.812436 1.232691 0.040880 -0.015140 320877.000000 0 0 1
-31.568553 -32.014824 15.030588 47.407184 0.792417 1.248176 0.057641 -0.008023 -423933.000000 0 0 1
-30.329013 -31.835024 14.109288 46.177806 0.809620 1.260288 0.061527 -0.016150 1552230.000000 0 0 1
-29.087853 -31.442624 14.761188 45.306009 0.824281 1.238927 0.066665 -0.022009 979935.000000 0 0 1
-27.993123 -31.447124 13.851588 44.321586 0.843442 1.252947 0.061077 -0.019900 -208634.000000 0 0 1
-26.764203 -30.958824 14.619588 43.456918 0.857939 1.227688 0.060307 -0.029687 251775.000000 0 0 1
-25.593393 -31.217424 13.821388 42.668256 0.884072 1.240919 0.056371 -0.023706 456804.000000 0 0 1
-24.475863 -30.498424 14.332688 41.649102 0.894515 1.219485 0.025107 -0.018470 756964.000000 0 0 1
-23.151063 -30.540224 13.513388 40.636051 0.922162 1.231794 0.043529 -0.014444 626143.000000 0 0 1
-22.363363 -31.731924 13.657988 41.153076 0.956883 1.232498 0.047062 -0.011086 364898.000000 0 0 1
-21.200463 -31.580624 12.856988 40.150935 0.979584 1.244838 0.044762 -0.018897 175819.000000 0 0 1
-20.690563 -32.903024 12.297988 40.767007 1.009444 1.264358 0.040194 -0.012780 297482.000000 0 0 1
-21.470463 -33.402324 11.179188 41.251306 0.999511 1.296362 0.039172 -0.015884 495747.000000 0 0 1
-21.266063 33.913745 11.044588 41.525539 -1.010715 1.301585 0.041123 -0.009816 -534515.000000 0 0 1
-22.225663 33.222745 10.129788 41.235221 -0.981187 1.322597 0.026630 -0.006333 -759447.000000 0 0 1
-21.836763 33.392145 8.782688 40.853581 -0.991650 1.354125 0.023770 -0.002041 175873.000000 0 0 1
-22.929063 33.174945 7.905488 41.095202 -0.966031 1.377220 0.025056 -0.007431 -260515.000000 0 0 1
-22.716263 33.473645 6.360988 40.950893 -0.974556 1.414833 0.021020 -0.005321 -41115.600000 0 0 1
-21.865863 32.542245 5.592888 39.602955 -0.979164 1.429099 0.024435 -0.013950 1125370.000000 0 0 1
-20.461763 32.553645 5.862888 38.894691 -1.009645 1.419482 0.017119 -0.010034 429403.000000 0 0 1
-19.767063 33.865145 5.321088 39.571439 -1.042449 1.435920 0.030652 -0.014566 -850554.000000 0 0 1
-19.764063 -33.716224 6.182788 39.568028 1.040594 1.413896 0.040039 -0.010773 205223.000000 0 0 1
-18.948963 -33.858724 7.340288 39.488685 1.060576 1.383826 0.034001 -0.006598 -279060.000000 0 0 1
-19.031663 -32.753124 8.426288 38.806876 1.044417 1.351919 0.030440 -0.006880 -231808.000000 0 0 1
-18.433963 -31.489924 8.085888 37.373893 1.041187 1.352721 0.049694 -0.016604 -188013.000000 0 0 1
-18.498663 -30.455524 9.064288 36.768203 1.024954 1.321703 0.054153 -0.012893 -1348.070000 0 0 1
-17.721463 -30.639124 10.380088 36.885666 1.046416 1.285531 0.035436 -0.005378 496913.000000 0 0 1
-16.329263 -30.792424 10.116488 36.292720 1.083203 1.288307 0.045320 -0.011107 -451432.000000 0 0 1
-15.611963 -30.912124 11.274288 36.419807 1.103122 1.256061 0.059855 -0.009569 316304.000000 0 0 1
-14.201263 -31.524124 10.952288 36.268428 1.147536 1.264029 0.065257 -0.007763 292357.000000 0 0 1
-13.296763 -30.672324 10.315288 34.985719 1.161740 1.271505 0.031456 -0.007394 -491089.000000 0 0 1
-12.288863 -31.543524 9.794388 35.241170 1.199301 1.289163 0.027974 0.001185 227842.000000 0 0 1
-11.110263 -30.786124 9.115988 33.975353 1.224457 1.299156 0.017647 0.005287 437294.000000 0 0 1
-10.333263 -30.193424 10.181388 33.497460 1.241055 1.261965 0.011109 0.008471 -168565.000000 0 0 1
-9.463763 -29.221124 9.602988 32.181583 1.257589 1.267780 0.019679 0.005460 358619.000000 0 0 1
-8.563063 -28.501124 10.647988 31.607274 1.278930 1.227191 0.010106 0.017167 193321.000000 0 0 1
-9.198563 -27.490524 11.371988 31.139438 1.247899 1.196953 0.009731 0.017034 -435344.000000 0 0 1
-8.563163 -27.246024 12.616088 31.222416 1.266281 1.154833 0.010342 0.015243 -278504.000000 0 0 1
-9.134763 -26.056924 13.347388 30.668550 1.233614 1.120520 0.016550 0.007412 10617.300000 0 0 1
-8.937363 -24.729224 12.855888 29.269179 1.223994 1.116055 0.014696 0.009288 -170570.000000 0 0 1
-9.719563 -24.445924 11.730188 28.804000 1.192365 1.151364 0.012907 0.007118 -123314.000000 0 0 1
-9.295763 -23.116024 11.145188 27.294267 1.188451 1.150168 0.003199 0.007116 222783.000000 0 0 1
-8.098363 -23.105424 10.389088 26.596565 1.233680 1.169494 0.001376 -0.003903 -81947.700000 0 0 1
-7.737863 -21.809624 9.952288 25.190916 1.229860 1.164647 0.002190 0.002262 -536213.000000 0 0 1
-6.550963 -21.889824 9.028388 24.568095 1.280010 1.194494 0.008877 -0.005768 466672.000000 0 1 0
-5.297063 -22.178524 9.676088 24.770395 1.336351 1.169479 0.016025 -0.007860 -276158.000000 0 1 0
-4.201763 -22.154924 8.820288 24.213487 1.383369 1.197946 0.025153 -0.013093 -35229.200000 0 1 0
-3.112663 -23.112624 9.375488 25.135271 1.436928 1.188555 0.040026 -0.010980 246669.000000 0 0 1
-2.446863 -22.554924 10.522888 25.008857 1.462734 1.136506 0.045227 -0.009986 305195.000000 0 0 1
-1.384563 -23.458324 10.925188 25.914662 1.511842 1.135606 0.049608 -0.008743 1839490.000000 0 0 1
-0.315463 -22.825624 11.919988 25.752568 1.556977 1.089571 0.047868 -0.007921 884517.000000 0 0 1
-0.914963 -22.732624 13.217588 26.311860 1.530569 1.044490 0.052249 -0.004897 538526.000000 0 0 1
0.005937 -22.350924 14.265088 26.515214 -1.570531 1.002738 0.055683 -0.006093 579360.000000 0 0 1
0.637937 -20.891324 14.212188 25.275298 -1.540270 0.973637 0.054737 -0.018022 -103740.000000 0 0 1
1.592737 -20.671424 13.235888 24.597425 -1.493898 1.002614 0.064242 -0.026437 -703775.000000 0 1 0
2.090837 -19.385824 13.134588 23.509555 -1.463358 0.977989 0.062848 -0.023779 815754.000000 0 1 0
3.574037 -19.192424 12.650188 23.262634 -1.386684 0.995839 0.068534 -0.026563 976272.000000 0 1 0
3.802537 -19.756324 11.334088 23.091842 -1.380650 1.057758 0.063426 -0.015341 69761.700000 0 1 0
5.200837 -20.000024 11.182288 23.496664 -1.316389 1.074798 0.061855 -0.009413 423709.000000 0 1 0
5.660937 -20.688624 9.914688 23.629778 -1.303708 1.137809 0.063737 -0.019287 -350377.000000 0 1 0
5.850837 -19.842924 8.814388 22.487049 -1.284064 1.168018 0.058672 -0.021921 -337093.000000 0 1 0
6.104537 -20.541424 7.595288 22.735520 -1.281927 1.230176 0.050722 -0.023561 821852.000000 0 1 0
7.567537 -21.125224 7.391988 23.625922 -1.226815 1.252577 0.050816 -0.005883 933589.000000 0 1 0
8.599637 -20.214624 7.054688 23.072785 -1.168573 1.260062 0.060458 -0.017137 185858.000000 0 1 0
9.100437 -19.323024 8.050188 22.825485 -1.130647 1.210358 0.065586 -0.011462 -98530.600000 0 1 0
9.712837 -19.831724 9.357888 23.983464 -1.115372 1.169968 0.037768 -0.004666 -515682.000000 0 1 0
8.749037 -19.917424 10.339588 24.086438 -1.156905 1.127112 0.046918 -0.013568 -707793.000000 0 1 0
9.348237 -19.684824 11.616788 24.694769 -1.127433 1.081035 0.035163 -0.010481 389782.000000 0 1 0
8.344537 -19.849724 12.801488 25.050368 -1.172841 1.034414 0.045029 -0.014088 -113564.000000 0 0 1
8.159537 -21.194424 13.227088 26.281886 -1.203300 1.043409 0.041614 -0.009870 306373.000000 0 0 1
7.339737 -21.390424 14.392388 26.806022 -1.240253 1.004028 0.057077 -0.009030 323008.000000 0 0 1
7.707737 -22.755624 15.082888 28.367607 -1.244208 1.010197 0.040074 -0.011457 96056.500000 0 0 1
7.522537 -23.843424 14.215288 28.760595 -1.265183 1.053810 0.039587 -0.010910 -125235.000000 0 0 1
7.730737 -25.069424 14.935788 30.188045 -1.271676 1.053240 0.034210 -0.012376 44470.200000 0 0 1
7.609837 -26.312024 14.059388 30.787962 -1.289263 1.096568 0.032485 -0.017466 -68171.400000 0 0 1
8.770137 -26.843524 13.457688 31.282574 -1.255016 1.126085 0.032585 -0.012483 -318181.000000 0 0 1
8.515237 -27.897024 12.595288 31.770969 -1.274541 1.163160 0.030609 -0.021554 -85605.800000 0 0 1
9.803337 -28.348124 11.893088 32.267121 -1.237851 1.193313 0.042202 -0.021307 510463.000000 0 0 1
10.823037 -29.026524 12.633288 33.455600 -1.213897 1.183579 0.034845 -0.024064 1097200.000000 0 0 1
11.949037 -29.429024 11.807788 33.886145 -1.185103 1.214874 0.040490 -0.021101 870907.000000 0 0 1
12.984537 -30.192824 12.660488 35.220630 -1.164653 1.203105 0.035925 -0.022943 -823384.000000 0 0 1
13.501937 -29.430824 13.736588 35.173421 -1.140674 1.169579 0.030464 -0.020462 549261.000000 0 0 1
14.589437 -29.986224 14.479088 36.354770 -1.117976 1.161164 0.036521 -0.014259 935215.000000 0 0 1
15.936837 -30.302624 13.751888 36.896426 -1.086626 1.188862 0.051075 -0.009196 -185916.000000 0 0 1
16.632337 -29.062824 13.666788 36.167160 -1.051002 1.183293 0.047599 -0.018375 -132493.000000 0 0 1
17.928637 -29.171124 13.149288 36.678254 -1.019709 1.204132 0.056788 -0.018902 -259698.000000 0 0 1
18.803437 -27.910024 13.262088 36.172112 -0.977929 1.195403 0.046304 -0.021205 176176.000000 0 0 1
20.095737 -27.981524 12.668488 36.705516 -0.947974 1.218410 0.037106 -0.021800 285845.000000 0 0 1
20.756137 -26.746924 12.708588 36.162458 -0.910850 1.211698 0.024741 -0.020742 232097.000000 0 0 1
22.139637 -26.886824 12.006788 36.840573 -0.881926 1.238820 0.024869 -0.009537 665193.000000 0 0 1
23.202037 -27.487824 12.726888 38.156109 -0.869747 1.230732 0.037661 -0.010771 270921.000000 0 0 1
24.370637 -27.688024 11.969688 38.779222 -0.849036 1.257010 0.021038 -0.016549 -243006.000000 0 0 1
25.403637 -28.610624 12.652688 40.298922 -0.844702 1.251424 0.022919 -0.010149 708503.000000 0 0 1
26.370937 -27.979024 13.545988 40.764518 -0.814977 1.232057 0.014014 -0.007878 1454660.000000 0 0 1
27.637537 -27.826924 12.879188 41.280076 -0.788813 1.253504 0.003295 -0.005492 910173.000000 0 0 1
28.680137 -26.968324 13.699788 41.683630 -0.754647 1.235911 0.020453 -0.006204 249878.000000 0 0 1
28.299237 -25.641324 13.784888 40.599846 -0.736163 1.224379 0.035454 -0.017754 203993.000000 0 0 1
27.495637 -25.273524 14.888288 40.204754 -0.743313 1.191452 0.048099 -0.010406 -18302.100000 0 0 1
28.298137 -24.999624 16.251688 41.108188 -0.723589 1.164359 0.035123 -0.005273 -150735.000000 0 0 1
28.735337 -26.217224 16.776388 42.361653 -0.739607 1.163610 0.026146 -0.006808 83436.000000 0 0 1
29.323637 -26.045324 18.052488 43.175536 -0.726259 1.139423 0.034873 -0.002647 -38279.600000 0 0 1
29.855237 -27.401124 18.670188 44.617628 -0.742563 1.139060 0.020780 0.003280 -25880.300000 0 0 1
28.821137 -28.321824 18.956188 44.633180 -0.776660 1.132154 0.011261 0.000205 -49716.700000 0 0 1
29.245737 -29.326024 19.860488 45.932209 -0.786769 1.123658 0.011203 -0.001624 181835.000000 0 0 1
28.108137 -30.303324 20.298288 46.047577 -0.822962 1.114294 0.002825 0.003852 169559.000000 0 0 1
27.085437 -29.669824 21.132088 45.392560 -0.830902 1.086551 0.003168 0.008064 632572.000000 0 0 1
26.074237 -30.532824 21.521788 45.555533 -0.864000 1.078751 0.000616 0.004086 -82636.900000 0 0 1
25.024737 -30.991024 20.480488 44.789859 -0.891509 1.095888 0.016030 -0.000420 -961810.000000 0 0 1
25.548937 -31.969924 19.606688 45.378921 -0.896571 1.124014 0.005191 0.000871 -164022.000000 0 0 1
24.877237 -32.191124 18.386288 44.645280 -0.912863 1.146334 0.020471 -0.000331 -675734.000000 0 0 1
25.244437 -31.317124 17.165688 43.734480 -0.892353 1.167451 0.024406 0.002565 392202.000000 0 0 1
26.590837 -31.608924 16.754188 44.574651 -0.871407 1.185463 0.006748 0.005012 796469.000000 0 0 1
26.947437 -30.588824 15.827488 43.730423 -0.848602 1.200456 0.014613 -0.008708 -56772.200000 0 0 1
28.469837 -30.665524 15.524088 44.630744 -0.822511 1.215537 0.013949 0.000740 121375.000000 0 0 1
28.849037 -31.639324 14.487588 45.201814 -0.831495 1.244530 0.036270 0.007461 372382.000000 0 0 1
28.993037 -32.947824 14.961288 46.368044 -0.849159 1.242254 0.047739 0.002302 -494337.000000 0 0 1
28.163737 -34.045224 14.246088 46.424395 -0.879662 1.258897 0.046783 -0.006481 -76521.500000 0 0 1
28.386737 -34.196924 12.843588 46.262233 -0.877972 1.289474 0.045659 -0.009290 183242.000000 0 0 1
27.572837 33.526945 12.269488 45.109397 0.882540 1.295332 0.035089 -0.017409 -401774.000000 0 0 1
27.907237 33.271745 10.841888 44.759015 0.872860 1.326135 0.053978 -0.022503 -282056.000000 0 0 1
29.143837 32.574745 10.773288 45.017118 0.840931 1.329136 0.032744 -0.020919 431603.000000 0 0 1
29.324237 31.905745 9.505888 44.364956 0.827534 1.354856 0.032971 -0.024266 -135593.000000 0 0 1
30.758937 31.355145 9.418988 44.921873 0.794996 1.359554 0.019272 -0.013703 -59912.500000 0 0 1
31.093837 30.360245 10.368888 44.677567 0.773461 1.336578 0.017015 -0.007943 836251.000000 0 0 1
32.508837 30.083945 10.321188 45.479612 0.746677 1.341861 0.032917 -0.004999 965518.000000 0 0 1
33.002037 29.455945 11.625788 45.737797 0.728683 1.313793 0.031323 -0.001241 -245376.000000 0 0 1
32.654437 28.082045 11.772888 44.648789 0.710257 1.303964 0.019230 -0.004959 137642.000000 0 0 1
32.787537 27.546845 13.074588 44.774949 0.698755 1.274472 0.034202 -0.011831 -130222.000000 0 0 1
32.598237 26.043745 13.066588 43.722505 0.674089 1.267306 0.019659 0.000400 351397.000000 0 0 1
33.541537 25.281245 12.289088 43.762972 0.645884 1.286158 0.018547 0.012335 214994.000000 0 0 1
33.180837 23.979045 12.137688 42.699953 0.625784 1.282567 0.024502 0.004639 -323147.000000 0 0 1
32.120337 23.619145 11.087288 41.382460 0.634048 1.299560 0.021412 -0.006240 -396102.000000 0 0 1
31.018037 22.996145 11.666888 40.336802 0.637961 1.277367 0.038507 -0.013772 -1097530.000000 0 0 1
29.982637 22.899045 10.743888 39.226979 0.652239 1.293361 0.039324 -0.010727 -589994.000000 0 0 1
28.759037 22.291145 11.456788 38.147547 0.659373 1.265760 0.037656 -0.010951 -311951.000000 0 0 1
28.004037 23.155445 12.265688 38.351634 0.690906 1.245255 0.038364 -0.009485 428957.000000 0 0 1
26.946037 22.443345 12.928388 37.375605 0.694482 1.217594 0.043440 -0.008369 308219.000000 0 0 1
24.091637 9.395145 25.873138 36.579981 0.371835 0.785120 0.011246 0.004348 -262246.000000 0 0 1
23.671937 8.180745 26.405248 36.393988 0.332739 0.758979 0.013692 0.001801 148877.000000 0 0 1
22.279037 7.957245 26.466888 35.498865 0.343042 0.729407 0.023841 0.001652 -104549.000000 0 0 1
21.890737 6.786945 27.362488 35.692755 0.300640 0.697249 0.035039 -0.004318 -255734.000000 0 0 1
22.034137 6.821045 28.775148 36.878707 0.300211 0.675708 0.050654 -0.007596 815267.000000 0 0 1
23.385537 6.788445 29.247888 38.057920 0.282519 0.694287 0.046226 -0.010180 434623.000000 0 0 1
23.449237 6.576745 30.797028 39.262925 0.273442 0.669101 0.047742 -0.013141 -280477.000000 0 0 1
23.219037 7.715945 31.545258 39.921959 0.320830 0.659705 0.055507 -0.008541 325920.000000 0 0 1
23.275937 7.467645 32.938310 41.017890 0.310457 0.638446 0.061475 -0.015591 -107289.000000 0 0 1
23.442837 8.746445 33.796705 42.050972 0.357101 0.637295 0.067040 -0.010750 -59882.900000 0 0 1
24.709237 9.358745 33.698963 42.822338 0.362059 0.664949 0.049951 -0.007495 -74950.100000 0 0 1
25.088437 10.052345 -33.764872 43.249808 0.381089 2.466572 0.058867 -0.004393 -237932.000000 0 0 1
26.275037 10.974345 -34.013422 44.359066 0.395647 2.444598 0.033871 -0.002261 -536209.000000 0 0 1
26.019937 12.230345 33.973058 44.506035 0.439392 0.702335 0.027322 -0.005058 281849.000000 0 0 1
25.511337 13.279945 -33.810782 44.388673 0.479953 2.436727 0.030006 -0.005053 91671.200000 0 0 1
25.189637 14.600245 34.142868 44.871154 0.525294 0.706083 0.034842 -0.005897 -470222.000000 0 0 1
26.384137 15.293345 33.889882 45.590933 0.525316 0.732736 0.022375 -0.010198 -26506.200000 0 0 1
26.188537 16.581545 33.360875 45.538282 0.564446 0.748678 0.034273 -0.004764 -90478.600000 0 0 1
26.579537 17.740345 34.306857 46.884455 0.588540 0.749937 0.026920 -0.013285 -63005.900000 0 0 1
25.897237 17.720945 -33.083682 45.598562 0.600097 2.382618 0.020233 -0.021238 571713.000000 0 0 1
26.698937 17.108245 -32.051622 45.086936 0.569869 2.361552 0.024068 -0.015360 29467.100000 0 0 1
25.874537 16.680445 -30.832852 43.570560 0.572617 2.356968 0.005166 -0.010097 117902.000000 0 0 1
25.043237 15.533045 -31.035292 42.797530 0.555176 2.382071 0.020834 -0.004743 417357.000000 0 0 1
24.238937 15.174145 -29.939652 41.402458 0.559335 2.379130 0.026617 -0.009527 -49710.600000 0 0 1
23.543337 13.807545 -30.023782 40.575418 0.530414 2.403792 0.027510 -0.007344 -548041.000000 0 0 1
22.562337 13.740345 -31.036202 40.756619 0.547007 2.436422 0.035675 -0.008620 135734.000000 0 0 1
22.083337 12.448745 -31.427262 40.377195 0.513313 2.462817 0.029522 0.004753 -254156.000000 0 0 1
21.201537 11.824545 -30.362082 38.873913 0.508752 2.467126 0.031908 -0.000298 -2311670.000000 0 0 1
20.040337 12.489245 -30.165872 38.308957 0.557308 2.477435 0.033932 0.007465 -1197760.000000 0 0 1
19.272237 11.792045 -29.179142 36.903845 0.549100 2.482716 0.033160 0.009217 168733.000000 0 0 1
17.965937 12.565745 -28.860642 36.243752 0.610337 2.491938 0.018171 0.006296 -156770.000000 0 0 1
17.179637 12.812645 -29.995722 36.865257 0.640810 2.521214 0.005943 0.009256 9620.120000 0 0 1
15.949237 13.345345 -29.535312 36.122169 0.696745 2.528115 0.009300 -0.002124 358949.000000 0 0 1
14.830837 13.503845 -30.657922 36.636263 0.738600 2.562243 0.016506 -0.005950 692947.000000 0 0 1
14.375137 12.239845 -31.130262 36.408126 0.705341 2.596417 0.006757 -0.004769 482832.000000 0 0 1
13.294137 11.629145 -30.347512 35.113282 0.718693 2.614502 0.010364 -0.010645 492636.000000 0 0 1
12.210137 11.181945 -31.341032 35.445503 0.741472 2.655582 0.014762 -0.007220 -325256.000000 0 0 1
11.632437 12.267145 -32.016482 36.205684 0.811949 2.655777 0.020391 -0.005084 -226464.000000 0 0 1
10.797937 11.730445 -33.023252 36.670615 0.826767 2.691800 0.027531 0.000075 27248.500000 0 0 1
10.355237 12.657045 -34.168701 37.880495 0.885092 2.695206 0.032638 -0.001931 -154662.000000 0 0 1
11.343737 12.927645 33.521810 37.676466 0.850564 0.474047 0.022501 0.003494 217069.000000 0 0 1
10.787237 13.567345 32.372168 36.720493 0.899057 0.491591 0.033044 0.000086 14261.300000 0 0 1
11.761537 13.372845 31.191328 35.917485 0.849418 0.518797 0.028126 0.000507 -49933.700000 0 0 1
11.856437 12.051745 30.735098 35.077998 0.793567 0.502891 0.015101 -0.004152 -20726.900000 0 0 1
12.015637 12.010245 29.346378 33.909164 0.785174 0.524767 0.025271 -0.006316 -3418.710000 0 0 1
12.812037 10.764145 28.812878 33.319620 0.698753 0.526160 0.015087 -0.000177 428782.000000 0 0 1
12.096037 9.564845 29.166848 32.992505 0.669070 0.486350 0.030253 -0.004471 601114.000000 0 0 1
12.522937 8.452145 28.335038 32.111324 0.593704 0.489857 0.008827 -0.012214 -219803.000000 0 0 1
11.784337 7.097145 28.600018 31.736432 0.542074 0.448328 0.019957 -0.011597 -122180.000000 0 0 1
10.418437 7.143545 28.232218 30.929472 0.601039 0.420724 0.027615 -0.021175 -292297.000000 0 0 1
9.735337 5.946345 28.500208 30.698496 0.548323 0.380737 0.024498 -0.025617 -29314.900000 0 0 1
10.025137 4.709645 27.624668 29.762500 0.439184 0.381331 0.020075 -0.019104 -644354.000000 0 0 1
11.148337 4.018245 28.065498 30.464798 0.345940 0.399531 0.002955 -0.013530 -292244.000000 0 0 1
11.069937 2.675845 27.512578 29.776595 0.237172 0.392472 -0.006895 -0.008424 -550370.000000 0 0 1
11.641937 1.595245 28.365518 30.703129 0.136178 0.392739 -0.007462 -0.010405 -258968.000000 0 0 1
10.900937 1.503345 29.559168 31.541004 0.137045 0.356379 0.011818 -0.005854 87965.000000 0 0 1
11.144237 0.235645 30.106668 32.103910 0.021142 0.354592 0.007088 -0.001794 157620.000000 0 0 1
10.068937 -0.085155 31.179798 32.765387 -0.008457 0.312370 0.025509 0.000585 187513.000000 0 0 1
10.120737 0.782645 32.288598 33.846646 0.077177 0.304598 0.002839 -0.006389 -858487.000000 0 0 1
8.825137 1.024445 32.756692 33.940145 0.115565 0.264852 0.021125 -0.001349 -347894.000000 0 0 1
8.736737 2.160345 33.804788 34.982301 0.242409 0.260195 0.023638 -0.004793 -85980.600000 0 0 1
8.697837 3.524945 33.277443 34.575509 0.385038 0.274883 0.017294 -0.012309 162033.000000 0 0 1
9.848937 3.986445 32.585695 34.274201 0.384602 0.315197 0.005497 -0.005592 -88441.600000 0 0 1
9.666837 5.425745 31.989668 33.855950 0.511458 0.333581 0.010605 -0.010006 -3043.820000 0 0 1
9.938337 6.434245 32.888597 34.954683 0.574557 0.345541 0.002391 -0.005955 61517.800000 0 0 1
10.295137 7.657745 32.250498 34.709157 0.639535 0.378651 0.009083 -0.008896 -265479.000000 0 0 1
10.241037 8.936745 33.142824 35.821656 0.717492 0.389188 0.022671 -0.008169 -348455.000000 0 0 1
8.973737 9.458545 33.445217 35.896721 0.811694 0.371712 0.026890 -0.014241 -583953.000000 0 0 1
8.408637 8.781545 -34.121129 36.222537 0.807088 2.799296 0.025383 -0.013046 -385036.000000 0 0 1
7.044637 9.392945 -33.707542 35.693875 0.927300 2.806412 0.018751 -0.010714 78067.800000 0 0 1
6.680737 8.746145 -32.536332 34.347347 0.918490 2.815413 0.015855 -0.009012 -315345.000000 0 0 1
5.381537 9.177345 -32.182262 33.895171 1.040442 2.822322 0.017059 -0.008651 171607.000000 0 0 1
4.819837 8.255645 -31.031672 32.470774 1.042356 2.842758 0.015458 -0.007499 -619659.000000 0 0 1
5.535637 8.465245 -29.843482 31.510904 0.991667 2.814823 0.021087 -0.013209 -94204.800000 0 0 1
5.115637 7.734045 -28.693192 30.154344 0.986418 2.829016 0.018686 -0.009137 186191.000000 0 0 1
3.632537 7.922645 -28.259032 29.572564 1.140896 2.842427 0.014500 -0.008852 178908.000000 0 0 1
2.714637 7.226645 -29.070132 30.077670 1.211462 2.882029 0.012610 -0.003944 26752.600000 0 0 1
1.362437 7.363145 -28.643282 29.605908 1.387831 2.885888 0.026255 0.007260 524672.000000 0 0 1
0.503637 6.714645 -29.790152 30.541665 1.495931 2.919297 0.039037 -0.001156 -221376.000000 0 0 1
0.724737 7.420145 -30.973232 31.857886 1.473434 2.905380 0.026317 -0.003330 258750.000000 0 0 1
0.034137 6.826545 -32.053092 32.771994 1.565796 2.931749 0.057456 -0.014186 -323239.000000 0 0 1
0.116237 7.686445 -33.360752 34.234993 1.555675 2.915116 0.075324 -0.020792 1225310.000000 0 0 1
1.485637 7.955845 -33.763752 34.720218 1.386187 2.906326 0.047546 -0.019816 1547430.000000 0 0 1
2.307237 6.963045 34.263454 35.039858 1.250828 0.210903 0.048108 -0.014777 -61755.100000 0 0 1
1.965137 6.696345 32.773202 33.507993 1.285346 0.209807 0.045877 -0.024365 -19127.100000 0 0 1
0.722637 5.987445 32.634335 33.186918 1.450685 0.182740 0.062101 -0.026140 227246.000000 0 0 1
0.317037 5.796745 31.305988 31.839718 1.516158 0.183358 0.077310 -0.026857 251099.000000 0 0 1
1.043737 4.641045 30.506788 30.875440 1.349584 0.154686 0.076644 -0.025757 134780.000000 0 0 1
0.695837 4.666145 29.160238 29.539408 1.422763 0.160397 0.066458 -0.028095 55112.900000 0 0 1
1.307637 3.616445 28.410438 28.669524 1.223842 0.134541 0.062349 -0.018680 99603.000000 0 0 1
1.249137 3.969745 26.887418 27.207581 1.265941 0.153562 0.050232 -0.018288 -51029.100000 0 0 1
2.111437 5.017345 26.538668 27.091195 1.172465 0.202310 0.061964 -0.016368 -165855.000000 0 0 1
1.932837 5.581745 25.206548 25.889415 1.237441 0.230187 0.041397 -0.014356 -919734.000000 0 0 1
2.679937 6.872745 24.904638 25.974174 1.198995 0.287967 0.038718 -0.005023 369643.000000 0 0 1
4.105437 6.884745 24.882188 26.141492 1.033095 0.311655 0.046818 0.001862 325557.000000 0 0 1
4.564237 6.586445 23.578588 24.903079 0.964801 0.327610 0.053012 -0.015714 -314723.000000 0 1 0
6.120437 6.555745 23.518778 25.170826 0.819725 0.364319 0.047681 -0.015093 695548.000000 0 0 1
6.755837 5.537945 24.372298 25.890521 0.686655 0.344158 0.051041 -0.012846 302014.000000 0 0 1
6.499437 4.148845 24.155358 25.356201 0.568134 0.308990 0.063872 -0.018490 -749505.000000 0 0 1
6.716137 3.589545 22.703178 23.946307 0.490838 0.323631 0.055548 -0.017533 952507.000000 0 1 0
5.674337 3.936245 21.744478 22.814786 0.606480 0.307520 0.032990 -0.016086 472935.000000 0 1 0
4.432037 3.306945 21.901378 22.588697 0.641030 0.247318 0.041450 -0.018882 165878.000000 0 1 0
3.369637 3.776145 20.811978 21.418501 0.842225 0.238547 0.023730 -0.025218 635948.000000 0 1 0
3.152637 5.181545 20.963678 21.823458 1.024197 0.281633 0.023315 -0.023824 -1048510.000000 0 1 0
2.017737 5.543945 20.303378 21.143173 1.221745 0.282790 0.013641 -0.016793 -1065390.000000 0 1 0
1.656337 7.017345 20.579478 21.805997 1.339004 0.336993 0.011118 -0.006595 273369.000000 0 1 0
2.635837 7.885945 20.020778 21.678730 1.248226 0.393633 0.008286 0.002608 -17096.800000 0 1 0
2.174137 9.180845 20.212478 22.306032 1.338268 0.436720 0.010975 0.000363 330780.000000 0 1 0
3.117437 10.296445 19.703778 22.449367 1.276802 0.499758 0.020241 -0.005419 -485053.000000 0 1 0
3.167437 10.270645 18.295878 21.219283 1.271654 0.531143 0.006277 -0.008814 111405.000000 0 1 0
4.054737 11.187745 17.674778 21.307377 1.223094 0.592559 0.007252 -0.013623 1235760.000000 0 1 0
5.607837 11.026445 17.925078 21.779319 1.100308 0.604068 0.018868 -0.011291 705640.000000 0 1 0
5.980037 9.678645 17.678178 21.022726 1.017349 0.571837 0.015859 0.000196 -937354.000000 0 1 0
7.293537 9.424745 18.033378 21.615370 0.912192 0.583962 0.026175 0.010662 -701990.000000 0 1 0
7.467937 7.929145 18.260778 21.262583 0.815343 0.537830 0.031454 -0.000330 -19895.000000 0 1 0
7.063737 7.458345 19.570678 22.102822 0.812564 0.483361 0.030541 -0.000081 -53167.500000 0 1 0
7.338837 6.067645 19.746978 21.923002 0.690862 0.449320 0.042450 -0.014021 220525.000000 0 1 0
8.790837 5.682445 20.113078 22.673882 0.573844 0.479861 0.050517 -0.004439 140331.000000 0 1 0
9.666437 5.750745 18.977778 22.060534 0.536675 0.535018 0.051091 -0.010485 -483761.000000 0 1 0
10.953937 5.234145 19.130178 22.657201 0.445757 0.565481 0.069959 -0.018411 -177643.000000 0 1 0
11.065237 3.688545 19.102678 22.382072 0.321761 0.548167 0.086249 -0.015052 -726349.000000 0 1 0
10.388737 3.053545 20.143978 22.869846 0.285877 0.493227 0.065260 -0.017410 -127851.000000 0 1 0
10.419837 1.619045 20.117278 22.713415 0.154148 0.482796 0.059238 -0.026871 -327933.000000 0 1 0
9.395337 1.034545 21.087478 23.108968 0.109671 0.421384 0.062235 -0.021584 -203713.000000 0 1 0
9.766637 1.175145 22.427378 24.489905 0.119747 0.413350 0.041111 -0.017943 -23289.000000 0 1 0
8.917737 0.381345 23.219178 24.875725 0.042736 0.367003 0.054369 -0.029735 -130274.000000 0 1 0
9.227037 0.409445 24.776158 26.441707 0.044345 0.356825 0.049326 -0.024047 169172.000000 0 0 1
10.416937 -0.196055 25.279738 27.342571 -0.018819 0.390928 0.028312 -0.019135 348265.000000 0 0 1
10.448537 -1.632755 25.304508 27.425462 -0.155013 0.395861 0.020383 -0.016064 -168984.000000 0 0 1
11.874137 -2.213455 25.228018 27.970474 -0.184295 0.446528 -0.006365 -0.007656 -64388.700000 0 0 1
11.932037 -3.639455 25.183358 28.103749 -0.296052 0.459926 -0.006734 0.000781 -343391.000000 0 0 1
13.243137 -4.131155 25.049418 28.634254 -0.302381 0.505761 -0.011528 0.009937 -101962.000000 0 0 1
13.226837 -5.653155 25.106998 28.935597 -0.403902 0.520269 -0.002917 0.003031 -204442.000000 0 0 1
12.676637 -6.351355 23.979038 27.857335 -0.464470 0.533996 0.010840 -0.011250 42998.900000 0 0 1
12.683637 -7.738655 24.233678 28.425914 -0.547834 0.550007 0.031225 -0.021885 -2725.700000 0 0 1
12.417337 -8.571955 23.006978 27.513447 -0.604201 0.580464 0.039372 -0.014000 151415.000000 0 0 1
12.069337 -9.925655 23.361478 28.105982 -0.688243 0.589547 0.045333 -0.007391 -318655.000000 0 0 1
12.061837 -10.804155 22.246978 27.516281 -0.730451 0.629194 0.044414 -0.012567 -55461.700000 0 0 1
11.373737 -12.158855 22.420678 27.926448 -0.818749 0.638740 0.051192 -0.007043 -613638.000000 0 0 1
10.011937 -11.976655 22.587378 27.456672 -0.874513 0.604730 0.038921 -0.002633 -1210000.000000 0 0 1
9.312337 -13.172155 22.786078 27.918286 -0.955407 0.616044 0.040394 -0.001191 456226.000000 0 0 1
7.838337 -13.067155 23.305478 27.844845 -1.030487 0.579062 0.033096 0.002278 361768.000000 0 0 1
7.165537 -12.464955 22.263978 26.502920 -1.049071 0.573407 0.033187 0.004993 -164183.000000 0 0 1
5.749437 -12.381855 22.483078 26.303140 -1.136078 0.545693 0.021143 0.000731 991246.000000 0 0 1
5.168137 -11.260055 21.575078 24.879359 -1.140500 0.521269 0.014198 0.004936 109565.000000 0 1 0
5.381837 -9.965055 22.154578 24.881556 -1.075608 0.472570 0.016465 0.003882 -68669.800000 0 1 0
4.878637 -8.924155 21.268478 23.575195 -1.070507 0.446058 0.009608 0.001670 51475.400000 0 1 0
5.006937 -7.499755 21.901278 23.685053 -0.982139 0.390582 0.012233 -0.006218 167692.000000 0 1 0
4.793137 -6.463555 20.961178 22.452677 -0.932716 0.366544 0.018057 -0.016688 -349135.000000 0 1 0
5.284937 -5.225255 21.445678 22.696938 -0.779720 0.333596 0.038337 -0.021424 106452.000000 0 1 0
-7.540463 -15.833655 -20.667012 27.105140 1.126345 2.437927 0.005460 -0.004645 -88891.100000 0 0 1
-7.011363 -15.384355 -19.440912 25.764058 1.143174 2.425802 0.008968 -0.005185 -361832.000000 0 0 1
-6.490663 -14.102855 -19.522212 24.942655 1.139462 2.469762 0.017492 -0.014126 -50851.700000 0 1 0
-5.817163 -13.599055 -18.196712 23.449820 1.166588 2.459072 0.017527 -0.014187 1407620.000000 0 1 0
-4.534663 -14.240655 -17.976712 23.377802 1.262518 2.448017 0.014278 -0.003809 685274.000000 0 1 0
-3.863763 -13.947355 -16.809512 22.181458 1.300549 2.430759 0.014736 -0.007357 -14950.800000 0 1 0
-2.823063 -15.004355 -16.449412 22.442895 1.384821 2.393438 0.016916 0.009752 -589863.000000 0 1 0
-1.742463 -15.164455 -17.305612 23.075552 1.456394 2.418790 0.011480 0.010849 261672.000000 0 1 0
-0.811163 -16.076355 -16.636412 23.149026 1.520382 2.372678 0.026128 0.014374 1596280.000000 0 1 0
0.608237 -16.414455 -17.240212 23.812376 -1.533758 2.380383 0.024177 0.016786 672599.000000 0 1 0
0.538137 -17.320955 -18.358112 25.245304 -1.539738 2.385015 0.035597 0.015047 -19649.500000 0 0 1
-0.007963 -18.646155 -18.285212 26.115669 1.570369 2.346421 0.029794 0.016329 322548.000000 0 0 1
-0.774763 -19.090955 -19.589112 27.364177 1.530236 2.368661 0.032479 0.010363 171557.000000 0 0 1
-2.011663 -18.477055 -19.839612 27.185632 1.462350 2.388801 0.057329 -0.005656 -391634.000000 0 0 1
-2.531063 -18.824255 -21.077712 28.373030 1.437140 2.408156 0.054502 -0.015578 2535.800000 0 0 1
-3.557663 -17.795955 -21.590312 28.204514 1.373483 2.442601 0.049608 -0.007775 149725.000000 0 0 1
-3.026763 -16.488755 -21.824112 27.519670 1.389252 2.486574 0.047885 0.001363 -9300.230000 0 0 1
-3.298463 -15.758755 -20.667512 26.198555 1.364465 2.479780 0.025935 0.004361 -62443.900000 0 0 1
-2.347963 -14.547255 -20.549612 25.286798 1.410774 2.519502 0.028101 0.001846 -131467.000000 0 0 1
-2.479763 -13.574655 -21.530012 25.572679 1.390113 2.571618 0.025802 -0.003697 -311566.000000 0 0 1
-1.687363 -12.470055 -21.280312 24.722483 1.436300 2.607572 0.008907 0.005268 -245138.000000 0 1 0
-1.488663 -11.553955 -22.490012 25.328061 1.442658 2.663662 0.013061 0.008026 235077.000000 0 0 1
-2.643763 -10.781855 -22.776612 25.337955 1.330336 2.688078 0.013271 0.002613 267003.000000 0 0 1
-2.606263 -10.246455 -24.084912 26.303336 1.321721 2.727943 0.019972 -0.001106 -179592.000000 0 0 1
-3.489163 -8.995155 -24.288212 26.134352 1.200770 2.763471 0.006218 -0.000413 -9726.480000 0 0 1
-4.866863 -9.319555 -24.352612 26.525275 1.089531 2.734033 0.023832 -0.002773 -24608.300000 0 0 1
-5.562563 -8.122055 -24.244012 26.166429 0.970296 2.755882 0.017435 -0.014996 -640823.000000 0 0 1
-7.035663 -8.278455 -23.791712 26.154903 0.866374 2.713228 0.008557 -0.018792 566275.000000 0 0 1
-8.004763 -8.640355 -24.774612 27.431978 0.823565 2.697798 0.025377 -0.016562 376415.000000 0 0 1
-8.434163 -7.589255 -25.608972 28.009844 0.732717 2.724535 0.023990 -0.024021 -306299.000000 0 0 1
-9.300563 -8.045955 -26.801462 29.488239 0.713198 2.711403 0.019007 -0.023361 173312.000000 0 0 1
-9.690463 -7.016855 -27.725682 30.196934 0.626717 2.734213 0.027219 -0.023445 283593.000000 0 0 1
-10.425663 -7.555155 -28.840432 31.583942 0.627091 2.721708 0.029767 -0.021503 293369.000000 0 0 1
-11.379163 -6.524555 -29.493262 32.278595 0.520614 2.723117 0.026951 -0.022445 427842.000000 0 0 1
-10.648563 -5.592555 -30.283732 32.584859 0.483599 2.763527 0.004692 -0.011364 345114.000000 0 0 1
-11.512963 -5.082555 -31.280812 33.717502 0.415733 2.759087 0.031087 -0.018339 141898.000000 0 0 1
-10.846463 -3.958355 -32.148882 34.159405 0.349926 2.796792 0.023853 -0.018927 -203538.000000 0 0 1
-9.831963 -4.480455 -32.955722 34.681719 0.427586 2.824780 0.019885 -0.010630 -310211.000000 0 0 1
-9.241963 -3.472155 -33.702422 35.118699 0.359379 2.856628 0.017238 -0.011460 -287195.000000 0 0 1
-8.060063 -3.827555 34.017456 35.168198 0.443350 0.256519 0.010443 -0.007871 -902331.000000 0 0 1
-6.880063 -3.993455 -33.972112 34.891079 0.525912 2.911573 0.008233 -0.009814 -1885420.000000 0 0 1
-5.848763 -4.425155 33.875088 34.659943 0.647710 0.213215 0.015205 -0.007462 -330961.000000 0 0 1
-4.476863 -3.805255 34.220259 34.721008 0.704484 0.170040 0.026756 -0.007277 11347.100000 0 0 1
-4.489063 -2.419455 34.068558 34.448108 0.494333 0.148582 0.030181 -0.017116 1025880.000000 0 0 1
-3.138863 -1.901355 34.207198 34.403489 0.544634 0.106873 0.024520 -0.012564 1206840.000000 0 0 1
-3.091863 -0.468755 -33.887452 34.031438 0.150464 3.049571 0.036409 -0.014011 -428865.000000 0 0 1
-3.408663 -0.519755 -32.498432 32.680839 0.151315 3.035889 0.034314 -0.014398 94429.000000 0 0 1
-3.807063 0.723745 -32.013602 32.247299 -0.187864 3.021129 0.052450 -0.019295 -697725.000000 0 0 1
-4.201563 0.688345 -30.517852 30.813411 -0.162388 3.002976 0.060496 -0.023771 819921.000000 0 0 1
-5.314563 -0.176855 -30.279472 30.742842 0.033265 2.967751 0.036260 -0.021307 805978.000000 0 0 1
-6.621663 0.352745 -30.544972 31.256458 -0.053221 2.927818 0.042769 -0.024009 677279.000000 0 0 1
-7.664663 -0.835255 -30.560702 31.518268 0.108547 2.894464 0.032240 -0.023818 350428.000000 0 0 1
-7.883863 -1.357655 -29.269712 30.343279 0.170534 2.874792 0.022682 -0.020053 379737.000000 0 0 1
-8.821263 -2.452455 -29.311892 30.708570 0.271168 2.838836 0.005943 -0.014934 325526.000000 0 0 1
-9.205963 -3.057955 -27.955652 29.590866 0.320704 2.807595 0.001061 -0.016361 -247201.000000 0 0 1
-9.927563 -2.127855 -27.197212 29.030547 0.211143 2.784303 -0.002462 -0.016317 106296.000000 0 0 1
-10.191363 -2.616355 -25.870232 27.928088 0.251296 2.755310 -0.004740 -0.010929 129405.000000 0 0 1
-11.146563 -1.742255 -25.018712 27.444804 0.155050 2.717958 -0.001568 -0.007642 182771.000000 0 0 1
-10.510763 -0.637755 -24.475112 26.644211 0.060602 2.735295 0.005332 -0.013146 -180034.000000 0 0 1
-11.452663 0.127045 -23.761812 26.378085 -0.011093 2.692443 0.017141 -0.011988 55239.100000 0 0 1
-10.871763 1.416945 -23.068912 25.541685 -0.129602 2.697933 0.025864 -0.022373 384373.000000 0 0 1
-10.390963 2.369345 -24.051012 26.306598 -0.224187 2.724468 0.023139 -0.024355 -135307.000000 0 0 1
-9.662763 3.376845 -23.423612 25.562427 -0.336202 2.729613 0.034084 -0.024428 -702453.000000 0 0 1
-9.585263 4.752745 -24.179212 26.440502 -0.460313 2.725008 0.044757 -0.029938 -295749.000000 0 0 1
-10.794563 5.402345 -24.480412 27.294661 -0.464023 2.683491 0.041313 -0.029776 -369353.000000 0 0 1
-11.508863 4.834145 -25.557472 28.443053 -0.397659 2.687248 0.037239 -0.032440 31746.100000 0 0 1
-12.922063 5.407845 -25.840462 29.393094 -0.396350 2.644838 0.033297 -0.025808 268638.000000 0 0 1
-12.929863 6.728345 -26.363222 30.124267 -0.479812 2.636540 0.035364 -0.016842 627581.000000 0 0 1
-14.242263 7.098745 -26.813812 31.180359 -0.462389 2.605985 0.038364 -0.021003 581542.000000 0 0 1
-14.409263 8.581545 -27.103522 31.872726 -0.537147 2.587479 0.051613 -0.011475 -250584.000000 0 0 1
-14.166163 9.377145 -25.949532 31.015951 -0.584723 2.561937 0.066606 -0.017743 212738.000000 0 0 1
-14.410463 10.770545 -26.152072 31.742668 -0.641842 2.539015 0.068784 -0.018247 -113556.000000 0 0 1
-14.135263 11.573645 -24.812512 30.812590 -0.686087 2.506930 0.063319 -0.012119 567619.000000 0 0 1
-14.982263 11.216045 -23.673312 30.177700 -0.642618 2.472627 0.071724 -0.010881 729494.000000 0 0 1
-14.542963 11.874645 -22.469512 29.281119 -0.684734 2.445529 0.068086 -0.011273 624319.000000 0 0 1
-15.585463 11.656645 -21.315312 28.863932 -0.642167 2.401603 0.078521 -0.002182 1211600.000000 0 0 1
-16.906863 12.192645 -21.454612 29.913258 -0.624790 2.370612 0.070986 -0.006266 720752.000000 0 0 1
-17.325863 12.767045 -20.193612 29.512115 -0.635050 2.324369 0.060790 0.005256 1058680.000000 0 0 1
-18.844963 13.202145 -20.242912 30.646447 -0.611106 2.292321 0.057180 -0.004145 987521.000000 0 0 1
-19.145163 14.453745 -20.897112 31.814105 -0.646665 2.287431 0.049030 -0.014105 193652.000000 0 0 1
-20.513463 14.795545 -20.840112 32.772253 -0.624853 2.259980 0.027468 -0.012287 23363.700000 0 0 1
-20.889463 16.130545 -21.610012 34.110948 -0.657549 2.256892 0.021380 -0.015228 -207703.000000 0 0 1
-21.085863 16.019845 -23.001812 35.076094 -0.649708 2.285997 0.031120 -0.021079 268745.000000 0 0 1
-21.444863 17.260145 -23.598112 36.258318 -0.677698 2.279478 0.009351 -0.010313 -189533.000000 0 0 1
-21.313863 17.199145 -25.114062 37.159218 -0.678962 2.312914 0.012877 -0.011134 -440222.000000 0 0 1
-20.035063 17.492845 -25.569282 36.894330 -0.717759 2.336495 0.026055 -0.017153 -416627.000000 0 0 1
-19.629463 16.774945 -26.724272 37.160480 -0.707147 2.373387 0.027469 -0.020881 847581.000000 0 0 1
-18.285863 17.285245 -27.379932 37.186196 -0.757275 2.398372 0.012981 -0.015720 870961.000000 0 0 1
-18.539363 18.478445 -28.106402 38.407431 -0.783753 2.391750 -0.023349 -0.024683 360312.000000 0 0 1
-18.073763 19.630645 -27.442872 38.277073 -0.826666 2.370218 -0.028439 -0.029328 -827513.000000 0 0 1
-18.908963 20.927145 -27.758972 39.573410 -0.836017 2.348233 0.000867 -0.018720 489484.000000 0 0 1
-19.970263 21.350745 -26.932582 39.749587 -0.818794 2.315231 0.019078 -0.012295 448242.000000 0 0 1
-21.170063 20.596645 -27.004842 40.020680 -0.771670 2.311452 0.044021 -0.024931 -224091.000000 0 0 1
-22.270463 21.158145 -26.088202 40.301798 -0.759791 2.274861 0.051969 -0.016112 -193026.000000 0 0 1
-22.139563 20.811745 -24.694412 39.154859 -0.754494 2.253233 0.022814 -0.014089 -475458.000000 0 0 1
-23.163263 21.315645 -23.902312 39.524853 -0.743883 2.220237 0.021115 -0.022172 -598227.000000 0 0 1
-22.995663 21.118745 -22.369212 38.408118 -0.742877 2.192485 0.011124 -0.009308 -904507.000000 0 0 1
-21.872763 21.721745 -21.853312 37.786495 -0.781934 2.187485 0.010148 -0.009412 -1220320.000000 0 0 1
-20.920563 20.917745 -21.262612 36.432412 -0.785331 2.193973 0.012495 -0.009473 -585415.000000 0 0 1
-21.271663 20.155845 -19.926512 35.437376 -0.758470 2.167963 0.028947 -0.019378 -1274080.000000 0 0 1
-22.137463 19.050645 -20.004512 35.400209 -0.710594 2.171346 0.036012 -0.017747 338931.000000 0 0 1
-22.886563 18.763445 -18.836212 35.080828 -0.686725 2.137599 0.030494 -0.010756 -515717.000000 0 0 1
-23.969163 19.703845 -18.371612 36.059373 -0.688042 2.105379 0.007330 -0.001696 -1028930.000000 0 0 1
-25.117593 19.607645 -19.196212 37.200104 -0.662820 2.113001 0.011888 -0.001706 80974.000000 0 0 1
-26.071343 20.591245 -18.881712 38.212999 -0.668493 2.087616 0.009262 -0.002262 77635.100000 0 0 1
-27.519423 20.322145 -19.452212 39.353485 -0.636078 2.087819 0.002838 0.008336 651865.000000 0 0 1
-28.258733 19.252345 -18.904212 39.071447 -0.598057 2.075830 0.015638 0.008851 205007.000000 0 0 1
-28.545973 19.323045 -17.510312 38.663467 -0.595060 2.040801 0.000260 0.013399 -725482.000000 0 0 1
-29.445223 18.142245 -17.080312 38.573297 -0.552199 2.029517 -0.004078 0.010393 142935.000000 0 0 1
-28.676573 16.941545 -17.042512 37.414021 -0.533612 2.043743 0.008823 0.003407 364106.000000 0 0 1
-29.417053 15.832045 -16.598712 37.303269 -0.493733 2.031933 0.007597 0.001882 -2896.670000 0 0 1
-28.517373 14.783045 -15.897912 35.840237 -0.478249 2.030382 0.024751 -0.000411 -279504.000000 0 0 1
-27.970943 15.208845 -14.678312 35.059028 -0.498022 2.002781 0.025112 -0.003958 674027.000000 0 0 1
-28.944253 15.352345 -13.572512 35.463747 -0.487679 1.963530 0.004504 0.000700 924835.000000 0 0 1
-28.360173 15.820245 -12.237312 34.703477 -0.508837 1.931171 0.014324 -0.008097 144239.000000 0 0 1
-27.858023 17.162245 -12.224812 34.929330 -0.552146 1.928354 0.010995 -0.001689 577532.000000 0 0 1
-28.930093 18.111645 -12.133212 36.224257 -0.559353 1.912345 0.003932 0.002589 287925.000000 0 0 1
-28.441413 19.597045 -12.203112 36.631599 -0.603327 1.910418 0.025447 -0.006817 157865.000000 0 0 1
-27.602833 20.071145 -11.171412 35.910551 -0.628710 1.887136 -0.003690 -0.017455 296769.000000 0 0 1
-26.515673 20.767145 -11.775512 35.679376 -0.664414 1.907139 0.000009 -0.018324 427264.000000 0 0 1
-25.604833 21.661445 -10.858512 35.252417 -0.702162 1.883909 0.020858 -0.022907 708284.000000 0 0 1
-26.204963 22.871545 -10.346712 36.288594 -0.717579 1.859931 0.044309 -0.032344 428509.000000 0 0 1
-25.170743 23.808945 -10.156512 36.105219 -0.757602 1.855948 0.041684 -0.022865 487355.000000 0 0 1
-25.840933 25.030845 -9.488212 37.206493 -0.769475 1.828660 0.075378 -0.013886 92959.500000 0 0 1
-26.008813 24.741845 -8.130612 36.806576 -0.760439 1.793535 0.067683 -0.027146 -656311.000000 0 0 1
-27.141623 25.324945 -7.613612 37.894427 -0.750787 1.773090 0.076317 -0.028370 -681338.000000 0 0 1
-27.358923 24.772345 -6.178312 37.421267 -0.735822 1.736657 0.080768 -0.030120 31155.100000 0 0 1
-27.494253 23.375345 -6.189112 36.614830 -0.704604 1.740645 0.084569 -0.041001 -26256.600000 0 0 1
-27.491013 22.790445 -4.906912 36.044943 -0.692184 1.707354 0.060978 -0.030974 -173996.000000 0 0 1
-27.619393 21.235145 -5.050512 35.203265 -0.655456 1.714760 0.051966 -0.026291 361865.000000 0 0 1
-26.621853 20.542545 -5.834812 34.128642 -0.657209 1.742606 0.051837 -0.039260 499230.000000 0 0 1
-26.672463 20.647445 -7.233312 34.497218 -0.658754 1.782042 0.043407 -0.038480 -926424.000000 0 0 1
-27.473573 19.533845 -7.872112 34.617025 -0.618074 1.800209 0.035625 -0.031983 -589004.000000 0 0 1
-27.016303 18.197545 -7.733312 33.478879 -0.592771 1.803892 0.019445 -0.026691 338042.000000 0 0 1
-27.328153 17.439945 -8.962012 33.634763 -0.568012 1.840505 0.004102 -0.019620 201080.000000 0 0 1
-26.701163 15.980445 -8.942012 32.377249 -0.539310 1.850616 0.018140 -0.011961 149898.000000 0 0 1
-27.467143 15.179145 -8.099412 32.410659 -0.504860 1.823373 -0.003146 -0.008131 -81315.500000 0 0 1
-27.155453 13.830545 -8.271412 31.577189 -0.471068 1.835831 0.013033 -0.009430 -30581.600000 0 0 1
-28.017163 12.873645 -7.403112 31.709592 -0.430719 1.806437 0.014074 -0.009498 -92941.600000 0 0 1
-29.366993 12.888945 -7.842512 33.015908 -0.413578 1.810626 0.022453 -0.011223 -385365.000000 0 0 1
-30.040043 12.008745 -6.979412 33.095714 -0.380298 1.783277 0.030343 -0.013657 -295970.000000 0 0 1
-30.561823 10.745345 -7.762412 33.312798 -0.338094 1.805974 0.022049 -0.017814 142379.000000 0 0 1
-29.530623 9.801245 -8.004512 32.127781 -0.320461 1.822595 0.040596 -0.011822 130505.000000 0 0 1
-30.131153 8.607145 -8.449112 32.455459 -0.278246 1.834160 0.019162 -0.008455 -459626.000000 0 0 1
-29.176133 7.471445 -8.825012 31.383914 -0.250693 1.855836 0.056849 -0.010867 -573266.000000 0 0 1
-28.767533 7.660945 -10.143512 31.450785 -0.260265 1.899187 0.063663 -0.020894 253018.000000 0 0 1
-27.743243 6.762745 -10.557512 30.444758 -0.239099 1.924928 0.081821 -0.023603 -134256.000000 0 0 1
-27.287233 7.073745 -11.993112 30.634387 -0.253649 1.973049 0.078690 -0.017077 -124925.000000 0 0 1
-26.688723 8.359945 -12.025012 30.443021 -0.303558 1.976865 0.081713 -0.024967 635575.000000 0 0 1
-25.687993 8.448745 -13.044412 30.023507 -0.317754 2.020250 0.075942 -0.003731 283561.000000 0 0 1
-31.388323 26.243445 -33.857532 53.106287 -0.696363 2.262101 0.010691 -0.001006 -96266.700000 0 0 1
-31.715423 27.575245 -34.111450 54.128118 -0.715683 2.252605 0.012990 -0.008890 168573.000000 0 0 1
-31.594463 27.868945 33.181593 53.627477 -0.722828 0.903655 0.022295 -0.009551 -39288.300000 0 0 1
-31.861263 29.356545 33.021476 54.473523 -0.744506 0.919531 0.030884 -0.012979 72494.100000 0 0 1
-32.117063 29.687345 31.684648 54.007047 -0.746105 0.943848 0.042630 -0.011210 70995.300000 0 0 1
-32.179183 31.095945 31.544198 54.749375 -0.768280 0.956778 0.037995 -0.016960 17480.000000 0 0 1
-32.222943 31.593345 30.038668 54.210507 -0.775533 0.983501 0.055572 -0.021467 -199162.000000 0 0 1
-31.069933 31.257045 29.328578 52.938729 -0.788400 0.983623 0.039433 -0.022936 -425432.000000 0 0 1
-30.941433 32.162845 28.248878 52.818746 -0.804751 1.006494 0.052819 -0.019668 414396.000000 0 0 1
-29.577943 32.106545 27.493268 51.590355 -0.826368 1.008755 0.062190 -0.022255 -114831.000000 0 0 1
-29.270003 31.071145 26.655198 50.325428 -0.815239 1.012601 0.068580 -0.021085 -14228.300000 0 0 1
-28.062143 31.272645 25.952558 49.386207 -0.839454 1.017491 0.056270 -0.015786 -194256.000000 0 0 1
-27.970703 32.212845 24.667668 49.280031 -0.855769 1.046549 0.067301 -0.027571 -320701.000000 0 0 1
-28.010383 33.619045 24.940118 50.366965 -0.876154 1.052768 0.056664 -0.023258 812344.000000 0 0 1
-29.269323 34.205045 24.560748 51.282635 -0.863001 1.071362 0.065460 -0.013714 388310.000000 0 0 1
-29.502393 -33.120724 25.199748 51.013732 0.843113 1.054135 0.060713 -0.016615 -503789.000000 0 0 1
-29.639393 -33.234724 26.571778 51.856532 0.842519 1.032808 0.057168 -0.017145 232990.000000 0 0 1
-29.568213 -31.980824 27.199358 51.350340 0.824576 1.012571 0.039733 -0.019577 -558785.000000 0 0 1
-30.013933 -32.144924 28.656958 52.491462 0.819668 0.993291 0.044103 -0.033783 -1391790.000000 0 0 1
-31.343663 -32.426424 28.763938 53.490769 0.802376 1.003046 0.031784 -0.028696 -1606210.000000 0 0 1
-31.573643 -33.055224 29.995648 54.674324 0.808319 0.990079 0.026638 -0.025482 -294356.000000 0 0 1
-33.051143 -33.352224 30.226198 55.842385 0.789932 0.998841 0.040519 -0.030400 -305966.000000 0 0 1
-33.266103 -33.886224 31.522788 56.996456 0.794632 0.984757 0.037349 -0.027531 -621806.000000 0 0 1
-34.618047 -33.800324 31.863098 57.932099 0.773447 0.988423 0.055434 -0.036062 -530310.000000 0 0 1
-34.927548 34.276845 33.282299 59.182321 -0.775996 0.973548 0.050241 -0.031195 -744440.000000 0 0 1
-34.790276 32.871145 33.318839 58.318269 -0.757042 0.962674 0.019770 -0.017606 -146773.000000 0 0 1
-35.784931 32.306845 34.127269 59.067453 -0.734363 0.954805 0.026844 -0.017380 128863.000000 0 0 1
-35.263399 30.986345 -33.857702 57.879226 -0.720928 2.195641 0.019594 -0.009533 380905.000000 0 0 1
-34.344735 31.223245 -32.814032 56.843755 -0.737827 2.186174 0.015334 -0.013142 -359244.000000 0 0 1
-33.808153 30.028645 -32.298962 55.569179 -0.726261 2.191047 0.016510 -0.012315 296568.000000 0 0 1
-32.964033 30.227545 -31.017872 54.428304 -0.742121 2.177162 0.017980 -0.014543 444105.000000 0 0 1
-33.737163 30.485645 -29.849462 54.392656 -0.734813 2.151697 0.020756 -0.020321 -68548.500000 0 0 1
-34.355248 31.757745 -29.638172 55.382837 -0.746130 2.135483 0.010062 -0.005712 -181620.000000 0 0 1
-35.187574 31.694245 -28.379532 55.209495 -0.733214 2.110677 0.012653 0.000894 -351785.000000 0 0 1
-34.544880 31.373745 -27.140752 53.984081 -0.737328 2.097579 0.012621 -0.009308 -465241.000000 0 0 1
-35.450308 30.970245 -26.163282 53.855341 -0.718050 2.078082 0.021377 -0.007770 -795331.000000 0 0 1
-34.887784 30.776945 -24.799512 52.719954 -0.722876 2.060541 0.029458 -0.010693 -346744.000000 0 0 1
-34.470663 31.930745 -24.076312 52.796476 -0.747166 2.044316 0.028185 -0.008709 -4575.990000 0 0 1
-34.140109 31.782245 -22.678812 51.865081 -0.749646 2.023352 0.017314 -0.012583 -94136.400000 0 0 1
-35.267417 31.321845 -21.673312 51.909355 -0.726215 2.001513 0.009852 -0.003441 27636.100000 0 0 1
35.532850 32.402245 -21.388112 52.630222 0.739348 1.989290 0.006680 -0.006680 -381050.000000 0 0 1
-35.728467 33.558045 -20.712212 53.213358 -0.754083 1.970591 0.015753 -0.017045 -931441.000000 0 0 1
-35.445728 33.514245 -19.190612 52.420261 -0.757397 1.945602 0.011656 -0.014032 -287748.000000 0 0 1
-34.352367 32.716445 -18.839412 51.042867 -0.761011 1.948826 0.019486 -0.017991 -243150.000000 0 0 1
-34.319245 32.407345 -17.484512 50.336415 -0.756753 1.925543 0.033181 -0.013561 269492.000000 0 0 1
-32.977733 31.670645 -17.189612 48.847143 -0.765182 1.930403 0.030755 -0.007923 250598.000000 0 0 1
-32.904533 31.045745 -15.906812 47.953865 -0.756340 1.908913 0.036302 -0.006885 106539.000000 0 0 1
-31.701013 30.323045 -15.668812 46.582753 -0.763185 1.913851 0.035409 -0.005751 -16229.100000 0 0 1
-31.488003 30.187045 -14.132712 45.852868 -0.764308 1.884116 0.037107 -0.010320 -1019330.000000 0 0 1
-32.501513 29.582845 -13.390912 45.943547 -0.738421 1.866554 0.040856 -0.007429 -454636.000000 0 0 1
-32.192023 29.276545 -12.022512 45.144027 -0.738003 1.840364 0.056263 -0.014490 -220419.000000 0 0 1
-33.298673 28.512445 -11.258012 45.260401 -0.708119 1.822174 0.046687 -0.015728 -48642.600000 0 0 1
-32.815293 28.005845 -10.003512 44.285901 -0.706487 1.798648 0.057562 -0.013713 57541.800000 0 0 1
-33.484333 26.849045 -9.569412 43.973235 -0.675861 1.790171 0.053220 -0.009138 -764360.000000 0 0 1
-32.790583 26.080245 -8.466612 42.744415 -0.671904 1.770190 0.053255 -0.015523 -183941.000000 0 0 1
-32.539703 26.733945 -7.170012 42.719376 -0.687761 1.739434 0.058984 -0.018353 -839850.000000 0 0 1
-31.318283 27.352845 -7.269512 42.212069 -0.717913 1.743873 0.065012 -0.023351 -1464020.000000 0 0 1
-30.852803 27.946145 -5.912512 42.045692 -0.736005 1.711885 0.073681 -0.024666 -489023.000000 0 0 1
-30.301173 26.974745 -5.103112 40.888136 -0.727386 1.695929 0.083047 -0.031815 2829.240000 0 0 1
-30.046453 27.395945 -3.747412 40.833445 -0.739289 1.662699 0.077220 -0.025830 -74161.500000 0 0 1
-29.213373 26.370945 -2.926112 39.464034 -0.734305 1.645011 0.075947 -0.026623 -468427.000000 0 0 1
-29.878933 25.194345 -2.718112 39.177720 -0.700541 1.640231 0.071498 -0.021416 13923.200000 0 0 1
-29.172183 24.231145 -1.871812 37.969307 -0.693138 1.620114 0.054629 -0.019964 599213.000000 0 0 1
-30.030023 22.951745 -1.665412 37.833298 -0.652586 1.614830 0.059723 -0.022193 -88380.400000 0 0 1
-30.192623 22.171345 -2.835312 37.565968 -0.633397 1.646344 0.050740 -0.018989 -223384.000000 0 0 1
-31.367563 21.418045 -2.773212 38.083426 -0.599095 1.643680 0.054950 -0.017208 -357825.000000 0 0 1
-31.631733 20.604145 -4.011112 37.962960 -0.577342 1.676652 0.050705 -0.008516 -107339.000000 0 0 1
-30.812473 19.419645 -4.035212 36.644427 -0.562368 1.681138 0.044957 -0.010818 300357.000000 0 0 1
-30.953333 18.734545 -5.247612 36.559943 -0.544272 1.714828 0.040779 -0.011700 -316865.000000 0 0 1
-29.904363 17.661845 -5.537712 35.169275 -0.533487 1.728913 0.034560 -0.010483 -294199.000000 0 0 1
-29.801753 16.565445 -4.634312 34.409814 -0.507327 1.705887 0.035032 -0.013814 612637.000000 0 0 1
-28.894063 15.554145 -5.160712 33.217935 -0.493829 1.726787 0.021977 -0.017772 530655.000000 0 0 1
-28.590743 14.390345 -4.176712 32.279367 -0.466302 1.700553 0.018436 -0.014870 93953.700000 0 0 1
-29.728843 13.575045 -3.971012 32.921951 -0.428353 1.691710 0.044595 -0.014598 378140.000000 0 0 1
-29.472733 12.482845 -3.113512 32.158317 -0.400632 1.667766 0.033811 -0.020742 452883.000000 0 0 1
-30.798813 11.762945 -2.686212 33.077930 -0.364831 1.652094 0.051369 -0.020761 537250.000000 0 0 1
-31.557233 11.234145 -3.760412 33.707650 -0.342004 1.682589 0.050315 -0.011896 476180.000000 0 0 1
-32.721903 10.561645 -3.313112 34.543421 -0.312214 1.666856 0.059781 -0.011462 189219.000000 0 0 1
-33.735553 10.167545 -4.407712 35.509075 -0.292731 1.695247 0.051569 -0.012510 34026.300000 0 0 1
-33.200653 9.206345 -5.321112 34.861933 -0.270498 1.724029 0.033040 -0.012473 313562.000000 0 0 1
-34.185546 8.808745 -6.239812 35.849418 -0.252189 1.745744 0.043757 -0.008833 -27340.600000 0 0 1
-33.591983 7.852245 -7.280512 35.257409 -0.229630 1.778789 0.034951 -0.009971 -378834.000000 0 0 1
-33.205043 6.622145 -6.760212 34.527209 -0.196849 1.767863 0.035681 -0.005110 314222.000000 0 0 1
-32.620353 5.874745 -7.778312 34.045590 -0.178184 1.801300 0.033991 -0.002648 -739196.000000 0 0 1
-31.601473 4.786145 -7.414712 32.810642 -0.150311 1.798750 0.041562 -0.007850 -285605.000000 0 0 1
-30.353073 5.296745 -6.983412 31.593236 -0.172765 1.793678 0.040972 -0.011376 473845.000000 0 0 1
-29.532183 4.193245 -6.531812 30.535188 -0.141046 1.786373 0.038350 -0.014002 -386534.000000 0 0 1
-28.098853 4.557345 -6.195112 29.132359 -0.160790 1.785087 0.072401 -0.012736 -449233.000000 0 0 1
-27.325173 4.954545 -7.330712 28.721976 -0.179369 1.828882 0.071496 -0.015060 1507020.000000 0 0 1
-25.918263 5.092245 -6.998512 27.325198 -0.194002 1.829802 0.088247 -0.024221 1486250.000000 0 0 1
-25.059163 5.607945 -8.190312 26.953514 -0.220161 1.879546 0.096443 -0.025974 -19739.200000 0 0 1
-25.226163 4.817445 -9.326512 27.323083 -0.188698 1.919140 0.094230 -0.022989 302952.000000 0 0 1
-24.216263 5.038545 -10.277212 26.784985 -0.205138 1.964588 0.101270 -0.028260 -251156.000000 0 0 1
-24.375163 4.117645 -11.511912 27.269538 -0.167348 2.006615 0.089238 -0.034458 -448036.000000 0 0 1
-25.382273 4.508545 -12.387412 28.601306 -0.175792 2.018733 0.095764 -0.011792 -172228.000000 0 0 1
-25.524463 3.529445 -13.388912 29.038219 -0.137406 2.050007 0.089954 -0.009135 -18524.200000 0 0 1
-26.473573 4.058745 -14.476812 30.445058 -0.152129 2.066336 0.066057 0.002177 -661012.000000 0 0 1
-26.011093 5.276145 -15.061412 30.516566 -0.200127 2.086962 0.060871 0.002589 58026.800000 0 0 1
-26.751793 6.027645 -16.038012 31.768046 -0.221617 2.100001 0.082647 -0.002904 -396870.000000 0 0 1
-27.365973 5.148845 -17.128112 32.692190 -0.185974 2.122244 0.035980 0.022522 -302863.000000 0 0 1
-28.698293 4.776545 -16.843812 33.617278 -0.164928 2.095604 0.038608 0.003154 -81826.800000 0 0 1
-29.221613 4.114645 -17.935712 34.532922 -0.139889 2.116922 0.044310 0.012600 265339.000000 0 0 1
-30.750823 3.741245 -17.942212 35.798505 -0.121068 2.095781 0.039869 0.004842 580684.000000 0 0 1
-31.067363 2.655745 -17.087612 35.555879 -0.085276 2.072118 0.044011 -0.007341 268999.000000 0 0 1
-30.727103 1.422345 -17.694012 35.485997 -0.046257 2.092802 0.068024 -0.012386 -394477.000000 0 0 1
-30.822133 0.162745 -16.754912 35.082153 -0.005280 2.068707 0.074223 -0.006117 -298966.000000 0 0 1
-30.384873 -1.081355 -17.329612 34.996075 0.035574 2.088847 0.072816 -0.004434 397918.000000 0 0 1
-30.589193 -2.134055 -16.425612 34.785825 0.069652 2.062573 0.069008 -0.010567 -165911.000000 0 0 1
-30.380363 -3.489755 -17.070812 35.022242 0.114368 2.079938 0.064900 -0.008420 31927.400000 0 0 1
-31.341103 -3.686455 -18.085012 36.372000 0.117086 2.091192 0.065066 -0.005828 134135.000000 0 0 1
-31.131133 -4.874055 -18.794212 36.689593 0.155305 2.108598 0.059746 -0.007772 -1427.590000 0 0 1
-32.061533 -5.083655 -19.996812 38.126866 0.157250 2.122902 0.069586 -0.002686 28959.400000 0 0 1
-31.775903 -6.291155 -20.593212 38.384463 0.195457 2.137079 0.067657 -0.004746 -517932.000000 0 0 1
-32.841003 -6.668055 -21.383112 39.752131 0.200317 2.138754 0.071390 0.001873 -627417.000000 0 0 1
-32.525793 -7.857255 -22.348412 40.238231 0.237029 2.159643 0.059526 -0.002526 690274.000000 0 0 1
-31.317813 -7.621955 -23.097312 39.653316 0.238733 2.192574 0.051347 -0.001850 584479.000000 0 0 1
-31.103913 -8.511555 -24.155312 40.291179 0.267110 2.213696 0.046355 0.005060 -333928.000000 0 0 1
-29.708463 -8.404655 -24.779012 39.588261 0.275700 2.247105 0.044891 0.000144 -470541.000000 0 0 1
-29.346263 -7.200055 -25.471592 39.520197 0.240596 2.271193 0.045592 -0.001059 20991.800000 0 0 1
-29.367073 -7.218255 -26.899862 40.473828 0.241016 2.297786 0.037507 0.004086 499881.000000 0 0 1
-30.811193 -7.100055 -27.517712 41.916165 0.226484 2.286958 0.041344 0.006548 883400.000000 0 0 1
-31.576513 -8.271755 -27.268042 42.532861 0.256202 2.266734 0.035558 0.003203 -327461.000000 0 0 1
-32.681793 -8.466955 -28.118632 43.936846 0.253499 2.265266 0.031373 0.001002 -225153.000000 0 0 1
-33.672043 -9.492355 -27.650762 44.592330 0.274775 2.239640 0.041962 -0.000452 -1118660.000000 0 0 1
-33.244523 -10.830955 -28.044142 44.821667 0.314952 2.246803 0.038943 0.001769 528365.000000 0 0 1
-34.225103 -11.858255 -27.840162 45.684248 0.333534 2.226105 0.021881 0.006334 919759.000000 0 0 1
-35.623941 -11.749855 -28.546802 47.138564 0.318595 2.221308 0.013240 0.004141 266416.000000 0 0 1
35.327000 -10.600355 -28.176202 46.414037 -0.291515 2.223155 0.006707 0.003423 -917531.000000 0 0 1
34.312540 -10.422755 -29.111912 46.189692 -0.294902 2.252695 0.008330 -0.005313 -850717.000000 0 0 1
33.278010 -9.425755 -28.628072 44.898077 -0.276013 2.262206 0.008573 -0.001720 105057.000000 0 0 1
32.312770 -9.934155 -27.684492 43.694778 -0.298266 2.256979 -0.006099 -0.001327 648309.000000 0 0 1
31.278200 -8.994455 -27.414302 42.553143 -0.280008 2.270821 -0.013740 0.000496 1030690.000000 0 0 1
30.123260 -9.545355 -26.498682 41.239602 -0.306867 2.268623 -0.015495 0.010670 374663.000000 0 0 1
30.585670 -9.642955 -25.136522 40.746958 -0.305413 2.235586 -0.024171 0.021937 763178.000000 0 0 1
29.510010 -9.972655 -24.253312 39.478066 -0.325892 2.232357 -0.033501 0.014974 331837.000000 0 0 1
30.026270 -10.035555 -22.800112 39.014541 -0.322554 2.194937 -0.040433 0.011864 234894.000000 0 0 1
30.934020 -11.071955 -22.470612 39.804902 -0.343714 2.170646 -0.057754 0.023363 299906.000000 0 0 1
31.264690 -10.984155 -21.109812 39.290669 -0.337857 2.137997 -0.041531 0.022499 -362157.000000 0 0 1
32.046150 -12.218855 -20.661912 40.039615 -0.364273 2.113014 -0.028586 0.015037 -1040100.000000 0 0 1
33.368070 -12.206555 -21.091612 41.319296 -0.350694 2.106509 -0.018042 0.015663 -697225.000000 0 0 1
34.061700 -13.115455 -20.243712 41.737543 -0.367552 2.077187 -0.001254 0.012588 167392.000000 0 0 1
35.569200 -13.322855 -20.572912 43.196194 -0.358386 2.067200 0.016219 0.005969 3332.430000 0 0 1
-35.262962 -12.185455 -20.416712 42.530036 0.332714 2.071513 0.033773 -0.000712 431267.000000 0 0 1
-35.153530 -11.197555 -21.462312 42.682394 0.308372 2.097675 0.024856 0.013105 -476294.000000 0 0 1
-34.467467 -11.700755 -22.770812 42.935112 0.327266 2.129815 0.024227 0.012123 8616.490000 0 0 1
-35.184661 -12.582155 -23.623512 44.207933 0.343432 2.134562 0.011996 0.014786 1170380.000000 0 0 1
35.304910 -12.042955 -24.277612 44.506987 -0.328736 2.147756 -0.010051 0.015666 577552.000000 0 0 1
34.718460 -13.037455 -25.288522 44.887148 -0.359226 2.169268 -0.010250 0.001751 12627.100000 0 0 1
34.101070 -14.246755 -24.827112 44.522337 -0.395740 2.162328 -0.012046 -0.004491 1171720.000000 0 0 1
33.000780 -14.131155 -23.896812 43.125383 -0.404584 2.158107 -0.032685 0.011430 133290.000000 0 0 1
-29.522683 7.724245 -19.936012 36.451301 -0.255901 2.149479 0.012506 0.023924 -909740.000000 0 0 1
-28.387263 7.072645 -20.319812 35.619570 -0.244177 2.177871 0.013246 0.015965 -1022250.000000 0 0 1
-27.602133 7.940945 -21.098712 35.638350 -0.280128 2.204363 0.029771 0.007299 -411905.000000 0 0 1
-26.228973 7.402545 -21.525812 34.729199 -0.275073 2.239308 0.033433 0.002861 -319964.000000 0 0 1
-25.381783 7.249845 -20.403812 33.363314 -0.278223 2.228833 0.044716 0.010463 149846.000000 0 0 1
-24.295163 6.380945 -20.685512 32.540157 -0.256842 2.259701 0.064953 -0.003504 -46605.000000 0 0 1
-22.968363 6.708845 -20.003712 31.188184 -0.284185 2.267102 0.046927 -0.005117 -24625.200000 0 0 1
-22.347563 7.912745 -20.438912 31.301345 -0.340302 2.282299 0.053046 -0.004450 943177.000000 0 0 1
-21.010763 8.153445 -19.948112 30.097475 -0.370171 2.295326 0.050326 0.000664 1356500.000000 0 0 1
-20.305063 9.395745 -20.675312 30.463817 -0.433389 2.316766 0.056978 -0.004525 184851.000000 0 0 1
-19.959163 9.144045 -21.999412 31.079831 -0.429601 2.357226 0.067156 -0.020824 88166.200000 0 0 1
-19.203463 10.183245 -22.592312 31.350981 -0.487578 2.375500 0.064881 -0.019568 -438124.000000 0 0 1
-18.123663 9.689845 -23.527812 31.239689 -0.490983 2.423616 0.077388 -0.015044 -616216.000000 0 0 1
-18.616263 9.152745 -24.724412 32.274364 -0.456948 2.443500 0.064149 -0.020819 83559.600000 0 0 1
-17.630463 8.372545 -25.389652 32.024478 -0.443359 2.486219 0.051732 -0.017271 -101170.000000 0 0 1
-18.211763 7.409645 -26.490062 32.989310 -0.386406 2.503090 0.032140 -0.012391 -217433.000000 0 0 1
-18.777463 6.255445 -25.889692 32.588339 -0.321573 2.488892 0.042754 -0.008951 270013.000000 0 0 1
-19.311263 5.365845 -26.856712 33.511195 -0.271024 2.500470 0.039542 -0.010450 -423122.000000 0 0 1
-19.912163 4.086045 -26.207422 33.166534 -0.202394 2.481894 0.028062 0.004501 -187604.000000 0 0 1
-19.084963 3.009745 -25.857802 32.278790 -0.156414 2.499889 0.026920 -0.000441 -38207.300000 0 0 1
-17.896763 3.235145 -25.123622 31.015427 -0.178836 2.515010 0.029570 -0.006745 -354129.000000 0 0 1
-17.169163 1.925245 -24.830612 30.249728 -0.111667 2.533701 0.023416 -0.001977 -293321.000000 0 0 1
-17.524463 1.083645 -23.717912 29.509667 -0.061757 2.504340 0.032111 -0.004081 547088.000000 0 0 1
-18.780763 0.383645 -23.740612 30.273436 -0.020425 2.472212 0.028863 0.003856 582238.000000 0 0 1
-19.014963 -0.297455 -22.365712 29.357833 0.015642 2.436932 0.047433 0.001400 -274340.000000 0 0 1
-18.240863 -1.414655 -22.077112 28.672796 0.077399 2.449586 0.039540 0.001302 -239334.000000 0 0 1
-18.617263 -1.934255 -20.847612 28.017258 0.103524 2.409981 0.049330 -0.002171 58358.100000 0 0 1
-17.953663 -3.339155 -20.673912 27.584318 0.183886 2.418074 0.012318 -0.007022 105291.000000 0 0 1
-18.297163 -4.296655 -21.658112 28.676144 0.230647 2.426856 0.020288 -0.015011 182572.000000 0 0 1
-18.458063 -5.603855 -21.111612 28.597263 0.294756 2.401252 0.026957 -0.013545 -62825.900000 0 0 1
-18.580663 -6.685855 -22.196912 29.709335 0.345404 2.414539 0.003777 -0.017903 352024.000000 0 0 1
-17.336363 -6.744755 -22.877912 29.486269 0.371033 2.458911 0.006234 -0.009273 246129.000000 0 0 1
-17.480063 -7.506855 -24.030812 30.649395 0.405636 2.471969 0.023451 -0.018547 392072.000000 0 0 1
-16.185263 -7.554755 -24.889812 30.635597 0.436710 2.519134 0.025180 -0.017302 -328352.000000 0 0 1
-16.215063 -8.386355 -26.017542 31.783199 0.477309 2.529756 0.035725 -0.037377 -310948.000000 0 0 1
-14.946863 -8.541555 -26.586162 31.673189 0.519171 2.566957 0.042088 -0.036448 254701.000000 0 0 1
-13.879463 -9.535555 -25.986342 30.965405 0.601966 2.566617 0.043726 -0.034936 132868.000000 0 0 1
-13.349563 -9.013155 -24.787212 29.561017 0.593863 2.565340 0.039816 -0.024387 518132.000000 0 0 1
-12.381463 -9.872155 -24.161212 28.888134 0.673113 2.561426 0.033103 -0.024083 491234.000000 0 0 1
-11.586263 -9.314255 -22.994112 27.381126 0.677118 2.567674 0.042560 -0.010809 -108060.000000 0 0 1
-12.433963 -9.147355 -21.859012 26.759932 0.634270 2.526736 0.040168 -0.005987 84427.500000 0 0 1
-11.750963 -8.835655 -20.657412 25.355130 0.644722 2.523048 0.041917 -0.010974 -604949.000000 0 0 1
-12.552363 -8.543655 -19.357512 24.602218 0.597615 2.476435 0.023913 -0.003724 275608.000000 0 1 0
-13.180963 -7.237355 -19.132012 24.334153 0.502134 2.475465 0.006030 0.007820 730475.000000 0 1 0
-14.432263 -7.052455 -19.788512 25.487498 0.454534 2.459731 -0.000216 0.004005 75904.400000 0 0 1
-14.963363 -5.630255 -19.557512 25.260608 0.359883 2.456293 0.010199 0.007571 -366808.000000 0 0 1
-15.359763 -5.418255 -18.238112 24.452169 0.339128 2.412635 0.008371 0.008370 314928.000000 0 1 0
-15.112663 -4.070955 -17.893112 23.772436 0.263128 2.422924 -0.000648 0.011134 -478072.000000 0 1 0
-14.880863 -3.859855 -16.367212 22.454937 0.253791 2.387498 0.014762 0.011774 -157096.000000 0 1 0
-16.006263 -3.658755 -15.553612 22.616406 0.224722 2.329131 0.026473 0.004125 -218654.000000 0 1 0
-16.599063 -2.398455 -15.675112 22.956276 0.143500 2.322418 0.007520 0.001287 -1015730.000000 0 1 0
-17.724463 -2.165255 -14.716812 23.139349 0.121560 2.260110 0.008780 -0.009344 -954253.000000 0 1 0
-17.434663 -2.171855 -13.337412 22.058354 0.123933 2.220113 0.025268 -0.026303 607426.000000 0 1 0
-18.508963 -1.609455 -12.582112 22.438396 0.086737 2.166076 0.031545 -0.024548 157375.000000 0 1 0
-18.107663 -0.268255 -11.828912 21.630594 0.014813 2.149406 0.034850 -0.018296 -10798.400000 0 1 0
-17.735563 0.814745 -12.662712 21.807299 -0.045906 2.190340 0.046060 -0.023852 -359529.000000 0 1 0
-16.537763 1.363745 -12.263612 20.633797 -0.082276 2.207248 0.026750 -0.012750 -1167310.000000 0 1 0
-15.926563 2.301345 -13.295512 20.873961 -0.143504 2.261322 0.021524 -0.016010 157167.000000 0 1 0
-15.382763 1.749545 -14.524212 21.228355 -0.113247 2.324288 0.032175 -0.015828 1196070.000000 0 1 0
-14.023463 1.291645 -14.417812 20.154383 -0.091847 2.367948 0.024431 -0.010120 280198.000000 0 1 0
-13.583163 0.418945 -15.619012 20.703415 -0.030833 2.425562 0.023731 -0.001455 -44575.200000 0 1 0
-13.440263 1.257645 -16.778912 21.534954 -0.093301 2.464102 0.026264 -0.008478 250532.000000 0 1 0
-12.917763 0.488045 -17.870312 22.055721 -0.037763 2.515349 0.010800 0.005776 71578.000000 0 1 0
-12.126863 1.302645 -18.892612 22.487518 -0.107008 2.568333 0.013666 -0.001925 68501.600000 0 1 0
-10.826463 1.720245 -18.532512 21.531966 -0.157575 2.607435 -0.003541 -0.009853 7956.190000 0 1 0
-10.267463 2.594645 -19.527412 22.214248 -0.247523 2.644660 -0.014409 -0.012174 -266727.000000 0 1 0
-8.804563 2.889045 -19.192612 21.312515 -0.317061 2.691789 -0.011809 -0.013675 -1861540.000000 0 1 0
-8.014163 1.846345 -19.558212 21.216962 -0.226434 2.743545 0.002634 0.000255 -184493.000000 0 1 0
-6.608263 2.083045 -19.472612 20.668596 -0.305359 2.799740 0.007795 0.003758 682773.000000 0 1 0
-5.975763 3.141445 -20.340212 21.431348 -0.483994 2.821121 0.010990 0.002987 -1446910.000000 0 1 0
-6.138863 2.826345 -21.697612 22.725762 -0.431470 2.839643 0.006860 0.011483 143389.000000 0 1 0
-5.709963 3.847245 -22.533512 23.561922 -0.592909 2.845051 0.012141 0.005838 -209677.000000 0 1 0
-5.250463 3.276545 -23.907212 24.695301 -0.557915 2.888280 0.026495 -0.005462 -40465.000000 0 1 0
-3.972063 2.696745 -23.789412 24.269031 -0.596443 2.942454 0.037554 -0.008584 -220306.000000 0 1 0
-3.640363 2.068745 -25.006512 25.354637 -0.516769 2.975691 0.049548 -0.012871 1168650.000000 0 0 1
-2.163363 1.486545 -25.083792 25.220757 -0.602046 3.037328 0.035251 -0.011971 739587.000000 0 0 1
-1.148263 2.480445 -24.889212 25.038850 -1.137245 3.032211 0.032830 -0.010818 233623.000000 0 0 1
0.139737 1.921045 -24.775812 24.850570 1.498184 3.064007 0.025164 -0.008722 7856.100000 0 1 0
0.452437 1.013245 -23.518012 23.544177 1.150837 3.094444 0.022152 -0.019491 -1267280.000000 0 1 0
0.156537 -0.350355 -23.742112 23.745213 -1.150610 3.125431 0.026940 -0.018254 255248.000000 0 1 0
0.745337 -1.198255 -22.738212 22.781959 -1.014344 3.079611 0.023172 -0.016901 -585702.000000 0 1 0
0.276937 -2.669755 -22.863312 23.020325 -1.467435 3.024731 0.031132 -0.020346 442051.000000 0 1 0
-0.980363 -2.998155 -22.252112 22.474576 1.254767 3.000775 0.023591 -0.011881 1092560.000000 0 1 0
-2.145463 -2.789655 -23.082112 23.348857 0.915197 2.990291 0.029400 -0.015043 371374.000000 0 1 0
-2.849963 -1.446155 -22.839712 23.062223 0.469574 3.002569 0.027464 -0.017240 -1457340.000000 0 1 0
-3.598463 -1.350355 -21.653512 21.991976 0.358998 2.965923 0.022126 -0.009503 -190511.000000 0 1 0
-4.466963 -0.266455 -21.715712 22.171985 0.059580 2.938370 0.007816 -0.005712 261355.000000 0 1 0
-5.846163 -0.478955 -22.397112 23.152487 0.081744 2.885448 0.017855 -0.000280 308977.000000 0 1 0
-6.704563 -1.445955 -21.722112 22.779204 0.212414 2.835752 0.033955 0.003239 205364.000000 0 1 0
-8.060763 -1.225655 -22.015712 23.477004 0.150896 2.786909 0.010880 0.015010 -356250.000000 0 1 0
-8.911263 -2.380955 -21.523212 23.416409 0.261086 2.736716 0.016113 0.009628 -807185.000000 0 1 0
-8.922163 -3.460555 -22.430412 24.386550 0.369998 2.738332 0.041574 0.001087 150688.000000 0 1 0
-9.377563 -4.623355 -21.715712 24.101582 0.458051 2.692883 0.020366 0.002557 -573440.000000 0 1 0
-10.189163 -5.594855 -22.569712 25.387268 0.502151 2.665990 0.013440 -0.003029 -312178.000000 0 0 1
-11.481363 -5.034255 -22.678912 25.913288 0.413226 2.636614 0.004308 0.003560 -579551.000000 0 0 1
-12.113163 -5.574055 -23.789612 27.271679 0.431275 2.630722 -0.002200 -0.007848 100354.000000 0 0 1
-13.660663 -5.428655 -23.753312 27.933920 0.378257 2.587426 0.002098 -0.011675 130599.000000 0 0 1
-13.995163 -4.039955 -23.993112 28.068760 0.281028 2.595957 0.005176 -0.012815 1004370.000000 0 0 1
-15.401663 -3.867255 -24.290912 29.020946 0.246007 2.562598 0.012917 -0.014745 1248700.000000 0 0 1
-15.663563 -2.437355 -24.789212 29.424360 0.154369 2.572653 0.011953 -0.013429 -299058.000000 0 0 1
-15.295863 -2.127755 -26.127652 30.350370 0.138220 2.607769 0.020703 -0.013784 -307306.000000 0 0 1
-15.758463 -0.958955 -26.745932 31.057908 0.060778 2.608350 0.011473 -0.012002 -666865.000000 0 0 1
-17.225363 -1.005055 -27.195202 32.207178 0.058281 2.576209 0.028847 -0.004392 -334268.000000 0 0 1
-17.629963 -1.784355 -28.342422 33.425924 0.100868 2.582841 0.025952 -0.016675 245904.000000 0 0 1
-17.132063 -1.275955 -29.601892 34.225833 0.074340 2.615746 0.024774 -0.013412 -105118.000000 0 0 1
-17.468863 -2.093255 -30.868252 35.530155 0.119259 2.623550 0.021432 -0.014932 600268.000000 0 0 1
-18.859163 -2.135055 -31.193742 36.514053 0.112731 2.594988 0.023928 -0.016259 474768.000000 0 0 1
-19.072463 -2.890755 -32.379752 37.690366 0.150422 2.604303 0.023736 -0.015572 -137248.000000 0 0 1
-20.577163 -3.235355 -32.502482 38.604385 0.155954 2.571661 0.015483 -0.011234 248979.000000 0 0 1
-21.520863 -2.192555 -32.648272 39.164583 0.101530 2.556421 0.016774 -0.014539 220354.000000 0 0 1
-21.958063 -1.710255 -31.394532 38.349683 0.077730 2.529833 0.012649 0.001040 -638005.000000 0 0 1
-22.962963 -0.565855 -31.591322 39.059308 0.024637 2.512912 0.018263 -0.006873 -295799.000000 0 0 1
-22.448263 0.510945 -32.319772 39.354203 -0.022757 2.534401 0.024654 -0.015033 331636.000000 0 0 1
-23.501263 1.338545 -32.780522 40.356706 -0.056895 2.518829 0.029699 -0.016050 148395.000000 0 0 1
-22.956663 2.426545 -33.697872 40.846580 -0.105310 2.540974 0.033517 -0.018388 -586246.000000 0 0 1
-22.358463 3.520245 -33.030702 40.041482 -0.156164 2.540843 0.013953 -0.016269 80296.400000 0 0 1
-23.096763 4.379045 -32.167782 39.842223 -0.187372 2.510493 0.024235 -0.014513 -289608.000000 0 0 1
-24.205263 5.259045 -32.828052 41.124607 -0.213944 2.495194 0.022297 -0.021397 -477549.000000 0 0 1
-25.295823 4.495745 -33.208992 41.987231 -0.175890 2.483125 0.051509 -0.036657 -956953.000000 0 0 1
-26.176633 5.303345 -33.927012 43.178510 -0.199893 2.474685 0.065324 -0.039485 293407.000000 0 0 1
-27.459483 4.476645 34.270695 44.142316 -0.161606 0.681913 0.070030 -0.036036 546669.000000 0 0 1
-27.292523 3.319745 33.517595 43.351259 -0.121041 0.686983 0.084813 -0.036378 1040390.000000 0 0 1
-28.587843 2.913645 33.028333 43.779275 -0.101568 0.716013 0.084036 -0.034317 817015.000000 0 0 1
-28.718473 1.403045 32.810310 43.626089 -0.048816 0.719584 0.078296 -0.012809 -219234.000000 0 0 1
-28.889563 0.697045 33.990811 44.614661 -0.024123 0.704593 0.077442 -0.008833 166538.000000 0 0 1
-29.354623 -0.584455 33.801066 44.772174 0.019908 0.715208 0.059979 -0.002917 -802676.000000 0 0 1
-29.249273 -1.592955 -33.672512 44.630657 0.054408 2.425643 0.047772 0.006498 1317340.000000 0 0 1
-27.891783 -2.041555 -33.366262 43.536501 0.073065 2.444010 0.046639 -0.001465 2004300.000000 0 0 1
-26.975903 -1.095155 -32.815382 42.494094 0.040575 2.453146 0.042292 -0.002711 -363115.000000 0 0 1
-27.094723 -0.772255 -31.341372 41.436723 0.028494 2.428538 0.048664 -0.001891 -550114.000000 0 0 1
-26.563263 -1.700555 -30.378792 40.390220 0.063932 2.422088 0.031473 -0.002246 468373.000000 0 0 1
-26.426653 -1.137355 -29.060652 39.296095 0.043012 2.403169 0.038827 -0.002533 600177.000000 0 0 1
-25.225603 -1.678755 -28.145552 37.832808 0.066452 2.409752 0.037264 0.002596 829870.000000 0 0 1
-25.451543 -2.973155 -27.647202 37.696001 0.116289 2.394144 0.021235 0.003075 580633.000000 0 0 1
-24.318863 -3.419155 -26.892192 36.418233 0.139681 2.401530 0.034661 -0.002218 221568.000000 0 0 1
-24.527563 -4.780255 -26.152372 36.171795 0.192480 2.378938 0.036144 -0.013341 -370144.000000 0 0 1
-25.376103 -4.590855 -25.086462 35.977120 0.178977 2.342405 0.049511 -0.008780 -530913.000000 0 0 1
-25.650803 -5.811455 -24.442812 35.905261 0.222799 2.319594 0.051896 -0.013417 -667661.000000 0 0 1
-26.708123 -5.619455 -23.406612 35.955133 0.207378 2.279691 0.053069 -0.011729 -623262.000000 0 0 1
-27.067843 -6.740055 -22.631212 35.920304 0.244043 2.252400 0.064006 -0.022189 -194900.000000 0 0 1
-28.138763 -6.459855 -21.768812 36.157999 0.225661 2.216859 0.066665 -0.017748 113459.000000 0 0 1
-28.690363 -7.678455 -20.954912 36.348369 0.261503 2.185238 0.074266 -0.027634 -31385.000000 0 0 1
-27.761253 -8.139755 -19.990412 35.164746 0.285212 2.175452 0.069462 -0.032356 264787.000000 0 0 1
-28.335743 -9.062455 -19.107812 35.357473 0.309543 2.141730 0.073462 -0.029177 255246.000000 0 0 1
-29.265903 -8.404755 -18.026512 35.384857 0.279660 2.105332 0.077029 -0.025930 137426.000000 0 0 1
-28.478463 -7.785155 -16.994112 34.065104 0.266850 2.093093 0.074864 -0.031531 593319.000000 0 0 1
-29.179303 -6.953455 -16.084712 34.036748 0.233938 2.063000 0.076340 -0.024043 58122.400000 0 0 1
-28.187903 -6.269755 -15.081412 32.577856 0.218864 2.052099 0.068400 -0.023429 319957.000000 0 0 1
-27.393243 -5.310055 -15.737612 32.035276 0.191471 2.084331 0.070024 -0.017633 -78947.400000 0 0 1
-26.258253 -5.026655 -14.971212 30.641480 0.189143 2.081273 0.072498 -0.031885 -577662.000000 0 0 1
-14.456663 20.595745 -5.016112 25.658160 -0.958780 1.767561 0.031803 0.000389 97596.600000 0 0 1
-14.352863 20.276745 -6.368112 25.645738 -0.954822 1.821732 0.059347 0.000426 650345.000000 0 0 1
-15.414663 19.393445 -6.788112 25.686494 -0.899210 1.838241 0.049797 -0.011127 7207.540000 0 0 1
-15.148463 18.961145 -8.221212 25.623998 -0.896713 1.897413 0.054384 -0.018720 -138110.000000 0 0 1
-13.982763 18.202145 -8.508212 24.479081 -0.915753 1.925775 0.055347 -0.017918 65209.500000 0 1 0
-14.166863 17.085445 -9.286312 24.059260 -0.878516 1.967063 0.049166 -0.026803 -328633.000000 0 1 0
-14.775763 15.818945 -8.688512 23.324931 -0.819482 1.952497 0.054819 -0.036194 1341970.000000 0 1 0
-16.214763 15.827045 -8.481212 24.193901 -0.773298 1.928956 0.059862 -0.026205 1343620.000000 0 1 0
-16.584063 14.962945 -7.399712 23.530333 -0.734056 1.890700 0.077805 -0.023401 -521938.000000 0 1 0
-18.015863 15.291545 -6.984112 24.641032 -0.703787 1.858170 0.081779 -0.025289 -206315.000000 0 1 0
-18.941563 14.766445 -7.926412 25.291475 -0.662164 1.889570 0.081115 -0.024098 -432492.000000 0 0 1
-20.200963 15.374945 -7.822012 26.564105 -0.650567 1.869685 0.060418 -0.022442 388019.000000 0 0 1
-21.313963 14.704245 -8.715712 27.321483 -0.603907 1.895477 0.066023 -0.012595 385188.000000 0 0 1
-21.566863 13.390845 -8.309412 26.711245 -0.555645 1.887129 0.090182 -0.018239 -4705.320000 0 0 1
-22.390363 12.792345 -9.299212 27.412548 -0.519074 1.916897 0.091503 -0.016927 276074.000000 0 0 1
-22.861963 11.406845 -8.694512 26.988516 -0.462803 1.898802 0.084376 -0.021465 877132.000000 0 0 1
-21.840763 10.369945 -8.735912 25.707408 -0.443283 1.917523 0.089803 -0.026327 1104930.000000 0 0 1
-22.386663 9.355445 -7.905512 25.518310 -0.395844 1.885777 0.092184 -0.031260 295870.000000 0 0 1
-21.257363 8.459145 -7.389412 24.042379 -0.378729 1.883203 0.092502 -0.014040 3895.980000 0 1 0
-20.608363 7.610745 -8.319412 23.491289 -0.353767 1.932800 0.066040 -0.017517 -409080.000000 0 1 0
-19.673263 6.821145 -7.722812 22.208267 -0.333751 1.925961 0.060804 -0.012425 -946251.000000 0 1 0
-19.320063 5.619545 -8.634412 21.895141 -0.283056 1.976160 0.032393 -0.013407 -107098.000000 0 1 0
-20.192963 4.476945 -8.567812 22.387635 -0.218179 1.963516 0.040496 -0.014431 666389.000000 0 1 0
-20.192663 3.623845 -9.726112 22.704034 -0.177573 2.013503 0.039656 -0.007533 -370422.000000 0 1 0
-20.980863 2.346145 -9.490012 23.146519 -0.111360 1.993248 0.030988 -0.010625 -208493.000000 0 1 0
-20.276963 1.383445 -8.728412 22.119094 -0.068122 1.976440 0.010109 -0.011508 563743.000000 0 1 0
-21.080663 0.326045 -8.238612 22.635710 -0.015465 1.943318 0.016991 -0.009226 -153748.000000 0 1 0
-21.383263 -0.846055 -9.204412 23.295513 0.039546 1.976990 0.016444 -0.012493 -389546.000000 0 1 0
-20.379463 -1.792655 -9.436112 22.529455 0.087738 2.002958 0.012264 0.002761 -102622.000000 0 1 0
-20.786863 -3.078655 -9.908012 23.232316 0.147037 2.011389 0.024708 0.004667 -405237.000000 0 1 0
-21.654463 -3.988355 -9.055612 23.808126 0.182140 1.960980 0.023750 0.004331 -435941.000000 0 1 0
-21.022063 -4.338755 -7.855912 22.857543 0.203533 1.921640 -0.000498 0.007905 818794.000000 0 1 0
-21.941463 -4.932255 -6.882812 23.518674 0.221116 1.867797 0.012216 0.005011 -473505.000000 0 1 0
-22.035863 -6.452555 -7.061912 24.022600 0.284857 1.869174 0.010870 -0.000686 -528211.000000 0 1 0
-20.932063 -7.217555 -6.688812 23.129733 0.332043 1.864174 -0.004132 -0.000872 177030.000000 0 1 0
-21.086663 -8.538855 -7.178712 23.855677 0.384759 1.876456 -0.000411 0.001161 -423295.000000 0 1 0
-20.303963 -9.592655 -6.384512 23.345919 0.441368 1.847800 0.010589 0.001199 408664.000000 0 1 0
-18.880963 -9.579655 -6.526512 22.155268 0.469527 1.869813 0.002594 0.002032 821795.000000 0 1 0
-18.221763 -10.517255 -5.703612 21.798543 0.523472 1.835529 0.024302 0.003272 -207382.000000 0 1 0
-17.666063 -11.798455 -6.341512 22.169982 0.588828 1.860888 0.020863 0.009324 423846.000000 0 1 0
-16.436163 -11.587755 -7.079112 21.319882 0.614084 1.909265 0.009187 -0.001680 1094100.000000 0 1 0
-16.690363 -11.043355 -8.342912 21.682437 0.584529 1.965763 0.008935 -0.006105 -466605.000000 0 1 0
-15.527363 -11.254855 -9.324312 21.324014 0.627203 2.023355 0.010081 -0.007829 5433.470000 0 1 0
-15.664763 -12.525355 -9.875712 22.356185 0.674490 2.028338 0.016820 -0.010493 833902.000000 0 1 0
-14.595563 -12.940655 -10.756312 22.275306 0.725371 2.074738 0.024031 -0.006394 333228.000000 0 1 0
-14.842163 -14.256355 -11.408612 23.530616 0.765269 2.076978 0.041351 -0.013555 292839.000000 0 1 0
-15.831963 -14.224855 -12.443212 24.654231 0.731980 2.099841 0.040144 -0.015537 510465.000000 0 1 0
-15.879763 -15.478155 -13.116412 25.763937 0.772592 2.104935 0.034623 -0.010559 -124336.000000 0 0 1
-16.318163 -15.404655 -14.549312 26.744501 0.756610 2.146007 0.049037 -0.010539 -215278.000000 0 0 1
-16.387363 -16.576255 -15.239012 27.848616 0.791128 2.149822 0.054252 -0.011568 230081.000000 0 0 1
-16.631363 -16.257055 -16.569912 28.556192 0.774018 2.189840 0.052287 -0.012238 -256007.000000 0 0 1
-17.121463 -17.378655 -17.475212 30.009085 0.792853 2.192389 0.055231 -0.017687 -1005780.000000 0 0 1
-18.369163 -17.839855 -17.124312 30.804686 0.770781 2.160241 0.012143 -0.010389 -1165450.000000 0 0 1
-19.165163 -18.174955 -18.271412 32.116615 0.758886 2.175974 0.022378 -0.008277 563070.000000 0 0 1
-20.693163 -18.043755 -18.010912 32.835607 0.717110 2.151387 0.019788 -0.013140 275479.000000 0 0 1
-21.142763 -16.730655 -17.568612 32.180544 0.669425 2.148306 0.007140 -0.007451 257176.000000 0 0 1
-20.837863 -16.506855 -16.188512 31.124921 0.669940 2.117781 -0.001048 -0.008927 -725718.000000 0 0 1
-21.013063 -14.996155 -15.909712 30.324123 0.619834 2.123107 0.009561 -0.016007 -427388.000000 0 0 1
-22.313063 -14.614255 -15.585612 30.892726 0.579857 2.099608 0.014035 -0.012954 -325453.000000 0 0 1
-22.254963 -13.269455 -15.288512 30.084887 0.537655 2.103866 0.022797 -0.016681 -168983.000000 0 0 1
-23.498863 -12.552555 -14.735812 30.445153 0.490614 2.076030 0.046811 -0.028579 -427232.000000 0 0 1
-23.974063 -13.037455 -13.501212 30.446899 0.498082 2.030223 0.047548 -0.024350 377869.000000 0 0 1
-25.160093 -12.423055 -13.050012 30.946169 0.458643 2.006116 0.075197 -0.026374 -133465.000000 0 0 1
-25.769833 -12.915655 -11.723112 31.117998 0.464601 1.957061 0.075563 -0.029590 -34564.200000 0 0 1
-26.670453 -11.965955 -11.171112 31.293624 0.421739 1.935826 0.075245 -0.032033 193975.000000 0 0 1
-27.199723 -12.373755 -9.924012 31.486835 0.426940 1.891442 0.068953 -0.025652 -77231.700000 0 0 1
-28.062223 -11.324455 -9.221812 31.635004 0.383561 1.866598 0.074969 -0.027749 209991.000000 0 0 1
-27.262193 -10.250655 -8.718612 30.402587 0.359649 1.861652 0.078257 -0.028458 478309.000000 0 0 1
-28.095353 -9.330655 -8.053812 30.680187 0.320646 1.836417 0.087458 -0.032379 -202754.000000 0 0 1
-27.324943 -8.171655 -7.511812 29.493317 0.290589 1.828329 0.079289 -0.022095 -372879.000000 0 0 1
-26.543933 -8.463755 -6.368212 28.579182 0.308667 1.795510 0.057772 -0.025142 -35330.600000 0 0 1
-25.755533 -7.381955 -6.033912 27.463591 0.279133 1.792309 0.044434 -0.011052 19217.500000 0 0 1
-26.553923 -6.351055 -5.116812 27.778202 0.234766 1.756057 0.055656 -0.020356 -193355.000000 0 0 1
-27.003953 -6.926455 -3.916012 28.151810 0.251085 1.710352 0.058777 -0.022799 -16855.100000 0 0 1
-26.269023 -6.868255 -2.707912 27.286760 0.255734 1.670199 0.084642 -0.015517 -500631.000000 0 0 1
-25.935163 -5.458855 -2.149812 26.590477 0.207453 1.651734 0.092744 -0.012411 505644.000000 0 0 1
-27.048553 -4.653155 -1.683112 27.497435 0.170362 1.632044 0.097056 -0.015929 594420.000000 0 0 1
-26.672263 -3.612255 -0.860712 26.929516 0.134612 1.602763 0.075975 -0.025467 -878841.000000 0 0 1
-27.847083 -2.777555 -0.329612 27.987202 0.099414 1.582574 0.081398 -0.031523 -191936.000000 0 0 1
-28.700393 -3.444255 0.576888 28.912078 0.119436 1.550842 0.093126 -0.025193 218190.000000 0 0 1
-28.169383 -3.584655 1.925788 28.461773 0.126573 1.503082 0.083037 -0.021144 -199509.000000 0 0 1
-29.282793 -4.004255 2.874988 29.694807 0.135901 1.473827 0.068939 -0.017875 -64910.600000 0 0 1
-29.740833 -5.394455 2.823288 30.357672 0.179431 1.477661 0.088716 -0.015228 39084.100000 0 0 1
-30.658703 -5.617155 3.860388 31.407182 0.181206 1.447571 0.088238 -0.017860 -555032.000000 0 0 1
-31.332703 -6.954455 3.694888 32.307196 0.218414 1.456178 0.096008 -0.012273 -320529.000000 0 0 1
-30.582823 -8.023355 4.241688 31.901022 0.256567 1.437437 0.092299 -0.006851 451492.000000 0 0 1
-31.105593 -9.256755 3.770788 32.672071 0.289246 1.455125 0.093358 -0.007063 260173.000000 0 0 1
-30.241743 -10.483355 4.233688 32.286032 0.333689 1.439287 0.081568 -0.010916 297921.000000 0 0 1
-30.274423 -10.649755 5.666288 32.589335 0.338254 1.396039 0.068223 -0.006341 -183308.000000 0 0 1
-29.176093 -11.386855 6.070788 31.902340 0.372099 1.379336 0.057052 -0.000823 -573153.000000 0 0 1
-29.200253 -11.796355 7.542988 32.383722 0.383934 1.335712 0.040292 -0.009997 -190276.000000 0 0 1
-29.088173 -10.693255 8.382488 32.105040 0.352281 1.306639 0.056577 -0.009665 463034.000000 0 0 1
-28.959343 -11.115055 9.717488 32.505654 0.366477 1.267207 0.052627 -0.012137 -347926.000000 0 0 1
-28.896563 -9.883255 10.653588 32.344845 0.329550 1.235155 0.053788 -0.017607 -420039.000000 0 0 1
-27.831793 -9.016755 10.388888 31.045765 0.313303 1.229582 0.043453 -0.018544 -51891.700000 0 0 1
-27.912783 -7.953755 11.303788 31.147412 0.277593 1.199405 0.059909 -0.023317 224218.000000 0 0 1
-26.942803 -6.720655 11.106288 29.907047 0.244453 1.190323 0.060650 -0.021049 54393.000000 0 0 1
-27.189903 -5.923555 9.981388 29.563616 0.214507 1.226405 0.077915 -0.022154 -145326.000000 0 0 1
-26.545303 -4.716055 10.002188 28.756530 0.175826 1.215548 0.072409 -0.022252 -656428.000000 0 0 1
-26.646023 -3.873755 8.753588 28.313280 0.144367 1.256477 0.081763 -0.021127 -167579.000000 0 0 1
-25.965813 -4.428255 7.665888 27.433533 0.168917 1.287591 0.053854 -0.005086 74196.500000 0 0 1
-26.181543 -3.734655 6.451188 27.222025 0.141689 1.331536 0.063968 -0.013672 -542426.000000 0 0 1
-25.282193 -4.228755 5.342588 26.184249 0.165728 1.365315 0.054828 -0.005977 -1011530.000000 0 0 1
-23.989063 -3.728755 5.465788 24.884806 0.154202 1.349347 0.061840 -0.022421 -520650.000000 0 1 0
-23.190663 -4.163955 4.400288 23.968894 0.177660 1.386166 0.054070 -0.020996 20806.200000 0 1 0
-21.733163 -3.641855 4.433888 22.477830 0.166029 1.372238 0.044341 -0.015106 87460.600000 0 1 0
-21.674163 -2.295355 4.250588 22.205978 0.105510 1.378191 0.028685 -0.014965 -207896.000000 0 1 0
-20.508863 -1.703055 4.728288 21.115647 0.082850 1.344958 0.017034 -0.012344 -1018900.000000 0 1 0
-20.631363 -0.207355 4.817188 21.187294 0.010050 1.341428 0.023186 -0.013372 -454314.000000 0 1 0
-20.849963 0.540645 3.653288 21.174507 -0.025924 1.397396 0.038125 -0.011235 359525.000000 0 1 0
-22.148263 1.063945 3.525788 22.452365 -0.048000 1.413110 0.048503 -0.023929 -442558.000000 0 1 0
-22.197663 2.149545 2.457088 22.436445 -0.096536 1.461063 0.066440 -0.020598 -368660.000000 0 1 0
-21.495963 3.289445 2.892988 21.937781 -0.151848 1.438539 0.042121 -0.018413 159962.000000 0 1 0
-21.649763 4.458145 2.077588 22.201433 -0.203082 1.477080 0.056936 -0.016963 497085.000000 0 1 0
-20.527563 4.537945 0.967788 21.045436 -0.217567 1.524794 0.045676 -0.004987 42117.200000 0 1 0
-20.803563 5.280845 -0.220012 21.464481 -0.248593 1.581047 0.060539 0.002689 510823.000000 0 1 0
-21.746663 4.600745 -1.063212 22.253418 -0.208487 1.618592 0.077866 -0.018310 77611.000000 0 1 0
-21.232363 3.337645 -1.836512 21.571413 -0.155920 1.656036 0.064590 -0.010603 -300049.000000 0 1 0
-20.928363 2.324745 -0.978812 21.079822 -0.110628 1.617247 0.024680 -0.008239 318190.000000 0 1 0
-20.309963 1.259745 -1.664012 20.416916 -0.061947 1.652388 0.006252 -0.000529 -225549.000000 0 1 0
-19.500663 0.312145 -0.708412 19.516022 -0.016005 1.607103 0.008113 -0.005939 190317.000000 0 1 0
-20.371263 -0.500255 0.154588 20.377990 0.024552 1.563210 0.018314 -0.007908 977817.000000 0 1 0
-19.793363 -1.353555 1.128788 19.871675 0.068278 1.513962 0.023939 -0.010514 -865120.000000 0 1 0
-19.014963 -2.530755 0.450888 19.187934 0.132315 1.547296 0.011230 -0.007404 229890.000000 0 1 0
-18.271063 -3.315755 1.391288 18.621537 0.179522 1.496013 0.011530 -0.006192 1208210.000000 0 1 0
-17.495063 -4.412255 0.799188 18.060562 0.247048 1.526531 0.001812 -0.002735 317338.000000 0 1 0
-18.441863 -5.536755 0.269088 19.256956 0.291666 1.556822 -0.000702 -0.003309 -11268.300000 0 1 0
-19.135663 -5.913255 1.432888 20.079675 0.299709 1.499376 0.029784 -0.009216 100270.000000 0 1 0
-20.015463 -6.984555 1.154588 21.230540 0.335746 1.516386 0.013586 -0.010269 -299453.000000 0 1 0
-20.727463 -7.501855 2.447788 22.178756 0.347262 1.460205 0.022823 -0.008033 -511146.000000 0 1 0
-20.011963 -8.288455 3.335888 21.915868 0.392666 1.417989 0.018870 -0.006135 163723.000000 0 1 0
-20.733363 -8.561855 4.531788 22.884816 0.391621 1.371453 0.021457 -0.009977 -99438.200000 0 1 0
-19.867263 -9.385055 5.463588 22.641515 0.441315 1.327082 0.014317 0.002859 -298587.000000 0 1 0
-19.782063 -10.772755 5.154688 23.107425 0.498666 1.345829 0.031040 0.006160 53550.400000 0 1 0
-18.874263 -11.413955 5.991788 22.856458 0.543895 1.305548 0.035726 0.005514 -517147.000000 0 1 0
-18.282563 -12.768655 5.436288 22.953080 0.609656 1.331681 0.023817 0.005501 -368439.000000 0 1 0
-19.041963 -13.925855 5.459988 24.214402 0.631441 1.343355 0.026634 0.010751 -50676.100000 0 1 0
-18.360163 -14.990955 4.802288 24.184422 0.684717 1.370898 0.010627 0.011632 198466.000000 0 1 0
-19.030563 -16.397355 5.163088 25.645527 0.711209 1.368086 0.018282 0.006715 -256827.000000 0 0 1
-18.218263 -17.526655 4.938088 25.757978 0.766052 1.377891 0.015381 -0.004122 -197785.000000 0 0 1
-18.845363 -18.664255 5.382188 27.064184 0.780570 1.370594 0.019711 -0.007572 -461988.000000 0 0 1
-17.990963 -19.966755 5.273488 27.388971 0.837404 1.377046 0.020073 -0.019966 -326247.000000 0 0 1
-17.703863 -20.430755 3.964288 27.323215 0.856784 1.425194 0.023416 -0.016405 308097.000000 0 0 1
-16.964263 -21.641455 3.805688 27.760080 0.905963 1.433271 0.023874 -0.018641 102536.000000 0 0 1
-15.461563 -21.520955 4.123388 26.818161 0.947800 1.416430 0.032425 -0.018811 -373310.000000 0 0 1
-14.801763 -22.769055 4.019788 27.453247 0.994363 1.423845 0.036291 -0.017712 -489907.000000 0 0 1
-13.417763 -22.591955 4.164088 26.603993 1.034861 1.413629 0.036144 -0.012556 -56714.100000 0 0 1
-12.662063 -23.987055 4.351788 27.470798 1.085102 1.411711 0.032299 -0.006939 -234140.000000 0 0 1
-12.690663 -24.693155 3.132688 27.939552 1.096063 1.458436 0.042069 -0.011607 19460.100000 0 0 1
-12.321463 -26.000925 3.281988 28.959247 1.128258 1.457221 0.040141 -0.009496 -352620.000000 0 0 1
18.312637 19.046245 -24.498112 36.031509 0.805032 2.318434 0.033388 0.004263 -438750.000000 0 0 1
17.514637 19.286745 -25.575302 36.508042 0.833514 2.346949 0.025641 0.007103 -427461.000000 0 0 1
18.282137 19.255345 -26.763742 37.700169 0.811319 2.360167 0.029208 -0.001345 160520.000000 0 0 1
17.473837 19.520145 -28.077782 38.402251 0.840656 2.390802 0.025403 0.003052 186690.000000 0 0 1
17.166537 20.898545 -28.306762 39.149866 0.883129 2.378983 0.010217 0.014251 361183.000000 0 0 1
16.144537 20.963145 -29.294222 39.474688 0.914530 2.406996 0.009738 0.014112 42129.900000 0 0 1
15.762137 22.415345 -29.705312 40.414085 0.957936 2.396498 0.006621 0.017471 -509081.000000 0 0 1
15.200637 23.221845 -28.637722 39.880228 0.991206 2.371855 0.008842 0.015601 485394.000000 0 0 1
14.925037 24.545745 -29.018712 40.833026 1.024479 2.361243 0.005682 0.018523 -52030.000000 0 0 1
14.174637 25.268645 -27.872992 40.203588 1.059579 2.336849 0.009191 0.013244 866326.000000 0 0 1
12.788837 24.936545 -27.704642 39.407269 1.096918 2.350451 0.024215 0.000892 389676.000000 0 0 1
12.182337 25.715345 -26.739352 39.047167 1.128378 2.325120 0.029533 0.001943 -50187.500000 0 0 1
10.670137 25.492445 -26.465842 38.264309 1.174392 2.334580 0.044610 -0.001407 553411.000000 0 0 1
10.115337 26.419345 -25.543652 38.115351 1.205138 2.305230 0.040950 -0.012356 38610.300000 0 0 1
9.645837 27.666545 -26.122632 39.253940 1.235328 2.298930 0.048128 -0.019351 -250077.000000 0 0 1
9.108337 28.594545 -25.058112 39.096276 1.262424 2.266510 0.069260 -0.026185 137118.000000 0 0 1
10.105837 29.128745 -24.186312 39.186597 1.236853 2.235987 0.057480 -0.024454 -67545.300000 0 0 1
9.501137 29.835045 -23.157912 38.944710 1.262495 2.207609 0.072769 -0.034295 -182187.000000 0 0 1
10.473637 30.336945 -22.064912 38.947242 1.238365 2.173089 0.047301 -0.027589 -321983.000000 0 0 1
11.466737 31.195145 -22.543012 40.159812 1.218546 2.166791 0.037398 -0.034479 371358.000000 0 0 1
12.302937 31.608045 -21.411712 40.110998 1.199605 2.133898 0.018749 -0.021671 495669.000000 0 0 1
13.610037 32.339245 -21.798312 41.306492 1.172444 2.126712 0.005638 -0.002972 6342.830000 0 0 1
14.486637 31.477345 -22.473012 41.300389 1.139473 2.146155 0.005950 -0.003515 -648433.000000 0 0 1
15.617737 32.139745 -22.951412 42.469333 1.118466 2.141736 0.003996 -0.000259 750201.000000 0 0 1
16.898637 31.250645 -23.283912 42.477139 1.075086 2.150949 -0.007055 0.002233 1160820.000000 0 0 1
17.678137 30.866945 -22.155512 41.906462 1.050677 2.127852 0.006416 0.002965 -555097.000000 0 0 1
18.802637 30.249445 -22.668512 42.218829 1.014656 2.137589 0.007495 -0.000173 -535309.000000 0 0 1
19.862737 29.636645 -21.712112 41.764517 0.980346 2.117495 0.024837 0.002546 -124303.000000 0 0 1
20.490637 30.576745 -20.891012 42.323019 0.980394 2.087031 0.029832 0.007599 339997.000000 0 0 1
21.435137 29.880345 -20.051212 41.884976 0.948510 2.069994 0.036147 0.001555 463360.000000 0 0 1
22.021237 30.783745 -18.939412 42.323459 0.949841 2.034755 0.047741 -0.003582 206029.000000 0 0 1
23.119737 31.603945 -19.345512 43.675856 0.939211 2.029665 0.040002 0.001519 407350.000000 0 0 1
23.579637 32.383945 -18.242412 44.017096 0.941441 1.998123 0.057332 0.003271 -210930.000000 0 0 1
24.893037 33.132445 -18.492612 45.380601 0.926452 1.990512 0.054809 -0.000134 -32409.500000 0 0 1
26.006737 32.281145 -18.750412 45.497260 0.892630 1.995578 0.056447 -0.000979 -231610.000000 0 0 1
27.125337 33.133045 -18.665912 46.711871 0.884769 1.981873 0.045485 -0.004178 361430.000000 0 0 1
28.486637 32.527245 -19.151412 47.289394 0.851526 1.987757 0.024122 -0.001795 596923.000000 0 0 1
28.817337 31.441745 -18.355812 46.432296 0.828923 1.977217 0.033635 0.010388 346775.000000 0 0 1
30.163437 31.030245 -18.596112 47.101215 0.799562 1.976659 0.020565 0.014681 434321.000000 0 0 1
30.433437 29.655845 -18.031112 46.160419 0.772458 1.972100 -0.000910 0.000787 -675647.000000 0 0 1
30.519737 29.647245 -16.659212 45.694013 0.770898 1.943980 0.005372 0.001598 64332.700000 0 0 1
30.648137 28.388845 -15.966712 44.723268 0.747148 1.935863 -0.005336 -0.003107 -432680.000000 0 0 1
31.027437 28.594045 -14.491912 44.613191 0.744607 1.901633 0.006789 -0.006705 -14034.600000 0 0 1
32.301837 29.194545 -14.311212 45.831659 0.734913 1.888363 0.016708 -0.006636 -3997.610000 0 0 1
32.352837 30.611945 -14.447112 46.824313 0.757757 1.884453 0.014361 -0.009731 -1134890.000000 0 0 1
33.662237 31.271845 -14.801912 48.271846 0.748602 1.882454 0.022365 -0.016346 138680.000000 0 0 1
34.709537 31.114945 -13.816312 48.618744 0.730844 1.858944 0.015811 -0.012013 729564.000000 0 0 1
-35.729095 31.646945 -14.286512 49.821700 -0.724885 1.861632 0.026185 -0.018887 257792.000000 0 0 1
-34.757595 31.752045 -13.113012 48.869559 -0.740239 1.842452 0.020772 -0.016427 -996115.000000 0 0 1
-35.120795 32.744045 -12.113512 49.521509 -0.750391 1.817915 0.024618 -0.016172 -296644.000000 0 0 1
-34.123995 33.174945 -11.237912 48.901070 -0.771297 1.802678 0.020059 -0.006477 -359294.000000 0 0 1
-34.587395 34.322545 -10.254912 49.794459 -0.781555 1.778225 0.014216 -0.004017 344523.000000 0 0 1
-33.470195 -33.859924 -9.562412 48.561180 0.791186 1.769006 0.011051 0.004014 198686.000000 0 0 1
-33.254595 -34.334724 -8.219212 48.500483 0.801378 1.741085 0.013000 0.001108 -213784.000000 0 0 1
-32.777795 -33.227024 -7.226312 47.229637 0.792204 1.724403 0.023156 0.021511 -502205.000000 0 0 1
-33.827095 -32.360324 -6.917012 47.321327 0.763241 1.717493 0.015181 0.017288 -201717.000000 0 0 1
-33.426195 -31.405224 -5.951612 46.249544 0.754236 1.699839 0.015176 0.013002 -185476.000000 0 0 1
-34.615995 -30.487324 -5.668312 46.474443 0.722066 1.693067 0.003133 0.013424 -353372.000000 0 0 1
-35.344595 -31.073424 -4.637712 47.289602 0.721179 1.669025 0.005282 0.007013 99521.300000 0 0 1
34.979537 -30.623924 -4.700012 46.727753 -0.719102 1.671550 -0.001547 0.008476 425507.000000 0 0 1
34.452437 -29.889724 -3.491712 45.744487 -0.714603 1.647201 -0.001225 0.007300 -389351.000000 0 0 1
34.760437 -28.519824 -3.459812 45.095883 -0.687097 1.647593 0.007987 0.000909 471610.000000 0 0 1
33.980437 -27.862624 -2.450012 44.011345 -0.686794 1.626493 0.008293 -0.009267 177905.000000 0 0 1
34.247337 -26.381124 -2.412912 43.297413 -0.656374 1.626554 0.021458 -0.012162 -148830.000000 0 0 1
33.994037 -25.765424 -3.650612 42.810964 -0.648563 1.656173 0.013174 -0.016394 269020.000000 0 0 1
34.033937 -24.335124 -3.533212 41.987983 -0.620739 1.655044 0.012489 -0.022194 -230600.000000 0 0 1
33.387637 -23.721724 -4.779712 41.234696 -0.617734 1.686972 0.014388 -0.028693 -873006.000000 0 0 1
34.120937 -23.972824 -5.943712 42.121994 -0.612458 1.712376 0.022495 -0.027453 -263319.000000 0 0 1
33.550637 -23.479424 -7.086312 41.558927 -0.610605 1.742146 0.003960 -0.026475 -460801.000000 0 0 1
34.552137 -23.177224 -8.237612 42.413349 -0.590852 1.766261 0.006574 -0.017049 -269930.000000 0 0 1
35.162537 -24.343424 -8.756012 43.654027 -0.605547 1.772744 0.010375 -0.012240 306771.000000 0 0 1
-35.562695 -24.042824 -9.775412 44.026371 0.594483 1.794698 0.003270 -0.001166 474425.000000 0 0 1
-35.038195 -25.198624 -10.679312 44.460021 0.623480 1.813369 -0.003994 -0.002873 83062.400000 0 0 1
-34.218695 -26.159224 -10.016012 44.221540 0.652699 1.799275 0.008292 0.013675 75514.000000 0 0 1
-34.964395 -27.190024 -9.439912 45.287065 0.660963 1.780782 -0.000028 0.014229 -414890.000000 0 0 1
-34.146895 -28.350724 -8.861812 45.258212 0.692920 1.767875 0.010606 0.018467 -51514.400000 0 0 1
-33.482895 -29.051424 -9.910112 45.423560 0.714652 1.790736 0.006494 0.012337 173534.000000 0 0 1
-32.809595 -30.196624 -9.460412 45.582947 0.743950 1.779859 0.008129 0.020628 -141947.000000 0 0 1
-32.156995 -31.106724 -10.529312 45.962670 0.768798 1.801933 0.011796 0.018163 126787.000000 0 0 1
-31.018895 -30.537424 -11.178212 44.940612 0.777577 1.822168 0.003228 0.015012 416418.000000 0 0 1
-30.548095 -31.433024 -12.132612 45.479901 0.799675 1.840835 -0.003777 0.014431 -166003.000000 0 0 1
-30.639695 -30.908224 -13.551112 45.582254 0.789761 1.872649 -0.004789 0.011937 -162214.000000 0 0 1
-29.829795 -29.786924 -13.840212 44.369235 0.784679 1.888023 0.009591 0.011316 -94176.000000 0 0 1
-30.107295 -29.247124 -15.097612 44.606966 0.770907 1.916075 0.002901 0.011883 685468.000000 0 0 1
-29.044895 -28.111224 -15.459012 43.276182 0.769064 1.936084 0.004181 0.005543 1521540.000000 0 0 1
-27.809595 -28.710424 -15.901812 43.017783 0.801335 1.949436 0.002135 0.006058 -185524.000000 0 0 1
-26.907495 -27.766524 -16.333712 41.973603 0.801109 1.970497 0.018642 0.014045 -1573240.000000 0 0 1
-25.671495 -28.447724 -16.814512 41.845269 0.836652 1.984306 0.022484 0.009291 -1658140.000000 0 0 1
-25.727495 -29.257024 -18.014412 42.923147 0.849502 2.003900 0.018414 0.013285 -62130.300000 0 0 1
-25.993695 -28.537324 -19.217812 43.120475 0.832010 2.032727 0.014223 0.011345 311558.000000 0 0 1
-24.780095 -27.689724 -19.743812 42.078404 0.840795 2.059198 0.024247 0.011565 610868.000000 0 0 1
-24.496295 -26.573924 -18.891212 40.781366 0.826058 2.052434 0.027738 0.009242 -289154.000000 0 0 1
-23.107795 -26.334224 -18.834312 39.776788 0.850563 2.064057 0.037571 -0.000143 27246.300000 0 0 1
-22.696495 -25.114224 -17.962212 38.320963 0.835924 2.058650 0.036128 0.001298 -375831.000000 0 0 1
-22.805995 -25.345624 -16.590012 37.917576 0.838092 2.023644 0.041019 0.001852 67196.600000 0 0 1
-22.569795 -24.151424 -15.874212 36.669845 0.819238 2.018499 0.056774 -0.003666 -89618.900000 0 0 1
-22.965795 -24.209924 -14.388812 36.339869 0.811764 1.977900 0.042488 0.002247 293910.000000 0 0 1
-24.362595 -24.304024 -14.151112 37.208542 0.784195 1.960937 0.017533 0.017795 186298.000000 0 0 1
-24.660395 -24.095324 -12.757912 36.762536 0.773809 1.925205 0.011556 0.026045 140149.000000 0 0 1
-26.192295 -24.132724 -12.547412 37.760591 0.744496 1.909525 0.011619 0.032935 -689240.000000 0 0 1
-26.627895 -25.485624 -12.678312 38.978218 0.763483 1.902090 0.013635 0.025038 636811.000000 0 0 1
-28.014895 -25.729324 -12.417512 40.012837 0.742897 1.886345 0.022974 0.021535 989198.000000 0 0 1
-29.123795 -24.952324 -13.245712 40.574165 0.708410 1.903349 0.019232 0.014656 -637378.000000 0 0 1
-29.470595 -23.620024 -12.732412 39.856441 0.675641 1.895953 0.029165 0.022871 150829.000000 0 0 1
-30.079395 -23.545924 -11.430712 39.872820 0.664160 1.861555 0.037439 0.015100 -1092660.000000 0 0 1
-31.479095 -24.170324 -11.369312 41.284371 0.654810 1.849792 0.039490 0.009101 -611726.000000 0 0 1
-32.586595 -23.373324 -11.783012 41.797582 0.622222 1.856577 0.025448 0.003216 352713.000000 0 0 1
-32.547395 -22.882924 -13.118912 41.893520 0.612780 1.889303 0.025755 0.006602 -970837.000000 0 0 1
-33.942895 -22.472024 -13.664812 42.939948 0.584802 1.894659 -0.000679 -0.006669 583285.000000 0 0 1
-34.860495 -23.568024 -13.624712 44.230517 0.594482 1.883927 -0.002945 0.003297 -535839.000000 0 0 1
35.545637 -23.201624 -14.029212 44.706001 -0.578290 1.890000 -0.001196 -0.008356 -279931.000000 0 0 1
34.498537 -24.328224 -13.700812 44.381571 -0.614205 1.884628 -0.009286 0.000975 189202.000000 0 0 1
34.689237 -25.480624 -14.465112 45.407542 -0.633533 1.895008 -0.014837 0.001260 -452099.000000 0 0 1
33.881637 -26.511624 -14.042412 45.255065 -0.663965 1.886299 -0.016600 -0.004359 -422144.000000 0 0 1
33.807937 -27.739824 -14.968612 46.222655 -0.687124 1.900579 -0.010060 -0.006758 485675.000000 0 0 1
32.971637 -27.526424 -16.110612 45.873573 -0.695634 1.929644 -0.001672 -0.023554 -3742.340000 0 0 1
32.801837 -28.704824 -16.828812 46.724045 -0.718886 1.939251 0.002409 -0.019798 -295032.000000 0 0 1
31.947937 -28.486924 -18.074712 46.463650 -0.728192 1.970350 0.012310 -0.021077 -999390.000000 0 0 1
30.610837 -28.434624 -17.748512 45.393402 -0.748558 1.972507 0.038747 -0.024038 -1377560.000000 0 0 1
29.793237 -28.304624 -18.892912 45.229757 -0.759781 2.001720 0.048609 -0.017294 271789.000000 0 0 1
28.289137 -28.399224 -18.542812 44.165905 -0.787340 2.004070 0.050179 -0.013508 74047.400000 0 0 1
27.914237 -27.480024 -17.571512 42.931509 -0.777560 1.992474 0.039083 -0.017985 82909.000000 0 0 1
26.533437 -27.540924 -17.232912 41.946383 -0.804028 1.994163 0.053134 -0.018233 419536.000000 0 0 1
26.149137 -26.612524 -16.070512 40.623456 -0.794181 1.977514 0.056219 -0.023789 -11481.900000 0 0 1
26.200437 -25.240324 -16.380312 39.898014 -0.766736 1.993859 0.052293 -0.026610 -67881.900000 0 0 1
25.990737 -24.508424 -15.181612 38.815753 -0.756053 1.972644 0.058452 -0.023816 -43503.500000 0 0 1
25.693937 -23.013724 -15.496112 37.814540 -0.730427 1.993023 0.055441 -0.030893 618763.000000 0 0 1
24.366037 -22.677324 -15.939612 36.905773 -0.749517 2.017395 0.058207 -0.029250 668909.000000 0 0 1
24.254737 -21.266324 -16.181012 36.088419 -0.719843 2.035739 0.057518 -0.030248 -856837.000000 0 0 1
22.817937 -20.871224 -16.412112 35.008909 -0.740869 2.058726 0.053934 -0.023408 -696139.000000 0 0 1
22.109637 -20.701124 -15.187012 33.882414 -0.752509 2.035577 0.057369 -0.031669 -301694.000000 0 0 1
20.879937 -20.061424 -15.346412 32.771099 -0.765408 2.058152 0.051730 -0.032234 -267957.000000 0 0 1
20.666737 -18.814524 -14.434912 31.455795 -0.738519 2.047548 0.034533 -0.018891 -57976.600000 0 0 1
20.402937 -19.116524 -13.062212 30.860051 -0.752858 2.007851 0.034906 -0.030464 133321.000000 0 0 1
20.030937 -18.009724 -12.274612 29.601600 -0.732315 1.998366 0.033980 -0.042199 -363586.000000 0 0 1
19.101037 -18.375624 -11.089712 28.731427 -0.766044 1.967065 0.029845 -0.020772 196461.000000 0 0 1
19.808137 -18.848224 -9.922112 29.087217 -0.760571 1.918900 0.032814 -0.034746 44712.700000 0 0 1
18.897137 -19.077324 -8.900712 28.289022 -0.790143 1.890868 0.022231 -0.032472 -595174.000000 0 0 1
19.463537 -19.694124 -7.640212 28.723869 -0.791287 1.840025 0.020955 -0.029910 -402929.000000 0 0 1
20.313237 -18.796524 -6.940312 28.532523 -0.746637 1.816503 0.019105 -0.027261 -74226.900000 0 0 1
21.062537 -19.639624 -6.090312 29.435306 -0.750453 1.779207 0.023451 -0.012596 -582600.000000 0 0 1
22.403337 -19.001424 -5.709312 29.925907 -0.703420 1.762755 0.026509 -0.009763 -314977.000000 0 0 1
23.320337 -18.995224 -6.822612 30.841607 -0.683541 1.793856 0.024603 -0.025895 385983.000000 0 0 1
23.998837 -17.762724 -6.839912 30.630752 -0.637167 1.795997 0.038869 -0.020866 -329727.000000 0 0 1
25.018537 -17.571124 -8.024412 31.607955 -0.612284 1.827479 0.059148 -0.032425 714479.000000 0 0 1
26.145137 -18.454024 -7.893612 32.961012 -0.614628 1.812630 0.068202 -0.043348 633419.000000 0 0 1
25.898337 -19.715024 -8.472812 33.633237 -0.650660 1.825458 0.070729 -0.054466 -768776.000000 0 0 1
26.981837 -20.735724 -8.162912 34.994613 -0.655241 1.806227 0.062293 -0.056416 790270.000000 0 0 1
28.270737 -20.544324 -8.780212 36.033262 -0.628421 1.816944 0.063686 -0.045411 866069.000000 0 0 1
29.125337 -21.654724 -8.657112 37.311633 -0.639329 1.804952 0.050802 -0.038768 74851.900000 0 0 1
-29.738413 30.013345 4.403888 42.480210 -0.789999 1.466941 0.030816 -0.016713 278517.000000 0 0 1
-29.142503 30.988045 3.585488 42.689578 -0.816081 1.486708 0.025896 -0.018568 170922.000000 0 0 1
-27.995533 31.646345 4.116188 42.452137 -0.846534 1.473683 0.026175 -0.016872 425633.000000 0 0 1
-27.384663 32.682445 3.135288 42.753853 -0.873368 1.497397 0.030261 -0.016734 -340583.000000 0 0 1
-26.672823 32.100545 2.047088 41.786062 -0.877487 1.521787 0.032796 -0.016469 121028.000000 0 0 1
-26.144913 33.039245 1.118388 42.147348 -0.901365 1.544258 0.024970 -0.020390 -572395.000000 0 0 1
-24.982263 33.955945 1.511988 42.183003 -0.936494 1.534945 0.054232 -0.015298 -1261190.000000 0 0 1
-23.833563 33.183945 1.580388 40.886557 -0.947943 1.532134 0.036373 -0.017907 -1299520.000000 0 0 1
-22.891963 33.803145 2.423988 40.897069 -0.975527 1.511491 0.034784 -0.011935 849786.000000 0 0 1
-21.402163 33.413445 2.108988 39.736113 -1.001110 1.517697 0.025565 -0.016656 892644.000000 0 0 1
-20.786063 34.212645 1.128388 40.047955 -1.024840 1.542617 0.035322 -0.019232 -460516.000000 0 0 1
-19.449763 33.850145 0.892488 39.050251 -1.049274 1.547939 0.040746 -0.023737 -764686.000000 0 0 1
-18.820363 -34.275824 -0.413512 39.105104 1.068655 1.581371 0.044488 -0.021385 162329.000000 0 0 1
-18.635163 -32.883524 -0.543512 37.800673 1.055220 1.585175 0.049171 -0.017653 -326168.000000 0 0 1
-17.585163 -32.374224 0.210788 36.842540 1.073201 1.565075 0.050971 -0.021047 -622835.000000 0 0 1
-17.474363 -30.843624 0.198288 35.450273 1.055338 1.565203 0.050770 -0.023133 -117718.000000 0 0 1
-16.854463 -30.239124 -0.920612 34.631273 1.062310 1.597383 0.061521 -0.017383 20855.800000 0 0 1
-16.723163 -28.844924 -0.642812 33.348269 1.045391 1.590073 0.051431 -0.013027 82915.000000 0 0 1
-15.828763 -28.043124 -1.640812 32.243741 1.056932 1.621706 0.043924 -0.002910 -120605.000000 0 0 1
-16.230063 -28.214524 -2.971512 32.684923 1.048783 1.661836 0.044006 -0.000494 171710.000000 0 0 1
-15.338163 -27.493824 -3.832512 31.715261 1.061926 1.691934 0.042140 0.009174 364832.000000 0 0 1
-15.766163 -27.566724 -5.353112 32.204844 1.051274 1.737792 0.061539 0.001667 637097.000000 0 0 1
-16.864463 -26.683724 -5.638812 32.065986 1.007170 1.747566 0.055440 0.010974 285152.000000 0 0 1
-17.310063 -26.772824 -7.001712 32.641176 0.996848 1.786982 0.060529 0.005324 372925.000000 0 0 1
-18.008063 -25.425824 -7.309512 32.002997 0.954549 1.801231 0.047604 0.010515 730415.000000 0 0 1
-17.022863 -24.383024 -7.228512 30.603286 0.961317 1.809250 0.046871 0.011051 786217.000000 0 0 1
-17.585563 -23.119324 -7.646412 30.037024 0.920518 1.828195 0.025092 0.013491 61022.000000 0 0 1
-16.553763 -22.034524 -7.428312 28.543426 0.926486 1.834073 0.041391 0.010936 -231218.000000 0 0 1
-15.442363 -22.124224 -8.265612 28.218225 0.961424 1.868073 0.067191 -0.002878 -615733.000000 0 0 1
-14.334363 -21.407924 -7.741012 26.901607 0.980778 1.862676 0.065559 -0.010261 157494.000000 0 0 1
-13.360463 -20.948924 -8.832212 26.369819 1.003071 1.912334 0.061848 -0.014020 -2479.860000 0 0 1
-13.849263 -20.040124 -9.821612 26.265428 0.966084 1.954047 0.081101 -0.021658 291818.000000 0 0 1
-12.857263 -19.963624 -10.859612 26.111045 0.998626 1.999730 0.071569 -0.022975 773340.000000 0 0 1
-13.464763 -19.152024 -12.034012 26.323323 0.958029 2.045597 0.079573 -0.027334 -154145.000000 0 0 1
-14.582063 -19.767724 -12.612912 27.613132 0.935233 2.045160 0.075563 -0.013201 -388195.000000 0 0 1
-14.699163 -19.343224 -13.990512 28.034981 0.920981 2.093284 0.065147 -0.025333 -207253.000000 0 0 1
-15.958363 -19.897124 -14.645912 29.412032 0.894810 2.092037 0.071162 -0.024264 -1668.010000 0 0 1
-17.194763 -19.505224 -14.076012 29.567681 0.848271 2.066966 0.082522 -0.025100 236867.000000 0 0 1
-18.310463 -20.036524 -14.769812 30.901176 0.830379 2.069138 0.055201 -0.020834 31428.700000 0 0 1
-19.650063 -19.486024 -14.209112 31.108343 0.781207 2.045148 0.023863 -0.004162 553901.000000 0 0 1
-20.707463 -20.047324 -14.995312 32.489285 0.769202 2.050534 0.025242 -0.007692 -1140870.000000 0 0 1
-21.958963 -19.670024 -14.622512 32.907807 0.730469 2.031242 0.009864 0.001313 -1953390.000000 0 0 1
-23.076763 -20.211524 -15.446312 34.345760 0.719305 2.037259 0.013332 0.002435 -976040.000000 0 0 1
-23.097463 -19.783824 -16.810112 34.748703 0.708277 2.075745 0.020013 -0.015078 285817.000000 0 0 1
-24.072663 -20.442424 -17.610312 36.159493 0.704027 2.079468 0.026929 -0.013399 166015.000000 0 0 1
-24.180763 -19.844424 -19.035012 36.617512 0.687218 2.117452 0.036580 -0.012367 306800.000000 0 0 1
-23.146563 -20.310024 -19.897212 36.662781 0.720218 2.144455 0.037980 -0.021765 235633.000000 0 0 1
-23.429663 -19.896524 -21.180012 37.328457 0.704031 2.174136 0.054558 -0.027657 378567.000000 0 0 1
-22.295263 -19.118724 -21.962912 36.673886 0.708846 2.212886 0.037259 -0.022498 770801.000000 0 0 1
-21.055163 -19.775824 -22.078812 36.357627 0.754076 2.223413 0.033879 -0.024802 196780.000000 0 0 1
-20.041463 -19.006424 -22.689812 35.745377 0.758897 2.258497 0.028315 -0.024149 1039790.000000 0 0 1
-18.553563 -19.490424 -22.696712 35.203012 0.810019 2.271477 0.043471 -0.018650 494213.000000 0 0 1
-18.386363 -20.695224 -23.425212 36.264186 0.844408 2.273076 0.032226 -0.013712 -366941.000000 0 0 1
-17.063463 -21.144724 -23.489812 35.917021 0.891811 2.283659 0.019784 -0.004764 -469258.000000 0 0 1
-16.939463 -22.552624 -24.080012 37.086564 0.926586 2.277450 0.010471 -0.003431 -406343.000000 0 0 1
-17.156563 -22.686724 -25.497952 38.199224 0.923315 2.301642 0.012582 -0.003228 170593.000000 0 0 1
-17.069363 -24.062824 -25.822732 39.207093 0.953812 2.289785 0.017691 -0.008878 -136823.000000 0 0 1
-17.304263 -24.280624 -27.363662 40.469201 0.951612 2.313335 0.026265 -0.001598 299907.000000 0 0 1
-16.264963 -23.642124 -28.101302 40.164440 0.968193 2.345713 0.013621 -0.003234 207704.000000 0 0 1
-16.413663 -23.779124 -29.516312 41.304573 0.966641 2.366851 0.023918 -0.000385 1220720.000000 0 0 1
-15.003763 -23.712124 -30.265462 41.271975 1.006646 2.393985 0.013541 -0.001632 1300530.000000 0 0 1
-14.160963 -24.808324 -29.968612 41.401734 1.052113 2.380161 0.020238 -0.004725 244254.000000 0 0 1
-12.874563 -24.560324 -30.542562 41.253024 1.087975 2.404419 0.049723 -0.009805 371405.000000 0 0 1
-11.898963 -25.713824 -30.271682 41.462764 1.137394 2.389255 0.052799 -0.010152 -841002.000000 0 0 1
-12.241663 -26.960824 -30.852172 42.762143 1.144576 2.376738 0.045249 -0.006987 286909.000000 0 0 1
-11.383363 -28.052724 -30.535862 42.999711 1.185313 2.360495 0.039581 -0.010228 1370920.000000 0 0 1
-9.923163 -28.118524 -31.178512 43.141861 1.231536 2.378493 0.047390 -0.014569 1083600.000000 0 0 1
-9.116963 -27.091524 -30.655672 41.914675 1.246176 2.391144 0.047308 -0.025480 -919509.000000 0 0 1
-8.108763 -26.797524 -31.549572 42.180978 1.276962 2.415776 0.048815 -0.024227 -1106400.000000 0 0 1
-7.317663 -25.549124 -31.231852 41.008957 1.291849 2.436553 0.052088 -0.025497 -786951.000000 0 0 1
-7.926163 -24.270824 -31.304112 40.396094 1.255144 2.457399 0.065860 -0.023956 98232.300000 0 0 1
-8.654063 -23.840224 -30.144542 39.394702 1.222585 2.442137 0.062779 -0.019854 61412.600000 0 0 1
-9.022963 -22.299224 -30.086222 38.520774 1.186304 2.467124 0.068063 -0.024369 -248743.000000 0 0 1
-10.053463 -21.857524 -30.912742 39.171688 1.139695 2.480237 0.064754 -0.020914 -257600.000000 0 0 1
-10.288163 -20.481124 -30.829762 38.416103 1.105291 2.502306 0.066794 -0.023292 -31032.600000 0 0 1
-11.273263 -20.044124 -31.924652 39.345099 1.058466 2.517341 0.062609 -0.025725 43421.100000 0 0 1
-11.675863 -18.650624 -31.918942 38.768421 1.011456 2.538038 0.059479 -0.023932 219980.000000 0 0 1
-12.342563 -18.339524 -33.134862 39.832099 0.978420 2.553253 0.062266 -0.021588 -743026.000000 0 0 1
-13.173363 -17.049924 -33.019202 39.427213 0.912966 2.563438 0.065931 -0.019763 -748938.000000 0 0 1
-12.676563 -15.775724 -33.013452 38.722820 0.893895 2.591657 0.068693 -0.015713 -620169.000000 0 0 1
-11.975563 -15.269024 -31.879552 37.321081 0.905699 2.594801 0.061320 -0.007418 -39231.900000 0 0 1
-11.498163 -13.785224 -32.061612 36.744893 0.875610 2.631186 0.043842 -0.014896 -246496.000000 0 0 1
-10.481163 -13.533924 -32.992342 37.168758 0.911839 2.662984 0.049993 -0.013972 -298781.000000 0 0 1
-10.861263 -13.715624 34.278177 38.484787 0.901020 0.471926 0.048042 -0.012789 -454978.000000 0 0 1
-11.548663 -12.523224 33.575437 37.649870 0.825862 0.469530 0.034899 -0.009450 -566191.000000 0 0 1
-12.829963 -12.224424 34.008220 38.348449 0.761234 0.480376 0.022466 -0.007588 -936928.000000 0 0 1
-13.468363 -11.380824 33.054504 37.463585 0.701587 0.490048 0.019622 -0.015845 1089150.000000 0 0 1
-14.867263 -10.858424 33.532053 38.253620 0.630811 0.502104 0.024350 -0.016045 898232.000000 0 0 1
-14.583663 -9.980524 -34.039152 38.353070 0.600154 2.662733 0.044984 -0.022272 -603084.000000 0 0 1
-15.725063 -9.473824 -33.469332 38.173645 0.542231 2.639891 0.034395 -0.026839 -647528.000000 0 0 1
-15.342063 -8.615824 -32.217322 36.709225 0.511692 2.641703 0.039932 -0.034415 296626.000000 0 0 1
-14.749863 -7.311424 -32.589402 36.511430 0.460197 2.673833 0.029620 -0.036102 549240.000000 0 0 1
-15.710963 -6.274924 -32.552202 36.685895 0.379987 2.662301 0.034716 -0.031486 -770856.000000 0 0 1
-15.601763 -5.458924 -31.242862 35.345881 0.336578 2.654972 0.033025 -0.036150 -45081.100000 0 0 1
-16.010263 -6.258724 -30.120742 34.680820 0.372654 2.622991 0.029916 -0.036162 -6651.230000 0 0 1
-16.256563 -5.499324 -28.941642 33.647245 0.326199 2.606358 0.038455 -0.035833 142188.000000 0 0 1
-15.026963 -4.859324 -28.231562 32.348783 0.312760 2.631551 0.031564 -0.031912 105650.000000 0 0 1
-14.562863 -3.764824 -28.953402 32.627448 0.252983 2.662458 0.036009 -0.028973 267411.000000 0 0 1
-13.389163 -3.206524 -28.345302 31.512024 0.235059 2.689437 0.025750 -0.026065 331174.000000 0 0 1
-12.916663 -1.963524 -29.092122 31.891177 0.150860 2.719494 0.008713 -0.009426 -92311.600000 0 0 1
-12.660063 -2.067524 -30.483952 33.072998 0.161882 2.743281 0.008587 -0.014744 95739.200000 0 0 1
-12.779263 -0.808524 -31.116622 33.648291 0.063184 2.751203 -0.002464 -0.017234 -87399.200000 0 0 1
-13.061263 -0.914524 -32.619272 35.148967 0.069904 2.759884 0.002474 -0.020071 95759.400000 0 0 1
-14.426763 -1.191524 -32.930242 35.971545 0.082404 2.727427 0.003039 -0.022517 517669.000000 0 0 1
-14.560363 -1.394524 -34.312580 37.300161 0.095484 2.738633 0.005056 -0.016000 297821.000000 0 0 1
-15.998663 -1.553524 33.751176 37.383319 0.096800 0.444466 0.002565 -0.016857 369401.000000 0 0 1
-15.993263 -1.789524 32.367738 36.147715 0.111429 0.461401 0.015345 -0.017908 347263.000000 0 0 1
-17.288363 -1.713524 31.785658 36.223635 0.098792 0.500206 0.015773 -0.015006 217860.000000 0 0 1
-17.336663 -1.596524 30.235018 34.889326 0.091830 0.522453 0.027163 -0.012954 520239.000000 0 0 1
-16.546063 -0.475524 29.798848 34.087676 0.028732 0.507047 0.022279 -0.003211 446277.000000 0 0 1
-16.822563 -0.371524 28.392898 33.004444 0.022081 0.534987 0.021018 -0.004721 105125.000000 0 0 1
-16.332763 0.974476 27.803108 32.260217 -0.059593 0.531912 0.020050 -0.003334 62028.000000 0 0 1
-17.021663 2.099476 28.369438 33.150714 -0.122722 0.543756 0.024023 -0.003424 794267.000000 0 0 1
-18.365663 2.361476 27.940518 33.519348 -0.127879 0.585268 0.031342 -0.010070 636853.000000 0 0 1
-18.444163 3.008476 26.570168 32.484025 -0.161689 0.612965 0.035780 -0.014238 -556693.000000 0 0 1
-17.902963 4.298476 26.649538 32.391216 -0.235638 0.604582 0.032123 -0.011608 119857.000000 0 0 1
-18.256963 4.944476 25.450758 31.709709 -0.264482 0.639126 0.028275 -0.006723 -248599.000000 0 0 1
-18.023463 6.446476 25.543158 31.919511 -0.343493 0.643107 0.024208 -0.008638 -195443.000000 0 0 1
-16.719663 6.936476 25.437648 31.220759 -0.393259 0.618469 0.026837 -0.005592 -472674.000000 0 0 1
-16.191763 7.038476 24.140998 29.908212 -0.410054 0.631455 0.028792 -0.000611 43042.300000 0 0 1
-14.966563 7.993476 24.067998 29.447618 -0.490545 0.614060 0.028801 -0.000989 -260420.000000 0 0 1
-13.862563 7.607476 24.820138 29.429298 -0.501905 0.567250 0.032359 -0.002957 -813893.000000 0 0 1
-12.748863 8.289476 24.332838 28.693831 -0.576525 0.558565 0.039016 0.005976 -532090.000000 0 0 1
-11.404763 8.071476 25.055618 28.688000 -0.615894 0.508690 0.043409 0.012087 191610.000000 0 0 1
-10.424363 8.894476 24.388228 27.974358 -0.706372 0.511918 0.044866 0.006022 1039860.000000 0 0 1
-9.177663 9.024476 25.099988 28.207802 -0.776982 0.473836 0.044102 -0.007589 628674.000000 0 0 1
-9.193063 10.166476 26.147508 29.522226 -0.835637 0.482821 0.051863 -0.014466 -445793.000000 0 0 1
-10.225063 10.028476 27.128698 30.677166 -0.775692 0.485742 0.035494 -0.014839 283352.000000 0 0 1
-10.401663 11.174476 27.865438 31.773356 -0.821201 0.501200 0.045220 -0.016115 50063.600000 0 0 1
-11.130563 12.398476 27.139128 31.845626 -0.839233 0.550603 0.044844 -0.007036 789340.000000 0 0 1
-12.505563 12.205476 26.768908 31.967752 -0.773255 0.578338 0.038595 -0.007920 694246.000000 0 0 1
-12.608163 11.833476 25.395148 30.723126 -0.753713 0.597791 0.037981 0.000278 198207.000000 0 0 1
-14.045063 11.503476 24.884018 30.802729 -0.686244 0.630299 0.016852 -0.004694 87089.300000 0 0 1
-14.888863 12.629476 24.856418 31.607332 -0.703477 0.665816 0.025234 0.000145 297291.000000 0 0 1
-16.077163 12.465476 24.061378 31.508938 -0.659531 0.701869 0.024150 0.012438 512341.000000 0 0 1
-15.985763 12.063476 22.537178 30.149568 -0.646463 0.726487 0.018850 0.019819 -606272.000000 0 0 1
-15.983163 10.686476 22.367778 29.495419 -0.589346 0.710022 0.012015 0.013939 108167.000000 0 0 1
-16.069663 10.415476 20.964078 28.393816 -0.575070 0.740202 0.017647 0.013394 -163088.000000 0 0 1
-16.407463 8.946476 20.563878 27.787000 -0.499203 0.737646 0.016508 0.005680 -591365.000000 0 0 1
-17.780863 8.749476 20.651178 28.621383 -0.457286 0.764787 0.017599 0.013210 -949600.000000 0 0 1
-18.099163 7.386476 20.702078 28.473071 -0.387479 0.756743 0.014431 0.016104 441264.000000 0 0 1
-19.585663 7.176476 21.110178 29.677258 -0.351223 0.779415 0.024604 0.013719 491159.000000 0 0 1
-19.894763 7.441476 22.501678 30.943540 -0.357930 0.756584 0.018303 0.006817 -209077.000000 0 0 1
-21.287063 7.431476 22.691978 31.988932 -0.335880 0.782193 0.017921 0.005709 -140204.000000 0 0 1
-21.734263 8.287476 23.933648 33.374840 -0.364291 0.771140 0.029912 -0.000593 -920216.000000 0 0 1
-21.551263 9.704476 23.816258 33.553658 -0.423101 0.781587 0.020104 -0.005739 653958.000000 0 0 1
-20.209763 10.209476 23.740768 32.806889 -0.467779 0.761717 0.017447 -0.003412 1022630.000000 0 0 1
-19.241063 9.859476 24.931978 33.000474 -0.473533 0.714374 0.019976 -0.008300 -428580.000000 0 0 1
-19.490363 10.568476 26.178618 34.305786 -0.496867 0.702706 0.028487 -0.002679 -205938.000000 0 0 1
-18.696163 10.063476 27.228338 34.528285 -0.493788 0.662299 0.045663 -0.012668 -16975.500000 0 0 1
-30.339633 -14.135155 20.999678 39.513066 0.435995 1.010471 0.010418 0.010889 -180931.000000 0 0 1
-30.177223 -15.490955 21.339578 40.075080 0.474257 1.009257 0.012507 0.007111 177070.000000 0 0 1
-31.004913 -16.390655 20.592878 40.669704 0.486302 1.039856 -0.004800 0.013272 -238221.000000 0 0 1
-30.689393 -16.608155 19.083578 39.772511 0.496038 1.070349 -0.007590 0.006895 -115076.000000 0 0 1
-31.025533 -15.522055 18.255378 39.201744 0.463887 1.086396 0.006152 -0.009796 -411894.000000 0 0 1
-30.375913 -15.575655 17.054178 38.159430 0.473806 1.107478 0.013031 -0.012079 -908779.000000 0 0 1
-30.757073 -14.460355 16.036778 37.580283 0.439482 1.129918 0.015122 -0.014998 1109930.000000 0 0 1
-32.048663 -14.441855 15.382278 38.370542 0.423372 1.158311 0.038659 -0.013936 1301740.000000 0 0 1
-33.248323 -14.363555 16.151978 39.656640 0.407792 1.151305 0.038038 -0.014890 127825.000000 0 0 1
-33.642973 -13.030655 16.805678 39.800483 0.369529 1.134872 0.032517 -0.010645 -14971.700000 0 0 1
-34.786254 -13.170455 17.651178 41.171695 0.361933 1.127720 0.028343 -0.012034 334130.000000 0 0 1
-35.312423 -11.933955 18.090278 41.432411 0.325903 1.118957 0.023811 0.000411 -565618.000000 0 0 1
35.219750 -12.067955 19.050978 41.821120 -0.330110 1.097823 0.016569 0.011946 -855635.000000 0 0 1
35.514880 -12.584555 20.339478 42.817895 -0.340541 1.075806 0.018239 0.012761 -442624.000000 0 0 1
34.733840 -12.064555 21.352678 42.519760 -0.334306 1.044676 0.018331 0.010320 -1143020.000000 0 0 1
35.293400 -12.466055 22.761778 43.807821 -0.339533 1.024434 0.013463 0.003088 899913.000000 0 0 1
-35.122947 -11.869555 23.100078 43.682049 0.325894 1.013583 0.014161 0.006052 791052.000000 0 0 1
-33.977613 -12.439955 22.504578 42.610875 0.350965 1.014386 0.012020 0.005324 -410992.000000 0 0 1
-32.667823 -11.659255 22.697678 41.452497 0.342812 0.991352 0.028743 0.006992 -36896.600000 0 0 1
-32.719603 -10.399255 22.014978 40.784509 0.307733 1.000611 0.033812 0.010811 -358027.000000 0 0 1
-31.432233 -9.912555 21.745578 39.485620 0.305491 0.987568 0.043863 0.003045 -387095.000000 0 0 1
-31.306253 -8.589455 20.919978 38.620017 0.267779 0.998353 0.046265 0.014693 -22474.400000 0 0 1
-31.560933 -8.668855 19.533978 38.115848 0.268060 1.032715 0.041241 0.016185 391542.000000 0 0 1
-32.934463 -8.735255 19.174778 39.098026 0.259262 1.058215 0.040014 0.011692 -547.665000 0 0 1
-33.232773 -8.708555 17.657878 38.627151 0.256285 1.096023 0.045198 0.004799 -1345220.000000 0 0 1
-34.555306 -8.695355 17.314178 39.616400 0.246518 1.118485 0.013943 0.009213 -1258350.000000 0 0 1
-34.712363 -8.793355 15.890378 39.176209 0.248101 1.153147 0.042231 -0.003329 71205.500000 0 0 1
35.495500 -8.778055 15.430378 39.687294 -0.242436 1.171469 0.038821 -0.003887 84096.400000 0 0 1
34.853470 -10.006855 15.704278 39.516147 -0.279592 1.162099 0.033420 0.003177 1030.830000 0 0 1
33.456090 -9.858255 15.517078 38.174270 -0.286553 1.152198 0.031070 0.004307 152550.000000 0 0 1
32.721190 -11.209955 15.687378 37.979379 -0.330058 1.144996 0.030715 -0.004972 -201640.000000 0 0 1
32.566570 -11.748855 16.980378 38.560995 -0.346232 1.114807 0.031226 -0.008613 -632910.000000 0 0 1
31.524350 -12.638755 16.980378 37.971779 -0.381300 1.107182 0.037039 -0.008123 -641272.000000 0 0 1
31.124870 -13.053655 18.397078 38.439666 -0.397115 1.071741 0.033351 -0.014173 -144821.000000 0 0 1
31.969030 -14.065955 18.871378 39.698853 -0.414496 1.075419 0.041749 -0.010893 -324223.000000 0 0 1
31.797680 -14.183855 20.285478 40.296089 -0.419577 1.043255 0.035368 -0.008382 -535746.000000 0 0 1
32.426350 -15.381155 20.953678 41.558450 -0.442911 1.042344 0.023331 -0.001027 -86908.300000 0 0 1
32.432760 -15.394955 22.369378 42.299854 -0.443182 1.013576 0.027181 -0.003322 -99164.300000 0 0 1
33.080460 -16.555355 22.865578 43.488289 -0.464013 1.017156 0.015838 0.005109 127088.000000 0 0 1
33.438600 -16.348255 24.372558 44.490752 -0.454731 0.991050 0.014862 0.003140 -558949.000000 0 0 1
34.523710 -15.507455 24.533648 45.102856 -0.422174 0.995660 0.017926 0.008108 -513112.000000 0 0 1
34.899520 -15.498155 25.870068 46.124069 -0.417919 0.975348 0.015947 0.012717 312975.000000 0 0 1
-35.629547 -14.491855 26.236628 46.560059 0.386301 0.972179 0.019460 0.004245 617114.000000 0 0 1
-34.318505 -14.800355 25.803208 45.416031 0.407165 0.966538 0.002542 0.005095 -14172.900000 0 0 1
-33.454653 -13.788855 26.193818 44.670599 0.390950 0.944217 0.007576 -0.001536 1036530.000000 0 0 1
-31.897203 -14.059455 26.094018 43.543055 0.415155 0.928208 0.015179 -0.000115 649373.000000 0 0 1
-31.430283 -13.997555 24.773658 42.397269 0.418982 0.946752 0.008411 0.010098 322368.000000 0 0 1
-30.106993 -14.491855 24.554388 41.465201 0.448613 0.937049 0.019464 -0.006132 488025.000000 0 0 1
-29.819213 -15.954455 24.825048 41.952510 0.491285 0.937579 0.008281 0.000348 -743977.000000 0 0 1
-29.802213 -16.314355 26.240448 42.928909 0.500861 0.913153 0.017828 -0.006856 68890.500000 0 0 1
-29.740903 -17.695655 26.389278 43.520702 0.536730 0.919319 0.012937 -0.010943 -263616.000000 0 0 1
-29.352333 -18.034055 27.843668 44.295106 0.550940 0.891051 0.025413 -0.011493 -370044.000000 0 0 1
-28.091683 -17.575855 28.241398 43.538832 0.559074 0.864989 0.031671 -0.014228 -455959.000000 0 0 1
-27.853723 -17.883955 29.591438 44.399538 0.570778 0.841318 0.043461 -0.021472 -8456.040000 0 0 1
-26.589643 -17.206455 30.132828 43.715656 0.574342 0.810286 0.037495 -0.021839 -256295.000000 0 0 1
-26.762103 -15.889355 30.600868 43.647393 0.535793 0.793868 0.046846 -0.029285 -453607.000000 0 0 1
-25.660093 -15.073055 30.280008 42.456051 0.531112 0.776732 0.043208 -0.031590 -450832.000000 0 0 1
-25.550163 -13.792555 31.113538 42.556993 0.494996 0.750859 0.041812 -0.030318 -334647.000000 0 0 1
-24.880563 -13.895255 32.329978 43.096961 0.509329 0.722480 0.037132 -0.031217 61826.700000 0 0 1
-24.348963 -12.654755 32.734655 42.715015 0.479303 0.697656 0.022802 -0.023906 -276550.000000 0 0 1
-23.603263 -12.580855 34.087928 43.328729 0.489708 0.665306 0.030778 -0.022539 484883.000000 0 0 1
-22.264163 -13.084955 34.035253 42.723617 0.531337 0.649084 -0.003944 -0.014507 330349.000000 0 0 1
-22.076263 -14.468855 -34.311781 43.289808 0.580164 2.485868 -0.001104 -0.021686 -363894.000000 0 0 1
-22.162363 -14.864555 -32.847702 42.321353 0.590798 2.459333 0.000457 -0.019936 -660356.000000 0 0 1
-21.005263 -14.641755 -32.067912 41.035997 0.608745 2.467796 -0.022554 -0.010465 8551.030000 0 0 1
-21.120363 -15.439355 -30.887752 40.478348 0.631241 2.438844 -0.008464 -0.011858 746006.000000 0 0 1
-19.827763 -15.365955 -29.983902 39.093314 0.659292 2.444922 0.003329 -0.011340 631054.000000 0 0 1
-19.601163 -14.181555 -29.247732 37.957238 0.626328 2.450491 0.000827 -0.011387 118696.000000 0 0 1
-20.360363 -13.943355 -28.052882 37.362090 0.600471 2.420126 0.015614 -0.007614 -26242.100000 0 0 1
-19.997063 -12.680055 -27.182752 36.049526 0.565113 2.424986 0.013279 -0.006826 671988.000000 0 0 1
-18.718163 -12.920455 -26.551592 34.961334 0.604161 2.433273 0.019568 -0.011110 681375.000000 0 0 1
-18.261763 -11.696255 -26.009362 33.864160 0.569652 2.446587 0.028773 -0.018151 163606.000000 0 0 1
-16.881663 -11.762255 -25.319622 32.625519 0.608540 2.459203 0.036680 -0.017819 -551593.000000 0 0 1
-16.918963 -12.704955 -24.274412 32.201154 0.644096 2.424678 0.042459 -0.021887 -51147.000000 0 0 1
-15.731263 -12.874055 -23.526612 31.092048 0.685845 2.429010 0.041153 -0.026956 596507.000000 0 0 1
-14.540863 -13.636355 -24.216412 31.365929 0.753309 2.452874 0.026589 -0.017929 350126.000000 0 0 1
-13.864363 -12.965755 -25.263642 31.600364 0.751918 2.497214 0.032709 -0.020562 -123639.000000 0 0 1
-13.101263 -13.780055 -26.106812 32.297038 0.810644 2.512114 0.027084 -0.011371 13966.200000 0 0 1
-12.335363 -12.981055 -27.247952 32.605519 0.810898 2.560176 0.026408 -0.008338 509964.000000 0 0 1
-13.132263 -12.101155 -28.046292 33.248892 0.744558 2.574610 0.037570 -0.014484 -312706.000000 0 0 1
-12.248263 -11.550455 -28.898792 33.445077 0.756085 2.614091 0.048473 -0.022974 -613870.000000 0 0 1
-12.898463 -10.413155 -29.675242 33.991531 0.679187 2.632155 0.035233 -0.017642 -273887.000000 0 0 1
-12.051863 -9.606655 -30.445582 34.124313 0.672976 2.672981 0.027499 -0.009770 -331789.000000 0 0 1
-11.637163 -10.097155 -31.708252 35.253218 0.714660 2.689289 0.035539 -0.007064 506253.000000 0 0 1
-10.841263 -9.022855 -32.580252 35.502363 0.694110 2.733029 0.033805 -0.013309 521662.000000 0 0 1
-9.590663 -8.702255 -32.023692 34.543117 0.736871 2.757301 0.032812 -0.010521 -448082.000000 0 0 1
-8.972163 -7.653055 -32.703742 34.764979 0.706220 2.795512 0.023021 -0.015102 1782200.000000 0 0 1
-7.369463 -7.493855 -32.569972 34.223822 0.793767 2.829443 0.047165 -0.014239 1911710.000000 0 0 1
-6.847363 -7.250755 -31.266212 32.818225 0.814004 2.832825 0.036032 -0.014992 -368580.000000 0 0 1
-7.211463 -6.069455 -30.602762 32.021439 0.699621 2.842812 0.014542 -0.014768 -499084.000000 0 0 1
-6.385963 -4.790755 -30.833662 31.850378 0.643630 2.888243 0.008758 -0.014991 -198959.000000 0 0 1
-5.108763 -4.728755 -30.249352 31.040037 0.746789 2.915398 0.021129 -0.012113 -81006.800000 0 0 1
-4.545463 -3.405855 -30.483372 31.008016 0.643045 2.957378 0.030985 -0.011436 982739.000000 0 0 1
-2.990563 -3.339255 -30.310032 30.639715 0.840430 2.994764 0.019525 -0.001810 543919.000000 0 0 1
-2.189363 -3.988655 -31.296752 31.625771 1.068800 2.997221 0.020048 -0.007898 526422.000000 0 0 1
-0.779563 -3.957855 -31.190702 31.450473 1.376320 3.012976 0.026015 -0.002833 533471.000000 0 0 1
-0.013763 -2.634655 -31.350672 31.461187 1.565573 3.057750 0.017680 0.000486 -672268.000000 0 0 1
-0.019363 -1.763555 -30.210212 30.261650 1.559817 3.083279 0.013958 -0.007753 195036.000000 0 0 1
0.731137 -0.603455 -30.583992 30.598682 -0.690017 3.110606 0.006289 0.002659 133999.000000 0 0 1
0.871837 0.414245 -29.429262 29.445088 0.443562 3.108806 0.015249 -0.006226 31931.100000 0 0 1
-0.325963 1.027545 -29.025292 29.045304 -1.263613 3.104469 0.032677 -0.008207 -237113.000000 0 0 1
0.024137 2.227745 -28.402152 28.489396 1.559962 3.063313 0.046111 -0.009307 776137.000000 0 0 1
-1.204763 3.175645 -28.122912 28.327273 -1.208195 3.021402 0.044137 -0.010346 331291.000000 0 0 1
-1.514963 4.009845 -29.205652 29.518538 -1.209564 2.995864 0.034193 -0.006079 -112797.000000 0 0 1
-2.687463 4.729845 -28.893932 29.401585 -1.054093 2.955495 0.074937 -0.015152 -610265.000000 0 0 1
-3.901963 4.326045 -29.689452 30.255637 -0.836894 2.947830 0.085885 -0.021856 -1097230.000000 0 0 1
-3.671763 4.530545 -31.046902 31.589837 -0.889718 2.955924 0.090663 -0.023387 1098840.000000 0 0 1
-4.850063 4.980245 -31.777092 32.528596 -0.798640 2.926222 0.094977 -0.020427 831776.000000 0 0 1
-4.370663 5.865245 -33.011062 33.811744 -0.930387 2.923535 0.093863 -0.016077 336578.000000 0 0 1
-3.896663 5.272645 -34.204983 34.827656 -0.934351 2.952214 0.097023 -0.020859 -244739.000000 0 0 1
-2.705163 4.562345 -34.080734 34.491004 -1.035590 2.987199 0.080085 -0.021450 -641163.000000 0 0 1
-2.243063 3.735745 33.350297 33.633755 -1.030059 0.129920 0.063438 -0.021780 -203989.000000 0 0 1
-3.137563 2.664145 33.140208 33.394841 -0.703979 0.123569 0.052741 -0.020381 -5103.920000 0 0 1
-2.989163 1.884345 31.950188 32.144990 -0.562467 0.110147 0.054188 -0.015492 -216903.000000 0 0 1
-2.743463 2.655245 30.608038 30.845242 -0.769059 0.124097 0.056820 -0.017938 -608331.000000 0 0 1
-3.804263 3.500845 30.359418 30.796471 -0.743887 0.168673 0.043903 -0.021944 -594644.000000 0 0 1
-3.638363 4.366845 29.259298 29.806267 -0.876149 0.191871 0.045612 -0.030748 274389.000000 0 0 1
-4.865863 5.302345 29.057138 29.935076 -0.828298 0.242786 0.050126 -0.022651 453909.000000 0 0 1
-4.698863 6.157345 27.956138 29.009272 -0.918944 0.270278 0.049267 -0.018566 -120841.000000 0 0 1
-5.932063 6.795545 27.659268 29.093022 -0.853138 0.315252 0.044322 -0.014083 -378931.000000 0 0 1
-6.021663 7.576145 26.328878 28.051172 -0.899223 0.352242 0.051238 -0.013842 -202465.000000 0 0 1
-5.212163 8.746145 26.427608 28.321020 -1.033369 0.367733 0.059894 -0.016037 21608.700000 0 0 1
-5.022663 9.248845 25.130398 27.245278 -1.073298 0.396609 0.052665 -0.016238 103804.000000 0 0 1
-4.261863 10.611445 25.253088 27.721557 -1.188887 0.425203 0.047555 -0.015277 -726664.000000 0 0 1
-4.281563 11.437745 24.098048 27.016101 -1.212608 0.469072 0.049754 -0.012270 142848.000000 0 0 1
-3.832663 12.751945 24.306258 27.714537 -1.278830 0.501168 0.048952 -0.004636 -1391550.000000 0 0 1
-2.331063 12.901245 24.419458 27.716167 -1.392040 0.492709 0.042458 -0.003284 -1428730.000000 0 0 1
-1.709063 12.254445 25.536418 28.376063 -1.432225 0.451192 0.042200 -0.006700 -299595.000000 0 0 1
-1.927163 12.883745 26.785818 29.785649 -1.422316 0.452662 0.062506 -0.014385 -974990.000000 0 0 1
-1.041163 12.442745 27.928238 30.592359 -1.487315 0.420425 0.057256 -0.017417 373095.000000 0 0 1
0.342537 12.751445 27.728098 30.521535 1.543940 0.431172 0.058194 -0.009757 268020.000000 0 0 1
1.069637 12.452845 28.893218 31.480717 1.485112 0.408275 0.064229 -0.023460 612466.000000 0 0 1
2.624837 12.563845 28.773878 31.506762 1.364839 0.419579 0.048109 -0.012297 660820.000000 0 0 1
3.125137 13.858845 28.656478 31.984806 1.349008 0.460253 0.054869 -0.015668 -821367.000000 0 0 1
4.507637 13.946045 28.644718 32.176557 1.258175 0.472934 0.051616 -0.011356 -716800.000000 0 0 1
5.057537 15.392545 28.885558 33.119248 1.253338 0.511179 0.056147 -0.012029 -149628.000000 0 0 1
4.666337 15.838745 30.186568 34.407404 1.284287 0.500531 0.055664 -0.006597 595984.000000 0 0 1
3.663437 16.865945 30.255278 34.831921 1.356910 0.518411 0.042221 -0.005790 174376.000000 0 0 1
3.919537 18.241845 29.563738 34.959152 1.359149 0.562986 0.052095 -0.001372 -479323.000000 0 0 1
4.969337 18.945545 30.150478 35.953850 1.314279 0.576110 0.068769 -0.000432 -129138.000000 0 0 1
5.446037 20.045745 29.350628 35.957622 1.305519 0.615896 0.055909 -0.005783 262797.000000 0 0 1
6.474537 20.927945 30.108868 37.234963 1.270763 0.628997 0.050513 -0.003888 54828.800000 0 0 1
5.883837 21.870245 31.023168 38.410469 1.307985 0.630598 0.035294 -0.014483 -117391.000000 0 0 1
6.850537 22.718345 31.586628 39.506558 1.277925 0.644286 0.022259 -0.015371 -362898.000000 0 0 1
7.120937 24.078645 30.841688 39.770575 1.283255 0.683305 0.023733 -0.010046 -299993.000000 0 0 1
7.778837 23.903245 29.627268 38.854220 1.256175 0.703591 0.007327 -0.006151 120131.000000 0 0 1
7.958037 25.176645 29.020638 39.235077 1.264646 0.738231 0.003514 -0.003951 68012.600000 0 0 1
8.609937 25.057145 27.620898 38.274084 1.239824 0.764598 0.014765 -0.010363 92697.700000 0 0 1
7.751637 24.375545 26.717188 36.987338 1.262901 0.763626 0.011690 -0.014689 518677.000000 0 0 1
8.086037 24.664845 25.386938 36.307509 1.254001 0.796490 0.021965 -0.016506 -331878.000000 0 0 1
29.081060 2.009645 6.962688 29.970414 0.068995 1.336335 0.081087 -0.006891 38306.000000 0 0 1
29.184270 3.137545 7.797588 30.370515 0.107097 1.311140 0.076730 -0.015030 177652.000000 0 0 1
28.307540 3.003845 8.894188 29.823589 0.105719 1.267962 0.068268 -0.006222 -94284.500000 0 0 1
28.427810 4.102545 9.974588 30.404994 0.143325 1.236550 0.059466 -0.003435 -118410.000000 0 0 1
28.198460 5.462745 9.644588 30.298726 0.191355 1.246843 0.065659 -0.007594 222187.000000 0 0 1
29.269000 6.129045 8.995088 31.227410 0.206421 1.278605 0.082821 -0.019598 -32996.800000 0 0 1
28.928010 7.543745 8.532088 31.089136 0.255095 1.292790 0.089182 -0.023756 610448.000000 0 0 1
27.952550 7.675645 7.471488 29.934657 0.267990 1.318536 0.084003 -0.032565 527425.000000 0 0 1
28.119080 8.994045 6.924088 30.323563 0.309572 1.340424 0.081728 -0.042669 -313664.000000 0 0 1
27.122610 9.406045 5.837288 29.294770 0.333819 1.370193 0.077592 -0.037139 -142912.000000 0 0 1
25.811170 9.541545 6.333888 28.237841 0.354087 1.344567 0.073179 -0.034097 -128303.000000 0 0 1
24.847070 9.583645 5.307888 27.155051 0.368123 1.374064 0.082810 -0.039618 -396365.000000 0 0 1
23.523370 10.138745 5.830488 26.270471 0.406948 1.346992 0.027452 -0.026397 -508199.000000 0 0 1
23.540670 11.556145 6.066888 26.916811 0.456342 1.343449 0.023464 -0.022196 -40288.500000 0 0 1
22.294570 11.980145 6.556488 26.144966 0.493085 1.317316 0.028882 -0.004617 -217738.000000 0 0 1
22.229370 13.475945 6.872088 26.888130 0.544982 1.312348 0.006547 0.016767 -294141.000000 0 0 1
22.256170 14.224045 5.663288 27.013577 0.568678 1.359583 0.003070 0.018075 334441.000000 0 0 1
22.152670 15.536345 6.046388 27.725035 0.611618 1.350946 0.023871 -0.000603 -201951.000000 0 0 1
21.840470 16.485945 4.853288 27.791130 0.646588 1.395262 0.030211 -0.002910 168680.000000 0 0 1
20.559270 16.300445 4.245588 26.578433 0.670367 1.410371 0.046523 -0.004381 697681.000000 0 0 1
20.307970 17.298345 3.320588 26.882572 0.705539 1.446958 0.040067 -0.006142 -127449.000000 0 0 1
18.872570 17.389845 2.736488 25.808312 0.744532 1.464565 0.040635 -0.004966 -240613.000000 0 0 1
18.107570 18.064045 3.660788 25.837863 0.784195 1.428635 0.035516 -0.005828 739067.000000 0 0 1
16.695070 18.082945 3.361088 24.839790 0.825284 1.435069 0.037748 -0.016921 774252.000000 0 1 0
15.808970 18.977845 4.271088 25.066398 0.876242 1.399570 0.035128 -0.027313 -1384840.000000 0 0 1
14.496270 18.619245 4.128888 23.955497 0.909264 1.397575 0.044980 -0.038098 -1440610.000000 0 1 0
13.756970 19.795345 4.247988 24.477649 0.963461 1.396368 0.031405 -0.032292 -200022.000000 0 1 0
12.238770 19.661345 3.990088 23.500569 1.014012 1.400183 0.026763 -0.020990 -458971.000000 0 1 0
11.574970 19.024545 5.003188 22.824222 1.024206 1.349797 0.023660 -0.033921 -750962.000000 0 1 0
10.220370 19.112545 4.610888 22.158646 1.079739 1.361179 0.025833 -0.025663 -351318.000000 0 1 0
9.338970 18.580045 5.750888 21.575614 1.105043 1.300989 0.026721 -0.028735 -1088490.000000 0 1 0
9.349970 19.423745 6.894988 22.632822 1.122165 1.261230 0.039175 -0.029780 172068.000000 0 1 0
8.747870 18.891245 8.079988 22.331380 1.137131 1.200575 0.038178 -0.025078 196281.000000 0 1 0
7.698570 19.722045 8.915488 22.972003 1.198633 1.172225 0.030954 -0.023491 1493950.000000 0 1 0
6.448370 19.974245 8.238588 22.548309 1.258525 1.196761 0.024358 -0.026733 712249.000000 0 1 0
6.477170 21.063045 7.305388 23.215819 1.272461 1.250684 0.023120 -0.024657 -768206.000000 0 1 0
5.197270 21.115145 6.431988 22.676671 1.329454 1.283210 0.014631 -0.021042 1230110.000000 0 1 0
3.969570 21.335645 7.207088 22.867211 1.386846 1.250159 0.008461 -0.021494 1071420.000000 0 1 0
3.736770 22.524645 7.945388 24.175447 1.406397 1.235917 0.004832 -0.020946 -806999.000000 0 1 0
3.787970 23.844245 7.233988 25.203716 1.413250 1.279681 0.011610 -0.021495 438431.000000 0 0 1
2.667370 24.031045 6.343688 24.996966 1.460252 1.314212 0.016233 -0.023859 740224.000000 0 1 0
2.970070 25.009145 5.346288 25.746095 1.452591 1.361620 0.035585 -0.020073 397039.000000 0 0 1
1.700370 25.333645 4.483388 25.783436 1.503778 1.396022 0.034036 -0.026200 663841.000000 0 0 1
0.780170 26.139745 5.237388 26.670679 1.540959 1.373139 0.057940 -0.033626 58025.200000 0 0 1
-0.323430 26.477745 4.408688 26.844219 -1.558582 1.405817 0.054677 -0.027843 -495841.000000 0 0 1
-1.418230 27.149645 5.204688 27.680378 -1.518606 1.381642 0.056950 -0.033923 -193067.000000 0 0 1
-2.514330 27.374745 4.316188 27.826749 -1.479205 1.415058 0.087537 -0.036220 -484122.000000 0 0 1
-3.606430 27.966745 4.932688 28.626501 -1.442550 1.397620 0.065197 -0.040750 -824221.000000 0 0 1
-4.752730 28.169745 3.957688 28.840705 -1.403653 1.433136 0.062796 -0.042861 -625444.000000 0 0 1
-4.387430 29.173145 3.039188 29.657353 -1.421522 1.468139 0.056498 -0.031006 -541586.000000 0 0 1
-5.363430 29.507945 2.126688 30.066725 -1.390997 1.500005 0.052927 -0.031572 -750028.000000 0 0 1
-4.958630 30.458345 0.914088 30.872874 -1.409412 1.541184 0.048025 -0.023355 -123042.000000 0 0 1
-4.524330 31.823645 1.094188 32.162263 -1.429574 1.536769 0.042417 -0.018406 1108610.000000 0 0 1
-3.231430 31.950245 1.743088 32.160513 -1.470000 1.516570 0.045464 -0.017567 718650.000000 0 0 1
-2.708230 33.420945 1.851488 33.581573 -1.489939 1.515634 0.042334 -0.016894 -614529.000000 0 0 1
-2.079530 33.753545 0.641688 33.823630 -1.509265 1.551824 0.037173 -0.007849 195099.000000 0 0 1
-1.286130 -33.744624 0.700288 33.776385 1.532701 1.550062 0.052340 -0.008326 1004830.000000 0 0 1
0.130470 -33.870124 1.318688 33.896036 -1.566944 1.531883 0.064724 -0.008026 -65407.400000 0 0 1
-0.042830 -34.060824 2.724188 34.169618 1.569539 1.490986 0.057385 -0.010377 456502.000000 0 0 1
1.256270 -34.064624 3.314788 34.248572 -1.533934 1.473858 0.057642 -0.012660 592888.000000 0 0 1
1.191770 -34.077724 4.902888 34.449237 -1.535838 1.427989 0.053346 -0.014001 -1270.680000 0 0 1
0.442670 33.608045 5.475388 34.054023 1.557626 1.409310 0.065974 -0.025135 -119073.000000 0 0 1
-0.071730 33.939945 6.780788 34.610751 -1.568683 1.373605 0.061726 -0.023329 827080.000000 0 0 1
0.928570 33.855045 8.031388 34.807032 1.543375 1.337958 0.056042 -0.017083 484153.000000 0 0 1
1.410370 32.579145 8.313788 33.652769 1.527533 1.321166 0.049912 -0.024878 -458234.000000 0 0 1
2.436370 32.629745 9.243188 34.001068 1.496267 1.295482 0.059333 -0.025394 -989108.000000 0 0 1
2.999370 31.248345 9.466788 32.788341 1.475105 1.277902 0.046955 -0.025432 -560545.000000 0 0 1
2.173970 30.290945 10.063488 31.992831 1.499150 1.250809 0.056062 -0.028437 -116958.000000 0 0 1
2.841070 29.051145 10.138688 30.900383 1.473311 1.236495 0.037801 -0.023774 -463699.000000 0 0 1
2.266070 28.046045 11.162088 30.270578 1.490173 1.193139 0.027065 -0.020267 -326174.000000 0 0 1
2.777270 28.436345 12.399288 31.146127 1.473439 1.161351 0.035956 -0.013122 -148300.000000 0 0 1
2.655970 27.471545 13.503788 30.726084 1.474415 1.115766 0.034686 -0.008779 -293607.000000 0 0 1
1.231970 27.126045 14.012988 30.556568 1.525411 1.094387 0.023386 -0.012038 522303.000000 0 0 1
0.449570 28.161545 14.657088 31.750668 1.554834 1.090964 0.030869 -0.014544 489599.000000 0 0 1
-0.001830 29.274245 13.824288 32.374254 -1.570734 1.129607 0.036296 -0.017863 -573822.000000 0 0 1
-0.830630 30.184745 14.738988 33.601287 -1.543285 1.116708 0.032258 -0.017521 -149294.000000 0 0 1
-2.077330 29.614645 15.087988 33.301499 -1.500766 1.100588 0.018132 -0.015557 -164281.000000 0 0 1
-2.857030 30.683045 15.596788 34.537974 -1.477950 1.102257 0.012459 -0.012699 -271474.000000 0 0 1
-4.140430 30.209045 16.293088 34.571581 -1.434586 1.080049 0.009936 -0.006281 -220123.000000 0 0 1
-5.066930 29.592045 15.452988 33.766221 -1.401215 1.095450 0.009514 -0.017196 767831.000000 0 0 1
-6.313430 29.307545 16.132988 34.045042 -1.358619 1.077114 0.016323 -0.011891 389454.000000 0 0 1
-7.379330 28.628045 15.302488 33.289421 -1.318522 1.093161 0.006524 -0.017127 -537154.000000 0 0 1
-8.535530 28.227045 15.989588 33.545316 -1.277150 1.073949 0.011640 -0.019481 -256006.000000 0 0 1
-9.483830 27.790045 15.057488 32.999357 -1.241922 1.096968 0.021804 -0.018658 988892.000000 0 0 1
-10.988330 27.616945 15.523688 33.532431 -1.192116 1.089481 0.026645 -0.016980 751669.000000 0 0 1
-11.669230 28.755045 15.995888 34.912633 -1.185287 1.094862 0.025987 -0.020837 154970.000000 0 0 1
-11.438230 28.995645 17.400788 35.698290 -1.195057 1.061640 0.023812 -0.019930 -386424.000000 0 0 1
-12.128830 30.243445 17.969888 37.211441 -1.189394 1.066818 0.035740 -0.016926 701530.000000 0 0 1
-13.557930 30.057545 18.019388 37.576213 -1.147056 1.070663 0.042036 -0.010049 1037060.000000 0 0 1
-14.287030 31.154745 18.539288 38.967198 -1.140828 1.074961 0.055430 -0.012943 -94852.700000 0 0 1
-14.958130 30.859045 19.870688 39.634209 -1.119444 1.045636 0.049991 -0.016250 -175566.000000 0 0 1
-14.157030 30.908945 21.009688 39.964876 -1.141290 1.017254 0.046404 -0.004109 -85440.700000 0 0 1
-14.990430 30.519745 22.096788 40.551644 -1.114236 0.994521 0.033917 0.002338 210187.000000 0 0 1
-14.384030 30.556645 23.509488 41.149786 -1.130835 0.962689 0.020841 0.013414 223679.000000 0 0 1
-13.275530 29.644845 23.700288 40.208956 -1.149757 0.940446 0.019248 0.012935 937977.000000 0 0 1
-12.946930 29.338545 25.048688 40.691645 -1.155206 0.907683 0.036370 0.010975 -98784.700000 0 0 1
-12.531330 30.496645 26.070988 42.033034 -1.180922 0.901735 0.040646 0.010216 -436291.000000 0 0 1
-13.564730 31.368045 26.455188 43.218434 -1.162643 0.912048 0.043226 0.009622 -100111.000000 0 0 1
-13.090230 32.540745 27.096288 44.322263 -1.188333 0.913035 0.042469 0.010764 12120.900000 0 0 1
-14.190230 33.522745 27.603488 45.684675 -1.170365 0.922013 0.052284 0.004927 532804.000000 0 0 1
-14.968130 33.104345 28.764088 46.339133 -1.146156 0.901123 0.030458 0.003750 201894.000000 0 0 1
-14.311930 33.109845 30.015788 46.925906 -1.162796 0.876764 0.062576 0.004597 -376651.000000 0 0 1
-15.056830 32.505345 31.224088 47.521040 -1.137011 0.853887 0.047633 0.006181 -763891.000000 0 0 1
-16.219230 33.147145 31.606788 48.587917 -1.115737 0.862544 0.041065 0.004748 -761539.000000 0 0 1
-16.853230 32.411945 32.652188 48.997254 -1.091301 0.841415 0.042449 0.003621 -708206.000000 0 0 1
-18.295830 32.722645 32.928588 49.897903 -1.060979 0.850085 0.036896 -0.000300 -995531.000000 0 0 1
-18.441730 34.034745 33.426188 51.144611 -1.074232 0.858515 0.038325 -0.000485 343360.000000 0 0 1
-19.830130 34.325645 33.598688 51.964947 -1.046931 0.867724 0.019868 -0.006112 594881.000000 0 0 1
-19.959030 -32.836424 33.779588 51.163016 1.024638 0.849665 0.019996 -0.000807 48442.300000 0 0 1
-19.457030 -32.328824 -33.627803 50.542636 1.029019 2.298739 0.023556 0.002505 485833.000000 0 0 1
-20.339230 -32.592124 -32.480203 50.307996 1.012878 2.272640 0.023493 0.002539 569550.000000 0 0 1
-19.908730 -31.774624 -31.224803 48.795211 1.011076 2.265184 0.030567 0.001025 -76710.300000 0 0 1
-19.955930 -30.377324 -31.424603 48.047130 0.989561 2.283705 0.040615 0.004834 8099.860000 0 0 1
-19.610430 -29.633124 -30.269803 46.679246 0.986189 2.276361 0.031386 0.003629 -94644.000000 0 0 1
-19.770030 -28.120324 -30.507003 45.959591 0.958025 2.296656 0.029389 -0.003741 -914648.000000 0 0 1
-21.078030 -27.702124 -30.428803 46.234220 0.920367 2.289148 0.044664 -0.003682 -1134500.000000 0 0 1
-21.305630 -26.282424 -30.280303 45.404763 0.889600 2.300833 0.031466 -0.003646 381428.000000 0 0 1
-22.593430 -26.004324 -29.439303 45.314022 0.855470 2.277951 0.040680 -0.010142 392923.000000 0 0 1
-22.452730 -26.205724 -28.029003 44.457734 0.862375 2.252947 0.047942 -0.012721 -4279.110000 0 0 1
-21.703130 -25.227224 -27.350003 43.075067 0.860349 2.258725 0.047215 -0.020638 -59111.500000 0 0 1
-21.587730 -25.465524 -25.799403 42.191613 0.867625 2.228728 0.054001 -0.017621 -219811.000000 0 0 1
-22.803830 -25.188524 -25.171503 42.285707 0.835046 2.208401 0.050835 -0.020445 -415705.000000 0 0 1
-22.793930 -25.660024 -23.817903 41.776699 0.844480 2.177453 0.049623 -0.009848 -881034.000000 0 0 1
-24.099230 -25.622324 -23.024203 42.040342 0.816021 2.150372 0.046367 -0.008627 216833.000000 0 0 1
-25.185530 -26.444324 -23.470803 43.410734 0.809774 2.142028 0.036698 -0.008083 182537.000000 0 0 1
-24.994230 -27.833224 -23.453003 44.152500 0.839087 2.130791 0.033286 0.001016 -1700630.000000 0 0 1
-26.291130 -28.645524 -23.400203 45.380162 0.828228 2.112560 0.022438 0.002256 85014.100000 0 0 1
-27.099230 -28.262724 -22.282003 45.051499 0.806411 2.088159 0.021652 0.004802 537669.000000 0 0 1
-28.274930 -27.537524 -22.718503 45.540282 0.772187 2.093086 0.019435 0.004623 339854.000000 0 0 1
-29.013230 -27.064624 -21.456003 45.106779 0.750664 2.066523 0.019659 -0.003837 -434262.000000 0 0 1
-29.573830 -28.162124 -20.760603 45.811782 0.760952 2.041116 0.009935 -0.001126 7093.850000 0 0 1
-29.974430 -27.714924 -19.490403 45.237808 0.746251 2.016223 0.005801 0.005245 -584329.000000 0 0 1
-30.940330 -28.654424 -18.684803 46.124852 0.747059 1.987876 0.005294 0.003201 326417.000000 0 0 1
-32.289430 -28.818424 -19.090603 47.302854 0.728658 1.986225 0.002446 -0.006643 554189.000000 0 0 1
-33.128030 -27.664124 -19.140403 47.213612 0.695761 1.988213 0.002866 -0.003172 -357738.000000 0 0 1
-33.667130 -27.130824 -17.825603 46.768680 0.678301 1.961830 -0.002141 0.000026 -1008030.000000 0 0 1
-32.688830 -26.472324 -17.109703 45.410192 0.680705 1.957115 0.004312 0.005854 -30404.300000 0 0 1
-33.247930 -25.869224 -15.900403 45.027375 0.661225 1.931708 0.000278 0.002650 221754.000000 0 0 1
-33.064330 -26.582024 -14.568603 44.856417 0.677144 1.901579 0.017416 0.006263 -175310.000000 0 0 1
-33.901430 -27.695224 -14.402403 46.084288 0.684981 1.888644 0.013005 0.010852 29342.700000 0 0 1
-33.808430 -28.302424 -13.148703 46.010059 0.696981 1.860615 0.002535 0.013592 -203721.000000 0 0 1
-34.559630 -29.627324 -12.958903 47.329479 0.708706 1.848140 0.002618 0.014123 -239586.000000 0 0 1
-34.174530 -30.667424 -13.875003 47.967751 0.731364 1.864247 0.002047 0.010152 251850.000000 0 0 1
-34.565730 -31.934224 -13.376603 48.923593 0.745847 1.847741 0.008141 0.002264 -300610.000000 0 0 1
-34.047730 -33.058724 -14.329003 49.572649 0.770661 1.864031 0.001846 0.008213 957284.000000 0 0 1
-32.635830 -33.369624 -14.175603 48.780908 0.796515 1.865647 0.003372 0.003527 1330210.000000 0 0 1
-32.172930 -34.263224 -15.169203 49.387961 0.816851 1.882987 0.009610 -0.008087 146059.000000 0 0 1
-30.642430 34.231445 -15.074203 48.352683 -0.840665 1.887836 0.004735 -0.003538 353698.000000 0 0 1
-30.184230 33.362745 -16.071003 47.774864 -0.835375 1.913878 0.019954 -0.008290 173799.000000 0 0 1
-28.798730 33.079145 -15.858903 46.637983 -0.854463 1.917759 0.017370 -0.001602 463756.000000 0 0 1
9.450837 19.735945 -9.081912 23.691918 1.124200 1.964199 0.028500 -0.020989 -265114.000000 0 1 0
8.040137 19.794945 -9.112912 23.227759 1.184981 1.973958 0.029635 -0.021241 243625.000000 0 1 0
7.468137 19.984545 -10.432512 23.748524 1.213170 2.025606 0.032698 -0.020301 79841.800000 0 1 0
7.436137 18.726145 -11.346312 23.123655 1.192793 2.083666 0.028469 -0.013977 -1627150.000000 0 1 0
8.676337 18.332145 -11.774512 23.451770 1.128748 2.096791 0.048920 -0.017440 -1133450.000000 0 1 0
8.653137 17.286345 -12.735612 23.149305 1.106688 2.153341 0.048999 -0.019834 -419591.000000 0 1 0
10.029937 16.849345 -13.241812 23.661058 1.033861 2.164755 0.057684 -0.018406 -54206.500000 0 1 0
9.945137 15.665145 -13.998712 23.243633 1.005140 2.217126 0.072372 -0.027899 380732.000000 0 1 0
11.238837 15.386845 -14.529212 23.961729 0.939946 2.222260 0.089180 -0.033708 227886.000000 0 1 0
11.121237 14.144745 -15.443812 23.712171 0.904499 2.280097 0.082121 -0.034367 -184618.000000 0 1 0
11.049137 12.920045 -14.698712 22.473610 0.863295 2.283713 0.093316 -0.038323 238807.000000 0 1 0
12.287537 12.421345 -14.244612 22.542900 0.790813 2.254784 0.111682 -0.032731 -502666.000000 0 1 0
13.149637 11.665245 -15.239412 23.264363 0.725651 2.285050 0.118075 -0.037284 -586422.000000 0 1 0
13.825437 12.517945 -16.122512 24.653135 0.735806 2.283622 0.103136 -0.030193 -221569.000000 0 1 0
14.512537 11.830445 -17.102912 25.359077 0.683933 2.310988 0.087773 -0.030739 -53829.300000 0 0 1
15.311637 12.636845 -18.165412 26.909446 0.689984 2.311838 0.068510 -0.026022 853899.000000 0 0 1
16.443837 13.371545 -17.661912 27.588787 0.682717 2.265535 0.043420 -0.019493 454186.000000 0 0 1
17.100837 13.949945 -18.762812 28.966925 0.684269 2.275400 0.031216 -0.017184 -227842.000000 0 0 1
18.119037 15.073745 -18.402312 29.902548 0.693909 2.233702 0.020712 -0.006820 -439018.000000 0 0 1
17.673737 16.277145 -17.772112 29.885689 0.744286 2.207651 0.014970 -0.011333 -75962.900000 0 0 1
17.190837 17.220345 -18.655712 30.661063 0.786256 2.224902 0.018005 -0.002681 -315392.000000 0 0 1
16.904737 18.550245 -17.868612 30.808587 0.831776 2.189510 0.010563 0.004873 -234092.000000 0 0 1
18.095037 19.248045 -17.668912 31.782197 0.816264 2.160287 0.011807 0.009173 122568.000000 0 0 1
17.744837 20.537845 -17.129912 32.095424 0.858227 2.133788 0.005696 0.013682 521678.000000 0 0 1
18.794137 21.632245 -17.533612 33.594660 0.855487 2.119893 0.013020 0.004990 24462.500000 0 0 1
19.989437 21.707145 -16.827712 33.969834 0.826570 2.089060 0.015021 -0.001823 -380481.000000 0 0 1
19.943937 22.930145 -16.095912 34.389396 0.854936 2.057878 0.014632 -0.004438 -212865.000000 0 0 1
21.242837 23.180145 -15.335312 34.982125 0.828981 2.024587 0.011676 -0.007579 -995806.000000 0 0 1
21.422137 22.431145 -14.139712 34.088058 0.808403 1.998519 0.017300 -0.008580 -150338.000000 0 0 1
22.465537 22.894545 -13.324312 34.733238 0.794856 1.964508 0.018005 -0.007496 1093550.000000 0 0 1
23.968237 22.697545 -13.774312 35.768514 0.758175 1.966108 0.027213 -0.005538 563143.000000 0 0 1
24.323337 23.532045 -14.825212 36.948191 0.768865 1.983670 0.034428 -0.006043 -177615.000000 0 0 1
25.675237 23.938845 -14.826612 38.106621 0.750414 1.970432 0.029530 -0.004382 -86430.600000 0 0 1
26.193337 24.526745 -16.132412 39.343447 0.752551 1.993295 0.039337 -0.000019 -565322.000000 0 0 1
26.618837 23.519645 -17.013612 39.385266 0.723664 2.017482 0.039147 -0.006589 162681.000000 0 0 1
26.396537 23.820245 -18.375512 40.023002 0.734140 2.047805 0.029654 0.007575 -988889.000000 0 0 1
26.964637 22.759645 -19.382012 40.258608 0.701033 2.073091 0.031751 0.003404 250625.000000 0 0 1
28.378537 22.624745 -19.346312 41.127853 0.673061 2.060534 0.027826 0.011362 202094.000000 0 0 1
28.792637 21.932745 -20.474712 41.584554 0.650978 2.085599 0.035122 0.001217 816827.000000 0 0 1
30.311437 22.113745 -20.834912 42.917298 0.630285 2.077693 0.052848 0.002253 409231.000000 0 0 1
30.669637 23.282245 -21.370712 44.038584 0.649319 2.077471 0.035484 0.005643 -443323.000000 0 0 1
32.067637 23.366145 -21.457012 45.107798 0.629698 2.066537 0.035292 -0.001362 -318519.000000 0 0 1
32.503537 24.717645 -22.030012 46.397881 0.650162 2.065540 0.032155 -0.003021 -341852.000000 0 0 1
32.549837 24.802345 -23.417912 47.149198 0.651125 2.090562 0.035511 -0.003546 295747.000000 0 0 1
31.313437 24.985745 -24.108712 46.755201 0.673474 2.112547 0.034914 -0.002494 -44448.400000 0 0 1
31.277737 25.360945 -25.602182 47.717356 0.681310 2.137126 0.038066 -0.006466 -529452.000000 0 0 1
31.366637 26.771045 -25.862472 48.676712 0.706515 2.130944 0.029443 -0.003482 -102412.000000 0 0 1
30.133637 27.435445 -26.058162 48.371144 0.738564 2.139705 0.029948 0.001805 208492.000000 0 0 1
29.455337 27.202545 -27.436892 48.583726 0.745658 2.170907 0.033607 0.000621 -177273.000000 0 0 1
29.170937 25.850845 -27.791142 47.870214 0.725130 2.190203 0.032781 -0.008479 52917.200000 0 0 1
28.756137 25.723845 -29.145692 48.353935 0.729797 2.217749 0.039275 -0.016938 10914.400000 0 0 1
28.100837 24.327345 -29.492042 47.447416 0.713548 2.241546 0.041610 -0.018525 -343174.000000 0 0 1
26.766037 24.272445 -29.097382 46.392133 0.736580 2.248756 0.039529 -0.013383 -711140.000000 0 0 1
26.229737 22.976245 -29.235042 45.503787 0.719374 2.268520 0.043457 -0.016560 969286.000000 0 0 1
24.721737 22.955445 -28.773762 44.340119 0.748368 2.276977 0.035669 -0.010370 928301.000000 0 0 1
24.702037 22.947445 -27.334152 43.404283 0.748592 2.252037 0.034867 -0.001970 1070500.000000 0 0 1
23.345737 22.806645 -26.860352 42.268724 0.773718 2.259409 0.019432 -0.000252 727218.000000 0 0 1
23.271237 22.988045 -25.355382 41.387149 0.779276 2.230192 0.033861 0.004979 -82439.800000 0 0 1
23.724437 21.862745 -24.626012 40.586562 0.744583 2.222765 0.029851 0.004940 182642.000000 0 0 1
23.873437 22.117745 -23.250912 39.996757 0.747242 2.191146 0.040833 0.009344 -247098.000000 0 0 1
24.511337 20.950845 -22.479312 39.307290 0.707240 2.179600 0.040361 0.010091 241691.000000 0 0 1
25.797537 20.594045 -22.958812 40.208639 0.673700 2.178510 0.035189 0.011995 218773.000000 0 0 1
26.188337 19.290345 -22.600512 39.607191 0.634870 2.178053 0.052889 0.003378 193862.000000 0 0 1
27.399537 18.576045 -23.255412 40.455139 0.595787 2.183210 0.056243 -0.003847 1032530.000000 0 0 1
28.688837 18.979645 -22.775012 41.255030 0.584465 2.155622 0.068615 -0.018589 646007.000000 0 0 1
29.747837 18.211845 -23.312812 41.953454 0.549347 2.159980 0.050460 -0.007149 1316780.000000 0 0 1
31.001037 18.131845 -22.316912 42.283244 0.529227 2.126800 0.047160 -0.004027 1139880.000000 0 0 1
31.679537 19.326945 -22.002612 43.142077 0.547796 2.105985 0.034366 -0.005167 -121681.000000 0 0 1
32.939137 19.079445 -21.441312 43.689150 0.525010 2.083769 0.027723 -0.007276 -3885.130000 0 0 1
33.387637 20.112545 -20.360412 43.974938 0.542179 2.052174 0.030229 -0.012481 -236122.000000 0 0 1
32.755237 19.943845 -19.124412 42.853304 0.546920 2.033396 0.035611 -0.012481 166971.000000 0 0 1
33.086937 20.992345 -18.234012 43.219245 0.565373 2.006331 0.014157 -0.005514 -470035.000000 0 0 1
32.337437 20.911045 -16.924912 42.064644 0.574017 1.984884 0.024220 -0.017431 -198022.000000 0 0 1
32.828637 19.776345 -16.172312 41.597679 0.542191 1.970103 0.031174 -0.026258 678155.000000 0 0 1
32.328937 19.788445 -14.811412 40.695462 0.549267 1.943309 0.035560 -0.029119 -125120.000000 0 0 1
32.799737 18.518745 -13.994012 40.182074 0.513984 1.926516 0.023920 -0.017796 72418.700000 0 0 1
34.206337 18.318345 -14.002512 41.251735 0.491662 1.917118 0.021282 -0.016065 465384.000000 0 0 1
34.704337 17.181345 -13.308212 40.947505 0.459702 1.901815 0.019603 -0.011529 53246.500000 0 0 1
34.800337 17.317645 -11.770412 40.614122 0.461749 1.864826 0.032806 -0.017484 -494142.000000 0 0 1
35.673037 18.323145 -11.289512 41.662409 0.474501 1.845203 0.023627 -0.013891 -37662.500000 0 0 1
35.471137 18.743545 -9.926912 41.328751 0.486122 1.813362 0.014744 -0.016741 -84840.300000 0 0 1
34.286037 19.737745 -9.718312 40.737655 0.522344 1.811678 0.019667 -0.017526 -459373.000000 0 0 1
33.065837 19.172545 -10.080312 39.529088 0.525456 1.828654 0.048878 -0.030111 -970837.000000 0 0 1
32.099537 20.202345 -9.989812 39.221313 0.561732 1.828338 0.032231 -0.014437 -187404.000000 0 0 1
30.663737 19.736445 -10.270912 37.885138 0.571892 1.845339 0.012072 -0.013617 -212482.000000 0 0 1
30.327437 19.453245 -11.605512 37.853271 0.570334 1.882407 0.023891 -0.018504 -1037670.000000 0 0 1
29.002737 19.096945 -11.728512 36.652559 0.582295 1.896517 0.032661 -0.021961 -971835.000000 0 0 1
28.645437 18.304145 -13.004012 36.396526 0.568596 1.936158 0.047714 -0.016507 -124776.000000 0 0 1
29.187037 16.963745 -13.069812 36.200439 0.526487 1.940179 0.059955 -0.020073 417711.000000 0 0 1
28.858037 16.389245 -14.311612 36.141609 0.516502 1.977939 0.060276 -0.012402 -451151.000000 0 0 1
30.128237 16.120945 -15.131312 37.370472 0.491314 1.987666 0.035981 -0.010327 -142028.000000 0 0 1
30.864637 15.077345 -14.538312 37.300331 0.454405 1.971171 0.024113 -0.010871 -506003.000000 0 0 1
32.064637 14.816845 -15.169812 38.442204 0.432865 1.976443 0.017514 -0.010788 -119458.000000 0 0 1
33.112037 13.842045 -14.517112 38.713767 0.395958 1.955178 0.016461 -0.012918 301618.000000 0 0 1
33.744737 14.224945 -13.323912 38.969000 0.398941 1.919746 0.025197 -0.007982 -43372.100000 0 0 1
34.413437 13.120245 -12.734612 38.969165 0.364242 1.903698 0.027211 -0.004664 -198877.000000 0 0 1
35.469737 13.496345 -11.674012 39.705619 0.363587 1.869220 0.043067 -0.005771 -291728.000000 0 0 1
-35.127895 14.123745 -12.311912 39.812465 -0.382286 1.885198 0.019631 -0.008181 -320163.000000 0 0 1
-34.301095 14.644745 -11.264412 38.960501 -0.403518 1.864108 0.015589 -0.006835 285796.000000 0 0 1
-32.848295 15.070245 -11.726012 37.995028 -0.430134 1.884538 0.023951 -0.013212 847720.000000 0 0 1
-31.962695 14.110745 -12.215312 37.012712 -0.415742 1.907132 0.021955 -0.014048 152586.000000 0 0 1
-31.559795 13.140245 -11.216212 35.979023 -0.394530 1.887823 0.032714 -0.007567 -952044.000000 0 0 1
-30.496095 12.122445 -11.570112 34.797025 -0.378356 1.909753 0.053108 -0.015676 -79710.000000 0 0 1
-30.961495 11.270945 -12.585812 35.271108 -0.349120 1.935669 0.031968 -0.011340 520672.000000 0 0 1
-29.982695 10.245645 -12.725312 34.144821 -0.329278 1.952699 0.064811 -0.016679 129413.000000 0 0 1
-30.057595 9.499345 -14.105012 34.534735 -0.306105 1.991529 0.060845 -0.008822 145160.000000 0 0 1
-31.294195 8.900545 -14.462812 35.605046 -0.277098 1.989089 0.038589 -0.011881 266623.000000 0 0 1
-31.094595 8.151545 -15.658512 35.756266 -0.256384 2.024084 0.040665 -0.008201 132016.000000 0 0 1
-32.262895 7.378445 -16.359612 36.918461 -0.224831 2.029882 0.045518 -0.012557 50424.100000 0 0 1
-32.915695 6.521745 -15.464112 36.947462 -0.195601 2.002637 0.054167 -0.018443 121029.000000 0 0 1
-34.000095 5.885645 -16.109512 38.081015 -0.171408 2.007586 0.031720 -0.023192 -175208.000000 0 0 1
-34.878595 5.091845 -15.148712 38.365698 -0.144964 1.976701 0.034920 -0.023234 303924.000000 0 0 1
35.636237 4.532845 -15.758512 39.227781 0.126518 1.984189 0.034865 -0.020811 542602.000000 0 0 1
34.586337 4.273545 -14.841012 37.877877 0.122939 1.973397 0.046888 -0.021587 423113.000000 0 0 1
33.610737 3.196945 -15.402912 37.109996 0.094831 1.998806 0.052958 -0.024569 -257639.000000 0 0 1
34.366637 2.042945 -15.761612 37.863806 0.059376 2.000137 0.052358 -0.024025 204696.000000 0 0 1
33.741637 0.748245 -15.860212 37.290807 0.022172 2.010102 0.043844 -0.019257 -50220.600000 0 0 1
33.102737 0.380245 -14.474912 36.131135 0.011486 1.982991 0.062033 -0.016739 673684.000000 0 0 1
34.123537 -0.100555 -13.576112 36.725151 -0.002947 1.949448 0.071776 -0.017505 1110530.000000 0 0 1
33.587637 -0.242755 -12.239512 35.749042 -0.007227 1.920238 0.083406 -0.021198 73996.900000 0 0 1
33.521737 1.060445 -11.360312 35.410283 0.031624 1.897391 0.081879 -0.022818 140726.000000 0 0 1
32.693737 2.098445 -11.921112 34.862542 0.064097 1.919783 0.075203 -0.020130 716762.000000 0 0 1
32.968637 3.371045 -11.276012 35.006334 0.101896 1.898757 0.072100 -0.019679 -155593.000000 0 0 1
31.932637 4.431745 -11.658812 34.282089 0.137903 1.917803 0.065602 -0.012051 -280974.000000 0 0 1
32.096837 4.930545 -12.951012 34.960634 0.152423 1.950285 0.058307 -0.015001 734602.000000 0 0 1
30.942537 5.644245 -13.408112 34.191747 0.180427 1.973758 0.058301 -0.014751 167327.000000 0 0 1
31.179937 6.410345 -14.732112 35.075863 0.202767 2.004250 0.021291 -0.008029 -433588.000000 0 0 1
31.249837 5.642445 -15.902912 35.514675 0.178635 2.035082 0.024856 -0.003092 256246.000000 0 0 1
31.713337 6.338145 -17.054412 36.561740 0.197258 2.056075 0.016834 -0.002675 -551025.000000 0 0 1
30.596437 7.113145 -17.780112 36.095307 0.228425 2.085857 0.013694 -0.001638 1173030.000000 0 0 1
29.447437 6.425645 -18.341712 35.282558 0.214840 2.117474 0.004566 -0.009900 1492680.000000 0 0 1
28.498937 5.844145 -17.439412 33.918676 0.202261 2.110817 0.006222 -0.003014 36781.600000 0 0 1
27.067237 5.786445 -18.049012 33.043685 0.210610 2.148637 0.009717 -0.004589 146775.000000 0 0 1
27.008437 4.820445 -19.029712 33.388955 0.176619 2.177230 0.012911 -0.005611 589.840000 0 0 1
25.904337 5.022345 -19.872712 33.033064 0.191505 2.216300 0.015352 -0.005287 -318241.000000 0 0 1
25.549737 3.818445 -20.700512 33.104091 0.148353 2.246333 0.022704 0.001500 -230887.000000 0 0 1
24.872137 2.861645 -19.901712 31.982658 0.114551 2.242430 0.033861 -0.008967 268527.000000 0 0 1
24.652937 1.665945 -20.653012 32.203876 0.067473 2.267015 0.025183 -0.009769 -68823.700000 0 0 1
23.660437 0.742745 -19.837412 30.885124 0.031382 2.268287 0.024862 -0.013239 999387.000000 0 0 1
22.343337 1.314445 -19.918712 29.961769 0.058762 2.298028 0.028147 -0.016690 425312.000000 0 0 1
21.411837 0.541045 -19.221812 28.779117 0.025263 2.302191 0.033699 -0.012943 -904706.000000 0 0 1
20.129237 1.264145 -18.894512 27.636694 0.062719 2.323583 0.029283 -0.016452 -1089550.000000 0 0 1
19.229037 1.364645 -20.017112 27.790339 0.070849 2.375017 0.032186 -0.019552 893673.000000 0 0 1
18.139837 2.262245 -19.806212 26.952876 0.124071 2.396236 0.024640 -0.014704 1037380.000000 0 0 1
17.002637 1.894145 -18.800712 25.419368 0.110946 2.403304 0.039281 -0.018262 -621277.000000 0 0 1
17.404337 2.250545 -17.502312 24.785214 0.128596 2.354856 0.044763 -0.016965 309350.000000 0 1 0
16.427837 2.155745 -16.466512 23.359519 0.130480 2.353102 0.033543 -0.010100 670003.000000 0 1 0
15.328037 3.288045 -16.420212 22.702056 0.211309 2.379354 0.045043 -0.016447 331153.000000 0 1 0
14.470337 3.289445 -17.531512 22.968784 0.223525 2.439164 0.041753 -0.019404 174028.000000 0 1 0
13.552137 4.375045 -17.477212 22.544498 0.312268 2.457878 0.046432 -0.017412 -21554.200000 0 1 0
-19.670863 -21.771855 -17.479012 34.153659 0.836051 2.108047 0.046612 -0.022679 -6170.980000 0 0 1
-19.300363 -22.313355 -18.692012 34.925366 0.857676 2.135539 0.056613 -0.024420 -31650.600000 0 0 1
-20.420363 -22.320955 -19.547012 36.018078 0.829836 2.144445 0.055668 -0.018921 -39122.700000 0 0 1
-20.240963 -23.063355 -20.838712 37.092680 0.850482 2.167358 0.048048 -0.013286 -222193.000000 0 0 1
-20.106563 -24.461055 -20.682212 37.820246 0.882794 2.149400 0.039363 -0.011871 219317.000000 0 0 1
-19.563963 -25.053115 -21.847012 38.570704 0.907811 2.172945 0.034462 -0.011801 -201365.000000 0 0 1
-19.505163 -26.602805 -21.755912 39.515571 0.938135 2.153838 0.033091 -0.000946 155966.000000 0 0 1
-20.765563 -27.258805 -21.746512 40.585242 0.919790 2.136279 0.034338 0.012036 188371.000000 0 0 1
-20.591863 -28.684375 -21.696812 41.443575 0.948173 2.121781 0.059603 0.001278 -182768.000000 0 0 1
-21.925463 -29.445555 -21.785612 42.689338 0.930754 2.106364 0.054255 0.007446 -13105.800000 0 0 1
-22.533563 -29.498005 -23.082812 43.711669 0.918458 2.127122 0.032857 0.004474 37385.500000 0 0 1
-21.831463 -30.231225 -24.114112 44.407546 0.945359 2.144824 0.037623 -0.000616 -296145.000000 0 0 1
-22.100763 -29.667665 -25.493482 44.928073 0.930539 2.174176 0.034340 0.002536 544341.000000 0 0 1
-23.464863 -29.793405 -25.918032 45.934641 0.903671 2.170305 0.035655 0.007056 877222.000000 0 0 1
-23.826363 -28.997935 -27.027662 46.250085 0.882989 2.194913 0.041138 0.005966 -295081.000000 0 0 1
-23.282263 -29.457985 -28.357102 47.052757 0.901964 2.217634 0.042171 -0.010035 -678396.000000 0 0 1
-24.019963 -30.408385 -29.023862 48.415009 0.902237 2.213648 0.022866 0.001535 -45573.400000 0 0 1
-23.356363 -30.716005 -30.244352 49.027681 0.920674 2.235573 0.040552 0.000308 -140717.000000 0 0 1
-23.912363 -31.898485 -31.014312 50.509425 0.927526 2.231953 0.030635 -0.000240 -83923.700000 0 0 1
-23.463263 -33.179835 -30.607952 50.875072 0.955285 2.216336 0.019830 -0.003599 543440.000000 0 0 1
-24.459963 -34.159637 -30.977362 52.199306 0.949380 2.206127 0.025109 -0.005260 602321.000000 0 0 1
-23.949063 33.121206 -30.819102 51.189735 -0.944752 2.216870 0.030632 -0.008770 481322.000000 0 0 1
-23.071863 32.735084 -31.895852 51.198066 -0.956853 2.243355 0.032938 -0.009364 -4132.990000 0 0 1
-22.614763 31.425893 -31.643802 50.003445 -0.947022 2.256002 0.044430 -0.004224 75129.200000 0 0 1
-21.448963 31.066043 -32.621312 49.892956 -0.966521 2.283426 0.045522 -0.000526 321365.000000 0 0 1
-21.841263 30.799063 -33.968592 50.788663 -0.953953 2.303420 0.045093 -0.003160 77908.000000 0 0 1
-20.763363 30.182653 34.017679 49.993123 -0.968221 0.822424 0.047949 -0.012968 -39822.500000 0 0 1
-21.075863 29.813623 32.530028 48.900377 -0.955441 0.842994 0.048642 -0.011353 -102455.000000 0 0 1
-20.585163 30.819843 31.681258 48.757705 -0.981927 0.863515 0.041055 -0.004447 232922.000000 0 0 1
-20.792963 30.451293 30.322928 47.740010 -0.971689 0.882570 0.042431 -0.002824 -155553.000000 0 0 1
-20.308663 31.528753 29.376568 47.639131 -0.998558 0.906319 0.036199 -0.006694 221068.000000 0 0 1
-21.074163 32.708843 29.661318 48.926297 -0.998442 0.919466 0.018804 -0.009432 472518.000000 0 0 1
-20.499263 33.846267 29.053758 49.090839 -1.026227 0.937461 0.016066 -0.014544 44507.800000 0 0 1
-21.367163 -33.630145 29.309948 49.463273 1.004784 0.936563 0.017424 -0.015111 93380.900000 0 0 1
-21.443863 -33.168275 30.647568 49.992471 0.996873 0.910889 0.013682 -0.008501 -60461.200000 0 0 1
-22.371163 -32.100465 30.797228 49.793354 0.962147 0.903963 0.024627 -0.011090 -139678.000000 0 0 1
-22.075763 -30.655305 30.261518 48.402960 0.946689 0.895409 0.018973 -0.003616 -593552.000000 0 0 1
-22.020263 -30.627365 28.881058 47.508347 0.947450 0.917364 0.010603 -0.001587 -84183.200000 0 0 1
-21.764263 -29.341615 28.387748 46.265298 0.932594 0.910202 0.028836 -0.008400 -99585.200000 0 0 1
-23.040963 -28.562455 28.027668 46.176293 0.891991 0.918553 0.028644 -0.008270 922115.000000 0 0 1
-24.167463 -28.430225 28.959948 47.233702 0.866266 0.910792 0.026716 -0.004117 2048960.000000 0 0 1
-25.116793 -29.529565 28.888028 48.346320 0.865975 0.930388 0.024116 -0.009370 251391.000000 0 0 1
-26.267533 -29.395485 27.840688 48.261597 0.841534 0.955904 0.027535 -0.007688 -163677.000000 0 0 1
-25.856383 -29.773085 26.492658 47.506316 0.855689 0.979225 0.038193 -0.012316 287847.000000 0 0 1
-26.800173 -29.549075 25.449538 47.318877 0.834143 1.002935 0.032101 -0.012845 -47263.800000 0 0 1
-26.244893 -30.033255 24.081108 46.590671 0.852612 1.027611 0.035401 -0.014095 97141.100000 0 0 1
-25.259813 -29.128025 23.548478 45.177769 0.856401 1.022493 0.026351 -0.013159 652799.000000 0 0 1
-24.951963 -29.322905 22.203378 44.445734 0.865758 1.047704 0.047014 -0.014135 -14231.100000 0 0 1
-23.819763 -30.371665 21.983578 44.419555 0.905717 1.053068 0.050685 -0.023731 -634241.000000 0 0 1
-24.228763 -31.738965 21.817578 45.501666 0.918789 1.070723 0.052106 -0.025733 629851.000000 0 0 1
-23.148863 -32.643005 21.588678 45.469844 0.953954 1.076070 0.061977 -0.027616 254597.000000 0 0 1
-22.257063 -33.069935 22.745878 45.895233 0.978401 1.052266 0.057883 -0.024244 -173231.000000 0 0 1
-21.525663 -32.097855 23.457478 45.209289 0.980058 1.025275 0.065191 -0.026112 163890.000000 0 0 1
-20.816663 -32.773845 24.473438 45.895616 1.004924 1.008369 0.051468 -0.023020 -350829.000000 0 0 1
-19.778263 -31.946005 25.256248 45.272564 1.016440 0.978978 0.037791 -0.013039 -1725820.000000 0 0 1
-18.531363 -31.872855 24.646368 44.347872 1.044154 0.981530 0.046951 -0.012182 -350578.000000 0 0 1
-17.643363 -31.118575 25.470318 43.913450 1.055016 0.952053 0.051717 -0.010531 265907.000000 0 0 1
-17.125163 -31.889175 26.791048 45.032777 1.077972 0.933626 0.028249 -0.016203 -1185620.000000 0 0 1
-18.009563 -31.906275 27.870248 46.033743 1.056925 0.920489 0.024543 -0.009950 261203.000000 0 0 1
-17.395163 -32.675825 28.913288 46.971050 1.081600 0.907706 0.028629 -0.004826 135141.000000 0 0 1
-17.726863 -32.113615 30.322368 47.591722 1.066415 0.880020 0.029214 -0.003340 474609.000000 0 0 1
-17.111463 -30.808675 30.427458 46.559713 1.063809 0.858578 0.030167 -0.001933 655755.000000 0 0 1
-17.646263 -30.255945 31.626298 47.191478 1.042797 0.836359 0.023981 0.003754 221094.000000 0 0 1
-17.203663 -28.775885 31.717178 46.151891 1.031959 0.813121 0.030136 0.001930 -132025.000000 0 0 1
-17.911963 -27.899425 30.872878 45.302880 1.000052 0.821017 0.033485 0.006562 108812.000000 0 0 1
-17.801263 -28.133625 29.481908 44.469863 1.006651 0.846026 0.040160 0.005537 141292.000000 0 0 1
-16.473963 -27.715115 28.772828 43.213363 1.034502 0.842188 0.030957 0.004046 256863.000000 0 0 1
-16.328163 -26.344555 28.701898 42.242674 1.015950 0.823780 0.026582 0.009504 444277.000000 0 0 1
-15.224863 -26.128705 27.815048 41.087499 1.043204 0.827157 0.029328 0.009384 256442.000000 0 0 1
-15.224163 -24.733455 27.192398 39.786247 1.019037 0.818301 0.029334 0.013882 80826.900000 0 0 1
-16.207163 -24.650555 26.155928 39.426572 0.989183 0.845431 0.043793 0.007052 298215.000000 0 0 1
-16.089863 -23.554755 25.282098 38.116856 0.971514 0.845605 0.038458 0.005718 110614.000000 0 0 1
-16.556163 -22.135755 25.823158 37.827684 0.928616 0.819410 0.052612 0.006868 -149596.000000 0 0 1
-16.546663 -21.164755 24.865648 36.606548 0.907250 0.824032 0.044290 0.003112 112591.000000 0 0 1
-17.189963 -19.984455 25.308708 36.543180 0.860430 0.805751 0.043526 0.006668 12963.700000 0 0 1
-17.007763 -18.723955 24.398398 35.144450 0.833391 0.803444 0.039692 -0.002692 566593.000000 0 0 1
-15.624263 -18.365855 24.312448 34.242041 0.865882 0.781273 0.049210 -0.010024 436087.000000 0 0 1
-15.533663 -17.138855 23.654928 33.084599 0.834488 0.774196 0.044802 -0.008650 -1158120.000000 0 0 1
-14.167163 -16.578955 23.835078 32.306056 0.863680 0.741006 0.055564 -0.016095 -1337580.000000 0 0 1
-13.157163 -17.350955 23.215278 31.829479 0.922007 0.753404 0.039595 -0.019087 742910.000000 0 0 1
-11.858863 -16.742555 23.415778 31.132691 0.954517 0.719511 0.043703 -0.021993 805606.000000 0 0 1
-11.292163 -15.873255 22.256878 29.577725 0.952463 0.718965 0.045619 -0.027103 -267500.000000 0 0 1
-10.755063 -16.592655 21.183578 28.978122 0.995700 0.750981 0.068419 -0.024067 679005.000000 0 0 1
-9.327563 -16.766955 21.298378 28.666272 1.063124 0.733289 0.065063 -0.017417 530161.000000 0 0 1
-8.776063 -18.026955 20.658978 28.788605 1.117740 0.770432 0.061691 -0.020174 -151572.000000 0 0 1
-8.748363 -18.028155 19.292578 27.816395 1.119009 0.804365 0.056884 -0.016757 -223316.000000 0 0 1
-8.320663 -19.256155 18.776578 28.153026 1.162924 0.840692 0.042961 -0.010065 136045.000000 0 0 1
-7.997463 -19.102255 17.268178 26.963782 1.174303 0.875750 0.027864 -0.012378 -386324.000000 0 0 1
-7.058963 -18.136255 16.947178 25.806193 1.199619 0.854349 0.028878 -0.010155 -725360.000000 0 0 1
-6.785463 -18.107755 15.590878 24.839662 1.212265 0.892252 0.033610 -0.007955 -125018.000000 0 1 0
-5.898663 -16.900655 15.287178 23.539843 1.234995 0.863979 0.022860 -0.014562 30287.800000 0 1 0
-6.510663 -15.679055 15.526478 23.006370 1.177216 0.829998 0.028975 -0.023702 -149615.000000 0 1 0
-5.473963 -14.730055 15.559778 22.114373 1.214993 0.790339 0.023507 -0.013942 -179432.000000 0 1 0
-5.592163 -13.588955 16.592378 22.163912 1.180396 0.724816 0.007285 -0.007213 -139898.000000 0 1 0
-5.298463 -13.846555 17.985678 23.308484 1.205331 0.689386 0.023534 -0.005305 594325.000000 0 1 0
-6.195563 -14.800955 18.649378 24.601882 1.174366 0.710483 0.043673 -0.016781 539147.000000 0 1 0
-7.431663 -14.162755 19.297878 25.064344 1.087559 0.692059 0.072766 -0.027418 -310451.000000 0 0 1
-7.123263 -13.380255 20.392678 25.409318 1.081588 0.639211 0.067632 -0.022692 -815230.000000 0 0 1
-8.250563 -12.920055 21.042678 26.034476 1.002487 0.629602 0.072482 -0.020452 -293001.000000 0 0 1
-7.825163 -12.037655 22.276278 26.502281 0.994381 0.572514 0.066243 -0.006474 -220610.000000 0 0 1
-7.405363 -10.756055 21.787978 25.401735 0.967842 0.539947 0.044319 -0.003980 35268.300000 0 0 1
-7.142663 -9.785255 22.796978 25.816101 0.940257 0.488468 0.043759 -0.006571 330220.000000 0 0 1
-5.726363 -9.919455 23.427778 26.077723 1.047246 0.454723 0.054101 -0.000651 168729.000000 0 0 1
-5.517063 -11.143855 24.111378 27.128989 1.111095 0.476146 0.060253 -0.001629 129371.000000 0 0 1
-4.188163 -11.410255 24.561798 27.404682 1.219011 0.459526 0.045073 0.003172 256961.000000 0 0 1
-3.903863 -12.648255 25.438778 28.676645 1.271424 0.479793 0.045122 0.001942 112735.000000 0 0 1
-2.512963 -12.786155 25.749468 28.858896 1.376732 0.468483 0.024131 0.001123 774234.000000 0 0 1
-2.299963 -13.811455 26.696088 30.145104 1.405785 0.483042 0.032624 -0.003287 -87565.100000 0 0 1
-2.447863 -15.258055 26.138688 30.364969 1.411721 0.533923 0.028582 -0.016940 -91891.100000 0 0 1
-1.338363 -15.641755 25.336208 29.805690 1.485441 0.554724 0.027963 -0.019810 305173.000000 0 0 1
-1.547463 -16.933055 24.794468 30.064741 1.479662 0.601120 0.037174 -0.016294 -362760.000000 0 0 1
-0.314463 -17.850655 24.919198 30.654710 1.553182 0.621683 0.046987 -0.027296 36487.600000 0 0 1
-0.053263 -18.401555 26.202508 32.018612 1.567902 0.612258 0.048690 -0.032037 124869.000000 0 0 1
0.586437 -17.503955 27.097278 32.264452 -1.537306 0.573791 0.060288 -0.031752 -368885.000000 0 0 1
1.109037 -18.062355 28.426968 33.698237 -1.509473 0.566892 0.052052 -0.026572 4832.850000 0 0 1
2.251937 -18.966755 28.256768 34.106510 -1.452619 0.594397 0.057078 -0.030018 1147680.000000 0 0 1
3.081637 -19.010955 29.415528 35.159440 -1.410096 0.579690 0.070242 -0.040577 529783.000000 0 0 1
4.006337 -17.744355 29.570078 34.717466 -1.348739 0.551509 0.084332 -0.036472 -845744.000000 0 0 1
3.359237 -16.517955 29.805438 34.241663 -1.370164 0.514693 0.066315 -0.036337 -180848.000000 0 0 1
4.241037 -15.487655 30.175408 34.182000 -1.303515 0.489035 0.074554 -0.038728 -48576.400000 0 0 1
3.396537 -14.456455 30.972228 34.348282 -1.340032 0.447085 0.069521 -0.038013 227991.000000 0 0 1
2.948137 -15.099355 32.113648 35.608545 -1.377973 0.446759 0.063320 -0.032712 -28061.200000 0 0 1
1.956037 -14.282355 32.718059 35.753086 -1.434688 0.415012 0.063783 -0.018597 169219.000000 0 0 1
1.187337 -14.933855 33.930011 37.090100 -1.491457 0.415785 0.045577 -0.014929 171296.000000 0 0 1
1.963537 -15.097655 -33.569852 36.860951 -1.441466 2.715810 0.056943 -0.016873 -430668.000000 0 0 1
1.216037 -15.650855 -32.498182 36.090995 -1.493254 2.691602 0.047264 -0.013465 -21717.800000 0 0 1
1.955637 -15.836655 -31.159142 35.007375 -1.447930 2.668303 0.049086 -0.006524 -249468.000000 0 0 1
1.193537 -16.428555 -30.157752 34.362945 -1.498274 2.641680 0.054697 -0.006329 -356079.000000 0 0 1
1.794337 -16.268855 -28.893912 33.207732 -1.460948 2.626193 0.051967 -0.002727 36077.200000 0 0 1
1.485037 -17.424355 -28.022212 33.031165 -1.485774 2.583670 0.063179 -0.003626 81601.500000 0 0 1
2.123037 -18.657955 -28.393842 34.041693 -1.457496 2.557278 0.058133 -0.007254 25741.200000 0 0 1
1.753737 -19.755655 -27.578982 33.970013 -1.482257 2.518132 0.078516 -0.000905 -1092930.000000 0 0 1
2.606337 -20.998755 -27.807862 34.943067 -1.447309 2.491132 0.069825 -0.007696 347043.000000 0 0 1
3.930937 -20.872955 -27.270392 34.565978 -1.384650 2.479874 0.063248 -0.003433 539306.000000 0 0 1
3.985337 -21.002455 -25.878272 33.565921 -1.383270 2.451157 0.062968 -0.004530 -248677.000000 0 0 1
5.322337 -21.601355 -25.271612 33.668980 -1.329219 2.419751 0.050336 -0.005262 752822.000000 0 0 1
5.479237 -22.994955 -25.516532 34.783379 -1.336878 2.394377 0.058466 -0.009400 166941.000000 0 0 1
5.597937 -23.434555 -26.912872 36.122265 -1.336315 2.411405 0.043176 -0.005724 -503171.000000 0 0 1
5.116737 -24.890955 -27.163922 37.197034 -1.368054 2.389515 0.051734 -0.005661 116330.000000 0 0 1
5.833637 -25.891465 -26.462162 37.478599 -1.349186 2.354716 0.068389 -0.005719 -158596.000000 0 0 1
5.393737 -27.183555 -26.821632 38.567319 -1.374921 2.339842 0.058834 -0.009956 71688.300000 0 0 1
5.687637 -28.220315 -25.720362 38.604047 -1.371917 2.299980 0.064774 -0.019759 509097.000000 0 0 1
7.071037 -28.526785 -25.599832 38.975999 -1.327820 2.287377 0.077029 -0.019185 25195.400000 0 0 1
7.240737 -29.854275 -25.179792 39.720624 -1.332855 2.257411 0.076504 -0.020817 691685.000000 0 0 1
8.695437 -30.424665 -25.279762 40.501078 -1.292415 2.244872 0.070169 -0.016441 958590.000000 0 0 1
9.322637 -30.399505 -26.569622 41.436534 -1.273231 2.266874 0.083285 -0.022878 193220.000000 0 0 1
10.712537 -30.673355 -26.597572 41.988618 -1.234794 2.256796 0.081784 -0.013473 218904.000000 0 0 1
11.151237 -30.424845 -28.057082 42.862818 -1.219483 2.284421 0.088663 -0.033420 -230103.000000 0 0 1
10.589637 -31.261015 -29.038552 43.961677 -1.244180 2.292337 0.094239 -0.030491 -116805.000000 0 0 1
10.692937 -30.718695 -30.308312 44.458643 -1.235822 2.320906 0.082952 -0.015106 -180066.000000 0 0 1
-34.562835 -4.739155 -5.731412 35.353900 0.136267 1.733630 0.120082 -0.032557 40013.300000 0 0 1
-33.918633 -4.000855 -4.703112 34.476075 0.117412 1.707640 0.115124 -0.032644 209518.000000 0 0 1
-33.235583 -2.827755 -5.071312 33.738974 0.084878 1.721678 0.108539 -0.035459 -123364.000000 0 0 1
-34.043273 -1.560955 -5.566312 34.530636 0.045820 1.732702 0.109223 -0.027231 -114888.000000 0 0 1
-34.678838 -0.802955 -4.569312 34.987786 0.023150 1.701768 0.101963 -0.022375 174372.000000 0 0 1
-35.207697 0.376845 -5.076412 35.573781 -0.010703 1.713986 0.093780 -0.022246 -303973.000000 0 0 1
35.673549 1.234945 -4.114212 35.931239 0.034604 1.685550 0.119369 -0.017292 -237847.000000 0 0 1
-35.197828 1.894645 -3.170712 35.391103 -0.053777 1.660507 0.095758 -0.011403 451000.000000 0 0 1
35.727337 2.812445 -2.366612 35.915920 0.078558 1.636737 0.106330 -0.020078 255822.000000 0 0 1
-35.245248 4.222545 -2.169712 35.563535 -0.119236 1.631844 0.085379 -0.022536 -205823.000000 0 0 1
-35.121600 4.804445 -3.443912 35.615587 -0.135951 1.667644 0.090554 -0.025588 913799.000000 0 0 1
-33.765613 4.921045 -3.908712 34.345470 -0.144722 1.684849 0.051780 -0.014821 557461.000000 0 0 1
-33.003493 6.161245 -3.376112 33.742993 -0.184560 1.671018 0.038628 -0.012834 -529521.000000 0 0 1
-32.689253 6.099745 -2.012612 33.314332 -0.184476 1.631246 0.037066 -0.019377 369487.000000 0 0 1
-32.495563 7.376845 -1.400112 33.351758 -0.223228 1.612789 0.041496 -0.031133 -283204.000000 0 0 1
-31.942863 7.346945 0.007188 32.776884 -0.226071 1.570577 0.037997 -0.025109 -115282.000000 0 0 1
-30.543253 7.080445 0.111188 31.353394 -0.227793 1.567250 0.041079 -0.019476 658003.000000 0 0 1
-29.997073 7.632345 1.293888 30.979851 -0.249150 1.529019 0.040196 -0.034143 -462351.000000 0 0 1
-29.819253 9.189045 1.368288 31.232973 -0.298924 1.526973 0.041490 -0.031993 72443.000000 0 0 1
-31.054493 9.934745 1.306488 32.631083 -0.309624 1.530747 0.036767 -0.031087 950942.000000 0 0 1
-30.774643 11.294045 1.583788 32.819849 -0.351731 1.522521 0.035430 -0.023660 -240587.000000 0 0 1
-32.050053 12.114645 1.468488 34.294707 -0.361391 1.527964 0.050786 -0.036370 -852891.000000 0 0 1
-32.605473 12.092145 0.170188 34.775937 -0.355138 1.565902 0.052187 -0.027973 672539.000000 0 0 1
-33.869183 12.751845 0.127388 36.190431 -0.360088 1.567276 0.065826 -0.022646 775422.000000 0 0 1
-35.131911 11.874145 0.372288 37.086185 -0.325933 1.560758 0.079305 -0.041416 85917.700000 0 0 1
-35.472261 11.013445 -0.740812 37.150048 -0.301044 1.590739 0.084501 -0.031953 -55736.400000 0 0 1
34.934550 10.429145 -0.606112 36.463094 0.290111 1.587420 0.098637 -0.042258 91653.900000 0 0 1
34.617970 9.208645 -1.538812 35.854859 0.259987 1.613727 0.088536 -0.048642 321121.000000 0 0 1
34.090600 9.679845 -2.822712 35.550472 0.276663 1.650280 0.089003 -0.042428 496264.000000 0 0 1
33.669770 8.533845 -3.597012 34.920172 0.248230 1.673986 0.073428 -0.037683 63635.700000 0 0 1
32.890900 8.888845 -4.895112 34.420706 0.263947 1.713494 0.070948 -0.038023 -685603.000000 0 0 1
31.586090 9.275645 -4.665412 33.248830 0.285632 1.711579 0.094536 -0.039361 -451407.000000 0 0 1
30.934820 9.745245 -5.859512 32.958561 0.305184 1.749531 0.088952 -0.032320 263109.000000 0 0 1
29.484290 10.290045 -5.840612 31.769815 0.335785 1.755690 0.083228 -0.028447 167872.000000 0 0 1
28.503710 9.318345 -5.577512 30.502486 0.315965 1.754685 0.083762 -0.030290 921129.000000 0 0 1
27.188780 9.808145 -5.862512 29.492346 0.346213 1.770910 0.045593 -0.013188 391593.000000 0 0 1
26.064870 8.796445 -6.024912 28.161222 0.325480 1.786407 0.037965 -0.009077 -378228.000000 0 0 1
26.206770 8.165645 -7.244112 28.389253 0.302051 1.828821 0.050741 -0.008864 118611.000000 0 0 1
25.265870 7.142045 -7.441912 27.290200 0.275488 1.846990 0.033024 -0.011501 -388117.000000 0 0 1
25.524070 6.311745 -8.734512 27.705739 0.242423 1.891527 0.040914 -0.014166 446754.000000 0 0 1
26.734000 5.538045 -8.592412 28.621779 0.204264 1.875704 0.060458 -0.019172 1247270.000000 0 0 1
26.768390 4.504245 -9.533512 28.770172 0.166706 1.908549 0.046596 -0.017491 -67854.400000 0 0 1
27.812030 3.412145 -9.139312 29.473357 0.122076 1.886081 0.065313 -0.017173 323936.000000 0 0 1
29.192980 3.726845 -9.313812 30.868536 0.126976 1.877298 0.095764 -0.019777 1403610.000000 0 0 1
30.116550 3.191445 -8.343412 31.413443 0.105576 1.839623 0.094644 -0.023441 352135.000000 0 0 1
30.233570 1.673645 -8.095212 31.343297 0.055301 1.832033 0.099218 -0.025919 417475.000000 0 0 1
29.001040 1.050045 -7.590212 29.996237 0.036191 1.826616 0.098606 -0.025835 1582670.000000 0 0 1
29.215820 -0.191855 -7.015512 30.046936 -0.006567 1.806457 0.087402 -0.023122 -429803.000000 0 0 1
29.328710 -1.368255 -7.983212 30.426584 -0.046619 1.836280 0.072813 -0.022668 -686708.000000 0 0 1
30.350280 -1.420955 -8.912712 31.663781 -0.046784 1.856132 0.088582 -0.029683 -171307.000000 0 0 1
30.243070 -2.683755 -9.543912 31.826594 -0.088508 1.875355 0.061340 -0.022673 -431701.000000 0 0 1
31.112840 -2.945555 -10.781512 33.059433 -0.094392 1.902998 0.063102 -0.018361 -703597.000000 0 0 1
32.460650 -3.058055 -10.418612 34.228540 -0.093931 1.880088 0.086945 -0.032853 -262677.000000 0 0 1
33.182870 -3.736055 -11.421112 35.291681 -0.112118 1.900350 0.072429 -0.021467 126081.000000 0 0 1
34.666540 -4.045055 -11.115312 36.628972 -0.116159 1.879115 0.079462 -0.025156 118627.000000 0 0 1
34.677920 -5.122455 -10.203512 36.509031 -0.146655 1.854048 0.070196 -0.026247 834680.000000 0 0 1
-35.644498 -5.386455 -9.857112 37.372541 0.149981 1.837707 0.078580 -0.027075 400139.000000 0 0 1
-35.442711 -6.661555 -9.035612 37.178009 0.185785 1.816291 0.076112 -0.029556 -464683.000000 0 0 1
35.542490 -6.718355 -7.843312 37.012463 -0.186819 1.784325 0.085909 -0.022857 219512.000000 0 0 1
35.422870 -8.079355 -7.542812 37.107273 -0.224247 1.775493 0.084785 -0.016299 -467392.000000 0 0 1
34.961910 -8.379955 -6.126712 36.470473 -0.235250 1.739588 0.097677 -0.010961 -702356.000000 0 0 1
-35.814395 -8.001255 -5.113712 37.051869 0.219800 1.709253 0.104669 -0.007184 309001.000000 0 0 1
35.836960 -8.833655 -3.945812 37.119949 -0.241678 1.677297 0.107464 -0.016820 -247219.000000 0 0 1
-35.000189 -10.111955 -4.065212 36.657753 0.281253 1.681921 0.106006 -0.025783 -646944.000000 0 0 1
-35.579445 -10.969855 -4.992612 37.565420 0.299072 1.704095 0.086814 -0.025051 168983.000000 0 0 1
-34.668555 -11.786755 -5.627012 37.047261 0.327724 1.723274 0.074299 -0.023812 50227.000000 0 0 1
-35.513495 -12.324555 -6.841612 38.208777 0.334034 1.750826 0.067757 -0.025958 690608.000000 0 0 1
-35.690098 -11.377355 -7.863912 38.276212 0.308598 1.777722 0.065325 -0.020256 462480.000000 0 0 1
35.186940 -11.982455 -8.879512 38.217087 -0.328220 1.805283 0.068613 -0.018471 157533.000000 0 0 1
35.445060 -11.258355 -10.185512 38.559662 -0.307550 1.838118 0.050514 -0.022246 -639063.000000 0 0 1
34.796290 -10.062255 -10.307012 37.659863 -0.281497 1.848021 0.050077 -0.020475 97470.300000 0 0 1
34.949740 -9.573755 -11.636312 38.059754 -0.267370 1.881510 0.046912 -0.020143 -253463.000000 0 0 1
33.963170 -8.407055 -11.880912 36.950393 -0.242657 1.898148 0.046403 -0.014371 -121274.000000 0 0 1
34.197610 -7.764755 -13.100312 37.435092 -0.223270 1.928311 0.053100 -0.010684 819071.000000 0 0 1
33.142100 -6.849255 -13.409512 36.402282 -0.203794 1.948052 0.046288 -0.012435 255534.000000 0 0 1
33.079410 -6.102455 -14.768312 36.736771 -0.182428 1.984500 0.038753 -0.007906 -297967.000000 0 0 1
34.153540 -5.210355 -14.845412 37.603169 -0.151390 1.976637 0.033989 0.008014 81304.700000 0 0 1
33.832600 -4.070555 -15.664712 37.504632 -0.119739 2.001680 0.045097 -0.004959 494681.000000 0 0 1
35.026030 -3.063855 -15.794612 38.544517 -0.087252 1.993005 0.044703 -0.008951 423058.000000 0 0 1
35.819852 -3.197255 -16.970612 39.765386 -0.089023 2.011713 0.042113 -0.004442 482852.000000 0 0 1
-34.529895 -2.718555 -16.954312 38.563621 0.078568 2.026000 0.051791 -0.002597 225324.000000 0 0 1
-34.392231 -1.135255 -16.791112 38.289108 0.032997 2.024764 0.054003 -0.003890 -742697.000000 0 0 1
-34.783649 -0.314355 -17.870612 39.107030 0.009037 2.045378 0.048595 -0.010226 254427.000000 0 0 1
-34.524631 1.009245 -17.449512 38.696953 -0.029224 2.038600 0.051144 -0.012205 -343337.000000 0 0 1
-34.733326 2.085145 -18.562112 39.437340 -0.059961 2.060850 0.039620 -0.015110 -384212.000000 0 0 1
-33.800623 2.082545 -19.596712 39.126081 -0.061535 2.095389 0.036919 -0.012427 -70148.300000 0 0 1
-33.585053 3.377645 -20.012612 39.241163 -0.100233 2.105970 0.025603 -0.004684 -581992.000000 0 0 1
-32.819643 3.530145 -21.328112 39.299863 -0.107150 2.144447 0.024615 0.003906 -439008.000000 0 0 1
-31.439583 3.747545 -21.195412 38.101666 -0.118639 2.160706 0.027882 0.004777 -443533.000000 0 0 1
-30.863653 3.985245 -22.442412 38.368074 -0.128414 2.195583 0.029227 0.007274 -78135.800000 0 0 1
-29.418623 4.481445 -22.208612 37.131673 -0.151171 2.211930 0.033916 0.011115 -421250.000000 0 0 1
-28.496673 3.546845 -21.774012 36.038148 -0.123828 2.219550 0.043640 0.016020 -448248.000000 0 0 1
-27.428833 4.163845 -21.112612 34.862887 -0.150655 2.221303 0.028415 0.032567 -209913.000000 0 0 1
-26.461753 3.089045 -20.504212 33.618288 -0.116210 2.226746 0.038703 0.022703 287420.000000 0 0 1
-26.967053 2.435945 -19.317112 33.261187 -0.090086 2.190471 0.044604 0.014701 220736.000000 0 0 1
-25.975383 1.600145 -18.790412 32.099230 -0.061525 2.196151 0.043928 0.011730 66058.000000 0 0 1
-25.038763 2.131045 -17.688412 30.730456 -0.084905 2.184133 0.047825 0.005958 -596325.000000 0 0 1
-24.022063 2.984045 -18.000212 30.165737 -0.123588 2.210192 0.051979 0.011193 -411550.000000 0 0 1
-23.251563 3.315145 -16.825112 28.891344 -0.141623 2.192423 0.062323 0.004793 246361.000000 0 0 1
-22.210563 4.441245 -17.077012 28.366496 -0.197358 2.216817 0.069481 0.000293 942189.000000 0 0 1
-20.997063 3.884445 -17.615512 27.681615 -0.182931 2.260568 0.078780 -0.009231 738661.000000 0 0 1
-19.919663 4.759945 -17.874512 27.183602 -0.234559 2.288355 0.064746 -0.006496 -269966.000000 0 0 1
-18.711063 3.968945 -18.350712 26.506698 -0.209019 2.335474 0.074549 -0.018665 -591719.000000 0 0 1
-18.252063 3.084945 -17.341212 25.364785 -0.167437 2.323580 0.083598 -0.018213 -272591.000000 0 0 1
-17.161563 2.322645 -17.763912 24.808678 -0.134523 2.368904 0.056813 -0.016045 -890559.000000 0 1 0
-17.212263 0.842845 -17.259812 24.390029 -0.048929 2.356975 0.060691 -0.017779 129815.000000 0 1 0
-18.133463 -0.077055 -17.836812 25.435807 0.004249 2.347943 0.049294 -0.012995 -315296.000000 0 0 1
-19.461963 0.232345 -17.543712 26.203126 -0.011938 2.304369 0.057715 -0.016419 -1608120.000000 0 0 1
-20.412263 -0.881155 -17.861312 27.137859 0.043141 2.289181 0.046778 -0.014787 -840192.000000 0 0 1
-20.333963 -2.063955 -17.059212 26.622297 0.101156 2.266319 0.034230 -0.010941 1075520.000000 0 0 1
-21.365363 -3.019755 -17.428012 27.736858 0.140409 2.250206 0.055027 -0.011453 605383.000000 0 0 1
-21.513063 -4.191755 -16.500312 27.434340 0.192436 2.216108 0.060045 -0.018086 672.123000 0 0 1
-22.007763 -3.847955 -15.183112 27.012502 0.173096 2.167691 0.059287 -0.021170 441132.000000 0 0 1
-22.580063 -4.909655 -14.471712 27.265260 0.214101 2.130311 0.067075 -0.024933 -208377.000000 0 0 1
-23.002063 -4.398255 -13.049812 26.809273 0.188931 2.079179 0.063725 -0.024133 113298.000000 0 0 1
-23.938363 -3.323955 -13.119812 27.499516 0.137973 2.068140 0.065797 -0.020807 543521.000000 0 0 1
-24.291763 -2.872155 -11.818112 27.166280 0.117689 2.020867 0.077663 -0.022452 -122353.000000 0 0 1
-24.793463 -1.414155 -11.639412 27.426111 0.056976 2.009086 0.073431 -0.024307 -53724.100000 0 0 1
-25.111613 -1.117255 -10.313612 27.170056 0.044462 1.960155 0.067918 -0.022661 533650.000000 0 0 1
-25.723563 0.149145 -10.089212 27.631796 -0.005798 1.944569 0.071296 -0.022340 -249332.000000 0 0 1
-25.940813 0.495545 -8.619912 27.339975 -0.019101 1.891554 0.083242 -0.021248 -229121.000000 0 0 1
-24.764463 0.638645 -7.862512 25.990490 -0.025783 1.878126 0.066425 -0.014926 393806.000000 0 0 1
-25.126653 0.797545 -6.504812 25.967236 -0.031730 1.823994 0.064541 -0.024098 212697.000000 0 0 1
-23.902963 1.217145 -5.653712 24.592632 -0.050876 1.802766 0.027750 -0.011886 100743.000000 0 1 0
-23.553863 2.594445 -5.898312 24.419371 -0.109707 1.814751 0.050222 -0.017015 262129.000000 0 1 0
-22.371863 2.993945 -5.245612 23.172837 -0.133036 1.799145 0.040409 -0.007675 -429802.000000 0 1 0
-22.138063 4.512245 -5.390112 23.227300 -0.201069 1.804991 0.067518 -0.018112 -320426.000000 0 1 0
-22.748763 5.321845 -4.426612 23.778628 -0.229807 1.758048 0.073367 -0.020873 431978.000000 0 1 0
-22.568263 6.694345 -4.659212 23.996854 -0.288359 1.766197 0.091385 -0.022942 -535845.000000 0 1 0
-23.075863 7.563345 -3.506312 24.535563 -0.316726 1.714195 0.081718 -0.016067 -317327.000000 0 1 0
-22.377263 7.420945 -2.274212 23.685108 -0.320216 1.666963 0.078199 -0.015751 1255120.000000 0 1 0
-20.989263 7.790445 -2.215712 22.497768 -0.355403 1.669442 0.085925 -0.017122 641867.000000 0 1 0
-20.590163 9.287945 -2.416912 22.717002 -0.423757 1.677390 0.082418 -0.017279 -583305.000000 0 1 0
-20.579363 9.784645 -3.725812 23.089632 -0.443823 1.732868 0.078120 -0.016313 616354.000000 0 1 0
-19.979363 11.068945 -3.786212 23.152362 -0.505924 1.735069 0.081147 -0.012170 -195901.000000 0 1 0
-19.885563 11.650545 -5.233612 23.633906 -0.529972 1.794092 0.086876 -0.016185 268359.000000 0 1 0
-18.727063 11.151745 -5.910412 22.583119 -0.537095 1.835598 0.064449 -0.013252 791687.000000 0 1 0
-18.646663 11.670445 -7.260312 23.164832 -0.559227 1.889588 0.067446 -0.011893 645608.000000 0 1 0
-17.304763 11.251045 -7.967612 22.125182 -0.576495 1.939188 0.047675 -0.013887 489592.000000 0 1 0
-17.174563 9.854045 -8.246612 21.449345 -0.520900 1.965429 0.051663 -0.013619 261044.000000 0 1 0
-17.977063 9.319145 -9.308012 22.285877 -0.478252 2.001669 0.057308 -0.009341 -202497.000000 0 1 0
-17.876363 9.982845 -10.668612 23.087677 -0.509299 2.051148 0.046802 -0.002480 -84164.600000 0 1 0
-16.748963 9.544245 -11.379712 22.385670 -0.517948 2.104062 0.035078 -0.006935 -245969.000000 0 1 0
-16.818963 10.115645 -12.655012 23.352797 -0.541480 2.143499 0.037810 -0.004891 117201.000000 0 1 0
-15.726963 9.858645 -13.734712 23.090530 -0.559938 2.207838 0.016733 0.010820 -128708.000000 0 1 0
-15.717063 8.575945 -14.371412 22.958885 -0.499494 2.247162 0.016178 -0.000738 108378.000000 0 1 0
-15.616263 7.463945 -13.537712 21.973798 -0.445860 2.234558 0.014896 -0.001684 -463562.000000 0 1 0
-15.565963 6.220345 -14.428712 22.117405 -0.380172 2.281502 0.020754 -0.005458 -758389.000000 0 1 0
-14.385463 6.178745 -15.152112 21.787724 -0.405687 2.339832 0.020623 -0.013499 -72307.100000 0 1 0
-14.493163 5.143145 -16.088512 22.256323 -0.341004 2.378749 0.021764 -0.011217 7012.930000 0 1 0
31.953490 -16.251055 28.004768 45.490541 -0.470492 0.907627 0.005174 0.012289 -78447.600000 0 0 1
31.403280 -14.978855 28.385968 44.903177 -0.445066 0.886459 0.011621 0.006801 85004.500000 0 0 1
30.308100 -14.964755 29.283228 44.721720 -0.458639 0.856895 0.023197 0.000000 195610.000000 0 0 1
30.648650 -15.079755 30.772948 45.975136 -0.457243 0.837478 0.022212 -0.010911 -175297.000000 0 0 1
31.238580 -13.921555 31.265808 46.337990 -0.419233 0.830192 0.013473 -0.010970 -35827.600000 0 0 1
31.353050 -13.941755 32.636469 47.355310 -0.418413 0.810436 0.008259 -0.016722 -358053.000000 0 0 1
31.759140 -12.551055 33.176923 47.611765 -0.376357 0.799839 0.015137 -0.017903 171.171000 0 0 1
31.521220 -12.379955 -34.097852 48.057405 -0.374241 2.359618 0.003378 -0.025567 178377.000000 0 0 1
31.841170 -11.027755 -33.803262 47.729781 -0.333407 2.357772 0.018355 -0.027100 -60759.800000 0 0 1
31.420490 -10.507255 -32.388342 46.332001 -0.322717 2.344863 0.015018 -0.023272 540355.000000 0 0 1
30.030910 -10.245355 -32.194502 45.202974 -0.328778 2.363453 0.043541 -0.028505 696561.000000 0 0 1
29.783060 -9.921655 -30.830002 43.999534 -0.321568 2.347159 0.024643 -0.018228 96826.600000 0 0 1
28.396530 -10.465055 -30.387822 42.887062 -0.353089 2.358244 0.043557 -0.010889 265781.000000 0 0 1
27.911440 -9.913055 -29.134542 41.546825 -0.341265 2.347940 0.028994 -0.012645 691408.000000 0 0 1
26.919740 -10.823355 -28.615612 40.751327 -0.382281 2.349280 0.043221 -0.012653 -161395.000000 0 0 1
26.584670 -10.798355 -27.139562 39.495633 -0.385829 2.328360 0.042104 -0.007085 -510382.000000 0 0 1
25.759870 -9.719755 -26.633072 38.306202 -0.360804 2.339589 0.034400 -0.013119 2013180.000000 0 0 1
24.384170 -9.527255 -27.106122 37.684190 -0.372476 2.373586 0.056044 -0.017193 2054680.000000 0 0 1
23.412370 -10.778855 -27.042952 37.358320 -0.431462 2.380206 0.060674 -0.006451 -486979.000000 0 0 1
23.777370 -11.735755 -28.004152 38.565838 -0.458489 2.383486 0.059100 -0.010455 13986.700000 0 0 1
23.163370 -12.960655 -27.712592 38.373273 -0.510132 2.377752 0.061346 -0.015818 474724.000000 0 0 1
24.132070 -14.056255 -28.282042 39.746812 -0.527432 2.362505 0.055474 0.000969 569791.000000 0 0 1
24.091270 -14.076655 -29.731242 40.773622 -0.528799 2.387917 0.063543 -0.015102 528804.000000 0 0 1
25.137870 -14.854455 -30.318082 42.092202 -0.533716 2.374999 0.056475 -0.006341 142523.000000 0 0 1
25.055370 -14.985955 -31.872442 43.222714 -0.539031 2.400010 0.072959 -0.021476 -479639.000000 0 0 1
23.852370 -15.584955 -32.282622 43.058032 -0.578756 2.418476 0.072495 -0.014693 44975.700000 0 0 1
23.737570 -15.879055 -33.671992 44.152233 -0.589576 2.438172 0.070098 -0.018451 -79069.600000 0 0 1
23.876270 -14.713855 33.941283 44.029360 -0.552286 0.690577 0.056459 -0.019415 -769026.000000 0 0 1
22.759770 -13.917055 33.808187 43.066055 -0.548815 0.668050 0.051186 -0.016925 -507568.000000 0 0 1
23.038670 -12.797055 33.034498 42.258999 -0.507025 0.673385 0.061825 -0.020393 -604377.000000 0 0 1
22.121670 -11.607955 33.370926 41.686108 -0.483237 0.642619 0.070199 -0.024647 1347420.000000 0 0 1
20.713470 -11.659955 33.027018 40.691355 -0.512706 0.623830 0.052755 -0.020536 1544990.000000 0 0 1
20.447470 -11.755355 31.594148 39.426864 -0.521763 0.641272 0.041978 -0.011342 -642320.000000 0 0 1
18.956270 -12.078955 31.285878 38.523337 -0.567325 0.623006 0.035691 -0.004764 926667.000000 0 0 1
18.069470 -10.975655 31.530368 37.962282 -0.545853 0.590664 0.029877 -0.006686 130767.000000 0 0 1
17.140670 -11.194055 32.562548 38.463346 -0.578530 0.561258 0.006262 0.001094 -20426.700000 0 0 1
16.293670 -9.939255 32.887731 38.024668 -0.547745 0.525835 0.014908 -0.006922 -593645.000000 0 0 1
15.332370 -9.588855 31.881848 36.653512 -0.558887 0.515965 0.024526 -0.011584 526963.000000 0 0 1
14.478670 -8.491555 32.205528 36.317137 -0.530424 0.480452 0.036450 -0.008483 946322.000000 0 0 1
13.412870 -8.783755 33.336673 36.991799 -0.579795 0.448287 0.041168 -0.015601 -1647410.000000 0 0 1
12.565770 -9.800455 33.039164 36.681520 -0.662384 0.449411 0.030940 -0.008780 -827123.000000 0 0 1
11.400670 -9.872055 33.806147 37.017406 -0.713664 0.419605 0.026820 -0.007879 -269726.000000 0 0 1
10.249870 -8.984755 33.301979 35.983434 -0.719720 0.388493 0.034952 -0.003311 -1202370.000000 0 0 1
10.512170 -7.576355 33.268512 35.702952 -0.624499 0.371417 0.043968 -0.006032 461307.000000 0 0 1
9.554970 -6.811655 32.498088 34.551727 -0.619326 0.346511 0.042145 0.006360 331459.000000 0 0 1
9.944870 -5.330655 32.447538 34.353443 -0.492047 0.334664 0.043929 0.011132 12860.400000 0 0 1
9.753370 -4.687755 33.679129 35.374949 -0.448031 0.310890 0.037319 0.002632 249048.000000 0 0 1
10.458470 -3.472055 33.696863 35.452974 -0.320537 0.316063 0.020324 0.006879 -436776.000000 0 0 1
10.137570 -2.575255 -33.746622 35.330395 -0.248769 2.841038 0.013655 -0.007220 1357320.000000 0 0 1
8.769570 -2.061355 -33.674562 34.858725 -0.230867 2.880195 0.024171 0.009174 1323860.000000 0 0 1
8.570470 -1.583055 -32.372272 33.524961 -0.182652 2.878603 0.024868 0.006113 913532.000000 0 0 1
7.043670 -1.294255 -32.133082 32.921473 -0.181720 2.922304 0.027436 0.008274 743599.000000 0 0 1
6.542970 -0.221855 -32.911642 33.556458 -0.033894 2.945237 0.042014 0.006065 -590563.000000 0 0 1
5.193170 0.033645 -32.693062 33.102968 0.006479 2.984059 0.046698 0.006389 -494414.000000 0 0 1
4.640170 1.090145 -33.646362 33.982309 0.230752 3.000864 0.048971 0.009472 30201.300000 0 0 1
5.246770 2.348445 -33.423792 33.914506 0.420855 2.971274 0.025793 0.004526 -57220.400000 0 0 1
4.663070 3.256045 -34.282316 34.750874 0.609559 2.977192 0.038109 -0.000353 35701.700000 0 0 1
5.526070 4.523745 34.278724 35.014749 0.685991 0.205400 0.021544 -0.004757 -18916.700000 0 0 1
5.156570 5.369845 33.238000 34.061564 0.805656 0.220349 0.049093 -0.024159 -508871.000000 0 0 1
6.095370 6.366145 33.025426 34.181283 0.807124 0.260798 0.045967 -0.025124 -620267.000000 0 0 1
5.688270 7.432845 31.906308 33.250806 0.917582 0.285344 0.059584 -0.025829 -472235.000000 0 0 1
4.613270 8.179845 32.462448 33.793530 1.057283 0.281602 0.051092 -0.025110 -191415.000000 0 0 1
4.330570 9.365745 31.707018 33.343755 1.137692 0.314623 0.049219 -0.028980 -110935.000000 0 0 1
4.110670 9.248745 30.209848 31.860192 1.152561 0.323274 0.053580 -0.031028 -208704.000000 0 0 1
2.847970 8.612245 30.018458 31.359042 1.251428 0.293454 0.067250 -0.033664 83518.600000 0 0 1
2.568770 8.586145 28.674518 30.042444 1.280096 0.302929 0.061681 -0.019897 1015530.000000 0 0 1
1.212470 7.867545 28.292588 29.391136 1.417889 0.274270 0.055030 -0.026441 914764.000000 0 0 1
-0.013630 8.418045 28.674858 29.884965 -1.569177 0.285547 0.065400 -0.021866 5274.850000 0 0 1
-1.014030 8.233645 27.660638 28.877882 -1.448256 0.291379 0.054204 -0.020968 1581850.000000 0 0 1
-2.493930 8.523045 28.117078 29.486134 -1.286133 0.305923 0.061140 -0.020961 749525.000000 0 0 1
-2.860330 9.868245 28.373648 30.176608 -1.288675 0.347423 0.068930 -0.026561 -394004.000000 0 0 1
-4.069830 9.935245 29.086798 31.005071 -1.182011 0.353605 0.066018 -0.019750 -398516.000000 0 0 1
-4.298530 11.273745 29.921608 32.262630 -1.206525 0.383292 0.061343 -0.015124 -170043.000000 0 0 1
-4.574030 12.434345 29.147778 32.017615 -1.218305 0.426626 0.057532 -0.019342 -732964.000000 0 0 1
-5.753430 12.568645 28.463118 31.642091 -1.141507 0.452096 0.057048 -0.018370 -1034640.000000 0 0 1
-5.970330 14.068145 27.958738 31.862966 -1.169445 0.500239 0.041824 -0.014651 109931.000000 0 0 1
-5.041530 14.433045 26.953338 30.987292 -1.234741 0.515961 0.043843 -0.010489 61394.800000 0 0 1
-5.133130 15.801145 26.695098 31.442860 -1.256693 0.556700 0.031291 -0.002780 -261090.000000 0 0 1
-3.931330 16.411345 25.967268 30.969124 -1.335677 0.576292 0.041197 -0.004906 -162976.000000 0 0 1
-3.978330 16.076645 24.558478 29.621014 -1.328209 0.593319 0.032528 0.005938 811233.000000 0 0 1
-3.001630 16.924745 23.861758 29.408167 -1.395270 0.624255 0.041111 0.006168 899600.000000 0 0 1
-2.851530 16.609245 22.326578 27.972743 -1.400771 0.646570 0.033795 0.001553 -113715.000000 0 0 1
-2.171230 15.404645 22.016278 26.958001 -1.430772 0.615148 0.020381 -0.000314 -16793.200000 0 0 1
-2.049930 15.270945 20.601778 25.726197 -1.437357 0.642151 0.013355 0.001123 495874.000000 0 0 1
-1.055030 14.178145 20.047078 24.576782 -1.496521 0.616872 0.013927 -0.003345 114800.000000 0 1 0
-1.595530 12.905145 20.095478 23.935679 -1.447785 0.574320 0.019119 -0.002912 -6849.550000 0 1 0
-0.941430 11.997745 19.187778 22.649570 -1.492490 0.560182 0.019227 -0.007885 -54352.000000 0 1 0
-1.676630 10.623645 18.977578 21.813331 -1.414267 0.515596 0.007844 -0.014911 -425906.000000 0 1 0
-1.776530 9.747645 20.097078 22.406811 -1.390523 0.458046 0.009049 -0.021582 72942.200000 0 1 0
-2.516430 10.190045 21.242478 23.694141 -1.328690 0.458926 0.020729 -0.010902 904267.000000 0 1 0
-4.084730 10.175445 21.069178 23.751526 -1.189058 0.479845 0.025135 -0.007767 516642.000000 0 1 0
-4.544830 8.855745 21.080578 23.312453 -1.096639 0.441147 0.032232 -0.016173 1127270.000000 0 1 0
-5.988730 8.903345 20.947078 23.535389 -0.978671 0.473397 0.036886 -0.009823 1442830.000000 0 1 0
-6.746630 7.542445 21.020778 23.329780 -0.841035 0.448663 0.030390 -0.013304 160778.000000 0 1 0
-6.547730 6.881845 22.257778 24.200026 -0.810272 0.403374 0.045020 -0.018207 137410.000000 0 1 0
-7.614930 5.985945 22.484678 24.482227 -0.666195 0.406758 0.042669 -0.008385 119756.000000 0 1 0
-7.688030 5.055045 23.744448 25.464841 -0.581645 0.369687 0.031108 -0.006256 -507213.000000 0 0 1
-8.204930 5.661345 24.912188 26.832608 -0.603978 0.380633 0.034663 -0.006352 -64938.500000 0 0 1
-8.442230 4.685545 25.905978 27.646795 -0.506684 0.356759 0.032726 0.011222 -115297.000000 0 0 1
-9.410630 5.280945 26.959138 29.038655 -0.511377 0.380745 0.027565 0.006637 -110420.000000 0 0 1
-8.923430 6.371345 27.709988 29.800421 -0.620061 0.376785 0.023252 -0.003200 -766532.000000 0 0 1
-9.928630 6.818145 28.565698 31.001031 -0.601754 0.399017 0.022882 -0.004524 -23276.900000 0 0 1
-9.448530 7.932745 29.530258 32.003739 -0.698410 0.395737 0.041727 -0.010185 477245.000000 0 0 1
-8.423630 7.496045 30.428408 32.450520 -0.727197 0.354885 0.050144 -0.013994 254003.000000 0 0 1
-7.871630 8.521145 31.229368 33.314350 -0.824999 0.355666 0.053723 -0.013625 -361252.000000 0 0 1
-6.738630 7.988345 32.083608 33.742862 -0.870054 0.314903 0.072444 -0.010430 -649156.000000 0 0 1
-5.463330 8.006545 31.511268 32.968360 -0.972009 0.298416 0.076136 -0.021149 -931077.000000 0 0 1
-4.534430 7.589645 32.455618 33.638236 -1.032254 0.265951 0.085508 -0.018746 -46458.500000 0 0 1
-3.043530 7.737845 32.064818 33.125366 -1.196053 0.253726 0.072218 -0.022381 248344.000000 0 0 1
-2.605430 9.038045 32.062218 33.413476 -1.290132 0.285363 0.073045 -0.020851 -379193.000000 0 0 1
-1.242430 9.149645 31.697568 33.015079 -1.435832 0.283459 0.067538 -0.026705 283736.000000 0 0 1
-0.789630 10.614445 31.459488 33.211284 -1.496541 0.326243 0.073679 -0.030484 -119609.000000 0 0 1
-0.687730 11.390045 32.590733 34.530595 -1.510490 0.336785 0.070308 -0.036663 -239982.000000 0 0 1
-1.451530 12.549545 32.444058 34.816877 -1.455644 0.371322 0.066024 -0.032865 -543624.000000 0 0 1
-1.460730 13.397945 33.678335 36.274908 -1.462199 0.380660 0.054817 -0.026607 -468293.000000 0 0 1
-0.237030 13.982645 34.008588 36.771655 -1.553846 0.390132 0.079882 -0.030428 -884785.000000 0 0 1
-0.362230 14.918045 -33.583132 36.749232 -1.546520 2.723453 0.076351 -0.034096 -243415.000000 0 0 1
0.946970 15.478045 -33.026222 36.485586 1.509691 2.702612 0.062249 -0.025227 -550399.000000 0 0 1
1.668470 16.324645 -33.882112 37.646718 1.468944 2.690570 0.063362 -0.028803 -728842.000000 0 0 1
2.978670 16.409745 -33.448342 37.375711 1.391233 2.679052 0.054263 -0.023118 -783597.000000 0 0 1
3.885270 17.102945 34.165445 38.404214 1.347418 0.474267 0.063985 -0.013381 -315290.000000 0 0 1
3.429570 18.403245 33.976288 38.792132 1.386553 0.503591 0.054683 -0.009861 -165607.000000 0 0 1
4.325970 19.168345 33.209769 38.587929 1.348832 0.534299 0.037504 0.004165 -79744.300000 0 0 1
4.065670 20.662645 33.271992 39.376389 1.376514 0.564281 0.044061 -0.010017 -124487.000000 0 0 1
4.296070 21.269045 -34.087647 40.407873 1.371491 2.574729 0.049873 -0.013916 23357.600000 0 0 1
3.746870 22.566345 -33.959012 40.945005 1.406259 2.548795 0.040177 -0.008684 37982.900000 0 0 1
3.876670 23.149445 -32.559822 40.138104 1.404873 2.516989 0.049474 -0.018334 38651.100000 0 0 1
3.287070 24.413545 -32.300002 40.621622 1.436960 2.490040 0.037992 -0.021828 163514.000000 0 0 1
3.509570 24.699745 -30.969482 39.768119 1.429652 2.463470 0.046156 -0.015007 -119480.000000 0 0 1
2.883970 26.031445 -30.474462 40.182661 1.460458 2.431649 0.032830 -0.020509 347844.000000 0 0 1
3.641870 27.221445 -30.721632 41.207875 1.437799 2.412123 0.038005 -0.021288 397326.000000 0 0 1
2.950170 28.282245 -30.092252 41.402083 1.466860 2.384491 0.037905 -0.027263 415986.000000 0 0 1
3.833670 29.590145 -30.081032 42.369118 1.441955 2.360260 0.043574 -0.032019 907829.000000 0 0 1
4.876670 29.529745 -29.084692 41.733764 1.407129 2.341877 0.059941 -0.043876 535194.000000 0 0 1
5.617170 30.721445 -28.822102 42.497922 1.389952 2.316107 0.080339 -0.044581 380435.000000 0 0 1
6.753770 30.425445 -27.769922 41.743139 1.352360 2.298635 0.083717 -0.051058 842040.000000 0 0 1
7.912970 29.766045 -28.331002 41.848276 1.310967 2.314466 0.087169 -0.040083 2232700.000000 0 0 1
9.148070 30.567745 -28.451242 42.749823 1.280008 2.298999 0.096387 -0.043166 1522950.000000 0 0 1
9.103370 31.817445 -29.406382 44.271395 1.292129 2.297259 0.095751 -0.044529 -611865.000000 0 0 1
8.316970 32.837545 -28.766822 44.441044 1.322737 2.274837 0.085061 -0.041950 218971.000000 0 0 1
8.053170 33.983345 -29.507212 45.720858 1.338114 2.272314 0.081284 -0.029359 -866523.000000 0 0 1
6.837270 34.055345 -30.383162 46.148145 1.372661 2.289465 0.062938 -0.013657 -939695.000000 0 0 1
6.930270 33.229145 -31.521832 46.323111 1.365184 2.319210 0.052111 -0.008299 449423.000000 0 0 1
5.761470 33.307445 -32.345382 46.784657 1.399513 2.334176 0.039984 -0.002091 304648.000000 0 0 1
5.745970 32.405045 -33.599682 47.032348 1.395303 2.366556 0.041609 -0.009931 128277.000000 0 0 1
6.672370 32.854945 34.075675 47.802924 1.370436 0.777262 0.051241 -0.008460 228603.000000 0 0 1
6.550070 32.141445 32.867159 46.435181 1.369760 0.784407 0.040063 -0.008063 -755110.000000 0 0 1
5.737470 32.959345 31.855328 46.195226 1.398446 0.809887 0.024390 -0.010289 -89108.700000 0 0 1
6.476570 34.049945 31.376468 46.752834 1.382834 0.835086 0.034839 -0.013163 521606.000000 0 0 1
5.787170 -34.193624 30.209458 45.992463 -1.403138 0.854183 0.010350 -0.026870 386354.000000 0 0 1
17.872137 -22.083855 29.131198 40.690744 -0.890419 0.772860 0.037956 0.003559 592510.000000 0 0 1
16.760037 -21.146855 29.187448 39.749157 -0.900612 0.746175 0.022323 0.008706 1397670.000000 0 0 1
15.474837 -21.639155 29.555088 39.764644 -0.949987 0.732880 0.026866 0.011224 637819.000000 0 0 1
15.241237 -21.856055 31.070888 40.931438 -0.961854 0.708873 0.018502 0.001192 -477058.000000 0 0 1
15.779037 -23.086855 31.557058 42.164308 -0.971255 0.725104 0.040461 -0.004310 295119.000000 0 0 1
15.468437 -23.361655 32.908327 43.220337 -0.985942 0.705313 0.053086 -0.009227 217746.000000 0 0 1
16.206337 -24.615555 33.567097 44.669016 -0.988554 0.720520 0.066768 -0.014836 13350.400000 0 0 1
15.766537 -25.894395 33.139609 44.914776 -1.023874 0.740942 0.074416 -0.020268 -139624.000000 0 0 1
16.294137 -26.851785 34.005201 46.291155 -1.025379 0.745728 0.067850 -0.021158 -88802.100000 0 0 1
16.117537 -28.326965 33.606422 46.814352 -1.053496 0.770064 0.062191 -0.019889 209279.000000 0 0 1
16.945337 -28.911025 32.581925 46.739424 -1.040645 0.799455 0.054403 -0.023885 205116.000000 0 0 1
16.565537 -30.165155 32.250468 47.164037 -1.068597 0.817847 0.057225 -0.020219 -56680.500000 0 0 1
17.439737 -30.726925 31.107168 47.073818 -1.054562 0.848890 0.055859 -0.021046 1121090.000000 0 0 1
18.795737 -31.097015 31.432178 48.044625 -1.027131 0.857634 0.027116 -0.023449 1093140.000000 0 0 1
19.439337 -31.845405 30.382818 48.115833 -1.022744 0.887373 0.011837 -0.012610 -261340.000000 0 0 1
20.911237 -32.098855 30.713048 49.100995 -0.993393 0.895014 0.008602 -0.005535 42835.200000 0 0 1
21.754737 -30.942755 30.780308 48.766280 -0.958017 0.887723 0.006479 -0.009228 11131.100000 0 0 1
22.884437 -31.037385 31.588698 49.848397 -0.935461 0.884475 -0.005746 -0.006051 -1279500.000000 0 0 1
23.913237 -29.976255 31.315068 49.508104 -0.897435 0.885989 -0.008952 0.000048 -220948.000000 0 0 1
24.739837 -30.386475 30.194688 49.468340 -0.887473 0.914251 -0.004489 -0.010403 -256989.000000 0 0 1
25.657237 -29.383555 29.928278 49.166950 -0.852996 0.916366 -0.009749 -0.010067 105738.000000 0 0 1
26.784037 -29.690015 28.876038 49.322482 -0.836810 0.945357 -0.003261 -0.009154 533697.000000 0 0 1
27.822237 -30.528635 29.380868 50.688361 -0.831746 0.952513 -0.006746 -0.011674 -571147.000000 0 0 1
28.755037 -30.592865 28.364818 50.668911 -0.816355 0.976643 0.002166 -0.020389 -607632.000000 0 0 1
29.825637 -31.636095 28.728698 52.112851 -0.814846 0.986900 -0.007244 -0.016461 -113167.000000 0 0 1
29.160137 -32.883075 28.982728 52.646071 -0.845332 0.987809 -0.011950 -0.013074 223051.000000 0 0 1
30.064837 -33.738845 29.589358 54.016056 -0.842918 0.991078 0.002389 -0.009711 -458937.000000 0 0 1
29.349137 33.655549 30.070678 53.835987 0.853643 0.978147 -0.007926 -0.003866 -344336.000000 0 0 1
28.655837 33.720442 31.277478 54.189537 0.866415 0.955517 0.006064 -0.009387 1733790.000000 0 0 1
27.426737 -34.193387 31.465678 53.958341 -0.894772 0.948198 -0.009516 -0.003971 1272720.000000 0 0 1
26.285737 34.343222 30.464628 52.900761 0.917522 0.957113 -0.000439 -0.004105 -705096.000000 0 0 1
25.721537 33.046750 30.660108 51.901131 0.909404 0.938820 -0.001438 -0.003717 669331.000000 0 0 1
24.290137 32.957908 30.577938 51.100341 0.935664 0.929306 -0.011704 0.001567 906391.000000 0 0 1
23.798137 31.536673 30.513858 49.920023 0.924346 0.913151 -0.001763 -0.000384 -267856.000000 0 0 1
23.933937 30.942303 29.251648 48.845864 0.912423 0.928724 -0.004862 -0.012133 112259.000000 0 0 1
23.497937 29.598813 29.259108 47.794751 0.899798 0.911979 0.017959 -0.034199 -348077.000000 0 0 1
22.860337 29.159823 27.900878 46.382640 0.905908 0.925372 0.023790 -0.035444 188792.000000 0 0 1
21.572137 29.747663 27.730938 46.035698 0.943376 0.924318 0.039097 -0.039035 317809.000000 0 0 1
20.959037 29.176093 26.582108 44.689307 0.947852 0.933754 0.054166 -0.040497 358021.000000 0 0 1
19.567537 29.811183 26.292888 44.304753 0.989947 0.935451 0.055169 -0.040885 303313.000000 0 0 1
19.787537 31.120563 25.853288 45.038080 1.004444 0.959375 0.063303 -0.040469 576759.000000 0 0 1
18.581637 31.680473 25.331778 44.616461 1.040338 0.967005 0.054492 -0.044815 -201360.000000 0 0 1
18.760237 33.142197 24.803118 45.448283 1.055712 0.993520 0.054589 -0.037130 290490.000000 0 0 1
19.528037 33.309594 23.586908 45.246166 1.040542 1.022421 0.058648 -0.034249 471406.000000 0 0 1
20.788837 33.929682 23.722828 46.326792 1.021088 1.033197 0.050356 -0.028186 10705.000000 0 0 1
21.489037 33.981658 22.339178 45.995334 1.006914 1.063651 0.052696 -0.030437 -85363.300000 0 0 1
20.849237 -33.805275 21.477578 45.152782 -1.018155 1.075077 0.055600 -0.018706 568250.000000 0 0 1
21.434337 -33.821665 20.154678 44.827970 -1.005933 1.104478 0.063373 -0.017984 141531.000000 0 0 1
21.152237 -32.471255 19.389878 43.333209 -0.993428 1.106873 0.049706 -0.019378 -413123.000000 0 0 1
21.730937 -31.344875 19.998578 43.065973 -0.964591 1.087872 0.047549 -0.012913 181896.000000 0 0 1
21.314737 -30.124695 19.348578 41.667527 -0.955021 1.087889 0.062749 -0.021676 -239195.000000 0 0 1
21.978137 -29.668545 18.007678 41.079649 -0.933216 1.117023 0.055148 -0.022920 -448145.000000 0 0 1
21.556937 -30.287125 16.806578 40.797948 -0.952226 1.146207 0.045521 -0.014002 689538.000000 0 0 1
22.220937 -29.636765 15.674078 40.221694 -0.927439 1.170499 0.036535 -0.006642 29485.800000 0 0 1
21.724137 -30.095575 14.286878 39.771808 -0.945564 1.203363 0.049177 -0.021611 -314493.000000 0 0 1
22.124837 -31.438555 13.949378 40.895921 -0.957559 1.222715 0.048328 -0.012879 122251.000000 0 0 1
22.270037 -31.717905 12.580378 40.746117 -0.958643 1.256917 0.048981 -0.019985 -585277.000000 0 0 1
21.023437 -31.906745 11.710078 39.964375 -0.988188 1.273420 0.059218 -0.010684 -197786.000000 0 0 1
20.189737 -32.882965 12.320978 40.505820 -1.020155 1.261721 0.070907 -0.013393 -111114.000000 0 0 1
18.947537 -33.125025 11.680678 39.908830 -1.051219 1.273764 0.072059 -0.010374 20039.700000 0 0 1
18.105237 -33.902645 12.688178 40.474422 -1.080292 1.251934 0.066051 -0.009860 -437674.000000 0 0 1
17.913337 -33.109085 13.890378 40.125326 -1.074858 1.217306 0.064361 -0.002721 417773.000000 0 0 1
18.712537 -33.591875 14.981378 41.267600 -1.062552 1.199279 0.046914 -0.008059 -441893.000000 0 0 1
18.587837 -32.574935 16.137378 40.829513 -1.052262 1.164469 0.057108 -0.008533 933966.000000 0 0 1
17.247637 -32.380815 16.625878 40.279251 -1.081371 1.145308 0.070718 -0.023296 1053640.000000 0 0 1
16.450537 -33.450225 17.145278 41.030456 -1.113737 1.139700 0.059430 -0.013465 -214091.000000 0 0 1
16.831237 -34.140370 18.514178 42.327653 -1.112764 1.118089 0.044741 -0.019882 312403.000000 0 0 1
17.763937 33.481339 18.330678 42.101916 1.082999 1.120327 0.033628 -0.013718 524451.000000 0 0 1
18.073337 32.917948 19.589378 42.355408 1.068689 1.089983 0.042205 -0.019497 274327.000000 0 0 1
18.962137 31.621893 19.473478 41.697999 1.030633 1.084887 0.046994 -0.014587 186561.000000 0 0 1
18.320037 30.455403 18.988978 40.295616 1.029248 1.080098 0.047022 -0.018935 -670537.000000 0 0 1
19.149437 29.370863 18.899678 39.831475 0.993025 1.076411 0.040738 -0.021965 -770770.000000 0 0 1
18.362737 28.130713 18.550678 38.375185 0.992480 1.066258 0.044769 -0.018619 -105636.000000 0 0 1
17.672337 27.593083 19.670078 38.217820 1.001155 1.030158 0.048485 -0.023070 -124781.000000 0 0 1
17.277937 26.263603 19.546178 37.018334 0.988911 1.014537 0.042004 -0.017091 -649101.000000 0 0 1
17.062837 25.562233 20.879978 37.155641 0.982216 0.974043 0.042581 -0.015731 526553.000000 0 0 1
15.815437 25.582103 21.587778 37.021673 1.017085 0.948242 0.048167 -0.019331 436083.000000 0 0 1
14.870637 24.639143 21.108378 35.690151 1.027780 0.937960 0.042078 -0.020348 -505536.000000 0 0 1
13.548637 24.788043 21.861678 35.720381 1.070583 0.912181 0.042539 -0.032294 -368978.000000 0 0 1
12.806937 25.896363 21.305578 35.896615 1.111522 0.935363 0.041545 -0.029091 451075.000000 0 0 1
11.592037 26.170763 22.015678 36.110584 1.153830 0.915147 0.023597 -0.031474 227815.000000 0 0 1
10.817037 27.251963 21.243378 36.207167 1.192942 0.943797 0.013490 -0.028912 -427291.000000 0 0 1
11.231737 28.564193 21.550378 37.503118 1.196157 0.958646 0.012119 -0.029566 92564.600000 0 0 1
10.646237 29.421683 20.578078 37.449100 1.223604 0.989037 0.018623 -0.028148 -92614.200000 0 0 1
11.178037 30.836723 20.695578 38.783489 1.223037 1.007923 0.018449 -0.026115 -454103.000000 0 0 1
10.756937 31.697983 21.686178 39.884385 1.243634 0.995926 0.019631 -0.024210 -671362.000000 0 0 1
11.390037 31.513513 22.942478 40.610242 1.223972 0.970432 0.016676 -0.027323 -443445.000000 0 0 1
10.914537 32.425423 24.018208 41.802028 1.246105 0.958717 0.000331 -0.027251 -463935.000000 0 0 1
9.552437 32.296283 24.305978 41.534077 1.283220 0.945663 -0.001497 -0.028343 -626864.000000 0 0 1
9.385337 32.810155 25.597908 42.659627 1.292187 0.927233 -0.003637 -0.019768 -544556.000000 0 0 1
7.981437 32.565863 26.163258 42.529459 1.330448 0.908182 0.037255 -0.031346 198471.000000 0 0 1
6.843137 33.268355 25.615698 42.541462 1.367931 0.924624 0.040761 -0.033753 1054980.000000 0 0 1
6.312937 32.852772 24.345368 41.374567 1.380952 0.941701 0.036774 -0.036674 -27748.100000 0 0 1
5.447537 31.567513 24.353838 40.240440 1.399912 0.920769 0.042616 -0.038643 -185364.000000 0 0 1
6.238137 30.507343 24.894728 39.866776 1.369097 0.896372 0.012387 -0.028409 -35215.600000 0 0 1
5.588837 29.238513 24.883618 38.798456 1.381928 0.874532 0.025219 -0.024021 -738028.000000 0 0 1
6.568837 28.088503 25.121258 38.251683 1.341063 0.854314 0.008755 -0.018192 -638334.000000 0 0 1
7.532937 27.727133 24.160268 37.540080 1.305518 0.871622 -0.005825 -0.018364 605885.000000 0 0 1
8.618837 28.670583 24.056138 38.405527 1.278774 0.893906 0.002849 -0.020426 -288049.000000 0 0 1
9.767737 28.395213 25.044498 39.101454 1.239483 0.875647 0.006003 -0.026675 -1327790.000000 0 0 1
9.477837 28.480073 26.401148 39.974550 1.249536 0.849380 0.008051 -0.020811 -244495.000000 0 0 1
10.559337 28.348343 27.296538 40.745910 1.214232 0.836694 0.012752 -0.018261 -166458.000000 0 0 1
11.442837 29.606953 27.408118 41.937038 1.201989 0.858526 0.008685 -0.021120 -467672.000000 0 0 1
10.835537 30.668113 28.089808 42.976498 1.231170 0.858454 0.013909 -0.018121 -68937.400000 0 0 1
11.731737 31.718523 28.198658 44.032519 1.216531 0.875770 0.007684 -0.010410 -656049.000000 0 0 1
11.179837 32.856353 29.075378 45.275891 1.242821 0.873454 0.015915 -0.010195 -420323.000000 0 0 1
11.142237 32.460983 30.411698 45.855603 1.240147 0.845702 0.033373 -0.025523 -125812.000000 0 0 1
9.888637 32.060013 30.877408 45.596534 1.271613 0.826863 0.043248 -0.015277 -650623.000000 0 0 1
9.986437 31.735103 32.398688 46.438354 1.265926 0.798655 0.073317 -0.018502 -496935.000000 0 0 1
10.714137 30.577373 32.725324 46.051225 1.233770 0.780405 0.046575 -0.014348 303940.000000 0 0 1
10.774037 30.417703 34.102600 46.950015 1.230382 0.757786 0.074370 -0.017297 -181002.000000 0 0 1
10.795637 28.973243 -34.049392 45.992997 1.214125 2.404338 0.073919 -0.013843 1549490.000000 0 0 1
12.061237 28.234453 -34.261846 46.005781 1.167079 2.410925 0.067463 -0.006300 1639660.000000 0 0 1
12.069437 26.968923 -33.619142 44.757579 1.149997 2.420581 0.059669 -0.013762 38565.800000 0 0 1
13.266337 26.128303 -34.115953 44.973128 1.100977 2.431935 0.066874 -0.014056 83282.800000 0 0 1
13.078837 24.734223 -33.953262 43.996157 1.084395 2.452357 0.041386 -0.015455 -183687.000000 0 0 1
13.384437 24.272223 -32.669742 42.843857 1.066856 2.438012 0.038457 -0.009775 -402241.000000 0 0 1
13.445837 22.784913 -32.608452 41.991118 1.037673 2.459977 0.024836 -0.026792 865545.000000 0 0 1
14.567937 22.259913 -33.376852 42.681879 0.991301 2.468650 0.012357 -0.011990 886087.000000 0 0 1
14.407537 20.869213 -33.561402 42.065056 0.966561 2.494509 0.011301 -0.012317 491479.000000 0 0 1
15.746937 20.227413 -34.037812 42.610878 0.909307 2.496104 0.029033 -0.018735 275826.000000 0 0 1
16.795937 20.401713 -33.141522 42.387427 0.882032 2.468458 0.023277 -0.023667 -1085120.000000 0 0 1
17.978237 19.824413 -33.575752 42.936646 0.834197 2.468638 0.033278 -0.022368 -561275.000000 0 0 1
19.136237 20.087013 -32.593932 42.802431 0.809634 2.436416 0.019152 -0.014246 -264504.000000 0 0 1
19.570537 21.432413 -32.587112 43.637990 0.830775 2.413974 0.007992 -0.013483 -486677.000000 0 0 1
20.602737 21.676913 -31.684452 43.569093 0.810799 2.385064 -0.003644 -0.008828 -242772.000000 0 0 1
20.128737 21.959913 -30.243382 42.450748 0.828878 2.363758 -0.001939 -0.001769 -256490.000000 0 0 1
19.363037 23.110913 -30.138502 42.630633 0.873410 2.355999 -0.008123 -0.001202 -368506.000000 0 0 1
18.901437 23.403113 -28.815092 41.656687 0.891410 2.334675 -0.009980 0.018291 -570790.000000 0 0 1
19.952937 23.831653 -27.729782 41.653430 0.873754 2.299263 -0.008642 0.021883 -117730.000000 0 0 1
20.627737 25.026543 -28.010362 42.853376 0.881452 2.283171 0.001973 0.007613 90469.200000 0 0 1
19.792637 26.220523 -28.045722 43.195218 0.924197 2.277432 0.004361 0.010682 1029.390000 0 0 1
20.573337 27.489193 -28.540152 44.648161 0.928310 2.264284 0.005533 0.005697 -339884.000000 0 0 1
20.761237 27.729863 -29.911842 45.767812 0.928130 2.283070 -0.001110 0.003618 -191106.000000 0 0 1
21.290337 26.696783 -30.722802 45.933509 0.897590 2.303462 0.004475 0.000090 1174640.000000 0 0 1
22.776337 26.223143 -30.313062 46.100939 0.855626 2.288341 0.028018 -0.008969 1472670.000000 0 0 1
23.772737 27.179023 -30.700012 47.395497 0.852152 2.275412 0.026379 -0.010751 -297151.000000 0 0 1
25.060037 26.703183 -30.424842 47.610256 0.817131 2.264045 0.048729 -0.014185 -328792.000000 0 0 1
26.129437 27.677253 -30.983752 49.079229 0.814156 2.254026 0.040231 -0.008233 -260236.000000 0 0 1
26.359437 28.743853 -30.120292 49.277389 0.828643 2.228422 0.021341 -0.006852 -222419.000000 0 0 1
27.441937 29.438653 -30.681082 50.606551 0.820487 2.222154 0.020747 -0.015427 -77131.800000 0 0 1
27.629337 30.766873 -29.879462 51.017282 0.839075 2.196507 0.013510 -0.006549 19069.200000 0 0 1
28.206037 30.589073 -28.562352 50.468603 0.825907 2.172373 0.028404 -0.011463 286930.000000 0 0 1
27.686337 31.536683 -27.617742 50.237788 0.850321 2.152850 0.014788 -0.004298 -444018.000000 0 0 1
28.266437 31.337653 -26.207522 49.677704 0.836880 2.126512 0.025011 0.000056 -573893.000000 0 0 1
28.163537 30.084593 -25.553252 48.489548 0.818367 2.125845 0.026661 0.002370 593395.000000 0 0 1
26.833837 29.622463 -25.280452 47.293196 0.834752 2.134768 0.029585 0.000263 246655.000000 0 0 1
26.428237 29.776273 -23.806812 46.387956 0.844897 2.109718 0.034840 0.007419 -421890.000000 0 0 1
25.995937 31.107543 -23.505012 46.861003 0.874675 2.096232 0.033099 0.003380 260048.000000 0 0 1
25.456437 31.171783 -22.216412 45.970417 0.885985 2.075190 0.041781 0.009979 6455.600000 0 0 1
3.577037 -26.630425 -19.495312 33.197017 -1.437274 2.198467 0.035740 -0.004451 -619740.000000 0 0 1
3.239137 -27.829625 -18.795412 33.737925 -1.454926 2.161686 0.035536 0.000010 166111.000000 0 0 1
2.882837 -27.557355 -17.451912 32.745806 -1.466563 2.132881 0.032848 -0.002881 -85599.900000 0 0 1
2.732137 -28.882955 -16.704112 33.477113 -1.476484 2.093207 0.025214 0.003876 382657.000000 0 0 1
3.996337 -29.344705 -16.260312 33.785799 -1.435443 2.072907 0.021529 0.001258 207209.000000 0 0 1
3.963937 -29.529135 -14.879112 33.302712 -1.437356 2.033963 0.015129 -0.002248 520681.000000 0 0 1
5.288737 -30.142235 -14.312312 33.784129 -1.397105 2.008256 0.037509 0.008263 256517.000000 0 0 1
6.290237 -29.200445 -13.996012 32.986686 -1.358623 2.008977 0.014919 0.011032 244714.000000 0 0 1
7.609637 -29.746435 -14.070212 33.774663 -1.320351 2.000488 0.020086 0.011672 782263.000000 0 0 1
8.089437 -30.663605 -12.866812 34.223538 -1.312861 1.956233 0.019317 0.004804 -930597.000000 0 0 1
8.465837 -29.973395 -11.691912 33.268238 -1.295522 1.929909 0.014480 0.001192 -9495.580000 0 0 1
8.415337 -30.733815 -10.494112 33.548647 -1.303533 1.888939 0.020038 0.004589 -400086.000000 0 0 1
9.657637 -31.544165 -10.181212 34.524794 -1.273696 1.870143 0.031563 -0.001754 -315140.000000 0 0 1
10.840037 -30.877405 -9.827712 34.168765 -1.233171 1.862540 0.022995 -0.001277 704852.000000 0 0 1
11.902237 -31.775465 -9.444712 35.221386 -1.212400 1.842271 0.025909 -0.006110 549383.000000 0 0 1
13.116037 -31.258835 -8.663212 34.988519 -1.173513 1.821000 0.038916 -0.008861 -344605.000000 0 0 1
13.968137 -30.480085 -9.457712 34.836659 -1.141086 1.845734 0.038919 -0.018295 66626.300000 0 0 1
15.116237 -30.140015 -8.697512 34.821946 -1.105922 1.823240 0.039298 -0.016132 -78748.200000 0 0 1
16.261737 -29.531145 -9.531112 35.033909 -1.067444 1.846323 0.061639 -0.027659 -167313.000000 0 0 1
16.148337 -28.157405 -9.974912 33.957432 -1.050088 1.868941 0.049539 -0.029609 -303563.000000 0 0 1
15.173937 -27.958635 -10.953912 33.644047 -1.073553 1.902424 0.034731 -0.024082 -415443.000000 0 0 1
14.915237 -26.453625 -11.243412 32.383220 -1.057400 1.925379 0.028248 -0.015492 -943842.000000 0 0 1
14.062737 -25.903155 -10.252912 31.206670 -1.073423 1.905563 0.020765 -0.019272 162278.000000 0 0 1
13.652837 -24.543755 -10.478012 29.976401 -1.063156 1.927879 0.000522 -0.006374 188794.000000 0 0 1
12.940837 -24.220855 -11.822312 29.897863 -1.080098 1.977325 -0.001502 -0.008241 -100361.000000 0 0 1
13.840337 -24.097755 -12.914912 30.643951 -1.049457 2.005841 0.003593 -0.011678 384727.000000 0 0 1
13.075537 -23.775555 -14.083812 30.571236 -1.067986 2.049567 0.014327 -0.013005 726798.000000 0 0 1
14.037237 -23.332655 -15.227512 31.198301 -1.029191 2.080694 0.022497 -0.015177 454525.000000 0 0 1
14.849037 -24.317955 -15.837512 32.598829 -1.022604 2.078110 0.025839 -0.021115 -27876.000000 0 0 1
15.358337 -23.765055 -17.017112 33.018760 -0.997057 2.112244 0.029604 -0.025226 -1388950.000000 0 0 1
16.275137 -24.726055 -17.773212 34.527453 -0.988666 2.111519 0.027900 -0.024382 -526929.000000 0 0 1
17.547037 -24.817955 -17.209212 34.928304 -0.955368 2.085987 0.038922 -0.024189 -739705.000000 0 0 1
18.441937 -23.803755 -17.598412 34.877327 -0.911643 2.099692 0.041244 -0.030913 575384.000000 0 0 1
19.901637 -23.964555 -16.967112 35.471932 -0.877755 2.069543 0.035028 -0.023751 1561000.000000 0 0 1
20.655337 -24.967855 -17.625012 36.887367 -0.879643 2.068952 0.047829 -0.019538 20292.800000 0 0 1
21.874337 -25.323255 -16.975212 37.522150 -0.858343 2.040257 0.071875 -0.011078 489720.000000 0 0 1
22.495437 -26.496475 -17.765412 39.034828 -0.866885 2.043300 0.066339 -0.010239 -466432.000000 0 0 1
23.061237 -26.001195 -18.938212 39.579524 -0.845249 2.069725 0.067863 -0.008806 -456904.000000 0 0 1
23.616237 -26.961445 -19.766212 40.931032 -0.851442 2.074777 0.054114 -0.008743 -232734.000000 0 0 1
24.805237 -26.524415 -20.653912 41.778326 -0.818879 2.087905 0.037350 -0.002888 80517.300000 0 0 1
24.507837 -25.465475 -21.501612 41.369601 -0.804559 2.117348 0.034707 0.002363 -248919.000000 0 0 1
24.990237 -24.212155 -21.013612 40.648645 -0.769586 2.114089 0.041146 0.002310 -192165.000000 0 0 1
24.412537 -22.949355 -21.672912 39.904386 -0.754514 2.144946 0.047483 0.004613 -177109.000000 0 0 1
24.633737 -22.657555 -23.062712 40.645720 -0.743635 2.174151 0.033966 0.011009 239976.000000 0 0 1
23.713337 -23.391555 -23.879412 40.984309 -0.778567 2.192779 0.017343 0.003214 64105.300000 0 0 1
22.851137 -22.461355 -24.708912 40.462542 -0.776796 2.227692 0.010683 0.008238 8863.440000 0 0 1
23.656837 -21.845755 -25.701512 41.200130 -0.745617 2.244419 0.010481 0.011760 577276.000000 0 0 1
22.888437 -20.835755 -26.390322 40.675034 -0.738486 2.276814 0.013736 0.015819 380463.000000 0 0 1
23.603437 -20.340055 -27.660002 41.664323 -0.711271 2.296788 0.010281 0.015432 -205132.000000 0 0 1
22.836637 -19.347055 -28.263392 41.166004 -0.702863 2.327559 0.019832 0.012289 231416.000000 0 0 1
23.436337 -18.803055 -29.475642 42.090739 -0.676144 2.346597 0.031213 0.006454 -170376.000000 0 0 1
22.638937 -17.700455 -30.159022 41.658063 -0.663581 2.380331 0.054663 0.003857 480138.000000 0 0 1
21.266337 -18.078555 -30.397922 41.268935 -0.704553 2.398798 0.037792 0.000112 1093110.000000 0 0 1
20.686937 -17.124655 -31.295442 41.238428 -0.691464 2.432404 0.048318 -0.000451 1274370.000000 0 0 1
19.246237 -17.603955 -31.775392 41.109518 -0.740861 2.454266 0.024771 0.003574 1145580.000000 0 0 1
19.400137 -18.263855 -33.029152 42.436525 -0.755238 2.462780 0.029768 0.000781 183809.000000 0 0 1
18.206437 -18.857655 -33.467602 42.510774 -0.802966 2.477171 0.020519 -0.002036 -441428.000000 0 0 1
18.326537 -19.587555 33.837570 43.180036 -0.818646 0.670294 0.044692 -0.005269 24766.400000 0 0 1
19.174937 -20.744255 33.971695 44.182332 -0.824690 0.693681 0.037047 -0.000372 477886.000000 0 0 1
19.179737 -21.464755 32.769172 43.616702 -0.841559 0.720769 0.028129 -0.002573 -54928.200000 0 0 1
19.934037 -22.802855 32.862958 44.691275 -0.852425 0.744639 0.020754 0.003601 152506.000000 0 0 1
19.309237 -23.808155 33.702266 45.557850 -0.889363 0.738070 0.030226 0.002092 222527.000000 0 0 1
19.713837 -23.728955 -33.626842 45.634014 -0.877559 2.399241 0.035008 -0.011774 -324704.000000 0 0 1
18.980237 -24.707555 -32.685412 45.155829 -0.915751 2.380142 0.039179 -0.010013 -312449.000000 0 0 1
19.401437 -26.059925 -32.704022 46.098683 -0.930829 2.359493 0.036827 -0.015163 -417974.000000 0 0 1
20.448037 -26.315925 -31.835762 46.088675 -0.910225 2.333322 0.015293 -0.008474 -415884.000000 0 0 1
20.725837 -27.787205 -31.500882 46.840097 -0.929939 2.308404 0.010794 -0.016986 -93556.000000 0 0 1
19.596337 -28.404105 -30.920822 46.334727 -0.966873 2.301422 0.015851 -0.013975 -44336.400000 0 0 1
19.779937 -29.823985 -30.752962 47.185387 -0.985182 2.280683 0.014560 -0.015490 -1119910.000000 0 0 1
18.567637 -30.459585 -30.103442 46.677197 -1.023360 2.271726 0.030693 -0.019506 -42452.400000 0 0 1
17.404437 -30.501975 -30.914812 46.786863 -1.052275 2.292625 0.042446 -0.027376 -104255.000000 0 0 1
17.482337 -31.309975 -32.070632 48.108961 -1.061555 2.300468 0.048042 -0.025883 123193.000000 0 0 1
16.165537 -32.103545 -32.543842 48.487771 -1.104318 2.306591 0.061925 -0.026901 891121.000000 0 0 1
15.244737 -31.222435 -33.109572 47.994649 -1.116583 2.332092 0.081599 -0.029020 14976.400000 0 0 1
14.040237 -31.917915 -33.454902 48.322998 -1.156385 2.335493 0.071816 -0.017165 -114824.000000 0 0 1
13.061837 -31.224565 34.304203 48.190906 -1.174598 0.778682 0.068763 -0.012349 -561949.000000 0 0 1
12.308837 -30.325535 -33.548422 46.868350 -1.185223 2.368567 0.072363 -0.019161 -60408.200000 0 0 1
11.543737 -29.492335 34.212513 46.621366 -1.197713 0.746842 0.057586 -0.012017 501209.000000 0 0 1
10.646537 -28.453465 -33.670022 45.349960 -1.212750 2.407515 0.055160 -0.028203 -140562.000000 0 0 1
9.557537 -28.899975 -32.946632 44.855721 -1.251408 2.395729 0.047917 -0.014780 -683321.000000 0 0 1
8.680237 -27.834285 -32.690282 43.803522 -1.268500 2.413272 0.049565 -0.014191 -755836.000000 0 0 1
7.570837 -28.176025 -31.744662 43.115306 -1.308299 2.398343 0.040860 -0.015006 -44380.700000 0 0 1
6.451737 -28.995755 -32.111792 43.744096 -1.351857 2.395111 0.041581 -0.016846 522793.000000 0 0 1
6.746437 -30.339905 -32.432962 44.921279 -1.351994 2.377478 0.041014 -0.012916 -374762.000000 0 0 1
5.535237 -31.210885 -32.853872 45.652329 -1.395272 2.374100 0.060032 -0.014274 808386.000000 0 0 1
4.628737 -31.463465 -31.737392 44.929244 -1.424729 2.355176 0.064600 -0.022928 420086.000000 0 0 1
3.659737 -32.427005 -32.044652 45.735808 -1.458411 2.347100 0.059134 -0.033523 -487357.000000 0 0 1
2.782737 -32.881745 -30.819162 45.152781 -1.486369 2.322046 0.051651 -0.040015 487022.000000 0 0 1
1.713137 -32.061315 -30.394972 44.212183 -1.517414 2.328809 0.034021 -0.044762 1062130.000000 0 0 1
0.543537 -32.001175 -31.267472 44.744000 -1.553813 2.344526 0.011698 -0.010466 592909.000000 0 0 1
-0.272463 -30.748485 -30.868522 43.570739 1.561936 2.358123 0.012648 -0.009673 -510518.000000 0 0 1
-0.963763 -30.902375 -29.683542 42.860219 1.539619 2.335837 -0.010404 -0.015483 -193244.000000 0 0 1
-1.649063 -29.704805 -29.364572 41.801591 1.515338 2.349665 0.013914 -0.013474 38359.600000 0 0 1
-2.539063 -29.707535 -28.115882 40.981549 1.485535 2.326859 0.017729 -0.011022 -203709.000000 0 0 1
-1.752263 -29.781475 -26.916252 40.180734 1.512027 2.304843 0.020495 -0.011084 298476.000000 0 0 1
-2.551963 -30.034665 -25.759192 39.650090 1.486033 2.277937 0.032744 -0.014284 117667.000000 0 0 1
-1.684763 -30.534705 -24.608112 39.252591 1.515677 2.248386 0.027605 -0.007757 235988.000000 0 0 1
-2.264763 -30.491335 -23.310412 38.447705 1.496657 2.222182 0.043868 -0.019790 -117333.000000 0 0 1
-1.303263 -31.031655 -22.429012 38.310870 1.528823 2.196229 0.032002 -0.011580 525231.000000 0 0 1
-1.671663 -30.820535 -20.883912 37.267112 1.516611 2.165646 0.014749 0.003185 377982.000000 0 0 1
-1.745263 -29.493995 -20.346912 35.873926 1.511692 2.173872 -0.006071 -0.000032 533007.000000 0 0 1
-0.431563 -29.041695 -19.984312 35.255908 1.555937 2.173456 0.017132 -0.003791 644233.000000 0 0 1
-0.369863 -27.666755 -19.306212 33.738939 1.557429 2.180011 0.026748 -0.009962 34998.000000 0 0 1
-1.097663 -27.735595 -18.077512 33.124984 1.531241 2.148064 0.022019 -0.010487 158521.000000 0 0 1
-0.953163 -26.527075 -17.333012 31.702170 1.534880 2.149268 0.021898 -0.008036 -8274.510000 0 0 1
-1.891463 -26.421005 -16.115212 31.005600 1.499329 2.117357 0.024802 -0.007386 -275519.000000 0 0 1
-1.871763 -25.114075 -15.490712 29.566577 1.496403 2.122251 0.027805 -0.003206 -140366.000000 0 0 1
-2.716563 -25.098965 -14.368612 29.048146 1.462982 2.088226 0.026702 -0.001411 -170730.000000 0 0 1
-2.602563 -23.844455 -13.440912 27.495264 1.462079 2.081561 0.031322 -0.002955 -908070.000000 0 0 1
-1.475063 -23.999655 -12.674812 27.181062 1.509412 2.055912 0.028398 0.001039 -1107620.000000 0 0 1
-1.274863 -22.805155 -11.959112 25.782179 1.514952 2.053135 0.030431 -0.002333 -129850.000000 0 0 1
-0.051963 -22.840755 -11.050412 25.373499 1.568521 2.021401 0.020167 -0.003782 -103713.000000 0 0 1
0.280337 -21.562055 -10.500312 23.984524 -1.557796 2.023941 0.013322 0.004713 -638737.000000 0 1 0
1.512637 -21.628355 -9.841912 23.810440 -1.500972 1.996920 0.007385 0.009648 -159705.000000 0 1 0
2.061637 -20.220155 -9.650512 22.499721 -1.469188 2.014090 0.012392 0.013545 -1093660.000000 0 1 0
2.590637 -19.611655 -10.811912 22.543866 -1.439460 2.070989 0.005177 0.021997 509237.000000 0 1 0
3.500537 -18.504755 -10.570212 21.596507 -1.383836 2.082245 0.002206 0.025821 1036470.000000 0 1 0
4.863437 -18.838555 -9.908312 21.833892 -1.318149 2.041826 0.011193 0.009280 -376641.000000 0 1 0
4.655337 -19.214955 -8.545712 21.538707 -1.333100 1.978782 0.007870 0.008085 -776520.000000 0 1 0
5.770137 -19.865055 -8.050812 22.197534 -1.288108 1.941949 0.016043 0.003185 -910404.000000 0 1 0
5.406037 -21.004455 -7.091712 22.818957 -1.318888 1.886812 0.024818 0.002830 -273073.000000 0 1 0
4.752937 -22.014355 -7.807612 23.836549 -1.358158 1.904504 0.021098 0.001835 -85118.800000 0 1 0
4.509937 -23.102355 -6.935412 24.538914 -1.378005 1.857330 0.031992 0.000012 -377639.000000 0 1 0
3.620837 -24.187555 -7.509312 25.583942 -1.422201 1.868700 0.028812 0.005325 -123706.000000 0 0 1
4.234737 -24.904255 -8.531112 26.663361 -1.402367 1.896480 0.024982 -0.000933 37190.200000 0 0 1
3.205637 -25.417055 -9.353212 27.272429 -1.445337 1.920857 0.013716 0.002997 208745.000000 0 0 1
3.741537 -26.290375 -10.437212 28.532759 -1.429430 1.945286 0.004151 0.000082 -211383.000000 0 0 1
4.238837 -27.509705 -9.929512 29.552442 -1.417914 1.913459 0.016705 -0.002865 -217764.000000 0 0 1
4.820437 -28.309335 -10.890412 30.712476 -1.402137 1.933274 0.029833 0.006813 -33099.800000 0 0 1
4.687437 -29.851185 -10.635312 32.033970 -1.415041 1.909221 0.026385 -0.003370 435242.000000 0 0 1
3.434937 -30.346605 -11.120512 32.502016 -1.458086 1.919999 0.028476 -0.000588 531765.000000 0 0 1
3.268837 -31.717705 -10.885712 33.692683 -1.468099 1.899787 0.027042 0.000719 -103323.000000 0 0 1
2.074237 -32.340765 -11.634212 34.432288 -1.506747 1.915467 0.021109 -0.005163 -217621.000000 0 0 1
2.090237 -32.467105 -13.041612 35.050901 -1.506505 1.952041 0.023255 -0.004059 -392202.000000 0 0 1
1.196837 -33.404495 -13.501812 36.049850 -1.534983 1.954688 0.021494 -0.004118 -654166.000000 0 0 1
0.648937 -33.228725 -14.963512 36.448265 -1.551269 1.993844 0.020680 -0.001094 490908.000000 0 0 1
-0.263763 -32.124685 -15.160312 35.523233 1.562586 2.011716 0.013766 -0.000653 223958.000000 0 0 1
-0.713463 -32.187395 -16.479412 36.167783 1.548634 2.043885 0.002038 -0.001067 -349283.000000 0 0 1
-1.738363 -31.119685 -16.871912 35.441757 1.514994 2.066950 0.003205 0.005216 -373774.000000 0 0 1
-3.018763 -31.520345 -16.441812 35.678822 1.475316 2.049725 0.010674 -0.002742 -753427.000000 0 0 1
-3.933763 -30.687445 -17.135512 35.366928 1.443304 2.076595 0.016032 0.003361 140566.000000 0 0 1
-5.386563 -30.811125 -16.635612 35.427166 1.397720 2.059603 0.018140 0.002323 -42322.300000 0 0 1
-5.569363 -30.010555 -15.447912 34.209491 1.387304 2.039318 0.013813 0.000187 862927.000000 0 0 1
-6.962863 -29.975465 -15.066912 34.264002 1.342558 2.026094 0.027289 -0.004452 1330010.000000 0 0 1
-7.551363 -31.136435 -14.170512 35.032901 1.332865 1.987219 0.021780 -0.012273 169961.000000 0 0 1
-7.685063 -32.313775 -14.894312 36.401660 1.337308 1.992336 0.018451 -0.006761 -189926.000000 0 0 1
-8.443463 -33.152845 -14.022612 36.973462 1.321415 1.959794 0.029328 -0.006486 284149.000000 0 0 1
-8.771763 34.177435 -14.562912 38.172232 -1.319565 1.962221 0.052408 -0.008243 -320850.000000 0 0 1
-7.636163 33.442763 -14.891012 37.396145 -1.346310 1.980346 0.051254 -0.006716 -456331.000000 0 0 1
-8.079263 32.184423 -15.276712 36.530666 -1.324848 2.002247 0.066575 -0.020039 -334435.000000 0 0 1
-7.600663 -22.236855 -3.429012 23.748809 1.241441 1.715689 0.055653 -0.008259 254036.000000 0 1 0
-7.470063 -21.156555 -4.308912 22.846628 1.231376 1.760534 0.040345 -0.008224 386193.000000 0 1 0
-6.143263 -21.208555 -4.841912 22.605013 1.288853 1.786665 0.030368 -0.009549 777953.000000 0 1 0
-5.888063 -20.079755 -5.830012 21.722222 1.285559 1.842517 0.017154 -0.014959 541272.000000 0 1 0
-6.812463 -20.244255 -6.922812 22.453616 1.246186 1.884219 0.021169 -0.019404 112311.000000 0 1 0
-6.727463 -19.225955 -7.868912 21.836115 1.234197 1.939453 0.011280 -0.019185 -362666.000000 0 1 0
-7.664863 -19.354555 -9.095512 22.717334 1.193722 1.982725 0.013369 -0.030623 115441.000000 0 1 0
-7.121563 -20.101955 -10.109512 23.601007 1.230321 2.013463 0.019326 -0.024176 -258588.000000 0 1 0
-8.148463 -20.564555 -10.965912 24.689059 1.193537 2.031034 0.037533 -0.019840 244188.000000 0 1 0
-7.560163 -21.373655 -12.142612 25.718325 1.230817 2.062511 0.032647 -0.019196 484085.000000 0 0 1
-6.525363 -20.735155 -12.910112 25.282366 1.265908 2.106722 0.034970 -0.015455 169478.000000 0 0 1
-6.352163 -21.561355 -14.002212 26.482144 1.284293 2.127914 0.026440 -0.012951 448299.000000 0 0 1
-5.361363 -21.018455 -15.125412 26.444239 1.321043 2.179706 0.028646 -0.004334 -211633.000000 0 0 1
-4.048863 -21.169155 -14.671612 26.072642 1.381816 2.168470 0.026463 -0.000992 273243.000000 0 0 1
-3.027163 -20.446655 -15.459712 25.811473 1.423812 2.212982 0.030860 0.006488 1103770.000000 0 0 1
-3.028463 -18.903055 -15.429812 24.588131 1.411936 2.249174 0.039128 0.008100 -936012.000000 0 1 0
-4.151963 -18.262855 -15.960012 24.606761 1.347251 2.276544 0.041485 -0.000050 -619122.000000 0 1 0
-4.321063 -18.170155 -17.404612 25.529330 1.337322 2.320948 0.052184 -0.008006 526399.000000 0 0 1
-5.751963 -17.775755 -17.941512 25.902904 1.257845 2.335946 0.040512 -0.007891 1097480.000000 0 0 1
-6.718363 -18.775255 -17.605112 26.600500 1.227162 2.294059 0.047444 -0.006227 -106729.000000 0 0 1
-7.939263 -18.546355 -18.278112 27.222942 1.166323 2.306924 0.031502 -0.011109 -336015.000000 0 0 1
-9.020363 -19.505355 -17.846212 27.934086 1.137633 2.263823 0.030122 -0.012751 -917834.000000 0 0 1
-8.662663 -20.831855 -18.109212 28.930114 1.176712 2.247163 0.030491 -0.009083 -169541.000000 0 0 1
-9.589463 -21.805055 -17.756012 29.710170 1.156472 2.211352 0.040380 -0.013650 -794554.000000 0 0 1
-9.074063 -23.200855 -18.048212 30.762904 1.197978 2.197759 0.042542 -0.017598 -389901.000000 0 0 1
-8.865263 -23.327555 -19.469112 31.651447 1.207620 2.233321 0.036593 -0.020798 436292.000000 0 0 1
-7.994263 -24.395055 -19.835312 32.441741 1.254124 2.228642 0.051628 -0.033143 444087.000000 0 0 1
-6.461363 -24.157255 -19.759112 31.870750 1.309443 2.239509 0.061041 -0.032350 -454317.000000 0 0 1
-5.974763 -23.069255 -20.461712 31.409712 1.317372 2.280284 0.052372 -0.031516 -185263.000000 0 0 1
-5.676163 -21.883955 -19.684812 29.976961 1.317013 2.287184 0.047094 -0.022850 -546279.000000 0 0 1
-4.501563 -21.968855 -18.725512 29.215398 1.368687 2.266527 0.060012 -0.018426 -920919.000000 0 0 1
-3.321563 -22.359455 -19.385012 29.778461 1.423322 2.279664 0.069310 -0.023232 -171852.000000 0 0 1
-2.297463 -22.486755 -18.380712 29.133882 1.468980 2.253515 0.052010 -0.012135 716253.000000 0 0 1
-0.991663 -23.039355 -19.022312 29.893873 1.527781 2.260525 0.047248 -0.004642 178330.000000 0 0 1
-0.200963 -22.286855 -19.877912 29.864288 1.561779 2.299105 0.057052 -0.006612 -1001510.000000 0 0 1
1.055437 -22.872555 -19.998412 30.400728 -1.524685 2.288726 0.045584 -0.010806 90462.200000 0 0 1
1.914137 -22.238555 -21.167912 30.761954 -1.484935 2.329691 0.059812 -0.012559 279715.000000 0 0 1
1.381837 -22.469655 -22.410712 31.765310 -1.509376 2.353937 0.061630 -0.016055 -464113.000000 0 0 1
0.718337 -21.369255 -22.932112 31.353515 -1.537194 2.391176 0.073415 -0.012976 -635330.000000 0 0 1
0.416937 -21.473055 -24.442012 32.537331 -1.551382 2.420673 0.069833 -0.017171 230021.000000 0 0 1
-0.245863 -20.415355 -25.135232 32.382512 1.558754 2.459409 0.063372 -0.015700 1060880.000000 0 0 1
-1.518763 -19.950455 -24.623712 31.727820 1.494816 2.459241 0.069209 -0.021377 662856.000000 0 0 1
-2.106063 -18.747355 -25.346342 31.596454 1.458926 2.501750 0.058122 -0.015749 -45144.400000 0 0 1
-1.413163 -17.542255 -25.072612 30.632722 1.490412 2.529576 0.077264 -0.011198 238357.000000 0 0 1
-2.030463 -16.405155 -25.681902 30.541971 1.447653 2.569690 0.060699 -0.003441 29626.300000 0 0 1
-1.288663 -15.083055 -25.357512 29.532400 1.485566 2.603394 0.057644 -0.000039 166690.000000 0 0 1
-0.074463 -14.893555 -26.056162 30.012450 1.565797 2.622316 0.059119 -0.003170 -130277.000000 0 0 1
0.707637 -13.798355 -25.609642 29.098955 -1.519557 2.646844 0.056688 -0.000677 312377.000000 0 0 1
0.275237 -12.404855 -26.148872 28.943388 -1.548612 2.698544 0.041672 0.000141 40541.500000 0 0 1
1.058637 -11.306255 -25.682822 28.081302 -1.477436 2.725284 0.033209 -0.004139 177462.000000 0 0 1
0.601037 -10.171855 -26.328502 28.231506 -1.511777 2.772328 0.034976 -0.001259 -594678.000000 0 0 1
1.452737 -8.912355 -25.999512 27.522994 -1.409215 2.807313 0.042210 -0.011289 1192460.000000 0 0 1
2.857237 -8.917955 -26.305282 27.922422 -1.260738 2.799589 0.040925 -0.016150 729881.000000 0 0 1
3.209837 -9.157855 -27.672222 29.324414 -1.233675 2.804312 0.034200 -0.010639 -467693.000000 0 0 1
4.686637 -9.001255 -28.114942 29.890419 -1.090754 2.795191 0.030690 -0.008425 -39421.100000 0 0 1
4.993337 -7.621055 -28.044012 29.486955 -0.990772 2.827461 0.026451 -0.015722 -562474.000000 0 0 1
6.207837 -7.235255 -28.568052 30.116769 -0.861677 2.819504 0.041064 -0.009782 -277816.000000 0 0 1
7.530637 -7.297955 -27.703202 29.621581 -0.769708 2.779725 0.057915 -0.016178 567929.000000 0 0 1
8.059237 -8.558755 -27.375592 29.793064 -0.815448 2.735973 0.045712 -0.016081 106793.000000 0 0 1
8.711237 -9.205255 -28.429972 31.126929 -0.812965 2.722248 0.057751 -0.019489 -714189.000000 0 0 1
9.207437 -10.601355 -28.042772 31.361804 -0.855651 2.677369 0.046298 -0.017363 323991.000000 0 0 1
8.178737 -11.597655 -27.899052 31.301030 -0.956585 2.671032 0.055963 -0.019698 543852.000000 0 0 1
8.574137 -12.695855 -27.093632 31.124998 -0.976807 2.626969 0.046986 -0.019560 46934.900000 0 0 1
9.413537 -13.828155 -27.767742 32.417281 -0.973106 2.599386 0.058548 -0.027914 195257.000000 0 0 1
8.603337 -14.495455 -28.702662 33.286311 -1.035155 2.610583 0.072314 -0.032433 405527.000000 0 0 1
9.325837 -15.624555 -29.235452 34.435587 -1.032681 2.584866 0.067491 -0.030805 407507.000000 0 0 1
8.574137 -16.305655 -30.416222 35.560327 -1.086692 2.597006 0.059035 -0.031956 -2850.440000 0 0 1
8.478337 -15.523455 -31.595392 36.209511 -1.070904 2.631239 0.058233 -0.028275 508472.000000 0 0 1
7.639237 -16.213555 -32.513742 37.126551 -1.130483 2.637793 0.067276 -0.023827 207782.000000 0 0 1
6.465737 -15.350655 -33.106502 37.060611 -1.172146 2.675446 0.066968 -0.021514 500247.000000 0 0 1
6.939137 -14.337755 -33.971232 37.520228 -1.120049 2.703144 0.073418 -0.023117 -1123780.000000 0 0 1
5.909537 -13.653155 34.162015 37.260899 -1.162310 0.410722 0.053246 -0.023892 -1178990.000000 0 0 1
6.282037 -12.460155 33.216009 36.028083 -1.103818 0.397717 0.073908 -0.021830 -56461.300000 0 0 1
7.090937 -12.753255 32.086568 35.248756 -1.063351 0.426814 0.064720 -0.026746 207040.000000 0 0 1
7.420737 -11.545355 31.411708 34.279119 -0.999537 0.411927 0.057772 -0.026414 96145.600000 0 0 1
7.808137 -11.585955 29.936018 33.035838 -0.977781 0.436663 0.037628 -0.018704 -170991.000000 0 0 1
6.676937 -11.925655 29.203408 32.243477 -1.060399 0.437732 0.055162 -0.017907 -39315.600000 0 0 1
6.964637 -11.785455 27.836428 31.020475 -1.037056 0.457054 0.044229 -0.024201 262300.000000 0 0 1
6.020837 -12.630755 26.896748 30.318667 -1.125978 0.479697 0.050816 -0.029505 50119.900000 0 0 1
6.192337 -14.009055 27.081928 31.113173 -1.154595 0.514715 0.052222 -0.026405 -131809.000000 0 0 1
5.655737 -14.813855 26.077388 30.519958 -1.206089 0.546330 0.032635 -0.019940 876211.000000 0 0 1
4.091437 -15.025855 26.150198 30.435983 -1.304948 0.537118 0.026753 -0.031644 955583.000000 0 0 1
3.324837 -13.897355 25.696988 29.402827 -1.335968 0.507498 0.017908 -0.031791 630145.000000 0 0 1
2.003437 -14.329455 25.328278 29.169654 -1.431884 0.519013 0.016458 -0.025626 516284.000000 0 0 1
1.055837 -13.206355 24.954868 28.253638 -1.491017 0.488060 0.022113 -0.022463 -799385.000000 0 0 1
1.342737 -12.493455 23.770338 26.887141 -1.463732 0.486278 0.005273 -0.007237 -318537.000000 0 0 1
0.405437 -11.508355 23.444178 26.119650 -1.535581 0.456573 0.012546 0.008655 -703076.000000 0 0 1
-0.895863 -11.936855 22.816678 25.766100 1.495887 0.483161 0.018234 0.008180 -1132430.000000 0 0 1
-0.916563 -12.337955 21.495578 24.801716 1.496644 0.522254 0.013303 -0.002046 361030.000000 0 1 0
-2.156963 -13.018155 21.215678 24.984593 1.406599 0.556422 0.026033 -0.007000 827733.000000 0 1 0
-2.255963 -13.730755 19.857178 24.247279 1.407951 0.611227 0.038561 -0.013294 -224665.000000 0 1 0
-1.370363 -14.784455 19.645778 24.625487 1.478371 0.647188 0.044524 -0.020751 -726638.000000 0 1 0
-1.646963 -15.489955 18.427378 24.129225 1.464870 0.701778 0.048877 -0.019325 167118.000000 0 1 0
-2.821263 -16.493855 18.505378 24.949065 1.401387 0.735156 0.042168 -0.031546 62062.500000 0 1 0
-2.960163 -17.481755 17.461078 24.885007 1.403059 0.793057 0.033388 -0.029370 94105.600000 0 1 0
-3.838563 -18.524855 17.952578 26.080642 1.366476 0.811586 0.037876 -0.008824 395640.000000 0 0 1
-3.602363 -19.840355 17.209578 26.510117 1.391186 0.864303 0.042118 -0.012375 735232.000000 0 0 1
-2.368463 -20.509455 17.535378 27.087578 1.455824 0.866682 0.048162 -0.016771 454266.000000 0 0 1
-2.376463 -21.867555 17.219178 27.934525 1.462546 0.906618 0.047201 -0.033979 -646282.000000 0 0 1
-1.322763 -22.625555 17.980078 28.930065 1.512400 0.900138 0.071238 -0.020543 -273879.000000 0 0 1
0.002737 -22.392855 17.548178 28.449579 -1.570674 0.906104 0.058153 -0.018086 -450336.000000 0 0 1
0.866537 -23.185055 18.344078 29.577067 -1.533439 0.901782 0.047237 -0.013185 218477.000000 0 0 1
2.274437 -23.250555 17.705078 29.312646 -1.473284 0.922275 0.049897 -0.013582 343732.000000 0 0 1
2.969537 -21.994855 17.678178 28.374457 -1.436597 0.898184 0.061450 -0.017548 -402057.000000 0 0 1
4.127437 -21.989455 16.907978 28.043745 -1.385254 0.923647 0.057635 -0.014364 -54702.700000 0 0 1
5.053037 -20.746455 17.125978 27.372390 -1.331887 0.894811 0.049058 -0.011866 -1134760.000000 0 0 1
5.718637 -20.829155 18.370878 28.355700 -1.302849 0.866008 0.049188 -0.006590 -409708.000000 0 0 1
6.340837 -19.626555 18.756478 27.878547 -1.258307 0.832819 0.049415 -0.004306 -180764.000000 0 0 1
7.425437 -19.053955 17.820078 27.124630 -1.199196 0.854003 0.044325 -0.006095 -1216840.000000 0 0 1
6.939837 -18.374255 16.723778 25.796499 -1.209666 0.865451 0.034784 -0.003244 -205209.000000 0 0 1
7.969737 -17.743655 15.990078 25.180084 -1.148641 0.882751 0.048355 -0.007825 297326.000000 0 0 1
7.361037 -16.684055 14.988578 23.605085 -1.155283 0.882824 0.041937 -0.006801 125570.000000 0 1 0
6.573437 -17.156055 13.932178 23.057448 -1.204895 0.921988 0.038623 -0.014337 135421.000000 0 1 0
6.022237 -16.108555 13.141478 21.643737 -1.213031 0.918299 0.034534 -0.019044 34307.600000 0 1 0
6.435837 -16.290655 11.650478 21.036613 -1.194553 0.983852 0.045006 -0.020308 -111975.000000 0 1 0
7.818137 -16.092755 11.527678 21.283501 -1.118559 0.998427 0.035480 -0.010713 -465789.000000 0 1 0
8.273937 -16.354255 10.222178 20.986011 -1.102424 1.062036 0.033456 -0.012606 -130090.000000 0 1 0
9.747537 -15.991155 10.025678 21.242546 -1.023378 1.079281 0.021881 -0.006444 121165.000000 0 1 0
10.279137 -16.382655 8.732978 21.220673 -1.010444 1.146662 0.019839 -0.009447 -657475.000000 0 1 0
11.613937 -15.994955 8.598978 21.556080 -0.942767 1.160466 0.020144 -0.010281 -454253.000000 0 1 0
12.498537 -17.011055 7.877678 22.531029 -0.937140 1.213613 0.020277 -0.011370 -326958.000000 0 1 0
12.651337 -18.292855 8.516678 23.816354 -0.965730 1.205102 0.019904 -0.017795 8767.170000 0 1 0
13.293537 -19.191855 7.654078 24.568890 -0.965010 1.253988 0.026772 -0.017660 -205156.000000 0 1 0
13.914037 -20.365555 8.429478 26.065540 -0.971425 1.241481 0.038304 -0.020014 228394.000000 0 0 1
12.977437 -21.336455 8.979378 26.538415 -1.024349 1.225629 0.047035 -0.016851 540578.000000 0 0 1
13.615937 -22.256255 9.822478 27.878589 -1.021760 1.210736 0.059149 -0.013047 117664.000000 0 0 1
12.551237 -23.283155 10.323878 28.394037 -1.076384 1.198674 0.058755 -0.014307 547219.000000 0 0 1
11.942737 -22.784055 11.515478 28.184187 -1.088000 1.149899 0.042209 -0.019166 -168234.000000 0 0 1
11.006837 -23.602055 12.210978 28.763092 -1.134429 1.132347 0.047231 -0.013018 147663.000000 0 0 1
11.423937 -24.982955 12.585178 30.216570 -1.141914 1.141205 0.040356 -0.020749 -15583.800000 0 0 1
12.574637 -25.051295 13.422678 31.078243 -1.105585 1.124199 0.023160 -0.022137 333666.000000 0 0 1
12.490337 -26.269665 14.120778 32.334196 -1.126968 1.118854 0.025610 -0.030339 325578.000000 0 0 1
13.632637 -26.566875 15.148378 33.483146 -1.096689 1.101321 0.036948 -0.021763 285425.000000 0 0 1
13.530837 -25.878055 16.359878 33.472421 -1.089021 1.060132 0.029514 -0.015824 161919.000000 0 0 1
14.398037 -26.469125 17.286878 34.738369 -1.072605 1.049931 0.028703 -0.018749 -341697.000000 0 0 1
14.214037 -25.854515 18.711578 34.937344 -1.068130 1.005607 0.025905 -0.014349 -99190.300000 0 0 1
14.676737 -24.529255 18.925678 34.282245 -1.031601 0.985970 0.009529 -0.010561 718191.000000 0 0 1
16.061737 -24.435655 19.287878 35.030029 -0.989301 0.987702 0.013029 -0.015915 456072.000000 0 0 1
16.516337 -23.004355 19.457578 34.359673 -0.948114 0.968797 0.000328 -0.014736 -318093.000000 0 0 1
16.497237 -22.106755 18.338778 33.123681 -0.929697 0.984061 -0.002300 -0.007464 -225239.000000 0 0 1
15.301437 -21.400755 18.156478 31.965357 -0.950077 0.966717 0.008246 -0.002682 -710235.000000 0 0 1
15.421237 -20.225055 17.184978 30.695128 -0.919355 0.976579 0.004311 -0.000954 548060.000000 0 0 1
16.303137 -19.144755 17.628178 30.709390 -0.865390 0.959375 0.000709 -0.006302 1295450.000000 0 0 1
17.626037 -19.305555 17.092278 31.233438 -0.830843 0.991730 0.003683 -0.001854 470552.000000 0 0 1
18.569137 -18.107755 17.300378 31.177023 -0.772819 0.982544 0.014556 0.000072 -194106.000000 0 0 1
18.788437 -17.871255 18.649578 31.940475 -0.760385 0.947290 0.003805 0.002432 142002.000000 0 0 1
19.296437 -16.553855 18.784878 31.610984 -0.709046 0.934461 0.011909 0.001647 -356304.000000 0 0 1
19.725737 -16.136955 20.224178 32.534957 -0.685660 0.899995 0.006942 0.011138 -237199.000000 0 0 1
20.795037 -16.958655 20.617778 33.839657 -0.684130 0.915646 0.015236 0.005629 -257497.000000 0 0 1
21.092237 -16.728455 21.977578 34.752520 -0.670525 0.886146 0.011073 0.011930 -175073.000000 0 0 1
33.592330 -0.322755 -7.981812 34.529091 -0.009608 1.804068 0.111562 -0.027955 1035520.000000 0 0 1
34.953440 -0.268955 -8.470912 35.966257 -0.007695 1.808554 0.096170 -0.027187 1321510.000000 0 0 1
35.575920 -1.528855 -8.686112 36.652858 -0.042948 1.810056 0.095695 -0.024686 1051040.000000 0 0 1
-34.579961 -1.451955 -9.052012 35.774583 0.041964 1.826606 0.087632 -0.026694 592323.000000 0 0 1
-33.779123 -2.563255 -8.930912 35.033707 0.075738 1.828565 0.097071 -0.023860 580968.000000 0 0 1
-32.417993 -2.298555 -9.323412 33.810289 0.070785 1.850173 0.116788 -0.027681 280549.000000 0 0 1
-31.533593 -3.488855 -9.032812 32.986835 0.110191 1.848170 0.113701 -0.022652 -909085.000000 0 0 1
-31.300613 -3.665555 -7.660812 32.432279 0.116577 1.809259 0.117716 -0.029974 599285.000000 0 0 1
-30.260733 -4.620955 -7.440112 31.502705 0.151534 1.809223 0.106689 -0.033097 368760.000000 0 0 1
-29.769023 -4.626855 -5.931412 30.704790 0.154191 1.765194 0.107951 -0.045398 -208745.000000 0 0 1
-29.125463 -3.429355 -5.607112 29.857876 0.117205 1.759711 0.102635 -0.039636 268035.000000 0 0 1
-29.137383 -3.392655 -4.179612 29.630497 0.115915 1.712326 0.102097 -0.040060 -129763.000000 0 0 1
-29.017053 -1.999755 -3.635512 29.312204 0.068808 1.695144 0.104098 -0.036694 -66946.900000 0 0 1
-27.703773 -1.488155 -3.720712 27.992094 0.053665 1.704111 0.097941 -0.031187 306588.000000 0 0 1
-27.675183 -0.158455 -3.170012 27.856594 0.005725 1.684841 0.095820 -0.036674 -552855.000000 0 0 1
-26.312043 0.377645 -2.733512 26.456347 -0.014352 1.674303 0.100192 -0.020806 -444429.000000 0 0 1
-25.814893 -0.251555 -1.569412 25.863778 0.009744 1.631514 0.086105 -0.025868 203380.000000 0 0 1
-24.435063 -0.055855 -1.389612 24.474608 0.002286 1.627605 0.073569 -0.026725 -222463.000000 0 1 0
-23.787463 -0.748555 -0.210712 23.800170 0.031458 1.579650 0.055281 -0.025473 -114215.000000 0 1 0
-23.969763 -2.148855 -0.319512 24.068012 0.089410 1.584072 0.057211 -0.023117 60879.500000 0 1 0
-23.150963 -2.731155 0.637588 23.320223 0.117429 1.543452 0.041040 -0.019857 -567476.000000 0 1 0
-23.196263 -4.278755 0.641388 23.596308 0.182408 1.543611 0.039647 -0.010037 -19107.900000 0 1 0
-24.327763 -4.808655 1.315888 24.833340 0.195146 1.517783 0.046346 -0.017046 334754.000000 0 1 0
-24.371163 -6.213755 1.313888 25.185127 0.249645 1.518603 0.033039 -0.009679 943032.000000 0 0 1
-25.760163 -6.785155 1.844288 26.702541 0.257548 1.501673 0.054558 -0.007703 960456.000000 0 0 1
-25.841643 -6.729855 3.271688 26.903260 0.254768 1.448885 0.050860 -0.005725 1581350.000000 0 0 1
-26.976193 -7.557455 3.764288 28.266587 0.273150 1.437229 0.059202 0.000322 1393800.000000 0 0 1
-27.031563 -7.799555 5.308588 28.630745 0.280906 1.384302 0.055920 -0.001315 -145177.000000 0 0 1
-26.210203 -8.839855 5.807688 28.263882 0.325287 1.363841 0.046778 0.007223 80127.300000 0 0 1
-26.184463 -9.079055 7.216388 28.637940 0.333763 1.316063 0.032979 0.002817 -128263.000000 0 0 1
-25.439073 -8.041555 8.081788 27.877021 0.306171 1.276665 0.036725 -0.000647 -477935.000000 0 0 1
-24.096063 -7.831955 7.734988 26.491315 0.314259 1.274498 0.038070 -0.003152 -124644.000000 0 0 1
-23.605863 -6.559155 8.169188 25.826244 0.271024 1.248955 0.041662 -0.007010 999944.000000 0 0 1
-22.125163 -6.356155 7.618888 24.248113 0.279748 1.251177 0.032617 -0.009955 772799.000000 0 1 0
-21.192363 -6.886455 8.502888 23.850338 0.314187 1.206266 0.031201 -0.015711 -1085300.000000 0 1 0
-19.925763 -6.683255 7.990588 22.484470 0.323616 1.207473 0.024001 -0.009237 -529482.000000 0 1 0
-18.735163 -7.027655 8.926888 21.910810 0.358863 1.151170 0.016607 -0.006072 135967.000000 0 1 0
-18.704163 -6.120355 9.974588 22.063473 0.316238 1.101694 0.013310 -0.003794 377114.000000 0 1 0
-17.614163 -6.349555 10.862588 21.646510 0.345981 1.045098 0.011120 -0.009878 -34593.600000 0 1 0
-17.333563 -5.185455 11.897388 21.653849 0.290683 0.989108 0.001164 -0.005429 -625429.000000 0 1 0
-18.344863 -5.034155 12.816488 22.937721 0.267825 0.977917 0.010356 -0.014589 -527902.000000 0 1 0
-18.529563 -3.694555 13.266988 23.086953 0.196806 0.958616 0.020502 -0.004078 -435036.000000 0 1 0
-19.781363 -3.551055 14.110188 24.556256 0.177623 0.958673 0.032258 -0.012749 -364515.000000 0 1 0
-19.718563 -4.391455 15.243788 25.307699 0.219131 0.924370 0.044402 -0.019357 311665.000000 0 0 1
-20.969363 -4.367055 15.923388 26.689691 0.205324 0.931524 0.049507 -0.006817 138684.000000 0 0 1
-20.974163 -5.232855 17.165788 27.603669 0.244499 0.899673 0.043480 0.002192 -146956.000000 0 0 1
-21.920563 -4.877355 18.146388 28.871977 0.218935 0.891158 0.046994 0.000609 117546.000000 0 0 1
-21.762163 -5.695355 19.258788 29.612999 0.255968 0.862752 0.045966 0.003663 -11323.000000 0 0 1
-22.632663 -5.231455 20.460788 30.955603 0.227157 0.848683 0.023285 0.014664 -407187.000000 0 0 1
-22.351763 -3.850455 20.768088 30.752898 0.170592 0.829396 0.027529 0.013298 101831.000000 0 0 1
-22.902963 -3.532355 21.987088 31.944565 0.153026 0.811669 0.026054 0.008763 -239009.000000 0 0 1
-22.777363 -2.068755 22.468088 32.060926 0.090577 0.794287 0.025643 0.011205 87431.800000 0 0 1
-23.773463 -1.283355 21.849788 32.314668 0.053930 0.828262 0.032540 0.004185 116647.000000 0 0 1
-23.637463 0.022345 22.262988 32.471076 -0.000945 0.815334 0.032869 -0.001336 -526527.000000 0 0 1
-24.831063 0.845445 21.804388 33.056433 -0.034035 0.850495 0.040275 -0.002710 -256081.000000 0 0 1
-25.982313 0.457445 22.538488 34.398739 -0.017604 0.856332 0.041063 -0.000340 -375784.000000 0 0 1
-27.114813 1.158645 22.100888 35.000068 -0.042705 0.887371 0.026233 0.002168 375134.000000 0 0 1
-28.145403 1.224145 23.281788 36.547282 -0.043466 0.880155 0.023452 0.006708 408312.000000 0 0 1
-27.573043 2.203745 24.142288 36.714836 -0.079754 0.853218 0.029773 0.003253 291194.000000 0 0 1
-28.471653 2.485945 25.177788 38.088527 -0.087092 0.848601 0.026111 -0.000275 -407705.000000 0 0 1
-28.060023 3.408445 26.307788 38.614532 -0.120878 0.821270 0.041717 -0.000591 -27679.200000 0 0 1
-27.100883 2.806645 27.184488 38.488069 -0.103195 0.786525 0.043145 -0.009343 452837.000000 0 0 1
-26.788623 3.619045 28.287288 39.126697 -0.134283 0.762710 0.043210 -0.008759 -102649.000000 0 0 1
-25.599003 3.111045 29.132988 38.906535 -0.120937 0.724555 0.047472 -0.014580 -1756.190000 0 0 1
-25.926463 2.144945 30.115488 39.796041 -0.082544 0.712476 0.051865 -0.011770 448984.000000 0 0 1
-24.750563 1.737945 30.812588 39.560414 -0.070103 0.677927 0.036495 -0.020543 186064.000000 0 0 1
-25.018163 0.598045 31.799488 40.465708 -0.023900 0.666746 0.029371 -0.020990 -52705.600000 0 0 1
-25.034363 -0.664355 31.123288 39.947712 0.026532 0.677566 0.025775 -0.016928 -66120.500000 0 0 1
-25.579723 -1.722955 31.892088 40.919385 0.067255 0.677107 0.028784 -0.013527 62727.200000 0 0 1
-26.496443 -2.659955 31.016888 40.880119 0.100054 0.709438 0.025054 -0.002764 1446290.000000 0 0 1
-27.810473 -2.197755 30.607088 41.413118 0.078862 0.739111 0.034800 -0.003551 1105890.000000 0 0 1
-27.757883 -1.173355 29.656088 40.636933 0.042246 0.752794 0.038355 -0.002155 322997.000000 0 0 1
-29.213303 -0.827655 29.135188 41.266951 0.028324 0.786938 0.043338 -0.017158 1102360.000000 0 0 1
-29.933533 -0.139755 30.144288 42.481925 0.004669 0.781896 0.074382 -0.016494 -185539.000000 0 0 1
-31.293813 -0.045655 29.724988 43.161090 0.001459 0.811104 0.052657 -0.019056 341055.000000 0 0 1
-32.175673 0.174545 30.970888 44.659828 -0.005425 0.804482 0.054848 -0.012165 -295362.000000 0 0 1
-32.504893 -0.957155 31.695088 45.409941 0.029438 0.798228 0.051466 -0.015420 -163367.000000 0 0 1
-33.297603 -0.714955 32.817388 46.757058 0.021468 0.792777 0.068925 -0.020505 -265153.000000 0 0 1
-33.510463 -2.076955 33.545688 47.461332 0.061900 0.785831 0.062188 -0.020398 -488360.000000 0 0 1
-34.377631 -2.989755 32.987888 47.738463 0.086750 0.807907 0.028594 -0.017026 -426787.000000 0 0 1
-34.237093 -4.216555 33.681188 48.211827 0.122540 0.797346 0.034454 -0.009841 -70678.900000 0 0 1
-35.491492 -5.037055 33.360988 48.969107 0.140981 0.821306 0.027539 -0.011664 208175.000000 0 0 1
35.025610 -4.560855 34.026088 49.044565 -0.129486 0.804073 0.027359 -0.017499 507377.000000 0 0 1
33.835330 -5.106255 33.428688 47.837021 -0.149785 0.797073 0.025566 -0.018263 464831.000000 0 0 1
32.568130 -4.722955 34.256088 47.502304 -0.144014 0.765342 0.031578 -0.023998 -199667.000000 0 0 1
32.388940 -5.461755 -33.173803 46.683781 -0.167059 2.361156 0.032634 -0.028535 49943.000000 0 0 1
32.194120 -6.868155 -33.308203 46.830218 -0.210185 2.362078 0.033722 -0.020928 -672476.000000 0 0 1
30.826580 -7.255855 -33.937803 46.418746 -0.231169 2.390763 0.029779 -0.025953 153025.000000 0 0 1
29.754850 -6.956555 -33.070803 45.026912 -0.229670 2.395678 0.028687 -0.032790 448553.000000 0 0 1
28.456510 -7.321355 -33.531103 44.583742 -0.251821 2.422028 0.049832 -0.031702 374242.000000 0 0 1
27.311600 -6.747955 -32.693403 43.131392 -0.242222 2.431031 0.048786 -0.033245 704625.000000 0 0 1
25.993070 -7.024555 -33.212603 42.755831 -0.263942 2.460360 0.058462 -0.030349 1094940.000000 0 0 1
24.964870 -6.803555 -32.259303 41.354513 -0.266064 2.465570 0.069335 -0.032137 -222059.000000 0 0 1
23.600970 -7.350455 -32.684403 40.979326 -0.301925 2.494074 0.079774 -0.035871 -344012.000000 0 0 1
23.344370 -8.756755 -32.669103 41.096358 -0.358869 2.489704 0.088869 -0.042828 250697.000000 0 0 1
23.348770 -9.369355 -31.355603 40.201041 -0.381608 2.465414 0.087683 -0.038236 -381459.000000 0 0 1
23.072870 -10.899855 -31.503103 40.541456 -0.441333 2.460776 0.090324 -0.035737 400956.000000 0 0 1
21.775670 -11.336255 -31.920003 40.268810 -0.479986 2.485978 0.092823 -0.034386 564001.000000 0 0 1
21.574170 -12.709755 -31.700203 40.396604 -0.532380 2.473048 0.076859 -0.020136 -936807.000000 0 0 1
20.398970 -13.380355 -32.404603 40.561191 -0.580535 2.496271 0.051976 -0.012310 947364.000000 0 0 1
19.064270 -12.867955 -32.167103 39.544319 -0.593734 2.520846 0.032172 -0.007632 1202600.000000 0 0 1
18.811470 -11.564755 -32.646803 39.413560 -0.551210 2.546888 0.033403 -0.017694 -1060240.000000 0 0 1
17.480270 -11.014755 -32.078503 38.156455 -0.562276 2.569389 0.026248 -0.015711 -99985.600000 0 0 1
16.378770 -11.554755 -32.761103 38.406593 -0.614389 2.592517 0.016402 -0.007356 -225011.000000 0 0 1
15.185570 -11.193855 -32.073903 37.210740 -0.635218 2.609905 0.030203 -0.009706 496695.000000 0 0 1
13.876070 -11.687955 -32.756103 37.444838 -0.700013 2.635784 0.023291 -0.009483 -718186.000000 0 0 1
13.850970 -13.108255 -32.863203 37.995603 -0.757856 2.615790 0.037894 -0.014314 520905.000000 0 0 1
12.655070 -13.631555 -33.449803 38.273482 -0.822529 2.634105 0.029644 -0.021923 808235.000000 0 0 1
11.360970 -13.559355 -32.555303 37.050986 -0.873387 2.643849 0.032002 -0.018399 218701.000000 0 0 1
10.866270 -12.245955 -32.323503 36.233246 -0.845022 2.672757 0.067116 -0.014593 -122895.000000 0 0 1
9.702070 -12.313455 -31.516603 35.200108 -0.903462 2.680025 0.061743 -0.022613 909822.000000 0 0 1
8.458470 -11.551155 -32.110703 35.157818 -0.938745 2.722185 0.051018 -0.011291 262514.000000 0 0 1
8.697970 -10.196655 -32.104203 34.789457 -0.864551 2.746119 0.043735 -0.006284 191342.000000 0 0 1
7.498970 -9.483355 -32.294403 34.483287 -0.901721 2.783375 0.048805 -0.001192 -47287.400000 0 0 1
7.733570 -7.982955 -32.548103 34.393527 -0.801265 2.812524 0.060582 -0.001603 -8671.730000 0 0 1
8.184270 -7.329555 -31.373403 33.241466 -0.730360 2.804751 0.048320 -0.007949 225990.000000 0 0 1
8.458770 -5.989055 -31.807303 33.453313 -0.616094 2.826594 0.049877 0.000929 122426.000000 0 0 1
8.814770 -4.996055 -30.620203 32.253025 -0.515637 2.822036 0.043665 0.000588 578020.000000 0 0 1
7.635570 -4.608055 -29.905703 31.207166 -0.542988 2.851775 0.056614 -0.002164 363228.000000 0 0 1
7.869270 -3.589455 -28.958203 30.222295 -0.427945 2.851347 0.051886 0.000798 547535.000000 0 0 1
6.541070 -2.919055 -28.482603 29.369460 -0.419744 2.895220 0.038136 -0.002746 -286145.000000 0 0 1
5.880970 -2.223155 -29.519603 30.181703 -0.361420 2.931746 0.035451 0.006541 -285684.000000 0 0 1
4.641870 -1.712255 -29.132103 29.549251 -0.353387 2.973364 0.034135 0.001090 219145.000000 0 0 1
3.413470 -2.681155 -29.063103 29.385444 -0.665814 2.993339 0.025516 -0.004240 -288239.000000 0 0 1
3.518070 -3.639955 -28.089903 28.542403 -0.802424 2.963291 0.034914 -0.013150 -913121.000000 0 0 1
2.397270 -4.432855 -27.980503 28.430717 -1.075047 2.963394 0.030088 -0.018078 -764017.000000 0 0 1
2.615570 -5.508055 -26.864103 27.547412 -1.127460 2.918397 0.021331 -0.027400 -8829.740000 0 0 1
2.644170 -4.940955 -25.542303 26.149836 -1.079423 2.925614 0.030499 -0.027725 -68671.400000 0 0 1
2.973170 -5.955955 -24.596303 25.481195 -1.107795 2.877282 0.032213 -0.030872 -109189.000000 0 0 1
2.929970 -5.420955 -23.139003 23.945458 -1.075284 2.881325 0.039797 -0.034023 342718.000000 0 1 0
3.953370 -4.468855 -22.814103 23.581415 -0.846527 2.885793 0.041908 -0.035774 407118.000000 0 1 0
3.667670 -3.888155 -21.543203 22.196377 -0.814571 2.898395 0.045745 -0.034074 93957.200000 0 1 0
4.621170 -2.727755 -21.173903 21.843307 -0.533237 2.893385 0.052342 -0.035094 369302.000000 0 1 0
6.007670 -3.023455 -21.106203 22.151867 -0.466257 2.833111 0.046756 -0.027419 -141048.000000 0 1 0
6.647670 -2.072555 -20.309303 21.469858 -0.302221 2.811292 0.049290 -0.029687 -964480.000000 0 1 0
8.126670 -2.372655 -20.238903 21.938219 -0.284064 2.745410 0.041423 -0.022456 -2197220.000000 0 1 0
8.720470 -2.363055 -21.507303 23.327982 -0.264623 2.743890 0.042142 -0.026273 76278.200000 0 1 0
9.948670 -3.083055 -21.558603 23.942737 -0.300511 2.691538 0.029794 -0.023258 1129220.000000 0 1 0
11.165970 -2.497955 -20.739703 23.686578 -0.220088 2.637450 0.027247 -0.022001 -809108.000000 0 1 0
11.107670 -2.601555 -19.313803 22.431483 -0.230066 2.608055 0.030856 -0.012966 296211.000000 0 1 0
12.195070 -2.050955 -18.552903 22.296555 -0.166620 2.553675 0.021666 -0.020344 125234.000000 0 1 0
12.519470 -0.569355 -18.490103 22.337082 -0.045446 2.545929 0.023374 -0.019677 -31036.900000 0 1 0
13.069870 -0.054255 -19.690803 23.633708 -0.004151 2.555605 0.030935 -0.022959 217818.000000 0 1 0
13.012670 1.380645 -19.643003 23.602613 0.105705 2.553929 0.043253 -0.032845 -1238.230000 0 1 0
13.389470 2.085545 -20.996903 24.989945 0.154518 2.568474 0.041538 -0.024390 747262.000000 0 1 0
14.772270 2.304845 -21.311103 26.032583 0.154777 2.529821 0.037243 -0.026807 742519.000000 0 0 1
14.846370 3.336245 -22.278903 26.979525 0.221046 2.542364 0.040254 -0.027198 510258.000000 0 0 1
16.257370 3.595145 -22.948603 28.352523 0.217637 2.513930 0.038887 -0.023346 771027.000000 0 0 1
16.594570 2.716545 -23.973403 29.282818 0.162262 2.529914 0.035276 -0.023457 185126.000000 0 0 1
17.035870 1.430545 -23.554103 29.104349 0.083776 2.513753 0.034149 -0.019489 -678011.000000 0 0 1
9.634637 27.041445 3.656588 28.938497 1.228528 1.444100 -0.011451 0.005592 22695.800000 0 0 1
9.439637 27.464245 4.983888 29.465753 1.239739 1.400838 -0.013615 0.003344 717928.000000 0 0 1
10.709137 27.754045 5.587788 30.268729 1.202540 1.385125 -0.014050 0.011261 249276.000000 0 0 1
10.553737 28.261945 7.024088 30.975098 1.213407 1.342041 -0.011545 -0.007014 32080.500000 0 0 1
10.235437 27.270945 7.974588 30.200375 1.211742 1.303571 -0.014355 -0.013311 -70200.000000 0 0 1
10.312637 27.882645 9.255388 31.136065 1.216541 1.268979 -0.000640 -0.010016 -313795.000000 0 0 1
10.273137 26.780745 10.405388 30.512583 1.204506 1.222795 0.012808 -0.009048 677131.000000 0 0 1
11.465437 25.992945 10.591888 30.319589 1.155370 1.213928 0.008276 -0.008815 440207.000000 0 0 1
11.857837 25.168845 9.564188 29.420277 1.130509 1.239691 0.010390 -0.013699 348648.000000 0 0 1
13.270137 24.525145 9.867188 29.579396 1.074825 1.230694 0.015510 -0.016108 635187.000000 0 0 1
14.273337 25.538845 9.937788 30.898549 1.061155 1.243350 0.008360 -0.010235 39835.200000 0 0 1
15.421137 24.861745 10.439288 31.062784 1.015601 1.228055 0.013636 -0.015535 146225.000000 0 0 1
16.596337 25.755545 10.874588 32.512200 0.998383 1.229746 0.019986 -0.018587 -446003.000000 0 0 1
17.148637 26.474545 9.786788 33.026633 0.996011 1.269948 0.027832 -0.018591 1193610.000000 0 0 1
18.572637 26.702245 9.886488 33.995520 0.963066 1.275715 0.032929 -0.023812 1210230.000000 0 0 1
19.188137 27.526045 11.027788 35.319681 0.962026 1.253259 0.045580 -0.031351 -802897.000000 0 0 1
19.181737 28.998745 11.005888 36.469107 0.986402 1.264230 0.054055 -0.038573 317916.000000 0 0 1
17.905437 29.577745 11.248088 36.358866 1.026439 1.256273 0.033755 -0.020917 228639.000000 0 0 1
18.028537 31.078445 11.442288 37.707079 1.045139 1.262483 0.037633 -0.012867 -446910.000000 0 0 1
18.542937 31.977445 10.460188 38.416312 1.045306 1.295029 0.055506 -0.033120 431340.000000 0 0 1
17.770937 32.202645 9.245788 37.924941 1.066536 1.324523 0.060556 -0.039120 754180.000000 0 0 1
16.330937 32.767745 9.434388 37.807833 1.108442 1.318596 0.049300 -0.027035 81389.100000 0 0 1
16.368337 34.085745 9.961588 39.102349 1.123105 1.313200 0.051258 -0.026573 1511620.000000 0 0 1
15.117637 -33.909624 9.627588 38.354870 -1.151423 1.317069 0.055418 -0.012632 1782070.000000 0 0 1
15.206337 -32.413324 9.993288 37.171522 -1.132141 1.298605 0.054157 -0.003392 -110507.000000 0 0 1
16.088937 -31.796624 9.104788 36.780108 -1.102364 1.320649 0.072249 -0.011047 -85208.500000 0 0 1
15.991237 -30.428324 9.159988 35.573979 -1.086928 1.310371 0.072913 -0.020911 86150.000000 0 0 1
16.687837 -29.597924 8.070688 34.923588 -1.057406 1.337593 0.076511 -0.018582 396292.000000 0 0 1
16.013737 -29.823324 6.822788 34.531448 -1.078025 1.371906 0.070872 -0.014956 892490.000000 0 0 1
16.888337 -29.339124 5.768288 34.340549 -1.048492 1.402023 0.072594 -0.011040 848311.000000 0 0 1
16.308337 -29.613024 4.331488 34.083058 -1.067404 1.443365 0.075221 -0.013039 225816.000000 0 0 1
16.270837 -31.020024 4.039088 35.260407 -1.087720 1.455994 0.066789 -0.013400 -109140.000000 0 0 1
16.004137 -31.271024 2.683688 35.230832 -1.097763 1.494548 0.067381 -0.004899 -99307.700000 0 0 1
16.375437 -32.701424 2.264388 36.642401 -1.106544 1.508960 0.041493 0.000283 -715466.000000 0 0 1
17.737637 -32.967124 2.290088 37.505994 -1.077182 1.509699 0.041882 0.002110 -664062.000000 0 0 1
18.054937 -34.242824 1.792988 38.752633 -1.085578 1.524512 0.044535 0.005066 522805.000000 0 0 1
19.571537 34.128245 1.981688 39.391741 1.050112 1.520468 0.052395 -0.001649 587457.000000 0 0 1
19.964537 33.987845 3.332188 39.558309 1.039691 1.486462 0.049634 -0.034251 -220262.000000 0 0 1
21.199237 33.322145 3.394188 39.639544 1.004190 1.485065 0.027148 -0.018178 -309042.000000 0 0 1
21.728937 33.319445 4.869188 40.075442 0.992918 1.448995 0.035599 -0.020371 -284111.000000 0 0 1
21.187937 32.302945 5.714788 39.052115 0.990275 1.423931 0.052594 -0.029226 -183222.000000 0 0 1
21.930937 31.146145 5.664388 38.511474 0.957304 1.423178 0.035090 -0.035443 -522041.000000 0 0 1
21.339837 30.044145 6.551388 37.429400 0.953202 1.394857 0.041906 -0.033998 916654.000000 0 0 1
20.083637 29.533345 6.063288 36.226156 0.973597 1.402632 0.041340 -0.024960 497589.000000 0 0 1
19.172337 29.275445 7.103988 35.708498 0.990988 1.370516 0.034594 -0.039627 -30440.000000 0 0 1
17.704037 29.146545 6.625688 34.739800 1.024943 1.378897 0.046259 -0.023155 -139370.000000 0 0 1
17.088137 30.396345 6.388688 35.450776 1.058652 1.389593 0.031612 -0.027571 55089.600000 0 0 1
17.415837 31.029945 5.135888 35.951998 1.059350 1.427452 0.042180 -0.027259 -334937.000000 0 0 1
17.554537 32.540245 5.202888 37.337640 1.076072 1.430994 0.053857 -0.026625 765914.000000 0 0 1
16.262237 33.046345 5.548988 37.246644 1.113485 1.421260 0.057595 -0.018612 535908.000000 0 0 1
16.320137 -34.269624 5.534688 38.358660 -1.126347 1.426003 0.060694 -0.024042 1472810.000000 0 0 1
14.869537 -33.591224 5.732988 37.179842 -1.154062 1.415983 0.058695 -0.020788 1461970.000000 0 0 1
13.987837 -33.962324 4.717588 37.031807 -1.180105 1.443056 0.044262 -0.005457 -1513750.000000 0 0 1
12.885737 -33.155424 4.810288 35.895170 -1.200116 1.436383 0.034184 -0.004002 -685187.000000 0 0 1
12.148137 -32.960024 3.428988 35.294453 -1.217673 1.473489 0.027333 0.002373 329617.000000 0 0 1
11.055537 -32.058624 3.525788 34.094156 -1.238713 1.467198 0.029850 -0.005349 9304.630000 0 0 1
10.545437 -31.743924 2.272888 33.526840 -1.250063 1.502951 0.027939 -0.002067 -1433300.000000 0 0 1
9.484937 -30.683724 2.379488 32.204300 -1.270994 1.496842 0.030425 -0.002867 -457573.000000 0 0 1
8.959737 -30.166424 1.135488 31.489353 -1.282085 1.534729 0.040797 0.004889 111406.000000 0 0 1
8.062937 -31.066824 0.488688 32.099803 -1.316864 1.555572 0.038188 -0.005118 -633249.000000 0 0 1
8.471037 -31.700124 -0.930412 32.825631 -1.309674 1.599144 0.052237 -0.010581 -418914.000000 0 0 1
9.590637 -32.537824 -0.841912 33.932273 -1.284160 1.595610 0.050435 -0.013073 -398329.000000 0 0 1
9.676837 -33.368324 -1.923112 34.796330 -1.288538 1.626092 0.057835 -0.010578 -215320.000000 0 0 1
10.934437 -34.245024 -1.981612 36.002922 -1.261728 1.625864 0.038782 -0.001273 -119478.000000 0 0 1
10.961937 33.548145 -0.903012 35.305205 1.254980 1.596376 0.029804 0.000789 -415011.000000 0 0 1
12.175437 32.869845 -0.992112 35.066398 1.216053 1.599093 0.025792 -0.001958 -564790.000000 0 0 1
12.370237 31.876345 0.137288 34.192733 1.200617 1.566781 0.025892 -0.001668 -1018490.000000 0 0 1
12.569237 32.326045 1.495488 34.715924 1.199959 1.527705 0.015457 0.001774 696406.000000 0 0 1
13.841837 32.903645 1.865988 35.745324 1.172592 1.518570 0.026691 0.000984 1016200.000000 0 0 1
15.010137 31.855545 1.797888 35.260634 1.130458 1.519786 0.034518 -0.006748 -506977.000000 0 0 1
15.349637 31.474945 0.493588 35.021809 1.117055 1.556702 0.033164 -0.009541 -17249.600000 0 0 1
16.154737 30.269845 0.506288 34.314652 1.080561 1.556042 0.044409 -0.006546 169737.000000 0 0 1
16.914337 29.890345 -0.796412 34.353483 1.055843 1.593981 0.041589 -0.010623 238325.000000 0 0 1
17.980237 30.788945 -1.068912 35.670585 1.042237 1.600767 0.032239 -0.003078 -13370.700000 0 0 1
17.593537 31.962945 -1.705212 36.524925 1.067619 1.617500 0.039962 -0.006020 -516808.000000 0 0 1
18.854137 32.644345 -2.220912 37.763265 1.047039 1.629642 0.031106 0.002204 -265792.000000 0 0 1
19.792637 33.074245 -1.275512 38.565283 1.031532 1.603876 0.023767 0.004867 -104024.000000 0 0 1
20.724937 33.943345 -1.915412 39.816359 1.022638 1.618921 0.026399 0.005236 -1205200.000000 0 0 1
21.818337 -34.288124 -0.978012 40.653067 -1.004096 1.594856 0.030593 0.007213 -51322.000000 0 0 1
22.903037 33.531645 -0.649612 40.612095 0.971552 1.586793 0.028724 0.012517 1380760.000000 0 0 1
23.636437 32.837945 -1.685512 40.495095 0.946911 1.612431 0.043469 0.007737 -380713.000000 0 0 1
24.418437 33.740145 -2.660112 41.734082 0.944327 1.634579 0.036906 0.003797 -1436720.000000 0 0 1
23.622037 -34.350124 -3.633812 41.846580 -0.968384 1.657742 0.039492 -0.007506 225614.000000 0 0 1
24.367037 -33.649924 -4.642112 41.804535 -0.944056 1.682069 0.041425 -0.008074 212147.000000 0 0 1
23.481537 -33.138424 -5.835312 41.031557 -0.954329 1.713495 0.041069 -0.015962 309684.000000 0 0 1
22.439237 -32.240024 -5.465612 39.658687 -0.962756 1.709053 0.051895 -0.009337 374045.000000 0 0 1
21.997637 -31.682924 -6.692212 39.147023 -0.963902 1.742591 0.059373 -0.014124 -73977.000000 0 0 1
21.009237 -30.485924 -6.615612 37.610450 -0.967392 1.747615 0.075120 -0.012826 -517177.000000 0 0 1
19.711637 -30.896224 -6.354812 37.195550 -1.002907 1.742487 0.068944 -0.003379 -728701.000000 0 0 1
18.806737 -29.789424 -6.464312 35.817461 -1.007663 1.752270 0.064618 -0.009148 514864.000000 0 0 1
17.711637 -29.835024 -5.360712 35.107948 -1.035057 1.724088 0.045940 0.002114 -139577.000000 0 0 1
16.612337 -30.646024 -5.635112 35.311514 -1.074061 1.731064 0.038830 0.000400 -847617.000000 0 0 1
15.557437 -30.279824 -4.790212 34.378013 -1.096179 1.710591 0.004491 0.009170 797833.000000 0 0 1
14.291437 -31.233724 -5.022112 34.713287 -1.141670 1.715980 0.008405 0.008625 705450.000000 0 0 1
14.482837 -32.591724 -4.660612 35.967963 -1.152633 1.700738 0.020240 0.009704 -16320.500000 0 0 1
13.429437 -33.432024 -5.120212 36.390474 -1.188831 1.711967 0.037419 0.004857 36522.400000 0 0 1
13.742937 33.824845 -5.133512 36.869247 1.184873 1.710486 0.036069 -0.006770 -280210.000000 0 0 1
13.868637 33.248345 -3.858012 36.230868 1.175617 1.677483 0.033562 -0.006943 -76773.500000 0 0 1
14.263837 31.868145 -3.854712 35.126834 1.149949 1.680755 0.039089 -0.011609 -142225.000000 0 0 1
13.241237 30.785045 -4.284312 33.784681 1.164598 1.697951 0.046530 -0.016576 -231796.000000 0 0 1
12.236037 30.503045 -3.361212 33.037162 1.189306 1.672713 0.036316 -0.017184 -233954.000000 0 0 1
12.543337 29.296145 -2.669212 31.980058 1.166255 1.654358 0.030894 -0.014930 179956.000000 0 0 1
11.258237 28.510445 -2.285012 30.737837 1.194711 1.645204 0.027023 -0.008823 467209.000000 0 0 1
10.628537 29.140045 -1.171312 31.039974 1.221051 1.608541 0.024123 -0.007397 113851.000000 0 0 1
9.362037 28.567945 -0.872712 30.075519 1.254114 1.599818 0.018894 -0.004777 194802.000000 0 0 1
8.954437 28.959345 0.612588 30.318325 1.270914 1.550590 0.006177 0.013355 276416.000000 0 0 1
7.846437 28.294545 1.195288 29.386673 1.300281 1.530111 0.008115 0.003314 362376.000000 0 0 1
6.860437 29.238245 1.619588 30.075964 1.340326 1.516920 0.034113 0.004814 -322438.000000 0 0 1
5.557537 28.706745 2.166288 29.319894 1.379565 1.496844 0.036671 -0.006387 -512314.000000 0 0 1
4.870137 27.856645 1.290388 28.308585 1.397717 1.525198 0.030277 -0.010630 -173737.000000 0 0 1
3.683337 27.411145 1.912188 27.723533 1.437223 1.501768 0.034435 -0.013309 304720.000000 0 0 1
2.786637 26.510945 0.989788 26.675367 1.466068 1.533683 0.032143 -0.019043 150778.000000 0 0 1
1.675737 25.847745 1.541988 25.947865 1.506056 1.511335 0.026372 -0.016368 -102462.000000 0 0 1
1.225337 24.912845 0.586388 24.949852 1.521651 1.547292 0.008403 -0.006329 393421.000000 0 1 0
-0.130563 24.198345 0.902488 24.215520 -1.565401 1.533519 0.008576 -0.005871 473108.000000 0 1 0
-1.252663 25.024745 0.688688 25.065540 -1.520781 1.543317 0.014938 -0.012534 -1693390.000000 0 0 1
-2.318663 24.386245 1.206288 24.525910 -1.476001 1.521592 0.020488 -0.005281 -934239.000000 0 1 0
-3.588563 25.302845 1.400688 25.594407 -1.429911 1.516043 0.045067 -0.023688 -57680.900000 0 0 1
-4.544263 24.523845 2.084688 25.028288 -1.387575 1.487406 0.037218 -0.021955 615193.000000 0 0 1
-5.811163 25.103545 2.419188 25.880688 -1.343315 1.477185 0.041128 -0.022341 629636.000000 0 0 1
-6.838363 25.429445 1.367088 26.368329 -1.308096 1.518927 0.044612 -0.023126 -847671.000000 0 0 1
-6.581263 26.664945 0.707188 27.474213 -1.328819 1.545053 0.045500 -0.025746 -119288.000000 0 0 1
-7.412163 26.805445 -0.409712 27.814383 -1.301020 1.585527 0.034976 -0.017442 -718779.000000 0 0 1
-7.045263 28.013045 -1.279512 28.913726 -1.324407 1.615064 0.025284 -0.012024 -189146.000000 0 0 1
-7.434963 29.292045 -0.808712 30.231714 -1.322224 1.597550 0.030164 -0.024233 -278967.000000 0 0 1
-7.424063 30.170245 -1.890612 31.127717 -1.329518 1.631571 0.025629 -0.016221 -21571.200000 0 0 1
-7.592563 31.648945 -1.500112 32.581483 -1.335346 1.616854 0.015484 -0.014726 -421017.000000 0 0 1
-7.814563 32.620545 -2.532612 33.638987 -1.335668 1.646156 0.008473 0.001575 -310520.000000 0 0 1
-6.787763 32.860745 -3.454912 33.731864 -1.367100 1.673399 0.005849 -0.001145 -9192.800000 0 0 1
-5.443263 33.439745 -2.962112 34.009112 -1.409433 1.658004 0.015134 -0.006771 -243965.000000 0 0 1
-5.497363 -33.926024 -2.549812 34.462990 1.410153 1.644851 0.016124 -0.002954 92805.300000 0 0 1
-4.353863 -33.677924 -1.746212 34.003058 1.442230 1.622173 0.027369 -0.007938 233794.000000 0 0 1
-4.185063 -32.128124 -1.785212 32.448700 1.441264 1.625841 0.038550 -0.010188 -36797.700000 0 0 1
-5.329163 -31.444524 -1.355912 31.921726 1.402913 1.613285 0.024781 -0.000359 -361134.000000 0 0 1
-5.140763 -30.034124 -1.631412 30.514547 1.401275 1.624285 0.033343 0.001538 -161993.000000 0 0 1
-6.430063 -29.217524 -1.534412 29.956032 1.354174 1.622041 0.045799 0.003958 -216887.000000 0 0 1
-6.761863 -29.004624 -0.172012 29.782891 1.341757 1.576572 0.031610 0.001267 -701827.000000 0 0 1
-8.008063 -28.385324 -0.142512 29.493661 1.295823 1.575628 0.024687 -0.000905 -447382.000000 0 0 1
-8.384363 -27.828624 1.250588 29.091130 1.278161 1.527794 0.017815 0.002831 -272263.000000 0 0 1
-7.314063 -27.163824 1.852988 28.192240 1.307777 1.505022 0.039530 -0.007541 -523946.000000 0 0 1
-7.556763 -26.724124 3.167388 27.952027 1.295221 1.457237 0.030463 -0.006916 463718.000000 0 0 1
-8.595663 -25.551224 3.303488 27.159961 1.246280 1.448864 0.032141 -0.004672 662828.000000 0 0 1
-8.053963 -24.243224 3.090788 25.732338 1.250053 1.450393 0.039684 -0.011827 -537520.000000 0 0 1
-9.021063 -23.305824 3.423588 25.224234 1.201483 1.434650 0.040838 -0.015325 -210675.000000 0 0 1
-8.348063 -21.960524 3.826088 23.803229 1.207527 1.409358 0.020626 0.005451 423154.000000 0 1 0
-7.596963 -22.045324 5.020488 23.851949 1.238934 1.358725 0.016766 0.005881 -634654.000000 0 1 0
-7.048563 -20.797824 5.315888 22.594034 1.244036 1.333291 0.005375 0.006945 185612.000000 0 1 0
-8.010863 -19.761724 5.983088 22.147167 1.185667 1.297246 0.007486 0.001615 309485.000000 0 1 0
-8.574263 -20.069524 7.235888 22.992648 1.167040 1.250651 0.014444 -0.000019 -113174.000000 0 1 0
-9.279163 -18.974324 7.778588 22.508538 1.115957 1.217935 0.003079 -0.004365 -554095.000000 0 1 0
-27.084393 28.862145 -5.427412 39.950526 -0.817163 1.707071 0.060405 -0.015338 60816.400000 0 0 1
-26.279393 29.738445 -4.648912 39.957402 -0.847069 1.687407 0.049574 -0.023427 46300.700000 0 0 1
-25.152703 29.080645 -4.106312 38.667870 -0.857699 1.677191 0.040540 -0.021298 182684.000000 0 0 1
-24.220963 30.022645 -3.326612 38.717962 -0.891949 1.656821 0.027359 -0.015336 -139728.000000 0 0 1
-24.721863 30.307845 -2.006612 39.163279 -0.886560 1.622056 0.013821 -0.016267 441106.000000 0 0 1
-24.105663 31.480145 -1.406212 39.674424 -0.917296 1.606248 0.012120 -0.012590 142145.000000 0 0 1
-22.770563 31.244145 -0.666212 38.667026 -0.941005 1.588027 0.014234 -0.017499 -385468.000000 0 0 1
-21.754863 30.868545 -1.540612 37.795695 -0.956884 1.611569 0.023885 -0.024891 -298044.000000 0 0 1
-20.569163 30.589545 -0.790112 36.870516 -0.978818 1.592227 0.026548 -0.029854 250151.000000 0 0 1
-19.384463 30.139345 -1.641812 35.872455 -0.999244 1.616580 0.046606 -0.027444 -501919.000000 0 0 1
-18.126063 30.236745 -1.055412 35.269374 -1.030766 1.600725 0.046990 -0.025821 -246482.000000 0 0 1
-17.163563 29.351345 -1.646212 34.041142 -1.041656 1.619175 0.045884 -0.024646 638332.000000 0 0 1
-15.738763 29.665245 -1.116612 33.600330 -1.083012 1.604035 0.048647 -0.021608 139752.000000 0 0 1
-15.412463 29.138545 0.185888 32.964122 -1.084268 1.565157 0.039957 -0.028620 -403049.000000 0 0 1
-14.303863 29.788945 0.723988 33.053076 -1.123135 1.548891 0.038045 -0.030154 -436662.000000 0 0 1
-13.839963 29.140945 2.001688 32.322530 -1.127404 1.508828 0.032415 -0.031799 -510844.000000 0 0 1
-14.809363 29.159945 3.019188 32.844103 -1.100875 1.478742 0.022532 -0.022341 -433091.000000 0 0 1
-14.484163 28.405045 4.182388 32.157890 -1.099248 1.440369 0.019260 -0.029811 603059.000000 0 0 1
-13.379263 28.973245 5.162588 32.328097 -1.138190 1.410416 0.034211 -0.026861 313036.000000 0 0 1
-13.713063 30.211645 5.745488 33.671979 -1.144704 1.399326 0.020018 -0.028660 -286257.000000 0 0 1
-13.265963 31.316645 5.034988 34.381232 -1.170106 1.423822 0.030703 -0.027694 -126878.000000 0 0 1
-12.949763 32.585245 5.837688 35.546774 -1.192523 1.405824 0.030997 -0.019075 269361.000000 0 0 1
-14.103263 33.220645 6.407288 36.654694 -1.169321 1.395092 0.025262 -0.007356 411025.000000 0 0 1
-13.852563 34.356245 7.116488 37.721207 -1.187531 1.380999 0.041710 -0.019100 854723.000000 0 0 1
-15.082863 -34.081824 8.080988 38.136149 1.154156 1.357279 0.038753 -0.008497 894652.000000 0 0 1
-15.077863 33.916045 9.307288 38.265724 -1.152472 1.325104 0.030629 -0.010824 -587647.000000 0 0 1
-16.351563 33.891345 9.863488 38.900967 -1.121271 1.314444 0.045578 -0.014897 -1058490.000000 0 0 1
-16.459663 33.240245 11.246088 38.759629 -1.111018 1.276413 0.051121 -0.014738 27558.600000 0 0 1
-15.668263 33.785345 12.266788 39.209923 -1.136559 1.252605 0.059421 -0.022777 -1363030.000000 0 0 1
-14.366963 33.344045 12.272188 38.325468 -1.163964 1.244845 0.048083 -0.015560 -1442220.000000 0 0 1
-13.689963 33.702245 13.607088 38.838244 -1.184954 1.212849 0.058824 -0.014019 -240450.000000 0 0 1
-14.061563 32.966045 14.778588 38.767180 -1.167616 1.179687 0.055088 -0.016919 -245517.000000 0 0 1
-13.281863 31.838845 15.048188 37.637320 -1.175586 1.159475 0.037702 -0.009467 -296665.000000 0 0 1
-13.880163 30.496845 14.403788 36.471709 -1.143681 1.164804 0.032239 -0.021318 169057.000000 0 0 1
-13.826163 30.474145 13.005088 35.902208 -1.144869 1.200130 0.025115 -0.019897 945049.000000 0 0 1
-15.046263 29.821045 12.599888 35.699326 -1.103514 1.210080 0.013299 -0.025979 848255.000000 0 0 1
-15.193963 29.753945 11.067988 35.194518 -1.098662 1.250887 0.008677 -0.014262 165901.000000 0 0 1
-14.352763 28.772145 10.490488 33.821420 -1.108075 1.255421 -0.000733 -0.012090 440413.000000 0 0 1
-14.781663 28.652745 9.101988 33.501097 -1.094518 1.295645 0.001461 -0.004337 -44947.600000 0 0 1
-14.313863 27.314345 8.500888 31.987891 -1.088101 1.301811 0.003129 -0.008273 -432596.000000 0 0 1
-13.008563 27.362345 8.016988 31.339954 -1.127007 1.312114 0.027494 -0.015303 -548652.000000 0 0 1
-12.480663 26.074245 7.904388 29.968525 -1.124367 1.303882 0.029373 -0.021917 -202993.000000 0 0 1
-11.139863 26.046645 7.156988 29.218944 -1.166650 1.323335 0.057659 -0.031288 -269419.000000 0 0 1
-11.288163 26.338245 5.776188 29.231662 -1.165894 1.371887 0.056260 -0.034606 900721.000000 0 0 1
-10.085063 26.099045 5.017688 28.426146 -1.202056 1.393350 0.073111 -0.029871 682643.000000 0 0 1
-10.331163 26.463645 3.542188 28.628735 -1.198601 1.446750 0.055184 -0.030830 88343.000000 0 0 1
-10.138363 27.836045 3.285788 29.806512 -1.221513 1.460335 0.054288 -0.026782 -20846.800000 0 0 1
-10.218463 28.150845 1.929688 30.010177 -1.222597 1.506451 0.044569 -0.024504 -169656.000000 0 0 1
-9.809163 29.600645 1.613088 31.225308 -1.250802 1.519114 0.049733 -0.024486 303518.000000 0 0 1
-10.686863 30.640545 2.020988 32.513634 -1.235207 1.508598 0.040334 -0.031493 -95824.000000 0 0 1
-10.057163 31.846745 1.739288 33.442290 -1.264909 1.518764 0.029307 -0.024556 -246674.000000 0 0 1
-10.743563 33.077245 2.357188 34.858063 -1.256743 1.503122 0.025176 -0.014028 54249.300000 0 0 1
-12.075663 33.244445 1.924288 35.421993 -1.222377 1.516445 0.042174 -0.018345 -249189.000000 0 0 1
-12.076463 34.222545 0.923188 36.302559 -1.231558 1.545363 0.040143 -0.017165 410533.000000 0 0 1
-13.512963 -33.952324 0.647988 36.548329 1.192017 1.553066 0.053476 -0.019448 1338920.000000 0 0 1
-14.458063 33.856545 0.015788 36.814419 -1.167200 1.570367 0.055111 -0.022498 265936.000000 0 0 1
-14.498163 33.962045 -1.426412 36.954727 -1.167323 1.609405 0.049602 -0.017517 -711787.000000 0 0 1
-13.372363 33.671145 -2.408212 36.309304 -1.192753 1.637170 0.041479 -0.015390 -501980.000000 0 0 1
-13.121763 32.278845 -2.368512 34.924409 -1.184688 1.638667 0.038151 -0.013185 686242.000000 0 0 1
-11.710763 31.986745 -2.335912 34.143085 -1.219840 1.639265 0.027547 -0.002908 892711.000000 0 0 1
-11.322763 30.481445 -2.290912 32.597112 -1.215129 1.641134 0.014998 -0.003384 -96248.700000 0 0 1
-11.328163 29.810645 -3.522012 32.084363 -1.207646 1.680791 0.017060 -0.006451 333126.000000 0 0 1
-10.199063 29.976345 -4.397912 31.967855 -1.242845 1.708807 0.011489 0.001679 387935.000000 0 0 1
-10.471763 29.342345 -5.800212 31.690274 -1.228004 1.754862 0.022000 0.001348 71854.600000 0 0 1
-10.760863 27.954445 -5.780712 30.506782 -1.203337 1.761438 0.022256 0.006386 -52889.700000 0 0 1
-10.728163 27.385445 -7.114212 30.260008 -1.197425 1.808121 0.018093 0.011309 -128631.000000 0 0 1
-11.142763 25.958545 -7.311512 29.179880 -1.165330 1.824062 0.033586 0.009702 -74091.600000 0 0 1
-10.471663 25.030545 -6.532312 27.907973 -1.174567 1.807054 0.009304 0.012390 -81415.900000 0 0 1
-11.087263 23.763345 -6.773612 27.083312 -1.134249 1.823583 0.026917 0.007685 103984.000000 0 0 1
-10.544263 22.705345 -5.858812 25.710695 -1.136036 1.800691 0.030252 0.003094 -179244.000000 0 0 1
-9.208163 22.273945 -6.042812 24.848228 -1.178787 1.816448 0.047064 -0.003786 173285.000000 0 1 0
-8.841763 21.031945 -5.382512 23.441222 -1.172831 1.802481 0.057699 -0.007741 -42752.500000 0 1 0
-8.781363 21.074445 -3.807312 23.146062 -1.175991 1.736038 0.044010 -0.008328 -900518.000000 0 1 0
-9.951163 20.852345 -3.109012 23.313341 -1.125538 1.704552 0.053239 -0.013384 -810277.000000 0 1 0
-10.325663 19.476145 -2.967012 22.242812 -1.083305 1.704587 0.057847 -0.021320 703608.000000 0 1 0
-11.621963 19.383445 -2.048512 22.693266 -1.030684 1.661189 0.052898 -0.017609 619026.000000 0 1 0
-11.535663 19.416445 -0.617712 22.593172 -1.034713 1.598140 0.053894 -0.019972 226590.000000 0 1 0
-10.959963 18.176345 -0.110012 21.225277 -1.028189 1.575979 0.042616 -0.013332 35282.400000 0 1 0
-10.744663 18.339945 1.398788 21.301595 -1.040838 1.505083 0.036879 -0.017309 -930836.000000 0 1 0
-11.886963 18.247945 2.156188 21.884618 -0.993428 1.472111 0.049291 -0.023856 -747106.000000 0 1 0
-11.652463 18.644045 3.444188 22.254049 -1.012200 1.415405 0.044018 -0.010144 160011.000000 0 1 0
-12.950563 18.672545 4.295188 23.126384 -0.964404 1.383985 0.047914 -0.017175 342849.000000 0 1 0
-13.332863 17.356145 4.617888 22.367965 -0.915753 1.362850 0.027606 -0.021760 171483.000000 0 1 0
-14.613063 17.266745 5.220088 23.214896 -0.868447 1.343998 0.041643 -0.027290 279939.000000 0 1 0
-14.965663 15.831945 5.666988 22.510803 -0.813519 1.316313 0.027733 -0.027212 -302365.000000 0 1 0
-14.241163 15.360545 6.814788 22.027219 -0.823195 1.256255 0.020542 -0.017841 -410358.000000 0 1 0
-14.716563 15.913145 8.020688 23.111400 -0.824444 1.216378 0.025007 -0.018491 -1131740.000000 0 1 0
-13.680663 15.676645 9.156488 22.732333 -0.853283 1.156227 0.017030 -0.010007 841828.000000 0 1 0
-12.491663 16.456745 8.973688 22.525389 -0.921522 1.161045 0.016172 -0.018213 606732.000000 0 1 0
-11.666263 16.124145 7.829288 21.386619 -0.944454 1.196000 0.019061 -0.016673 -1409240.000000 0 1 0
-10.650163 17.269745 7.590088 21.662859 -1.018192 1.212827 0.036730 -0.019875 351045.000000 0 1 0
-9.535963 17.217145 8.479188 21.430382 -1.064991 1.164008 0.029030 -0.019037 31633.400000 0 1 0
-8.884263 18.468345 8.594488 22.223301 -1.122420 1.173710 0.031893 -0.018896 344225.000000 0 1 0
-7.652863 18.361245 9.571188 22.075082 -1.175896 1.122341 0.033362 -0.016589 394395.000000 0 1 0
-6.635063 17.589045 8.935388 20.814411 -1.210075 1.127091 0.028613 -0.010680 -171386.000000 0 1 0
-5.394763 17.660345 9.612888 20.818233 -1.274326 1.090826 0.026859 -0.014607 552072.000000 0 1 0
-4.437563 18.801845 9.136888 21.370167 -1.339020 1.129012 0.028152 -0.013282 -983890.000000 0 1 0
-4.838563 20.152345 9.391988 22.753859 -1.335158 1.145309 0.037111 -0.017744 -619882.000000 0 1 0
-4.256263 21.185345 8.739088 23.308931 -1.372530 1.186481 0.043667 -0.021853 -499917.000000 0 1 0
-2.774963 21.570445 8.873388 23.488753 -1.442853 1.183408 0.041188 -0.019766 -57372.400000 0 1 0
-1.831963 20.666045 8.337188 22.359566 -1.482381 1.188697 0.026309 -0.011373 182722.000000 0 1 0
-0.623063 21.391645 8.070788 22.871998 -1.541678 1.210162 0.016595 -0.014546 1051130.000000 0 1 0
0.681537 20.519745 8.072488 22.061039 1.537595 1.196179 0.002794 -0.005055 432988.000000 0 1 0
1.090937 20.170945 9.366988 22.266513 1.516764 1.136606 0.001332 0.003494 -980246.000000 0 1 0
2.204637 19.354645 9.152288 21.522710 1.457378 1.131571 -0.001733 -0.012741 -685473.000000 0 1 0
2.930837 19.222445 10.515588 22.105876 1.419492 1.075046 -0.004378 -0.014576 -156086.000000 0 1 0
3.752937 18.027845 10.598588 21.246594 1.365553 1.048540 0.011123 -0.014472 496589.000000 0 1 0
4.366537 17.927545 11.897188 21.954648 1.331882 0.998102 0.003557 -0.009026 999607.000000 0 1 0
5.890237 18.320345 11.862988 22.606645 1.259721 1.018367 0.024033 -0.011763 463861.000000 0 1 0
6.737237 17.487445 11.135988 21.799342 1.203060 1.034634 0.015656 -0.012177 12099.200000 0 1 0
7.610637 16.701845 11.952488 21.902862 1.143232 0.993567 0.021853 -0.009654 177426.000000 0 1 0
8.769737 16.042545 11.149188 21.414386 1.070525 1.023196 0.028231 -0.016935 13937.400000 0 1 0
9.682037 16.969445 10.662888 22.257607 1.052307 1.071205 0.041545 -0.028723 186117.000000 0 1 0
10.824037 16.390945 10.037288 22.058331 0.987168 1.098386 0.038916 -0.030474 581783.000000 0 1 0
12.003737 17.318445 9.661988 23.181291 0.964704 1.140873 0.046569 -0.021169 860122.000000 0 1 0
13.104237 16.692645 8.965388 23.037873 0.905250 1.171078 0.039254 -0.019701 183457.000000 0 1 0
14.004637 17.673845 8.562688 24.120826 0.900711 1.207891 0.035917 -0.019295 -353131.000000 0 1 0
14.997737 17.138045 7.526688 23.985323 0.851902 1.251600 0.028300 -0.026690 -116131.000000 0 1 0
16.069637 16.355545 7.997788 24.283774 0.794215 1.235184 0.043107 -0.025235 -66478.800000 0 1 0
17.106737 16.326345 7.056688 24.677658 0.762060 1.280794 0.073234 -0.017548 -559356.000000 0 1 0
18.495937 15.959445 7.587688 25.580785 0.711914 1.269648 0.047401 -0.018544 -488807.000000 0 0 1
18.567737 14.752945 8.286688 25.121294 0.671407 1.234634 0.043792 -0.017796 502248.000000 0 0 1
19.486237 14.889845 9.381688 26.257132 0.652478 1.205420 0.035304 -0.007852 207317.000000 0 0 1
19.569837 13.648245 10.276688 25.978133 0.608987 1.164086 0.030638 -0.008068 -361681.000000 0 0 1
20.420137 12.695045 9.714188 25.932829 0.556217 1.186841 0.045674 -0.013134 149395.000000 0 0 1
20.601337 11.487745 10.492988 25.816393 0.508676 1.152235 0.057240 -0.018481 -815800.000000 0 0 1
21.659037 10.556745 9.963088 26.073394 0.453522 1.178710 0.056635 -0.010241 -2168280.000000 0 0 1
22.965537 10.967545 10.198988 27.417554 0.445539 1.189647 0.040059 -0.015059 397309.000000 0 0 1
23.853637 10.154745 9.364188 27.564522 0.402472 1.224178 0.057518 -0.013854 -96229.400000 0 0 1
24.185537 8.730345 9.792788 27.514684 0.346417 1.206907 0.080010 -0.029478 -731778.000000 0 0 1
23.133237 7.788345 9.556488 26.213192 0.324754 1.197628 0.077165 -0.028263 697146.000000 0 0 1
23.257937 6.460845 10.041188 26.143825 0.270959 1.176591 0.067620 -0.030460 160388.000000 0 0 1
24.379037 5.661645 9.239488 26.678827 0.228189 1.217148 0.085727 -0.034976 840674.000000 0 0 1
24.031737 5.407645 7.909888 25.871477 0.221334 1.260083 0.093644 -0.030902 -214463.000000 0 0 1
25.114137 4.901745 7.216488 26.586175 0.192755 1.295910 0.102069 -0.032337 -451784.000000 0 0 1
24.763137 4.903445 5.673188 25.873573 0.195485 1.349735 0.111357 -0.035688 -162749.000000 0 0 1
23.717437 3.996045 5.413588 24.653441 0.166918 1.349405 0.103200 -0.035170 427353.000000 0 1 0
23.632737 3.677045 4.054088 24.258247 0.154354 1.402886 0.104454 -0.030818 42738.300000 0 1 0
22.526437 2.609745 3.776288 22.989378 0.115338 1.405786 0.093566 -0.020905 89679.900000 0 1 0
22.795137 1.324945 4.354588 23.245133 0.058059 1.382350 0.074945 -0.021641 681437.000000 0 1 0
21.881237 0.313145 3.911388 22.230285 0.014310 1.393927 0.047767 -0.016751 75997.900000 0 1 0
22.424437 -1.118655 4.199188 22.841628 -0.049844 1.385905 0.052926 -0.017102 -486793.000000 0 1 0
22.488437 -1.478255 5.561788 23.213111 -0.065640 1.328846 0.057774 -0.017375 701877.000000 0 1 0
22.495037 -2.898155 5.730988 23.393807 -0.128130 1.323298 0.043572 -0.016813 -532196.000000 0 1 0
22.291237 -3.183255 7.245388 23.654345 -0.141844 1.259490 0.058399 -0.012249 -261153.000000 0 1 0
22.423637 -4.527455 7.567288 24.095253 -0.199227 1.251333 0.054426 -0.015943 640073.000000 0 1 0
22.314037 -4.761055 8.981088 24.520274 -0.210214 1.195797 0.069328 -0.015359 -413493.000000 0 1 0
22.264337 -6.284855 9.396188 24.969751 -0.275125 1.184994 0.088886 -0.020826 252848.000000 0 1 0
20.954237 -6.768055 9.131588 23.838467 -0.312415 1.177689 0.085573 -0.009734 655866.000000 0 1 0
20.818837 -8.135155 9.465988 24.273641 -0.372515 1.170198 0.092682 -0.017445 26736.400000 0 1 0
-25.729023 -33.266224 5.218588 42.377564 0.912469 1.447338 0.035444 -0.020697 -581434.000000 0 0 1
-26.745473 -34.130924 5.561488 43.716935 0.906127 1.443235 0.029166 -0.025328 -383107.000000 0 0 1
-26.824193 -34.008124 6.968788 43.870877 0.902948 1.411273 0.027014 -0.015335 -167410.000000 0 0 1
-27.441623 33.485945 7.657188 43.965710 -0.884280 1.395741 0.035119 -0.015698 -146109.000000 0 0 1
-28.831843 33.460245 7.436088 44.790161 -0.859563 1.404003 0.041072 -0.020531 -333716.000000 0 0 1
-29.380163 32.243545 7.921588 44.334994 -0.831830 1.391156 0.038043 -0.018805 61214.800000 0 0 1
-30.918313 32.259145 7.866988 45.370519 -0.806618 1.396521 0.043833 -0.018526 -91448.200000 0 0 1
-31.543943 32.269245 6.610688 45.607298 -0.796764 1.425336 0.032142 -0.018333 299148.000000 0 0 1
-32.959323 32.252945 6.801888 46.613679 -0.774567 1.424353 0.020481 -0.013312 683461.000000 0 0 1
-33.752863 32.324845 5.453588 47.052024 -0.763790 1.454630 0.015310 -0.004905 -118257.000000 0 0 1
-33.661693 31.060045 4.836588 46.056796 -0.745222 1.465589 0.017778 -0.006735 485208.000000 0 0 1
-34.348820 31.001345 3.545188 46.405745 -0.734219 1.494326 0.028975 0.007976 246893.000000 0 0 1
-33.982803 29.735345 2.751388 45.239272 -0.718837 1.509940 0.038634 -0.002593 -151791.000000 0 0 1
-34.414611 28.504545 3.320288 44.809584 -0.691742 1.496631 0.046127 -0.011037 123451.000000 0 0 1
-34.073054 27.359145 2.606988 43.775474 -0.676540 1.511207 0.048803 -0.016497 -487407.000000 0 0 1
-34.242544 25.984645 3.332488 43.114487 -0.649135 1.493425 0.052016 -0.016873 276494.000000 0 0 1
-35.645087 25.719345 3.358788 44.083311 -0.625036 1.494531 0.060433 -0.013766 350737.000000 0 0 1
35.629150 24.584945 4.101988 43.481975 0.603999 1.476318 0.062180 -0.007153 386620.000000 0 0 1
34.133030 24.210045 3.952488 42.033464 0.616930 1.476625 0.075857 -0.009131 353241.000000 0 0 1
33.613750 23.487345 2.785588 41.101083 0.609881 1.502970 0.064322 -0.020267 145976.000000 0 0 1
34.053880 22.207745 2.665588 40.742558 0.577875 1.505324 0.060495 -0.015218 -1026810.000000 0 0 1
33.030630 21.332345 1.957088 39.369044 0.573442 1.521065 0.068275 -0.024858 -369275.000000 0 0 1
31.861750 21.062245 2.728288 38.291419 0.584105 1.499485 0.061846 -0.035744 304657.000000 0 0 1
31.886140 20.066545 3.727688 37.858787 0.561699 1.472174 0.047344 -0.016685 -402131.000000 0 0 1
32.456240 18.679745 3.377488 37.599837 0.522237 1.480848 0.048195 -0.027450 -775130.000000 0 0 1
31.630150 18.121445 2.423288 36.533895 0.520267 1.504418 0.050303 -0.038344 43693.200000 0 0 1
31.792530 16.729645 2.139788 35.989230 0.484397 1.511305 0.045306 -0.036525 -417151.000000 0 0 1
31.080340 15.792645 3.149188 35.004464 0.470125 1.480709 0.059258 -0.036155 -564164.000000 0 0 1
29.687000 15.805845 3.025088 33.768237 0.489243 1.481092 0.058140 -0.023711 -183823.000000 0 0 1
29.043490 14.813845 3.827088 32.827136 0.471661 1.453948 0.056175 -0.031072 -282525.000000 0 0 1
27.521240 14.946145 3.862888 31.555154 0.497512 1.448071 0.036175 -0.017541 -463007.000000 0 0 1
26.831810 14.625445 2.686088 30.676778 0.499057 1.483123 0.036851 -0.020604 -500033.000000 0 0 1
25.757870 15.482045 2.507488 30.157073 0.541199 1.487553 0.011139 -0.004448 -692758.000000 0 0 1
24.798770 15.078645 1.367488 29.055370 0.546310 1.523714 0.016439 -0.013824 -479394.000000 0 0 1
25.184770 15.297245 0.004988 29.466563 0.545843 1.570627 0.019486 -0.009673 19626.700000 0 0 1
26.288170 14.541845 -0.442612 30.045449 0.505274 1.585528 0.029625 -0.009134 -972551.000000 0 0 1
26.974990 15.344045 -1.561012 31.072923 0.517181 1.621055 0.039565 -0.011037 15158.000000 0 0 1
27.489540 16.664745 -1.188412 32.168320 0.544981 1.607748 0.042851 -0.020929 714428.000000 0 0 1
28.537160 16.639845 -0.210212 33.034801 0.527896 1.577160 0.051661 -0.021172 -398289.000000 0 0 1
29.243240 18.015545 -0.159812 34.347525 0.552144 1.575449 0.067532 -0.018920 -249768.000000 0 0 1
30.073450 18.260445 -1.267912 35.206020 0.545693 1.606818 0.056171 -0.023526 76612.500000 0 0 1
30.624680 19.560945 -1.210412 36.358859 0.568413 1.604093 0.040455 -0.017698 -196909.000000 0 0 1
30.088090 20.530945 -2.195112 36.491524 0.598789 1.630987 0.031225 -0.016077 -640292.000000 0 0 1
31.027870 21.514445 -2.503212 37.840007 0.606277 1.636997 0.004682 -0.009117 120899.000000 0 0 1
30.596510 22.424645 -3.503412 38.095735 0.632477 1.662890 0.017588 -0.005828 -490404.000000 0 0 1
31.671620 23.513345 -3.646612 39.613970 0.638626 1.662981 0.003266 0.000156 -414610.000000 0 0 1
31.811270 24.365745 -2.492712 40.147976 0.653629 1.632924 0.026413 -0.000250 304712.000000 0 0 1
32.607390 23.840545 -1.447712 40.419170 0.631321 1.606621 0.033381 0.000733 -697438.000000 0 0 1
32.517970 24.641945 -0.185512 40.800468 0.648471 1.575343 0.041184 -0.016782 56147.800000 0 0 1
33.144390 25.915745 -0.371312 42.075103 0.663609 1.579621 0.062018 -0.008715 987331.000000 0 0 1
34.355170 26.050245 0.426488 43.116990 0.648768 1.560905 0.056822 -0.012441 1120880.000000 0 0 1
35.144110 27.340745 0.073988 44.526736 0.661157 1.569135 0.048381 -0.005447 -179570.000000 0 0 1
35.804668 27.466245 -1.158012 45.140999 0.654364 1.596452 0.040722 -0.011119 -122510.000000 0 0 1
34.900450 27.625745 -2.209112 44.565719 0.669572 1.620386 0.026293 -0.014362 -369940.000000 0 0 1
35.458640 27.245945 -3.590912 44.861468 0.655165 1.650927 0.017608 -0.008177 164533.000000 0 0 1
-35.365348 28.232245 -4.174012 45.444360 -0.673705 1.662775 0.014191 -0.005576 277020.000000 0 0 1
-34.985063 27.933745 -5.516212 45.107398 -0.673794 1.693394 0.014774 -0.006316 178897.000000 0 0 1
35.568430 27.969045 -6.608512 45.728034 0.666359 1.715822 0.003427 -0.002890 649415.000000 0 0 1
34.456500 27.122645 -6.351812 44.308394 0.666860 1.714647 -0.008020 0.004291 -513293.000000 0 0 1
33.411120 27.292445 -7.240512 43.744777 0.684941 1.737079 -0.013644 -0.003440 -527766.000000 0 0 1
32.266310 26.302245 -6.918912 42.199457 0.683917 1.735497 -0.018941 0.002936 -483896.000000 0 0 1
32.317720 24.833145 -7.072612 41.365951 0.655178 1.742617 -0.025376 0.007132 -330302.000000 0 0 1
33.454630 24.255945 -6.462012 41.824881 0.627334 1.725919 -0.021199 0.005025 -201426.000000 0 0 1
33.635950 22.762545 -6.696012 41.162448 0.594939 1.734195 -0.020914 0.008623 -167843.000000 0 0 1
32.575880 22.024945 -6.108012 39.794396 0.594513 1.724895 -0.006310 0.004027 103066.000000 0 0 1
32.782200 20.622945 -6.044012 39.198323 0.561535 1.725605 0.012398 -0.000264 -530334.000000 0 0 1
31.680520 19.754245 -5.437712 37.728692 0.557553 1.715427 0.029351 -0.012164 -40958.500000 0 0 1
30.517920 19.703345 -6.252612 36.860011 0.573298 1.741252 0.020101 -0.016546 -159147.000000 0 0 1
29.443870 19.067145 -5.642312 35.529328 0.574669 1.730279 0.066881 -0.028096 -232330.000000 0 0 1
28.223160 18.850945 -6.564112 34.568663 0.588873 1.761843 0.055288 -0.030626 -81211.700000 0 0 1
28.289170 17.757545 -7.440812 34.219486 0.560550 1.789991 0.053665 -0.030205 657465.000000 0 0 1
27.113040 17.780045 -8.293412 33.466813 0.580424 1.821215 0.060614 -0.030672 789692.000000 0 0 1
26.902420 16.539945 -9.196912 32.892144 0.551240 1.854182 0.053475 -0.019085 102505.000000 0 0 1
26.267170 16.827745 -10.454612 32.900397 0.569766 1.894168 0.040678 -0.020660 214221.000000 0 0 1
26.296970 15.678545 -11.255412 32.619499 0.537629 1.923090 0.027406 -0.011072 -366309.000000 0 0 1
25.684170 15.866145 -12.619412 32.720952 0.553362 1.966728 0.025699 -0.007245 -1318110.000000 0 0 1
24.295670 15.967045 -12.547412 31.664864 0.581418 1.978232 0.026625 -0.010652 -213166.000000 0 0 1
23.617470 15.774445 -13.818112 31.584145 0.588866 2.023615 0.019268 -0.013672 -37579.400000 0 0 1
23.631370 14.323845 -14.418712 31.169110 0.544920 2.051718 0.011363 -0.009327 -338037.000000 0 0 1
24.878870 13.850445 -14.910612 32.142174 0.507984 2.053184 0.019500 -0.012085 461549.000000 0 0 1
25.192770 14.331445 -16.266712 33.236605 0.517216 2.082223 0.024950 -0.013722 -542809.000000 0 0 1
26.475670 13.763945 -16.880512 34.283509 0.479418 2.085618 0.032218 -0.003643 -225380.000000 0 0 1
26.498370 12.386945 -17.219212 33.942617 0.437279 2.102849 0.032424 -0.005015 856604.000000 0 0 1
27.825910 11.930245 -17.556312 34.997658 0.405039 2.096293 0.030593 -0.003444 1016610.000000 0 0 1
27.832450 10.454245 -18.023312 34.767460 0.359308 2.115771 0.020833 -0.000788 -82816.400000 0 0 1
27.163530 10.259645 -19.274012 34.851187 0.361135 2.156802 0.025327 -0.007584 108749.000000 0 0 1
27.408670 9.049045 -20.007012 35.119808 0.318885 2.176911 0.014756 -0.001076 -184983.000000 0 0 1
28.725430 8.972145 -20.805812 36.585947 0.302740 2.175700 0.015754 -0.003959 -597846.000000 0 0 1
28.931160 9.854245 -21.898512 37.598710 0.328285 2.192508 0.023331 -0.010273 233599.000000 0 0 1
29.573520 9.302245 -23.034312 38.622589 0.304748 2.209799 0.016520 -0.006199 360716.000000 0 0 1
31.062230 8.824745 -22.957712 39.620636 0.276806 2.188836 0.012287 -0.012006 -116247.000000 0 0 1
31.997330 9.770345 -22.575012 40.359880 0.296357 2.164389 0.013705 -0.009389 1275.650000 0 0 1
33.315950 9.251045 -22.684712 41.353724 0.270852 2.151429 0.011729 -0.005867 461951.000000 0 0 1
34.413070 10.336345 -22.537712 42.415184 0.291788 2.131001 0.024454 -0.005295 -96934.100000 0 0 1
34.507450 10.846645 -21.254312 41.954256 0.304549 2.102041 0.013053 -0.007602 226501.000000 0 0 1
35.473110 11.875745 -21.236312 43.015762 0.323053 2.087120 -0.006548 0.001176 -111363.000000 0 0 1
35.331610 12.767745 -19.959612 42.540852 0.346767 2.059166 -0.013666 0.002311 -173950.000000 0 0 1
35.586410 11.898645 -18.859412 41.995806 0.322674 2.036530 -0.008284 0.001906 308332.000000 0 0 1
35.458680 12.572145 -17.620812 41.543589 0.340729 2.008822 -0.008911 0.001001 -182712.000000 0 0 1
-35.699578 11.759645 -16.445912 41.027029 -0.318212 1.983247 -0.009463 -0.002952 -456120.000000 0 0 1
35.099920 10.735445 -16.158312 40.104179 0.296819 1.985489 -0.016829 -0.005594 503246.000000 0 0 1
35.769067 9.785345 -15.282712 40.109106 0.267036 1.961705 -0.020315 -0.011235 573049.000000 0 0 1
34.861700 8.532645 -15.134012 38.951027 0.240038 1.969842 0.022849 -0.003973 573585.000000 0 0 1
33.734510 8.697345 -14.259512 37.642989 0.252323 1.959306 0.026160 -0.004905 712397.000000 0 0 1
34.030540 8.452845 -12.896812 37.361156 0.243463 1.923241 0.030567 -0.008192 -456912.000000 0 0 1
32.959370 8.994145 -11.931712 36.188126 0.266400 1.906796 0.046396 -0.011197 -152466.000000 0 0 1
33.010840 10.407945 -11.742012 36.550181 0.305423 1.897853 0.042168 -0.011504 -76034.400000 0 0 1
32.158470 10.810745 -10.702212 35.574945 0.324302 1.876365 0.044299 -0.006586 -314085.000000 0 0 1
32.569980 10.480945 -9.269112 35.448134 0.311333 1.835355 0.064088 -0.012592 -300108.000000 0 0 1
33.597990 11.249945 -8.711312 36.486616 0.323106 1.811879 0.056681 -0.013901 -374392.000000 0 0 1
33.207160 12.513845 -8.209912 36.424091 0.360384 1.798148 0.067691 -0.018511 -606282.000000 0 0 1
33.086020 12.683645 -6.701612 36.062046 0.366074 1.757719 0.067238 -0.022377 305840.000000 0 0 1
34.344830 12.619145 -6.026512 37.082732 0.352113 1.734036 0.068582 -0.021547 598239.000000 0 0 1
34.240760 12.856545 -4.615812 36.864971 0.359187 1.696334 0.068967 -0.021769 16317.000000 0 0 1
35.646382 12.878645 -3.997412 38.111722 0.346696 1.675876 0.070508 -0.022488 -189844.000000 0 0 1
-35.270215 14.044645 -4.126512 38.187278 -0.378955 1.679068 0.067162 -0.019321 -429559.000000 0 0 1
-34.023963 13.841545 -3.522312 36.900204 -0.386370 1.666397 0.070839 -0.024622 -252214.000000 0 0 1
-33.235333 15.132345 -3.176512 36.656042 -0.427260 1.657562 0.061800 -0.028076 173548.000000 0 0 1
-33.651523 15.845545 -2.050912 37.252013 -0.440075 1.625879 0.079364 -0.029482 657634.000000 0 0 1
-32.816703 17.032345 -2.049012 37.030193 -0.478743 1.626158 0.067341 -0.023349 490571.000000 0 0 1
-33.292663 18.156445 -1.088712 37.937358 -0.499273 1.599498 0.070873 -0.022348 12619.000000 0 0 1
-34.631589 18.579645 -1.249212 39.320614 -0.492415 1.602572 0.049359 -0.016701 161853.000000 0 0 1
-34.973559 19.233445 -0.054812 39.913384 -0.502799 1.572170 0.029384 -0.019273 -197576.000000 0 0 1
35.483460 20.161845 -0.207512 40.811995 0.516712 1.575881 0.025948 -0.018211 -171917.000000 0 0 1
35.777383 21.309745 -1.011512 41.655126 0.537193 1.595082 0.031022 -0.013102 269184.000000 0 0 1
35.267650 21.145045 -2.322912 41.186356 0.540095 1.627226 0.010342 -0.000310 -77478.600000 0 0 1
35.426030 22.407745 -3.183712 42.038633 0.563990 1.646602 0.038321 -0.029167 238270.000000 0 0 1
-34.893560 22.680245 -3.510912 41.764584 -0.576364 1.654960 0.052080 -0.012132 569360.000000 0 0 1
-34.787646 23.818845 -4.365112 42.385987 -0.600379 1.673964 0.052831 -0.021172 967813.000000 0 0 1
-33.280093 24.180245 -4.677112 41.401983 -0.628335 1.684006 0.058896 -0.027387 1159240.000000 0 0 1
-32.739193 23.279645 -5.614612 40.562550 -0.618113 1.709661 0.031138 -0.011615 308857.000000 0 0 1
-31.406983 23.612845 -6.009312 39.750180 -0.644674 1.722555 0.046358 -0.008887 500217.000000 0 0 1
-30.664193 22.814145 -7.057112 38.866190 -0.639650 1.753384 0.040127 -0.025707 22289.300000 0 0 1
-31.375713 22.775845 -8.328512 39.655246 -0.627902 1.782395 0.061185 -0.033709 -253988.000000 0 0 1
-30.549293 22.528045 -9.412012 39.107008 -0.635409 1.813856 0.040804 -0.036026 -374878.000000 0 0 1
-31.204403 22.578545 -10.784812 39.997720 -0.626370 1.843811 0.042084 -0.010689 -116662.000000 0 0 1
-31.683513 23.842245 -11.235012 41.213142 -0.645107 1.846898 0.042097 -0.013506 270762.000000 0 0 1
-32.292493 23.796245 -12.556212 42.032426 -0.635062 1.874155 0.022462 -0.005417 54390.900000 0 0 1
-32.751053 25.228245 -13.016212 43.341868 -0.656369 1.875819 0.040223 -0.011189 1250480.000000 0 0 1
-31.604893 26.114945 -13.196512 43.069798 -0.690570 1.882203 0.041758 -0.011667 594957.000000 0 0 1
-30.788993 25.861145 -14.292412 42.673574 -0.698629 1.912321 0.034531 -0.012421 -32404.900000 0 0 1
-29.303113 26.288745 -14.074312 41.807377 -0.731228 1.914150 0.036368 -0.005039 564765.000000 0 0 1
-28.506153 25.551645 -13.108112 40.463686 -0.730798 1.900695 0.041392 -0.011442 354403.000000 0 0 1
-28.964963 25.426645 -11.757012 40.295293 -0.720437 1.866875 0.055704 -0.015948 -1072130.000000 0 0 1
-29.208693 26.768845 -10.991212 41.116001 -0.741840 1.841409 0.068576 -0.008766 184692.000000 0 0 1
-28.052013 27.495445 -10.586712 40.681610 -0.775379 1.834060 0.055676 -0.011788 179581.000000 0 0 1
-28.356223 28.596245 -9.821512 41.452173 -0.789613 1.810007 0.039611 -0.013501 -525567.000000 0 0 1
-27.062433 29.312545 -9.505112 41.011556 -0.825290 1.804690 0.035396 -0.010692 -294851.000000 0 0 1
-27.252943 30.621345 -8.995312 41.967908 -0.843535 1.786810 0.018400 -0.016094 982325.000000 0 0 1
-25.974183 31.073445 -8.479912 41.377845 -0.874547 1.777197 0.032297 -0.023003 793209.000000 0 0 1
34.180270 -25.193965 33.783343 54.261782 -0.635188 0.898736 0.023112 -0.010908 -106548.000000 0 0 1
33.658360 -23.877155 33.948932 53.437194 -0.617005 0.882393 0.018519 -0.016298 103440.000000 0 0 1
32.995710 -23.666355 -33.487392 52.632867 -0.622213 2.260417 0.017753 -0.012054 -126261.000000 0 0 1
32.578320 -22.191155 -33.308452 51.606660 -0.597972 2.272382 0.009041 -0.014036 95203.500000 0 0 1
31.692260 -21.678455 -34.290137 51.479785 -0.599927 2.299750 0.003134 -0.011548 244857.000000 0 0 1
31.363830 -20.317155 -34.034232 50.545085 -0.574820 2.309519 -0.002986 -0.007220 173170.000000 0 0 1
31.103270 -19.621355 33.290708 49.605264 -0.562792 0.835088 -0.008088 -0.004890 513271.000000 0 0 1
32.327030 -19.523655 32.558688 49.862593 -0.543313 0.859299 0.002009 -0.014214 676872.000000 0 0 1
32.035060 -18.863355 31.390408 48.656233 -0.532169 0.869581 0.005117 -0.002581 707086.000000 0 0 1
33.272460 -18.626055 30.434388 48.787688 -0.510339 0.897185 -0.002851 -0.005544 740325.000000 0 0 1
34.263480 -17.709755 30.865768 49.399566 -0.477052 0.895897 -0.012235 -0.002593 513830.000000 0 0 1
35.295260 -17.604655 29.885758 49.485733 -0.462673 0.922378 0.004681 -0.004453 55795.700000 0 0 1
-35.393265 -16.477755 30.330728 49.438373 0.435720 0.910304 -0.000138 -0.009710 -882602.000000 0 0 1
-34.398488 -16.353655 29.327158 48.070575 0.443789 0.914628 0.013643 -0.008086 522521.000000 0 0 1
-33.276883 -15.537855 29.625348 47.185137 0.436840 0.892004 0.015956 -0.007391 493963.000000 0 0 1
-32.356283 -15.989655 30.765398 47.424760 0.458976 0.864895 0.032385 -0.018400 -1083900.000000 0 0 1
-31.397993 -15.085455 31.252068 46.798469 0.447893 0.839546 0.033110 -0.018363 458222.000000 0 0 1
-30.277473 -15.751655 31.821048 46.662824 0.479711 0.820390 0.039700 -0.021325 1030100.000000 0 0 1
-29.038613 -14.889055 32.235938 45.870260 0.473782 0.791522 0.036918 -0.028161 121026.000000 0 0 1
-29.431753 -14.131455 33.325475 46.653118 0.447636 0.775138 0.049895 -0.034694 354624.000000 0 0 1
-28.400053 -13.264855 33.762252 46.069611 0.436960 0.748291 0.039011 -0.032047 15383.000000 0 0 1
-28.695993 -12.598755 -33.531212 45.896959 0.413704 2.389961 0.036111 -0.019056 -114675.000000 0 0 1
-28.803293 -13.481855 -32.426712 45.418958 0.437776 2.365915 0.047130 -0.018326 197195.000000 0 0 1
-28.615953 -12.881655 -31.170022 44.230986 0.422984 2.352811 0.053224 -0.011929 -470352.000000 0 0 1
-28.855593 -13.921555 -30.035112 43.915406 0.449514 2.323934 0.062378 -0.015826 814686.000000 0 0 1
-30.257673 -14.262855 -29.969072 44.912149 0.440490 2.301350 0.062643 -0.019604 969823.000000 0 0 1
-30.512763 -15.075255 -28.838052 44.608579 0.458887 2.273743 0.061514 -0.010566 -169024.000000 0 0 1
-31.884073 -15.718255 -28.971432 45.858495 0.458017 2.254614 0.051609 -0.013661 -536942.000000 0 0 1
-31.740353 -16.876955 -29.758162 46.667225 0.488700 2.262263 0.061458 -0.019245 451317.000000 0 0 1
-32.833113 -17.801355 -29.663252 47.694969 0.496817 2.242010 0.039767 -0.016888 -78295.600000 0 0 1
-32.556203 -19.209255 -30.285832 48.436902 0.533059 2.246266 0.049579 -0.015674 207855.000000 0 0 1
-33.672813 -20.075755 -30.517162 49.680897 0.537621 2.232249 0.016858 -0.014427 455204.000000 0 0 1
-33.234213 -21.280955 -31.177542 50.293450 0.569549 2.239428 0.021547 -0.012401 483464.000000 0 0 1
-34.430925 -22.215255 -31.572472 51.728398 0.573002 2.227300 0.019499 -0.015780 290377.000000 0 0 1
-35.046184 -22.807955 -30.475262 51.741467 0.576935 2.200606 0.019722 -0.016387 165960.000000 0 0 1
35.612160 -23.758755 -30.818512 52.749266 -0.588339 2.194746 0.027305 -0.023755 407934.000000 0 0 1
-35.572785 -25.165825 -31.129942 53.551985 0.615706 2.191126 0.026585 -0.017759 -131241.000000 0 0 1
-34.872176 -25.386735 -32.322992 53.901121 0.629268 2.213887 0.033672 -0.017816 -541152.000000 0 0 1
-34.370224 -26.670945 -32.335192 54.205316 0.659928 2.209969 0.026745 -0.010708 -321378.000000 0 0 1
-34.726965 -27.446195 -33.602452 55.573200 0.668824 2.220125 0.031341 -0.017064 270201.000000 0 0 1
35.594770 -27.855925 -33.599682 56.319436 -0.664031 2.210043 0.040768 -0.013818 -240780.000000 0 0 1
35.371900 -29.141125 -34.126153 57.139923 -0.689115 2.210850 0.033692 -0.016226 426989.000000 0 0 1
-35.632338 -30.353525 -33.320452 57.456527 0.705569 2.189432 0.037684 -0.025063 498507.000000 0 0 1
35.301200 -30.725085 -32.187772 56.800161 -0.716201 2.173273 0.050597 -0.023358 -132303.000000 0 0 1
-35.611534 -31.736395 -31.568252 57.200828 0.727922 2.155419 0.034769 -0.023199 186974.000000 0 0 1
35.502990 -32.429365 -30.272382 56.820271 -0.740184 2.132672 0.022547 -0.016737 36345.500000 0 0 1
34.501580 -33.396995 -30.506282 56.888941 -0.769131 2.136776 0.038851 -0.014020 -55094.800000 0 0 1
34.156270 -34.011055 -29.292552 56.404400 -0.783268 2.116864 0.029363 -0.006853 -362295.000000 0 0 1
32.931940 33.815963 -29.431522 55.625952 0.798642 2.128332 0.027405 -0.016452 -189422.000000 0 0 1
31.785140 -34.299899 -29.972502 55.543939 -0.823433 2.140779 0.037239 -0.017639 -261659.000000 0 0 1
30.576680 33.901884 -29.490482 54.350342 0.836923 2.144325 0.024035 -0.014164 1159710.000000 0 0 1
29.234120 34.350826 -30.209162 54.288180 0.865696 2.160915 0.001124 -0.010701 817500.000000 0 0 1
29.104690 33.706039 -31.461452 54.525251 0.858525 2.185856 0.011649 -0.009195 -478469.000000 0 0 1
28.144740 34.302491 -32.249212 54.852520 0.883688 2.199289 0.015326 0.003100 -519237.000000 0 0 1
28.260560 33.545469 -33.561172 55.229612 0.870699 2.223915 0.016426 -0.005907 -95956.100000 0 0 1
27.999530 32.198443 -33.415762 54.197109 0.855037 2.235162 0.013612 -0.008762 65533.300000 0 0 1
27.647910 31.571473 34.019252 54.022906 0.851556 0.889605 0.018224 -0.006444 -89405.900000 0 0 1
27.610460 30.002903 34.162760 53.194040 0.826900 0.873393 0.018054 -0.020612 -937707.000000 0 0 1
28.832130 29.353863 34.118605 53.451101 0.794365 0.878490 0.026520 -0.018083 -900384.000000 0 0 1
28.685740 27.993963 -34.168403 52.668904 0.773194 2.276723 0.019217 -0.017431 1012060.000000 0 0 1
30.098280 27.319063 -34.010392 52.999476 0.737032 2.267525 0.036682 -0.024478 591649.000000 0 0 1
30.738580 27.549713 -32.839432 52.747278 0.730744 2.242832 0.040394 -0.015872 -361853.000000 0 0 1
31.965720 26.844473 -32.700932 53.026257 0.698536 2.235331 0.043609 -0.015714 725403.000000 0 0 1
32.735340 27.113883 -31.344962 52.813557 0.691746 2.206200 0.038271 -0.016013 77724.800000 0 0 1
33.444370 28.354353 -31.259502 53.848414 0.703219 2.190150 0.029377 -0.012186 397956.000000 0 0 1
32.651270 29.540453 -31.324892 54.036957 0.735420 2.189149 0.026239 -0.014560 452887.000000 0 0 1
31.641080 29.853823 -30.180812 52.946106 0.756343 2.177337 0.021364 -0.013648 575170.000000 0 0 1
32.305830 30.233713 -28.996502 52.901240 0.752277 2.150917 0.014374 -0.007102 258205.000000 0 0 1
31.306600 30.503413 -28.023892 51.922057 0.772404 2.140913 0.015949 -0.006362 -232857.000000 0 0 1
31.845160 30.925973 -26.651842 51.776932 0.770756 2.111505 0.028035 -0.004588 -367196.000000 0 0 1
32.276460 32.242953 -26.585372 52.803029 0.784879 2.098420 0.026297 -0.008153 135469.000000 0 0 1
32.977190 32.560573 -25.387012 52.841143 0.779041 2.071953 0.008112 -0.008319 121099.000000 0 0 1
33.321960 34.081457 -25.307862 53.966533 0.796666 2.058903 0.017155 -0.009722 -529675.000000 0 0 1
32.164730 -33.868715 -25.305092 53.122570 -0.811197 2.067298 0.021194 -0.005043 -307790.000000 0 0 1
32.317900 -32.453145 -25.168572 52.260026 -0.787486 2.073279 0.016129 -0.010176 -1132000.000000 0 0 1
32.808820 -31.595195 -26.324302 52.608402 -0.766556 2.094836 0.015622 -0.012563 473809.000000 0 0 1
34.183350 -31.772075 -26.657282 53.745483 -0.748855 2.089772 0.025171 -0.015553 555433.000000 0 0 1
35.105390 -31.136795 -25.777082 53.538270 -0.725559 2.073128 0.028211 -0.012773 29669.000000 0 0 1
-35.064982 -31.362225 -26.114282 53.806114 0.729714 2.077549 0.007026 -0.009702 712326.000000 0 0 1
-34.521755 -32.705735 -25.926282 54.162614 0.758392 2.069941 0.007115 -0.010925 -17481.700000 0 0 1
-34.615121 -33.259115 -24.602312 53.941164 0.765423 2.044399 0.004809 -0.002564 -141409.000000 0 0 1
-33.598283 -32.798465 -23.487312 52.499884 0.773353 2.034628 -0.003418 -0.002972 438372.000000 0 0 1
-33.644643 -31.391335 -23.330412 51.591531 0.750765 2.040042 -0.037094 -0.002228 -385581.000000 0 0 1
-32.953373 -30.941805 -22.194312 50.357796 0.753926 2.027211 -0.010077 -0.007738 -456344.000000 0 0 1
-32.728183 -29.467645 -22.388312 49.403569 0.733022 2.041117 -0.001698 -0.013156 234002.000000 0 0 1
-33.910923 -28.688155 -22.551812 49.815110 0.702159 2.040599 -0.005802 -0.010985 -52077.100000 0 0 1
-34.117688 -28.328065 -23.920912 50.385573 0.692948 2.065484 -0.000408 -0.010927 311192.000000 0 0 1
-35.418420 -27.513425 -24.222812 50.972519 0.660441 2.066003 0.006913 -0.012774 334465.000000 0 0 1
-35.362944 -26.153075 -23.789512 50.004620 0.636787 2.066609 -0.000135 -0.012737 -177337.000000 0 0 1
35.541270 -25.241295 -24.555412 50.032721 -0.617537 2.083789 0.005122 -0.003884 -274540.000000 0 0 1
-35.607825 -24.882555 -25.948362 50.600161 0.609917 2.109253 0.010329 -0.008164 -1216300.000000 0 0 1
-34.523996 -24.058355 -25.791582 49.355005 0.608615 2.120662 0.008426 -0.011826 -1389500.000000 0 0 1
-33.960793 -23.725755 -26.996422 49.447485 0.609801 2.148333 0.015953 -0.002313 -496174.000000 0 0 1
-32.874663 -22.635255 -26.894762 48.129269 0.602988 2.163738 0.022207 -0.011110 -395511.000000 0 0 1
-33.130323 -21.358455 -26.320712 47.398120 0.572626 2.159534 0.019626 -0.003933 -337114.000000 0 0 1
-34.148668 -20.500355 -26.810342 48.012400 0.540660 2.163258 0.016653 -0.003468 1544620.000000 0 0 1
-35.482994 -20.537955 -25.895602 48.491573 0.524694 2.134148 0.009087 -0.006055 1011640.000000 0 0 1
-35.448319 -19.962955 -24.617312 47.551183 0.512888 2.114958 -0.003277 -0.007804 -428766.000000 0 0 1
-34.576286 -20.563455 -23.694312 46.688282 0.536533 2.103077 0.002607 -0.012257 -401238.000000 0 0 1
-35.127767 -21.765855 -22.930012 47.259898 0.554721 2.077376 0.003089 -0.008663 -4003.040000 0 0 1
35.674837 -21.355155 -21.900012 46.993055 -0.539394 2.055591 0.001203 -0.008190 -30571.700000 0 0 1
35.116770 -22.520655 -21.304012 46.842592 -0.570240 2.042944 0.007861 -0.007135 -144680.000000 0 0 1
33.925470 -22.249655 -20.363412 45.394419 -0.580469 2.035982 0.000351 -0.009763 -515788.000000 0 0 1
32.733450 -21.892355 -20.974912 44.617272 -0.589483 2.060209 -0.002012 -0.002363 -526619.000000 0 0 1
31.678940 -21.733855 -20.033012 43.327096 -0.601313 2.051459 -0.003613 0.000977 528250.000000 0 0 1
30.475060 -20.986955 -20.672212 42.385398 -0.603075 2.080273 -0.005394 0.018776 372667.000000 0 0 1
29.539740 -21.797255 -21.433212 42.509989 -0.635709 2.099243 0.002729 0.017551 642889.000000 0 0 1
28.470420 -21.147355 -22.075412 41.774385 -0.638866 2.127563 0.016067 0.022739 -146674.000000 0 0 1
28.737340 -19.996655 -23.038612 41.910364 -0.607930 2.152815 -0.002387 0.020137 -1067140.000000 0 0 1
29.150850 -18.785555 -22.428612 41.300264 -0.572447 2.144876 -0.006363 0.028583 225101.000000 0 0 1
29.556370 -17.811455 -23.414712 41.702227 -0.542349 2.166962 -0.019034 0.024916 -349072.000000 0 0 1
30.185830 -16.589455 -22.801012 41.307149 -0.502519 2.155542 -0.031465 0.021376 -611518.000000 0 0 1
29.323660 -15.987455 -21.843412 39.907523 -0.499156 2.149992 -0.035811 0.006194 116877.000000 0 0 1
29.913540 -15.206255 -20.783012 39.471302 -0.470298 2.125316 -0.037883 -0.002022 -527955.000000 0 0 1
30.638240 -16.062855 -19.728912 39.823951 -0.482878 2.089095 -0.025127 -0.003355 -499590.000000 0 0 1
31.741540 -16.665155 -20.313312 41.205381 -0.483468 2.086305 -0.027883 -0.002420 -732331.000000 0 0 1
32.355170 -17.572555 -19.415212 41.624538 -0.497541 2.056054 -0.017852 -0.000168 37229.200000 0 0 1
33.546560 -18.351655 -20.032412 43.167725 -0.500576 2.053369 -0.008414 -0.009136 450127.000000 0 0 1
34.622440 -17.503755 -20.393212 43.828962 -0.468087 2.054759 -0.016540 -0.013796 331317.000000 0 0 1
35.585910 -18.064855 -21.271612 45.223638 -0.469741 2.060501 -0.008291 -0.012532 -409501.000000 0 0 1
-35.179648 -17.093555 -21.904112 44.828422 0.452299 2.081305 0.006896 -0.009304 -593161.000000 0 0 1
-34.229940 -16.601455 -20.985712 43.447638 0.451574 2.074887 0.030551 -0.020802 104120.000000 0 0 1
-33.503743 -15.445155 -21.456612 42.678330 0.431962 2.097576 0.051501 -0.018302 -461774.000000 0 0 1
-32.353733 -15.017955 -20.532912 41.157059 0.434583 2.093116 0.053839 -0.019250 452102.000000 0 0 1
-31.192203 -15.866755 -20.623512 40.620644 0.470565 2.103321 0.062361 -0.027241 705183.000000 0 0 1
-31.252903 -17.115955 -19.945512 40.835320 0.501045 2.081095 0.056821 -0.025056 -921335.000000 0 0 1
-30.093043 -18.047455 -20.247312 40.512412 0.540215 2.094142 0.049998 -0.028036 -330968.000000 0 0 1
-30.378133 -19.251755 -19.610012 40.963565 0.564858 2.069991 0.037667 -0.026228 -25727.500000 0 0 1
-29.341573 -20.198755 -19.713712 40.712996 0.602899 2.076258 0.039925 -0.024470 -226504.000000 0 0 1
-29.696733 -21.598955 -19.104112 41.392969 0.628826 2.050516 0.027576 -0.010687 -73635.600000 0 0 1
-30.472813 -22.304555 -20.053812 42.757934 0.631848 2.058964 0.032431 -0.014671 86855.900000 0 0 1
-30.838523 -23.599055 -19.614612 43.504746 0.653187 2.038527 0.021895 -0.008676 214082.000000 0 0 1
-31.832353 -24.325755 -20.570912 45.035580 0.652517 2.045157 0.014530 -0.006874 236837.000000 0 0 1
-31.263363 -24.552955 -21.856512 45.364663 0.665749 2.073499 0.014723 -0.014428 348448.000000 0 0 1
-32.131213 -25.327385 -22.669712 46.774001 0.667534 2.076776 0.014247 -0.009121 112204.000000 0 0 1
-31.754303 -25.102575 -24.151512 47.135662 0.668937 2.108754 0.015244 -0.006736 1127830.000000 0 0 1
-30.459003 -25.664075 -24.476312 46.749176 0.700169 2.121828 0.024927 -0.010983 750211.000000 0 0 1
-30.316893 -25.893085 -25.857902 47.520490 0.706859 2.146163 0.022881 -0.004964 -127463.000000 0 0 1
-28.931533 -26.472415 -26.228012 47.177654 0.741042 2.160291 0.033717 -0.009128 -44361.000000 0 0 1
-27.960553 -25.472485 -26.139412 45.977265 0.738868 2.175513 0.037911 -0.016173 -686549.000000 0 0 1
-26.646633 -25.876765 -26.428372 45.586280 0.770742 2.189211 0.028068 -0.013627 244023.000000 0 0 1
-25.748183 -24.609255 -26.600162 44.453943 0.762785 2.212269 0.035633 -0.014986 101015.000000 0 0 1
-25.968003 -23.901755 -27.806902 44.931669 0.743989 2.238101 0.028787 -0.016634 -158284.000000 0 0 1
-24.988263 -22.914455 -27.916012 43.917984 0.742133 2.259633 0.038111 -0.018067 -170870.000000 0 0 1
-24.885763 -22.304455 -29.326002 44.461268 0.730753 2.291063 0.012896 -0.015334 -67385.500000 0 0 1
-24.224863 -23.122755 -30.276212 45.145928 0.762125 2.305854 0.009453 -0.006403 74487.200000 0 0 1
-23.996563 -22.481155 -31.489252 45.528128 0.752805 2.334559 0.007270 0.001493 -258049.000000 0 0 1
-23.384663 -23.457655 -32.521622 46.419392 0.786956 2.347040 0.005341 -0.001086 -111976.000000 0 0 1
-24.266663 -24.504855 -32.905082 47.666585 0.790282 2.332724 0.002901 -0.001277 24512.800000 0 0 1
-23.619163 -25.520845 -33.681822 48.411193 0.824078 2.340252 0.011218 0.008701 324849.000000 0 0 1
-19.720263 -14.475855 -12.385412 27.419657 0.633221 2.039464 0.002368 0.005474 -218917.000000 0 0 1
-19.970063 -13.994255 -11.047312 26.770986 0.611237 1.996169 0.011516 0.004775 126694.000000 0 0 1
-19.044363 -14.612355 -10.168412 26.069240 0.654469 1.971487 -0.005672 -0.004759 140490.000000 0 0 1
-19.224263 -14.069755 -8.730312 25.372202 0.631800 1.922065 0.003899 -0.008893 -108416.000000 0 0 1
-20.385663 -14.546755 -8.097012 26.320048 0.619781 1.883505 0.033824 -0.016999 -72427.700000 0 0 1
-20.510263 -14.031855 -6.784312 25.760255 0.600001 1.837304 0.011433 -0.019494 -123467.000000 0 0 1
-21.760463 -14.535055 -6.012312 26.850204 0.588895 1.796632 0.029127 -0.021656 -304200.000000 0 0 1
-21.721763 -15.807455 -5.399812 27.401982 0.629092 1.769154 0.011776 -0.018060 315138.000000 0 0 1
-21.382963 -15.739055 -4.046212 26.857416 0.634517 1.722027 0.019180 -0.021364 -319388.000000 0 0 1
-20.935063 -17.047255 -3.340112 27.203715 0.683395 1.693888 0.000218 -0.007213 -58172.400000 0 0 1
-22.046563 -17.868455 -3.067012 28.543637 0.681103 1.678454 0.017435 -0.012345 376336.000000 0 0 1
-21.675463 -18.940755 -2.256012 28.873301 0.718169 1.649011 0.001938 -0.006745 -670871.000000 0 0 1
-22.873863 -19.801055 -1.966012 30.317661 0.713517 1.635689 0.022973 -0.019854 -663876.000000 0 0 1
-23.148763 -20.725155 -3.000812 31.215415 0.730214 1.667077 0.010425 -0.012841 700793.000000 0 0 1
-24.201263 -21.676055 -2.714312 32.602454 0.730411 1.654148 0.018198 -0.010858 517400.000000 0 0 1
-24.522663 -22.714955 -3.816312 33.643639 0.747148 1.684474 0.026694 -0.011956 -341337.000000 0 0 1
-23.518363 -23.677155 -3.813912 33.589686 0.788763 1.684586 0.024856 -0.007315 -624916.000000 0 0 1
-23.385763 -24.398655 -4.999812 34.164110 0.806592 1.717671 0.025443 0.006432 870941.000000 0 0 1
-21.889163 -24.647455 -5.478712 33.416295 0.844600 1.735493 0.021107 0.006758 1605150.000000 0 0 1
-21.343763 -23.448255 -6.112912 32.291556 0.832347 1.761249 0.004448 0.009904 126923.000000 0 0 1
-20.948563 -22.361755 -5.304912 31.097146 0.818016 1.742226 -0.004568 0.010168 -593617.000000 0 0 1
-21.120963 -21.016655 -6.080012 30.409890 0.782923 1.772088 0.004568 0.009968 -229342.000000 0 0 1
-20.111263 -20.792155 -7.023112 29.767444 0.802043 1.808975 -0.008197 0.012568 -257479.000000 0 0 1
-20.194863 -19.482655 -7.571612 29.064337 0.767450 1.834349 -0.017484 0.012714 335744.000000 0 0 1
-18.942463 -19.026655 -8.377312 28.124898 0.787616 1.873248 0.002871 0.002733 -136519.000000 0 0 1
-18.870863 -19.802455 -9.560312 28.976651 0.809482 1.907027 -0.008256 0.002960 -408106.000000 0 0 1
-17.771663 -19.628755 -10.411712 28.452132 0.835012 1.945437 0.039546 -0.005494 -452345.000000 0 0 1
-17.407063 -18.218755 -10.900712 27.454588 0.808178 1.979091 0.037819 -0.006665 -128596.000000 0 0 1
-16.899463 -17.189055 -10.036112 26.110899 0.793893 1.965316 0.039167 -0.012072 785613.000000 0 0 1
-15.645163 -17.562355 -9.435612 25.342420 0.843068 1.952309 0.050310 -0.011734 68472.800000 0 0 1
-15.122863 -16.488155 -8.433912 23.910063 0.828562 1.931289 0.018307 0.000181 -151253.000000 0 1 0
-15.863663 -16.570255 -7.258812 24.060746 0.807180 1.877258 -0.002520 0.001015 23794.800000 0 1 0
-15.985063 -15.333955 -6.524212 23.091509 0.764612 1.857234 -0.000102 -0.002197 -188413.000000 0 1 0
-16.728863 -15.678855 -5.237012 23.518241 0.753010 1.795358 0.000138 0.002349 -222505.000000 0 1 0
-17.153063 -14.519355 -4.601312 22.939296 0.702434 1.772753 -0.000364 0.006410 155007.000000 0 1 0
-17.700363 -14.786755 -3.322512 23.302147 0.695952 1.713868 0.005699 0.005835 -235836.000000 0 1 0
-18.326063 -13.534255 -2.641112 22.934605 0.636117 1.686211 -0.001111 0.004500 121239.000000 0 1 0
-19.650063 -13.307555 -3.104712 23.934394 0.595278 1.700881 0.013419 -0.008723 164949.000000 0 1 0
-20.241263 -12.387055 -2.244512 23.836646 0.549175 1.665098 0.009767 -0.010728 -825794.000000 0 1 0
-21.758763 -12.301855 -2.435612 25.113972 0.514571 1.667931 0.012414 -0.014987 -533904.000000 0 0 1
-22.085163 -11.625955 -3.633712 25.221442 0.484555 1.715372 0.020432 -0.017238 1114700.000000 0 0 1
-23.475063 -11.753155 -3.996112 26.555304 0.464180 1.721853 0.021905 -0.017030 968139.000000 0 0 1
-23.921963 -10.922955 -5.254412 26.817534 0.428335 1.768004 0.028498 -0.018654 -39129.200000 0 0 1
-23.570763 -11.553955 -6.452112 27.031546 0.455762 1.811811 0.038498 -0.025476 728626.000000 0 0 1
-24.259363 -10.918955 -7.590912 27.665181 0.422931 1.848746 0.045600 -0.023233 413696.000000 0 0 1
-23.633063 -11.310755 -8.995712 27.701583 0.446381 1.901529 0.063872 -0.027753 1026830.000000 0 0 1
-22.269463 -10.898255 -9.197112 26.444051 0.455117 1.926015 0.043909 -0.017028 807999.000000 0 0 1
-21.645163 -11.449655 -10.308612 26.568311 0.486555 1.969261 0.029572 -0.010976 114919.000000 0 0 1
-20.171663 -10.943055 -10.376912 25.185844 0.497064 1.995459 0.018373 0.001194 206402.000000 0 0 1
-20.173163 -9.549455 -10.617112 24.715818 0.442121 2.014810 0.029317 -0.016679 304101.000000 0 1 0
-18.907163 -8.988655 -10.359112 23.357824 0.443783 2.030292 0.020238 -0.001499 -220031.000000 0 1 0
-18.738063 -7.545655 -10.860112 22.934558 0.382824 2.064086 -0.014576 0.002510 -98440.300000 0 1 0
-18.497263 -7.409255 -12.228612 23.379152 0.380989 2.121229 0.017316 -0.007028 390295.000000 0 1 0
-18.835463 -6.127455 -12.636212 23.494557 0.314517 2.138664 0.041687 -0.019598 -102766.000000 0 1 0
-18.231063 -5.966055 -14.039212 23.771095 0.316263 2.202599 0.052001 -0.011922 -15442.700000 0 1 0
-18.953863 -6.614855 -15.058112 25.094860 0.335782 2.214357 0.047308 -0.018786 336820.000000 0 0 1
-18.370863 -6.303355 -16.307012 25.360196 0.330530 2.269226 0.032721 -0.022717 -208343.000000 0 0 1
-18.745663 -7.194855 -17.501412 26.635789 0.366476 2.287713 0.036204 -0.022212 174850.000000 0 0 1
-20.082163 -7.108055 -17.981412 27.877391 0.340188 2.271843 0.056389 -0.030733 634678.000000 0 0 1
-20.253463 -8.049455 -19.035412 28.936887 0.378294 2.288724 0.078829 -0.029979 91448.400000 0 0 1
-21.723763 -8.015255 -19.549612 30.304348 0.353467 2.271962 0.061552 -0.031264 -285340.000000 0 0 1
-22.032163 -6.903955 -20.319912 30.756782 0.303666 2.292500 0.062466 -0.032329 -199533.000000 0 0 1
-23.326063 -6.929955 -20.837512 32.036408 0.288786 2.278950 0.061270 -0.035747 -333750.000000 0 0 1
-24.469063 -6.400255 -19.966512 32.223593 0.255834 2.239060 0.084823 -0.033779 -451858.000000 0 0 1
-24.503263 -4.997255 -19.748712 31.865249 0.201183 2.239229 0.080019 -0.027067 638415.000000 0 0 1
-25.616643 -4.687255 -18.886512 32.169599 0.180975 2.198258 0.093322 -0.018498 327835.000000 0 0 1
-25.816253 -3.243855 -18.379812 31.856224 0.124997 2.185800 0.077899 -0.011485 -14510.300000 0 0 1
-26.078433 -2.290355 -19.378912 32.571040 0.087601 2.208029 0.077724 -0.005288 1459320.000000 0 0 1
-27.414723 -2.349055 -19.969812 33.998213 0.085477 2.198612 0.080049 0.000586 1270250.000000 0 0 1
-27.605503 -0.999055 -20.746412 34.546715 0.036175 2.214963 0.073147 0.004046 -158274.000000 0 0 1
-27.015063 -0.960555 -22.052812 34.886427 0.035541 2.255097 0.071290 0.007266 242305.000000 0 0 1
-27.667643 -1.642455 -23.150912 36.113167 0.059294 2.266682 0.072252 0.007613 -69695.700000 0 0 1
-27.073883 -1.316855 -24.531612 36.558573 0.048601 2.306383 0.065247 0.010600 -788226.000000 0 0 1
-27.420453 -0.085855 -25.142962 37.202919 0.003131 2.312891 0.055950 0.012944 104997.000000 0 0 1
-26.869073 1.096045 -24.599312 36.445501 -0.040769 2.311709 0.051611 0.012512 44561.100000 0 0 1
-25.355133 1.113145 -24.240412 35.095861 -0.043874 2.333241 0.045561 0.007457 -306363.000000 0 0 1
-24.585063 0.741645 -25.346452 35.318805 -0.030157 2.371215 0.044639 0.009337 152139.000000 0 0 1
-23.214063 0.608145 -24.961012 34.092737 -0.026191 2.392270 0.049378 0.008390 826699.000000 0 0 1
-22.198963 0.143145 -26.031072 34.211565 -0.006448 2.435472 0.036724 0.003995 124837.000000 0 0 1
-21.870263 1.103445 -26.997992 34.762301 -0.050411 2.460120 0.018404 0.003933 227409.000000 0 0 1
-20.866163 0.536245 -27.837842 34.794106 -0.025694 2.498214 0.011122 -0.001683 189035.000000 0 0 1
-20.741363 1.227645 -29.195942 35.834541 -0.059119 2.523082 0.003452 0.005392 -225632.000000 0 0 1
-19.936963 2.389145 -29.190902 35.430203 -0.119266 2.539053 0.014491 0.004664 183887.000000 0 0 1
-19.922463 3.135845 -30.449722 36.522919 -0.156122 2.556599 0.005135 -0.001415 -129133.000000 0 0 1
-19.231763 2.535345 -31.712622 37.174979 -0.131075 2.592625 -0.003358 -0.004388 -1722350.000000 0 0 1
-17.897563 2.347645 -31.626372 36.415129 -0.130427 2.622955 -0.007692 -0.000063 -1741330.000000 0 0 1
-17.409363 1.763245 -32.865282 37.233342 -0.100937 2.652340 -0.008654 0.003258 691200.000000 0 0 1
-15.850263 1.729245 -32.902242 36.561984 -0.108669 2.690344 0.000097 -0.011275 602716.000000 0 0 1
-15.205763 3.033745 -32.806522 36.286178 -0.196927 2.700077 0.002733 -0.006286 -674434.000000 0 0 1
-13.843563 2.826045 -32.973232 35.872898 -0.201375 2.736760 -0.000204 -0.008056 -728666.000000 0 0 1
-13.078963 4.136645 -33.290852 36.006277 -0.306327 2.750740 0.012909 -0.004977 -264810.000000 0 0 1
-13.035563 5.068845 -32.243502 35.146302 -0.370855 2.732314 0.020938 -0.015278 124282.000000 0 0 1
-12.518263 6.302745 -32.655382 35.535975 -0.466431 2.736177 0.043075 -0.012938 -228038.000000 0 0 1
-12.412563 7.216145 -31.464372 34.585419 -0.526599 2.713498 0.043901 -0.019428 -680385.000000 0 0 1
-11.314263 7.046345 -30.632682 33.406957 -0.557004 2.731177 0.072653 -0.029019 -436146.000000 0 0 1
-11.353863 6.042145 -29.638812 32.309084 -0.489048 2.732174 0.065314 -0.020924 -506850.000000 0 0 1
-10.017163 5.335045 -29.384422 31.500008 -0.489379 2.773009 0.078859 -0.029162 -535246.000000 0 0 1
-9.445663 4.417045 -30.334532 32.076700 -0.437415 2.810499 0.060674 -0.028537 96328.800000 0 0 1
-10.270263 3.387145 -30.833122 32.674646 -0.318568 2.804259 0.055636 -0.021209 -761797.000000 0 0 1
-9.617663 2.448345 -31.884702 33.393533 -0.249273 2.839839 0.044378 -0.021013 -134390.000000 0 0 1
-10.417963 1.332145 -32.342762 34.005335 -0.127180 2.827602 0.040579 -0.019200 490662.000000 0 0 1
-9.957263 0.636845 -33.544052 34.996516 -0.063871 2.852479 0.029254 -0.015116 -631487.000000 0 0 1
-10.361963 1.300545 33.792767 35.369659 -0.124859 0.299728 0.021912 -0.013830 -290363.000000 0 0 1
-11.752263 1.231445 33.581719 35.600056 -0.104403 0.338345 0.006003 -0.008821 -363970.000000 0 0 1
-12.078463 1.470345 32.247378 34.466572 -0.121137 0.360804 0.001976 -0.002123 -173825.000000 0 0 1
-13.527263 1.211945 31.791338 34.570867 -0.089354 0.403738 0.006694 -0.000431 185505.000000 0 0 1
-14.414263 2.296945 31.890358 35.071953 -0.158024 0.429236 0.005537 0.002249 -186783.000000 0 0 1
-15.732463 1.920745 31.580138 35.334187 -0.121487 0.465146 0.008418 0.002179 724163.000000 0 0 1
-16.791963 3.099945 31.374478 35.720268 -0.182554 0.498421 0.019969 0.001731 501387.000000 0 0 1
-17.088863 3.906745 32.529868 36.952459 -0.224751 0.494267 0.008172 -0.008169 170556.000000 0 0 1
-16.129663 4.895745 32.810816 36.887450 -0.294687 0.474580 0.007114 -0.005057 -747047.000000 0 0 1
-16.555763 5.782745 33.990391 38.247616 -0.336041 0.476309 -0.002019 -0.008468 4844.830000 0 0 1
-17.869863 6.258345 33.879256 38.811118 -0.336869 0.509627 0.003914 -0.009345 -88734.600000 0 0 1
-18.901063 5.521245 -34.122639 39.396559 -0.284205 2.618208 -0.003650 -0.005401 65432.300000 0 0 1
-20.300863 6.139645 -34.282715 40.312837 -0.293687 2.587573 -0.004394 -0.002168 -261567.000000 0 0 1
-20.509463 7.407445 -33.674812 40.118590 -0.346593 2.566941 0.004337 -0.007085 147779.000000 0 0 1
-20.100863 8.481245 34.172239 40.542794 -0.399271 0.568205 -0.006653 -0.007582 -307373.000000 0 0 1
-20.141763 9.821145 -33.751042 40.512694 -0.453679 2.555481 0.004434 -0.002790 -319263.000000 0 0 1
-19.059463 10.024545 -32.863752 39.290977 -0.484200 2.561515 0.012170 -0.009666 239424.000000 0 0 1
-19.110763 11.377045 -32.440272 39.332298 -0.536972 2.540599 0.021631 -0.010888 290942.000000 0 0 1
-18.443063 12.453745 -33.457462 40.182634 -0.593924 2.554645 0.010942 -0.021272 -162157.000000 0 0 1
-19.117163 12.442245 33.981070 40.926623 -0.576967 0.591164 0.023560 -0.020056 184876.000000 0 0 1
-18.240463 12.626645 32.863634 39.650537 -0.605494 0.593779 0.016143 -0.020434 347910.000000 0 0 1
-18.879063 12.147445 31.520848 38.698105 -0.571746 0.618874 0.036817 -0.021173 110982.000000 0 0 1
-19.069463 10.758145 31.495678 38.358309 -0.513646 0.607476 0.024077 -0.015467 -50587.300000 0 0 1
-17.932963 10.158345 30.927318 37.165604 -0.515394 0.587825 0.022829 -0.017713 137871.000000 0 0 1
-18.015563 8.637145 30.957538 36.844673 -0.447054 0.573112 0.031482 -0.012171 232793.000000 0 0 1
-18.706363 8.112845 29.819078 36.123727 -0.409212 0.599761 0.029902 -0.021158 274243.000000 0 0 1
-19.038363 6.723145 29.979588 36.144649 -0.339466 0.592703 0.025625 -0.014314 211888.000000 0 0 1
-19.644863 5.924045 28.771638 35.338677 -0.292885 0.619501 0.033021 -0.016408 578515.000000 0 0 1
-21.040863 6.078945 28.562618 35.992980 -0.281253 0.654158 0.049114 -0.028354 157110.000000 0 0 1
-21.639863 5.091345 27.748328 35.555241 -0.231074 0.675445 0.045640 -0.021074 -112017.000000 0 0 1
-23.096263 5.443345 27.411018 36.255086 -0.231457 0.713524 0.043234 -0.015347 -390638.000000 0 0 1
-23.336063 6.317545 26.364518 35.771092 -0.264383 0.742125 0.042597 -0.015343 -723944.000000 0 0 1
-24.702663 6.517145 26.309318 36.672537 -0.257946 0.770716 0.047930 -0.016864 -1050600.000000 0 0 1
-25.079503 7.397345 25.034528 36.199859 -0.286823 0.807144 0.046041 -0.007990 -454206.000000 0 0 1
-25.078593 6.737245 23.801838 35.225755 -0.262449 0.828890 0.037124 -0.002735 79864.900000 0 0 1
-25.894923 5.623045 23.618208 35.496273 -0.213829 0.842805 0.037895 -0.002802 -599192.000000 0 0 1
-25.859483 4.933245 22.260978 34.476092 -0.188506 0.868866 0.039948 0.012284 -168818.000000 0 0 1
-26.739883 5.446345 21.279778 34.605100 -0.200930 0.908497 0.028046 0.006608 68849.300000 0 0 1
-26.887443 4.624445 20.127378 33.903266 -0.170326 0.935183 0.040838 0.005417 -12446.100000 0 0 1
-27.745423 5.297645 19.007678 34.046517 -0.188667 0.978478 0.045962 -0.001847 879508.000000 0 0 1
-29.135073 5.453445 19.296478 35.368723 -0.185037 0.993715 0.043601 -0.005483 522706.000000 0 0 1
-29.920693 5.917845 18.225978 35.531043 -0.195264 1.032168 0.050698 -0.003767 438751.000000 0 0 1
-31.426883 5.974445 18.626278 37.017309 -0.187864 1.043525 0.056411 -0.005437 271562.000000 0 0 1
-31.681783 6.939445 19.607678 37.899239 -0.215630 1.027029 0.057985 -0.018805 -793850.000000 0 0 1
-32.905443 6.668745 20.182278 39.173520 -0.199956 1.029553 0.060625 -0.014960 -998949.000000 0 0 1
-33.490883 7.767145 21.109978 40.343512 -0.227889 1.020129 0.055884 -0.013152 409478.000000 0 0 1
-32.753983 7.936045 22.334278 40.430486 -0.237711 0.985541 0.054499 -0.010474 425793.000000 0 0 1
-33.476053 8.816845 23.155078 41.647815 -0.257529 0.981263 0.058282 -0.008958 44640.000000 0 0 1
-0.735663 32.513545 11.309588 34.432231 -1.548174 1.236124 0.044515 -0.005066 -335467.000000 0 0 1
-0.919963 32.510445 12.698188 34.914457 -1.542506 1.198566 0.031606 -0.002022 104194.000000 0 0 1
-0.548063 33.795845 13.224588 36.295305 -1.554581 1.197850 0.031777 -0.005491 -17048.800000 0 0 1
-0.313463 33.861045 14.751788 36.936213 -1.561539 1.159950 0.022959 0.002827 757900.000000 0 0 1
-1.499063 33.844545 15.575488 37.286676 -1.526533 1.139859 0.018345 0.014877 518368.000000 0 0 1
-1.242063 -34.358824 16.872788 38.298335 1.534662 1.114572 0.021427 0.000951 -27068.200000 0 0 1
-2.461463 -34.211424 17.799988 38.643498 1.498972 1.092102 0.014688 0.004725 -30270.800000 0 0 1
-3.106963 33.280945 18.225188 38.071406 -1.477711 1.071611 0.007151 0.007884 660795.000000 0 0 1
-4.032063 33.586145 19.286688 38.939221 -1.451317 1.052613 0.008172 0.005285 490094.000000 0 0 1
-5.090263 32.527345 19.703588 38.368871 -1.415564 1.031502 0.008392 0.002253 359884.000000 0 0 1
-6.057763 32.355045 18.673588 37.845056 -1.385711 1.054777 -0.000006 0.001587 476209.000000 0 0 1
-7.172863 31.600445 19.178588 37.654432 -1.347592 1.036389 0.006071 -0.018669 710128.000000 0 0 1
-8.329563 31.529345 18.134988 37.314326 -1.312513 1.063282 -0.010732 -0.020947 272296.000000 0 0 1
-9.001263 32.750045 17.790888 38.341933 -1.302572 1.088284 0.003602 -0.012325 -110616.000000 0 0 1
-9.693463 32.690845 16.572888 37.911939 -1.282536 1.118378 0.009342 0.003699 -452328.000000 0 0 1
-10.498763 33.975745 16.421088 39.169214 -1.271096 1.138194 0.049103 -0.011934 -206271.000000 0 0 1
-11.560863 33.982145 17.371588 39.877459 -1.242875 1.120065 0.059978 -0.017598 94574.900000 0 0 1
-12.336363 -33.559824 17.156088 39.658278 1.218535 1.123424 0.048801 -0.024990 450268.000000 0 0 1
-13.796363 -33.601624 17.690488 40.402501 1.181197 1.117584 0.076751 -0.027873 539538.000000 0 0 1
-13.788363 -33.449624 19.080788 40.903212 1.179806 1.085482 0.061527 -0.019153 547713.000000 0 0 1
-15.089863 -33.818624 19.547788 41.875044 1.151107 1.085113 0.059398 -0.022821 659696.000000 0 0 1
-15.228863 -33.482724 20.997588 42.354572 1.143935 1.052090 0.058658 -0.024596 -182617.000000 0 0 1
-15.196263 -32.022024 21.165588 41.283393 1.127710 1.032481 0.064815 -0.022871 26140.800000 0 0 1
-14.876463 -31.674724 22.489888 41.597985 1.131711 0.999589 0.046075 -0.008609 33832.500000 0 0 1
-14.772363 -30.137824 22.745288 40.544534 1.115051 0.975209 0.064276 -0.017640 -160021.000000 0 0 1
-14.775163 -29.844624 24.103688 41.109546 1.111101 0.944278 0.051868 -0.015822 -166296.000000 0 0 1
-14.817463 -28.475524 24.491288 40.376179 1.090995 0.919048 0.037421 -0.001016 63192.300000 0 0 1
-16.030063 -27.587924 24.111388 39.992693 1.044425 0.923672 0.045319 0.003999 -394095.000000 0 0 1
-17.222663 -27.887324 24.751688 41.072728 1.017550 0.924003 0.048880 0.010589 -380900.000000 0 0 1
-18.247963 -26.959624 24.421988 40.696965 0.975768 0.927178 0.054857 0.009024 -539997.000000 0 0 1
-19.280563 -26.862424 25.562188 41.794203 0.948255 0.912689 0.057486 0.002835 42023.200000 0 0 1
-20.133663 -27.992124 25.809788 43.070506 0.947260 0.928239 0.067744 0.000582 902504.000000 0 0 1
-21.029163 -28.364224 24.728988 43.107746 0.932824 0.959835 0.066152 -0.001077 120598.000000 0 0 1
-22.409263 -27.641324 24.797888 43.372262 0.889555 0.962165 0.058502 -0.000655 -86071.200000 0 0 1
-22.370063 -26.245524 24.419088 42.255640 0.864946 0.954656 0.062430 -0.001244 113684.000000 0 0 1
-23.289763 -25.994824 23.375288 42.006523 0.840230 0.980668 0.046071 0.001296 -216058.000000 0 0 1
-23.703663 -24.529324 23.224088 41.266325 0.802515 0.973045 0.046335 0.015138 -285638.000000 0 0 1
-24.523163 -24.126424 24.291188 42.113319 0.777243 0.955984 0.040325 0.013231 342768.000000 0 0 1
-25.131393 -22.870124 23.906988 41.547245 0.738325 0.957683 0.028834 0.023909 426337.000000 0 0 1
-25.687293 -22.007024 25.102988 42.122513 0.708387 0.932346 0.034627 0.018391 -80213.400000 0 0 1
-26.604303 -22.633524 25.945588 43.511365 0.704927 0.931919 0.022591 0.016959 116599.000000 0 0 1
-27.103583 -21.722624 26.930888 43.951670 0.675635 0.911275 0.017311 0.009511 -1141820.000000 0 0 1
-28.226363 -22.291924 27.773488 45.442536 0.668463 0.913248 0.010997 0.003711 1539050.000000 0 0 1
-29.611363 -21.963924 27.370688 45.917331 0.638194 0.932179 0.010820 0.010181 2220420.000000 0 0 1
-30.091913 -22.503824 26.162688 45.786805 0.642115 0.962583 0.010612 0.014064 -565972.000000 0 0 1
-31.461553 -23.211624 26.272388 47.104640 0.635633 0.979130 -0.012148 0.009923 -122898.000000 0 0 1
-31.993483 -23.725124 25.064488 47.060525 0.638078 1.009125 -0.025302 0.014766 252014.000000 0 0 1
-31.402783 -24.956224 24.614188 47.061727 0.671509 1.020407 -0.021747 0.008505 -519749.000000 0 0 1
-31.842753 -25.402524 23.193188 46.874013 0.673367 1.053193 -0.020432 0.007970 1077640.000000 0 0 1
-33.196873 -25.894824 23.039488 47.993669 0.662450 1.070082 -0.011116 0.004376 897332.000000 0 0 1
-33.488423 -26.305524 21.776588 47.829644 0.665844 1.098093 -0.004337 0.005897 -54622.400000 0 0 1
-34.847125 -27.037224 21.680488 49.146486 0.659860 1.113928 -0.001724 -0.001378 -391106.000000 0 0 1
-34.935117 -28.272624 22.339288 50.188120 0.680380 1.109498 0.004956 -0.002258 191986.000000 0 0 1
-34.022423 -29.299124 21.983788 49.992508 0.710944 1.115485 -0.002792 -0.007525 -366114.000000 0 0 1
-34.583056 -30.270324 20.898688 50.487973 0.718996 1.144025 0.005606 -0.001613 -143171.000000 0 0 1
-34.656919 -29.611124 19.640088 49.635207 0.707047 1.163979 0.000572 0.004403 329781.000000 0 0 1
-35.173137 -30.495124 18.687588 50.163015 0.714281 1.189055 0.000235 0.011407 -551315.000000 0 0 1
-35.238130 -30.063624 17.219788 49.417288 0.706323 1.214872 0.009529 0.020407 -414445.000000 0 0 1
-34.043423 -30.187324 16.492088 48.396468 0.725435 1.223060 0.013838 0.012404 -84367.100000 0 0 1
-34.175052 -29.683324 15.147488 47.733429 0.715175 1.247878 0.021193 0.010264 56240.500000 0 0 1
-35.067951 -30.487024 14.123188 48.566287 0.715632 1.275731 0.028116 0.000866 259936.000000 0 0 1
-34.466317 -31.656324 13.619388 48.739487 0.742927 1.287594 0.027341 -0.006917 -183530.000000 0 0 1
-35.174010 -32.305024 12.578088 49.386575 0.742907 1.313273 0.030838 -0.004619 -16716.800000 0 0 1
-35.097446 -31.604524 11.211788 48.542568 0.733080 1.337724 0.033118 -0.007528 157597.000000 0 0 1
35.575450 -30.604024 11.134888 48.230744 -0.710419 1.337828 0.025554 -0.003659 345783.000000 0 0 1
35.628560 -29.912224 9.929288 47.568121 -0.698400 1.360512 0.019528 -0.010795 350280.000000 0 0 1
34.507640 -28.817724 9.866188 46.028036 -0.695787 1.354768 0.049060 0.000723 339188.000000 0 0 1
34.740010 -27.775824 8.898888 45.360279 -0.674457 1.373333 0.046346 -0.033863 439765.000000 0 0 1
33.657700 -26.842724 8.746188 43.930267 -0.673228 1.370365 0.037798 -0.020333 473354.000000 0 0 1
33.973580 -25.689924 7.737588 43.290260 -0.647441 1.391093 0.033984 -0.021322 -52503.200000 0 0 1
34.778890 -24.698224 8.281488 43.452923 -0.617506 1.379038 0.044459 -0.025791 -246671.000000 0 0 1
35.086740 -23.793024 7.235488 43.006274 -0.595890 1.401750 0.052208 -0.032349 240223.000000 0 0 1
35.518250 -22.324324 7.641288 42.641656 -0.561134 1.390625 0.059439 -0.038693 346453.000000 0 0 1
34.373180 -21.620624 8.125788 41.412502 -0.561468 1.373299 0.053660 -0.029372 245355.000000 0 0 1
34.607430 -20.190724 8.024088 40.862275 -0.528140 1.373143 0.065308 -0.028220 -9897.820000 0 0 1
33.721870 -19.324824 8.919688 39.876988 -0.520379 1.345208 0.085816 -0.020946 -167332.000000 0 0 1
34.084250 -19.503924 10.276088 40.592328 -0.519748 1.314858 0.075212 -0.031623 19130.100000 0 0 1
33.210390 -18.834424 11.147588 39.773537 -0.515895 1.286714 0.071749 -0.019418 266571.000000 0 0 1
33.808790 -18.889524 12.629888 40.735273 -0.509511 1.255553 0.073922 -0.033730 986266.000000 0 0 1
34.933330 -18.017024 12.855888 41.354861 -0.476172 1.254691 0.052998 -0.018156 667087.000000 0 0 1
35.486470 -18.288924 14.101688 42.339484 -0.475874 1.231247 0.051000 -0.010282 670075.000000 0 0 1
-34.827675 -17.676824 14.596288 41.695187 0.469670 1.213149 0.046425 -0.017903 1852670.000000 0 0 1
-33.674263 -17.934724 13.760688 40.558191 0.489382 1.224642 0.037469 -0.017382 610156.000000 0 0 1
-32.494373 -17.374324 14.234288 39.501473 0.491011 1.202155 0.020466 -0.013949 120211.000000 0 0 1
-31.198093 -17.507924 13.385388 38.197081 0.511391 1.212767 0.043523 -0.019350 510928.000000 0 0 1
-30.758513 -18.904024 13.298688 38.474710 0.551082 1.217868 0.030294 -0.019145 731283.000000 0 0 1
-29.549883 -18.988324 12.524788 37.291049 0.571145 1.228272 -0.014826 -0.001896 570659.000000 0 0 1
-28.942993 -20.373224 12.279388 37.463962 0.613344 1.236859 -0.018340 -0.013124 -150755.000000 0 0 1
-29.645843 -21.148024 11.344688 38.142061 0.619633 1.268794 0.002712 -0.013640 -242970.000000 0 0 1
-28.698723 -21.905424 10.589088 37.624368 0.651952 1.285500 -0.001320 -0.008916 -346526.000000 0 0 1
-29.180503 -22.798124 9.415188 38.208663 0.663221 1.321817 0.014901 -0.010017 311007.000000 0 0 1
-30.006053 -23.899024 9.760688 39.582794 0.672587 1.321637 0.020573 -0.020527 797979.000000 0 0 1
-31.309053 -23.688424 10.328888 40.596603 0.647712 1.313541 0.041788 -0.026563 311549.000000 0 0 1
-32.063093 -24.996124 10.656488 42.028667 0.662172 1.314445 0.060289 -0.030932 15724.000000 0 0 1
-32.397593 -25.679024 9.441788 42.404760 0.670226 1.346256 0.051360 -0.023015 -151861.000000 0 0 1
-33.056353 -26.907024 9.652088 43.702096 0.683204 1.348099 0.057543 -0.014152 56634.600000 0 0 1
-33.234423 -27.674024 8.323788 44.041616 0.694359 1.380654 0.047319 -0.013593 231463.000000 0 0 1
-32.044613 -28.288924 7.867788 43.462887 0.723230 1.388770 0.036759 -0.013996 -255928.000000 0 0 1
-32.205673 -28.866124 6.548588 43.741770 0.730770 1.420521 0.027135 -0.016176 -108646.000000 0 0 1
-30.902973 -29.074424 5.750488 42.818033 0.754920 1.436089 0.028299 -0.010789 532438.000000 0 0 1
-30.201803 -27.902024 5.266388 41.453669 0.745838 1.443409 0.024953 -0.000385 -68227.000000 0 0 1
-29.197173 -28.206524 4.327788 40.826617 0.768142 1.464593 0.025043 -0.008644 -14415.000000 0 0 1
-28.575683 -26.970424 3.673388 39.464759 0.756507 1.477581 0.013054 -0.003603 -168282.000000 0 0 1
-29.308913 -26.425724 2.636588 39.551016 0.733714 1.504084 0.013743 0.004217 -781773.000000 0 0 1
-28.576823 -25.313724 2.199288 38.239460 0.724922 1.513251 0.017586 -0.007117 -191539.000000 0 0 1
-28.991223 -24.747224 0.794488 38.125416 0.706587 1.549956 0.031221 -0.007019 -140330.000000 0 0 1
-28.664593 -25.543924 -0.339012 38.396170 0.727894 1.579626 0.029261 -0.007113 -177255.000000 0 0 1
-28.682593 -24.811624 -1.570512 37.957533 0.713162 1.612184 0.042766 -0.013584 -234007.000000 0 0 1
-30.056423 -24.803624 -2.239012 39.033594 0.689940 1.628189 0.057772 -0.012653 -542545.000000 0 0 1
-30.931113 -23.894224 -1.686212 39.121746 0.657745 1.613911 0.048867 -0.010954 107915.000000 0 0 1
-32.156533 -23.773924 -2.439412 40.064857 0.636630 1.631721 0.058876 -0.015823 406527.000000 0 0 1
-32.789943 -22.467624 -2.205612 39.810039 0.600723 1.626228 0.062435 -0.020041 -430004.000000 0 0 1
-32.919223 -22.084224 -0.848612 39.649821 0.590901 1.592201 0.057248 -0.020333 334356.000000 0 0 1
-33.520133 -20.809024 -0.747812 39.461044 0.555567 1.589748 0.059125 -0.021188 -246168.000000 0 0 1
-33.578523 -20.275124 0.709188 39.231375 0.543218 1.552718 0.049615 -0.021303 -151626.000000 0 0 1
-34.286566 -21.146324 1.599588 40.314939 0.552647 1.531109 0.047414 -0.022942 420028.000000 0 0 1
-34.348346 -20.689824 2.927488 40.205073 0.542148 1.497918 0.054460 -0.025182 -273784.000000 0 0 1
-35.329627 -21.675924 3.727188 41.616345 0.550312 1.481115 0.059405 -0.012892 1704270.000000 0 0 1
34.976900 -21.771224 3.345888 41.334788 -0.556760 1.489762 0.058715 -0.017382 759652.000000 0 0 1
34.225960 -20.579824 3.365488 40.078323 -0.541370 1.486725 0.060816 -0.025045 -501061.000000 0 0 1
33.025960 -20.396924 2.410088 38.891607 -0.553262 1.508787 0.055188 -0.012297 178841.000000 0 0 1
31.915010 -21.156224 2.792788 38.392100 -0.585385 1.497988 0.053720 -0.011445 335461.000000 0 0 1
30.694930 -20.805924 2.086888 37.140548 -0.595691 1.514578 0.055436 -0.009793 952727.000000 0 0 1
29.462830 -21.556924 2.585088 36.598388 -0.631663 1.500104 0.041080 0.005212 -271486.000000 0 0 1
29.353180 -22.773724 1.924288 37.201540 -0.659842 1.519047 0.028327 -0.000198 417075.000000 0 0 1
28.173520 -23.483724 2.314788 36.750385 -0.694860 1.507768 0.018729 0.011423 500938.000000 0 0 1
27.927600 -24.646224 1.284888 37.269802 -0.723064 1.536314 0.018243 0.008396 -204514.000000 0 0 1
27.569640 -24.240724 -0.020512 36.711009 -0.721234 1.571355 0.024387 0.000261 217907.000000 0 0 1
26.947120 -25.224624 -0.826512 36.920347 -0.752394 1.593185 0.021405 -0.003152 125102.000000 0 0 1
26.079370 -24.649724 -2.000212 35.940830 -0.757224 1.626478 0.035768 -0.008239 320282.000000 0 0 1
26.830500 -24.123624 -3.115512 36.215071 -0.732324 1.656931 0.026257 -0.027839 172486.000000 0 0 1
27.329330 -25.020424 -4.062212 37.274864 -0.741321 1.679993 0.030020 -0.030248 -1253490.000000 0 0 1
26.308770 -25.876324 -4.860712 37.220452 -0.777112 1.701763 0.037083 -0.030248 -263805.000000 0 0 1
25.611670 -25.147324 -5.813112 36.361213 -0.776250 1.731357 0.047087 -0.045805 956632.000000 0 0 1
24.471970 -24.463024 -5.205512 34.991631 -0.785215 1.720115 0.050424 -0.038820 -4589.760000 0 0 1
23.820670 -23.467024 -6.212712 34.010636 -0.777920 1.754497 0.047645 -0.048167 99888.800000 0 0 1
23.241170 -24.014424 -7.416112 34.232196 -0.801760 1.789169 0.055749 -0.052413 481739.000000 0 0 1
22.175770 -23.300024 -8.016912 33.150065 -0.810115 1.815055 0.047537 -0.046459 -5946.860000 0 0 1
22.388070 -21.885724 -8.621012 32.473565 -0.774052 1.839496 0.043750 -0.041480 -507106.000000 0 0 1
22.914770 -21.913024 -9.952412 33.231278 -0.763055 1.874954 0.053609 -0.042675 194739.000000 0 0 1
22.789270 -20.630424 -10.525312 32.492267 -0.735719 1.900680 0.044294 -0.038946 355648.000000 0 0 1
23.727370 -20.544724 -11.792612 33.528189 -0.713633 1.930207 0.043442 -0.038976 236243.000000 0 0 1
25.109570 -20.675524 -11.612412 34.537167 -0.688854 1.913707 0.055249 -0.045931 -252042.000000 0 0 1
25.759270 -20.284024 -12.811612 35.201123 -0.667039 1.943307 0.051740 -0.052885 -657019.000000 0 0 1
27.217830 -20.639424 -13.012512 36.552997 -0.648795 1.934770 0.041185 -0.038151 -707528.000000 0 0 1
27.500040 -21.999824 -13.229212 37.619895 -0.674736 1.930134 0.030344 -0.040046 -201378.000000 0 0 1
28.396160 -22.548024 -12.315612 38.293989 -0.671104 1.898222 0.028225 -0.039674 -444401.000000 0 0 1
28.811380 -24.015624 -12.629112 39.577017 -0.694864 1.895578 0.014207 -0.028589 -296519.000000 0 0 1
29.772250 -24.111724 -13.658612 40.673330 -0.680732 1.913264 0.001259 -0.025018 116363.000000 0 0 1
30.130030 -25.473524 -13.838212 41.811664 -0.701848 1.908123 0.031999 -0.016489 -242.840000 0 0 1
-3.495463 -8.823955 -27.946262 29.513963 1.193628 2.814196 0.011086 -0.002308 26548.800000 0 0 1
-3.569263 -7.484155 -27.594582 28.813421 1.125791 2.849693 0.012791 -0.002247 -258727.000000 0 0 1
-4.778463 -6.791155 -27.790432 29.004511 0.957638 2.851236 0.020321 -0.010211 -220086.000000 0 0 1
-4.869063 -5.431555 -27.122322 28.086117 0.839952 2.878862 0.012853 -0.015105 -4039.740000 0 0 1
-5.357263 -5.489655 -25.796492 26.912741 0.797603 2.852572 0.015105 -0.010871 162713.000000 0 0 1
-5.171163 -4.253855 -25.106622 25.984201 0.688377 2.880957 0.020569 -0.017766 109833.000000 0 0 1
-5.687963 -4.226455 -23.625012 24.664895 0.639040 2.850182 0.016624 -0.015909 112026.000000 0 1 0
-4.982763 -5.139755 -22.777512 23.875931 0.800906 2.837085 0.013888 -0.019770 455011.000000 0 1 0
-5.494263 -5.180555 -21.469712 22.759034 0.756019 2.803379 0.014885 -0.012086 179823.000000 0 1 0
-4.709363 -6.278355 -20.675812 22.115268 0.927234 2.778805 0.012092 -0.012112 -73069.700000 0 1 0
-5.117863 -7.578255 -21.023712 22.926381 0.976816 2.731314 0.004159 -0.000010 177736.000000 0 1 0
-4.219663 -8.452455 -20.410812 22.491128 1.107770 2.708102 0.005391 -0.007075 -959006.000000 0 1 0
-4.842063 -9.841255 -20.147012 22.939006 1.113556 2.643062 0.008743 -0.002971 1273890.000000 0 1 0
-5.932263 -10.030955 -19.137912 22.406952 1.036728 2.594626 0.010032 -0.011850 1135150.000000 0 1 0
-7.104463 -9.441255 -19.631812 22.913288 0.925703 2.599803 0.010542 -0.008268 -920016.000000 0 1 0
-8.309363 -9.376755 -18.647712 22.465668 0.845677 2.550000 0.013768 -0.001805 12505.500000 0 1 0
-8.964863 -10.617555 -18.593812 23.212736 0.869595 2.499790 0.036736 -0.010250 -214599.000000 0 1 0
-9.687163 -10.689955 -17.410212 22.610435 0.834570 2.449650 0.033372 -0.006589 -125037.000000 0 1 0
-10.523663 -11.975755 -17.160812 23.423486 0.849848 2.392978 0.045414 -0.014712 -226183.000000 0 1 0
-11.579663 -12.237855 -18.043712 24.686621 0.813026 2.390452 0.054026 -0.017842 -83414.700000 0 1 0
-11.283063 -12.748755 -19.319012 25.750000 0.846312 2.419241 0.053648 -0.016341 -1622960.000000 0 0 1
-12.334963 -12.486955 -20.353012 26.876021 0.791521 2.429954 0.039476 -0.017527 747992.000000 0 0 1
-13.525963 -13.330455 -20.275612 27.780446 0.778119 2.388902 0.032982 -0.007048 1482600.000000 0 0 1
-14.488963 -13.133855 -19.220112 27.419718 0.736380 2.347538 0.035161 -0.002088 18544.400000 0 0 1
-15.783263 -13.930855 -19.477012 28.679856 0.723138 2.317357 0.034916 -0.005416 21561.500000 0 0 1
-15.481763 -15.292955 -19.522112 29.234780 0.779263 2.302005 0.036534 -0.010908 -4751.190000 0 0 1
-15.856163 -15.776455 -20.806512 30.548738 0.782878 2.320050 0.046472 -0.008792 98142.400000 0 0 1
-15.294163 -17.175755 -21.113512 31.220160 0.843282 2.313495 0.014225 -0.002436 -264279.000000 0 0 1
-15.808263 -18.189855 -20.262812 31.485768 0.855335 2.269930 0.024708 -0.001568 6405.760000 0 0 1
-15.458263 -19.483355 -20.743912 32.386246 0.900087 2.265966 0.010068 -0.000371 -440859.000000 0 0 1
-16.147263 -20.713855 -20.126912 33.089130 0.908657 2.224667 0.022084 -0.011962 -326505.000000 0 0 1
-15.651663 -21.944855 -20.570312 33.907064 0.951248 2.222658 0.016278 -0.005114 -4423.890000 0 0 1
-16.513963 -23.025755 -20.242112 34.822974 0.948623 2.191105 0.041095 -0.007890 -273175.000000 0 0 1
-16.010463 -24.443055 -20.534312 35.713525 0.990907 2.183367 0.031679 0.000938 -267787.000000 0 0 1
-16.026363 -24.796555 -21.907712 36.764947 0.997017 2.209165 0.017845 -0.000711 -136331.000000 0 0 1
-15.446163 -26.026985 -22.063712 37.453909 1.035194 2.200728 0.022845 0.001972 -410113.000000 0 0 1
-15.479563 -26.533175 -23.487912 38.669216 1.042669 2.223587 0.024178 -0.005529 72473.400000 0 0 1
-16.705263 -27.150185 -23.876212 39.828029 1.019209 2.213651 0.037744 -0.003790 163324.000000 0 0 1
-16.795763 -28.505775 -23.699512 40.698204 1.038352 2.192380 0.035692 -0.001306 -102419.000000 0 0 1
-18.005663 -29.098755 -24.456812 42.060399 1.016684 2.191329 0.046847 -0.006666 -25640.000000 0 0 1
-17.715963 -29.226865 -25.840232 42.846034 1.025865 2.218172 0.039818 -0.007132 314382.000000 0 0 1
-17.864563 -28.053805 -26.632242 42.607921 1.003759 2.245997 0.058962 -0.018054 280442.000000 0 0 1
-16.535463 -27.891985 -27.417322 42.462854 1.035659 2.272707 0.067181 -0.017537 60306.100000 0 0 1
-16.643263 -28.417915 -28.691302 43.677992 1.040987 2.287473 0.057125 0.000462 312598.000000 0 0 1
-15.464463 -28.176605 -29.442162 43.587976 1.068844 2.312392 0.029944 0.004590 69785.700000 0 0 1
-15.641063 -28.466855 -30.987322 44.891189 1.068377 2.332667 0.039136 0.006281 -17271.700000 0 0 1
-15.786163 -29.837275 -31.305142 46.037788 1.084160 2.318543 0.031714 0.002621 209143.000000 0 0 1
-16.458963 -29.868705 -32.552132 47.145290 1.067152 2.332927 0.027172 0.002483 3456.940000 0 0 1
-16.572863 -31.207425 -33.276272 48.537341 1.082614 2.326198 0.028302 -0.002620 578884.000000 0 0 1
-15.347763 -31.615755 -33.916112 48.840685 1.118859 2.338415 0.046913 -0.006651 547328.000000 0 0 1
-15.558963 -32.743585 33.891191 49.626974 1.127204 0.819046 0.045564 -0.006930 -87572.900000 0 0 1
-14.292263 -33.233935 33.186829 49.093064 1.164656 0.828478 0.051675 -0.011580 318130.000000 0 0 1
-13.336663 -33.924915 34.022306 49.862649 1.196232 0.819864 0.068115 -0.004598 -453981.000000 0 0 1
-12.309763 34.334552 33.230544 49.342282 -1.226548 0.831903 0.077964 -0.002691 -1132500.000000 0 0 1
-11.362163 33.489109 34.037585 49.083362 -1.243704 0.804509 0.083245 -0.000025 -126727.000000 0 0 1
-10.500863 34.209033 -33.727092 49.173599 -1.272965 2.326606 0.078889 -0.000468 91721.100000 0 0 1
-9.754163 33.438035 -32.810672 47.851710 -1.286964 2.326326 0.069333 -0.001155 310471.000000 0 0 1
-8.860163 34.344448 -31.911352 47.711404 -1.318322 2.303445 0.060490 0.000015 -34827.800000 0 0 1
-9.562363 -33.660495 -30.957412 46.720757 1.294006 2.295088 0.065149 -0.007292 -511041.000000 0 0 1
-8.771063 -32.629965 -30.458362 45.490197 1.308200 2.304411 0.060000 -0.011330 -173845.000000 0 0 1
-9.580463 -31.593255 -29.554212 44.309937 1.276366 2.300956 0.064191 -0.018390 432574.000000 0 0 1
-9.766163 -31.899355 -28.168912 43.662735 1.273702 2.272013 0.060099 -0.013820 -262891.000000 0 0 1
-10.658663 -32.976025 -27.996252 44.551268 1.258171 2.250298 0.062083 -0.012605 -167109.000000 0 0 1
-11.146963 -33.283035 -26.522302 43.993724 1.247624 2.217884 0.067919 -0.017039 854970.000000 0 0 1
-10.032163 -33.519885 -25.641592 43.378777 1.279991 2.203230 0.051513 -0.020634 312436.000000 0 0 1
-10.455363 -33.635485 -24.365012 42.828896 1.269422 2.175954 0.060400 -0.025952 -306473.000000 0 0 1
-9.297763 -33.865255 -23.408112 42.204782 1.302847 2.158717 0.055957 -0.029788 -294393.000000 0 0 1
-8.671163 33.586831 -23.472912 41.883671 -1.318142 2.165703 0.039814 -0.020264 9825.400000 0 0 1
-7.805063 33.429060 -22.355812 40.965881 -1.341424 2.148042 0.051818 -0.015258 -98074.000000 0 0 1
-6.992063 32.115213 -22.347412 39.745222 -1.356424 2.167921 0.044811 -0.013403 -89580.300000 0 0 1
-5.744863 32.029373 -22.999812 39.848156 -1.393321 2.186075 0.023191 -0.018942 71659.200000 0 0 1
-5.256663 30.684063 -22.801512 38.588252 -1.401128 2.202961 0.005818 -0.013681 274305.000000 0 0 1
-3.795963 30.433733 -23.269012 38.497641 -1.446708 2.219843 0.014163 -0.024875 328523.000000 0 0 1
-3.567063 30.611043 -24.628612 39.450329 -1.454791 2.245024 0.020397 -0.023302 -236567.000000 0 0 1
-2.698763 31.684913 -24.899612 40.388213 -1.485826 2.235095 0.018048 -0.025030 -143290.000000 0 0 1
-2.706663 31.973043 -26.380132 41.539294 -1.486343 2.258888 0.018646 -0.006052 416849.000000 0 0 1
-1.715963 32.942724 -26.782362 42.490735 -1.518754 2.252750 0.030175 -0.017038 460024.000000 0 0 1
-2.210963 34.270163 -26.665502 43.478517 -1.506370 2.231032 0.047082 -0.019664 628224.000000 0 0 1
-1.169963 -33.339805 -27.129872 42.999319 1.535719 2.253557 0.011210 -0.011313 684326.000000 0 0 1
-0.056463 -33.143195 -26.296972 42.308455 1.569093 2.241521 0.049667 -0.021322 -552875.000000 0 0 1
0.856737 -32.244985 -26.864392 41.978193 -1.544233 2.265243 0.029946 -0.013446 -500053.000000 0 0 1
2.136837 -32.142885 -26.059222 41.434457 -1.504415 2.250968 0.034286 -0.012708 -792279.000000 0 0 1
1.994137 -31.390445 -24.870312 40.098243 -1.507355 2.239838 0.033239 -0.013463 105023.000000 0 0 1
3.262737 -31.004785 -24.375912 39.574326 -1.465949 2.234391 0.023919 -0.013532 25832.800000 0 0 1
3.225937 -30.321475 -23.015212 38.203384 -1.464804 2.217350 0.022614 -0.016037 -145864.000000 0 0 1
2.944937 -31.205775 -21.963612 38.273664 -1.476703 2.182004 0.032249 -0.012762 370546.000000 0 0 1
2.964137 -30.372985 -20.794012 36.928245 -1.473513 2.168919 0.029589 -0.005807 -335650.000000 0 0 1
2.917537 -31.264815 -19.507012 36.966529 -1.477749 2.126680 0.027425 0.002634 40070.900000 0 0 1
1.621537 -31.813165 -19.294912 37.242456 -1.519870 2.115412 0.032308 0.003505 304481.000000 0 0 1
1.449237 -33.153935 -19.673812 38.579044 -1.527112 2.105936 0.049668 0.004486 -367263.000000 0 0 1
2.215337 -34.267680 -18.885212 39.189704 -1.506238 2.073609 0.026351 -0.003835 692446.000000 0 0 1
3.585937 34.337007 -19.286812 39.545798 1.466740 2.080259 0.022067 -0.001835 454673.000000 0 0 1
4.260437 33.507597 -18.364712 38.447016 1.444327 2.068789 0.030237 -0.026133 -216350.000000 0 0 1
5.486537 32.734109 -18.809512 38.149990 1.404731 2.086378 0.036867 -0.020493 -56549.400000 0 0 1
6.688737 33.485453 -18.947012 39.051301 1.373641 2.077368 0.065690 -0.017865 -70816.400000 0 0 1
7.619237 32.564673 -19.546812 38.737432 1.340958 2.099712 0.049620 -0.025361 -650286.000000 0 0 1
8.938737 33.271961 -19.788012 39.730214 1.308337 2.092156 0.032968 -0.030382 -1013420.000000 0 0 1
9.627837 33.308872 -18.580412 39.337107 1.289418 2.062738 0.019388 -0.017504 -695539.000000 0 0 1
10.831437 34.015701 -18.675812 40.288633 1.262523 2.052794 0.027153 -0.002626 17965.800000 0 0 1
11.525937 34.094356 -17.246212 39.908698 1.244798 2.017663 0.005674 0.003562 -187929.000000 0 0 1
12.150037 32.870242 -16.883012 38.898745 1.216736 2.019752 0.007381 -0.005912 119427.000000 0 0 1
12.891337 33.050499 -15.673612 38.783814 1.198897 1.986821 0.001396 -0.009260 432762.000000 0 0 1
14.068337 32.033783 -15.527212 38.277614 1.156983 1.988483 0.010442 -0.004482 457230.000000 0 0 1
13.764937 30.784223 -14.981012 36.899494 1.150321 1.988864 0.028493 -0.009383 145893.000000 0 0 1
14.950737 29.986433 -15.016012 36.717725 1.108283 1.992108 0.038667 -0.013354 436161.000000 0 0 1
14.916137 28.684583 -14.114812 35.277817 1.091273 1.982427 0.049176 -0.010803 -359353.000000 0 0 1
14.858937 28.873013 -12.694112 34.865160 1.095513 1.943454 0.049714 -0.012950 -197350.000000 0 0 1
13.600037 29.076993 -12.082912 34.299116 1.133300 1.930803 0.058892 -0.011241 -89791.400000 0 0 1
12.907637 27.778723 -11.714212 32.794624 1.135819 1.936064 0.054944 -0.010560 -647406.000000 0 0 1
12.216037 27.130753 -12.759712 32.374675 1.147722 1.975913 0.038961 -0.015143 38395.400000 0 0 1
11.710637 25.833833 -12.524012 31.006078 1.145196 1.986596 0.066045 -0.019989 404496.000000 0 0 1
10.710137 25.609943 -11.349612 29.989831 1.174697 1.958916 0.065111 -0.016415 169158.000000 0 0 1
9.448137 26.271513 -11.468312 30.182477 1.225565 1.960556 0.050304 -0.007760 565292.000000 0 0 1
8.972537 26.501463 -10.134512 29.758063 1.244342 1.918313 0.040391 0.005760 337381.000000 0 0 1
7.830337 27.580563 -10.194212 30.428993 1.294168 1.912419 0.043309 0.005097 421267.000000 0 0 1
8.243737 28.877973 -10.645212 31.862472 1.292724 1.911445 0.044613 0.001556 -32466.900000 0 0 1
7.203437 29.824063 -10.520112 32.435120 1.333804 1.901114 0.020472 0.005142 -13596.400000 0 0 1
7.766937 31.254063 -10.691912 33.933152 1.327221 1.891345 0.040843 -0.005183 143293.000000 0 0 1
8.508837 31.743403 -9.554412 34.224710 1.308902 1.853723 0.044813 -0.005989 198298.000000 0 0 1
9.138937 33.030069 -9.685812 35.613489 1.300864 1.846236 0.040456 -0.009466 108437.000000 0 0 1
10.216937 33.189974 -10.778412 36.361166 1.272170 1.871745 0.025083 -0.002220 -354204.000000 0 0 1
11.466637 32.546203 -10.588412 36.095063 1.232057 1.868523 0.025166 -0.007831 223915.000000 0 0 1
12.241537 32.936730 -11.726512 37.043144 1.214950 1.892901 0.018618 -0.006294 -7907.710000 0 0 1
13.773737 33.009668 -11.609012 37.604830 1.175497 1.884634 0.042684 -0.010599 13779.600000 0 0 1
14.084137 33.905302 -10.588112 38.210477 1.177088 1.851571 0.035470 -0.010278 274566.000000 0 0 1
15.504237 34.019286 -10.652612 38.873788 1.143172 1.848378 0.052291 -0.015571 572582.000000 0 0 1
16.250037 -33.706445 -9.726512 38.662556 -1.121567 1.825103 0.069251 -0.020273 170686.000000 0 0 1
16.459837 -34.217140 -8.447312 38.898535 -1.122431 1.789703 0.060239 -0.012777 -114368.000000 0 0 1
17.093337 -33.307685 -7.621312 38.205608 -1.096649 1.771625 0.050568 -0.011752 -572282.000000 0 0 1
17.202137 -33.741885 -6.088612 38.360130 -1.099327 1.730193 0.049649 -0.005979 -92774.200000 0 0 1
18.084837 33.868710 -5.906912 38.846396 1.080344 1.723447 0.047597 -0.016519 -355994.000000 0 0 1
19.389337 34.323022 -5.637212 39.822034 1.056580 1.712834 0.054587 -0.015709 -403695.000000 0 0 1
20.414137 33.542862 -6.528912 39.805619 1.024078 1.735561 0.034253 -0.010525 25145.500000 0 0 1
20.654837 32.170453 -6.212112 38.731779 1.000035 1.731880 0.027204 -0.008673 -303795.000000 0 0 1
21.612237 32.018163 -5.206412 38.978947 0.977047 1.704767 0.029131 -0.002035 -579566.000000 0 0 1
21.871637 30.531753 -4.872412 37.872112 0.949177 1.699808 0.014729 -0.012022 -713401.000000 0 0 1
22.564737 29.911633 -5.867912 37.924999 0.924498 1.726145 0.021726 -0.009480 -58618.000000 0 0 1
23.172537 28.698333 -5.357112 37.272771 0.891528 1.715023 0.014109 -0.010023 6232.130000 0 0 1
24.059137 27.932673 -6.366112 37.411278 0.859764 1.741794 0.025052 -0.001537 -1014630.000000 0 0 1
25.333637 28.459203 -6.510312 38.653636 0.843437 1.740030 0.034298 -0.009844 -996869.000000 0 0 1
26.172437 27.575183 -7.174912 38.689360 0.811491 1.757325 0.024145 -0.007971 -167340.000000 0 0 1
26.931237 26.521523 -6.286112 38.317071 0.777733 1.735596 0.025818 -0.011435 -466757.000000 0 0 1
27.933737 27.149693 -5.506812 39.341130 0.771165 1.711233 0.039634 -0.014523 -171030.000000 0 0 1
28.550637 26.274173 -4.637412 39.076549 0.743899 1.689752 0.033077 -0.006941 -224094.000000 0 0 1
29.878537 26.728723 -3.997312 40.288089 0.729812 1.670178 0.043563 -0.009826 -149621.000000 0 0 1
29.716637 27.778153 -3.115712 40.797206 0.751695 1.647241 0.055178 -0.015794 803830.000000 0 0 1
30.912137 28.064043 -2.355312 41.817440 0.737143 1.627150 0.066344 -0.018388 844812.000000 0 0 1
30.681437 29.291513 -1.414712 42.442252 0.762226 1.604135 0.069490 -0.008698 195884.000000 0 0 1
30.866737 30.495053 -2.125212 43.442149 0.779341 1.619736 0.044658 -0.010750 -37831.200000 0 0 1
30.139237 31.548323 -1.564712 43.659119 0.808236 1.606643 0.058176 -0.006107 -33695.800000 0 0 1
32.511390 22.561845 19.492978 44.113530 0.606666 1.113101 0.040868 -0.009877 -327643.000000 0 0 1
32.740690 22.490645 20.872078 44.871210 0.601902 1.086986 0.035200 -0.018687 -167340.000000 0 0 1
33.640910 23.459645 21.331478 46.228754 0.608948 1.091186 0.049322 -0.015706 -323256.000000 0 0 1
33.625020 23.579545 22.853478 46.999131 0.611564 1.063000 0.028642 -0.008594 -744379.000000 0 0 1
32.492260 24.204545 23.335178 46.756149 0.640250 1.048257 0.015728 -0.004494 -513190.000000 0 0 1
32.495970 24.379945 24.747488 47.568981 0.643658 1.023659 0.017956 -0.006110 499401.000000 0 0 1
31.168620 24.981445 25.335448 47.301590 0.675651 1.005560 -0.000294 -0.001083 410028.000000 0 0 1
30.976360 26.406545 25.085488 47.813410 0.705929 1.018488 -0.017253 0.010036 -132012.000000 0 0 1
29.852840 26.841045 25.789988 47.715377 0.732324 0.999769 -0.019011 0.006145 -494716.000000 0 0 1
29.704300 28.383245 25.862978 48.547375 0.762660 1.008965 -0.026632 0.008574 -254469.000000 0 0 1
29.338630 29.028745 24.669368 48.083271 0.780089 1.032056 -0.028143 0.007827 174131.000000 0 0 1
29.185200 30.383945 24.852728 48.914395 0.805519 1.037835 -0.029538 0.003804 -257613.000000 0 0 1
29.246010 31.303445 23.594678 48.907500 0.819365 1.067364 -0.024014 0.008302 611426.000000 0 0 1
30.618410 31.439445 23.212578 49.646243 0.798628 1.084268 -0.022732 0.005092 477449.000000 0 0 1
30.773490 32.181645 22.043878 49.684993 0.807762 1.111104 -0.021574 0.007005 -129296.000000 0 0 1
32.259840 32.504745 21.850578 50.741536 0.789180 1.125611 -0.019117 -0.004255 -183164.000000 0 0 1
32.693010 33.556245 22.695878 52.057250 0.798428 1.119670 -0.008183 0.001706 -192970.000000 0 0 1
34.084100 33.698245 22.586478 52.985343 0.779706 1.130422 -0.004409 0.004552 32739.100000 0 0 1
34.717180 -33.755024 23.289778 53.731723 -0.771347 1.122484 -0.003725 0.008068 80718.900000 0 0 1
34.180530 -32.548924 22.775278 52.406625 -0.760952 1.121216 -0.012067 0.005633 241367.000000 0 0 1
34.636070 -31.472424 23.510678 52.372921 -0.737579 1.105252 -0.007294 0.005526 -639533.000000 0 0 1
33.714240 -30.237024 23.285578 50.922939 -0.731079 1.095872 -0.004936 0.002486 1569430.000000 0 0 1
32.345810 -30.488224 23.718078 50.381847 -0.755843 1.080637 -0.006640 -0.001296 1613030.000000 0 0 1
31.466460 -30.917024 22.684478 49.604295 -0.776591 1.095830 -0.006334 0.007443 -202129.000000 0 0 1
30.633350 -32.208124 22.958978 50.028792 -0.810452 1.094022 -0.013371 0.004627 186828.000000 0 0 1
29.604150 -32.035824 23.922728 49.749338 -0.824827 1.069155 -0.007595 -0.004517 238001.000000 0 0 1
29.056920 -33.299624 24.168858 50.371652 -0.853333 1.070357 -0.018201 -0.000300 -304522.000000 0 0 1
28.034820 -33.424724 25.306918 50.434149 -0.872873 1.045139 -0.015070 0.000363 -249651.000000 0 0 1
27.794170 33.958545 25.583398 50.795757 0.884892 1.042975 -0.016210 -0.009594 156223.000000 0 0 1
27.116480 33.838245 26.819038 50.986185 0.895229 1.016899 -0.017059 -0.001460 -746554.000000 0 0 1
26.790350 32.399345 27.143458 50.042059 0.879879 0.997490 -0.012075 -0.000096 235236.000000 0 0 1
26.048770 31.820445 26.094668 48.703294 0.884806 1.005355 -0.011513 -0.004243 678740.000000 0 0 1
24.629670 32.025445 26.097048 48.096836 0.915204 0.997274 -0.009347 -0.003106 509221.000000 0 0 1
23.999770 31.668545 24.652338 46.761346 0.922295 1.015500 0.011417 -0.019028 44264.000000 0 0 1
24.288270 32.509445 23.642048 46.965205 0.929145 1.043273 0.006986 -0.026785 396840.000000 0 0 1
25.638070 32.563645 23.181578 47.487758 0.903834 1.060817 -0.010333 -0.011284 76872.400000 0 0 1
25.850470 33.348545 21.849478 47.516017 0.911386 1.092988 -0.001224 -0.008631 315715.000000 0 0 1
27.158640 33.370745 21.276378 47.998777 0.887670 1.111554 -0.008643 -0.004520 344223.000000 0 0 1
27.292720 -34.358624 20.295278 48.345692 -0.899511 1.137577 -0.009134 -0.006651 232899.000000 0 0 1
28.706290 -34.183424 19.650378 48.771866 -0.872270 1.156109 -0.011622 -0.009153 322242.000000 0 0 1
29.257310 33.406145 19.060778 48.324672 0.851510 1.165347 -0.011910 -0.003524 -232713.000000 0 0 1
30.333390 33.882245 18.271978 49.010062 0.840607 1.188749 -0.008851 -0.002332 139540.000000 0 0 1
31.344390 32.820745 17.729778 48.723886 0.808403 1.198363 -0.009305 0.003653 249035.000000 0 0 1
32.061800 32.179845 18.788178 49.157879 0.787236 1.178620 -0.013873 -0.005003 -44118.800000 0 0 1
32.839250 31.160045 18.229378 48.802407 0.759166 1.187980 0.001314 -0.006800 -36345.400000 0 0 1
33.745570 30.442645 19.278678 49.367859 0.733987 1.169610 0.023367 -0.018158 713561.000000 0 0 1
34.808620 31.314345 19.727178 50.807379 0.732602 1.172039 0.031228 -0.010154 525004.000000 0 0 1
35.807231 30.607545 20.412278 51.338491 0.707266 1.161895 0.052784 -0.010091 3217.880000 0 0 1
-34.697629 31.437745 20.954978 51.296865 -0.736147 1.149982 0.054142 -0.005215 -181357.000000 0 0 1
-34.071950 32.171545 19.904778 50.912732 -0.756718 1.169123 0.060071 -0.009101 584099.000000 0 0 1
-32.974773 33.017245 20.325478 50.897929 -0.786042 1.160002 0.046929 -0.000327 673962.000000 0 0 1
-33.277543 34.287345 21.237578 52.288159 -0.800343 1.152544 0.028054 -0.005300 -258135.000000 0 0 1
-33.279343 34.018845 22.615078 52.690020 -0.796386 1.127179 0.039579 -0.001420 170535.000000 0 0 1
-33.019483 -33.542024 23.349178 52.540820 0.793249 1.110291 0.028865 -0.000760 -172087.000000 0 0 1
-33.023133 -33.862024 24.883698 53.444948 0.797940 1.086490 0.030323 -0.007539 -226504.000000 0 0 1
-34.324157 -34.022224 25.415358 54.604028 0.780981 1.086655 0.026426 0.005539 166641.000000 0 0 1
-34.199523 33.991845 26.608818 55.073424 -0.782353 1.066545 0.029758 0.000657 -1150630.000000 0 0 1
-35.483731 33.985445 27.331658 56.223884 -0.763834 1.063150 0.019634 -0.005999 -1159920.000000 0 0 1
-35.490390 33.155745 28.445168 56.284978 -0.751401 1.040977 0.034278 -0.016028 -230471.000000 0 0 1
34.895530 33.130545 29.005958 56.184309 0.759458 1.028313 0.038969 -0.020268 -5288.130000 0 0 1
34.738120 32.048045 30.117018 56.043277 0.745141 1.003459 0.041319 -0.013346 -256004.000000 0 0 1
34.585710 30.649345 29.713598 54.940437 0.725130 0.999369 0.029394 -0.014140 -24824.600000 0 0 1
35.667152 30.077245 29.017688 54.943722 0.700577 1.014394 0.034014 -0.011253 -270866.000000 0 0 1
35.475600 28.565645 28.707458 53.838949 0.677915 1.008406 0.047309 -0.013169 -213693.000000 0 0 1
34.455290 28.270945 27.759728 52.507293 0.687123 1.013748 0.030926 0.000687 478241.000000 0 0 1
34.237060 26.929445 27.428478 51.475166 0.666491 1.008833 0.039604 -0.000920 192939.000000 0 0 1
33.642420 25.942945 28.474958 51.143641 0.656893 0.980311 0.032395 -0.006388 -323362.000000 0 0 1
34.664420 25.659245 29.425978 52.210220 0.637211 0.972052 0.031786 -0.012153 372351.000000 0 0 1
34.791380 24.333445 29.741968 51.837644 0.610330 0.959716 0.030377 -0.005592 -172890.000000 0 0 1
35.548270 23.448045 28.732498 51.371653 0.583102 0.977247 0.039916 -0.014954 -657164.000000 0 0 1
34.961910 23.396945 27.463388 50.239326 0.589763 0.992437 0.025550 -0.009125 -337852.000000 0 0 1
35.459890 22.437645 26.588038 49.676709 0.564161 1.006026 0.033562 -0.024736 -537763.000000 0 0 1
35.281570 20.968245 26.907128 49.075962 0.536226 0.990496 0.026593 -0.026038 -692898.000000 0 0 1
33.957470 20.580345 26.664308 47.829339 0.544865 0.979439 0.047408 -0.018452 -255057.000000 0 0 1
33.676720 19.282145 27.153138 47.362596 0.520003 0.960264 0.049466 -0.020336 -467923.000000 0 0 1
33.305760 19.087845 28.697338 47.928662 0.520412 0.928855 0.022905 -0.024458 1010850.000000 0 0 1
32.119340 19.705945 29.282718 47.722676 0.550303 0.910182 0.029489 -0.022999 1208790.000000 0 0 1
32.119330 21.105745 29.027438 48.163222 0.581353 0.923930 0.027415 -0.030791 -519744.000000 0 0 1
31.059520 21.970445 29.810678 48.332916 0.615652 0.906154 0.031055 -0.029795 562147.000000 0 0 1
29.726800 21.859645 29.328208 47.134600 0.634060 0.899218 0.036530 -0.035604 333678.000000 0 0 1
29.292320 22.622745 28.211408 46.537212 0.657627 0.919508 0.023135 -0.029360 -233972.000000 0 0 1
29.059650 24.134845 28.412738 47.267723 0.693080 0.925917 0.012198 -0.016255 -743226.000000 0 0 1
30.224330 24.842945 28.716328 48.531531 0.687984 0.937625 0.007621 -0.006895 -439778.000000 0 0 1
29.928520 25.947345 29.565068 49.427465 0.714268 0.929605 -0.007192 -0.004533 -188615.000000 0 0 1
30.321620 25.736245 31.098828 50.486553 0.703783 0.907164 0.001687 -0.014400 229130.000000 0 0 1
31.664800 25.292245 31.216118 51.154699 0.673978 0.914446 0.009998 -0.015885 -204057.000000 0 0 1
32.131830 25.161045 32.522828 52.184931 0.664324 0.897940 0.019836 -0.017848 -113326.000000 0 0 1
31.690350 23.910645 33.312712 51.824068 0.646380 0.872643 0.032339 -0.017607 -65552.100000 0 0 1
32.281890 23.859145 -34.005472 52.609423 0.636481 2.273622 0.031039 -0.024131 177180.000000 0 0 1
31.917660 22.770945 -33.302922 51.442566 0.619681 2.274939 0.021007 -0.024117 -547446.000000 0 0 1
32.443230 22.769845 -31.816212 50.826178 0.611957 2.247185 0.018912 -0.030825 -335576.000000 0 0 1
31.730700 23.600145 -30.963342 50.224822 0.639498 2.235079 0.009869 -0.029354 -44767.000000 0 0 1
32.015390 23.314345 -29.624082 49.458367 0.629418 2.213011 0.033972 -0.035561 134837.000000 0 0 1
33.265460 24.063945 -29.062432 50.301980 0.626253 2.186777 0.031645 -0.007659 259983.000000 0 0 1
33.759800 23.419145 -27.922702 49.677537 0.606485 2.167694 0.032918 -0.012940 -888579.000000 0 0 1
34.806790 24.205645 -27.457782 50.510946 0.607651 2.145517 0.039685 -0.007678 -655146.000000 0 0 1
35.690612 23.448745 -26.491172 50.253812 0.581281 2.126037 0.039069 -0.002909 -543703.000000 0 0 1
-35.310184 22.362545 -27.044542 49.782525 -0.564558 2.145104 0.033634 -0.008545 -95206.400000 0 0 1
-35.535583 21.203745 -26.280982 49.021082 -0.537982 2.136625 0.018016 -0.005362 -344187.000000 0 0 1
-34.559898 20.029945 -26.598592 47.990315 -0.525263 2.158257 0.040788 0.000148 -80884.100000 0 0 1
-33.264083 20.275245 -26.106732 46.895055 -0.547393 2.161211 0.039158 -0.007547 -558246.000000 0 0 1
-32.424323 19.145045 -26.267062 45.911088 -0.533370 2.179896 0.019894 -0.016153 660.922000 0 0 1
-31.042453 19.561745 -25.719722 44.808480 -0.562302 2.182169 0.017147 -0.016099 -299731.000000 0 0 1
-31.061043 19.676645 -24.332012 44.090878 -0.564676 2.155390 0.011998 -0.008966 249709.000000 0 0 1
-29.821973 19.885145 -23.673912 42.956061 -0.588091 2.154501 0.022734 -0.004434 227827.000000 0 0 1
-30.076703 20.245745 -22.203212 42.514478 -0.592469 2.120284 0.012197 -0.004754 328700.000000 0 0 1
-30.824123 19.195245 -21.537312 42.218950 -0.556969 2.106137 -0.007064 0.006408 362187.000000 0 0 1
-31.187063 19.637445 -20.229412 42.041542 -0.561948 2.072793 -0.004489 0.009386 -493449.000000 0 0 1
-32.379873 18.882745 -19.617112 42.306563 -0.527947 2.052951 -0.021828 0.010599 101999.000000 0 0 1
-33.110513 19.295045 -18.481612 42.546149 -0.527637 2.020157 -0.017634 0.004440 711972.000000 0 0 1
-34.002213 20.404645 -18.687112 43.837292 -0.540491 2.011177 -0.017733 0.003744 -308824.000000 0 0 1
-35.058326 20.510645 -17.575712 44.256959 -0.529349 1.979183 -0.001772 -0.004411 -496497.000000 0 0 1
-34.700298 21.092045 -16.321912 43.765167 -0.546160 1.952975 -0.001359 -0.011621 512233.000000 0 0 1
-35.750658 20.687645 -15.442512 44.097158 -0.524584 1.928573 0.002112 -0.004635 -372135.000000 0 0 1
-35.677932 21.352645 -14.025912 43.881391 -0.539303 1.896138 0.006408 -0.005241 -505674.000000 0 0 1
35.732337 22.730045 -13.912312 44.575860 0.566556 1.888203 0.012440 -0.009620 -730876.000000 0 0 1
34.438720 23.104145 -14.181012 43.828393 0.590912 1.900283 0.022394 -0.010653 -1321970.000000 0 0 1
34.259620 24.535045 -14.595812 44.595153 0.621483 1.904237 0.016584 -0.016558 -216578.000000 0 0 1
34.462320 25.476745 -13.573812 44.955137 0.636594 1.877525 0.018513 -0.013462 133816.000000 0 0 1
34.415640 26.858645 -13.926212 45.823165 0.662687 1.879593 0.006201 -0.008160 -264792.000000 0 0 1
35.699819 27.344845 -14.630712 47.289273 0.653641 1.885345 0.031734 -0.003953 -148319.000000 0 0 1
-35.819197 27.177145 -16.009112 47.727390 -0.649066 1.912856 0.038241 -0.006397 326263.000000 0 0 1
-34.756811 28.005345 -16.497512 47.586796 -0.678238 1.924828 0.059588 -0.012238 -386497.000000 0 0 1
-34.486982 27.843145 -18.011612 47.843608 -0.679208 1.956778 0.057021 -0.012197 -468842.000000 0 0 1
-33.998613 26.622945 -18.429812 46.950451 -0.664326 1.974185 0.049534 -0.014771 282712.000000 0 0 1
-32.638503 26.401945 -18.060212 45.700173 -0.680156 1.977070 0.040601 -0.002396 131293.000000 0 0 1
-32.038233 25.044245 -18.596612 44.715730 -0.663482 1.999712 0.031393 -0.004691 -221593.000000 0 0 1
-31.731413 25.074245 -19.997212 45.116392 -0.668738 2.030002 0.026995 -0.003311 400798.000000 0 0 1
-31.204203 23.825645 -20.484712 44.283033 -0.652110 2.051706 0.025189 -0.001723 172236.000000 0 0 1
-30.837333 23.842545 -22.019512 44.769040 -0.658167 2.085006 0.021565 -0.001917 -245442.000000 0 0 1
-32.005253 23.842445 -22.777612 45.952345 -0.640264 2.089413 0.032661 -0.005047 -199709.000000 0 0 1
-31.767643 23.542345 -24.094112 46.302822 -0.637767 2.118068 0.038389 -0.008557 -242703.000000 0 0 1
-32.673523 24.307345 -25.040812 47.806363 -0.639615 2.122098 0.022697 -0.000897 -426105.000000 0 0 1
-32.346713 25.693545 -25.078612 48.326027 -0.671266 2.116414 0.021036 0.000357 310875.000000 0 0 1
-33.319763 26.415545 -25.847012 49.759980 -0.670329 2.116984 0.027355 -0.004833 279637.000000 0 0 1
-32.911143 27.888045 -26.259122 50.501761 -0.702968 2.117606 0.022581 0.002127 175569.000000 0 0 1
-31.722813 27.917245 -27.022622 50.159062 -0.721676 2.139735 0.026071 -0.004360 -246398.000000 0 0 1
-31.219693 29.233545 -27.097452 50.631426 -0.752556 2.135529 0.025779 -0.008103 -7181.810000 0 0 1
-29.892553 29.427645 -27.829612 50.339232 -0.777561 2.156567 0.019033 -0.002461 -343957.000000 0 0 1
-28.822293 28.719645 -27.257902 48.974848 -0.783614 2.161047 -0.000553 -0.001032 194452.000000 0 0 1
-27.568703 28.761445 -27.934272 48.657760 -0.806569 2.182297 0.018367 -0.002008 1039630.000000 0 0 1
-26.612053 29.971145 -27.716112 48.730419 -0.844694 2.175799 0.014072 -0.009216 111772.000000 0 0 1
-25.967323 30.118545 -26.442032 47.755729 -0.859279 2.157589 0.005545 -0.010135 -191401.000000 0 0 1
-26.886873 30.567445 -25.510412 48.042208 -0.849372 2.130577 0.004126 -0.003067 -167138.000000 0 0 1
-26.206493 30.997745 -24.143812 47.228848 -0.868960 2.107387 -0.009701 -0.006544 266565.000000 0 0 1
-25.735993 32.331445 -24.354712 47.966818 -0.898496 2.103357 -0.001115 0.001127 256092.000000 0 0 1
-24.702263 32.606045 -23.395812 47.124516 -0.922450 2.090321 0.007031 0.009925 436127.000000 0 0 1
-24.313163 34.082445 -23.510512 48.015488 -0.951158 2.082478 0.007627 0.016604 -100364.000000 0 0 1
-25.246973 -33.785624 -22.885512 47.985672 0.929045 2.067948 -0.001681 0.009197 -30501.500000 0 0 1
-24.765263 -32.458624 -22.854812 46.789133 0.919040 2.081125 0.010012 0.011022 -28847.800000 0 0 1
16.431837 8.370445 -25.471672 31.446394 0.471143 2.514953 0.033358 -0.017114 -451822.000000 0 0 1
15.107837 7.925145 -25.440002 30.630841 0.483111 2.550865 0.025396 -0.017163 -635591.000000 0 0 1
15.053837 6.516645 -25.395012 30.232290 0.408534 2.568073 0.033509 -0.020233 699962.000000 0 0 1
13.621637 5.917245 -25.174812 29.228992 0.409806 2.608611 0.026636 -0.026588 618675.000000 0 0 1
13.019437 6.052945 -23.925812 27.903197 0.435189 2.601105 0.032401 -0.036898 -455888.000000 0 0 1
11.712537 5.575045 -23.961712 27.247538 0.444255 2.645414 0.034645 -0.031988 -657935.000000 0 0 1
10.948937 5.743745 -22.633712 25.790595 0.483129 2.641620 0.045808 -0.038366 -190459.000000 0 0 1
11.315337 4.733845 -21.646412 24.879978 0.396230 2.626066 0.044190 -0.033220 270923.000000 0 1 0
11.027637 5.114945 -20.293412 23.655740 0.434295 2.601895 0.058519 -0.029777 -80972.200000 0 1 0
11.502137 6.513045 -19.721012 23.741046 0.515231 2.551109 0.058946 -0.035668 -350663.000000 0 1 0
11.124237 6.660945 -18.354212 22.472071 0.539520 2.526563 0.046189 -0.027583 -94798.400000 0 1 0
11.392837 7.970145 -17.922612 22.683474 0.610441 2.481797 0.051227 -0.025283 659841.000000 0 1 0
12.902337 8.284845 -17.658212 23.386351 0.570815 2.426549 0.056987 -0.023973 153694.000000 0 1 0
13.326737 7.752045 -16.441412 22.539214 0.526848 2.388326 0.067673 -0.028963 -457261.000000 0 1 0
14.694037 7.930645 -16.277312 23.318678 0.494915 2.343449 0.063810 -0.022777 -960875.000000 0 1 0
15.117837 7.809345 -14.822512 22.566385 0.476812 2.287417 0.058446 -0.023732 212699.000000 0 1 0
16.534437 7.631445 -14.701212 23.404107 0.432416 2.249965 0.055851 -0.023392 827284.000000 0 1 0
17.019937 7.852945 -13.393912 23.037880 0.432291 2.191228 0.048920 -0.022652 77507.300000 0 1 0
17.566637 9.320345 -13.190812 23.863217 0.487804 2.156478 0.061584 -0.023635 345093.000000 0 1 0
16.530337 10.298245 -12.868612 23.343245 0.557153 2.154691 0.073284 -0.027658 1098880.000000 0 1 0
16.921037 11.634145 -13.021612 24.315370 0.602325 2.135932 0.067151 -0.023604 -119466.000000 0 1 0
15.738637 12.563745 -12.668112 23.791458 0.673688 2.132306 0.075311 -0.027403 -4296.690000 0 1 0
15.415037 12.710645 -11.297812 22.952656 0.689539 2.085437 0.106222 -0.019600 234782.000000 0 1 0
15.971437 13.871445 -10.712812 23.712194 0.715146 2.039561 0.089719 -0.003120 -68747.500000 0 1 0
15.139237 15.145545 -10.939512 24.046974 0.785606 2.043082 0.057616 -0.004555 -207924.000000 0 1 0
13.911037 15.248545 -10.271912 23.055309 0.831235 2.032566 0.075252 -0.019039 -359257.000000 0 1 0
13.388937 16.552145 -10.481212 23.729580 0.890655 2.028282 0.059686 -0.019803 -268256.000000 0 1 0
12.224537 16.864345 -9.545812 22.912179 0.943570 2.000527 0.057565 -0.022551 -322634.000000 0 1 0
12.595837 16.787845 -8.186412 22.527854 0.927106 1.942701 0.055781 -0.018876 -937.321000 0 1 0
11.566737 17.190845 -7.316712 21.973821 0.978530 1.910252 0.045846 -0.016175 -308329.000000 0 1 0
11.922537 17.194145 -5.831712 21.720828 0.964509 1.842616 0.038908 -0.010105 -61714.200000 0 1 0
12.933037 18.142645 -5.612212 22.976421 0.951496 1.817552 0.047968 -0.008575 -112858.000000 0 1 0
13.482537 17.925645 -4.338012 22.845698 0.925929 1.761839 0.046723 -0.007268 -450345.000000 0 1 0
14.535637 18.990645 -3.935212 24.236651 0.917505 1.733885 0.045499 -0.010485 -653854.000000 0 1 0
15.721037 18.731745 -4.626812 24.888485 0.872563 1.757786 0.049744 -0.023218 -749064.000000 0 1 0
16.450737 19.894945 -4.720812 26.243507 0.879879 1.751666 0.035545 -0.024910 -857996.000000 0 0 1
17.859037 19.801345 -5.307612 27.188402 0.836927 1.767274 0.040797 -0.018021 220538.000000 0 0 1
18.892137 19.144645 -4.554612 27.279567 0.792037 1.738543 0.044540 -0.030764 528482.000000 0 0 1
18.933737 17.851545 -4.987512 26.496025 0.755987 1.760162 0.046199 -0.031633 -408846.000000 0 0 1
20.050537 16.960045 -4.387912 26.625569 0.702088 1.736352 0.059764 -0.034747 622540.000000 0 0 1
21.365137 17.344245 -4.842712 27.941793 0.681895 1.744990 0.052405 -0.039682 577724.000000 0 0 1
22.286737 16.478745 -4.222512 28.037070 0.636681 1.721976 0.064037 -0.042515 -669654.000000 0 0 1
23.740837 16.830245 -4.513812 29.449261 0.616684 1.724677 0.066590 -0.041519 -474657.000000 0 0 1
24.230637 18.029345 -3.952612 30.459878 0.639697 1.700928 0.063893 -0.042785 -723890.000000 0 0 1
25.607837 18.078345 -4.092512 31.612284 0.614721 1.700620 0.058845 -0.034590 -891219.000000 0 0 1
26.247237 19.343145 -3.426112 32.784340 0.635103 1.675492 0.070051 -0.031276 -339105.000000 0 0 1
26.308737 20.521445 -4.204612 33.629721 0.662441 1.696151 0.064351 -0.037765 239947.000000 0 0 1
26.374537 21.651545 -3.387212 34.291089 0.687371 1.669736 0.088002 -0.020426 -291671.000000 0 0 1
26.171737 23.058145 -4.102612 35.120781 0.722236 1.687878 0.053927 -0.022648 70666.100000 0 0 1
27.250337 23.463145 -4.934812 36.296727 0.710858 1.707176 0.056869 -0.015850 407264.000000 0 0 1
27.538737 22.667945 -6.104112 36.186710 0.688686 1.740291 0.053610 -0.011435 -607431.000000 0 0 1
28.729837 23.149045 -6.895912 37.534456 0.678237 1.755568 0.036611 -0.009650 -835240.000000 0 0 1
28.333637 24.032745 -7.936312 37.991484 0.703451 1.781243 0.028202 -0.006207 242501.000000 0 0 1
29.335637 24.686245 -8.703212 39.315852 0.699545 1.794012 0.011730 -0.004624 -146380.000000 0 0 1
30.358337 23.858945 -9.521612 39.768568 0.666091 1.812571 0.006870 -0.010136 -24854.600000 0 0 1
29.932137 23.513545 -10.815012 39.569990 0.665875 1.847632 0.007210 -0.009352 702952.000000 0 0 1
31.048837 23.189945 -11.643512 40.464493 0.641505 1.862669 0.008058 -0.010549 197838.000000 0 0 1
30.485037 22.644545 -12.950812 40.122767 0.638883 1.899461 -0.003148 -0.007137 191606.000000 0 0 1
30.021137 23.633345 -13.873512 40.648223 0.666902 1.919103 0.008676 -0.005352 243670.000000 0 0 1
29.617237 23.010145 -15.085512 40.425489 0.660507 1.953218 0.007134 -0.009379 -188268.000000 0 0 1
29.743937 23.917345 -16.348912 41.521418 0.677241 1.975500 0.003040 -0.003656 262390.000000 0 0 1
31.081337 24.382245 -16.599712 42.849665 0.665197 1.968600 -0.010859 -0.002571 682510.000000 0 0 1
31.129437 25.007145 -17.882112 43.751218 0.676767 1.991850 -0.004044 -0.002847 -332993.000000 0 0 1
32.501837 25.593745 -18.169412 45.183368 0.667045 1.984634 -0.002857 -0.006928 -232.399000 0 0 1
33.548637 24.636345 -18.284712 45.461976 0.633408 1.984713 0.008764 -0.004703 -914577.000000 0 0 1
34.812237 25.196545 -18.294912 46.706119 0.626511 1.973278 0.023792 -0.009186 -1447230.000000 0 0 1
35.784037 24.014245 -18.311912 46.824218 0.591057 1.972599 0.025384 -0.014266 -783372.000000 0 0 1
-35.838195 23.176645 -19.476412 46.913364 -0.574054 1.998912 0.011938 -0.006978 67518.400000 0 0 1
-35.101695 23.631645 -20.582412 47.055492 -0.592535 2.023510 0.020985 -0.004265 -340165.000000 0 0 1
-35.148495 22.621945 -21.780412 47.133379 -0.571870 2.051160 0.016335 -0.007289 -95854.300000 0 0 1
-34.552695 21.371045 -21.657312 46.039651 -0.553916 2.060547 0.006090 -0.006910 140399.000000 0 0 1
-34.533295 20.665245 -22.910112 46.308466 -0.539253 2.088319 0.005955 -0.009150 -131410.000000 0 0 1
-34.390095 19.083145 -22.860012 45.490936 -0.506599 2.097305 -0.001548 -0.003419 -258316.000000 0 0 1
-35.389895 18.229345 -22.371912 45.664605 -0.475655 2.082792 -0.008803 -0.003865 -366545.000000 0 0 1
-35.087695 16.886345 -22.678712 45.062390 -0.448544 2.098179 -0.014169 -0.004054 -868547.000000 0 0 1
35.548737 15.821345 -22.391612 44.893340 0.418739 2.092980 -0.019021 -0.001262 -233903.000000 0 0 1
34.525337 15.903745 -23.396712 44.635571 0.431667 2.122539 0.027073 -0.007903 782843.000000 0 0 1
33.387437 15.083845 -23.147812 43.336642 0.424335 2.134286 0.044452 -0.004689 145287.000000 0 0 1
33.581837 13.681445 -23.782012 43.364800 0.386875 2.151267 0.022805 -0.013468 -596472.000000 0 0 1
33.516737 13.584845 -25.192542 44.074753 0.385080 2.179235 0.035994 -0.006909 309143.000000 0 0 1
33.934637 12.291845 -25.608442 44.254281 0.347521 2.187888 0.027646 -0.002613 -284662.000000 0 0 1
33.964737 12.108345 -27.135942 45.128425 0.342451 2.215930 0.043797 -0.006295 -183462.000000 0 0 1
32.673237 12.065345 -27.702782 44.503451 0.353740 2.242712 0.041104 -0.010148 142362.000000 0 0 1
32.214737 13.356445 -28.089052 44.779223 0.393035 2.248850 0.049925 -0.005191 -278170.000000 0 0 1
32.489737 13.738245 -29.590122 46.042347 0.400047 2.268777 0.050557 -0.000928 1111720.000000 0 0 1
33.920437 13.745645 -29.834072 47.218754 0.385009 2.254704 0.042832 -0.001825 1203180.000000 0 0 1
34.302937 13.456845 -31.171342 48.264177 0.373846 2.272930 0.033376 -0.008718 -1241320.000000 0 0 1
35.734037 13.873945 -31.442302 49.578485 0.370341 2.257760 0.040575 -0.003205 -983189.000000 0 0 1
-34.882295 13.092645 -31.026802 48.485609 -0.359067 2.265188 0.024110 -0.005645 -213445.000000 0 0 1
-34.755595 12.819845 -29.613082 47.426095 -0.353374 2.245166 0.016596 -0.001810 -284909.000000 0 0 1
-33.530695 11.833845 -29.488752 46.194523 -0.339279 2.263163 0.012956 -0.009309 417907.000000 0 0 1
-33.843395 10.562545 -29.982692 46.431720 -0.302521 2.272785 0.012424 -0.015562 -182252.000000 0 0 1
-32.864895 9.570345 -29.826142 45.401449 -0.283366 2.287553 0.018975 -0.013722 -646609.000000 0 0 1
-33.286495 8.128545 -30.133662 45.630052 -0.239512 2.292135 0.033556 -0.023973 -1041720.000000 0 0 1
-33.445595 8.047345 -31.544212 46.673386 -0.236122 2.312914 0.025409 -0.024046 175713.000000 0 0 1
-33.891795 6.774045 -32.024042 47.117733 -0.197273 2.318095 0.034807 -0.029217 135970.000000 0 0 1
-35.343095 6.308745 -31.664732 47.870554 -0.176640 2.293568 0.040927 -0.017477 122055.000000 0 0 1
-35.366495 5.952745 -30.331152 46.970235 -0.166753 2.272805 0.038578 -0.028062 -167168.000000 0 0 1
35.066437 5.461245 -29.962082 46.445738 0.154499 2.271949 0.034530 -0.019662 -563829.000000 0 0 1
35.284437 4.699945 -28.641312 45.688136 0.132422 2.248348 0.049638 -0.027252 394816.000000 0 0 1
-35.531495 3.556745 -28.837252 45.899071 -0.099769 2.250131 0.069049 -0.030424 819416.000000 0 0 1
-35.785395 2.535645 -27.872902 45.430416 -0.070739 2.231319 0.077163 -0.026404 -262545.000000 0 0 1
-34.770395 1.390045 -28.054862 44.698858 -0.039957 2.249316 0.095257 -0.021861 424987.000000 0 0 1
-33.516495 1.647045 -27.410582 43.329069 -0.049102 2.255720 0.091768 -0.020928 -4259.490000 0 0 1
-32.707895 0.520545 -27.552762 42.769523 -0.015914 2.270793 0.086626 -0.015291 -718028.000000 0 0 1
-31.527495 0.617345 -26.612862 41.262677 -0.019579 2.271770 0.077262 -0.011234 -840705.000000 0 0 1
-31.932895 0.611645 -25.279512 40.732513 -0.019152 2.240333 0.070106 -0.004324 646359.000000 0 0 1
-30.828595 0.561045 -24.353612 39.291417 -0.018197 2.239310 0.076036 0.000440 405434.000000 0 0 1
-31.276495 0.301045 -22.930812 38.783140 -0.009625 2.203413 0.065539 0.007681 -441924.000000 0 0 1
-31.393295 -1.060455 -22.575612 38.682319 0.033767 2.193971 0.076592 -0.000239 288222.000000 0 0 1
-31.857495 -1.117755 -21.220312 38.294269 0.035072 2.158123 0.061376 0.000328 -495493.000000 0 0 1
-33.340195 -0.959355 -20.885812 39.353604 0.028767 2.130248 0.057018 0.002761 -826130.000000 0 0 1
-34.096395 -2.125655 -21.191012 40.201263 0.062262 2.126008 0.053567 -0.000745 -446135.000000 0 0 1
-35.397395 -1.835855 -20.758912 41.076494 0.051818 2.100609 0.044621 0.001524 -378583.000000 0 0 1
35.400137 -3.088155 -20.564912 41.056328 -0.087015 2.095429 0.031753 0.001089 -440466.000000 0 0 1
34.971737 -3.737255 -21.721912 41.338009 -0.106461 2.124065 0.035071 0.001271 -364618.000000 0 0 1
-35.740995 -4.464755 -22.454812 42.444922 0.124276 2.128258 0.033757 0.008323 -366460.000000 0 0 1
35.373137 -5.497555 -23.434312 42.786084 -0.154183 2.150420 0.038067 0.007897 -402671.000000 0 0 1
34.954137 -6.729755 -22.858612 42.303634 -0.190204 2.141645 0.037796 0.010998 297724.000000 0 0 1
34.386737 -7.736755 -23.691112 42.468505 -0.221307 2.162591 0.033299 0.011287 105436.000000 0 0 1
32.944537 -7.518255 -24.176612 41.549673 -0.224367 2.191826 0.015708 0.015422 -465632.000000 0 0 1
32.736537 -6.608455 -25.265112 41.876944 -0.199191 2.218451 0.024648 0.007208 -17913.700000 0 0 1
31.418937 -6.096355 -25.340792 40.822432 -0.191653 2.240504 0.002856 0.010700 150863.000000 0 0 1
31.134237 -4.877255 -26.272092 41.028663 -0.155390 2.265731 0.016401 -0.016538 -29209.600000 0 0 1
31.223137 -5.184555 -27.680012 42.046962 -0.164547 2.289370 0.010690 -0.017672 179967.000000 0 0 1
30.942337 -4.056455 -28.430732 42.215988 -0.130354 2.309674 0.021480 -0.024753 -30418.700000 0 0 1
30.526537 -4.491955 -29.886282 42.956222 -0.146101 2.340243 0.026602 -0.020180 -23024.500000 0 0 1
30.036337 -3.430455 -30.655372 43.054633 -0.113717 2.363154 0.024142 -0.027474 -103475.000000 0 0 1
29.598837 -3.982655 -31.857652 43.667639 -0.133751 2.388458 0.041321 -0.033081 -703939.000000 0 0 1
29.108837 -2.798055 -32.731692 43.892109 -0.095829 2.412427 0.039174 -0.023284 -729792.000000 0 0 1
28.114537 -1.926555 -32.193742 42.785230 -0.068418 2.422570 0.026349 -0.019618 889710.000000 0 0 1
26.777437 -2.423955 -32.127142 41.893436 -0.090276 2.444758 0.042963 -0.018467 428071.000000 0 0 1
26.073737 -2.907255 -33.445642 42.507681 -0.111043 2.476426 0.050560 -0.022567 -1257180.000000 0 0 1
26.689837 -3.950655 -34.136354 43.511444 -0.146954 2.472746 0.054888 -0.033918 -177755.000000 0 0 1
26.090337 -4.222155 33.224585 42.454745 -0.160437 0.671984 0.062818 -0.023914 -550958.000000 0 0 1
26.782737 -5.293655 32.405298 42.372646 -0.195137 0.700113 0.048213 -0.040571 117428.000000 0 0 1
28.079937 -5.118055 31.842408 42.762324 -0.180288 0.730806 0.052836 -0.033932 405954.000000 0 0 1
28.205237 -4.142155 30.803988 41.971163 -0.145815 0.746703 0.071523 -0.027588 -708835.000000 0 0 1
28.879737 -2.880355 31.332368 42.708933 -0.099407 0.747154 0.047549 -0.027166 -683339.000000 0 0 1
30.234637 -2.924655 31.684378 43.892901 -0.096432 0.764315 0.038718 -0.025823 -284682.000000 0 0 1
30.574237 -1.575755 32.144528 44.390739 -0.051493 0.761029 0.021901 -0.018496 467566.000000 0 0 1
32.085737 -1.501955 32.504468 45.697821 -0.046777 0.779463 0.015131 -0.025022 485831.000000 0 0 1
32.984337 -1.721655 31.424468 45.589778 -0.052149 0.810291 0.022884 -0.022787 -662091.000000 0 0 1
34.289637 -1.660455 31.895678 46.860118 -0.048387 0.822137 0.025333 -0.018293 -1012700.000000 0 0 1
35.319937 -2.135355 30.895078 46.974074 -0.060384 0.853028 0.019880 -0.010928 -685697.000000 0 0 1
35.585037 -1.338555 29.740358 46.395857 -0.037598 0.874979 0.019717 -0.006103 266516.000000 0 0 1
-34.941095 -1.832155 29.070898 45.490153 0.052388 0.877522 0.032077 -0.005466 291715.000000 0 0 1
-34.714595 -1.123855 27.704758 44.428817 0.032363 0.897487 0.039564 -0.000100 11544.000000 0 0 1
-35.742795 -1.268155 26.739758 44.656134 0.035465 0.928804 0.049279 -0.013213 -261398.000000 0 0 1
-35.363395 -0.774355 25.522768 43.618586 0.021894 0.945750 0.040959 -0.014164 -730650.000000 0 0 1
-26.823283 15.640845 12.226188 33.370708 -0.527906 1.195686 0.053618 -0.005808 -137953.000000 0 0 1
-27.866513 14.829845 12.693588 34.023433 -0.489055 1.188466 0.013793 0.008800 8623.730000 0 0 1
-28.535373 15.380045 13.790688 35.227778 -0.494345 1.168566 0.030391 -0.007495 491309.000000 0 0 1
-29.958233 14.777545 14.065888 36.245285 -0.458250 1.172254 0.039027 -0.006222 630439.000000 0 0 1
-30.707323 15.597645 14.946788 37.545075 -0.469984 1.161349 0.040447 -0.014815 -88973.300000 0 0 1
-31.940553 14.962045 15.248388 38.426228 -0.438078 1.162744 0.041693 0.001357 234067.000000 0 0 1
-32.756343 15.780645 16.296288 39.844394 -0.448948 1.149440 0.044781 -0.004469 205279.000000 0 0 1
-32.049723 15.855845 17.527488 39.822172 -0.459420 1.115037 0.019016 -0.000197 78998.700000 0 0 1
-32.890933 16.344045 18.517388 41.131920 -0.461178 1.103813 0.013505 -0.008365 -9133.550000 0 0 1
-32.158703 16.574745 19.875888 41.278992 -0.475895 1.068430 0.017093 -0.007511 -238530.000000 0 0 1
-31.670563 15.457345 20.518888 40.779637 -0.454055 1.043539 0.022653 -0.012402 460664.000000 0 0 1
-30.437543 15.718545 21.203388 40.287719 -0.476697 1.016554 0.015604 -0.009128 369288.000000 0 0 1
-30.570983 16.416945 22.613188 41.418079 -0.492816 0.993245 0.026945 -0.025240 -573441.000000 0 0 1
-31.194013 17.677945 22.457188 42.307227 -0.515581 1.011238 0.012496 -0.023146 172456.000000 0 0 1
-31.530363 18.418645 23.638288 43.499182 -0.528688 0.996292 0.013272 -0.024602 -988903.000000 0 0 1
-32.342683 17.849345 24.761788 44.472400 -0.504287 0.980280 0.000179 -0.013062 456359.000000 0 0 1
-33.707463 17.433745 24.595288 45.222303 -0.477318 0.995748 0.049761 -0.017489 1307810.000000 0 0 1
-34.670643 18.441845 24.231588 46.144609 -0.488853 1.017937 0.051304 -0.024337 559570.000000 0 0 1
35.663629 17.732945 23.821188 46.409059 0.461427 1.031785 0.034357 -0.028200 546880.000000 0 0 1
34.912200 17.259245 24.905388 46.227930 0.459127 1.001841 0.047635 -0.022583 156387.000000 0 0 1
33.995980 16.202645 24.543788 44.951639 0.444757 0.993209 0.052492 -0.022051 456913.000000 0 0 1
33.640500 15.312045 25.745488 45.044112 0.427142 0.962389 0.056830 -0.017912 -180116.000000 0 0 1
32.969310 16.053945 26.762988 45.397820 0.453142 0.940330 0.042190 -0.019915 149061.000000 0 0 1
32.831090 15.319545 28.008788 45.793679 0.436586 0.912677 0.038516 -0.021918 -957085.000000 0 0 1
31.738580 14.288745 28.108388 44.739101 0.423021 0.891464 0.032920 -0.007232 -950921.000000 0 0 1
31.920950 13.176545 27.300988 44.021725 0.391481 0.901836 0.028055 -0.010315 -119660.000000 0 0 1
30.963600 12.179745 27.552188 43.199696 0.374766 0.879175 0.020233 -0.002237 -547899.000000 0 0 1
31.568390 10.809045 27.099288 42.985696 0.329889 0.888695 0.029552 0.003653 743238.000000 0 0 1
32.768760 10.447545 27.791688 44.219008 0.308638 0.891172 0.012500 0.008132 339093.000000 0 0 1
33.034540 9.089145 27.522288 43.947351 0.268497 0.894055 0.022351 0.009779 -313405.000000 0 0 1
33.986940 8.492545 28.546688 45.190140 0.244863 0.887050 0.013986 0.016112 -470663.000000 0 0 1
35.264830 9.067345 28.504988 46.242397 0.251670 0.906601 0.018777 0.011785 -78389.300000 0 0 1
-35.448351 8.234945 29.150888 46.628040 -0.228260 0.895435 0.027324 0.009022 1706630.000000 0 0 1
-34.015493 8.937145 29.219588 45.724289 -0.256930 0.877549 0.025633 0.004245 1396430.000000 0 0 1
-33.368983 9.285645 28.028088 44.556547 -0.271405 0.890472 0.025037 0.003712 86632.400000 0 0 1
-32.139453 9.983945 28.175388 43.891640 -0.301194 0.873783 0.032504 0.001512 305901.000000 0 0 1
-31.607493 10.508345 26.839488 42.776360 -0.320968 0.892539 0.034038 0.000276 -55134.000000 0 0 1
-30.917043 9.541345 26.076788 41.555982 -0.299338 0.892445 0.039813 -0.000441 -126547.000000 0 0 1
-30.223303 10.140145 25.066988 40.553969 -0.323706 0.904455 0.038010 0.001506 -188116.000000 0 0 1
-29.381223 9.228645 24.139588 39.129833 -0.304342 0.905986 0.038041 -0.002896 457373.000000 0 0 1
-28.453533 9.877545 23.267688 38.059883 -0.334130 0.913038 0.027753 -0.011073 278159.000000 0 0 1
-27.721393 8.905745 22.552288 36.829249 -0.310845 0.911770 0.025357 0.004334 316103.000000 0 0 1
-26.573663 9.504045 21.679988 35.588035 -0.343473 0.915754 0.019491 0.007784 -465697.000000 0 0 1
-25.369313 9.904945 22.357088 35.235626 -0.372229 0.883432 0.023143 0.000824 467605.000000 0 0 1
-24.434163 10.480345 21.506488 34.196417 -0.405188 0.890645 0.010765 0.009870 -391554.000000 0 0 1
-23.915063 9.779845 20.266088 32.837325 -0.388190 0.905660 -0.004289 0.013291 -1501610.000000 0 0 1
-24.813863 9.520445 19.209388 32.792792 -0.366354 0.944953 -0.005140 0.013052 112512.000000 0 0 1
-24.297863 8.549945 18.269088 31.579222 -0.338349 0.953888 -0.004563 0.017245 -153798.000000 0 0 1
-24.260563 7.054245 18.627288 31.389697 -0.282968 0.935495 -0.006775 0.021603 -81413.600000 0 0 1
-23.142563 6.599845 19.397288 30.909399 -0.277808 0.892390 0.005275 0.020407 671262.000000 0 0 1
-23.154763 5.213045 19.733588 30.866379 -0.221447 0.877179 0.026754 0.007236 -293562.000000 0 0 1
-22.927263 4.158545 18.646388 29.843603 -0.179429 0.895916 0.022972 0.005162 226810.000000 0 0 1
-24.127263 4.041445 17.858788 30.288519 -0.165965 0.940205 0.042829 0.009050 1037680.000000 0 0 1
-24.143563 3.002245 16.870488 29.606392 -0.123715 0.964502 0.043341 0.002575 -166173.000000 0 0 1
-24.202963 1.528145 17.379288 29.835520 -0.063055 0.948991 0.047470 -0.001440 541760.000000 0 0 1
-22.934763 1.080445 17.898888 29.112555 -0.047075 0.908643 0.029670 0.002018 993284.000000 0 0 1
-23.010063 -0.140055 18.652488 29.620903 0.006087 0.889620 0.047653 -0.007448 213620.000000 0 0 1
-21.640163 -0.891755 18.734088 28.636653 0.041185 0.857672 0.047724 0.002110 400105.000000 0 0 1
-20.644263 -0.348355 19.562988 28.443231 0.016873 0.812355 0.029632 0.002828 358871.000000 0 0 1
-19.736463 -1.402355 19.951388 28.098975 0.070935 0.781242 0.015106 0.005009 33521.100000 0 0 1
-18.752963 -1.074055 21.074288 28.230352 0.057211 0.727992 0.020197 0.008308 -196316.000000 0 0 1
-19.170863 -1.022955 22.406288 29.506103 0.053309 0.708440 0.020387 0.010133 -97292.400000 0 0 1
-18.076163 -0.811255 23.299488 29.500371 0.044850 0.660308 0.019099 0.006672 -120759.000000 0 0 1
-18.451763 -0.786955 24.815388 30.933644 0.042624 0.639803 0.025233 0.008980 248830.000000 0 0 1
-19.272163 0.291045 25.277288 31.787454 -0.015101 0.651464 0.023691 -0.007752 -475644.000000 0 0 1
-20.638563 0.053345 25.127488 32.516822 -0.002585 0.687628 0.042657 -0.007622 -609704.000000 0 0 1
-21.534563 1.172145 25.737788 33.578937 -0.054377 0.697444 0.028973 -0.017721 -362116.000000 0 0 1
-21.479363 2.426945 25.136988 33.152997 -0.112512 0.710230 0.032786 -0.015437 -836952.000000 0 0 1
-22.557863 2.814245 24.385688 33.338250 -0.124115 0.750332 0.031604 -0.010157 -1610330.000000 0 0 1
-22.302763 3.995545 23.364688 32.546678 -0.177270 0.770041 0.033189 -0.004955 -250576.000000 0 0 1
-21.606963 3.830445 22.143888 31.175068 -0.175455 0.780861 0.032565 -0.001678 1705510.000000 0 0 1
-20.235463 3.373245 22.361388 30.346077 -0.165181 0.742354 0.026886 0.001890 816716.000000 0 0 1
-19.662063 2.502445 21.197988 29.020917 -0.126592 0.751833 0.018387 0.002884 -140025.000000 0 0 1
-19.254063 3.260045 20.057088 27.993456 -0.167726 0.772036 0.013287 0.010820 242679.000000 0 0 1
-18.986463 2.372845 18.949588 26.929594 -0.124331 0.790245 0.020993 -0.001747 7725.760000 0 0 1
-18.554263 3.151645 17.711288 25.843437 -0.168255 0.815739 0.011046 0.004365 -208685.000000 0 0 1
-17.264363 3.699545 17.600688 24.930484 -0.211095 0.786975 0.020246 -0.007175 -183744.000000 0 1 0
-17.162863 4.589945 16.514388 24.256060 -0.261319 0.821894 0.027715 -0.014362 627751.000000 0 1 0
-15.704463 5.108745 16.199188 23.133160 -0.314508 0.795037 0.041616 -0.018674 726631.000000 0 1 0
-15.203163 5.966045 17.206388 23.723187 -0.373956 0.759329 0.036353 -0.021473 214341.000000 0 1 0
-15.710263 7.362245 17.163688 24.405064 -0.438235 0.790790 0.032838 -0.024719 -233919.000000 0 1 0
-15.232263 8.333145 16.060088 23.651417 -0.500592 0.824352 0.024616 -0.023272 -77179.000000 0 1 0
-15.706063 8.048545 14.752288 23.001945 -0.473557 0.874540 0.024114 -0.017570 909789.000000 0 1 0
-17.103463 8.251845 14.471188 23.875440 -0.449523 0.919633 0.020287 -0.012219 941422.000000 0 1 0
-17.553363 7.364945 13.219188 23.175631 -0.397266 0.963814 0.026825 -0.016860 -113845.000000 0 1 0
-17.275163 6.025945 13.273888 22.603967 -0.335624 0.943155 0.022692 -0.018110 37355.700000 0 1 0
-17.963063 5.364245 12.272488 22.406711 -0.290196 0.991166 0.034821 -0.023060 -107933.000000 0 1 0
-17.591863 3.839445 12.245988 21.775656 -0.214882 0.973546 0.022743 -0.012368 -18604.600000 0 1 0
-17.944163 3.269945 13.496588 22.690161 -0.180251 0.933753 0.015312 -0.005777 341423.000000 0 1 0
-17.637563 1.870945 13.350288 22.199420 -0.105682 0.925569 0.013479 -0.009706 -171459.000000 0 1 0
-18.427863 0.964445 14.363388 23.384251 -0.052289 0.909382 0.016879 -0.011029 -212794.000000 0 1 0
-19.792863 0.980945 14.056488 24.296183 -0.049520 0.953850 0.032852 -0.003828 -608226.000000 0 1 0
-20.538063 0.377845 15.064588 25.473449 -0.018395 0.938022 0.031840 -0.006070 -371877.000000 0 0 1
-21.971863 0.077045 14.598688 26.379734 -0.003506 0.984349 0.040886 -0.007594 -360633.000000 0 0 1
-22.168763 -1.088455 13.797088 26.134238 0.049059 1.014633 0.052113 -0.013501 -175945.000000 0 0 1
-23.521563 -1.340755 13.582588 27.194636 0.056940 1.047823 0.066269 -0.015926 -603740.000000 0 0 1
-23.616663 -2.597855 12.589188 26.888348 0.109560 1.083541 0.073706 -0.023233 -85817.300000 0 0 1
-23.175763 -3.884855 13.041988 26.875668 0.166082 1.064123 0.058208 -0.022955 235546.000000 0 0 1
-23.291063 -4.768455 11.989888 26.626475 0.201943 1.103696 0.067706 -0.025925 -243297.000000 0 0 1
-23.070863 -6.211955 12.506088 26.967672 0.263018 1.088580 0.047655 -0.021113 -491675.000000 0 0 1
-24.108263 -6.654655 13.306788 28.329549 0.269326 1.081829 0.049062 -0.024939 -201874.000000 0 0 1
-24.203063 -8.062755 13.400788 28.816269 0.321567 1.087114 0.061722 -0.029708 669049.000000 0 0 1
-25.259973 -8.386255 14.570988 30.343190 0.320548 1.069907 0.053627 -0.013499 1498370.000000 0 0 1
-26.599093 -7.958655 14.335988 31.246959 0.290730 1.094156 0.049703 -0.024539 -52124.700000 0 0 1
-27.456553 -8.337755 15.346088 32.540480 0.294821 1.079692 0.048939 -0.012252 -516173.000000 0 0 1
-28.891263 -7.739855 15.173588 33.538756 0.261750 1.101320 0.051318 -0.023838 782277.000000 0 0 1
-29.685293 -8.346055 14.100688 33.907265 0.274076 1.141908 0.055784 -0.024521 765436.000000 0 0 1
-29.931813 -9.791855 14.021988 34.473323 0.316165 1.151904 0.061304 -0.026185 -675486.000000 0 0 1
-30.424493 -10.532455 15.284888 35.640008 0.333271 1.127556 0.059832 -0.015308 -651120.000000 0 0 1
-29.464753 -10.522955 16.305888 35.281528 0.343019 1.090361 0.056853 -0.014838 -157704.000000 0 0 1
-29.825723 -11.198855 17.514788 36.355961 0.359188 1.068136 0.052498 -0.001723 623612.000000 0 0 1
-28.596513 -11.300955 18.496488 35.883035 0.376350 1.029245 0.050076 0.006840 1313520.000000 0 0 1
-27.564243 -12.235755 18.184388 35.216092 0.417769 1.028195 0.047735 -0.000758 431521.000000 0 0 1
-26.485763 -12.225655 19.100488 34.868193 0.432453 0.991075 0.039819 0.001968 807386.000000 0 0 1
-25.285453 -13.161955 18.706488 34.095804 0.479940 0.990054 0.042885 0.004847 658488.000000 0 0 1
-24.586163 -12.730355 17.533388 32.771345 0.477774 1.006263 0.041115 0.000916 -148305.000000 0 0 1
-23.582763 -13.622455 17.178388 32.199612 0.523819 1.008067 0.039333 -0.006433 -614058.000000 0 0 1
-22.916163 -13.440755 15.796388 30.908418 0.530448 1.034366 0.050938 -0.016629 -155671.000000 0 0 1
-22.266863 -12.202155 15.574088 29.786876 0.501303 1.020605 0.045003 -0.022508 -74365.400000 0 0 1
-21.995063 -12.177955 14.164688 28.856953 0.505655 1.057721 0.039640 -0.014389 -691604.000000 0 0 1
-20.918663 -11.163755 13.980088 27.525674 0.490223 1.038060 0.013100 -0.020880 -959954.000000 0 0 1
-21.357363 -9.784455 14.011488 27.353140 0.429595 1.033001 0.012493 -0.022224 950712.000000 0 0 1
-20.237363 -8.883055 13.872188 26.094005 0.413621 1.010280 0.017131 -0.022578 514751.000000 0 0 1
-19.520663 -8.822855 12.516488 24.810512 0.424495 1.042013 0.030456 -0.007685 -725423.000000 0 1 0
-18.778463 -9.918655 12.097588 24.440990 0.485947 1.052995 0.018643 -0.014281 169777.000000 0 1 0
-18.691263 -10.130555 10.644788 23.776101 0.496676 1.106594 0.032506 0.004727 -738034.000000 0 1 0
-18.067963 -11.442955 10.050988 23.630803 0.564566 1.131465 0.024056 0.005045 1317410.000000 0 1 0
-16.639863 -11.631955 10.027788 22.643850 0.610082 1.112023 0.032653 -0.006711 1210020.000000 0 1 0
-15.959763 -11.620555 11.293788 22.744251 0.629347 1.051170 0.027746 -0.005727 -308026.000000 0 1 0
-14.491763 -12.062055 11.137988 21.898839 0.694151 1.037226 0.041552 -0.010346 -3880.390000 0 1 0
-14.251663 -13.433055 10.773488 22.352291 0.755838 1.067877 0.034384 -0.011234 143434.000000 0 1 0
-12.870963 -13.718855 10.856288 21.719292 0.817275 1.047376 0.048759 -0.012440 -44992.500000 0 1 0
-12.605663 -15.185855 10.785088 22.490688 0.877974 1.070671 0.053130 -0.010227 -237915.000000 0 1 0
-12.857363 -15.807155 9.531788 22.495175 0.887945 1.133242 0.027816 -0.011376 14762.500000 0 1 0
-12.717063 -17.165855 9.721888 23.471374 0.933187 1.143731 0.020602 -0.004163 85619.400000 0 1 0
-13.022363 -18.052255 8.521288 23.834391 0.945871 1.205185 0.009042 -0.000853 -298760.000000 0 1 0
-12.209763 -17.745255 7.435388 22.787220 0.968130 1.238413 0.016347 -0.010740 -332945.000000 0 1 0
-12.647463 -18.489055 6.299988 23.270009 0.970855 1.296641 0.010510 -0.006565 -3417.940000 0 1 0
-11.662263 -18.304555 5.123288 22.300520 1.003526 1.338987 0.012689 -0.009777 -55316.100000 0 1 0
-12.001463 -19.061455 3.963988 22.871104 1.008882 1.396598 0.026923 -0.013439 368980.000000 0 1 0
-11.069063 -18.909755 2.891188 22.101176 1.041209 1.439604 0.034302 -0.020901 338068.000000 0 1 0
-11.360763 -19.887955 1.790988 22.974014 1.051794 1.492760 0.041419 -0.012426 34564.100000 0 1 0
-11.129463 -21.267855 2.131188 24.098311 1.088683 1.482243 0.036202 -0.019608 -189641.000000 0 1 0
-11.485463 -22.202055 1.080388 25.020279 1.093393 1.527602 0.040442 -0.020737 907614.000000 0 0 1
-10.448263 -22.300855 -0.175312 24.627730 1.132653 1.577915 0.051226 -0.019394 1069530.000000 0 1 0
-10.674663 -21.217955 -1.076112 23.776208 1.104675 1.616072 0.060432 -0.024496 156226.000000 0 1 0
-11.770363 -21.385655 -1.959112 24.489300 1.067657 1.650881 0.071268 -0.017647 89063.600000 0 1 0
-12.863463 -20.310055 -1.855112 24.112413 1.006212 1.647808 0.070049 -0.018070 178785.000000 0 1 0
-13.780463 -20.366855 -0.768712 24.602863 0.975940 1.602046 0.066220 -0.013283 -207654.000000 0 1 0
-14.749863 -19.400255 -0.918812 24.387960 0.920741 1.608480 0.059705 -0.003936 -391888.000000 0 1 0
25.620137 -20.470155 -4.529412 33.104898 -0.674123 1.708047 0.038541 -0.004189 369477.000000 0 0 1
24.405437 -20.452655 -3.782912 32.066289 -0.697508 1.689043 0.021410 -0.006529 333180.000000 0 0 1
24.522637 -21.350855 -2.678412 32.625031 -0.716366 1.652986 0.018282 -0.011361 -177829.000000 0 0 1
23.196537 -21.574555 -1.914512 31.736511 -0.749186 1.631158 0.014093 -0.009208 -83307.200000 0 0 1
22.296137 -22.204655 -2.797212 31.590962 -0.783342 1.659457 0.035311 -0.015140 85335.300000 0 0 1
21.224637 -22.805255 -2.047012 31.221069 -0.821282 1.636408 0.018142 -0.011089 127624.000000 0 0 1
20.246137 -23.596155 -2.921912 31.228548 -0.861661 1.664499 0.019813 -0.013794 -203196.000000 0 0 1
19.567637 -22.661655 -3.713412 30.170060 -0.858535 1.694192 0.018974 -0.018174 -746247.000000 0 0 1
18.424637 -23.180755 -4.330212 29.925999 -0.899219 1.716003 0.016918 -0.011608 -70446.600000 0 0 1
17.742137 -22.065455 -5.211312 28.789330 -0.893580 1.752815 0.001208 -0.000643 315883.000000 0 0 1
16.767737 -21.250255 -4.530512 27.445508 -0.902761 1.736628 0.004942 0.003892 575080.000000 0 0 1
17.309037 -20.283755 -3.653912 26.914394 -0.864364 1.706977 0.003806 -0.003364 -139403.000000 0 0 1
16.246737 -19.849655 -2.628312 25.785138 -0.884882 1.672905 0.030420 -0.000644 117216.000000 0 0 1
15.918337 -20.949955 -1.771212 26.371031 -0.921036 1.638012 0.027011 -0.003443 195741.000000 0 0 1
14.960437 -20.537755 -0.805412 25.421699 -0.941240 1.602484 0.040211 0.006189 46475.000000 0 0 1
14.854837 -21.399555 0.518988 26.055259 -0.963997 1.550876 0.039411 -0.001341 -478407.000000 0 0 1
14.020037 -22.512355 0.434488 26.524637 -1.013802 1.554415 0.047759 0.002564 -600198.000000 0 0 1
13.181837 -22.508055 1.548888 26.129915 -1.040995 1.511485 0.036072 0.005292 -339594.000000 0 0 1
12.159337 -23.659555 1.658888 26.652879 -1.096068 1.508516 0.036636 -0.002439 68420.800000 0 0 1
12.620937 -24.963055 2.057888 28.047765 -1.102691 1.497360 0.039479 0.002509 310397.000000 0 0 1
11.715937 -25.941875 1.538788 28.506349 -1.146594 1.516790 0.036788 0.009810 385432.000000 0 0 1
11.926537 -27.311725 2.194388 29.882904 -1.159073 1.497297 0.047264 0.004072 136517.000000 0 0 1
11.421837 -27.399025 3.517088 29.892054 -1.175832 1.452864 0.062520 -0.005748 181715.000000 0 0 1
12.020637 -28.495235 4.224788 31.214147 -1.171599 1.435031 0.055587 -0.008080 95434.800000 0 0 1
11.600837 -28.682215 5.678588 31.456244 -1.186450 1.389278 0.065704 -0.012963 -175281.000000 0 0 1
12.098437 -29.897945 6.232888 32.849783 -1.186281 1.379900 0.052490 -0.014463 -141890.000000 0 0 1
12.008837 -30.026805 7.642088 33.229847 -1.190344 1.338743 0.050576 -0.016783 -305336.000000 0 0 1
11.647737 -31.412035 8.087288 34.464329 -1.215709 1.333931 0.030637 -0.014490 -115005.000000 0 0 1
11.613537 -31.496965 9.505488 34.889646 -1.217543 1.294864 0.024132 -0.008408 77124.100000 0 0 1
10.858237 -32.650025 9.845588 35.789120 -1.249738 1.292103 0.024738 -0.004936 122317.000000 0 0 1
10.855037 -33.036895 11.321288 36.571025 -1.253336 1.256056 0.027535 -0.007107 -499441.000000 0 0 1
12.110137 -33.574485 11.612688 37.533399 -1.224626 1.256238 0.029973 -0.009690 -381723.000000 0 0 1
12.324637 -33.863935 13.021588 38.317418 -1.221752 1.224055 0.036059 -0.005173 -155287.000000 0 0 1
11.417437 33.818917 13.664088 38.220208 1.245206 1.205197 0.036885 -0.006651 -197087.000000 0 0 1
11.472037 32.549553 12.996488 36.878039 1.231942 1.210643 0.038572 -0.009940 -366107.000000 0 0 1
10.339437 31.769793 13.271088 35.949207 1.256159 1.192689 0.039426 -0.001462 -84434.700000 0 0 1
10.175237 30.522293 12.398288 34.479898 1.249012 1.202978 0.032811 -0.002632 -106006.000000 0 0 1
9.843337 30.810473 11.037188 34.175957 1.261565 1.241950 0.018558 0.000319 813146.000000 0 0 1
10.866637 31.504163 10.246888 34.865381 1.238648 1.272493 0.012707 -0.002648 530939.000000 0 0 1
10.351737 31.881123 8.861188 34.671099 1.256838 1.312350 0.008367 -0.002928 23085.100000 0 0 1
9.331137 32.891329 8.935988 35.337820 1.294364 1.315148 0.015820 -0.009672 17089.100000 0 0 1
8.735737 32.915458 7.688788 34.912146 1.311378 1.348744 0.012498 -0.008002 -420445.000000 0 0 1
9.055837 34.136297 6.769988 35.960085 1.311485 1.381402 0.015157 -0.001475 -110048.000000 0 0 1
8.376137 -33.403465 7.149688 35.171995 -1.325106 1.366092 0.021480 -0.003821 16095.800000 0 0 1
8.644037 -32.317605 6.281488 34.038274 -1.309443 1.385191 0.036876 -0.012786 -55837.200000 0 0 1
7.914537 -30.997975 6.688488 32.684098 -1.320813 1.364700 0.034203 -0.011600 -126863.000000 0 0 1
8.354537 -30.621065 7.954688 32.721935 -1.304443 1.325236 0.037383 -0.013048 -24165.600000 0 0 1
7.938037 -29.318295 8.340988 31.498364 -1.306382 1.302793 0.048596 -0.005474 -190029.000000 0 0 1
9.071237 -28.281255 8.292288 30.836323 -1.260412 1.298532 0.043617 -0.012273 -709126.000000 0 0 1
8.874437 -27.194735 9.123588 30.025808 -1.255363 1.262057 0.045936 -0.008348 313552.000000 0 0 1
9.845837 -26.156705 8.924888 29.338837 -1.210784 1.261697 0.071101 -0.012300 413806.000000 0 0 1
9.507637 -25.106065 7.814588 27.960284 -1.208787 1.287535 0.054740 -0.009354 134945.000000 0 0 1
9.263037 -25.692035 6.552188 28.085863 -1.224762 1.335335 0.046227 -0.000088 -269570.000000 0 0 1
8.691137 -24.801855 5.669188 26.885081 -1.233745 1.358334 0.051349 0.003570 37360.400000 0 0 1
8.424737 -25.361035 4.253988 27.060206 -1.250073 1.412937 0.051244 -0.000328 215796.000000 0 0 1
7.357937 -26.267025 4.141888 27.590779 -1.297676 1.420108 0.045404 -0.001085 -192104.000000 0 0 1
7.811737 -27.600675 4.361488 29.014533 -1.294983 1.419904 0.036156 0.003628 670859.000000 0 0 1
6.745737 -28.620375 3.823288 29.652123 -1.339324 1.441498 0.033777 -0.003417 301470.000000 0 0 1
5.577937 -28.837745 4.577288 29.726764 -1.379731 1.416203 0.028506 -0.004291 -19192.300000 0 0 1
4.654037 -29.689605 3.902188 30.304452 -1.415305 1.441672 0.033744 0.002170 357144.000000 0 0 1
4.850537 -31.155785 4.216488 31.811782 -1.416350 1.437860 0.036560 -0.001101 109164.000000 0 0 1
5.854337 -31.748045 3.377188 32.459468 -1.388445 1.466564 0.041621 -0.005909 229680.000000 0 0 1
6.055137 -33.108925 3.706088 33.861493 -1.389910 1.461128 0.045509 -0.004960 588619.000000 0 0 1
7.255237 -33.868225 3.008888 34.767062 -1.359766 1.484144 0.039438 -0.003310 534594.000000 0 0 1
6.979637 -34.231105 1.672888 34.975455 -1.369656 1.522948 0.051864 -0.005457 -11567.000000 0 0 1
7.822737 33.472544 1.141488 34.393450 1.341211 1.537601 0.036275 -0.003096 -184496.000000 0 0 1
7.278137 33.023296 -0.273812 33.816924 1.353870 1.578893 0.054811 -0.006168 130617.000000 0 0 1
6.260437 32.064193 -0.219412 32.670380 1.377975 1.577512 0.049984 -0.008716 -227430.000000 0 0 1
4.986337 32.709938 -0.221212 33.088556 1.419520 1.577482 0.055230 -0.016410 337932.000000 0 0 1
3.790337 31.749303 0.049088 31.974792 1.451975 1.569261 0.066334 -0.017539 352400.000000 0 0 1
3.488437 30.885903 -1.037812 31.099602 1.458327 1.604173 0.069480 -0.017623 -29554.200000 0 0 1
2.340637 30.072543 -0.898912 30.176887 1.493120 1.600589 0.049736 -0.021924 264694.000000 0 0 1
2.220337 29.064163 -2.018712 29.218670 1.494550 1.639941 0.040639 -0.018412 -52989.300000 0 0 1
1.915137 29.618153 -3.225112 29.854717 1.506225 1.679034 0.040139 -0.025391 -197356.000000 0 0 1
1.856037 28.581523 -4.162912 28.942671 1.505949 1.715130 0.036211 -0.022588 -181369.000000 0 0 1
1.486137 29.257983 -5.513512 29.810015 1.520046 1.756822 0.033640 -0.021714 279583.000000 0 0 1
0.170537 29.814863 -5.541312 30.325918 1.565077 1.754554 0.034821 -0.023846 353798.000000 0 0 1
-0.087163 30.684513 -6.600912 31.386605 -1.567956 1.782688 0.027226 -0.016845 -209051.000000 0 0 1
-0.006363 30.176903 -8.063912 31.235752 -1.570585 1.831916 0.022669 -0.014649 -973052.000000 0 0 1
-1.018363 29.314583 -8.465712 30.529496 -1.536071 1.851775 0.027526 -0.008671 -387658.000000 0 0 1
-1.135163 29.074463 -9.884912 30.729863 -1.531773 1.898290 0.029886 -0.006545 -130771.000000 0 0 1
-1.313263 30.283943 -10.824912 32.187274 -1.527458 1.913793 0.016243 -0.008054 256625.000000 0 0 1
-0.160663 31.088153 -11.133612 33.022060 -1.565628 1.914692 0.014219 -0.006680 218860.000000 0 0 1
-0.504963 32.302203 -11.727512 34.368909 -1.555165 1.919016 0.010762 -0.009932 -29626.600000 0 0 1
-0.821463 33.432486 -10.716612 35.117684 -1.546230 1.880906 0.009432 -0.016596 33281.300000 0 0 1
0.264537 33.682617 -9.854412 35.095557 1.562943 1.855411 0.002496 -0.023084 -112761.000000 0 0 1
-0.136963 -34.249474 -8.715712 35.341320 1.566797 1.819983 0.015083 -0.019336 -4472.520000 0 0 1
0.962337 -34.028295 -7.649512 34.890773 -1.542523 1.791834 0.026531 -0.018405 663411.000000 0 0 1
2.095837 -33.242235 -8.042412 34.265422 -1.507832 1.807716 0.031534 -0.016743 133166.000000 0 0 1
2.919037 -33.002555 -6.940812 33.850618 -1.482577 1.777303 0.032348 -0.020086 -1070750.000000 0 0 1
4.222737 -32.272245 -7.259612 33.347134 -1.440688 1.790252 0.025008 -0.017272 374244.000000 0 0 1
5.190837 -33.029845 -8.036812 34.387583 -1.414915 1.806691 0.030802 -0.009481 697516.000000 0 0 1
5.933437 -33.938995 -7.252912 35.208889 -1.397719 1.778278 0.047699 -0.010681 -1133420.000000 0 0 1
6.167437 33.417452 -7.982012 34.906674 1.388293 1.801505 0.047387 -0.009243 481364.000000 0 0 1
4.939737 32.662603 -8.113612 34.015840 1.420699 1.811643 0.040131 -0.009246 731468.000000 0 0 1
4.149137 33.079855 -9.219312 34.590286 1.446020 1.840586 0.035080 -0.009287 -124923.000000 0 0 1
3.206937 31.960943 -9.691212 33.551542 1.470792 1.863817 0.026008 -0.014258 109611.000000 0 0 1
3.878737 30.909933 -10.378412 32.835652 1.445964 1.892382 0.024880 -0.004686 -36571.600000 0 0 1
3.102237 29.752273 -10.348512 31.653015 1.466903 1.903856 0.019586 -0.011858 251854.000000 0 0 1
3.805437 28.678453 -11.261312 31.044359 1.438874 1.942013 0.016028 -0.005768 81221.100000 0 0 1
3.778837 28.982233 -12.654812 31.849548 1.441143 1.979403 0.028144 -0.004370 42723.200000 0 0 1
5.016937 28.755343 -13.302912 32.078138 1.398065 1.998413 0.028035 -0.006133 60223.100000 0 0 1
5.072837 29.341003 -14.755612 33.231856 1.399596 2.030877 0.033972 -0.006798 -106277.000000 0 0 1
4.213337 28.613943 -15.598012 32.860431 1.424599 2.065391 0.045636 -0.015082 -74666.600000 0 0 1
4.358937 29.079193 -16.897712 33.913604 1.422005 2.092384 0.065402 -0.016125 -311923.000000 0 0 1
3.375837 28.480113 -17.886012 33.799742 1.452814 2.128425 0.045184 -0.021129 -247123.000000 0 0 1
3.644937 27.149723 -18.302112 32.944808 1.437341 2.159807 0.064034 -0.012028 481278.000000 0 0 1
2.543337 26.579313 -19.048012 32.798708 1.475398 2.190452 0.060832 -0.029042 726571.000000 0 0 1
2.943437 25.345703 -19.839712 32.321551 1.455183 2.231691 0.071997 -0.022640 1713.080000 0 0 1
3.135637 24.205863 -19.062712 30.970035 1.441973 2.233843 0.072257 -0.025877 915046.000000 0 0 1
4.283837 23.434713 -19.572712 30.832258 1.389994 2.258563 0.069305 -0.024110 1296520.000000 0 0 1
4.677537 22.236613 -18.665312 29.406466 1.363466 2.258462 0.061672 -0.017880 -17024.300000 0 0 1
3.666937 21.255413 -18.552212 28.450371 1.399960 2.281135 0.078699 -0.017426 -420938.000000 0 0 1
4.223637 20.114413 -18.040412 27.347490 1.363823 2.291180 0.059108 -0.013901 -102016.000000 0 0 1
3.221837 18.987613 -17.736712 26.182068 1.402716 2.315070 0.050884 -0.019086 -270472.000000 0 0 1
2.588037 19.148413 -16.528012 25.427050 1.436454 2.278403 0.052045 -0.022389 -819473.000000 0 0 1
1.795537 18.068713 -16.147912 24.299330 1.471749 2.297676 0.024874 -0.008675 -275732.000000 0 1 0
2.390837 16.877413 -15.330212 22.925501 1.430074 2.303251 0.021566 -0.012159 477673.000000 0 1 0
3.491137 16.138613 -15.883012 22.910979 1.357757 2.336784 0.034104 -0.017923 204621.000000 0 1 0
3.093337 15.163513 -16.882512 22.902404 1.369559 2.399640 0.038860 -0.018493 -312015.000000 0 1 0
2.882237 15.596513 -18.336912 24.244605 1.388058 2.428480 0.027885 -0.012976 -453590.000000 0 1 0
4.083437 16.026013 -18.940512 25.144593 1.321305 2.423807 0.047338 -0.013420 -587918.000000 0 0 1
3.930937 16.469313 -20.270912 26.412127 1.336497 2.445705 0.021228 -0.014025 -541841.000000 0 0 1
4.225337 15.485213 -21.454112 26.794108 1.304418 2.499263 0.030870 -0.024373 168693.000000 0 0 1
3.341737 14.389913 -21.656312 26.215123 1.342613 2.542948 0.027016 -0.016269 414227.000000 0 0 1
2.056037 14.757313 -22.159212 26.702739 1.432364 2.549631 0.032340 -0.022796 -101058.000000 0 0 1
1.262737 13.566813 -22.614312 26.401895 1.477988 2.599326 0.038368 -0.014769 -977924.000000 0 0 1
0.607237 12.876413 -21.654812 25.201223 1.523672 2.604649 0.042957 -0.008642 -164983.000000 0 0 1
-0.080863 11.784813 -22.245912 25.174769 -1.563935 2.654418 0.032632 -0.007532 -108964.000000 0 0 1
-0.596263 10.790813 -21.159512 23.759675 -1.515596 2.669380 0.028502 -0.010939 -1026890.000000 0 1 0
-1.632163 11.423313 -20.435612 23.468496 -1.428877 2.627558 0.032058 -0.004937 -122604.000000 0 1 0
-2.161463 10.639513 -19.369112 22.204362 -1.370370 2.630706 0.030825 -0.005600 -91878.900000 0 1 0
-3.129063 9.572313 -19.830912 22.241522 -1.254859 2.671700 0.032091 -0.009365 -980810.000000 0 1 0
-2.460263 8.520713 -20.489112 22.326199 -1.289702 2.733089 0.028046 -0.010380 -986163.000000 0 1 0
-3.316663 7.599413 -21.047012 22.621407 -1.159279 2.766306 0.018757 -0.001132 -547489.000000 0 1 0
-2.674063 6.563213 -22.034512 23.146190 -1.183900 2.830408 0.016593 0.004426 335892.000000 0 1 0
-1.975663 5.546213 -21.336612 22.134018 -1.228593 2.872354 0.027459 0.004233 -45897.700000 0 1 0
-1.568363 4.459713 -22.130412 22.629714 -1.232631 2.931138 0.030209 0.004183 -399392.000000 0 1 0
-1.090263 3.269113 -21.295312 21.572346 -1.248892 2.981158 0.023751 0.000642 -1147770.000000 0 1 0
0.107637 3.553213 -20.698512 21.001555 1.540513 2.971508 0.016778 -0.011804 -1233800.000000 0 1 0
0.537337 2.513113 -19.882412 20.047813 1.360155 3.013050 0.019992 -0.010711 -422955.000000 0 1 0
2.057337 2.341713 -19.832312 20.075778 0.849953 2.985696 0.018089 -0.015910 -427420.000000 0 1 0
2.574437 1.872613 -21.047312 21.286704 0.628871 2.991478 0.025415 -0.019087 549762.000000 0 1 0
4.009537 1.931713 -21.023912 21.489830 0.448965 2.932980 0.024730 -0.014886 780185.000000 0 1 0
4.660937 1.019813 -22.059212 22.569298 0.215405 2.928583 0.029263 -0.014755 -568819.000000 0 1 0
6.051637 1.083113 -22.056312 22.897082 0.177103 2.869760 0.033646 -0.011202 -416867.000000 0 1 0
6.690837 0.408213 -23.141812 24.093099 0.060935 2.859648 0.036122 -0.012240 -120438.000000 0 1 0
8.214737 0.385213 -22.990112 24.416707 0.046859 2.798067 0.035666 -0.019391 -353382.000000 0 1 0
8.737537 1.669813 -23.130912 24.782493 0.188831 2.774450 0.037424 -0.026523 -482459.000000 0 1 0
10.126037 1.731313 -23.305212 25.468942 0.169339 2.726414 0.032964 -0.016203 -636602.000000 0 0 1
13.922937 -21.425455 22.032478 33.739123 -0.994540 0.859225 0.016994 0.014483 227863.000000 0 0 1
12.740737 -22.154055 22.405478 33.987263 -1.048889 0.851000 0.003344 0.022306 1246660.000000 0 0 1
11.434937 -21.607455 22.224678 33.039011 -1.084053 0.832972 0.001973 0.019396 987752.000000 0 0 1
11.042137 -21.232655 20.779778 31.694694 -1.091234 0.855789 0.007472 -0.000176 -937993.000000 0 0 1
11.505237 -20.024855 20.320478 30.761781 -1.049302 0.849211 0.008710 -0.001489 -183903.000000 0 0 1
11.279937 -19.826655 18.914178 29.632405 -1.053537 0.878517 0.028336 -0.004135 9912.700000 0 0 1
11.455537 -18.389855 18.512978 28.498184 -1.013689 0.863712 0.049519 -0.012164 -171646.000000 0 0 1
10.530637 -17.516655 19.111378 27.981643 -1.029511 0.818938 0.061872 -0.013563 -316167.000000 0 0 1
10.672037 -16.162655 18.738778 26.949316 -0.987221 0.801912 0.067620 -0.013376 380212.000000 0 0 1
9.511237 -15.326955 19.386878 26.480753 -1.015399 0.749379 0.060051 -0.012236 1047260.000000 0 0 1
8.264337 -15.541555 18.738578 25.709406 -1.082067 0.754140 0.049371 -0.010122 412839.000000 0 0 1
7.220037 -14.682455 19.220778 25.241667 -1.113774 0.705218 0.031279 -0.003529 1407070.000000 0 0 1
5.769737 -14.918955 18.677278 24.590767 -1.201774 0.708215 0.001800 0.002304 456312.000000 0 1 0
5.678337 -14.821555 17.245778 23.437980 -1.204932 0.743942 -0.002008 0.001271 -146424.000000 0 1 0
4.338237 -14.945255 16.819278 22.914386 -1.288285 0.746596 -0.006075 -0.002215 -52686.300000 0 1 0
3.731737 -16.362155 16.815278 23.757095 -1.346561 0.784417 0.001828 0.000707 -291397.000000 0 1 0
2.341037 -16.274255 16.577278 23.348191 -1.427927 0.781294 0.006605 0.004563 -269912.000000 0 1 0
1.791437 -17.548255 16.582178 24.209898 -1.469062 0.816283 0.019833 -0.007555 665638.000000 0 1 0
0.278237 -17.518155 16.185078 23.852043 -1.554915 0.824994 0.034588 -0.005281 507930.000000 0 1 0
-0.039563 -17.427855 14.842578 22.891786 1.568526 0.865342 0.037629 -0.009457 -1302010.000000 0 1 0
-1.413063 -17.476455 14.739378 22.905731 1.490117 0.871761 0.029935 -0.005311 -1169360.000000 0 1 0
-1.814163 -18.260255 13.489378 22.774798 1.471771 0.936893 0.026195 -0.006195 212770.000000 0 1 0
-3.215663 -18.496755 13.464278 23.103187 1.398667 0.948640 0.012305 -0.005526 93084.500000 0 1 0
-3.634463 -19.525055 12.608678 23.524793 1.386759 1.005135 0.030996 -0.018220 186552.000000 0 1 0
-5.161663 -19.457255 12.294078 23.587537 1.311487 1.022527 0.023519 -0.024567 612360.000000 0 1 0
-5.981663 -19.892255 13.359778 24.697486 1.278695 0.999246 0.016569 -0.016975 -252826.000000 0 1 0
-6.150963 -21.254655 13.427278 25.882166 1.289098 1.025367 -0.012817 0.000650 -322939.000000 0 0 1
-6.839263 -21.860655 14.692778 27.212892 1.267586 1.000455 -0.004600 0.004942 -272428.000000 0 0 1
-8.209463 -21.610555 14.767578 27.431601 1.207752 1.002328 0.001947 0.008232 -707298.000000 0 0 1
-8.848763 -22.647955 15.483078 28.826311 1.198325 1.003782 0.010920 0.011905 -177834.000000 0 0 1
-10.322663 -22.264155 15.682978 29.123973 1.136653 1.002152 0.028975 0.005345 -269188.000000 0 0 1
-10.494863 -21.095255 16.455678 28.739194 1.109152 0.961139 0.021380 0.000187 81965.700000 0 0 1
-11.713063 -20.421455 16.142778 28.545069 1.050040 0.969734 0.044494 -0.005974 397482.000000 0 0 1
-11.997663 -19.235055 17.139678 28.420061 1.013104 0.923435 0.040538 -0.007669 -91595.600000 0 0 1
-12.338863 -19.756255 18.422178 29.697371 1.012517 0.901633 0.045338 -0.015909 -59391.700000 0 0 1
-12.571063 -18.687855 19.326678 29.678074 0.978638 0.861618 0.040028 -0.018191 -54170.400000 0 0 1
-12.976163 -19.239855 20.707278 31.102158 0.977430 0.842254 0.048483 -0.025994 -208563.000000 0 0 1
-14.204563 -19.902055 20.580378 31.959559 0.950919 0.871145 0.061381 -0.019909 -214337.000000 0 0 1
-14.700563 -20.544355 21.749178 33.334724 0.949709 0.859986 0.048215 -0.004338 -35640.600000 0 0 1
-16.094763 -21.180855 21.602778 34.268791 0.921006 0.888738 0.055580 -0.007384 -631884.000000 0 0 1
-16.133563 -22.121455 20.525378 34.219027 0.940664 0.927516 0.057923 -0.012878 620433.000000 0 0 1
-17.468963 -22.365055 20.076178 34.762240 0.907697 0.955099 0.052852 -0.010533 717053.000000 0 0 1
-18.372163 -23.248955 20.976678 36.305252 0.902037 0.954782 0.051223 -0.004248 -467040.000000 0 0 1
-18.951063 -22.442255 21.979678 36.686563 0.869541 0.928394 0.062824 -0.000687 -159897.000000 0 0 1
-19.848063 -23.099955 22.851878 38.075739 0.860971 0.927084 0.050941 0.008415 2886.670000 0 0 1
-20.489063 -22.099555 23.823238 38.415345 0.823195 0.901864 0.047074 0.016179 44477.200000 0 0 1
-21.492663 -21.275755 23.246678 38.144467 0.780327 0.915445 0.037840 0.021772 324399.000000 0 0 1
-21.657463 -20.108655 24.032488 38.091524 0.748332 0.888065 0.045558 0.016799 -305977.000000 0 0 1
-22.739563 -19.216755 23.475678 37.914099 0.701631 0.903097 0.037802 0.018143 -379277.000000 0 0 1
-22.283763 -18.553055 22.273378 36.563443 0.694295 0.915782 0.048687 0.017784 266249.000000 0 0 1
-23.125963 -17.456355 21.944578 36.346926 0.646590 0.922595 0.029953 0.015804 -235734.000000 0 0 1
-22.824163 -16.776055 20.615978 35.034226 0.633840 0.941653 0.034292 0.016567 -7408.130000 0 0 1
-21.804863 -15.794455 20.704478 33.964574 0.626885 0.915253 0.031756 0.014439 -186594.000000 0 0 1
-21.412263 -15.397355 19.406178 32.743905 0.623424 0.936432 0.023017 0.008960 -40776.000000 0 0 1
-20.335663 -14.312855 19.243078 31.443490 0.613292 0.912223 0.027179 -0.005544 -7377.240000 0 0 1
-20.102963 -14.248955 17.858178 30.431503 0.616607 0.943656 0.025132 -0.011444 -346763.000000 0 0 1
-19.073963 -13.351355 17.574778 29.171006 0.610711 0.924199 0.035641 -0.025599 -910678.000000 0 0 1
-18.608763 -13.403855 16.109378 28.026085 0.624219 0.958437 0.012202 -0.024757 -2207.610000 0 0 1
-18.127063 -12.195655 15.550278 26.816703 0.592228 0.952224 0.012947 -0.023673 381758.000000 0 0 1
-16.865263 -11.790455 16.079378 26.115098 0.610120 0.907507 0.016462 -0.029582 -220891.000000 0 0 1
-16.255563 -10.540555 15.397678 24.747427 0.575269 0.899255 0.023317 -0.028964 4912.220000 0 1 0
-16.761763 -9.267555 15.788278 24.821644 0.505066 0.881403 0.015232 -0.017921 7328.430000 0 1 0
-16.456863 -8.211955 14.873578 23.653496 0.462846 0.890773 0.011647 -0.012747 -751511.000000 0 1 0
-16.720463 -6.850155 15.537678 23.831029 0.388829 0.860586 0.023272 -0.005635 329978.000000 0 1 0
-15.934263 -6.389555 16.635778 23.905570 0.381364 0.801130 0.011905 -0.004302 -314108.000000 0 1 0
-14.572563 -6.166055 16.415678 22.800314 0.400284 0.767029 0.016793 -0.010816 -53866.600000 0 1 0
-13.658263 -6.154155 17.714578 23.199743 0.423337 0.701976 0.008135 -0.005049 439622.000000 0 1 0
-13.725963 -7.326755 18.472678 24.152086 0.490311 0.699991 0.008164 -0.012471 -241184.000000 0 1 0
-13.239363 -8.504255 17.909778 23.840370 0.570976 0.720861 0.015066 -0.012065 -869431.000000 0 1 0
-13.298963 -9.751155 18.832778 25.032399 0.632680 0.719195 0.019830 -0.016740 -194305.000000 0 0 1
-14.548463 -10.321555 19.103678 26.137001 0.617047 0.751148 0.012990 -0.014673 -551335.000000 0 0 1
-15.425263 -9.544255 19.885278 26.915717 0.554086 0.739511 0.013084 -0.012156 -689035.000000 0 0 1
-16.780063 -10.314555 20.122878 28.158317 0.551152 0.774696 0.010383 -0.004131 864088.000000 0 0 1
-17.689163 -10.309155 19.029978 27.952196 0.527673 0.821936 0.022624 -0.008606 268950.000000 0 0 1
-18.221363 -9.024255 18.644578 27.587598 0.459846 0.828704 0.015880 -0.010513 -963737.000000 0 0 1
-19.391963 -9.145655 17.675678 27.787062 0.440688 0.881348 0.035817 -0.009044 -842650.000000 0 0 1
-20.625063 -9.349355 18.287578 29.107373 0.425595 0.891456 0.038334 -0.004231 223173.000000 0 0 1
-21.638763 -9.469555 17.214678 29.227618 0.412511 0.940992 0.046431 -0.007265 1003180.000000 0 0 1
-23.087063 -9.697055 17.712878 30.672323 0.397646 0.955149 0.043991 -0.004485 65673.300000 0 0 1
-23.591463 -8.536155 18.286478 31.045424 0.347177 0.940947 0.047354 0.003314 199300.000000 0 0 1
-24.987263 -8.508255 18.517478 32.243615 0.328190 0.959049 0.039184 0.012256 134444.000000 0 0 1
-25.390143 -7.283355 19.329378 32.731200 0.279356 0.939057 0.050083 0.016577 -370196.000000 0 0 1
-25.232213 -7.346755 20.749578 33.484091 0.283332 0.902455 0.053108 0.015927 487637.000000 0 0 1
-26.048543 -6.371855 21.415178 34.318173 0.239904 0.896921 0.048137 0.016191 -418792.000000 0 0 1
-26.098553 -6.598855 22.992978 35.402774 0.247653 0.863911 0.047065 0.012748 293871.000000 0 0 1
-24.913463 -6.316855 23.710848 34.968380 0.248319 0.825669 0.036228 0.003260 -59372.000000 0 0 1
-23.792263 -7.135655 23.527578 34.213101 0.291379 0.812511 0.031296 0.009611 -1092800.000000 0 0 1
-22.671163 -6.780055 24.453118 34.028014 0.290595 0.768984 0.028003 0.004585 -1011480.000000 0 0 1
-22.173863 -5.498655 24.365138 33.400230 0.243076 0.753220 0.019184 0.000628 -461189.000000 0 0 1
-21.372963 -5.285755 25.456548 33.656776 0.242446 0.713070 0.020881 0.000862 -488651.000000 0 0 1
-20.801163 -3.857255 25.582578 33.196914 0.183352 0.690965 0.021024 -0.002592 288031.000000 0 0 1
-19.879663 -3.660055 26.663578 33.459579 0.182072 0.648668 0.009966 -0.005784 49174.800000 0 0 1
-20.374363 -3.796555 27.994188 34.831065 0.184227 0.637287 0.014738 -0.011114 93286.200000 0 0 1
-21.155163 -2.554155 28.520128 35.601437 0.120153 0.641674 0.020818 -0.019267 -57982.200000 0 0 1
-22.461063 -2.408055 28.051868 36.016738 0.106802 0.677956 0.027244 -0.016545 -1115130.000000 0 0 1
-22.975563 -1.283055 28.666018 36.759534 0.055786 0.676409 0.020376 -0.011116 298703.000000 0 0 1
-24.308463 -0.879255 27.961488 37.061021 0.036155 0.715948 0.025233 -0.010239 -254926.000000 0 0 1
-24.161063 -0.330255 26.651848 35.974811 0.013668 0.736465 0.020752 -0.012573 359204.000000 0 0 1
-25.419253 -0.005955 26.057008 36.402007 0.000234 0.773009 0.034180 -0.004234 380896.000000 0 0 1
-26.171083 -1.224555 25.440558 36.519134 0.046756 0.800098 0.026587 -0.002607 -362457.000000 0 0 1
-26.866843 -2.003355 26.390618 37.713465 0.074428 0.795726 0.020746 -0.003066 -97544.200000 0 0 1
-27.109893 -3.356655 26.033128 37.735092 0.123190 0.809457 0.005078 0.004173 289896.000000 0 0 1
-25.912713 -4.364255 26.169698 37.085961 0.166856 0.787457 0.023727 -0.006507 329414.000000 0 0 1
-25.547583 -4.548055 27.502338 37.811935 0.176177 0.756350 0.019063 -0.004108 -94568.200000 0 0 1
-24.709963 -5.687655 27.663708 37.526157 0.226236 0.741902 0.038171 -0.009389 -1409.680000 0 0 1
-24.423463 -6.070555 29.105138 38.476827 0.243617 0.712954 0.016272 -0.011626 -224483.000000 0 0 1
-25.557983 -6.478955 29.829268 39.811714 0.248270 0.723854 0.024144 -0.011594 -125828.000000 0 0 1
-25.269093 -7.223055 30.978378 40.624617 0.278421 0.703548 0.019968 -0.004365 -363035.000000 0 0 1
-26.539253 -7.681055 31.718428 42.064109 0.281725 0.716590 0.007869 -0.008206 -133557.000000 0 0 1
-27.313133 -8.562755 30.928368 42.141333 0.303799 0.746721 0.013133 -0.011525 -1156060.000000 0 0 1
-28.595673 -8.520055 31.434118 43.340600 0.289574 0.759354 0.021680 -0.010746 -928326.000000 0 0 1
-29.577493 -9.279255 30.492608 43.482546 0.304002 0.793632 0.020915 -0.015592 -36045.900000 0 0 1
-29.256573 -10.655355 30.482148 43.573444 0.349272 0.796018 0.031329 -0.017303 472963.000000 0 0 1
-30.257573 -11.320755 29.747778 43.915948 0.358022 0.826601 0.020045 -0.014822 255491.000000 0 0 1
-29.631183 -12.681755 29.273668 43.540574 0.404398 0.833443 0.027249 -0.014443 130892.000000 0 0 1
-28.851903 -12.494255 28.135978 42.192084 0.408667 0.840817 0.031607 -0.014066 -127663.000000 0 0 1
-27.958933 -13.581155 27.916328 41.778835 0.452186 0.839019 0.037390 -0.017405 -493987.000000 0 0 1
-26.686763 -13.117855 27.178498 40.285633 0.456864 0.830313 0.042554 -0.016382 -114211.000000 0 0 1
-25.648253 -12.696755 28.055028 40.076490 0.459667 0.795347 0.036099 -0.025908 216264.000000 0 0 1
-25.861313 -11.356855 28.622618 40.212435 0.413790 0.778760 0.039476 -0.027462 -678627.000000 0 0 1
-25.709003 -10.072955 27.683678 39.099914 0.373423 0.784100 0.039195 -0.022570 729133.000000 0 0 1
-24.392663 -9.801055 27.167548 37.803946 0.382060 0.768947 0.024385 -0.010570 797502.000000 0 0 1
-23.876963 -10.617655 26.088238 36.924790 0.418423 0.786222 0.023338 -0.004405 -163518.000000 0 0 1
-24.565463 -10.384055 24.724708 36.367592 0.399929 0.823231 0.030261 0.007860 -146064.000000 0 0 1
-25.862543 -10.933255 24.680668 37.383721 0.399959 0.849714 0.038973 -0.000766 -89906.900000 0 0 1
-26.348403 -10.866155 23.307878 36.818051 0.391153 0.885302 0.039613 0.009426 -395050.000000 0 0 1
-27.673473 -11.571955 22.919778 37.749801 0.396063 0.918328 0.054003 0.006044 195788.000000 0 0 1
-28.867863 -11.109155 23.482278 38.835348 0.367359 0.921454 0.059708 0.001662 -378884.000000 0 0 1
-28.957733 -11.075355 24.911998 39.772119 0.365300 0.893911 0.058870 -0.003837 -536178.000000 0 0 1
-30.387933 -10.849655 25.518938 41.138275 0.342931 0.901644 0.033864 0.000191 510377.000000 0 0 1
-30.877123 -9.539055 25.395098 41.101111 0.299635 0.904767 0.043732 -0.008439 -94297.100000 0 0 1
-32.242003 -9.331455 25.701538 42.275192 0.281722 0.917310 0.036062 -0.006710 477856.000000 0 0 1
-32.763263 -9.310555 27.187408 43.580649 0.276878 0.897148 0.017383 -0.001054 -50092.000000 0 0 1
-33.242233 -10.455055 27.785328 44.568808 0.304716 0.897680 0.019612 -0.006875 5625.290000 0 0 1
-33.994013 -10.272955 28.952968 45.819220 0.293473 0.886800 0.017075 -0.004690 -701509.000000 0 0 1
-34.385819 -11.640255 29.576958 46.826024 0.326410 0.887136 0.016834 0.000879 -155056.000000 0 0 1
-35.490245 -12.275755 29.018858 47.458885 0.333010 0.912901 0.012497 -0.000461 134319.000000 0 0 1
34.901170 -11.840655 29.419218 47.157006 -0.327077 0.897128 0.016532 0.001825 80941.500000 0 0 1
33.701030 -12.515855 28.751458 46.033166 -0.355592 0.896201 0.012060 0.000928 -121843.000000 0 0 1
33.561770 -11.984155 27.488308 45.006882 -0.342966 0.913779 0.019325 0.004072 -155423.000000 0 0 1
32.500050 -12.510355 26.718448 43.893481 -0.367451 0.916361 0.018854 0.011949 -329098.000000 0 0 1
32.502590 -12.075855 25.193078 42.859489 -0.355730 0.942452 0.017349 0.004500 -40111.900000 0 0 1
32.229540 -10.680455 25.041018 42.188481 -0.319998 0.935332 0.017242 -0.002973 58915.500000 0 0 1
32.224520 -10.345855 23.697328 41.316096 -0.310660 0.959949 0.016320 -0.001094 -464298.000000 0 0 1
31.858150 -8.835455 23.465878 40.542008 -0.270538 0.953535 0.029147 0.015762 988558.000000 0 0 1
30.432340 -8.620255 23.616118 39.473499 -0.276029 0.929446 0.042049 0.002735 922578.000000 0 0 1
30.087890 -7.296255 23.231678 38.706942 -0.237906 0.927053 0.050567 0.006435 180780.000000 0 0 1
28.578690 -7.073155 22.980578 37.348066 -0.242622 0.908019 0.061339 0.010065 66559.200000 0 0 1
28.165550 -7.873955 21.874978 36.521392 -0.272600 0.928590 0.050429 0.009190 -351292.000000 0 0 1
26.813570 -7.607755 21.627378 35.278732 -0.276462 0.910890 0.061870 -0.017905 -674503.000000 0 0 1
14.850837 -17.422155 26.205018 34.796291 -0.864904 0.718038 0.007420 0.017265 -718539.000000 0 0 1
14.008837 -18.466955 26.412128 35.140810 -0.921821 0.720299 0.001961 0.012376 -446211.000000 0 0 1
14.647937 -19.721755 26.158538 35.885636 -0.931964 0.754021 0.000087 0.015409 -1470560.000000 0 0 1
13.686637 -20.868755 25.923988 35.984471 -0.990324 0.766386 -0.022356 0.005244 236949.000000 0 0 1
12.870237 -21.318755 27.049258 36.766761 -1.027657 0.744099 -0.013569 0.002631 179179.000000 0 0 1
11.918137 -20.358255 27.344968 36.114372 -1.041166 0.711816 -0.001419 -0.000515 -1624360.000000 0 0 1
11.192237 -20.717855 28.689288 37.115643 -1.075491 0.687287 0.005532 -0.001808 889190.000000 0 0 1
12.115637 -20.486355 29.824938 38.157652 -1.036724 0.673531 0.007901 -0.002139 997887.000000 0 0 1
11.628437 -19.636555 30.856368 38.378775 -1.036144 0.636812 0.022878 -0.002319 82339.600000 0 0 1
11.283137 -18.158855 30.434758 37.193114 -1.014821 0.612366 0.020980 -0.006009 69963.200000 0 0 1
12.412337 -17.344455 30.548168 37.257038 -0.949653 0.609507 0.006349 0.006000 -362470.000000 0 0 1
12.184337 -16.135455 29.861968 36.063113 -0.924021 0.595180 0.007010 0.010528 238895.000000 0 0 1
13.149037 -14.980255 30.262488 36.237045 -0.850406 0.582435 0.003269 0.002316 290489.000000 0 0 1
12.661737 -13.677355 29.981168 35.302409 -0.823938 0.556201 0.023165 0.000173 144559.000000 0 0 1
13.460737 -12.694755 30.619208 35.775469 -0.756121 0.543563 0.020559 0.006227 328385.000000 0 0 1
12.881837 -11.292455 30.233258 34.749262 -0.719746 0.515512 0.019543 0.004384 313273.000000 0 0 1
12.848937 -10.835455 28.883478 33.417923 -0.700589 0.527017 0.029095 0.005536 -49226.100000 0 0 1
14.154337 -10.821855 28.369528 33.500567 -0.652755 0.560786 0.036697 0.009791 -404091.000000 0 0 1
14.206737 -9.838655 27.140738 32.175304 -0.605698 0.566980 0.034939 0.005649 253661.000000 0 0 1
14.559537 -8.380755 27.308648 32.062119 -0.522300 0.551496 0.024603 0.005525 1246690.000000 0 0 1
15.951737 -8.150655 27.646338 32.942543 -0.472375 0.574932 0.037686 -0.002175 820024.000000 0 0 1
16.215137 -6.664455 27.607158 32.703224 -0.389955 0.565777 0.029363 -0.003667 -1681010.000000 0 0 1
17.570337 -6.594555 27.651338 33.418579 -0.359054 0.596291 0.039171 -0.011611 -1664770.000000 0 0 1
18.031537 -5.256255 27.482978 33.287815 -0.283644 0.599502 0.043391 -0.011708 -476403.000000 0 0 1
19.545237 -5.182455 27.331578 33.998372 -0.259188 0.636958 0.049064 -0.009426 -1505870.000000 0 0 1
19.950737 -5.831755 26.121678 33.382381 -0.284385 0.672127 0.054380 -0.008654 563338.000000 0 0 1
21.323437 -5.729355 25.748298 33.918864 -0.262489 0.708845 0.068679 -0.011202 1089730.000000 0 0 1
22.432637 -6.207355 26.760278 35.466420 -0.269956 0.715867 0.070013 -0.022369 -454470.000000 0 0 1
22.713937 -5.138255 27.665328 36.162066 -0.222472 0.699697 0.072198 -0.020274 558069.000000 0 0 1
23.744337 -5.458155 28.641078 37.601814 -0.225947 0.704873 0.073214 -0.032545 758157.000000 0 0 1
24.373837 -4.162255 29.273178 38.318759 -0.169136 0.701401 0.078252 -0.026118 -543192.000000 0 0 1
25.185437 -3.415855 28.462938 38.159051 -0.134806 0.728907 0.070187 -0.017101 -357518.000000 0 0 1
25.444937 -2.176655 29.105778 38.721170 -0.085336 0.720197 0.063567 -0.021649 -124899.000000 0 0 1
26.483037 -1.307555 28.322328 38.797104 -0.049333 0.752458 0.055743 -0.018003 -24666.200000 0 0 1
27.800537 -1.779955 28.322388 39.726513 -0.063939 0.777123 0.057538 -0.018133 -604661.000000 0 0 1
28.515437 -1.065255 27.363658 39.535234 -0.037340 0.806356 0.048165 -0.005943 607741.000000 0 0 1
30.049737 -0.832455 27.550498 40.776337 -0.027696 0.828951 0.027342 -0.004845 728880.000000 0 0 1
30.329337 0.162945 28.518688 41.631849 0.005372 0.816164 0.008013 0.005148 232578.000000 0 0 1
31.718737 0.293445 28.781688 42.831647 0.009251 0.833927 0.014792 -0.005092 305199.000000 0 0 1
32.026837 1.350645 29.896828 43.833354 0.042147 0.820225 0.013471 -0.005944 -219297.000000 0 0 1
31.751937 2.630545 29.398178 43.351565 0.082658 0.825575 0.008336 0.006864 -3757.090000 0 0 1
32.087637 3.560145 30.348478 44.309381 0.110499 0.816299 0.000739 0.006342 -104923.000000 0 0 1
32.387737 4.938945 29.707318 44.225371 0.151328 0.834260 0.006193 0.012403 44554.400000 0 0 1
32.493737 6.124345 30.512988 44.993255 0.186292 0.825529 -0.004122 0.015354 285110.000000 0 0 1
31.245937 6.559845 31.032208 44.523456 0.206937 0.799611 -0.001493 0.016688 -366318.000000 0 0 1
31.314437 7.476345 32.248308 45.568005 0.234363 0.784564 -0.010451 0.010629 -266318.000000 0 0 1
31.731137 6.737545 33.391688 46.553887 0.209225 0.770920 -0.015574 0.008490 146476.000000 0 0 1
31.959737 7.581745 -34.135296 47.372208 0.232922 2.375430 -0.005807 -0.003055 -218364.000000 0 0 1
32.399937 6.802445 -32.850922 46.639171 0.206947 2.352322 0.002666 -0.004113 191803.000000 0 0 1
31.421537 5.976245 -32.184302 45.374639 0.187951 2.359303 -0.014403 -0.000655 580948.000000 0 0 1
31.316437 4.649045 -32.661422 45.487376 0.147377 2.371768 -0.000792 -0.005120 -175731.000000 0 0 1
31.616237 3.530345 -31.637212 44.866056 0.111202 2.353428 -0.005172 -0.012173 -322597.000000 0 0 1
31.571837 2.238445 -32.271032 45.201892 0.070782 2.365893 -0.001375 -0.007447 284965.000000 0 0 1
31.835537 1.152145 -31.357472 44.700335 0.036175 2.348302 0.001989 -0.012210 -128168.000000 0 0 1
31.904837 -0.212155 -32.024652 45.205553 -0.006650 2.358058 0.013019 -0.027479 -1047450.000000 0 0 1
32.995937 -0.379555 -32.885852 46.587072 -0.011503 2.354490 0.008383 -0.021392 -238337.000000 0 0 1
33.672037 -1.604555 -32.679342 46.950188 -0.047616 2.340668 0.019208 -0.019424 459369.000000 0 0 1
34.735337 -1.517255 -31.560932 46.956769 -0.043653 2.307875 0.035592 -0.022854 -779561.000000 0 0 1
34.042637 -1.643655 -30.352912 45.638822 -0.048245 2.298381 0.038685 -0.021648 -11728.400000 0 0 1
34.873737 -1.602355 -29.246982 45.542629 -0.045915 2.268147 0.059395 -0.019784 -298605.000000 0 0 1
34.000737 -1.311755 -28.009642 44.071657 -0.038561 2.259514 0.051841 -0.021144 133616.000000 0 0 1
33.608337 0.042845 -27.778842 43.602595 0.001275 2.261515 0.042412 -0.023029 213111.000000 0 0 1
32.932337 0.142445 -26.559552 42.308025 0.004325 2.249477 0.032367 -0.014162 -431141.000000 0 0 1
32.241437 1.524345 -26.359652 41.673315 0.047244 2.255613 0.025463 -0.011529 -708086.000000 0 0 1
31.015337 1.477145 -27.002922 41.149616 0.047590 2.286586 0.013559 -0.014790 -780235.000000 0 0 1
30.475337 2.743945 -27.115302 40.884166 0.089796 2.295913 0.010896 -0.011256 -255363.000000 0 0 1
29.627237 2.919045 -28.390102 41.137476 0.098209 2.332462 0.009808 -0.002772 -536310.000000 0 0 1
29.101737 4.218945 -28.413172 40.890329 0.143969 2.339026 0.004698 -0.004063 100777.000000 0 0 1
28.526137 4.459845 -29.682022 41.408371 0.155087 2.370016 0.018346 -0.007139 1287910.000000 0 0 1
27.154637 5.300745 -29.537172 40.471185 0.192782 2.388873 0.020214 -0.015097 986476.000000 0 0 1
26.094137 4.741545 -28.845112 39.184522 0.179748 2.398139 0.025124 -0.010636 -262561.000000 0 0 1
25.288737 5.722745 -28.265852 38.356596 0.222548 2.399303 0.030716 -0.016544 -457699.000000 0 0 1
23.905837 5.262845 -27.757362 37.008888 0.216692 2.418887 0.034655 -0.004687 -111326.000000 0 0 1
23.109737 4.953745 -28.900352 37.334032 0.211162 2.456092 0.057852 -0.016359 -33593.200000 0 0 1
21.799737 4.636345 -28.480372 36.164290 0.209557 2.477583 0.062344 -0.015935 289467.000000 0 0 1
20.835237 4.435345 -29.710262 36.557887 0.209746 2.519552 0.047351 -0.015213 230106.000000 0 0 1
20.990637 3.123945 -30.208412 36.917666 0.147741 2.529182 0.046209 -0.014695 -452919.000000 0 0 1
20.103837 2.795445 -31.203922 37.224502 0.138164 2.564886 0.036035 -0.017015 -563684.000000 0 0 1
20.295137 3.428845 -32.672102 38.614969 0.167369 2.579421 0.038397 -0.014906 329036.000000 0 0 1
21.617237 3.117745 -33.120592 39.673655 0.143237 2.558613 0.064826 -0.014673 376281.000000 0 0 1
21.776837 3.629445 34.206535 40.712290 0.165147 0.573141 0.063371 -0.026012 -1063700.000000 0 0 1
23.141937 3.466145 33.612130 40.955326 0.148672 0.608157 0.070987 -0.018825 -1062290.000000 0 0 1
23.378837 2.105245 33.426071 40.844881 0.089807 0.612234 0.085533 -0.019338 629856.000000 0 0 1
24.750337 1.820645 33.117877 41.384632 0.073428 0.643091 0.075678 -0.018983 342402.000000 0 0 1
25.083437 0.343145 32.960236 41.420692 0.013679 0.650563 0.060031 -0.013544 -639444.000000 0 0 1
24.678137 -0.335255 31.729208 40.197830 -0.013584 0.661085 0.071090 -0.016261 854690.000000 0 0 1
23.264037 -0.387355 31.508758 39.168448 -0.016649 0.636060 0.083668 -0.021549 229186.000000 0 0 1
22.542737 -1.429055 32.354218 39.459000 -0.063308 0.609481 0.079210 -0.028192 -758925.000000 0 0 1
22.733037 -2.756455 31.933978 39.295903 -0.120664 0.622104 0.085740 -0.039848 210376.000000 0 0 1
22.105037 -3.642955 32.849422 39.761644 -0.163334 0.598541 0.084172 -0.033574 53357.500000 0 0 1
22.052337 -5.109855 32.451688 39.566757 -0.227697 0.609078 0.084176 -0.032056 -670932.000000 0 0 1
23.294437 -5.711555 32.507868 40.398195 -0.240446 0.635650 0.077685 -0.028482 -826448.000000 0 0 1
23.119837 -7.115655 32.501738 40.515706 -0.298572 0.639824 0.087816 -0.021856 4165.180000 0 0 1
24.368437 -7.995455 32.231428 41.189963 -0.317040 0.672114 0.072880 -0.025111 32669.300000 0 0 1
24.838137 -7.849155 30.905898 40.419264 -0.306081 0.700325 0.079190 -0.028809 -692580.000000 0 0 1
26.057537 -8.496355 30.711038 41.162497 -0.315192 0.728622 0.068712 -0.032390 -262778.000000 0 0 1
26.641137 -8.318055 29.279078 40.450027 -0.302635 0.761454 0.061088 -0.021968 -61050.600000 0 0 1
25.855737 -8.859155 28.239738 39.299957 -0.330101 0.769054 0.055797 -0.012773 -279588.000000 0 0 1
26.313937 -8.476655 26.917188 38.585127 -0.311639 0.798747 0.069307 -0.012884 81666.700000 0 0 1
25.588137 -9.114155 25.705248 37.397599 -0.342176 0.812962 0.057878 -0.013784 -349503.000000 0 0 1
24.251437 -8.751555 25.518258 36.275383 -0.346323 0.790543 0.053835 -0.016981 -810795.000000 0 0 1
23.703637 -9.674655 24.656308 35.544267 -0.387513 0.804212 0.059370 -0.020418 -476482.000000 0 0 1
22.396137 -9.187855 24.020768 34.102800 -0.389305 0.789270 0.049383 -0.010204 -216040.000000 0 0 1
21.373037 -9.135555 25.001188 34.136850 -0.403930 0.748984 0.038392 -0.009071 -391885.000000 0 0 1
20.112237 -8.976955 24.408338 32.876356 -0.419809 0.734108 0.032768 -0.004692 151082.000000 0 0 1
18.941437 -8.897155 25.434548 32.937117 -0.439131 0.688476 0.030510 -0.001066 431824.000000 0 0 1
18.285137 -10.125555 25.826538 33.224738 -0.505724 0.680388 0.038282 0.000580 722647.000000 0 0 1
18.940537 -10.664855 26.988288 34.653294 -0.512823 0.678032 0.033189 0.000707 93111.600000 0 0 1
18.001137 -11.577355 27.782588 35.070619 -0.571542 0.656407 0.027648 0.002097 -50353.100000 0 0 1
17.670237 -12.747455 26.991078 34.687941 -0.624950 0.679143 0.025331 0.004859 463684.000000 0 0 1
16.697237 -13.574455 27.612498 35.007337 -0.682603 0.662002 0.016724 0.007579 125524.000000 0 0 1
17.378637 -14.528755 28.612918 36.493847 -0.696317 0.669636 0.015137 0.014315 233833.000000 0 0 1
16.432337 -15.359155 29.280568 36.922582 -0.751654 0.655036 -0.000634 0.012017 855931.000000 0 0 1
17.146837 -16.369255 30.067498 38.288654 -0.762202 0.667640 0.013578 0.003417 121075.000000 0 0 1
17.459837 -17.691555 29.394528 38.495134 -0.791990 0.701940 0.011045 0.015790 93965.900000 0 0 1
18.444937 -17.507355 28.388568 38.113436 -0.759326 0.730495 0.013556 0.015452 309802.000000 0 0 1
18.666537 -18.656655 27.632758 38.210990 -0.785133 0.762426 0.007126 0.016066 43284.200000 0 0 1
19.774937 -18.502655 26.576308 37.943334 -0.752172 0.794809 0.021216 0.009339 104648.000000 0 0 1
21.082037 -18.144955 26.978768 38.749783 -0.710664 0.800664 0.050890 -0.004565 -29492.300000 0 0 1
21.805037 -17.762255 25.829818 38.185559 -0.683577 0.827893 0.036265 -0.002082 519000.000000 0 0 1
23.250637 -17.382855 26.306018 39.176044 -0.641982 0.834589 0.041622 -0.005752 505381.000000 0 0 1
24.151537 -18.450755 26.504628 40.326449 -0.652374 0.853630 0.048750 -0.012579 -108117.000000 0 0 1
25.491637 -18.025755 26.524488 40.967059 -0.615491 0.866551 0.048537 -0.013040 -465415.000000 0 0 1
26.401237 -19.227155 26.612318 42.129851 -0.629446 0.887086 0.039114 -0.021332 -695401.000000 0 0 1
26.245137 -19.951055 27.843118 43.151953 -0.649985 0.869466 0.035679 -0.013417 294411.000000 0 0 1
27.057437 -21.113355 27.919388 44.242185 -0.662623 0.887880 0.029663 -0.013737 -326236.000000 0 0 1
26.486037 -22.213955 28.785518 44.984176 -0.697900 0.876424 0.024657 -0.004391 -221021.000000 0 0 1
26.090037 -21.838955 30.095218 45.424137 -0.696934 0.846594 0.034612 -0.006902 344138.000000 0 0 1
25.510537 -22.962755 30.816238 46.127174 -0.732886 0.839183 0.033879 -0.012231 73458.900000 0 0 1
25.085937 -22.759955 32.277308 46.788294 -0.736822 0.809503 0.028578 -0.004896 -164249.000000 0 0 1
24.765537 -23.985455 32.916118 47.666600 -0.769398 0.808549 0.009863 -0.003652 163885.000000 0 0 1
24.556737 -23.888255 34.283802 48.467115 -0.771600 0.785037 0.014108 -0.003182 -363560.000000 0 0 1
24.531737 -25.319385 -33.800362 48.839962 -0.801197 2.335140 0.005946 -0.007747 303703.000000 0 0 1
23.347937 -26.081475 -34.016102 48.810499 -0.840644 2.341864 0.023069 -0.008809 147002.000000 0 0 1
22.903937 -26.389975 33.308672 48.275137 -0.856000 0.809341 0.015375 -0.008709 -839617.000000 0 0 1
21.607137 -27.157685 33.355467 48.135179 -0.898733 0.805218 0.033268 -0.016292 -699635.000000 0 0 1
21.702237 -28.582645 33.571560 49.142694 -0.921382 0.818736 0.021664 -0.008869 407168.000000 0 0 1
20.417337 -29.120375 33.845378 49.095555 -0.959308 0.810167 0.038836 -0.012642 338449.000000 0 0 1
20.623737 -30.589225 34.087822 50.229661 -0.977586 0.824888 0.017740 -0.010011 -306171.000000 0 0 1
21.581037 -30.854855 -33.562492 50.440105 -0.960448 2.298816 0.028225 -0.010911 116276.000000 0 0 1
21.882237 -32.204625 -33.518272 51.375527 -0.973979 2.281566 -0.018938 0.000146 -123815.000000 0 0 1
22.703537 -32.513585 -32.250032 51.114073 -0.961227 2.253564 -0.021081 0.004951 -649396.000000 0 0 1
23.148237 -33.886975 -32.228702 52.181005 -0.971502 2.236526 -0.034559 0.007133 421130.000000 0 0 1
23.645937 -34.357449 -30.964222 51.945623 -0.968011 2.209418 -0.029257 0.002588 29824.400000 0 0 1
25.027837 -33.799945 -30.554302 51.984559 -0.933423 2.199080 -0.024990 0.004127 -744420.000000 0 0 1
25.458737 -34.142888 -29.248342 51.665750 -0.930083 2.172572 -0.009405 -0.004258 -437440.000000 0 0 1
26.219337 -33.049805 -28.847442 51.106929 -0.900137 2.170566 0.001643 -0.008287 -814156.000000 0 0 1
26.660437 -33.079515 -27.370142 50.538678 -0.892438 2.143098 0.005050 -0.006583 -172872.000000 0 0 1
27.651237 -34.007735 -27.120282 51.542475 -0.888126 2.124891 0.009945 0.001148 -370048.000000 0 0 1
28.730537 -33.599415 -26.297782 51.438681 -0.863354 2.107429 0.013590 -0.006896 556831.000000 0 0 1
-26.476383 -30.882224 9.636788 41.804046 0.862060 1.338181 0.025643 -0.014114 -425780.000000 0 0 1
-25.968233 -32.175924 9.456088 42.415290 0.891759 1.345966 0.029453 -0.020382 -243708.000000 0 0 1
-25.196843 -32.620224 10.548688 42.546853 0.913094 1.320252 0.031835 -0.017750 -248395.000000 0 0 1
-25.708383 -33.722524 11.434288 43.918931 0.919438 1.307412 0.024051 -0.014271 -316462.000000 0 0 1
-25.665583 33.808245 10.719988 43.779421 -0.921464 1.323417 0.028994 -0.010844 39485.800000 0 0 1
-25.616953 32.629545 11.514888 43.052388 -0.905217 1.300038 0.030599 -0.013047 63628.500000 0 0 1
-25.375693 31.376345 10.656688 41.736863 -0.890741 1.312607 0.030252 -0.014506 -139578.000000 0 0 1
-26.571713 31.124545 9.961588 42.119193 -0.864145 1.332025 0.029932 -0.017844 -85456.300000 0 0 1
-26.579573 29.904245 9.252488 41.065144 -0.844191 1.343533 0.042996 -0.019079 -361984.000000 0 0 1
-25.744493 29.905045 7.966388 40.256104 -0.860023 1.371589 0.037641 -0.012666 -840559.000000 0 0 1
-24.377063 29.766345 8.117288 39.321328 -0.884609 1.362867 0.032211 -0.009408 -1203870.000000 0 0 1
-23.769163 29.715045 6.882288 38.669405 -0.896114 1.391865 0.027842 -0.008445 357895.000000 0 0 1
-22.378863 28.987745 6.999388 37.283968 -0.913356 1.381944 0.050701 -0.005111 533250.000000 0 0 1
-22.446663 27.588645 7.134888 36.275234 -0.887806 1.372818 0.052751 -0.013644 -4569.220000 0 0 1
-22.953363 26.928745 6.017888 35.891909 -0.864926 1.402334 0.046009 -0.019995 -294715.000000 0 0 1
-23.263463 25.416945 6.280788 35.023678 -0.829606 1.390491 0.053466 -0.016526 154387.000000 0 0 1
-24.446463 25.148045 7.033188 35.770371 -0.799544 1.372886 0.057845 -0.019604 628196.000000 0 0 1
-24.668163 23.775945 7.354188 35.041374 -0.766983 1.359353 0.063333 -0.026624 -188728.000000 0 0 1
-25.126943 22.795545 6.244888 34.496358 -0.736787 1.388762 0.052922 -0.029261 894237.000000 0 0 1
-26.465213 23.113045 5.752688 35.604968 -0.717887 1.408515 0.053499 -0.030760 1396510.000000 0 0 1
-26.776033 22.514645 4.503288 35.272436 -0.699158 1.442775 0.047369 -0.025903 -221814.000000 0 0 1
-26.513843 23.435345 3.290088 35.539048 -0.723843 1.478087 0.038524 -0.026918 -963721.000000 0 0 1
-25.167043 23.780545 3.227488 34.775149 -0.757080 1.477852 0.039585 -0.029037 -273698.000000 0 0 1
-24.923963 24.487245 1.982788 34.996578 -0.776560 1.514109 0.035068 -0.029877 39221.100000 0 0 1
-23.583663 25.250545 1.986988 34.608196 -0.819518 1.513351 0.041468 -0.024496 101735.000000 0 0 1
-23.161763 25.780845 0.733188 34.664921 -0.838860 1.549644 0.033492 -0.025967 -554383.000000 0 0 1
-21.941063 26.422945 0.949488 34.358169 -0.877804 1.543158 0.046178 -0.029161 -825376.000000 0 0 1
-21.280563 27.027045 -0.298612 34.400765 -0.903798 1.579477 0.050732 -0.026682 165051.000000 0 0 1
-20.879863 26.186045 -1.390312 33.520301 -0.897664 1.612285 0.051029 -0.024748 640410.000000 0 0 1
-19.678563 25.449245 -1.105212 32.188995 -0.912582 1.605138 0.045922 -0.030472 396864.000000 0 0 1
-19.238463 24.417145 -2.202212 31.163522 -0.903472 1.641522 0.046579 -0.032752 611657.000000 0 0 1
-20.301063 23.490845 -2.498712 31.147977 -0.858109 1.651103 0.049525 -0.033774 505676.000000 0 0 1
-19.878263 22.652045 -3.553512 30.346135 -0.850525 1.688165 0.050962 -0.034427 52587.200000 0 0 1
-20.973163 21.778745 -4.251912 30.533032 -0.804239 1.710507 0.029271 -0.028876 418394.000000 0 0 1
-21.734763 22.630945 -5.137312 31.795464 -0.805595 1.733081 0.029701 -0.019719 259839.000000 0 0 1
-23.086763 22.225545 -5.292812 32.480568 -0.766394 1.734479 0.048489 -0.031738 235573.000000 0 0 1
-23.595763 22.736445 -6.645212 33.434485 -0.766853 1.770882 0.042387 -0.016539 -265296.000000 0 0 1
-23.159063 22.082845 -7.818412 32.941187 -0.761615 1.810428 0.034829 -0.016451 52022.700000 0 0 1
-21.876563 22.535245 -8.229012 32.467490 -0.800228 1.827045 0.031129 -0.021981 -81938.200000 0 0 1
-21.310163 21.656745 -9.389912 31.801070 -0.793464 1.870535 0.017096 -0.029913 -681986.000000 0 0 1
-22.026163 21.716545 -10.553712 32.682426 -0.778320 1.899606 0.017987 -0.015514 -364444.000000 0 0 1
-21.319063 21.151445 -11.632312 32.205539 -0.781451 1.940340 0.008434 -0.009900 -123643.000000 0 0 1
-22.129163 21.037545 -12.920912 33.154609 -0.760115 1.971121 0.004121 0.000405 -1142260.000000 0 0 1
-23.024663 20.039745 -13.016412 33.183632 -0.716196 1.973877 0.006475 -0.003340 -806131.000000 0 0 1
-23.623163 20.137145 -14.286212 34.170957 -0.705904 2.002128 0.012666 -0.003960 357604.000000 0 0 1
-24.814863 19.146945 -14.532812 34.548307 -0.657177 2.004960 0.024072 -0.014995 494736.000000 0 0 1
-24.364163 17.972445 -15.160112 33.859270 -0.635556 2.035031 0.017762 -0.008388 536794.000000 0 0 1
-25.465893 17.095445 -15.452612 34.344565 -0.591209 2.037482 0.044825 -0.004859 360950.000000 0 0 1
-25.322163 16.249645 -16.703012 34.412984 -0.570530 2.077582 0.051020 -0.006919 -235454.000000 0 0 1
-24.302763 15.284145 -16.531212 33.128694 -0.561403 2.093241 0.059948 -0.005062 145817.000000 0 0 1
-23.963963 14.686945 -17.754312 33.244450 -0.549834 2.134184 0.061360 -0.009749 -102367.000000 0 0 1
-22.980563 13.512545 -17.736912 32.020200 -0.531548 2.157872 0.064399 -0.007199 296664.000000 0 0 1
-21.657663 13.736945 -17.277912 30.923846 -0.565242 2.163643 0.062614 -0.010995 492048.000000 0 0 1
-20.945863 12.504145 -17.216312 29.857733 -0.538192 2.185372 0.066747 0.002750 570032.000000 0 0 1
-19.630363 12.460845 -16.346112 28.422160 -0.565597 2.183545 0.063245 -0.001826 972084.000000 0 0 1
-18.668863 13.339945 -16.970812 28.539254 -0.620428 2.207624 0.048290 0.007835 8070.830000 0 0 1
-17.711063 13.733845 -16.024712 27.551618 -0.659584 2.191521 0.049512 0.015352 -102909.000000 0 0 1
-16.966063 15.009645 -16.543512 28.050392 -0.724290 2.201581 0.039785 0.019761 130279.000000 0 0 1
-16.137063 14.746145 -17.690012 28.120991 -0.740391 2.251150 0.058081 0.006516 644932.000000 0 0 1
-15.285463 15.844845 -18.074412 28.484888 -0.803365 2.258192 0.056966 0.000698 573693.000000 0 0 1
-14.273863 15.504345 -19.206912 28.513740 -0.826696 2.309868 0.058031 0.001402 230108.000000 0 0 1
-13.359963 14.483745 -18.865512 27.279571 -0.825737 2.334446 0.048998 0.007978 -33909.900000 0 0 1
-12.444363 14.352445 -19.956112 27.551792 -0.856484 2.380833 0.066305 -0.003895 -123851.000000 0 0 1
-11.480463 13.161345 -19.853512 26.442087 -0.853505 2.420114 0.054801 -0.002963 -405721.000000 0 0 1
-11.997963 11.872845 -19.970212 26.148134 -0.780157 2.439874 0.050614 -0.002084 -370875.000000 0 0 1
-11.033763 10.859645 -19.893612 25.207769 -0.777445 2.480278 0.023440 0.006555 -331634.000000 0 0 1
-11.477263 9.644645 -20.794512 25.635102 -0.698851 2.516952 0.032573 -0.004185 90009.400000 0 0 1
-10.998663 9.720445 -22.113212 26.541511 -0.723784 2.555586 0.041652 0.000622 -185551.000000 0 0 1
-11.380663 8.654545 -22.920312 27.014095 -0.650162 2.583860 0.037950 -0.004210 -91495.300000 0 0 1
-11.118563 8.813745 -24.429412 28.250677 -0.670277 2.615423 0.038910 -0.012057 885981.000000 0 0 1
-9.749863 8.539645 -24.797912 27.980740 -0.719324 2.659981 0.037361 -0.004752 727242.000000 0 0 1
-9.542263 8.104545 -26.166492 29.007305 -0.704106 2.695328 0.018632 -0.011613 -407164.000000 0 0 1
-9.680363 9.175645 -27.281762 30.367687 -0.758638 2.686866 0.055918 -0.012195 89629.200000 0 0 1
-8.504563 9.894645 -27.629532 30.555239 -0.860806 2.700413 0.037303 -0.018384 264550.000000 0 0 1
-7.983463 10.748645 -26.619732 29.797302 -0.931957 2.675566 0.035499 -0.010088 252581.000000 0 0 1
-6.457163 11.009545 -26.814792 29.697443 -1.040358 2.697341 0.035564 -0.008015 291121.000000 0 0 1
-6.111463 11.934045 -27.816732 30.879475 -1.097513 2.692442 0.042153 -0.009937 270125.000000 0 0 1
-4.730163 12.228245 -27.742402 30.684610 -1.201701 2.700099 0.057588 -0.011294 -52765.100000 0 0 1
-4.082463 12.613645 -29.058792 31.940319 -1.257782 2.713560 0.066420 -0.018480 782880.000000 0 0 1
-2.643863 12.666445 -29.015022 31.769488 -1.365021 2.722107 0.070834 -0.028678 912883.000000 0 0 1
-2.139463 12.685145 -30.359612 32.972659 -1.403710 2.740798 0.073622 -0.026003 711325.000000 0 0 1
-0.578663 12.637845 -30.416242 32.942340 -1.525040 2.747428 0.073966 -0.032782 316940.000000 0 0 1
-0.088163 11.377945 -29.952962 32.041307 -1.563048 2.778558 0.051380 -0.019022 468478.000000 0 0 1
1.336037 11.273045 -29.983932 32.060922 1.452830 2.779669 0.051900 -0.020031 746724.000000 0 0 1
1.881537 10.785745 -31.381702 33.236783 1.398088 2.805911 0.049236 -0.015093 -553823.000000 0 0 1
1.792637 11.754245 -32.394282 34.507468 1.419453 2.789814 0.063416 -0.026799 309360.000000 0 0 1
1.903537 11.133745 -33.679582 35.523204 1.401463 2.818006 0.064245 -0.029602 -124555.000000 0 0 1
2.112337 12.126945 33.842068 36.011253 1.398341 0.348858 0.066238 -0.032594 -486207.000000 0 0 1
3.450137 12.566045 33.671797 36.105385 1.302839 0.369252 0.061138 -0.035246 95707.100000 0 0 1
3.627137 13.195845 32.422408 35.192315 1.302551 0.399406 0.064001 -0.027376 -46835.400000 0 0 1
5.117737 13.301945 32.077198 35.100992 1.203517 0.418119 0.059567 -0.026087 -52507.600000 0 0 1
5.813737 12.123045 31.672448 34.408018 1.123633 0.401448 0.057447 -0.029154 987354.000000 0 0 1
7.201637 12.377545 31.375788 34.489234 1.043844 0.428170 0.046255 -0.014598 932386.000000 0 0 1
7.917837 11.100145 30.912718 33.786114 0.951194 0.415404 0.023149 -0.010963 -115139.000000 0 0 1
7.414137 10.625945 29.677808 32.382903 0.961589 0.411641 0.036548 -0.017994 -45679.200000 0 0 1
8.279637 9.726045 29.065458 31.748216 0.865557 0.414050 0.032446 -0.010935 -52927.500000 0 0 1
7.503837 9.010845 27.953838 30.313693 0.876399 0.397189 0.034666 -0.010258 581422.000000 0 0 1
6.607637 7.993445 28.462688 30.293244 0.880026 0.349418 0.040120 -0.016097 290234.000000 0 0 1
6.181837 7.173145 27.372918 28.964561 0.859490 0.333053 0.044580 -0.016233 -102821.000000 0 0 1
5.237437 6.074845 27.881978 29.012742 0.859290 0.280109 0.066360 -0.029424 -273511.000000 0 0 1
5.922737 5.126945 28.695708 29.745723 0.713503 0.266493 0.066208 -0.026150 139213.000000 0 0 1
5.087937 4.434045 29.608038 30.367479 0.716834 0.224113 0.070871 -0.026376 -428887.000000 0 0 1
5.749437 3.240345 30.312058 31.022198 0.513220 0.214379 0.075449 -0.016482 41979.800000 0 0 1
5.942237 2.021845 29.480838 30.141630 0.327962 0.209778 0.081865 -0.015889 796053.000000 0 0 1
7.240337 2.097645 28.856068 29.824407 0.281996 0.255520 0.093827 -0.019425 554651.000000 0 0 1
7.561437 0.755045 28.124098 29.132634 0.099525 0.263895 0.085736 -0.024627 -45622.200000 0 0 1
7.805037 -0.401555 28.941228 29.977901 -0.051403 0.263751 0.046021 -0.007723 -178849.000000 0 0 1
7.839437 -1.572155 28.171518 29.284175 -0.197919 0.276544 0.064494 -0.010311 -199433.000000 0 0 1
8.481637 -2.850255 28.738048 30.098797 -0.324194 0.301842 0.039677 0.010166 346265.000000 0 0 1
9.875737 -2.628655 28.910838 30.663930 -0.260142 0.339777 0.019840 0.004346 171590.000000 0 0 1
10.636337 -3.831355 28.756098 30.898611 -0.345745 0.374584 0.006072 0.008594 -179760.000000 0 0 1
12.134737 -3.654355 29.044398 31.688850 -0.292510 0.411431 -0.003621 0.009276 253930.000000 0 0 1
12.949337 -4.783855 28.678908 31.828453 -0.353877 0.448621 0.002090 0.009399 348487.000000 0 0 1
12.984337 -5.754255 29.772648 32.986589 -0.417159 0.445099 0.017190 0.008951 -406390.000000 0 0 1
12.315237 -7.112755 29.388688 32.648911 -0.523754 0.450699 0.019504 0.008096 -206275.000000 0 0 1
10.930537 -7.026055 29.183568 31.945622 -0.571291 0.418895 0.017818 0.009354 -702630.000000 0 0 1
10.358337 -8.289355 29.144438 32.021975 -0.674899 0.427178 0.029671 0.007340 214354.000000 0 0 1
8.836737 -8.208255 28.873088 31.290871 -0.748543 0.395687 0.037894 0.001318 225133.000000 0 0 1
8.028437 -7.634655 29.877878 31.865834 -0.760263 0.355091 0.049464 -0.003572 -346728.000000 0 0 1
6.663137 -7.870855 29.618978 31.362902 -0.868304 0.335046 0.054788 0.006109 -5285.510000 0 0 1
5.842137 -6.946355 30.597008 31.914877 -0.871529 0.288377 0.051577 0.003334 -49516.500000 0 0 1
5.775937 -7.474855 31.924558 33.292827 -0.912915 0.287690 0.042160 0.003577 -72742.600000 0 0 1
5.252537 -6.603255 32.923508 33.987491 -0.898838 0.250878 0.035251 0.004873 -215128.000000 0 0 1
6.028437 -5.359255 33.322401 34.284780 -0.726702 0.237497 0.046384 0.006366 -341506.000000 0 0 1
5.882137 -4.309155 32.481428 33.289811 -0.632261 0.220826 0.054562 0.004470 -204587.000000 0 0 1
6.542537 -3.148955 32.937445 33.728267 -0.448580 0.216975 0.043024 0.008680 -302681.000000 0 0 1
6.334837 -1.939755 32.111728 32.788045 -0.297139 0.203461 0.053041 0.022454 1575380.000000 0 0 1
4.928737 -1.556655 31.971258 32.386370 -0.305918 0.160281 0.067524 0.016316 1379760.000000 0 0 1
4.836637 -0.295855 31.396658 31.768392 -0.061094 0.153129 0.081611 -0.000617 -395996.000000 0 0 1
3.377937 0.083045 31.146878 31.329625 0.024579 0.108062 0.068728 -0.002768 -292469.000000 0 0 1
2.739837 0.467445 32.362018 32.481155 0.168983 0.085675 0.070026 -0.003904 -375696.000000 0 0 1
1.499437 1.056045 32.043178 32.095620 0.613602 0.057173 0.075816 -0.005555 -67965.200000 0 0 1
0.667637 1.294445 33.334757 33.366561 1.094611 0.043665 0.054892 -0.000822 -216923.000000 0 0 1
1.194937 2.291945 34.165376 34.263010 1.090204 0.075510 0.036033 0.002592 -220929.000000 0 0 1
0.556337 2.292945 -33.248072 33.331688 1.332766 3.070746 0.021327 0.002136 -332307.000000 0 0 1
0.952537 3.328245 -32.159892 32.345683 1.292049 3.034360 0.016262 0.010352 -251776.000000 0 0 1
2.130637 2.960345 -31.505922 31.716343 0.946954 3.026338 0.005532 0.012670 -412154.000000 0 0 1
2.777537 4.006545 -30.821232 31.204415 0.964615 2.984717 0.002112 0.014407 -107632.000000 0 0 1
3.904237 3.550845 -29.903522 30.365642 0.738031 2.966909 -0.001250 0.017231 69983.600000 0 0 1
3.354137 2.896145 -28.718742 29.058631 0.712253 2.988494 0.003948 0.007164 933047.000000 0 0 1
4.407637 2.355045 -27.898872 28.342911 0.490717 2.964349 0.010601 0.002445 410584.000000 0 0 1
3.979237 1.442245 -26.729962 27.062988 0.347716 2.984552 0.008795 -0.002601 -255374.000000 0 0 1
3.310637 0.248245 -26.959212 27.162862 0.074844 3.019063 0.021705 -0.002043 -162964.000000 0 0 1
3.135237 -0.384255 -25.722132 25.915352 -0.121952 3.019404 0.023452 -0.001258 -137477.000000 0 0 1
3.776237 -1.781855 -25.453062 25.793281 -0.440883 2.978993 0.041338 -0.013545 -412568.000000 0 0 1
5.147437 -1.816255 -25.215812 25.799847 -0.339208 2.928412 0.039626 -0.019725 -722688.000000 0 0 1
5.588737 -3.129855 -24.983812 25.791876 -0.510510 2.890614 0.041628 -0.028023 -1158470.000000 0 0 1
7.000037 -3.169355 -24.447312 25.626479 -0.425149 2.837057 0.047078 -0.027734 -930780.000000 0 0 1
7.840637 -3.169455 -25.566882 26.929287 -0.384151 2.822142 0.035342 -0.018313 -169983.000000 0 0 1
9.212837 -3.276955 -25.154092 26.987834 -0.341739 2.770835 0.033815 -0.016392 748118.000000 0 0 1
-28.983293 -4.406855 17.757578 34.275111 0.150892 1.026180 0.037154 0.002080 780957.000000 0 0 1
-30.402983 -4.220255 17.648478 35.406506 0.137929 1.048983 0.040287 0.011947 636491.000000 0 0 1
-31.042193 -5.113655 18.538678 36.516432 0.163266 1.038306 0.035199 0.014831 346328.000000 0 0 1
-32.534333 -4.858155 18.855678 37.915974 0.148229 1.050310 0.036631 0.017093 196023.000000 0 0 1
-33.437673 -5.042155 17.803778 38.216172 0.149665 1.086178 0.033503 0.018896 35673.500000 0 0 1
-34.764834 -4.818555 18.225378 39.547143 0.137727 1.091841 0.028675 0.025366 796285.000000 0 0 1
35.772838 -5.125355 17.168578 40.009065 -0.142307 1.127281 0.023923 0.019752 633161.000000 0 0 1
34.482510 -4.989355 17.700078 39.079789 -0.143695 1.100757 0.021222 0.025583 -564537.000000 0 0 1
33.503310 -5.157955 16.709078 37.792454 -0.152754 1.112827 0.027409 0.017499 75737.200000 0 0 1
32.160920 -5.656255 17.286078 36.947618 -0.174093 1.083936 0.032702 0.016455 -292158.000000 0 0 1
31.616850 -4.879055 18.302678 36.856728 -0.153110 1.051131 0.039754 0.017106 -493255.000000 0 0 1
30.481080 -5.418755 18.876878 36.260111 -0.175936 1.023247 0.051845 0.007470 -605543.000000 0 0 1
30.071450 -4.736555 20.153478 36.508763 -0.156227 0.986014 0.042799 0.010613 -675080.000000 0 0 1
29.266220 -3.600855 20.101778 35.686962 -0.122423 0.972445 0.048638 0.004859 -25309.500000 0 0 1
29.827210 -2.362555 19.611778 35.775214 -0.079043 0.990592 0.055869 0.004891 59801.700000 0 0 1
28.861800 -1.151755 19.839178 35.041733 -0.039885 0.968958 0.056592 0.003581 470384.000000 0 0 1
29.402970 0.104045 19.497978 35.280542 0.003539 0.985249 0.050054 0.002500 338681.000000 0 0 1
28.347790 1.049445 19.621578 34.492098 0.037003 0.965663 0.050425 -0.000321 587911.000000 0 0 1
28.734980 2.471345 19.020878 34.548523 0.085794 0.987767 0.038222 0.002158 103458.000000 0 0 1
28.508890 2.514645 17.604678 33.600669 0.087978 1.019328 0.042875 -0.000970 112068.000000 0 0 1
28.672310 3.786745 16.985478 33.540233 0.131310 1.039767 0.035585 0.004114 48699.700000 0 0 1
28.371920 3.774945 15.460578 32.530686 0.132275 1.075535 0.040045 0.003300 -134927.000000 0 0 1
27.993110 5.013645 14.937078 32.122689 0.177224 1.087161 0.032429 0.002043 271865.000000 0 0 1
27.510810 4.893345 13.606178 31.079214 0.176029 1.117657 0.036118 0.005530 -21892.200000 0 0 1
26.936480 6.270045 13.116578 30.609345 0.228699 1.127947 0.047240 0.012132 -133850.000000 0 0 1
25.835970 6.625845 13.913078 30.082767 0.251048 1.089991 0.027130 0.012520 -233420.000000 0 0 1
25.286170 7.885145 13.521378 29.738755 0.302280 1.098792 0.047991 0.001026 412840.000000 0 0 1
24.053170 8.236145 14.466778 29.251953 0.329901 1.053470 0.050221 -0.001113 1087490.000000 0 0 1
22.846470 7.507645 14.232278 27.944296 0.317496 1.036415 0.053130 0.001223 750400.000000 0 0 1
22.816370 6.146145 14.451178 27.698346 0.263129 1.021914 0.058304 -0.005274 -1421770.000000 0 0 1
21.590470 5.360245 14.019078 26.294774 0.243349 1.008476 0.068490 -0.016711 -730685.000000 0 0 1
21.497070 5.355045 12.657078 25.514744 0.244137 1.051731 0.085032 -0.025222 1039790.000000 0 0 1
20.264670 4.733745 12.284378 24.165495 0.229481 1.037536 0.082125 -0.022242 194098.000000 0 1 0
19.961870 4.875645 10.778178 23.203820 0.239558 1.087726 0.091266 -0.024403 -430864.000000 0 1 0
20.869570 4.199545 9.952078 23.499340 0.198576 1.133486 0.090293 -0.028209 563758.000000 0 1 0
20.323970 4.038945 8.642778 22.451602 0.196172 1.175641 0.092120 -0.030270 -224857.000000 0 1 0
21.235470 3.223945 7.767478 22.840156 0.150668 1.223794 0.077971 -0.026223 -1294630.000000 0 1 0
21.465970 1.912645 8.281778 23.087527 0.088867 1.203908 0.072226 -0.026933 636682.000000 0 1 0
22.304170 1.145645 7.417178 23.533020 0.051319 1.250148 0.053512 -0.022350 1066250.000000 0 1 0
23.852370 1.478345 7.556978 25.064496 0.061900 1.264529 0.059121 -0.023308 476432.000000 0 0 1
24.518070 1.105645 8.741578 26.053280 0.045065 1.228632 0.048386 -0.007930 468768.000000 0 0 1
24.422470 2.039545 9.812878 26.399041 0.083318 1.189942 0.041466 -0.006928 -464797.000000 0 0 1
25.003370 1.529745 11.125478 27.409577 0.061105 1.152836 0.039820 -0.002181 411070.000000 0 0 1
26.399570 1.230045 11.109378 28.668250 0.046560 1.172862 0.029721 -0.004891 707824.000000 0 0 1
26.837860 0.502145 12.233678 29.498911 0.018708 1.143165 0.043877 -0.009831 104893.000000 0 0 1
28.386410 0.447745 12.317478 30.946874 0.015772 1.161439 0.072021 -0.013943 186314.000000 0 0 1
28.980350 1.672645 12.669278 31.672844 0.057653 1.159275 0.062087 -0.004548 -141750.000000 0 0 1
30.370960 1.463345 12.735078 32.965418 0.048145 1.174162 0.065055 -0.003408 -227851.000000 0 0 1
31.212230 2.685745 13.128978 33.967434 0.085836 1.173945 0.054495 0.000375 -257406.000000 0 0 1
31.192740 3.683345 12.128178 33.669671 0.117539 1.202302 0.067453 -0.008993 392083.000000 0 0 1
31.976020 4.791045 12.526478 34.674668 0.148726 1.201180 0.054702 -0.009472 657184.000000 0 0 1
33.444150 4.931045 12.021078 35.879419 0.146386 1.229148 0.044432 -0.004653 618610.000000 0 0 1
34.327830 3.934745 12.534078 36.755751 0.114125 1.222805 0.034300 -0.006738 155175.000000 0 0 1
35.649265 4.172945 12.105078 37.878971 0.116525 1.245518 0.036398 -0.001251 -275767.000000 0 0 1
-35.026784 3.313745 12.889178 37.469820 -0.094325 1.219635 0.054025 0.000522 -790566.000000 0 0 1
-34.981920 1.917345 12.577678 37.223769 -0.054755 1.226118 0.048310 -0.000162 -172149.000000 0 0 1
35.637364 1.086845 12.936878 37.928429 0.030488 1.222724 0.061037 0.002731 -688487.000000 0 0 1
35.370860 0.707245 14.391478 38.193096 0.019992 1.184448 0.057152 0.007712 -19831.100000 0 0 1
-35.239097 0.009045 14.993878 38.296350 -0.000257 1.168511 0.046748 0.009798 132376.000000 0 0 1
-35.526043 -0.110055 16.367478 39.115293 0.003098 1.139067 0.055847 0.004536 7268.230000 0 0 1
-34.536071 -0.999655 17.203378 38.596576 0.028937 1.108815 0.032267 0.012787 305203.000000 0 0 1
-33.272563 -0.362755 17.289478 37.498281 0.010902 1.091591 0.032072 0.005896 728777.000000 0 0 1
-32.178513 -1.034855 17.935878 36.854082 0.032149 1.062519 0.045542 0.006511 819896.000000 0 0 1
-32.352373 -1.051655 19.507878 37.793377 0.032495 1.028421 0.027731 0.002620 -825553.000000 0 0 1
-33.337513 -1.872955 20.023478 38.933757 0.056123 1.030610 0.027245 0.005067 -352772.000000 0 0 1
-33.475003 -1.663655 21.413178 39.772701 0.049658 1.002272 0.026081 0.006195 15120.700000 0 0 1
-34.316167 -2.776255 22.060678 40.889857 0.080726 1.000936 0.025108 0.008782 -190910.000000 0 0 1
-33.646953 -4.020955 22.228578 40.526475 0.118940 0.990233 0.036939 0.009331 7645.270000 0 0 1
-34.389863 -5.067855 22.860778 41.604819 0.146312 0.989061 0.042476 0.004996 -63232.300000 0 0 1
-34.459256 -5.071055 24.424138 42.540504 0.146112 0.959245 0.040600 -0.003226 -791881.000000 0 0 1
-33.202283 -4.879755 24.960178 41.823607 0.145926 0.931294 0.039368 -0.004498 -1211170.000000 0 0 1
-33.218463 -4.731655 26.353578 42.665746 0.141489 0.905013 0.046616 -0.018869 84007.500000 0 0 1
-32.001423 -4.032755 27.020028 42.076551 0.125357 0.873479 0.039623 -0.014837 208541.000000 0 0 1
-31.867073 -2.608455 26.854298 41.754852 0.081672 0.872202 0.033519 -0.007345 -186334.000000 0 0 1
-31.434123 -2.290455 25.529038 40.559611 0.072737 0.889989 0.030681 -0.001078 -276538.000000 0 0 1
-31.272683 -0.804255 25.228618 40.188440 0.025712 0.892127 0.032472 -0.004180 347978.000000 0 0 1
-32.487823 -0.073655 25.113408 41.062724 0.002267 0.912732 0.043762 -0.016925 -290807.000000 0 0 1
-32.238563 1.203845 24.614008 40.578610 -0.037324 0.919050 0.028898 -0.007357 443787.000000 0 0 1
-33.483473 2.168545 24.440918 41.511493 -0.064674 0.941254 0.048364 -0.001124 343079.000000 0 0 1
-34.259533 1.803145 23.354178 41.501621 -0.052583 0.973113 0.046141 0.004141 230788.000000 0 0 1
-35.406929 2.615345 23.044878 42.326789 -0.073731 0.995061 0.041376 0.008462 923071.000000 0 0 1
-35.075111 3.986145 22.327578 41.769289 -0.113160 1.006827 0.040130 0.013282 -359165.000000 0 0 1
-34.574105 3.926645 20.992378 40.638248 -0.113087 1.027960 0.040360 -0.001837 101794.000000 0 0 1
-35.490203 3.424445 19.992378 40.877579 -0.096192 1.059762 0.032096 -0.005552 336913.000000 0 0 1
-34.801849 2.663445 18.833178 39.660449 -0.076383 1.075991 0.039485 -0.004332 175719.000000 0 0 1
-33.991693 3.480545 17.969678 38.606459 -0.102038 1.086645 0.054627 -0.009928 195338.000000 0 0 1
-33.507743 2.627945 16.921978 37.630151 -0.078268 1.104376 0.060382 -0.001985 -1141370.000000 0 0 1
-32.641753 3.453745 16.014978 36.522485 -0.105415 1.116871 0.046183 -0.002791 -396034.000000 0 0 1
-33.265553 4.467145 15.207978 36.848812 -0.133489 1.145366 0.054989 -0.003736 60522.600000 0 0 1
-32.182363 5.236545 14.704578 35.768009 -0.161301 1.147125 0.064151 -0.010517 260875.000000 0 0 1
-32.608763 6.578245 14.112378 36.135356 -0.199061 1.169576 0.077458 -0.020574 -295202.000000 0 0 1
-31.596683 7.205345 13.382778 35.062317 -0.224207 1.179177 0.080011 -0.019661 -343513.000000 0 0 1
-32.007913 8.446845 12.912978 35.533093 -0.258016 1.198874 0.069650 -0.018624 -317680.000000 0 0 1
-30.955633 9.177045 12.059578 34.465965 -0.288204 1.213334 0.073300 -0.016699 -269953.000000 0 0 1
-31.283023 10.479645 11.864378 35.060147 -0.323245 1.225580 0.067096 -0.011126 -338861.000000 0 0 1
-30.583393 11.032945 10.834778 34.270427 -0.346219 1.249122 0.047453 -0.017808 -619029.000000 0 0 1
-30.829893 12.541745 10.815378 34.996429 -0.386359 1.256610 0.046996 -0.010995 45967.100000 0 0 1
-30.170413 13.228345 9.777378 34.363353 -0.413211 1.282281 0.030733 -0.011096 131999.000000 0 0 1
-30.372043 14.607445 9.906978 35.128146 -0.448292 1.284893 0.042786 -0.010294 -64499.100000 0 0 1
-29.709033 15.367145 8.753278 34.574494 -0.477356 1.314839 0.044010 -0.016050 102622.000000 0 0 1
-28.314863 15.524645 8.953478 33.509861 -0.501526 1.300321 0.050014 -0.010804 85344.400000 0 0 1
-27.762683 16.490245 8.105178 33.292471 -0.535975 1.324871 0.039528 -0.018907 -169464.000000 0 0 1
-26.261733 16.725545 8.365778 32.239862 -0.567096 1.308307 0.048187 -0.010993 -156339.000000 0 0 1
-26.041403 17.347445 9.660178 32.747634 -0.587644 1.271353 0.044719 -0.010439 142135.000000 0 0 1
-26.326423 18.734945 9.764378 33.755322 -0.618496 1.277333 0.051281 -0.019313 -321554.000000 0 0 1
-26.328103 19.222045 11.233578 34.479694 -0.630640 1.238936 0.072341 -0.007341 75607.300000 0 0 1
-25.067153 19.056945 11.852678 33.645434 -0.650020 1.210788 0.065237 -0.007254 167590.000000 0 0 1
-25.061803 19.573145 13.192078 34.427211 -0.663045 1.177552 0.067812 -0.007656 66568.500000 0 0 1
-25.540363 18.581245 14.294578 34.668541 -0.628961 1.145796 0.071730 -0.004805 -285255.000000 0 0 1
-24.620463 17.593045 14.558878 33.580401 -0.620438 1.122365 0.068043 -0.000360 -204472.000000 0 0 1
-25.067733 16.922245 15.721178 34.086787 -0.593791 1.091438 0.066668 0.005105 415702.000000 0 0 1
-24.064963 15.792745 16.164578 33.012525 -0.580760 1.059108 0.063690 0.007416 221817.000000 0 0 1
-22.913163 16.303045 16.792978 32.753724 -0.618412 1.032465 0.067840 0.003296 154232.000000 0 0 1
-21.964063 15.270745 17.118878 31.759592 -0.607538 1.001530 0.050254 -0.005638 274449.000000 0 0 1
-22.278063 14.313445 18.323178 32.201330 -0.571078 0.965484 0.049957 0.009230 -483562.000000 0 0 1
-22.112963 14.912045 19.565378 33.078032 -0.593308 0.937889 0.046347 0.008167 234177.000000 0 0 1
-22.520463 14.044645 20.591578 33.592207 -0.557620 0.910961 0.029160 0.010527 -545895.000000 0 0 1
-22.366363 14.521245 22.074878 34.618217 -0.575844 0.879331 0.026615 0.008638 -115277.000000 0 0 1
-21.043863 14.508945 22.550378 34.086261 -0.603618 0.847889 0.029202 0.005005 -392141.000000 0 0 1
-20.299263 15.642845 22.244178 33.934674 -0.656562 0.855952 0.039977 0.017042 -261079.000000 0 0 1
-18.814463 15.530745 22.773978 33.374273 -0.690079 0.819781 0.050153 0.010984 900773.000000 0 0 1
-17.964663 14.833345 21.892078 31.969052 -0.690214 0.816481 0.037104 0.010302 -124610.000000 0 0 1
-17.638863 15.441845 20.642978 31.236399 -0.719082 0.848828 0.036712 0.012548 -1545480.000000 0 0 1
-16.456563 14.775345 19.935278 29.774899 -0.731620 0.837216 0.033419 0.016747 621452.000000 0 0 1
-15.229763 14.597045 20.648478 29.519130 -0.764188 0.796106 0.044414 0.017812 819127.000000 0 0 1
-14.508463 15.792045 21.005378 30.018496 -0.827735 0.795752 0.034218 0.013551 -500791.000000 0 0 1
-13.331963 15.564545 21.978078 30.050494 -0.862506 0.750465 0.023832 0.015655 -57958.700000 0 0 1
-12.252763 14.883745 21.364778 28.776897 -0.882050 0.734109 0.016060 0.021817 -272328.000000 0 0 1
-11.495363 14.284645 22.407278 28.953075 -0.893174 0.685793 0.033648 0.017291 -184325.000000 0 0 1
-10.313563 13.463045 21.896978 27.696585 -0.917093 0.659005 0.041161 0.016818 -959040.000000 0 0 1
-9.841963 12.617445 22.886978 27.926294 -0.908352 0.610172 0.045210 0.008388 494006.000000 0 0 1
-8.695363 11.834445 22.517178 26.882833 -0.937127 0.577913 0.047976 0.016745 1323650.000000 0 0 1
-7.307363 12.523745 22.774578 26.998577 -1.042612 0.566942 0.043919 0.019325 177069.000000 0 0 1
-7.049263 13.476045 21.711278 26.508027 -1.088843 0.611051 0.034909 0.017133 329813.000000 0 0 1
-6.225363 14.606045 22.128078 27.234969 -1.167894 0.622390 0.022861 0.024084 627844.000000 0 0 1
-7.046063 15.809345 22.728378 28.568541 -1.151533 0.650843 0.033342 0.006187 -227144.000000 0 0 1
-7.905663 16.385245 21.850978 28.433097 -1.121257 0.694295 0.013495 0.008023 -903038.000000 0 0 1
-7.404663 17.585045 21.276478 28.578862 -1.172253 0.731036 0.009318 0.014871 -1019480.000000 0 0 1
-8.155363 18.009345 19.965178 28.097238 -1.145583 0.780482 0.011158 0.024172 1371990.000000 0 0 1
-9.398763 18.729245 20.127878 29.056029 -1.105692 0.805534 0.008982 0.018463 1524750.000000 0 0 1
-10.437063 18.001845 20.851778 29.458366 -1.045379 0.784362 0.009027 0.021362 -139714.000000 0 0 1
-11.802063 18.682545 21.053778 30.521922 -1.007382 0.809595 0.004915 0.016538 415869.000000 0 0 1
-12.606563 18.752745 19.862678 30.085160 -0.978937 0.849691 0.010818 0.019079 202377.000000 0 0 1
-13.900263 19.248545 20.136178 31.131808 -0.945361 0.867410 0.012059 0.014045 204358.000000 0 0 1
-14.751363 19.515845 18.868878 30.895072 -0.923552 0.913801 0.023536 0.009409 -118541.000000 0 0 1
-15.303563 18.355045 18.304378 30.102441 -0.875811 0.917170 0.033727 0.012017 211708.000000 0 0 1
-16.089463 18.725045 17.155378 30.063352 -0.860958 0.963510 0.048981 0.000536 -434209.000000 0 0 1
-16.902263 17.495845 16.642578 29.474845 -0.802653 0.970803 0.041998 -0.001196 226146.000000 0 0 1
-17.973163 17.016045 17.390578 30.249175 -0.758050 0.958301 0.042296 -0.002593 -477298.000000 0 0 1
-19.125863 17.795445 17.517578 31.453808 -0.749380 0.980111 0.049600 -0.001466 -516527.000000 0 0 1
33.492680 -10.297955 11.714688 36.946467 -0.298295 1.248156 0.061468 -0.020242 -105579.000000 0 0 1
32.078830 -10.248055 11.722088 35.657836 -0.309217 1.235829 0.031622 -0.012681 200578.000000 0 0 1
31.508320 -11.426655 12.273388 35.692838 -0.347904 1.219770 0.066177 -0.016989 -784138.000000 0 0 1
30.044700 -11.619055 11.937988 34.354068 -0.369011 1.215894 0.032348 -0.007399 -1236930.000000 0 0 1
29.199960 -10.655455 12.561188 33.525510 -0.349898 1.186750 0.029385 -0.007987 661202.000000 0 0 1
27.842050 -11.070555 12.648188 32.522509 -0.378453 1.171353 0.023568 -0.005496 515615.000000 0 0 1
27.531170 -12.054455 13.844588 33.089996 -0.412702 1.139122 0.013746 -0.000441 -766137.000000 0 0 1
27.899320 -11.522155 15.123488 33.761694 -0.391655 1.106327 0.022450 -0.007589 288998.000000 0 0 1
27.294830 -12.088355 16.293888 34.009217 -0.416918 1.071165 0.029265 -0.013899 -16636.900000 0 0 1
25.812570 -11.747355 16.541288 32.831438 -0.427089 1.042776 0.037116 -0.022662 -133854.000000 0 0 1
25.561070 -10.442055 16.883088 32.364231 -0.387824 1.022002 0.033577 -0.023570 -39584.800000 0 0 1
24.929970 -9.718455 15.826388 31.087398 -0.371709 1.036665 0.045604 -0.019082 -40623.600000 0 0 1
24.879770 -8.214655 16.331788 30.874112 -0.318905 1.013398 0.069948 -0.020991 -1789250.000000 0 0 1
26.080170 -7.648855 16.430788 31.759267 -0.285283 1.027040 0.053475 -0.012090 -1986650.000000 0 0 1
25.922070 -6.278155 16.654888 31.444462 -0.237618 1.012596 0.058277 -0.011862 -380326.000000 0 0 1
27.119920 -5.422355 16.266788 32.085828 -0.197338 1.039122 0.053312 -0.008376 -382470.000000 0 0 1
27.342570 -5.263655 14.876988 31.569716 -0.190181 1.080098 0.056288 -0.007223 -25006.000000 0 0 1
28.460460 -4.420555 14.782188 32.373634 -0.154091 1.096613 0.052939 -0.002812 -277372.000000 0 0 1
28.599440 -3.743255 13.411288 31.808844 -0.130146 1.135564 0.060510 -0.005339 -297670.000000 0 0 1
29.113090 -4.517755 12.371888 31.953806 -0.153952 1.173225 0.027354 -0.005568 209010.000000 0 0 1
29.246010 -3.796155 11.135588 31.523661 -0.129079 1.209758 0.043903 -0.007786 165141.000000 0 0 1
29.817930 -4.646955 9.912288 31.764077 -0.154601 1.253436 0.042714 -0.003198 666164.000000 0 0 1
31.166660 -5.118555 9.976388 33.122328 -0.162779 1.264847 0.064841 -0.012161 671459.000000 0 0 1
31.600670 -5.492155 8.674788 33.226767 -0.172080 1.306657 0.063407 -0.020315 66169.700000 0 0 1
32.884520 -6.371455 8.694188 34.606011 -0.191381 1.316842 0.070407 -0.018757 8497.360000 0 0 1
34.060850 -5.597655 8.737688 35.606494 -0.162887 1.322868 0.083970 -0.017094 -971050.000000 0 0 1
35.124950 -6.423455 8.439288 36.691204 -0.180876 1.338710 0.080594 -0.027725 -469020.000000 0 0 1
-35.241655 -5.699455 8.071888 36.600729 0.160337 1.348429 0.077695 -0.018412 113988.000000 0 0 1
-35.358848 -4.888755 6.896788 36.355381 0.137390 1.379935 0.069847 -0.015479 385276.000000 0 0 1
-34.199266 -4.086355 6.668788 35.082201 0.118923 1.379542 0.053726 -0.001688 289082.000000 0 0 1
-34.202769 -3.362255 5.301188 34.774081 0.097989 1.417753 0.065018 -0.006385 -280428.000000 0 0 1
-34.085215 -4.222855 4.212288 34.603146 0.123263 1.448762 0.063723 -0.015338 194817.000000 0 0 1
-34.034093 -3.500055 3.029288 34.347437 0.102479 1.482486 0.071993 -0.013349 -4725.740000 0 0 1
-33.312123 -4.170055 1.829588 33.621931 0.124534 1.516353 0.088134 -0.020123 699.455000 0 0 1
-33.969383 -5.349455 1.349588 34.414489 0.156196 1.531571 0.086949 -0.005668 441222.000000 0 0 1
-34.988300 -5.137955 0.368188 35.365453 0.145806 1.560385 0.076725 -0.001542 27459.700000 0 0 1
-34.471296 -5.072155 -1.077212 34.859107 0.146093 1.601703 0.102948 -0.009307 -830423.000000 0 0 1
-34.087889 -6.349155 -1.501712 34.706643 0.184148 1.614079 0.100933 -0.015193 754633.000000 0 0 1
-33.101103 -6.439255 -2.558812 33.818553 0.192133 1.646532 0.097946 -0.016369 1589390.000000 0 0 1
-31.633103 -6.036255 -2.116712 32.273364 0.188554 1.636430 0.105121 -0.026708 251561.000000 0 0 1
-31.153043 -6.843755 -1.101812 31.914935 0.216247 1.605327 0.104726 -0.024026 -351235.000000 0 0 1
-29.893293 -6.371055 -0.692812 30.572525 0.209985 1.593460 0.102506 -0.034099 -442702.000000 0 0 1
-29.234083 -7.281355 0.305588 30.128775 0.244104 1.560653 0.077498 -0.024752 -553335.000000 0 0 1
-28.820983 -8.486055 -0.269212 30.045543 0.286348 1.579757 0.078265 -0.021529 207141.000000 0 0 1
-28.557493 -9.459855 0.657488 30.090722 0.319880 1.548944 0.083403 -0.013527 -310521.000000 0 0 1
-28.085273 -10.732555 -0.021712 30.066106 0.365017 1.571518 0.071721 -0.017311 470103.000000 0 0 1
-26.824123 -10.689655 -0.719112 28.884588 0.379220 1.595695 0.059344 -0.019842 946936.000000 0 0 1
-26.224643 -11.966555 -0.933612 28.840977 0.428089 1.603173 0.044379 -0.013813 -44756.800000 0 0 1
-26.793393 -13.069755 -1.919612 29.872886 0.453838 1.635100 0.052048 -0.014965 -649997.000000 0 0 1
-27.831213 -13.879055 -1.455612 31.133959 0.462596 1.617567 0.072300 -0.023078 -35471.400000 0 0 1
-28.042093 -14.979555 -2.315512 31.876443 0.490617 1.643501 0.068538 -0.029975 -462533.000000 0 0 1
-29.181433 -15.973455 -1.978512 33.325993 0.500833 1.630200 0.085046 -0.029506 -126926.000000 0 0 1
-28.921043 -16.638055 -0.782912 33.374609 0.522054 1.594257 0.066203 -0.023186 19511.100000 0 0 1
-30.010433 -17.343855 -0.240212 34.662560 0.524032 1.577726 0.073968 -0.020594 -135684.000000 0 0 1
-30.108343 -18.812355 -0.594612 35.507331 0.558471 1.587543 0.068731 -0.012548 55595.500000 0 0 1
-28.990613 -19.557055 -0.109212 34.970644 0.593475 1.573919 0.070664 -0.021505 531427.000000 0 0 1
-29.221393 -20.960755 -0.139512 35.961959 0.622248 1.574676 0.053091 -0.018536 55306.000000 0 0 1
-30.111373 -21.518455 0.985288 37.023094 0.620477 1.544180 0.048336 -0.012161 -423612.000000 0 0 1
-29.467613 -21.592155 2.212288 36.598574 0.632364 1.510312 0.043113 -0.012706 75443.400000 0 0 1
-30.353233 -22.093555 3.202388 37.678896 0.629194 1.485702 0.026921 -0.003240 336906.000000 0 0 1
-29.622623 -22.184855 4.558788 37.288740 0.642807 1.448233 0.015602 0.001956 -140221.000000 0 0 1
-29.234363 -20.925255 5.048688 36.304318 0.621236 1.431278 0.012075 -0.000631 309091.000000 0 0 1
-28.321743 -21.074755 6.145888 35.833481 0.639727 1.398432 0.005665 -0.001731 342401.000000 0 0 1
-28.039693 -19.776055 6.991088 35.017025 0.614266 1.369797 0.011265 0.003216 518172.000000 0 0 1
-26.998373 -20.021455 7.942988 34.537832 0.638091 1.338740 0.017261 -0.007263 196102.000000 0 0 1
-26.651383 -18.873255 8.697488 33.795595 0.616177 1.310512 0.021128 -0.012550 266944.000000 0 0 1
-25.546213 -19.196655 9.720788 33.400812 0.644427 1.275488 0.023607 -0.011157 310382.000000 0 0 1
-26.096903 -20.029955 10.776688 34.617690 0.654621 1.254230 0.019002 -0.015484 289140.000000 0 0 1
-25.091833 -20.280655 11.737088 34.331680 0.679756 1.221887 0.025894 -0.016405 -126591.000000 0 0 1
-24.656463 -19.101355 12.647088 33.656378 0.659122 1.185568 0.019862 -0.013625 -342123.000000 0 0 1
-23.863263 -18.091055 12.077188 32.289318 0.648673 1.187445 0.014165 -0.010056 12065.100000 0 0 1
-23.511063 -16.872855 12.746188 31.621648 0.622478 1.155912 0.016396 -0.006324 832443.000000 0 0 1
-22.722063 -17.036255 14.133688 31.722031 0.643352 1.109010 0.017386 -0.010147 38194.200000 0 0 1
-23.623463 -17.414455 15.127488 33.017755 0.635238 1.094870 0.018785 -0.015589 -760408.000000 0 0 1
-23.031863 -17.768855 16.317388 33.353501 0.657114 1.059595 0.027431 -0.012728 -323608.000000 0 0 1
-23.986963 -18.460855 17.325988 34.876459 0.655940 1.050910 0.028297 0.011197 329592.000000 0 0 1
-24.886363 -17.528655 17.922488 35.324218 0.613638 1.038665 0.033219 0.002434 16921.600000 0 0 1
-25.928603 -18.144055 18.647088 36.731636 0.610572 1.038333 0.017030 0.019705 -131978.000000 0 0 1
-26.832403 -17.163955 19.400488 37.295551 0.569081 1.023732 0.013290 0.015602 -133278.000000 0 0 1
-26.148253 -16.583955 20.505288 37.137926 0.565208 0.985869 0.020600 0.014726 326068.000000 0 0 1
-26.929873 -15.579055 21.133788 37.610663 0.524464 0.974104 0.027685 0.008676 -336378.000000 0 0 1
-26.194133 -14.922455 22.302688 37.499628 0.517832 0.933849 0.029823 0.010059 468703.000000 0 0 1
-25.044763 -14.195655 21.839888 36.134989 0.515659 0.921787 0.031537 0.007581 576018.000000 0 0 1
-24.093863 -14.013655 22.876088 36.058454 0.526801 0.883543 0.025229 0.007997 506564.000000 0 0 1
-22.781563 -13.334255 22.357088 34.592504 0.529547 0.868072 0.024079 0.015196 242673.000000 0 0 1
-22.966263 -11.963655 22.085088 34.034238 0.480246 0.864648 0.031932 0.011003 743880.000000 0 0 1
-21.790263 -11.380355 21.513288 32.667255 0.481303 0.851895 0.025513 0.009001 97383.800000 0 0 1
-21.602463 -9.855955 21.827788 32.253040 0.428033 0.827434 0.030503 0.011108 -12789.500000 0 0 1
-21.193463 -9.477555 23.134688 32.775001 0.420517 0.787154 0.027397 0.012068 603558.000000 0 0 1
-19.782363 -9.533155 23.315788 32.028876 0.449064 0.755452 0.019290 0.020212 422428.000000 0 0 1
-19.177163 -9.630155 24.737288 32.748082 0.465380 0.714561 0.008507 0.004808 252655.000000 0 0 1
-19.445863 -10.915255 25.319488 33.739603 0.511489 0.722071 0.015420 0.006185 86876.700000 0 0 1
-18.769763 -11.028755 26.553288 34.336781 0.531238 0.686737 0.012713 -0.001101 -964765.000000 0 0 1
-18.865363 -12.434055 27.136288 35.311269 0.582742 0.694322 0.013830 -0.015133 295267.000000 0 0 1
-20.013463 -12.841455 27.870588 36.636202 0.570476 0.706345 0.028400 -0.012879 -251972.000000 0 0 1
-21.159063 -13.102155 27.075988 36.776100 0.554434 0.743301 0.016591 -0.007546 -257778.000000 0 0 1
-22.353863 -13.315455 28.022788 38.239680 0.537227 0.748340 0.018505 -0.010585 -306911.000000 0 0 1
-22.443563 -14.524955 28.839988 39.324709 0.574388 0.747514 0.018385 -0.010861 -257867.000000 0 0 1
-21.656763 -14.415255 30.002088 39.710707 0.587280 0.714354 0.011934 -0.006880 163689.000000 0 0 1
-22.031763 -15.538955 31.072288 41.138118 0.614273 0.714660 0.011639 -0.014986 -484781.000000 0 0 1
-21.759763 -16.852455 30.573088 41.136434 0.658984 0.732938 0.017639 -0.013924 -169474.000000 0 0 1
-21.961163 -17.842255 31.575188 42.398481 0.682284 0.730674 0.015794 -0.013711 -56093.600000 0 0 1
-23.367863 -18.113255 32.171088 43.693545 0.659395 0.743226 0.031482 -0.015185 -54730.600000 0 0 1
-23.760663 -17.023255 32.974788 44.064690 0.621679 0.725260 0.035300 -0.025224 151773.000000 0 0 1
-25.009263 -17.329255 33.606488 45.333898 0.605954 0.735776 0.035235 -0.025994 205415.000000 0 0 1
-25.718603 -16.201055 -34.277803 45.813628 0.562140 2.416143 0.036149 -0.022782 19175.000000 0 0 1
-25.088333 -15.850355 -33.065103 44.429261 0.563461 2.410161 0.031612 -0.019653 -165852.000000 0 0 1
-25.992583 -15.060855 -32.336203 44.136989 0.525156 2.392978 0.040183 -0.022967 -286419.000000 0 0 1
-25.341263 -14.588655 -31.037503 42.641940 0.522351 2.385997 0.036081 -0.015570 -438511.000000 0 0 1
-25.501153 -15.509855 -29.949903 42.283107 0.546429 2.357909 0.050066 -0.010277 201558.000000 0 0 1
-24.799263 -15.015655 -28.828703 40.884807 0.544445 2.353389 0.066056 -0.007029 -190421.000000 0 0 1
-25.109973 -15.860855 -27.569903 40.523784 0.563371 2.319021 0.049212 -0.011117 999803.000000 0 0 1
-26.391433 -15.752055 -26.885803 40.834806 0.538109 2.289493 0.054751 -0.014217 1213160.000000 0 0 1
-26.713453 -14.566955 -26.206203 40.156816 0.499231 2.281803 0.066473 -0.011076 -198523.000000 0 0 1
-25.787653 -14.326155 -24.993203 38.663962 0.507089 2.273681 0.057473 -0.021003 -655559.000000 0 0 1
-24.458463 -13.942155 -25.300503 37.851229 0.518094 2.302878 0.038346 -0.018799 177926.000000 0 0 1
-23.635063 -14.302155 -24.206503 36.730405 0.544179 2.290327 0.052875 -0.018658 -206238.000000 0 0 1
-23.142563 -15.780855 -24.233403 37.038783 0.598473 2.284015 0.047172 -0.014702 -1211680.000000 0 0 1
-22.321463 -15.860055 -25.360303 37.322032 0.617758 2.317877 0.036397 -0.010963 -278608.000000 0 0 1
-21.796563 -17.142055 -25.534603 37.695572 0.666428 2.315005 0.035315 -0.016231 -285328.000000 0 0 1
-20.968463 -17.372755 -26.796903 38.204229 0.691890 2.348173 0.027744 -0.015212 -433250.000000 0 0 1
-21.665463 -17.443455 -27.985303 39.456858 0.677860 2.359249 0.025322 -0.014258 620.184000 0 0 1
-22.486963 -18.635555 -28.038203 40.485655 0.692014 2.335810 0.030720 -0.020416 106632.000000 0 0 1
-23.383563 -18.679155 -29.284603 41.872304 0.674018 2.345324 0.019825 -0.015212 42281.900000 0 0 1
-22.626463 -18.816255 -30.470803 42.361281 0.693717 2.373602 0.005249 -0.014390 363805.000000 0 0 1
-23.504263 -18.578355 -31.549703 43.508498 0.668875 2.382032 -0.000356 -0.011494 -521756.000000 0 0 1
-22.919463 -19.050255 -32.863703 44.364817 0.693468 2.404998 -0.000759 -0.017799 262459.000000 0 0 1
-21.747163 -18.331355 -33.276103 43.775298 0.700376 2.434351 0.001061 -0.011753 1457670.000000 0 0 1
-20.458063 -18.698555 -32.744603 42.899620 0.740493 2.439178 0.006802 -0.015339 520820.000000 0 0 1
-19.752863 -19.800655 -33.564503 43.690015 0.786606 2.446887 0.011630 -0.018628 -752124.000000 0 0 1
-19.389263 -19.382955 33.791588 43.514525 0.785235 0.681611 0.006219 -0.019509 -61967.600000 0 0 1
-19.102563 -20.498955 32.957588 43.258729 0.820645 0.704599 0.012240 -0.014116 -225067.000000 0 0 1
-20.286963 -21.289455 32.346088 43.715800 0.809506 0.737849 0.010696 -0.008003 -17957.300000 0 0 1
-21.070763 -21.962755 33.340788 45.143635 0.806123 0.739881 0.007680 -0.006657 1143350.000000 0 0 1
-22.365463 -22.456155 32.892288 45.677078 0.787422 0.766843 0.012911 0.002178 1194760.000000 0 0 1
-22.415563 -23.506255 31.751888 45.422284 0.809145 0.796745 0.026624 0.009395 -752569.000000 0 0 1
-21.760163 -24.706055 32.116188 45.992862 0.848712 0.797796 0.020536 0.009487 -299248.000000 0 0 1
-22.028363 -25.764675 31.226288 46.088483 0.863416 0.826398 0.025852 0.014730 25981.100000 0 0 1
-21.354263 -27.134025 31.515788 46.749382 0.904038 0.830992 0.032336 0.010811 130823.000000 0 0 1
-21.867563 -27.696185 32.745988 48.141133 0.902459 0.822750 0.010489 0.007192 -27995.700000 0 0 1
-21.201163 -28.844155 33.229788 48.843560 0.936949 0.822582 0.018239 0.003066 -1133620.000000 0 0 1
-21.949563 -29.638725 -34.319003 50.378878 0.933358 2.320222 0.018174 0.002405 595525.000000 0 0 1
-23.102463 -30.371745 33.831288 50.997281 0.920510 0.845451 0.018134 -0.002083 2099440.000000 0 0 1
-24.277263 -29.631705 33.368188 50.802159 0.884397 0.854194 0.013772 0.000210 916518.000000 0 0 1
-25.117843 -28.836175 -34.198203 51.302516 0.854206 2.300433 0.023663 0.003861 550837.000000 0 0 1
-26.408273 -28.419095 34.004988 51.588575 0.822057 0.851099 0.019002 0.002672 933926.000000 0 0 1
-27.366243 -28.251465 -33.594403 51.726594 0.801313 2.277672 0.018495 0.008634 -225932.000000 0 0 1
-28.515593 -27.352005 -33.954603 52.097853 0.764574 2.280682 0.011590 0.002844 -645735.000000 0 0 1
-29.437843 -27.970875 33.799388 52.833276 0.759851 0.876641 0.016798 -0.008726 -346605.000000 0 0 1
-30.254753 -26.926515 33.331388 52.453491 0.727259 0.882210 0.022272 -0.013026 -223767.000000 0 0 1
